********************************************************************************
Field Output Report, written Tue May 28 21:03:52 2024

Source 1
---------

   ODB: G:/Abaqus_calc_2019/1740/Vel_10/odb/zeides_2a_16_red_150_cal_30_vel_10_fric_050.odb
   Step: Step-1
   Frame: Increment   6348971: Step Time =   0.8347

Loc 1 : Nodal values from source 1

Output sorted by column "Nodal Label".

Field Output reported at nodes for region: DIE_2A_16_D0_36-1.Region_1
   Computation algorithm: EXTRAPOLATE_COMPUTE_AVERAGE
   Averaged at nodes
   Averaging regions: ODB_REGIONS

      Node Label     COORD.COOR1     COORD.COOR2
                          @Loc 1          @Loc 1
-------------------------------------------------
               1     20.1975E-03     119.445E-03


Field Output reported at nodes for region: DIE_2A_16_D0_36-1.Region_2
   Computation algorithm: EXTRAPOLATE_COMPUTE_AVERAGE
   Averaged at nodes
   Averaging regions: ODB_REGIONS

      Node Label     COORD.COOR1     COORD.COOR2
                          @Loc 1          @Loc 1
-------------------------------------------------
               1     20.1975E-03     119.445E-03


Field Output reported at nodes for part: WIRE-1
   Computation algorithm: EXTRAPOLATE_COMPUTE_AVERAGE
   Averaged at nodes
   Averaging regions: ODB_REGIONS

      Node Label     COORD.COOR1     COORD.COOR2           S.S11           S.S22           S.S33           S.S12         PE.PE11         PE.PE22         PE.PE33         PE.PE12         LE.LE11         LE.LE22         LE.LE33         LE.LE12
                          @Loc 1          @Loc 1          @Loc 1          @Loc 1          @Loc 1          @Loc 1          @Loc 1          @Loc 1          @Loc 1          @Loc 1          @Loc 1          @Loc 1          @Loc 1          @Loc 1
-------------------------------------------------------------------------------------------------------------------------------------------------------------------------------------------------------------------------------------------------
               1    -48.4316E-09     56.3747E-03    -22.0871E+06    -70.5376E+06    -22.0971E+06     5.91917E+03    -15.3891E-03     30.8907E-03    -15.5016E-03     2.04885E-03    -15.3652E-03     30.6022E-03    -15.4777E-03     2.04866E-03
               2     17.7264E-03     57.1625E-03    -1.48757E+06     152.913E+06     81.7944E+06     909.270E+03    -15.2904E-03     30.8435E-03    -15.5531E-03     74.8113E-03    -16.1757E-03     32.0291E-03    -15.3637E-03     75.5865E-03
               3     17.5511E-03     114.032E-03     16.7922E+06    -14.7037E+06     22.4850E+06     7.42404E+06     10.9811E-03     10.1663E-03    -21.1474E-03     1.22752E-03     11.0330E-03     10.0151E-03    -21.0380E-03     1.32328E-03
               4    -559.997E-09     112.995E-03     19.8745E+06     791.308E+03     19.3957E+06    -866.972E+03    -18.0104E-03     36.4295E-03    -18.4191E-03    -249.630E-06    -17.9406E-03     36.3763E-03    -18.3521E-03    -260.832E-06
               5    -22.1808E-09     41.6334E-18    -14.2727E+06    -58.8149E+06    -14.5452E+06    -664.497E+03    -13.5920E-03     27.1615E-03    -13.5695E-03     167.940E-06    -13.5564E-03     26.9094E-03    -13.5363E-03     159.493E-06
               6     17.6337E-03     41.6334E-18    -1.19432E+06     93.6432E+06     63.8152E+06     11.0228E+06    -35.1807E-03     53.8821E-03    -18.7013E-03     49.9424E-03    -35.4695E-03     54.3082E-03    -18.5163E-03     49.9772E-03
               7     886.205E-06     56.3764E-03    -21.7011E+06    -69.9960E+06    -21.0293E+06     22.5178E+03    -15.4166E-03     30.8927E-03    -15.4761E-03     3.53790E-03    -15.3931E-03     30.6047E-03    -15.4483E-03     3.53770E-03
               8     1.77249E-03     56.3811E-03    -20.7063E+06    -68.6531E+06    -18.1718E+06    -8.60230E+03    -15.4471E-03     30.9035E-03    -15.4563E-03     6.63473E-03    -15.4249E-03     30.6166E-03    -15.4176E-03     6.63368E-03
               9     2.65869E-03     56.3887E-03    -19.2243E+06    -66.7594E+06    -14.1804E+06    -13.2013E+03    -15.4533E-03     30.9220E-03    -15.4687E-03     9.90853E-03    -15.4322E-03     30.6368E-03    -15.4149E-03     9.90692E-03
              10     3.54496E-03     56.3996E-03    -17.4036E+06    -64.6257E+06    -9.73478E+06    -16.2030E+03    -15.4645E-03     30.9465E-03    -15.4820E-03     13.2999E-03    -15.4440E-03     30.6630E-03    -15.4117E-03     13.2977E-03
              11     4.43117E-03     56.4134E-03    -15.4478E+06    -62.7664E+06    -5.59593E+06    -1.07539E+03    -15.4860E-03     30.9797E-03    -15.4937E-03     16.8192E-03    -15.4647E-03     30.6969E-03    -15.4082E-03     16.8166E-03
              12     5.31747E-03     56.4308E-03    -13.5029E+06    -61.1552E+06    -2.16691E+06     43.7014E+03    -15.5190E-03     31.0214E-03    -15.5024E-03     20.4862E-03    -15.4956E-03     30.7392E-03    -15.4050E-03     20.4834E-03
              13     6.20368E-03     56.4515E-03    -11.6892E+06    -59.2627E+06     497.837E+03     25.3451E+03    -15.5634E-03     31.0709E-03    -15.5075E-03     24.3180E-03    -15.5380E-03     30.7922E-03    -15.4022E-03     24.3140E-03
              14     7.09000E-03     56.4760E-03    -10.0077E+06    -57.6688E+06     2.74248E+06     66.9074E+03    -15.6209E-03     31.1327E-03    -15.5119E-03     28.3017E-03    -15.5933E-03     30.8570E-03    -15.4000E-03     28.2970E-03
              15     7.97619E-03     56.5041E-03    -8.52833E+06    -55.9226E+06     4.41016E+06     86.9026E+03    -15.6890E-03     31.2031E-03    -15.5141E-03     32.4038E-03    -15.6601E-03     30.9325E-03    -15.3985E-03     32.3977E-03
              16     8.86253E-03     56.5362E-03    -7.30102E+06    -53.0837E+06     5.42002E+06     103.562E+03    -15.7623E-03     31.2745E-03    -15.5122E-03     36.5838E-03    -15.7345E-03     31.0166E-03    -15.3975E-03     36.5757E-03
              17     9.74869E-03     56.5721E-03    -6.27188E+06    -51.6994E+06     5.69988E+06     40.6554E+03    -15.8511E-03     31.3606E-03    -15.5095E-03     40.7554E-03    -15.8231E-03     31.1102E-03    -15.3969E-03     40.7433E-03
              18     10.6351E-03     56.6119E-03    -5.43249E+06    -47.8379E+06     4.19682E+06    -76.4524E+03    -15.9349E-03     31.4296E-03    -15.4947E-03     44.8644E-03    -15.9100E-03     31.2035E-03    -15.3965E-03     44.8469E-03
              19     11.5212E-03     56.6555E-03    -4.63300E+06    -38.8966E+06     5.15194E+06    -75.5635E+03    -15.9824E-03     31.4659E-03    -15.4834E-03     49.1238E-03    -15.9741E-03     31.2881E-03    -15.3946E-03     49.1013E-03
              20     12.4077E-03     56.7032E-03    -3.79281E+06    -35.9514E+06     3.22855E+06     105.443E+03    -16.1364E-03     31.6019E-03    -15.4655E-03     54.7627E-03    -16.1366E-03     31.4517E-03    -15.3918E-03     54.7362E-03
              21     13.2935E-03     56.7573E-03    -3.46459E+06    -28.8000E+06    -3.14952E+06     168.182E+03    -16.2548E-03     31.6751E-03    -15.4203E-03     59.8611E-03    -16.2732E-03     31.5881E-03    -15.3893E-03     59.8281E-03
              22     14.1806E-03     56.8146E-03    -3.31785E+06     -72.338E+03     660.370E+03     21.7134E+03    -16.1764E-03     31.5670E-03    -15.3906E-03     64.2364E-03    -16.2689E-03     31.6456E-03    -15.3824E-03     64.1990E-03
              23     15.0664E-03     56.8766E-03    -4.23423E+06     29.7621E+06    -1.53605E+06    -723.996E+03    -16.9808E-03     32.3137E-03    -15.3329E-03     82.8093E-03    -17.2403E-03     32.6683E-03    -15.3776E-03     82.7769E-03
              24     15.9523E-03     56.9686E-03    -4.40568E+06     73.3772E+06    -16.6808E+06    -1.04948E+06    -18.1908E-03     33.3886E-03    -15.1979E-03     115.991E-03    -19.0553E-03     34.5464E-03    -15.3813E-03     116.190E-03
              25     16.8387E-03     57.0951E-03    -2.46316E+06     129.858E+06     29.0739E+06     118.413E+03    -16.9147E-03     32.2493E-03    -15.3346E-03     104.054E-03    -18.0348E-03     33.7373E-03    -15.3739E-03     104.655E-03
              26     17.7252E-03     58.1436E-03    -1.12604E+06     153.289E+06     82.0058E+06    -363.104E+03    -15.5756E-03     31.1194E-03    -15.5438E-03     75.8643E-03    -16.4666E-03     32.3127E-03    -15.3544E-03     76.6207E-03
              27     17.7268E-03     59.1194E-03    -3.48241E+06     152.011E+06     81.6464E+06    -674.616E+03    -16.0535E-03     31.5880E-03    -15.5345E-03     75.3568E-03    -16.9561E-03     32.7811E-03    -15.3416E-03     76.1122E-03
              28     17.7249E-03     60.0982E-03    -1.85267E+06     153.601E+06     83.4560E+06     1.87159E+06    -15.9933E-03     31.5451E-03    -15.5518E-03     75.0451E-03    -16.8898E-03     32.7383E-03    -15.3546E-03     75.8326E-03
              29     17.7263E-03     61.0800E-03    -2.21120E+06     153.449E+06     82.0831E+06     772.236E+03    -15.0712E-03     30.6483E-03    -15.5771E-03     77.4658E-03    -15.9882E-03     31.8642E-03    -15.3860E-03     78.2616E-03
              30     17.7249E-03     62.0526E-03    -525.389E+03     154.523E+06     78.3017E+06     176.081E+03    -14.0860E-03     29.6473E-03    -15.5613E-03     76.2538E-03    -14.9795E-03     30.8605E-03    -15.3931E-03     77.0411E-03
              31     17.7275E-03     63.0303E-03    -1.14593E+06     154.633E+06     79.1682E+06    -1.51840E+06    -15.3504E-03     30.8752E-03    -15.5248E-03     78.5288E-03    -16.2624E-03     32.1027E-03    -15.3515E-03     79.2892E-03
              32     17.7245E-03     64.0125E-03    -3.60104E+06     152.811E+06     82.0819E+06    -533.624E+03    -17.3609E-03     32.8682E-03    -15.5072E-03     79.9129E-03    -18.3052E-03     34.1044E-03    -15.3132E-03     80.6746E-03
              33     17.7270E-03     64.9905E-03    -2.92417E+06     153.389E+06     81.1017E+06     712.594E+03    -15.8809E-03     31.4150E-03    -15.5341E-03     77.8652E-03    -16.8040E-03     32.6372E-03    -15.3468E-03     78.6546E-03
              34     17.7251E-03     65.9657E-03    -1.12676E+06     155.044E+06     81.3008E+06    -200.337E+03    -14.7060E-03     30.2582E-03    -15.5522E-03     77.9724E-03    -15.6169E-03     31.4798E-03    -15.3689E-03     78.7673E-03
              35     17.7270E-03     66.9447E-03    -2.00481E+06     154.595E+06     81.7444E+06    -21.1851E+03    -15.3402E-03     30.8867E-03    -15.5465E-03     76.9933E-03    -16.2476E-03     32.0988E-03    -15.3591E-03     77.7697E-03
              36     17.7247E-03     67.9199E-03    -3.03386E+06     155.038E+06     82.3389E+06     628.130E+03    -15.6714E-03     31.2200E-03    -15.5486E-03     75.5301E-03    -16.5759E-03     32.4254E-03    -15.3573E-03     76.3028E-03
              37     17.7268E-03     68.8992E-03    -2.02655E+06     155.987E+06     81.0466E+06     409.962E+03    -15.3201E-03     30.8590E-03    -15.5389E-03     75.1050E-03    -16.2133E-03     32.0638E-03    -15.3569E-03     75.8751E-03
              38     17.7255E-03     69.8764E-03    -2.82147E+06     156.069E+06     83.2670E+06    -600.101E+03    -15.3947E-03     30.9517E-03    -15.5570E-03     76.0176E-03    -16.3036E-03     32.1632E-03    -15.3629E-03     76.7821E-03
              39     17.7256E-03     70.8555E-03    -1.52676E+06     157.447E+06     82.8941E+06     1.44035E+06    -15.5171E-03     31.0718E-03    -15.5547E-03     75.1983E-03    -16.4210E-03     32.2889E-03    -15.3664E-03     75.9889E-03
              40     17.7262E-03     71.8297E-03    -2.10342E+06     156.568E+06     79.3751E+06     180.696E+03    -14.8688E-03     30.4066E-03    -15.5378E-03     75.5024E-03    -15.7651E-03     31.6211E-03    -15.3649E-03     76.2766E-03
              41     17.7261E-03     72.8131E-03    -1.06912E+06     157.818E+06     82.5492E+06    -220.196E+03    -15.1016E-03     30.6504E-03    -15.5487E-03     79.3675E-03    -16.0286E-03     31.8944E-03    -15.3633E-03     80.1513E-03
              42     17.7257E-03     73.7886E-03    -1.37420E+06     157.601E+06     83.1435E+06    -831.804E+03    -15.8276E-03     31.3661E-03    -15.5384E-03     79.1433E-03    -16.7619E-03     32.6138E-03    -15.3492E-03     79.9159E-03
              43     17.7263E-03     74.7641E-03    -3.62564E+06     155.031E+06     81.8828E+06    -1.16891E+06    -16.3352E-03     31.8616E-03    -15.5265E-03     75.0418E-03    -17.2418E-03     33.0683E-03    -15.3366E-03     75.7855E-03
              44     17.7251E-03     75.7447E-03    -2.43950E+06     156.136E+06     82.6868E+06     2.03634E+06    -15.9926E-03     31.5460E-03    -15.5534E-03     75.4054E-03    -16.8965E-03     32.7557E-03    -15.3628E-03     76.1969E-03
              45     17.7257E-03     76.7244E-03    -2.13787E+06     157.305E+06     81.4557E+06     1.16959E+06    -14.8599E-03     30.4341E-03    -15.5743E-03     76.8589E-03    -15.7768E-03     31.6658E-03    -15.3920E-03     77.6632E-03
              46     17.7259E-03     77.6965E-03    -2.33253E+06     156.764E+06     77.5886E+06    -1.27092E+06    -14.6343E-03     30.1670E-03    -15.5327E-03     75.8754E-03    -15.5387E-03     31.3947E-03    -15.3687E-03     76.6419E-03
              47     17.7269E-03     78.6774E-03    -398.554E+03     159.071E+06     79.6045E+06    -684.136E+03    -15.2473E-03     30.7565E-03    -15.5093E-03     78.7969E-03    -16.1630E-03     32.0046E-03    -15.3413E-03     79.5665E-03
              48     17.7256E-03     79.6601E-03    -518.675E+03     160.521E+06     82.3932E+06     21.0801E+03    -15.6501E-03     31.1713E-03    -15.5212E-03     82.7780E-03    -16.6034E-03     32.4536E-03    -15.3412E-03     83.5749E-03
              49     17.7267E-03     80.6319E-03    -3.85955E+06     157.286E+06     81.1345E+06    -552.048E+03    -16.0955E-03     31.6217E-03    -15.5262E-03     78.5104E-03    -17.0301E-03     32.8657E-03    -15.3430E-03     79.2761E-03
              50     17.7247E-03     81.6101E-03    -2.93345E+06     157.718E+06     79.6372E+06     1.12140E+06    -15.9915E-03     31.5165E-03    -15.5250E-03     74.9623E-03    -16.8909E-03     32.7344E-03    -15.3512E-03     75.7318E-03
              51     17.7270E-03     82.5892E-03    -1.88300E+06     158.839E+06     78.5376E+06     826.499E+03    -15.0391E-03     30.5718E-03    -15.5327E-03     75.1193E-03    -15.9328E-03     31.7950E-03    -15.3676E-03     75.8994E-03
              52     17.7249E-03     83.5647E-03    -1.95058E+06     159.456E+06     80.8208E+06    -419.320E+03    -14.7502E-03     30.3034E-03    -15.5532E-03     74.4954E-03    -15.6497E-03     31.5276E-03    -15.3774E-03     75.2649E-03
              53     17.7266E-03     84.5421E-03    -928.036E+03     160.359E+06     79.5450E+06     350.321E+03    -15.3640E-03     30.8818E-03    -15.5178E-03     75.2176E-03    -16.2610E-03     32.1142E-03    -15.3513E-03     75.9860E-03
              54     17.7261E-03     85.5216E-03    -2.68265E+06     159.236E+06     79.8671E+06     360.586E+03    -16.1744E-03     31.6750E-03    -15.5006E-03     78.4536E-03    -17.1033E-03     32.9281E-03    -15.3283E-03     79.2236E-03
              55     17.7258E-03     86.5058E-03    -1.66777E+06     160.406E+06     78.1712E+06     440.546E+03    -15.6367E-03     31.1368E-03    -15.5001E-03     81.6844E-03    -16.5880E-03     32.4249E-03    -15.3394E-03     82.4858E-03
              56     17.7273E-03     87.4765E-03    -2.99301E+06     159.026E+06     78.4537E+06    -1.04494E+06    -15.4374E-03     30.9396E-03    -15.5022E-03     78.9048E-03    -16.3718E-03     32.2004E-03    -15.3362E-03     79.6823E-03
              57     17.7249E-03     88.4555E-03    -1.90191E+06     159.652E+06     79.5673E+06     491.912E+03    -15.6957E-03     31.1988E-03    -15.5031E-03     75.4285E-03    -16.5965E-03     32.4289E-03    -15.3340E-03     76.2015E-03
              58     17.7277E-03     89.4332E-03    -1.85188E+06     159.307E+06     78.0316E+06     239.904E+03    -15.2592E-03     30.7530E-03    -15.4939E-03     75.8413E-03    -16.1595E-03     31.9860E-03    -15.3320E-03     76.6174E-03
              59     17.7255E-03     90.4095E-03    -2.69310E+06     158.299E+06     79.7597E+06    -486.476E+03    -15.5485E-03     31.0390E-03    -15.4906E-03     75.2152E-03    -16.4505E-03     32.2622E-03    -15.3174E-03     75.9745E-03
              60     17.7275E-03     91.3897E-03    -1.25481E+06     158.769E+06     77.2625E+06     465.517E+03    -15.5264E-03     30.9798E-03    -15.4534E-03     75.9580E-03    -16.4238E-03     32.2123E-03    -15.2955E-03     76.7317E-03
              61     17.7273E-03     92.3650E-03    -1.95550E+06     157.255E+06     78.6409E+06    -955.958E+03    -15.9387E-03     31.3727E-03    -15.4340E-03     76.0162E-03    -16.8418E-03     32.5991E-03    -15.2660E-03     76.7676E-03
              62     17.7270E-03     93.3471E-03    -1.55322E+06     155.957E+06     75.4523E+06    -413.537E+03    -15.9869E-03     31.3866E-03    -15.3997E-03     75.8469E-03    -16.8819E-03     32.6109E-03    -15.2463E-03     76.6054E-03
              63     17.7290E-03     94.3206E-03    -3.56378E+06     152.834E+06     73.6539E+06    -1.77305E+06    -16.4083E-03     31.7643E-03    -15.3559E-03     75.5458E-03    -17.3077E-03     32.9800E-03    -15.2041E-03     76.2831E-03
              64     17.7274E-03     95.3032E-03    -1.49895E+06     152.923E+06     74.7564E+06    -802.639E+03    -17.0504E-03     32.3737E-03    -15.3232E-03     75.6626E-03    -17.9402E-03     33.5843E-03    -15.1690E-03     76.3963E-03
              65     17.7299E-03     96.2827E-03    -1.84124E+06     151.125E+06     74.2648E+06    -647.335E+03    -16.9322E-03     32.2364E-03    -15.3042E-03     77.1626E-03    -17.8322E-03     33.4510E-03    -15.1493E-03     77.9071E-03
              66     17.7282E-03     97.2591E-03    -3.34757E+06     147.743E+06     75.8448E+06    -870.836E+03    -17.7530E-03     33.0378E-03    -15.2848E-03     75.3161E-03    -18.6463E-03     34.2237E-03    -15.1149E-03     76.0380E-03
              67     17.7300E-03     98.2415E-03    -1.15535E+06     146.142E+06     69.0728E+06    -397.678E+03    -18.0427E-03     33.2478E-03    -15.2050E-03     74.5464E-03    -18.9065E-03     34.4260E-03    -15.0699E-03     75.2585E-03
              68     17.7307E-03     99.2179E-03    -2.43817E+06     141.535E+06     66.9333E+06    -2.66108E+06    -19.1728E-03     34.3052E-03    -15.1324E-03     74.1880E-03    -20.0342E-03     35.4664E-03    -14.9994E-03     74.8502E-03
              69     17.7303E-03     100.204E-03    -2.98502E+06     138.360E+06     66.8864E+06    -2.53962E+06    -20.5723E-03     35.6620E-03    -15.0898E-03     74.1633E-03    -21.4355E-03     36.8120E-03    -14.9516E-03     74.7983E-03
              70     17.7312E-03     101.185E-03     419.819E+03     131.331E+06     63.5208E+06    -2.90998E+06    -21.1601E-03     36.2008E-03    -15.0406E-03     74.6260E-03    -21.9978E-03     37.3219E-03    -14.9141E-03     75.2394E-03
              71     17.7314E-03     102.167E-03    -2.26123E+06     125.025E+06     62.4475E+06    -2.16869E+06    -23.4655E-03     38.4352E-03    -14.9696E-03     73.6622E-03    -24.3038E-03     39.5283E-03    -14.8354E-03     74.2369E-03
              72     17.7314E-03     103.156E-03    -788.302E+03     121.764E+06     64.8381E+06    -697.392E+03    -25.9992E-03     40.9099E-03    -14.9107E-03     73.9730E-03    -26.8391E-03     41.9913E-03    -14.7619E-03     74.5133E-03
              73     17.7319E-03     104.143E-03    -2.39953E+06     119.449E+06     70.1325E+06    -932.638E+03    -28.0854E-03     42.9664E-03    -14.8810E-03     75.3400E-03    -28.9543E-03     44.0475E-03    -14.7001E-03     75.8377E-03
              74     17.7316E-03     105.136E-03    -919.676E+03     117.545E+06     78.6464E+06    -938.210E+03    -31.4908E-03     46.3190E-03    -14.8282E-03     78.2951E-03    -32.3879E-03     47.4024E-03    -14.6041E-03     78.7307E-03
              75     17.7326E-03     106.133E-03    -4.81633E+06     111.343E+06     81.9006E+06    -3.14675E+06    -35.2020E-03     49.9494E-03    -14.7474E-03     83.2427E-03    -36.1562E-03     51.0449E-03    -14.4924E-03     83.5747E-03
              76     17.7325E-03     107.135E-03     658.843E+03     106.730E+06     85.2308E+06    -2.05131E+06    -38.4773E-03     53.1307E-03    -14.6534E-03     92.8187E-03    -39.4844E-03     54.2731E-03    -14.3830E-03     93.0993E-03
              77     17.7343E-03     108.143E-03    -4.21043E+06     101.071E+06     81.3442E+06    -3.12752E+06    -41.4408E-03     55.9840E-03    -14.5431E-03     107.195E-03    -42.5770E-03     57.2299E-03    -14.2768E-03     107.387E-03
              78     17.7341E-03     109.154E-03    -1.30943E+06     92.5703E+06     72.5749E+06    -4.60086E+06    -42.3397E-03     56.7844E-03    -14.4447E-03     123.306E-03    -43.5468E-03     58.1067E-03    -14.2141E-03     123.412E-03
              79     17.7370E-03     110.161E-03    -9.62866E+06     68.4352E+06     31.0612E+06    -15.2363E+06    -39.6036E-03     53.8997E-03    -14.2961E-03     138.993E-03    -40.7968E-03     55.2128E-03    -14.2260E-03     138.912E-03
              80     17.7372E-03     111.162E-03     2.15909E+06     29.3778E+06     4.06177E+06    -20.1139E+06    -30.3432E-03     44.7277E-03    -14.3845E-03     148.881E-03    -31.1722E-03     45.6580E-03    -14.4099E-03     148.717E-03
              81     17.7392E-03     112.143E-03     8.02084E+06     1.24004E+06     4.07786E+06    -7.31374E+06    -6.40139E-03     21.6461E-03    -15.2447E-03     132.155E-03    -6.69131E-03     21.9631E-03    -15.2377E-03     132.129E-03
              82     17.7185E-03     113.073E-03    -8.70248E+06    -11.2618E+06     5.32033E+06     1.82570E+06     10.8097E-03     7.71876E-03    -18.5285E-03     57.0759E-03     10.7376E-03     7.68924E-03    -18.4729E-03     57.1183E-03
              83     16.6788E-03     113.886E-03    -3.72635E+06     15.5924E+06     37.6327E+06     3.85753E+06     8.03196E-03     13.7173E-03    -21.7492E-03     12.9482E-03     7.92816E-03     13.7383E-03    -21.5783E-03     12.9978E-03
              84     15.7741E-03     113.770E-03    -18.9914E+06     255.272E+03     44.1144E+06    -2.89345E+06    -6.48032E-03     29.0710E-03    -22.5907E-03     21.9234E-03    -6.64171E-03     29.0360E-03    -22.3430E-03     21.8815E-03
              85     14.9066E-03     113.638E-03    -9.46091E+06    -5.61781E+06     42.3976E+06    -7.91387E+06    -17.6822E-03     40.4286E-03    -22.7464E-03     14.4747E-03    -17.7909E-03     40.3474E-03    -22.5126E-03     14.3650E-03
              86     14.0372E-03     113.532E-03    -2.47950E+06      967.31E+03     44.0012E+06    -7.33578E+06    -18.8641E-03     41.5066E-03    -22.6425E-03     7.23105E-03    -18.9468E-03     41.4474E-03    -22.4203E-03     7.12981E-03
              87     13.1629E-03     113.449E-03     2.36358E+06    -4.92737E+06     46.0091E+06    -3.87136E+06    -22.8743E-03     45.3500E-03    -22.4757E-03     2.93525E-03    -22.9251E-03     45.2530E-03    -22.2419E-03     2.87731E-03
              88     12.2931E-03     113.374E-03     6.40146E+06     1.04188E+06     46.6675E+06    -3.27418E+06    -26.2559E-03     48.3217E-03    -22.0658E-03     481.357E-06    -26.2960E-03     48.2477E-03    -21.8433E-03     429.807E-06
              89     11.4241E-03     113.309E-03     9.71030E+06    -3.08809E+06     44.4630E+06    -2.79329E+06    -26.9336E-03     48.4353E-03    -21.5017E-03    -375.122E-06    -26.9475E-03     48.3393E-03    -21.2890E-03    -420.140E-06
              90     10.5538E-03     113.253E-03     11.8662E+06     937.676E+03     45.6838E+06    -2.17365E+06    -26.0282E-03     46.9461E-03    -20.9179E-03    -531.875E-06    -26.0385E-03     46.8657E-03    -20.7080E-03    -567.583E-06
              91     9.68116E-03     113.205E-03     13.1879E+06    -1.48476E+06     44.4479E+06    -1.96503E+06    -24.6004E-03     44.9791E-03    -20.3787E-03    -419.545E-06    -24.5983E-03     44.8868E-03    -20.1734E-03    -451.034E-06
              92     8.80640E-03     113.164E-03     14.0193E+06      650.36E+03     42.0834E+06    -1.63836E+06    -23.1823E-03     43.0823E-03    -19.9000E-03    -169.217E-06    -23.1754E-03     43.0032E-03    -19.7108E-03    -195.110E-06
              93     7.92965E-03     113.130E-03     14.5741E+06    -750.896E+03     38.7533E+06    -1.58260E+06    -21.9851E-03     41.4785E-03    -19.4934E-03     45.3845E-06    -21.9683E-03     41.3966E-03    -19.3197E-03     21.2625E-06
              94     7.05142E-03     113.100E-03     15.2910E+06     530.298E+03     36.4795E+06    -1.66351E+06    -20.9805E-03     40.1321E-03    -19.1516E-03     168.627E-06    -20.9585E-03     40.0590E-03    -18.9922E-03     144.237E-06
              95     6.17208E-03     113.074E-03     16.1337E+06    -742.104E+03     32.3437E+06    -1.59706E+06    -20.1263E-03     38.9902E-03    -18.8640E-03     227.352E-06    -20.0921E-03     38.9156E-03    -18.7246E-03     204.428E-06
              96     5.29167E-03     113.053E-03     16.9534E+06     268.284E+03     29.4608E+06    -1.37651E+06    -19.4510E-03     38.0872E-03    -18.6362E-03     228.035E-06    -19.4100E-03     38.0207E-03    -18.5139E-03     208.444E-06
              97     4.41061E-03     113.036E-03     17.7028E+06    -518.533E+03     26.5182E+06    -1.31103E+06    -18.9550E-03     37.4157E-03    -18.4607E-03     193.254E-06    -18.9047E-03     37.3484E-03    -18.3530E-03     174.907E-06
              98     3.52891E-03     113.021E-03     18.4281E+06    -37.3774E+03     23.9216E+06    -1.04255E+06    -18.5976E-03     36.9253E-03    -18.3277E-03     132.628E-06    -18.5406E-03     36.8632E-03    -18.2348E-03     118.079E-06
              99     2.64696E-03     113.010E-03     18.9596E+06    -454.944E+03     21.8892E+06    -818.013E+03    -18.3570E-03     36.5935E-03    -18.2365E-03     51.1692E-06    -18.2937E-03     36.5315E-03    -18.1539E-03     39.8119E-06
             100     1.76456E-03     113.002E-03     19.3883E+06    -89.8679E+03     20.6445E+06    -719.573E+03    -18.1805E-03     36.3727E-03    -18.1922E-03    -33.6475E-06    -18.1138E-03     36.3137E-03    -18.1169E-03    -43.4611E-06
             101     882.197E-06     112.998E-03     19.7655E+06    -440.285E+03     19.5423E+06    -844.301E+03    -18.0534E-03     36.3549E-03    -18.3015E-03    -161.296E-06    -17.9827E-03     36.2953E-03    -18.2319E-03    -172.398E-06
             102     199.268E-09     112.012E-03     17.0508E+06    -1.10469E+06     16.8366E+06    -608.555E+03    -16.5619E-03     33.2922E-03    -16.7303E-03     332.905E-06    -16.4996E-03     33.2374E-03    -16.6693E-03     324.954E-06
             103    -134.387E-09     111.034E-03     13.2750E+06    -2.98256E+06     13.5229E+06    -263.541E+03    -14.1004E-03     28.1538E-03    -14.0534E-03     1.01439E-03    -14.0493E-03     28.1000E-03    -14.0007E-03     1.01078E-03
             104     156.609E-09     110.062E-03     9.23733E+06    -5.59748E+06     9.57736E+06    -1.05316E+06    -12.4002E-03     24.7903E-03    -12.3900E-03     1.20238E-03    -12.3598E-03     24.7351E-03    -12.3474E-03     1.18856E-03
             105    -156.919E-09     109.091E-03     953.129E+03    -9.57467E+06     897.762E+03    -1.33179E+06    -11.2842E-03     22.5488E-03    -11.2646E-03     1.47622E-03    -11.2667E-03     22.4984E-03    -11.2476E-03     1.45883E-03
             106     190.549E-09     108.122E-03    -11.0399E+06    -14.1169E+06    -10.7246E+06    -1.65752E+06    -10.6102E-03     21.2170E-03    -10.6068E-03     1.75434E-03    -10.6293E-03     21.1782E-03    -10.6240E-03     1.73279E-03
             107    -216.004E-09     107.154E-03    -25.9143E+06    -20.5222E+06    -25.7931E+06    -2.02896E+06    -10.3160E-03     20.6461E-03    -10.3301E-03     1.92767E-03    -10.3783E-03     20.6186E-03    -10.3917E-03     1.90139E-03
             108     215.884E-09     106.186E-03    -43.4829E+06    -27.5011E+06    -43.2345E+06    -2.26261E+06    -10.3511E-03     20.6771E-03    -10.3260E-03     2.06855E-03    -10.4658E-03     20.6655E-03    -10.4393E-03     2.03928E-03
             109    -170.352E-09     105.217E-03    -60.7739E+06    -34.9547E+06    -60.9212E+06    -2.32957E+06    -10.5792E-03     21.1465E-03    -10.5673E-03     2.20292E-03    -10.7439E-03     21.1483E-03    -10.7331E-03     2.17280E-03
             110     141.935E-09     104.249E-03    -70.8418E+06    -42.0454E+06    -71.0142E+06    -1.79935E+06    -10.9602E-03     21.9398E-03    -10.9796E-03     2.26806E-03    -11.1504E-03     21.9354E-03    -11.1710E-03     2.24480E-03
             111    -152.362E-09     103.279E-03    -62.8831E+06    -45.7646E+06    -63.4480E+06    -448.922E+03    -11.4878E-03     22.9865E-03    -11.4987E-03     2.26959E-03    -11.6437E-03     22.9410E-03    -11.6584E-03     2.26375E-03
             112     134.500E-09     102.308E-03    -48.1425E+06    -44.5634E+06    -48.4501E+06     1.10119E+06    -12.0648E-03     24.1432E-03    -12.0784E-03     2.24386E-03    -12.1706E-03     24.0605E-03    -12.1862E-03     2.25802E-03
             113    -146.677E-09     101.336E-03    -37.2346E+06    -39.5558E+06    -37.4526E+06     1.86061E+06    -12.6267E-03     25.2773E-03    -12.6506E-03     2.20365E-03    -12.7011E-03     25.1879E-03    -12.7265E-03     2.22760E-03
             114     111.519E-09     100.363E-03    -30.5043E+06    -33.3853E+06    -30.2895E+06     1.90809E+06    -13.1435E-03     26.3126E-03    -13.1691E-03     2.18242E-03    -13.2036E-03     26.2340E-03    -13.2280E-03     2.20696E-03
             115    -121.738E-09     99.3893E-03    -25.3152E+06    -28.2068E+06    -25.1917E+06     1.20824E+06    -13.6143E-03     27.2341E-03    -13.6198E-03     2.17301E-03    -13.6634E-03     27.1664E-03    -13.6682E-03     2.18849E-03
             116     121.304E-09     98.4145E-03    -21.1063E+06    -24.6645E+06    -21.0448E+06     790.723E+03    -14.0371E-03     28.0437E-03    -14.0067E-03     2.18512E-03    -14.0763E-03     27.9816E-03    -14.0455E-03     2.19518E-03
             117    -68.4496E-09     97.4389E-03    -18.0293E+06    -23.0772E+06    -17.7406E+06     333.206E+03    -14.3667E-03     28.7246E-03    -14.3579E-03     2.20454E-03    -14.3976E-03     28.6612E-03    -14.3870E-03     2.20866E-03
             118     32.2889E-09     96.4628E-03    -16.2642E+06    -22.7637E+06    -16.1820E+06    -129.994E+03    -14.6174E-03     29.2691E-03    -14.6517E-03     2.20904E-03    -14.6422E-03     29.2024E-03    -14.6760E-03     2.20715E-03
             119    -58.3665E-09     95.4861E-03    -15.8155E+06    -24.1463E+06    -15.7373E+06    -601.207E+03    -14.8336E-03     29.6973E-03    -14.8638E-03     2.20427E-03    -14.8548E-03     29.6225E-03    -14.8845E-03     2.19628E-03
             120     29.5281E-09     94.5092E-03    -15.5312E+06    -25.9309E+06    -15.7675E+06    -471.647E+03    -15.0078E-03     30.0316E-03    -15.0237E-03     2.18526E-03    -15.0250E-03     29.9474E-03    -15.0425E-03     2.17893E-03
             121    -33.8688E-09     93.5319E-03    -15.5951E+06    -27.5012E+06    -15.3989E+06    -443.398E+03    -15.1423E-03     30.2922E-03    -15.1499E-03     2.16141E-03    -15.1580E-03     30.1998E-03    -15.1644E-03     2.15543E-03
             122     24.7237E-09     92.5545E-03    -15.3954E+06    -29.5780E+06    -15.4102E+06    -800.318E+03    -15.2395E-03     30.4979E-03    -15.2583E-03     2.12519E-03    -15.2512E-03     30.3948E-03    -15.2702E-03     2.11460E-03
             123    -51.1751E-09     91.5769E-03    -16.5964E+06    -32.1342E+06    -16.6963E+06    -774.582E+03    -15.3162E-03     30.6586E-03    -15.3424E-03     2.11056E-03    -15.3284E-03     30.5463E-03    -15.3552E-03     2.10029E-03
             124     28.0528E-09     90.5990E-03    -17.5230E+06    -34.7614E+06    -17.3547E+06    -801.322E+03    -15.3879E-03     30.7762E-03    -15.3882E-03     2.12106E-03    -15.3999E-03     30.6531E-03    -15.3992E-03     2.11044E-03
             125    -5.62053E-09     89.6213E-03    -18.7614E+06    -37.8659E+06    -18.7598E+06    -1.06455E+06    -15.4305E-03     30.8496E-03    -15.4191E-03     2.12409E-03    -15.4421E-03     30.7148E-03    -15.4308E-03     2.11006E-03
             126     1.27226E-09     88.6433E-03    -20.1323E+06    -41.0562E+06    -20.2168E+06    -888.495E+03    -15.4444E-03     30.8973E-03    -15.4529E-03     2.11425E-03    -15.4561E-03     30.7507E-03    -15.4653E-03     2.10249E-03
             127    -15.1712E-09     87.6656E-03    -21.3404E+06    -43.9056E+06    -21.3123E+06    -850.325E+03    -15.4410E-03     30.9249E-03    -15.4838E-03     2.10109E-03    -15.4531E-03     30.7673E-03    -15.4958E-03     2.08983E-03
             128    -48.6070E-09     86.6875E-03    -22.2285E+06    -46.3668E+06    -22.3764E+06    -810.005E+03    -15.4569E-03     30.9442E-03    -15.4873E-03     2.10762E-03    -15.4683E-03     30.7771E-03    -15.4997E-03     2.09687E-03
             129     54.7169E-09     85.7097E-03    -23.2976E+06    -48.8005E+06    -23.1941E+06    -668.605E+03    -15.4950E-03     30.9513E-03    -15.4562E-03     2.13046E-03    -15.5071E-03     30.7748E-03    -15.4677E-03     2.12154E-03
             130     6.97188E-09     84.7317E-03    -23.9243E+06    -51.2203E+06    -24.0431E+06    -647.693E+03    -15.4964E-03     30.9484E-03    -15.4519E-03     2.14197E-03    -15.5069E-03     30.7619E-03    -15.4632E-03     2.13331E-03
             131     6.66858E-09     83.7539E-03    -24.7232E+06    -53.4740E+06    -24.5937E+06    -722.746E+03    -15.4766E-03     30.9615E-03    -15.4849E-03     2.12659E-03    -15.4870E-03     30.7658E-03    -15.4945E-03     2.11696E-03
             132    -35.6542E-09     82.7758E-03    -24.7343E+06    -55.5540E+06    -24.8694E+06    -635.081E+03    -15.4821E-03     30.9750E-03    -15.4929E-03     2.11914E-03    -15.4891E-03     30.7693E-03    -15.5008E-03     2.11065E-03
             133     41.8430E-09     81.7981E-03    -25.3683E+06    -57.6356E+06    -25.2553E+06    -583.648E+03    -15.4813E-03     30.9707E-03    -15.4895E-03     2.12457E-03    -15.4879E-03     30.7561E-03    -15.4954E-03     2.11674E-03
             134    -63.3987E-09     80.8201E-03    -25.1653E+06    -59.4940E+06    -25.3175E+06    -555.581E+03    -15.4627E-03     30.9749E-03    -15.5122E-03     2.11808E-03    -15.4655E-03     30.7508E-03    -15.5160E-03     2.11061E-03
             135    -6.55290E-09     79.8423E-03    -25.1705E+06    -60.9670E+06    -25.1545E+06    -401.467E+03    -15.4719E-03     30.9848E-03    -15.5128E-03     2.10882E-03    -15.4729E-03     30.7530E-03    -15.5137E-03     2.10335E-03
             136     2.09671E-09     78.8643E-03    -25.0070E+06    -62.2735E+06    -25.0291E+06    -315.021E+03    -15.4945E-03     30.9855E-03    -15.4911E-03     2.13643E-03    -15.4928E-03     30.7469E-03    -15.4897E-03     2.13208E-03
             137     5.88626E-09     77.8865E-03    -24.9789E+06    -63.2905E+06    -25.0421E+06    -245.691E+03    -15.4857E-03     30.9807E-03    -15.4951E-03     2.14394E-03    -15.4824E-03     30.7370E-03    -15.4923E-03     2.14047E-03
             138    -33.4656E-09     76.9085E-03    -24.9996E+06    -64.2130E+06    -24.9203E+06    -283.400E+03    -15.4936E-03     30.9790E-03    -15.4853E-03     2.13226E-03    -15.4894E-03     30.7304E-03    -15.4806E-03     2.12830E-03
             139     74.5445E-09     75.9308E-03    -24.5711E+06    -65.2336E+06    -24.6064E+06    -276.745E+03    -15.4969E-03     30.9715E-03    -15.4746E-03     2.13727E-03    -15.4894E-03     30.7167E-03    -15.4674E-03     2.13340E-03
             140    -78.7645E-09     74.9529E-03    -24.1474E+06    -66.1900E+06    -24.1017E+06    -286.712E+03    -15.4635E-03     30.9684E-03    -15.5049E-03     2.12322E-03    -15.4533E-03     30.7075E-03    -15.4944E-03     2.11922E-03
             141     8.04170E-09     73.9751E-03    -23.6587E+06    -67.0328E+06    -23.6980E+06    -271.175E+03    -15.4531E-03     30.9756E-03    -15.5226E-03     2.10804E-03    -15.4398E-03     30.7093E-03    -15.5095E-03     2.10425E-03
             142    -63.0334E-09     72.9972E-03    -23.6134E+06    -67.7107E+06    -23.6673E+06    -233.523E+03    -15.4570E-03     30.9735E-03    -15.5165E-03     2.11659E-03    -15.4425E-03     30.7036E-03    -15.5024E-03     2.11329E-03
             143     9.91537E-09     72.0194E-03    -23.4000E+06    -68.1167E+06    -23.5362E+06     19.5084E+03    -15.4618E-03     30.9700E-03    -15.5081E-03     2.12286E-03    -15.4459E-03     30.6976E-03    -15.4931E-03     2.12282E-03
             144    -42.5573E-09     71.0415E-03    -23.5658E+06    -68.1154E+06    -23.4456E+06     38.9551E+03    -15.4764E-03     30.9680E-03    -15.4916E-03     2.11782E-03    -15.4614E-03     30.6957E-03    -15.4759E-03     2.11804E-03
             145     47.4561E-09     70.0638E-03    -23.3479E+06    -68.3112E+06    -23.2923E+06    -188.106E+03    -15.5036E-03     30.9705E-03    -15.4669E-03     2.12420E-03    -15.4875E-03     30.6967E-03    -15.4505E-03     2.12149E-03
             146     11.1072E-09     69.0858E-03    -23.0335E+06    -68.9011E+06    -23.0848E+06    -109.954E+03    -15.5089E-03     30.9749E-03    -15.4661E-03     2.15709E-03    -15.4906E-03     30.6974E-03    -15.4482E-03     2.15537E-03
             147     3.35525E-09     68.1081E-03    -23.3566E+06    -69.4202E+06    -23.2823E+06    -211.677E+03    -15.4840E-03     30.9746E-03    -15.4906E-03     2.16688E-03    -15.4663E-03     30.6953E-03    -15.4725E-03     2.16384E-03
             148    -30.7878E-09     67.1301E-03    -23.0471E+06    -70.0417E+06    -23.1407E+06    -250.688E+03    -15.4806E-03     30.9785E-03    -15.4979E-03     2.16952E-03    -15.4607E-03     30.6954E-03    -15.4786E-03     2.16598E-03
             149     24.3888E-09     66.1524E-03     -22.461E+06    -70.5355E+06    -22.4649E+06    -72.0629E+03    -15.4858E-03     30.9780E-03    -15.4921E-03     2.15782E-03    -15.4632E-03     30.6906E-03    -15.4696E-03     2.15659E-03
             150    -31.4447E-09     65.1745E-03    -22.6395E+06    -70.7515E+06    -22.6390E+06     4.97939E+03    -15.4797E-03     30.9701E-03    -15.4904E-03     2.13418E-03    -15.4574E-03     30.6821E-03    -15.4681E-03     2.13395E-03
             151     17.4555E-09     64.1968E-03    -22.1678E+06    -70.6617E+06    -22.2422E+06     32.5035E+03    -15.4744E-03     30.9739E-03    -15.4995E-03     2.13536E-03    -15.4505E-03     30.6851E-03    -15.4761E-03     2.13548E-03
             152    -50.9802E-09     63.2188E-03    -22.1153E+06    -70.5780E+06    -22.0345E+06     7.57691E+03    -15.4831E-03     30.9687E-03    -15.4856E-03     2.14338E-03    -15.4593E-03     30.6800E-03    -15.4614E-03     2.14318E-03
             153     78.6753E-09     62.2411E-03    -22.2466E+06    -70.5340E+06    -22.3281E+06     45.5741E+03    -15.4911E-03     30.9475E-03    -15.4565E-03     2.16030E-03    -15.4676E-03     30.6596E-03    -15.4336E-03     2.16060E-03
             154    -48.1968E-09     61.2632E-03    -22.1055E+06    -70.5380E+06    -21.9942E+06         887.027    -15.4644E-03     30.9285E-03    -15.4642E-03     2.13879E-03    -15.4407E-03     30.6399E-03    -15.4398E-03     2.13850E-03
             155     17.1697E-09     60.2857E-03    -21.7855E+06    -70.6540E+06    -21.8092E+06    -93.8258E+03    -15.4538E-03     30.9264E-03    -15.4726E-03     2.09176E-03    -15.4286E-03     30.6365E-03    -15.4476E-03     2.09026E-03
             156    -21.7095E-09     59.3076E-03    -21.8786E+06    -70.6976E+06    -21.8811E+06    -2.72020E+03    -15.4598E-03     30.9243E-03    -15.4645E-03     2.09600E-03    -15.4349E-03     30.6344E-03    -15.4396E-03     2.09568E-03
             157     15.8646E-09     58.3301E-03    -21.8993E+06    -70.6632E+06    -21.8983E+06     18.7743E+03    -15.4416E-03     30.9078E-03    -15.4661E-03     2.09439E-03    -15.4168E-03     30.6181E-03    -15.4414E-03     2.09435E-03
             158    -55.6117E-09     57.3522E-03    -21.9086E+06    -70.5589E+06    -21.9358E+06     58.8256E+03    -15.4075E-03     30.8947E-03    -15.4872E-03     2.07090E-03    -15.3828E-03     30.6056E-03    -15.4628E-03     2.07139E-03
             159    -48.9193E-09     55.3966E-03    -22.0301E+06    -70.2996E+06    -22.0887E+06     43.3432E+03    -15.4146E-03     30.8898E-03    -15.4752E-03     2.06770E-03    -15.3907E-03     30.6024E-03    -15.4518E-03     2.06798E-03
             160     36.0521E-09     54.4191E-03    -22.1979E+06    -70.1255E+06    -22.1552E+06     3.68180E+03    -15.4539E-03     30.8853E-03    -15.4314E-03     2.10488E-03    -15.4310E-03     30.5992E-03    -15.4083E-03     2.10464E-03
             161     15.0458E-09     53.4411E-03    -22.0851E+06    -70.1142E+06    -22.1278E+06     43.8812E+03    -15.4850E-03     30.8763E-03    -15.3913E-03     2.16669E-03    -15.4616E-03     30.5900E-03    -15.3683E-03     2.16695E-03
             162     97.1383E-09     52.4635E-03    -22.2875E+06    -70.0049E+06    -22.1672E+06     22.7240E+03    -15.4432E-03     30.8443E-03    -15.4011E-03     2.21791E-03    -15.4209E-03     30.5589E-03    -15.3781E-03     2.21788E-03
             163    -135.691E-09     51.4858E-03    -22.2347E+06    -70.0698E+06    -22.3315E+06    -30.3364E+03    -15.3665E-03     30.8082E-03    -15.4418E-03     2.14953E-03    -15.3436E-03     30.5226E-03    -15.4196E-03     2.14884E-03
             164     37.4612E-09     50.5083E-03    -22.1664E+06    -70.0320E+06    -22.1710E+06     20.0504E+03    -15.3656E-03     30.8003E-03    -15.4348E-03     2.07105E-03    -15.3426E-03     30.5146E-03    -15.4119E-03     2.07103E-03
             165    -63.9942E-09     49.5305E-03    -22.1220E+06    -70.1077E+06    -22.1172E+06    -37.3337E+03    -15.4000E-03     30.7922E-03    -15.3922E-03     2.04458E-03    -15.3769E-03     30.5059E-03    -15.3690E-03     2.04383E-03
             166     102.534E-09     48.5530E-03    -22.2616E+06    -70.2454E+06    -22.2169E+06    -9.89125E+03    -15.3881E-03     30.7642E-03    -15.3761E-03     2.05566E-03    -15.3653E-03     30.4777E-03    -15.3531E-03     2.05526E-03
             167    -121.393E-09     47.5753E-03    -22.1441E+06    -70.2955E+06    -22.1908E+06     15.2673E+03    -15.3294E-03     30.7165E-03    -15.3871E-03     2.04033E-03    -15.3060E-03     30.4295E-03    -15.3640E-03     2.04025E-03
             168     35.4635E-09     46.5978E-03    -22.2517E+06    -70.1688E+06    -22.1767E+06    -31.4047E+03    -15.3072E-03     30.6660E-03    -15.3588E-03     2.02383E-03    -15.2845E-03     30.3797E-03    -15.3357E-03     2.02316E-03
             169    -42.1799E-09     45.6203E-03    -22.1854E+06    -70.1099E+06    -22.3037E+06    -37.6274E+03    -15.3094E-03     30.6200E-03    -15.3106E-03     2.05062E-03    -15.2863E-03     30.3341E-03    -15.2883E-03     2.04985E-03
             170     43.3729E-09     44.6428E-03    -22.2145E+06    -70.1260E+06    -22.2002E+06     52.8441E+03    -15.2949E-03     30.5554E-03    -15.2606E-03     2.04958E-03    -15.2720E-03     30.2694E-03    -15.2377E-03     2.04999E-03
             171     14.3394E-09     43.6655E-03    -22.2908E+06    -70.2075E+06    -22.2677E+06     18.2693E+03    -15.2738E-03     30.4733E-03    -15.1996E-03     2.04476E-03    -15.2511E-03     30.1870E-03    -15.1768E-03     2.04472E-03
             172     57.7495E-09     42.6881E-03    -22.3499E+06    -70.1687E+06    -22.3027E+06     27.4778E+03    -15.2133E-03     30.3858E-03    -15.1724E-03     2.05391E-03    -15.1909E-03     30.0998E-03    -15.1498E-03     2.05399E-03
             173    -58.9022E-09     41.7110E-03    -22.3380E+06    -70.1043E+06    -22.3576E+06    -8.38978E+03    -15.1383E-03     30.2947E-03    -15.1564E-03     2.03880E-03    -15.1158E-03     30.0091E-03    -15.1342E-03     2.03841E-03
             174     25.6497E-09     40.7338E-03    -22.1517E+06    -69.8918E+06    -22.1556E+06     21.7700E+03    -15.0723E-03     30.1940E-03    -15.1217E-03     2.03502E-03    -15.0495E-03     29.9089E-03    -15.0990E-03     2.03502E-03
             175    -81.9265E-09     39.7569E-03    -22.1986E+06    -69.7490E+06    -22.2017E+06     90.5102E+03    -15.0026E-03     30.0341E-03    -15.0316E-03     1.99345E-03    -14.9802E-03     29.7499E-03    -15.0093E-03     1.99435E-03
             176     84.7716E-09     38.7800E-03    -22.3902E+06    -69.4987E+06    -22.3770E+06     85.5438E+03    -14.9503E-03     29.8495E-03    -14.8992E-03     1.98692E-03    -14.9290E-03     29.5671E-03    -14.8779E-03     1.98776E-03
             177     1.26701E-09     37.8035E-03    -22.2393E+06     -69.432E+06    -22.1889E+06    -41.3374E+03    -14.8708E-03     29.6786E-03    -14.8078E-03     1.96801E-03    -14.8491E-03     29.3960E-03    -14.7858E-03     1.96721E-03
             178     23.0798E-09     36.8268E-03    -22.1644E+06    -69.4760E+06    -22.3032E+06     52.9568E+03    -14.7274E-03     29.4586E-03    -14.7312E-03     1.91445E-03    -14.7051E-03     29.1758E-03    -14.7098E-03     1.91487E-03
             179    -57.5476E-09     35.8508E-03    -22.3451E+06    -69.3879E+06    -22.2539E+06    -44.9528E+03    -14.5790E-03     29.2130E-03    -14.6340E-03     1.87603E-03    -14.5578E-03     28.9309E-03    -14.6123E-03     1.87519E-03
             180    -6.29856E-09     34.8746E-03    -22.0761E+06    -69.5136E+06    -22.1791E+06    -63.2729E+03    -14.4437E-03     28.9477E-03    -14.5040E-03     1.82890E-03    -14.4210E-03     28.6644E-03    -14.4821E-03     1.82784E-03
             181    -39.6945E-09     33.8992E-03      -21.85E+06    -69.6631E+06    -21.8781E+06     18.6789E+03    -14.3200E-03     28.6460E-03    -14.3260E-03     1.77932E-03    -14.2964E-03     28.3612E-03    -14.3027E-03     1.77933E-03
             182     73.1239E-09     32.9236E-03    -21.8203E+06    -69.6845E+06    -21.7808E+06    -42.4785E+03    -14.1670E-03     28.3031E-03    -14.1360E-03     1.75890E-03    -14.1434E-03     28.0180E-03    -14.1123E-03     1.75812E-03
             183    -52.6883E-09     31.9487E-03    -21.9638E+06    -69.7744E+06    -22.0545E+06    -69.1748E+03    -13.9244E-03     27.9144E-03    -13.9900E-03     1.75954E-03    -13.9010E-03     27.6295E-03    -13.9673E-03     1.75840E-03
             184    -86.8088E-09     30.9740E-03    -21.9812E+06    -69.7359E+06    -21.9952E+06     31.5946E+03    -13.7275E-03     27.5108E-03    -13.7833E-03     1.67378E-03    -13.7043E-03     27.2260E-03    -13.7602E-03     1.67396E-03
             185     125.800E-09     29.9998E-03    -21.6681E+06    -69.5432E+06    -21.6850E+06     179.507E+03    -13.5723E-03     27.0750E-03    -13.5027E-03     1.65125E-03    -13.5483E-03     26.7903E-03    -13.4789E-03     1.65336E-03
             186    -42.8408E-09     29.0260E-03    -20.9887E+06    -68.9956E+06    -20.9181E+06     154.436E+03    -13.2994E-03     26.5774E-03    -13.2780E-03     1.62342E-03    -13.2739E-03     26.2934E-03    -13.2521E-03     1.62521E-03
             187    -2.67144E-09     28.0528E-03    -20.2923E+06    -68.5864E+06    -20.3145E+06     70.2315E+03    -12.9853E-03     26.0391E-03    -13.0538E-03     1.53110E-03    -12.9577E-03     25.7552E-03    -13.0265E-03     1.53181E-03
             188    -75.1079E-09     27.0801E-03    -19.9956E+06    -68.4666E+06    -20.0405E+06     140.195E+03    -12.7079E-03     25.4901E-03    -12.7822E-03     1.47297E-03    -12.6794E-03     25.2059E-03    -12.7541E-03     1.47459E-03
             189     19.1631E-09     26.1078E-03    -19.9105E+06    -68.0636E+06    -19.9423E+06     102.326E+03    -12.4297E-03     24.8886E-03    -12.4589E-03     1.39980E-03    -12.4016E-03     24.6062E-03    -12.4310E-03     1.40094E-03
             190    -16.3793E-09     25.1364E-03    -19.0749E+06    -67.4030E+06    -19.2117E+06     281.457E+03    -12.1332E-03     24.2468E-03    -12.1137E-03     1.30294E-03    -12.1029E-03     23.9655E-03    -12.0843E-03     1.30641E-03
             191     45.8249E-09     24.1654E-03    -18.7975E+06    -66.5069E+06    -18.5686E+06     222.964E+03    -11.8063E-03     23.6202E-03    -11.8139E-03     1.23179E-03    -11.7769E-03     23.3420E-03    -11.7830E-03     1.23451E-03
             192    -86.8990E-09     23.1951E-03    -18.1706E+06    -65.7253E+06    -18.3868E+06     197.272E+03    -11.4906E-03     22.9967E-03    -11.5061E-03     1.18755E-03    -11.4594E-03     22.7213E-03    -11.4764E-03     1.18995E-03
             193     97.1666E-09     22.2253E-03    -17.5575E+06    -64.7452E+06    -17.4418E+06     416.743E+03    -11.2030E-03     22.3722E-03    -11.1691E-03     1.17715E-03    -11.1716E-03     22.0993E-03    -11.1370E-03     1.18239E-03
             194    -46.4296E-09     21.2563E-03    -16.5691E+06    -63.5134E+06    -16.6240E+06     427.600E+03    -10.9008E-03     21.7680E-03    -10.8672E-03     1.14477E-03    -10.8674E-03     21.4987E-03    -10.8342E-03     1.15016E-03
             195     54.2414E-09     20.2876E-03    -15.6690E+06    -61.9454E+06    -15.6617E+06     529.702E+03    -10.6069E-03     21.2212E-03    -10.6143E-03     1.09560E-03    -10.5726E-03     20.9571E-03    -10.5801E-03     1.10231E-03
             196    -75.9261E-09     19.3197E-03    -14.3331E+06    -60.1097E+06    -14.4532E+06     586.228E+03    -10.3803E-03     20.7603E-03    -10.3800E-03     1.03951E-03    -10.3438E-03     20.5017E-03    -10.3443E-03     1.04696E-03
             197     96.1944E-09     18.3518E-03    -12.8879E+06    -57.7383E+06    -12.9221E+06     887.831E+03    -10.1771E-03     20.3471E-03    -10.1701E-03     977.233E-06    -10.1389E-03     20.0960E-03    -10.1323E-03     988.586E-06
             198    -105.015E-09     17.3848E-03    -10.4676E+06    -55.0789E+06    -10.3952E+06     818.065E+03    -9.96500E-03     19.9396E-03    -9.97464E-03     886.472E-06    -9.92227E-03     19.6946E-03    -9.93157E-03     896.935E-06
             199     96.9097E-09     16.4176E-03    -6.11198E+06    -52.4813E+06    -6.11325E+06     707.761E+03    -9.76850E-03     19.5198E-03    -9.75127E-03     828.654E-06    -9.71397E-03     19.2753E-03    -9.69688E-03     837.690E-06
             200    -58.6294E-09     15.4513E-03    -2.83124E+06    -50.4226E+06    -2.62628E+06     512.187E+03    -9.51763E-03     19.0024E-03    -9.48477E-03     734.123E-06    -9.45474E-03     18.7584E-03    -9.42069E-03     740.643E-06
             201     80.8486E-09     14.4852E-03    -2.32741E+06    -49.2223E+06    -2.37774E+06     263.533E+03    -9.19382E-03     18.2529E-03    -9.05904E-03     489.769E-06    -9.13052E-03     18.0137E-03    -8.99618E-03     493.107E-06
             202     136.560E-09     13.5205E-03    -4.83696E+06    -48.9114E+06    -4.67887E+06     78.7854E+03    -8.74806E-03     17.3247E-03    -8.57662E-03     356.662E-06    -8.69442E-03     17.0941E-03    -8.52208E-03     357.631E-06
             203    -46.4297E-09     12.5562E-03    -7.43127E+06    -48.7833E+06    -7.45220E+06    -111.843E+03    -8.15484E-03     16.2611E-03    -8.10629E-03     155.116E-06    -8.11036E-03     16.0389E-03    -8.06204E-03     153.629E-06
             204     42.6566E-09     11.5934E-03    -10.9504E+06    -49.1953E+06    -10.9721E+06    -137.859E+03    -7.45928E-03     14.9190E-03    -7.45975E-03    -5.61084E-06    -7.42670E-03     14.7050E-03    -7.42740E-03    -7.43448E-06
             205    -39.9254E-09     10.6316E-03    -14.4264E+06    -49.5335E+06    -14.4380E+06    -92.3380E+03    -6.76721E-03     13.5181E-03    -6.75091E-03     34.5824E-06    -6.74649E-03     13.3125E-03    -6.73036E-03     33.3329E-06
             206     66.1778E-09     9.67142E-03    -16.7675E+06    -49.7610E+06    -16.6263E+06    -55.8796E+03    -6.31689E-03     12.5899E-03    -6.27298E-03     185.121E-06    -6.30436E-03     12.3896E-03    -6.25964E-03     184.335E-06
             207    -12.4018E-09     8.71155E-03    -17.4135E+06    -50.3911E+06    -17.1575E+06     19.9674E+03    -6.32313E-03     12.6078E-03    -6.28469E-03     398.640E-06    -6.31214E-03     12.4062E-03    -6.27216E-03     398.833E-06
             208     30.1174E-09     7.75142E-03    -15.3230E+06    -50.7690E+06    -15.0525E+06    -225.226E+03    -6.87260E-03     13.7358E-03    -6.86317E-03     575.866E-06    -6.85368E-03     13.5261E-03    -6.84260E-03     572.902E-06
             209    -27.8983E-09     6.78931E-03    -11.6868E+06    -51.4968E+06    -11.7753E+06    -470.047E+03    -7.81234E-03     15.6301E-03    -7.81778E-03     747.723E-06    -7.77894E-03     15.4068E-03    -7.78504E-03     741.608E-06
             210     14.9386E-09     5.82523E-03    -7.90564E+06    -52.5772E+06    -7.86487E+06    -417.344E+03    -8.93127E-03     17.8606E-03    -8.92932E-03     843.770E-06    -8.88306E-03     17.6207E-03    -8.88094E-03     838.337E-06
             211     1.92786E-09     4.85912E-03    -3.72098E+06    -53.6670E+06    -3.87429E+06    -268.778E+03    -10.1057E-03     20.2265E-03    -10.1208E-03     858.448E-06    -10.0408E-03     19.9693E-03    -10.0569E-03     854.933E-06
             212    -47.3989E-09     3.89040E-03    -2.37239E+06    -55.1826E+06    -2.12064E+06    -699.745E+03    -11.2231E-03     22.4869E-03    -11.2637E-03     799.787E-06    -11.1517E-03     22.2176E-03    -11.1909E-03     790.708E-06
             213     23.3519E-09     2.91990E-03    -5.97505E+06    -57.5991E+06    -6.39490E+06    -777.385E+03    -12.1933E-03     24.4060E-03    -12.2127E-03     675.746E-06    -12.1301E-03     24.1361E-03    -12.1525E-03     665.649E-06
             214    -39.0592E-09     1.94761E-03    -10.5087E+06    -58.6935E+06    -10.9221E+06     141.310E+03    -12.9466E-03     25.8983E-03    -12.9518E-03     474.752E-06    -12.8978E-03     25.6361E-03    -12.9060E-03     476.527E-06
             215     40.1049E-09     974.087E-06    -13.4671E+06    -58.6568E+06    -12.9377E+06    -89.7630E+03    -13.4264E-03     26.8451E-03    -13.4187E-03     264.206E-06    -13.3895E-03     26.5903E-03    -13.3788E-03     263.104E-06
             216     887.824E-06     41.6334E-18    -14.4531E+06    -58.9440E+06    -14.7620E+06    -177.871E+03    -13.6159E-03     27.1997E-03    -13.5838E-03     220.122E-06    -13.5810E-03     26.9474E-03    -13.5512E-03     217.887E-06
             217     1.77559E-03     41.6334E-18    -14.6344E+06    -59.4521E+06    -15.6515E+06    -128.699E+03    -13.6866E-03     27.2989E-03    -13.6122E-03     385.526E-06    -13.6509E-03     27.0455E-03    -13.5830E-03     383.844E-06
             218     2.66325E-03     41.6334E-18    -14.8155E+06    -60.4530E+06    -17.5815E+06    -403.661E+03    -13.8077E-03     27.4530E-03    -13.6453E-03     605.902E-06    -13.7686E-03     27.1977E-03    -13.6241E-03     600.655E-06
             219     3.55080E-03     41.6334E-18    -14.9272E+06    -61.7063E+06    -20.0005E+06    -660.822E+03    -13.9783E-03     27.6694E-03    -13.6911E-03     830.991E-06    -13.9344E-03     27.4115E-03    -13.6800E-03     822.414E-06
             220     4.43816E-03     41.6334E-18    -14.6105E+06    -62.6077E+06    -22.6688E+06    -1.17468E+06    -14.1968E-03     27.9467E-03    -13.7499E-03     1.06011E-03    -14.1462E-03     27.6877E-03    -13.7513E-03     1.04488E-03
             221     5.32534E-03     41.6334E-18    -14.0010E+06    -64.7404E+06    -24.3449E+06    -1.28257E+06    -14.4695E-03     28.3004E-03    -13.8309E-03     1.31839E-03    -14.4104E-03     28.0323E-03    -13.8384E-03     1.30175E-03
             222     6.21216E-03     41.6334E-18    -13.2751E+06    -67.3893E+06    -26.6151E+06    -1.46453E+06    -14.7911E-03     28.7168E-03    -13.9256E-03     1.60444E-03    -14.7212E-03     28.4377E-03    -13.9418E-03     1.58541E-03
             223     7.09880E-03     41.6334E-18    -12.0566E+06    -68.4957E+06    -31.3736E+06    -2.18796E+06    -15.1625E-03     29.1834E-03    -14.0209E-03     1.92120E-03    -15.0780E-03     28.9039E-03    -14.0610E-03     1.89280E-03
             224     7.98496E-03     41.6334E-18    -9.94216E+06    -69.2552E+06    -34.1279E+06    -2.90783E+06    -15.5892E-03     29.7298E-03    -14.1405E-03     2.28257E-03    -15.4890E-03     29.4474E-03    -14.1963E-03     2.24482E-03
             225     8.87082E-03     41.6334E-18    -7.31300E+06    -68.2166E+06    -35.3050E+06    -3.00099E+06    -16.0921E-03     30.3746E-03    -14.2826E-03     2.66948E-03    -15.9785E-03     30.0954E-03    -14.3496E-03     2.63043E-03
             226     9.75614E-03     41.6334E-18    -4.38024E+06    -64.1200E+06    -38.0441E+06    -3.29846E+06    -16.7210E-03     31.1551E-03    -14.4341E-03     3.21737E-03    -16.5947E-03     30.8960E-03    -14.5250E-03     3.17442E-03
             227     10.6407E-03     41.6334E-18    -360.610E+03    -57.1807E+06    -40.8248E+06    -4.69405E+06    -17.4907E-03     32.0982E-03    -14.6075E-03     3.83967E-03    -17.3504E-03     31.8721E-03    -14.7282E-03     3.77855E-03
             228     11.5248E-03     41.6334E-18     4.92011E+06    -45.3575E+06    -42.2367E+06    -4.90256E+06    -18.4787E-03     33.2926E-03    -14.8139E-03     4.60223E-03    -18.3271E-03     33.1200E-03    -14.9665E-03     4.53820E-03
             229     12.4073E-03     41.6334E-18     10.4004E+06    -27.0254E+06    -40.3704E+06    -4.88832E+06    -19.6838E-03     34.7545E-03    -15.0707E-03     5.79265E-03    -19.5342E-03     34.6629E-03    -15.2484E-03     5.72858E-03
             230     13.2886E-03     41.6334E-18     13.8360E+06     3.27726E+06    -32.6777E+06    -3.07761E+06    -21.0970E-03     36.4899E-03    -15.3929E-03     6.92276E-03    -20.9853E-03     36.5338E-03    -15.5811E-03     6.88115E-03
             231     14.1696E-03     41.6334E-18     13.9505E+06     39.8606E+06    -15.7001E+06     807.647E+03    -23.7597E-03     39.6045E-03    -15.8448E-03     9.25770E-03    -23.7252E-03     39.8066E-03    -16.0013E-03     9.26544E-03
             232     15.0447E-03     41.6334E-18     13.5950E+06     67.1604E+06     8.85226E+06    -690.389E+03    -27.4213E-03     43.9096E-03    -16.4883E-03     13.6968E-03    -27.4637E-03     44.2128E-03    -16.5612E-03     13.6868E-03
             233     15.9144E-03     41.6334E-18     11.1157E+06     85.6312E+06     40.3657E+06    -1.21486E+06    -31.0438E-03     48.3720E-03    -17.3282E-03     24.3081E-03    -31.1746E-03     48.7279E-03    -17.2666E-03     24.2793E-03
             234     16.7767E-03     41.6334E-18     3.56579E+06     93.7777E+06     61.2914E+06     6.02612E+06    -34.0348E-03     52.2846E-03    -18.2498E-03     41.1665E-03    -34.2726E-03     52.6864E-03    -18.0845E-03     41.1773E-03
             235     17.6905E-03     1.00185E-03    -428.082E+03     101.229E+06     64.4745E+06     8.13510E+06    -34.3105E-03     51.9594E-03    -17.6489E-03     47.2337E-03    -34.6267E-03     52.4462E-03    -17.4727E-03     47.2305E-03
             236     17.7078E-03     2.01445E-03    -676.851E+03     113.496E+06     68.9516E+06     6.17253E+06    -37.6604E-03     53.7698E-03    -16.1095E-03     47.7331E-03    -38.0583E-03     54.3718E-03    -15.9283E-03     47.6676E-03
             237     17.7182E-03     3.02913E-03    -1.24123E+06     122.660E+06     73.4128E+06     4.45315E+06    -41.8239E-03     57.2236E-03    -15.3997E-03     55.5588E-03    -42.3171E-03     57.9360E-03    -15.2087E-03     55.4312E-03
             238     17.7232E-03     4.03341E-03    -1.61121E+06     128.942E+06     76.3514E+06     247.448E+03    -42.9670E-03     58.0592E-03    -15.0922E-03     60.3874E-03    -43.5311E-03     58.8550E-03    -14.8951E-03     60.2003E-03
             239     17.7226E-03     5.04708E-03    -3.57186E+06     131.129E+06     77.7798E+06     842.938E+03    -42.9701E-03     58.0149E-03    -15.0448E-03     63.8255E-03    -43.5944E-03     58.8674E-03    -14.8408E-03     63.6722E-03
             240     17.7226E-03     6.05084E-03    -2.90680E+06     134.140E+06     74.3611E+06     2.99197E+06    -39.5695E-03     54.6769E-03    -15.1074E-03     66.6633E-03    -40.2183E-03     55.5757E-03    -14.9259E-03     66.6075E-03
             241     17.7233E-03     7.04655E-03    -2.41762E+06     136.879E+06     74.9106E+06     953.356E+03    -37.2930E-03     52.4578E-03    -15.1647E-03     65.4104E-03    -37.9510E-03     53.3757E-03    -14.9851E-03     65.3865E-03
             242     17.7216E-03     8.04719E-03    -2.68107E+06     138.239E+06     74.8732E+06     800.347E+03    -36.3741E-03     51.5715E-03    -15.1974E-03     64.5659E-03    -37.0499E-03     52.5114E-03    -15.0196E-03     64.5779E-03
             243     17.7234E-03     9.04360E-03    -1.60855E+06     139.716E+06     69.9236E+06     1.11735E+06    -33.7738E-03     48.9929E-03    -15.2191E-03     66.6380E-03    -34.4608E-03     49.9677E-03    -15.0698E-03     66.7134E-03
             244     17.7226E-03     10.0423E-03    -1.36860E+06     141.272E+06     68.9877E+06    -108.746E+03    -32.2919E-03     47.5357E-03    -15.2438E-03     72.7725E-03    -33.0245E-03     48.5653E-03    -15.1018E-03     72.8863E-03
             245     17.7231E-03     11.0373E-03    -1.27037E+06     142.747E+06     72.5788E+06     161.090E+03    -32.2557E-03     47.5234E-03    -15.2677E-03     74.0226E-03    -33.0203E-03     48.5796E-03    -15.1099E-03     74.1729E-03
             246     17.7225E-03     12.0275E-03    -1.43987E+06     143.033E+06     72.5518E+06     101.568E+03    -30.8801E-03     46.1739E-03    -15.2938E-03     70.3823E-03    -31.6360E-03     47.2218E-03    -15.1363E-03     70.5802E-03
             247     17.7235E-03     13.0196E-03    -1.94565E+06     143.189E+06     74.1096E+06     242.476E+03    -29.9653E-03     45.2891E-03    -15.3237E-03     70.0644E-03    -30.7357E-03     46.3460E-03    -15.1580E-03     70.3076E-03
             248     17.7222E-03     14.0128E-03    -1.66192E+06     143.930E+06     74.4090E+06     359.447E+03    -29.6161E-03     44.9413E-03    -15.3252E-03     70.6043E-03    -30.4017E-03     46.0162E-03    -15.1594E-03     70.8770E-03
             249     17.7244E-03     15.0024E-03    -2.30011E+06     143.787E+06     74.4349E+06     165.979E+03    -29.0930E-03     44.4186E-03    -15.3255E-03     69.8814E-03    -29.8895E-03     45.5014E-03    -15.1585E-03     70.1841E-03
             250     17.7222E-03     15.9942E-03    -1.56526E+06     144.790E+06     76.1041E+06     788.277E+03    -28.0926E-03     43.4367E-03    -15.3440E-03     69.3998E-03    -28.8892E-03     44.5211E-03    -15.1712E-03     69.7452E-03
             251     17.7253E-03     16.9835E-03    -2.10645E+06     144.631E+06     75.5789E+06    -69.8779E+03    -26.7466E-03     42.0993E-03    -15.3527E-03     70.6518E-03    -27.5569E-03     43.1965E-03    -15.1815E-03     71.0283E-03
             252     17.7230E-03     17.9720E-03    -1.94788E+06     145.176E+06     78.4156E+06     677.113E+03    -25.9553E-03     41.3286E-03    -15.3734E-03     71.0739E-03    -26.7771E-03     42.4317E-03    -15.1890E-03     71.4910E-03
             253     17.7253E-03     18.9611E-03    -1.24411E+06     146.050E+06     78.6547E+06    -3.38275E+03    -24.4086E-03     39.8056E-03    -15.3970E-03     71.6668E-03    -25.2329E-03     40.9159E-03    -15.2137E-03     72.1141E-03
             254     17.7240E-03     19.9448E-03    -2.48008E+06     145.313E+06     79.3795E+06    -1.08198E+06    -23.5938E-03     39.0105E-03    -15.4167E-03     71.7504E-03    -24.4296E-03     40.1232E-03    -15.2269E-03     72.2170E-03
             255     17.7248E-03     20.9319E-03    -2.55963E+06     145.556E+06     79.5150E+06     438.962E+03    -23.2009E-03     38.6291E-03    -15.4282E-03     71.2871E-03    -24.0364E-03     39.7416E-03    -15.2379E-03     71.7929E-03
             256     17.7245E-03     21.9163E-03    -2.33459E+06     146.186E+06     80.5423E+06     307.723E+03    -22.2757E-03     37.7314E-03    -15.4557E-03     72.2837E-03    -23.1212E-03     38.8540E-03    -15.2616E-03     72.8204E-03
             257     17.7244E-03     22.9018E-03    -1.38627E+06     147.533E+06     79.5821E+06     949.953E+03    -21.4847E-03     36.9375E-03    -15.4529E-03     72.9381E-03    -22.3342E-03     38.0751E-03    -15.2669E-03     73.5140E-03
             258     17.7259E-03     23.8826E-03    -2.24762E+06     146.973E+06     79.0412E+06    -282.827E+03    -21.0048E-03     36.4498E-03    -15.4450E-03     73.1667E-03    -21.8618E-03     37.5913E-03    -15.2596E-03     73.7497E-03
             259     17.7243E-03     24.8700E-03    -1.03972E+06     148.477E+06     78.8269E+06    -355.064E+03    -20.0621E-03     35.5148E-03    -15.4527E-03     75.2733E-03    -20.9313E-03     36.6789E-03    -15.2724E-03     75.8883E-03
             260     17.7269E-03     25.8501E-03    -2.67165E+06     147.915E+06     78.3304E+06    -899.301E+03    -19.4497E-03     34.9112E-03    -15.4614E-03     76.8685E-03    -20.3403E-03     36.0902E-03    -15.2804E-03     77.5048E-03
             261     17.7239E-03     26.8318E-03    -2.02500E+06     149.208E+06     81.1890E+06     938.462E+03    -19.1593E-03     34.6498E-03    -15.4905E-03     75.6711E-03    -20.0424E-03     35.8201E-03    -15.2980E-03     76.3355E-03
             262     17.7265E-03     27.8139E-03    -1.63920E+06     149.860E+06     79.4548E+06     1.20108E+06    -17.8334E-03     33.3408E-03    -15.5074E-03     76.6100E-03    -18.7177E-03     34.5209E-03    -15.3250E-03     77.3048E-03
             263     17.7248E-03     28.7909E-03    -3.45259E+06     148.426E+06     80.3711E+06     117.975E+03    -18.0593E-03     33.5747E-03    -15.5154E-03     76.0756E-03    -18.9509E-03     34.7480E-03    -15.3238E-03     76.7617E-03
             264     17.7253E-03     29.7740E-03    -1.83068E+06     150.178E+06     80.9413E+06     893.943E+03    -17.9578E-03     33.4730E-03    -15.5152E-03     74.6243E-03    -18.8355E-03     34.6427E-03    -15.3256E-03     75.3204E-03
             265     17.7260E-03     30.7500E-03    -2.14735E+06     150.153E+06     80.7152E+06    -467.537E+03    -17.4155E-03     32.9271E-03    -15.5115E-03     74.0089E-03    -18.2921E-03     34.0950E-03    -15.3226E-03     74.7040E-03
             266     17.7251E-03     31.7326E-03    -36.4539E+03     152.397E+06     80.6843E+06    -393.342E+03    -17.0766E-03     32.5792E-03    -15.5026E-03     74.5496E-03    -17.9526E-03     33.7622E-03    -15.3201E-03     75.2572E-03
             267     17.7270E-03     32.7119E-03    -2.53521E+06     150.296E+06     78.5843E+06    -1.07561E+06    -17.1000E-03     32.5942E-03    -15.4942E-03     77.6241E-03    -18.0075E-03     33.7984E-03    -15.3155E-03     78.3418E-03
             268     17.7247E-03     33.6926E-03    -3.49905E+06     149.515E+06     78.9628E+06     588.115E+03    -17.1647E-03     32.6754E-03    -15.5107E-03     78.4869E-03    -18.0871E-03     33.8872E-03    -15.3276E-03     79.2324E-03
             269     17.7265E-03     34.6733E-03    -806.597E+03     152.269E+06     81.2317E+06     939.780E+03    -15.2838E-03     30.8536E-03    -15.5699E-03     80.0741E-03    -16.2083E-03     32.0804E-03    -15.3833E-03     80.8571E-03
             270     17.7247E-03     35.6478E-03    -2.44535E+06     151.113E+06     81.3345E+06     999.304E+03    -15.8929E-03     31.4573E-03    -15.5644E-03     82.1714E-03    -16.8428E-03     32.6991E-03    -15.3733E-03     82.9692E-03
             271     17.7262E-03     36.6284E-03    -2.29608E+06     151.290E+06     80.3392E+06     53.2398E+03    -17.5974E-03     33.0993E-03    -15.5020E-03     79.8844E-03    -18.5321E-03     34.3300E-03    -15.3163E-03     80.6387E-03
             272     17.7258E-03     37.6065E-03    -1.96392E+06     151.526E+06     81.9201E+06    -531.682E+03    -16.8206E-03     32.3381E-03    -15.5175E-03     77.4715E-03    -17.7336E-03     33.5444E-03    -15.3248E-03     78.2228E-03
             273     17.7258E-03     38.5854E-03    -2.05833E+06     151.485E+06     80.9048E+06     149.504E+03    -15.7770E-03     31.3129E-03    -15.5359E-03     78.6015E-03    -16.6947E-03     32.5264E-03    -15.3481E-03     79.3823E-03
             274     17.7265E-03     39.5639E-03    -1.50382E+06     151.944E+06     80.0164E+06    -1.10856E+06    -15.6357E-03     31.1560E-03    -15.5203E-03     79.5691E-03    -16.5557E-03     32.3780E-03    -15.3384E-03     80.3316E-03
             275     17.7261E-03     40.5409E-03    -1.67724E+06     151.660E+06     82.7298E+06    -396.123E+03    -16.1249E-03     31.6621E-03    -15.5373E-03     78.1580E-03    -17.0385E-03     32.8683E-03    -15.3411E-03     78.9148E-03
             276     17.7251E-03     41.5197E-03    -3.06883E+06     150.172E+06     81.9657E+06     769.233E+03    -15.8304E-03     31.3933E-03    -15.5629E-03     76.3581E-03    -16.7341E-03     32.5815E-03    -15.3663E-03     77.1272E-03
             277     17.7261E-03     42.4949E-03    -2.43563E+06     150.786E+06     78.5926E+06     881.097E+03    -15.5900E-03     31.1207E-03    -15.5307E-03     75.8443E-03    -16.4833E-03     32.3127E-03    -15.3528E-03     76.6203E-03
             278     17.7264E-03     43.4744E-03    -2.42125E+06     151.421E+06     80.9401E+06    -504.975E+03    -16.1230E-03     31.6502E-03    -15.5272E-03     75.8991E-03    -17.0196E-03     32.8411E-03    -15.3386E-03     76.6503E-03
             279     17.7249E-03     44.4558E-03    -3.01311E+06     151.068E+06     81.8367E+06     547.926E+03    -15.5719E-03     31.1380E-03    -15.5661E-03     76.0139E-03    -16.4796E-03     32.3340E-03    -15.3716E-03     76.7956E-03
             280     17.7263E-03     45.4268E-03    -1.01361E+06     152.100E+06     79.1303E+06     575.785E+03    -14.4042E-03     29.9658E-03    -15.5615E-03     74.6589E-03    -15.2869E-03     31.1552E-03    -15.3849E-03     75.4446E-03
             281     17.7261E-03     46.4084E-03    -1.52691E+06     152.390E+06     80.3955E+06    -1.04017E+06    -15.1494E-03     30.6924E-03    -15.5430E-03     78.9962E-03    -16.0656E-03     31.9110E-03    -15.3598E-03     79.7625E-03
             282     17.7258E-03     47.3902E-03    -2.17899E+06     152.264E+06     81.5206E+06     411.057E+03    -16.7145E-03     32.2299E-03    -15.5154E-03     81.3659E-03    -17.6629E-03     33.4747E-03    -15.3254E-03     82.1506E-03
             283     17.7263E-03     48.3625E-03    -789.725E+03     152.307E+06     81.3222E+06     783.755E+03    -15.7725E-03     31.3030E-03    -15.5305E-03     76.9824E-03    -16.6731E-03     32.5056E-03    -15.3436E-03     77.7590E-03
             284     17.7257E-03     49.3452E-03    -1.55821E+06     152.492E+06     81.0496E+06    -235.365E+03    -14.8851E-03     30.4416E-03    -15.5565E-03     80.1173E-03    -15.8125E-03     31.6697E-03    -15.3701E-03     80.9134E-03
             285     17.7263E-03     50.3206E-03    -3.58481E+06     151.567E+06     80.3572E+06    -821.249E+03    -16.2232E-03     31.7466E-03    -15.5234E-03     78.9528E-03    -17.1641E-03     32.9798E-03    -15.3362E-03     79.7293E-03
             286     17.7256E-03     51.2953E-03    -2.67282E+06     151.827E+06     80.8524E+06     779.630E+03    -15.8195E-03     31.3561E-03    -15.5366E-03     74.1303E-03    -16.7100E-03     32.5415E-03    -15.3486E-03     74.8981E-03
             287     17.7260E-03     52.2791E-03    -1.18441E+06     153.549E+06     81.1880E+06    -145.692E+03    -14.7262E-03     30.2892E-03    -15.5630E-03     79.4981E-03    -15.6478E-03     31.5163E-03    -15.3780E-03     80.2936E-03
             288     17.7262E-03     53.2537E-03    -1.88613E+06     153.083E+06     81.8757E+06    -543.306E+03    -16.0041E-03     31.5333E-03    -15.5292E-03     80.3138E-03    -16.9427E-03     32.7713E-03    -15.3391E-03     81.0979E-03
             289     17.7259E-03     54.2316E-03    -2.04488E+06     152.668E+06     81.3981E+06     820.315E+03    -16.3270E-03     31.8411E-03    -15.5141E-03     76.4842E-03    -17.2300E-03     33.0428E-03    -15.3255E-03     77.2592E-03
             290     17.7264E-03     55.2110E-03    -2.65572E+06     152.158E+06     81.3411E+06    -710.019E+03    -15.3047E-03     30.8510E-03    -15.5463E-03     76.9385E-03    -16.2125E-03     32.0537E-03    -15.3564E-03     77.7120E-03
             291     17.7254E-03     56.1871E-03    -3.39915E+06     151.297E+06     80.4778E+06    -474.911E+03    -15.0089E-03     30.5669E-03    -15.5580E-03     75.8615E-03    -15.9116E-03     31.7613E-03    -15.3701E-03     76.6363E-03
             292     886.249E-06     57.3542E-03    -21.5802E+06    -70.0050E+06    -20.8965E+06     7.32077E+03    -15.4307E-03     30.9019E-03    -15.4712E-03     3.54958E-03    -15.4068E-03     30.6135E-03    -15.4429E-03     3.54919E-03
             293     1.77243E-03     57.3588E-03    -20.6060E+06    -68.6243E+06    -18.0532E+06    -15.6307E+03    -15.4530E-03     30.9142E-03    -15.4611E-03     6.63451E-03    -15.4305E-03     30.6272E-03    -15.4220E-03     6.63337E-03
             294     2.65870E-03     57.3666E-03    -19.1223E+06    -66.7467E+06    -14.0633E+06    -28.0736E+03    -15.4567E-03     30.9303E-03    -15.4736E-03     9.90976E-03    -15.4353E-03     30.6449E-03    -15.4194E-03     9.90796E-03
             295     3.54491E-03     57.3772E-03    -17.3244E+06    -64.6344E+06    -9.66516E+06    -14.3285E+03    -15.4687E-03     30.9552E-03    -15.4865E-03     13.3050E-03    -15.4480E-03     30.6715E-03    -15.4159E-03     13.3028E-03
             296     4.43119E-03     57.3913E-03    -15.3918E+06    -62.7770E+06    -5.52988E+06    -3.89101E+03    -15.4893E-03     30.9873E-03    -15.4980E-03     16.8255E-03    -15.4677E-03     30.7043E-03    -15.4123E-03     16.8228E-03
             297     5.31741E-03     57.4085E-03    -13.4439E+06    -61.2084E+06    -2.14465E+06     10.8080E+03    -15.5220E-03     31.0283E-03    -15.5063E-03     20.4933E-03    -15.4982E-03     30.7457E-03    -15.4088E-03     20.4900E-03
             298     6.20372E-03     57.4294E-03    -11.6260E+06    -59.2429E+06     520.260E+03     51.2480E+03    -15.5674E-03     31.0786E-03    -15.5113E-03     24.3264E-03    -15.5417E-03     30.7999E-03    -15.4059E-03     24.3227E-03
             299     7.08991E-03     57.4537E-03    -9.99599E+06    -57.7542E+06     2.71461E+06     62.4092E+03    -15.6251E-03     31.1407E-03    -15.5156E-03     28.3087E-03    -15.5973E-03     30.8645E-03    -15.4038E-03     28.3039E-03
             300     7.97624E-03     57.4820E-03    -8.47381E+06    -55.9380E+06     4.38851E+06     121.438E+03    -15.6930E-03     31.2106E-03    -15.5176E-03     32.4122E-03    -15.6637E-03     30.9399E-03    -15.4023E-03     32.4065E-03
             301     8.86240E-03     57.5140E-03    -7.08820E+06    -53.1619E+06     5.42982E+06     166.916E+03    -15.7665E-03     31.2822E-03    -15.5157E-03     36.5871E-03    -15.7374E-03     31.0235E-03    -15.4012E-03     36.5798E-03
             302     9.74877E-03     57.5500E-03    -5.94914E+06    -51.5973E+06     5.78895E+06     195.251E+03    -15.8528E-03     31.3656E-03    -15.5128E-03     40.7655E-03    -15.8234E-03     31.1151E-03    -15.4004E-03     40.7555E-03
             303     10.6349E-03     57.5898E-03    -5.12827E+06    -47.6246E+06     4.32213E+06     29.9106E+03    -15.9385E-03     31.4365E-03    -15.4979E-03     44.8693E-03    -15.9126E-03     31.2107E-03    -15.3998E-03     44.8531E-03
             304     11.5213E-03     57.6333E-03    -4.40600E+06    -38.8771E+06     5.18153E+06    -162.169E+03    -15.9878E-03     31.4744E-03    -15.4866E-03     49.1009E-03    -15.9784E-03     31.2963E-03    -15.3979E-03     49.0774E-03
             305     12.4074E-03     57.6810E-03    -3.51240E+06    -36.1055E+06     3.22973E+06    -244.656E+03    -16.1367E-03     31.6052E-03    -15.4685E-03     54.8645E-03    -16.1353E-03     31.4538E-03    -15.3949E-03     54.8334E-03
             306     13.2940E-03     57.7353E-03    -2.75637E+06    -28.7606E+06    -2.97643E+06    -121.254E+03    -16.2967E-03     31.7208E-03    -15.4241E-03     59.9066E-03    -16.3118E-03     31.6327E-03    -15.3933E-03     59.8699E-03
             307     14.1797E-03     57.7921E-03    -2.45969E+06    -319.262E+03     1.09364E+06     129.284E+03    -16.3067E-03     31.7076E-03    -15.4008E-03     64.0588E-03    -16.3956E-03     31.7834E-03    -15.3913E-03     64.0222E-03
             308     15.0668E-03     57.8546E-03    -2.45341E+06     30.3959E+06    -306.030E+03     427.412E+03    -16.9406E-03     32.2863E-03    -15.3456E-03     83.4998E-03    -17.1954E-03     32.6411E-03    -15.3877E-03     83.4833E-03
             309     15.9519E-03     57.9482E-03    -4.66110E+06     73.6050E+06    -15.8520E+06    -223.055E+03    -17.9185E-03     33.1195E-03    -15.2010E-03     116.670E-03    -18.7842E-03     34.2760E-03    -15.3802E-03     116.887E-03
             310     16.8397E-03     58.0699E-03    -3.97831E+06     129.086E+06     29.0028E+06    -737.764E+03    -16.9125E-03     32.2407E-03    -15.3282E-03     104.462E-03    -18.0396E-03     33.7278E-03    -15.3645E-03     105.057E-03
             311     886.202E-06     58.3319E-03    -21.5412E+06    -69.9931E+06    -20.8374E+06     11.0552E+03    -15.4493E-03     30.9127E-03    -15.4633E-03     3.55905E-03    -15.4253E-03     30.6242E-03    -15.4348E-03     3.55870E-03
             312     1.77247E-03     58.3367E-03    -20.5370E+06    -68.5984E+06    -17.9771E+06    -22.2959E+03    -15.4571E-03     30.9234E-03    -15.4663E-03     6.63817E-03    -15.4343E-03     30.6363E-03    -15.4270E-03     6.63694E-03
             313     2.65866E-03     58.3442E-03    -19.0548E+06    -66.7258E+06    -13.9857E+06    -23.8132E+03    -15.4608E-03     30.9392E-03    -15.4784E-03     9.92035E-03    -15.4392E-03     30.6537E-03    -15.4240E-03     9.91860E-03
             314     3.54493E-03     58.3551E-03    -17.2549E+06    -64.6586E+06    -9.60026E+06    -16.7815E+03    -15.4721E-03     30.9631E-03    -15.4910E-03     13.3114E-03    -15.4510E-03     30.6790E-03    -15.4202E-03     13.3091E-03
             315     4.43114E-03     58.3690E-03    -15.3065E+06    -62.7771E+06    -5.50917E+06     2.00403E+03    -15.4929E-03     30.9949E-03    -15.5020E-03     16.8307E-03    -15.4710E-03     30.7118E-03    -15.4163E-03     16.8281E-03
             316     5.31744E-03     58.3864E-03    -13.3869E+06    -61.2077E+06    -2.10379E+06    -12.2299E+03    -15.5271E-03     31.0376E-03    -15.5105E-03     20.5007E-03    -15.5031E-03     30.7549E-03    -15.4128E-03     20.4972E-03
             317     6.20363E-03     58.4071E-03    -11.5613E+06    -59.3499E+06     522.274E+03     43.2096E+03    -15.5720E-03     31.0875E-03    -15.5154E-03     24.3346E-03    -15.5459E-03     30.8081E-03    -15.4100E-03     24.3309E-03
             318     7.08995E-03     58.4316E-03    -9.88498E+06    -57.7289E+06     2.75503E+06     87.1836E+03    -15.6298E-03     31.1495E-03    -15.5197E-03     28.3182E-03    -15.6016E-03     30.8732E-03    -15.4078E-03     28.3137E-03
             319     7.97612E-03     58.4597E-03    -8.36766E+06    -56.0312E+06     4.40482E+06     70.8825E+03    -15.6958E-03     31.2174E-03    -15.5217E-03     32.4209E-03    -15.6658E-03     30.9461E-03    -15.4063E-03     32.4146E-03
             320     8.86247E-03     58.4919E-03    -6.95605E+06    -53.1621E+06     5.46442E+06     89.0093E+03    -15.7680E-03     31.2874E-03    -15.5194E-03     36.5994E-03    -15.7383E-03     31.0285E-03    -15.4049E-03     36.5911E-03
             321     9.74859E-03     58.5277E-03    -5.67287E+06    -51.7382E+06     5.90898E+06     156.606E+03    -15.8501E-03     31.3665E-03    -15.5164E-03     40.7746E-03    -15.8193E-03     31.1147E-03    -15.4036E-03     40.7641E-03
             322     10.6350E-03     58.5676E-03    -4.72382E+06    -47.3660E+06     4.66173E+06     197.444E+03    -15.9322E-03     31.4333E-03    -15.5011E-03     44.8818E-03    -15.9052E-03     31.2078E-03    -15.4023E-03     44.8678E-03
             323     11.5211E-03     58.6111E-03    -4.08808E+06    -38.6154E+06     5.57348E+06    -78.8544E+03    -16.0008E-03     31.4909E-03    -15.4901E-03     49.0908E-03    -15.9907E-03     31.3131E-03    -15.4003E-03     49.0683E-03
             324     12.4077E-03     58.6588E-03    -3.73923E+06    -35.9598E+06     3.22493E+06    -359.568E+03    -16.1340E-03     31.6053E-03    -15.4713E-03     54.8304E-03    -16.1340E-03     31.4550E-03    -15.3976E-03     54.7978E-03
             325     13.2936E-03     58.7130E-03    -3.60742E+06    -28.9261E+06    -2.86309E+06    -437.474E+03    -16.3156E-03     31.7450E-03    -15.4294E-03     59.9442E-03    -16.3350E-03     31.6572E-03    -15.3965E-03     59.9033E-03
             326     14.1803E-03     58.7703E-03    -3.19768E+06    -670.283E+03     1.10291E+06    -158.636E+03    -16.4302E-03     31.8400E-03    -15.4098E-03     64.2636E-03    -16.5231E-03     31.9160E-03    -15.3987E-03     64.2228E-03
             327     15.0655E-03     58.8323E-03    -2.67061E+06     29.9715E+06     333.242E+03     273.623E+03    -16.5483E-03     31.8981E-03    -15.3499E-03     83.0854E-03    -16.8020E-03     32.2478E-03    -15.3878E-03     83.0693E-03
             328     15.9545E-03     58.9249E-03    -1.08116E+06     74.3483E+06    -13.0034E+06     761.635E+03    -17.5712E-03     32.7594E-03    -15.1882E-03     116.751E-03    -18.4170E-03     33.9030E-03    -15.3594E-03     116.978E-03
             329     16.8389E-03     59.0499E-03    -1.58204E+06     129.856E+06     30.8511E+06     220.601E+03    -17.2837E-03     32.5947E-03    -15.3110E-03     104.859E-03    -18.3998E-03     34.0767E-03    -15.3427E-03     105.461E-03
             330     886.230E-06     59.3098E-03    -21.5110E+06    -69.9746E+06    -20.8502E+06    -19.1866E+03    -15.4584E-03     30.9234E-03    -15.4650E-03     3.56012E-03    -15.4342E-03     30.6350E-03    -15.4366E-03     3.55938E-03
             331     1.77242E-03     59.3143E-03    -20.5211E+06    -68.5645E+06    -17.9778E+06    -26.7711E+03    -15.4595E-03     30.9305E-03    -15.4710E-03     6.63888E-03    -15.4367E-03     30.6436E-03    -15.4317E-03     6.63760E-03
             332     2.65868E-03     59.3221E-03    -19.0390E+06    -66.7255E+06    -13.9726E+06    -30.8516E+03    -15.4652E-03     30.9479E-03    -15.4827E-03     9.92323E-03    -15.4436E-03     30.6623E-03    -15.4282E-03     9.92139E-03
             333     3.54488E-03     59.3328E-03    -17.2235E+06    -64.6512E+06    -9.59313E+06    -24.5274E+03    -15.4764E-03     30.9716E-03    -15.4952E-03     13.3155E-03    -15.4552E-03     30.6876E-03    -15.4244E-03     13.3132E-03
             334     4.43116E-03     59.3468E-03    -15.2774E+06    -62.8031E+06    -5.50271E+06    -14.2931E+03    -15.4978E-03     31.0041E-03    -15.5063E-03     16.8352E-03    -15.4757E-03     30.7208E-03    -15.4206E-03     16.8323E-03
             335     5.31736E-03     59.3641E-03    -13.3615E+06    -61.1860E+06    -2.11903E+06     5.10701E+03    -15.5316E-03     31.0462E-03    -15.5146E-03     20.5074E-03    -15.5075E-03     30.7636E-03    -15.4171E-03     20.5041E-03
             336     6.20366E-03     59.3850E-03    -11.5681E+06    -59.4419E+06     504.359E+03     12.9718E+03    -15.5769E-03     31.0967E-03    -15.5198E-03     24.3429E-03    -15.5506E-03     30.8169E-03    -15.4143E-03     24.3388E-03
             337     7.08985E-03     59.4093E-03    -9.89050E+06    -57.7552E+06     2.68936E+06     59.6692E+03    -15.6315E-03     31.1551E-03    -15.5235E-03     28.3290E-03    -15.6032E-03     30.8788E-03    -15.4120E-03     28.3242E-03
             338     7.97618E-03     59.4376E-03    -8.36083E+06    -55.9853E+06     4.42156E+06     44.3036E+03    -15.6979E-03     31.2235E-03    -15.5256E-03     32.4310E-03    -15.6680E-03     30.9524E-03    -15.4102E-03     32.4244E-03
             339     8.86232E-03     59.4696E-03    -7.02249E+06    -53.2167E+06     5.48457E+06     20.0218E+03    -15.7670E-03     31.2903E-03    -15.5233E-03     36.6051E-03    -15.7376E-03     31.0312E-03    -15.4085E-03     36.5958E-03
             340     9.74873E-03     59.5057E-03    -5.86681E+06    -51.8145E+06     5.85405E+06     63.0613E+03    -15.8511E-03     31.3709E-03    -15.5198E-03     40.7713E-03    -15.8211E-03     31.1191E-03    -15.4069E-03     40.7595E-03
             341     10.6348E-03     59.5454E-03    -4.89488E+06    -47.4986E+06     4.52574E+06     174.790E+03    -15.9360E-03     31.4402E-03    -15.5042E-03     44.8568E-03    -15.9094E-03     31.2145E-03    -15.4056E-03     44.8425E-03
             342     11.5213E-03     59.5891E-03    -4.12052E+06    -38.1017E+06     5.72487E+06     97.8805E+03    -16.0177E-03     31.5118E-03    -15.4941E-03     49.0564E-03    -16.0088E-03     31.3364E-03    -15.4042E-03     49.0361E-03
             343     12.4072E-03     59.6366E-03    -3.58600E+06    -35.7759E+06     3.33004E+06    -182.613E+03    -16.1927E-03     31.6705E-03    -15.4778E-03     54.7571E-03    -16.1925E-03     31.5209E-03    -15.4040E-03     54.7265E-03
             344     13.2938E-03     59.6909E-03    -3.31399E+06    -28.8660E+06    -2.87510E+06    -349.939E+03    -16.3097E-03     31.7464E-03    -15.4367E-03     59.9045E-03    -16.3278E-03     31.6586E-03    -15.4044E-03     59.8646E-03
             345     14.1796E-03     59.7481E-03    -3.28452E+06    -945.271E+03     445.656E+03    -366.229E+03    -16.2849E-03     31.6947E-03    -15.4098E-03     64.3242E-03    -16.3763E-03     31.7698E-03    -15.4014E-03     64.2813E-03
             346     15.0668E-03     59.8107E-03    -2.25336E+06     30.0851E+06    -1.10330E+06    -221.902E+03    -16.8631E-03     32.2131E-03    -15.3500E-03     82.2953E-03    -17.1140E-03     32.5660E-03    -15.3959E-03     82.2701E-03
             347     15.9520E-03     59.9004E-03    -2.89383E+06     73.7492E+06    -13.9000E+06    -486.542E+03    -17.7009E-03     32.9114E-03    -15.2105E-03     115.511E-03    -18.5515E-03     34.0539E-03    -15.3828E-03     115.719E-03
             348     16.8414E-03     60.0291E-03    -3.23301E+06     129.235E+06     31.4720E+06     525.298E+03    -16.9695E-03     32.3076E-03    -15.3381E-03     104.295E-03    -18.0885E-03     33.7827E-03    -15.3634E-03     104.901E-03
             349     886.193E-06     60.2874E-03    -21.4912E+06    -69.9587E+06    -20.8394E+06    -38.4956E+03    -15.4598E-03     30.9305E-03    -15.4707E-03     3.56264E-03    -15.4356E-03     30.6422E-03    -15.4423E-03     3.56164E-03
             350     1.77245E-03     60.2922E-03    -20.5640E+06    -68.5462E+06    -18.0464E+06    -6.86044E+03    -15.4662E-03     30.9411E-03    -15.4749E-03     6.64501E-03    -15.4435E-03     30.6545E-03    -15.4359E-03     6.64398E-03
             351     2.65863E-03     60.2998E-03    -19.1177E+06    -66.7007E+06    -14.0557E+06    -23.4730E+03    -15.4693E-03     30.9564E-03    -15.4871E-03     9.92599E-03    -15.4480E-03     30.6712E-03    -15.4330E-03     9.92424E-03
             352     3.54490E-03     60.3106E-03    -17.3311E+06    -64.6443E+06    -9.68047E+06    -37.3291E+03    -15.4805E-03     30.9801E-03    -15.4996E-03     13.3190E-03    -15.4597E-03     30.6963E-03    -15.4291E-03     13.3165E-03
             353     4.43110E-03     60.3246E-03    -15.3640E+06    -62.7904E+06    -5.60071E+06    -51.7584E+03    -15.5021E-03     31.0127E-03    -15.5106E-03     16.8398E-03    -15.4803E-03     30.7297E-03    -15.4252E-03     16.8365E-03
             354     5.31739E-03     60.3420E-03    -13.4130E+06    -61.2489E+06    -2.22463E+06    -11.7031E+03    -15.5355E-03     31.0544E-03    -15.5189E-03     20.5149E-03    -15.5115E-03     30.7717E-03    -15.4217E-03     20.5113E-03
             355     6.20358E-03     60.3627E-03    -11.5959E+06    -59.4095E+06     457.051E+03     7.46934E+03    -15.5793E-03     31.1033E-03    -15.5239E-03     24.3515E-03    -15.5532E-03     30.8237E-03    -15.4187E-03     24.3473E-03
             356     7.08989E-03     60.3872E-03    -9.91835E+06    -57.8316E+06     2.64709E+06     1.13775E+03    -15.6341E-03     31.1617E-03    -15.5276E-03     28.3367E-03    -15.6057E-03     30.8851E-03    -15.4162E-03     28.3311E-03
             357     7.97606E-03     60.4154E-03    -8.43042E+06    -55.9790E+06     4.35961E+06     70.2340E+03    -15.6981E-03     31.2273E-03    -15.5292E-03     32.4396E-03    -15.6685E-03     30.9564E-03    -15.4140E-03     32.4333E-03
             358     8.86241E-03     60.4475E-03    -7.15297E+06    -53.1740E+06     5.42847E+06     51.1966E+03    -15.7727E-03     31.2996E-03    -15.5269E-03     36.6058E-03    -15.7440E-03     31.0409E-03    -15.4123E-03     36.5969E-03
             359     9.74853E-03     60.4834E-03    -6.02928E+06    -51.9251E+06     5.73656E+06     69.4371E+03    -15.8609E-03     31.3848E-03    -15.5238E-03     40.7675E-03    -15.8314E-03     31.1329E-03    -15.4111E-03     40.7558E-03
             360     10.6349E-03     60.5233E-03    -5.12006E+06    -47.5886E+06     4.37860E+06     129.713E+03    -15.9552E-03     31.4641E-03    -15.5090E-03     44.8561E-03    -15.9294E-03     31.2385E-03    -15.4106E-03     44.8412E-03
             361     11.5209E-03     60.5667E-03    -4.40286E+06    -38.0342E+06     5.49561E+06     166.400E+03    -16.0387E-03     31.5382E-03    -15.4995E-03     49.0768E-03    -16.0310E-03     31.3640E-03    -15.4105E-03     49.0573E-03
             362     12.4075E-03     60.6147E-03    -3.84800E+06    -35.3199E+06     3.47234E+06    -24.9685E+03    -16.2092E-03     31.6947E-03    -15.4854E-03     54.8229E-03    -16.2113E-03     31.5476E-03    -15.4113E-03     54.7944E-03
             363     13.2932E-03     60.6687E-03    -3.79671E+06    -28.8255E+06    -2.92119E+06    -314.573E+03    -16.3323E-03     31.7775E-03    -15.4452E-03     59.9326E-03    -16.3529E-03     31.6908E-03    -15.4125E-03     59.8932E-03
             364     14.1800E-03     60.7260E-03    -3.43842E+06    -628.453E+03     975.297E+03    -613.240E+03    -16.2721E-03     31.6926E-03    -15.4205E-03     64.1120E-03    -16.3650E-03     31.7682E-03    -15.4097E-03     64.0661E-03
             365     15.0660E-03     60.7880E-03    -2.50345E+06     28.8184E+06    -1.33439E+06    -1.18641E+06    -16.9947E-03     32.3564E-03    -15.3617E-03     82.7603E-03    -17.2464E-03     32.7054E-03    -15.4066E-03     82.7220E-03
             366     15.9517E-03     60.8808E-03    -2.76071E+06     73.2499E+06    -15.1131E+06     368.293E+03    -18.2281E-03     33.4597E-03    -15.2316E-03     116.142E-03    -19.0837E-03     34.6093E-03    -15.4093E-03     116.358E-03
             367     16.8362E-03     61.0026E-03    -2.81337E+06     130.470E+06     30.6767E+06     1.49661E+06    -16.8808E-03     32.2481E-03    -15.3673E-03     105.476E-03    -18.0147E-03     33.7462E-03    -15.3990E-03     106.104E-03
             368     886.236E-06     61.2653E-03    -21.6990E+06    -69.9463E+06    -20.9339E+06         592.298    -15.4695E-03     30.9383E-03    -15.4689E-03     3.58107E-03    -15.4462E-03     30.6505E-03    -15.4406E-03     3.58058E-03
             369     1.77240E-03     61.2699E-03    -20.6820E+06    -68.5516E+06    -18.1104E+06     14.4395E+03    -15.4729E-03     30.9526E-03    -15.4798E-03     6.63935E-03    -15.4507E-03     30.6662E-03    -15.4409E-03     6.63859E-03
             370     2.65866E-03     61.2777E-03    -19.2122E+06    -66.6672E+06    -14.1424E+06        -245.310    -15.4740E-03     30.9663E-03    -15.4923E-03     9.92596E-03    -15.4531E-03     30.6815E-03    -15.4384E-03     9.92451E-03
             371     3.54484E-03     61.2884E-03    -17.4212E+06    -64.6096E+06    -9.77025E+06    -32.9627E+03    -15.4839E-03     30.9883E-03    -15.5045E-03     13.3221E-03    -15.4635E-03     30.7051E-03    -15.4344E-03     13.3197E-03
             372     4.43112E-03     61.3024E-03    -15.4921E+06    -62.7249E+06    -5.71876E+06    -89.8375E+03    -15.5051E-03     31.0200E-03    -15.5150E-03     16.8462E-03    -15.4838E-03     30.7377E-03    -15.4302E-03     16.8424E-03
             373     5.31731E-03     61.3197E-03    -13.5017E+06    -61.3048E+06    -2.33365E+06    -109.706E+03    -15.5384E-03     31.0616E-03    -15.5232E-03     20.5224E-03    -15.5146E-03     30.7789E-03    -15.4264E-03     20.5176E-03
             374     6.20361E-03     61.3406E-03    -11.6219E+06    -59.4461E+06     356.083E+03    -30.8558E+03    -15.5814E-03     31.1092E-03    -15.5279E-03     24.3608E-03    -15.5552E-03     30.8297E-03    -15.4230E-03     24.3560E-03
             375     7.08979E-03     61.3650E-03    -9.98738E+06    -57.8376E+06     2.59802E+06     13.4755E+03    -15.6361E-03     31.1677E-03    -15.5315E-03     28.3445E-03    -15.6080E-03     30.8913E-03    -15.4202E-03     28.3391E-03
             376     7.97611E-03     61.3933E-03    -8.47191E+06    -56.0792E+06     4.26378E+06     40.0519E+03    -15.7008E-03     31.2336E-03    -15.5328E-03     32.4473E-03    -15.6711E-03     30.9624E-03    -15.4179E-03     32.4405E-03
             377     8.86227E-03     61.4253E-03    -7.08108E+06    -53.1234E+06     5.39912E+06     92.4217E+03    -15.7754E-03     31.3057E-03    -15.5303E-03     36.6248E-03    -15.7464E-03     31.0473E-03    -15.4160E-03     36.6165E-03
             378     9.74862E-03     61.4614E-03    -5.90191E+06    -51.9674E+06     5.76497E+06     63.1858E+03    -15.8673E-03     31.3948E-03    -15.5275E-03     40.7966E-03    -15.8371E-03     31.1425E-03    -15.4148E-03     40.7848E-03
             379     10.6347E-03     61.5010E-03    -4.98012E+06    -47.7847E+06     4.37173E+06     187.229E+03    -15.9541E-03     31.4666E-03    -15.5125E-03     44.9207E-03    -15.9273E-03     31.2398E-03    -15.4141E-03     44.9065E-03
             380     11.5211E-03     61.5448E-03    -4.23126E+06    -37.9050E+06     5.60556E+06     212.833E+03    -16.0389E-03     31.5414E-03    -15.5026E-03     49.2029E-03    -16.0307E-03     31.3674E-03    -15.4134E-03     49.1841E-03
             381     12.4071E-03     61.5923E-03    -3.70954E+06    -35.3012E+06     3.57692E+06     192.540E+03    -16.1845E-03     31.6718E-03    -15.4873E-03     54.9294E-03    -16.1860E-03     31.5244E-03    -15.4129E-03     54.9037E-03
             382     13.2938E-03     61.6468E-03    -3.80825E+06    -28.5466E+06    -2.78442E+06     204.984E+03    -16.2398E-03     31.6827E-03    -15.4429E-03     60.0857E-03    -16.2606E-03     31.5967E-03    -15.4099E-03     60.0533E-03
             383     14.1793E-03     61.7037E-03    -4.66426E+06    -285.332E+03     264.610E+03    -70.7835E+03    -16.2523E-03     31.6638E-03    -15.4115E-03     64.7494E-03    -16.3510E-03     31.7441E-03    -15.4030E-03     64.7107E-03
             384     15.0659E-03     61.7663E-03    -5.67260E+06     30.1062E+06    -2.39952E+06    -887.453E+03    -17.1936E-03     32.5507E-03    -15.3571E-03     83.4848E-03    -17.4620E-03     32.9128E-03    -15.4045E-03     83.4497E-03
             385     15.9535E-03     61.8577E-03    -6.69330E+06     72.4323E+06    -17.6282E+06    -497.708E+03    -18.5131E-03     33.7521E-03    -15.2390E-03     115.345E-03    -19.3838E-03     34.9073E-03    -15.4224E-03     115.547E-03
             386     16.8401E-03     61.9844E-03    -3.92477E+06     128.803E+06     26.5102E+06     364.176E+03    -16.5157E-03     31.8810E-03    -15.3653E-03     103.863E-03    -17.6414E-03     33.3732E-03    -15.4139E-03     104.473E-03
             387     886.179E-06     62.2430E-03    -21.9068E+06    -69.9336E+06    -21.2142E+06     13.8767E+03    -15.4835E-03     30.9520E-03    -15.4685E-03     3.59011E-03    -15.4608E-03     30.6649E-03    -15.4414E-03     3.58979E-03
             388     1.77242E-03     62.2478E-03    -20.8582E+06    -68.5544E+06    -18.2603E+06    -23.6122E+03    -15.4759E-03     30.9620E-03    -15.4862E-03     6.63949E-03    -15.4543E-03     30.6760E-03    -15.4478E-03     6.63824E-03
             389     2.65860E-03     62.2554E-03    -19.2984E+06    -66.6301E+06    -14.2733E+06    -31.3186E+03    -15.4774E-03     30.9747E-03    -15.4974E-03     9.92994E-03    -15.4567E-03     30.6905E-03    -15.4442E-03     9.92809E-03
             390     3.54486E-03     62.2662E-03    -17.4750E+06    -64.5859E+06    -9.89472E+06    -37.2060E+03    -15.4871E-03     30.9961E-03    -15.5090E-03     13.3282E-03    -15.4668E-03     30.7132E-03    -15.4395E-03     13.3257E-03
             391     4.43105E-03     62.2802E-03    -15.5625E+06    -62.6252E+06    -5.80107E+06    -70.2453E+03    -15.5076E-03     31.0268E-03    -15.5192E-03     16.8544E-03    -15.4867E-03     30.7452E-03    -15.4349E-03     16.8509E-03
             392     5.31734E-03     62.2976E-03    -13.7079E+06    -61.2416E+06    -2.47163E+06     -159.35E+03    -15.5401E-03     31.0671E-03    -15.5270E-03     20.5301E-03    -15.5171E-03     30.7852E-03    -15.4307E-03     20.5247E-03
             393     6.20353E-03     62.3183E-03    -11.9181E+06    -59.6292E+06     115.439E+03    -88.0178E+03    -15.5823E-03     31.1137E-03    -15.5314E-03     24.3708E-03    -15.5569E-03     30.8340E-03    -15.4271E-03     24.3653E-03
             394     7.08983E-03     62.3429E-03    -10.1759E+06    -57.7539E+06     2.43293E+06    -38.8932E+03    -15.6350E-03     31.1695E-03    -15.5345E-03     28.3578E-03    -15.6078E-03     30.8940E-03    -15.4238E-03     28.3517E-03
             395     7.97601E-03     62.3710E-03    -8.52629E+06    -56.1256E+06     4.18951E+06    -98.9082E+03    -15.6991E-03     31.2347E-03    -15.5356E-03     32.4672E-03    -15.6695E-03     30.9635E-03    -15.4209E-03     32.4586E-03
             396     8.86233E-03     62.4032E-03    -7.02097E+06    -53.2092E+06     5.32543E+06    -35.2895E+03    -15.7664E-03     31.2985E-03    -15.5321E-03     36.6584E-03    -15.7368E-03     31.0397E-03    -15.4181E-03     36.6485E-03
             397     9.74850E-03     62.4391E-03    -5.74979E+06    -51.9500E+06     5.84295E+06     39.6052E+03    -15.8513E-03     31.3797E-03    -15.5284E-03     40.8479E-03    -15.8205E-03     31.1271E-03    -15.4155E-03     40.8359E-03
             398     10.6349E-03     62.4791E-03    -4.74463E+06    -48.0185E+06     4.40882E+06     100.165E+03    -15.9336E-03     31.4452E-03    -15.5116E-03     44.9725E-03    -15.9053E-03     31.2168E-03    -15.4131E-03     44.9573E-03
             399     11.5210E-03     62.5225E-03    -3.91415E+06    -37.9328E+06     5.77170E+06     276.251E+03    -16.0023E-03     31.5019E-03    -15.4996E-03     49.3029E-03    -15.9927E-03     31.3270E-03    -15.4101E-03     49.2850E-03
             400     12.4075E-03     62.5705E-03    -3.24112E+06    -35.1568E+06     4.00261E+06     222.325E+03    -16.1620E-03     31.6450E-03    -15.4830E-03     54.9972E-03    -16.1619E-03     31.4969E-03    -15.4073E-03     54.9721E-03
             401     13.2934E-03     62.6243E-03    -2.85929E+06    -29.1510E+06    -2.59684E+06     496.132E+03    -16.1931E-03     31.6289E-03    -15.4358E-03     59.8221E-03    -16.2084E-03     31.5382E-03    -15.4024E-03     59.7937E-03
             402     14.1809E-03     62.6815E-03    -2.84519E+06     578.155E+03     1.32368E+06     702.610E+03    -16.3470E-03     31.7546E-03    -15.4075E-03     64.3764E-03    -16.4397E-03     31.8353E-03    -15.3976E-03     64.3471E-03
             403     15.0672E-03     62.7440E-03    -4.94805E+06     31.4497E+06    -1.86690E+06     730.802E+03    -17.4533E-03     32.8151E-03    -15.3619E-03     83.6419E-03    -17.7210E-03     33.1824E-03    -15.4096E-03     83.6262E-03
             404     15.9494E-03     62.8387E-03    -5.73934E+06     71.5680E+06    -16.7883E+06     51.5137E+03    -17.7938E-03     33.0283E-03    -15.2344E-03     115.963E-03    -18.6520E-03     34.1688E-03    -15.4138E-03     116.187E-03
             405     16.8353E-03     62.9583E-03    -2.82121E+06     128.203E+06     28.3312E+06    -1.22233E+06    -16.3120E-03     31.6502E-03    -15.3382E-03     105.340E-03    -17.4334E-03     33.1345E-03    -15.3783E-03     105.943E-03
             406     886.214E-06     63.2209E-03    -21.7681E+06    -69.9295E+06    -21.1004E+06     1.92171E+03    -15.4801E-03     30.9662E-03    -15.4861E-03     3.58590E-03    -15.4570E-03     30.6788E-03    -15.4586E-03     3.58542E-03
             407     1.77238E-03     63.2255E-03    -20.8555E+06    -68.4975E+06    -18.4181E+06    -31.4736E+03    -15.4781E-03     30.9691E-03    -15.4910E-03     6.64511E-03    -15.4564E-03     30.6836E-03    -15.4536E-03     6.64376E-03
             408     2.65863E-03     63.2333E-03    -19.4356E+06    -66.5894E+06    -14.4817E+06    -77.9502E+03    -15.4812E-03     30.9824E-03    -15.5012E-03     9.93410E-03    -15.4610E-03     30.6988E-03    -15.4489E-03     9.93165E-03
             409     3.54481E-03     63.2440E-03    -17.5980E+06    -64.5449E+06    -10.0660E+06    -111.158E+03    -15.4905E-03     31.0033E-03    -15.5128E-03     13.3345E-03    -15.4706E-03     30.7210E-03    -15.4441E-03     13.3311E-03
             410     4.43108E-03     63.2580E-03    -15.5430E+06    -62.5439E+06    -5.87912E+06    -147.349E+03    -15.5099E-03     31.0329E-03    -15.5230E-03     16.8617E-03    -15.4890E-03     30.7518E-03    -15.4391E-03     16.8571E-03
             411     5.31727E-03     63.2753E-03    -13.5878E+06    -61.2464E+06    -2.34683E+06    -78.3930E+03    -15.5423E-03     31.0737E-03    -15.5314E-03     20.5365E-03    -15.5189E-03     30.7914E-03    -15.4346E-03     20.5321E-03
             412     6.20355E-03     63.2962E-03    -11.8266E+06    -59.6271E+06     253.662E+03    -111.022E+03    -15.5821E-03     31.1175E-03    -15.5353E-03     24.3777E-03    -15.5565E-03     30.8374E-03    -15.4305E-03     24.3719E-03
             413     7.08975E-03     63.3206E-03    -10.1041E+06    -57.6947E+06     2.35287E+06    -196.537E+03    -15.6293E-03     31.1657E-03    -15.5364E-03     28.3742E-03    -15.6016E-03     30.8906E-03    -15.4264E-03     28.3661E-03
             414     7.97606E-03     63.3489E-03    -8.54453E+06    -56.0842E+06     4.14667E+06    -199.819E+03    -15.6876E-03     31.2242E-03    -15.5367E-03     32.4871E-03    -15.6581E-03     30.9533E-03    -15.4222E-03     32.4773E-03
             415     8.86226E-03     63.3809E-03    -7.14998E+06    -53.2745E+06     5.25106E+06    -213.966E+03    -15.7522E-03     31.2841E-03    -15.5319E-03     36.6807E-03    -15.7231E-03     31.0252E-03    -15.4180E-03     36.6684E-03
             416     9.74862E-03     63.4170E-03    -5.83107E+06    -52.0565E+06     5.79544E+06    -132.217E+03    -15.8285E-03     31.3551E-03    -15.5266E-03     40.8628E-03    -15.7978E-03     31.1021E-03    -15.4137E-03     40.8485E-03
             417     10.6348E-03     63.4567E-03    -4.74596E+06    -48.1047E+06     4.42253E+06    -25.1187E+03    -15.9128E-03     31.4212E-03    -15.5083E-03     44.9787E-03    -15.8844E-03     31.1923E-03    -15.4096E-03     44.9619E-03
             418     11.5212E-03     63.5005E-03    -3.86084E+06    -38.2527E+06     5.69893E+06     128.963E+03    -15.9779E-03     31.4725E-03    -15.4946E-03     49.2872E-03    -15.9674E-03     31.2960E-03    -15.4051E-03     49.2674E-03
             419     12.4074E-03     63.5481E-03    -3.28733E+06    -35.1122E+06     3.95994E+06     401.771E+03    -16.1088E-03     31.5842E-03    -15.4754E-03     54.9682E-03    -16.1087E-03     31.4364E-03    -15.4000E-03     54.9456E-03
             420     13.2940E-03     63.6026E-03    -3.15747E+06    -29.1563E+06    -2.60837E+06     268.764E+03    -16.4181E-03     31.8530E-03    -15.4349E-03     59.8026E-03    -16.4355E-03     31.7633E-03    -15.4011E-03     59.7703E-03
             421     14.1791E-03     63.6586E-03    -2.24691E+06    -109.838E+03     1.58840E+06     500.254E+03    -16.6480E-03     32.0719E-03    -15.4238E-03     64.6878E-03    -16.7388E-03     32.1496E-03    -15.4125E-03     64.6545E-03
             422     15.0643E-03     63.7238E-03    -1.23920E+06     29.6123E+06    -335.531E+03     1.23575E+06    -16.3591E-03     31.7161E-03    -15.3570E-03     84.1492E-03    -16.6034E-03     32.0621E-03    -15.3998E-03     84.1468E-03
             423     15.9547E-03     63.8150E-03     650.198E+03     73.2847E+06    -12.3961E+06     558.542E+03    -16.7630E-03     31.9368E-03    -15.1738E-03     116.116E-03    -17.5788E-03     33.0509E-03    -15.3430E-03     116.347E-03
             424     16.8460E-03     63.9353E-03    -577.106E+03     130.444E+06     32.8819E+06    -426.141E+03    -17.4226E-03     32.7085E-03    -15.2859E-03     106.002E-03    -18.5379E-03     34.1895E-03    -15.3098E-03     106.603E-03
             425     886.167E-06     64.1986E-03    -21.8948E+06    -69.9494E+06    -21.2878E+06     21.2153E+03    -15.4776E-03     30.9720E-03    -15.4944E-03     3.58572E-03    -15.4548E-03     30.6850E-03    -15.4677E-03     3.58549E-03
             426     1.77241E-03     64.2034E-03    -20.9753E+06    -68.4157E+06    -18.5552E+06    -25.9259E+03    -15.4823E-03     30.9764E-03    -15.4941E-03     6.64891E-03    -15.4611E-03     30.6917E-03    -15.4573E-03     6.64763E-03
             427     2.65858E-03     64.2110E-03    -19.5208E+06    -66.4908E+06    -14.6005E+06    -95.2808E+03    -15.4850E-03     30.9897E-03    -15.5046E-03     9.93558E-03    -15.4652E-03     30.7069E-03    -15.4529E-03     9.93291E-03
             428     3.54483E-03     64.2219E-03    -17.7498E+06    -64.4365E+06    -10.2153E+06    -182.786E+03    -15.4926E-03     31.0087E-03    -15.5161E-03     13.3398E-03    -15.4734E-03     30.7274E-03    -15.4480E-03     13.3354E-03
             429     4.43102E-03     64.2358E-03    -15.8353E+06    -62.4660E+06    -6.09129E+06    -242.784E+03    -15.5105E-03     31.0362E-03    -15.5258E-03     16.8705E-03    -15.4908E-03     30.7563E-03    -15.4427E-03     16.8647E-03
             430     5.31729E-03     64.2532E-03    -13.7730E+06    -61.3534E+06    -2.56552E+06    -214.316E+03    -15.5406E-03     31.0743E-03    -15.5337E-03     20.5463E-03    -15.5176E-03     30.7921E-03    -15.4376E-03     20.5402E-03
             431     6.20349E-03     64.2740E-03    -11.7432E+06    -59.4660E+06     218.487E+03    -198.082E+03    -15.5775E-03     31.1144E-03    -15.5370E-03     24.3892E-03    -15.5516E-03     30.8352E-03    -15.4326E-03     24.3823E-03
             432     7.08979E-03     64.2985E-03    -10.0686E+06    -57.6525E+06     2.37911E+06    -249.063E+03    -15.6218E-03     31.1593E-03    -15.5376E-03     28.3813E-03    -15.5940E-03     30.8843E-03    -15.4275E-03     28.3726E-03
             433     7.97602E-03     64.3266E-03    -8.56095E+06    -56.0557E+06     4.11733E+06    -257.030E+03    -15.6781E-03     31.2146E-03    -15.5365E-03     32.4902E-03    -15.6487E-03     30.9439E-03    -15.4222E-03     32.4797E-03
             434     8.86235E-03     64.3588E-03    -7.17603E+06    -53.1997E+06     5.29215E+06    -298.432E+03    -15.7429E-03     31.2740E-03    -15.5311E-03     36.6718E-03    -15.7140E-03     31.0155E-03    -15.4171E-03     36.6585E-03
             435     9.74855E-03     64.3947E-03    -5.94313E+06    -52.1389E+06     5.69199E+06    -332.879E+03    -15.8191E-03     31.3439E-03    -15.5248E-03     40.8386E-03    -15.7888E-03     31.0908E-03    -15.4121E-03     40.8218E-03
             436     10.6349E-03     64.4346E-03    -4.86756E+06    -48.2707E+06     4.27060E+06    -206.534E+03    -15.9055E-03     31.4113E-03    -15.5059E-03     44.9562E-03    -15.8772E-03     31.1821E-03    -15.4075E-03     44.9371E-03
             437     11.5211E-03     64.4781E-03    -3.99414E+06    -38.4955E+06     5.51734E+06     22.7565E+03    -15.9626E-03     31.4541E-03    -15.4915E-03     49.2390E-03    -15.9522E-03     31.2769E-03    -15.4023E-03     49.2178E-03
             438     12.4076E-03     64.5261E-03    -3.22833E+06    -35.5299E+06     3.74198E+06     312.786E+03    -16.1210E-03     31.5932E-03    -15.4723E-03     54.8890E-03    -16.1197E-03     31.4435E-03    -15.3974E-03     54.8652E-03
             439     13.2937E-03     64.5799E-03    -2.76691E+06    -28.6756E+06    -2.31337E+06     477.251E+03    -16.4136E-03     31.8461E-03    -15.4325E-03     60.2767E-03    -16.4305E-03     31.7581E-03    -15.3985E-03     60.2471E-03
             440     14.1799E-03     64.6385E-03    -3.40305E+06    -803.460E+03     595.676E+03     225.572E+03    -16.2148E-03     31.6195E-03    -15.4047E-03     65.3613E-03    -16.3081E-03     31.6962E-03    -15.3956E-03     65.3262E-03
             441     15.0674E-03     64.6999E-03    -1.51039E+06     29.7722E+06    -559.794E+03     111.035E+03    -16.1288E-03     31.4508E-03    -15.3219E-03     82.7380E-03    -16.3698E-03     31.7937E-03    -15.3657E-03     82.7213E-03
             442     15.9550E-03     64.7891E-03    -2.57664E+06     74.1472E+06    -13.9554E+06     78.2676E+03    -17.7856E-03     32.9490E-03    -15.1634E-03     114.126E-03    -18.6181E-03     34.0759E-03    -15.3369E-03     114.325E-03
             443     16.8356E-03     64.9162E-03    -4.59481E+06     129.815E+06     29.7256E+06     305.917E+03    -17.5319E-03     32.8383E-03    -15.3065E-03     104.558E-03    -18.6582E-03     34.3230E-03    -15.3394E-03     105.149E-03
             444     886.215E-06     65.1765E-03    -22.2294E+06    -69.9054E+06    -21.5724E+06    -49.9544E+03    -15.4839E-03     30.9746E-03    -15.4907E-03     3.58552E-03    -15.4624E-03     30.6887E-03    -15.4649E-03     3.58437E-03
             445     1.77237E-03     65.1812E-03    -21.1467E+06    -68.2954E+06    -18.6868E+06    -128.251E+03    -15.4865E-03     30.9830E-03    -15.4965E-03     6.65054E-03    -15.4662E-03     30.6994E-03    -15.4602E-03     6.64795E-03
             446     2.65860E-03     65.1889E-03    -19.6045E+06    -66.4182E+06    -14.6960E+06    -148.115E+03    -15.4861E-03     30.9934E-03    -15.5074E-03     9.93906E-03    -15.4667E-03     30.7113E-03    -15.4561E-03     9.93570E-03
             447     3.54479E-03     65.1996E-03    -17.8263E+06    -64.2987E+06    -10.2905E+06    -170.480E+03    -15.4935E-03     31.0118E-03    -15.5183E-03     13.3461E-03    -15.4748E-03     30.7314E-03    -15.4507E-03     13.3419E-03
             448     4.43105E-03     65.2137E-03    -15.9576E+06    -62.3963E+06    -6.22504E+06    -205.093E+03    -15.5091E-03     31.0365E-03    -15.5274E-03     16.8775E-03    -15.4899E-03     30.7572E-03    -15.4449E-03     16.8723E-03
             449     5.31725E-03     65.2310E-03    -14.1056E+06    -61.1813E+06    -2.90748E+06    -362.642E+03    -15.5354E-03     31.0691E-03    -15.5337E-03     20.5568E-03    -15.5139E-03     30.7887E-03    -15.4391E-03     20.5487E-03
             450     6.20354E-03     65.2518E-03    -12.2541E+06    -59.5144E+06    -174.721E+03    -397.828E+03    -15.5715E-03     31.1080E-03    -15.5365E-03     24.3972E-03    -15.5476E-03     30.8298E-03    -15.4333E-03     24.3877E-03
             451     7.08976E-03     65.2762E-03    -10.4036E+06    -57.5270E+06     2.29838E+06    -338.880E+03    -15.6187E-03     31.1564E-03    -15.5377E-03     28.3788E-03    -15.5926E-03     30.8825E-03    -15.4277E-03     28.3688E-03
             452     7.97606E-03     65.3045E-03    -8.71607E+06    -56.0246E+06     4.04986E+06    -411.519E+03    -15.6779E-03     31.2144E-03    -15.5365E-03     32.4819E-03    -15.6492E-03     30.9441E-03    -15.4224E-03     32.4694E-03
             453     8.86228E-03     65.3365E-03    -7.26767E+06    -53.1850E+06     5.13805E+06    -346.861E+03    -15.7410E-03     31.2715E-03    -15.5306E-03     36.6540E-03    -15.7124E-03     31.0134E-03    -15.4172E-03     36.6400E-03
             454     9.74863E-03     65.3726E-03    -6.09157E+06    -51.9778E+06     5.56878E+06    -411.542E+03    -15.8252E-03     31.3497E-03    -15.5245E-03     40.8120E-03    -15.7957E-03     31.0979E-03    -15.4125E-03     40.7941E-03
             455     10.6348E-03     65.4123E-03    -5.09066E+06    -48.4758E+06     3.98041E+06    -421.380E+03    -15.9097E-03     31.4156E-03    -15.5059E-03     44.9243E-03    -15.8818E-03     31.1860E-03    -15.4083E-03     44.9024E-03
             456     11.5212E-03     65.4561E-03    -4.15593E+06    -38.8265E+06     5.19371E+06    -144.107E+03    -15.9619E-03     31.4537E-03    -15.4917E-03     49.1545E-03    -15.9513E-03     31.2754E-03    -15.4034E-03     49.1312E-03
             457     12.4075E-03     65.5036E-03    -3.39976E+06    -35.8220E+06     3.60128E+06     138.585E+03    -16.1534E-03     31.6277E-03    -15.4744E-03     54.9419E-03    -16.1524E-03     31.4771E-03    -15.3995E-03     54.9157E-03
             458     13.2936E-03     65.5584E-03    -3.16767E+06    -29.1243E+06    -2.74272E+06     355.339E+03    -16.1669E-03     31.5937E-03    -15.4268E-03     60.1949E-03    -16.1841E-03     31.5042E-03    -15.3937E-03     60.1646E-03
             459     14.1805E-03     65.6152E-03    -2.76504E+06     171.085E+03     1.53353E+06     422.377E+03    -15.9548E-03     31.3429E-03    -15.3881E-03     64.0985E-03    -16.0455E-03     31.4199E-03    -15.3766E-03     64.0671E-03
             460     15.0673E-03     65.6771E-03    -3.73558E+06     29.9931E+06    -1.13656E+06     93.2271E+03    -17.0828E-03     32.4085E-03    -15.3257E-03     81.9105E-03    -17.3374E-03     32.7596E-03    -15.3695E-03     81.8867E-03
             461     15.9505E-03     65.7690E-03    -5.04748E+06     72.4122E+06    -18.0976E+06     544.504E+03    -18.5602E-03     33.7597E-03    -15.1995E-03     115.650E-03    -19.4202E-03     34.9113E-03    -15.3877E-03     115.858E-03
             462     16.8408E-03     65.8945E-03    -3.02357E+06     130.139E+06     27.6352E+06     558.884E+03    -16.7805E-03     32.1192E-03    -15.3387E-03     105.901E-03    -17.9126E-03     33.6224E-03    -15.3848E-03     106.515E-03
             463     886.167E-06     66.1543E-03    -22.1772E+06    -69.6951E+06    -21.5731E+06    -126.297E+03    -15.4875E-03     30.9799E-03    -15.4925E-03     3.59534E-03    -15.4660E-03     30.6950E-03    -15.4671E-03     3.59321E-03
             464     1.77239E-03     66.1591E-03    -21.2928E+06    -68.1732E+06    -18.8830E+06    -183.860E+03    -15.4866E-03     30.9846E-03    -15.4980E-03     6.64937E-03    -15.4669E-03     30.7021E-03    -15.4627E-03     6.64605E-03
             465     2.65857E-03     66.1667E-03    -19.8372E+06    -66.2973E+06    -14.8953E+06    -237.826E+03    -15.4857E-03     30.9940E-03    -15.5083E-03     9.94267E-03    -15.4673E-03     30.7131E-03    -15.4579E-03     9.93816E-03
             466     3.54481E-03     66.1775E-03    -17.9439E+06    -64.2458E+06    -10.4658E+06    -253.063E+03    -15.4921E-03     31.0109E-03    -15.5189E-03     13.3503E-03    -15.4738E-03     30.7312E-03    -15.4520E-03     13.3450E-03
             467     4.43101E-03     66.1914E-03    -15.8168E+06    -62.2208E+06    -6.22637E+06    -326.744E+03    -15.5069E-03     31.0346E-03    -15.5277E-03     16.8820E-03    -15.4873E-03     30.7560E-03    -15.4456E-03     16.8752E-03
             468     5.31729E-03     66.2088E-03    -13.7758E+06    -61.0420E+06    -2.57761E+06    -342.518E+03    -15.5361E-03     31.0711E-03    -15.5350E-03     20.5554E-03    -15.5136E-03     30.7905E-03    -15.4394E-03     20.5476E-03
             469     6.20350E-03     66.2296E-03    -12.0155E+06    -59.3906E+06     115.555E+03    -421.786E+03    -15.5735E-03     31.1113E-03    -15.5378E-03     24.3901E-03    -15.5490E-03     30.8329E-03    -15.4337E-03     24.3803E-03
             470     7.08979E-03     66.2541E-03    -10.3333E+06    -57.4566E+06     2.22149E+06    -547.685E+03    -15.6211E-03     31.1588E-03    -15.5377E-03     28.3756E-03    -15.5948E-03     30.8853E-03    -15.4282E-03     28.3629E-03
             471     7.97601E-03     66.2823E-03    -8.77558E+06    -55.9635E+06     3.94321E+06    -487.314E+03    -15.6817E-03     31.2185E-03    -15.5368E-03     32.4742E-03    -15.6533E-03     30.9488E-03    -15.4232E-03     32.4607E-03
             472     8.86232E-03     66.3144E-03    -7.42305E+06    -53.2576E+06     4.90819E+06    -448.519E+03    -15.7493E-03     31.2804E-03    -15.5312E-03     36.6411E-03    -15.7210E-03     31.0225E-03    -15.4186E-03     36.6258E-03
             473     9.74855E-03     66.3503E-03    -6.24968E+06    -51.8224E+06     5.38748E+06    -379.828E+03    -15.8378E-03     31.3637E-03    -15.5259E-03     40.8071E-03    -15.8091E-03     31.1132E-03    -15.4148E-03     40.7896E-03
             474     10.6349E-03     66.3903E-03    -5.36665E+06    -48.3522E+06     3.76030E+06    -554.035E+03    -15.9169E-03     31.4250E-03    -15.5081E-03     44.8882E-03    -15.8903E-03     31.1968E-03    -15.4114E-03     44.8645E-03
             475     11.5211E-03     66.4337E-03    -4.51254E+06    -39.3773E+06     4.65524E+06    -377.335E+03    -15.9862E-03     31.4806E-03    -15.4945E-03     49.1500E-03    -15.9758E-03     31.3010E-03    -15.4075E-03     49.1237E-03
             476     12.4074E-03     66.4817E-03    -3.68543E+06    -36.0407E+06     3.02790E+06    -36.6994E+03    -16.1056E-03     31.5809E-03    -15.4753E-03     54.9649E-03    -16.1049E-03     31.4304E-03    -15.4026E-03     54.9365E-03
             477     13.2939E-03     66.5358E-03    -3.11878E+06    -29.3035E+06    -3.20944E+06     84.3518E+03    -16.1821E-03     31.6087E-03    -15.4266E-03     59.8606E-03    -16.1977E-03     31.5185E-03    -15.3957E-03     59.8268E-03
             478     14.1801E-03     66.5927E-03    -2.48458E+06      54.153E+03     1.31624E+06     358.262E+03    -16.2892E-03     31.6887E-03    -15.3995E-03     64.0447E-03    -16.3787E-03     31.7657E-03    -15.3894E-03     64.0111E-03
             479     15.0656E-03     66.6554E-03    -2.04790E+06     29.2873E+06    -1.44013E+06     1.12897E+06    -16.9586E-03     32.2980E-03    -15.3394E-03     83.2268E-03    -17.2057E-03     32.6460E-03    -15.3861E-03     83.2182E-03
             480     15.9538E-03     66.7481E-03    -2.61740E+06     72.7898E+06    -17.4606E+06     917.631E+03    -18.0320E-03     33.2254E-03    -15.1933E-03     116.468E-03    -18.8843E-03     34.3773E-03    -15.3824E-03     116.694E-03
             481     16.8371E-03     66.8702E-03    -2.60472E+06     131.089E+06     28.7297E+06     6.69956E+03    -16.9420E-03     32.2687E-03    -15.3268E-03     105.184E-03    -18.0724E-03     33.7720E-03    -15.3694E-03     105.791E-03
             482     886.202E-06     67.1322E-03    -22.6804E+06    -69.4094E+06    -22.0738E+06    -216.930E+03    -15.4824E-03     30.9777E-03    -15.4953E-03     3.60017E-03    -15.4631E-03     30.6956E-03    -15.4721E-03     3.59687E-03
             483     1.77237E-03     67.1368E-03    -21.6358E+06    -68.0043E+06    -19.1636E+06    -238.119E+03    -15.4844E-03     30.9820E-03    -15.4976E-03     6.65039E-03    -15.4663E-03     30.7012E-03    -15.4634E-03     6.64637E-03
             484     2.65859E-03     67.1446E-03    -20.0985E+06    -66.1132E+06    -15.1332E+06    -309.552E+03    -15.4847E-03     30.9923E-03    -15.5076E-03     9.94557E-03    -15.4675E-03     30.7130E-03    -15.4583E-03     9.94013E-03
             485     3.54478E-03     67.1553E-03    -18.2207E+06    -64.0630E+06    -10.6937E+06    -445.056E+03    -15.4897E-03     31.0077E-03    -15.5180E-03     13.3528E-03    -15.4727E-03     30.7296E-03    -15.4522E-03     13.3451E-03
             486     4.43105E-03     67.1693E-03    -16.1988E+06    -62.0522E+06    -6.46052E+06    -522.923E+03    -15.5065E-03     31.0334E-03    -15.5269E-03     16.8836E-03    -15.4887E-03     30.7566E-03    -15.4458E-03     16.8743E-03
             487     5.31725E-03     67.1866E-03    -14.1236E+06    -61.0388E+06    -2.86010E+06    -504.677E+03    -15.5373E-03     31.0719E-03    -15.5345E-03     20.5533E-03    -15.5162E-03     30.7922E-03    -15.4399E-03     20.5434E-03
             488     6.20352E-03     67.2075E-03    -12.0588E+06    -59.1453E+06    -83.8274E+03    -525.029E+03    -15.5759E-03     31.1132E-03    -15.5373E-03     24.3882E-03    -15.5517E-03     30.8364E-03    -15.4344E-03     24.3770E-03
             489     7.08975E-03     67.2319E-03    -10.2945E+06    -57.2980E+06     2.10625E+06    -629.784E+03    -15.6260E-03     31.1639E-03    -15.5379E-03     28.3726E-03    -15.5995E-03     30.8914E-03    -15.4294E-03     28.3588E-03
             490     7.97604E-03     67.2602E-03    -8.71744E+06    -56.0696E+06     3.78454E+06    -594.090E+03    -15.6893E-03     31.2271E-03    -15.5378E-03     32.4659E-03    -15.6602E-03     30.9570E-03    -15.4249E-03     32.4510E-03
             491     8.86226E-03     67.2922E-03    -7.32839E+06    -53.2289E+06     4.86487E+06    -458.778E+03    -15.7634E-03     31.2967E-03    -15.5333E-03     36.6362E-03    -15.7347E-03     31.0389E-03    -15.4212E-03     36.6207E-03
             492     9.74855E-03     67.3282E-03    -6.11083E+06    -51.8323E+06     5.27783E+06    -480.654E+03    -15.8459E-03     31.3743E-03    -15.5284E-03     40.8049E-03    -15.8162E-03     31.1237E-03    -15.4180E-03     40.7861E-03
             493     10.6348E-03     67.3680E-03    -5.20628E+06    -48.1067E+06     3.90585E+06    -432.716E+03    -15.9294E-03     31.4414E-03    -15.5121E-03     44.8749E-03    -15.9025E-03     31.2140E-03    -15.4152E-03     44.8527E-03
             494     11.5211E-03     67.4116E-03    -4.53337E+06    -39.6283E+06     4.59306E+06    -543.786E+03    -15.9913E-03     31.4901E-03    -15.4987E-03     49.1620E-03    -15.9807E-03     31.3093E-03    -15.4117E-03     49.1334E-03
             495     12.4074E-03     67.4594E-03    -3.80038E+06    -36.2851E+06     2.62395E+06    -359.107E+03    -16.1069E-03     31.5849E-03    -15.4780E-03     54.8684E-03    -16.1058E-03     31.4339E-03    -15.4068E-03     54.8359E-03
             496     13.2937E-03     67.5136E-03    -3.38683E+06    -29.2997E+06    -3.35741E+06    -154.336E+03    -16.2614E-03     31.6943E-03    -15.4329E-03     59.8878E-03    -16.2784E-03     31.6049E-03    -15.4023E-03     59.8506E-03
             497     14.1797E-03     67.5709E-03    -3.37519E+06    -807.761E+03     515.103E+03     85.9697E+03    -16.2730E-03     31.6790E-03    -15.4061E-03     64.4001E-03    -16.3651E-03     31.7548E-03    -15.3974E-03     64.3630E-03
             498     15.0669E-03     67.6332E-03    -2.93872E+06     28.9437E+06    -745.235E+03     324.959E+03    -16.6380E-03     31.9809E-03    -15.3429E-03     83.0038E-03    -16.8896E-03     32.3269E-03    -15.3843E-03     82.9873E-03
             499     15.9527E-03     67.7247E-03    -2.12176E+06     73.2196E+06    -16.0508E+06     743.642E+03    -17.8964E-03     33.0817E-03    -15.1853E-03     116.213E-03    -18.7479E-03     34.2322E-03    -15.3687E-03     116.437E-03
             500     16.8412E-03     67.8510E-03    -2.42336E+06     131.491E+06     29.0455E+06     972.436E+03    -17.2072E-03     32.5254E-03    -15.3182E-03     104.630E-03    -18.3330E-03     34.0251E-03    -15.3601E-03     105.241E-03
             501     886.168E-06     68.1100E-03    -22.9748E+06    -69.0032E+06    -22.2224E+06    -272.799E+03    -15.4836E-03     30.9749E-03    -15.4913E-03     3.59822E-03    -15.4662E-03     30.6955E-03    -15.4691E-03     3.59419E-03
             502     1.77239E-03     68.1147E-03    -21.9427E+06    -67.7965E+06    -19.3900E+06    -331.619E+03    -15.4820E-03     30.9784E-03    -15.4964E-03     6.64896E-03    -15.4654E-03     30.6994E-03    -15.4632E-03     6.64374E-03
             503     2.65857E-03     68.1223E-03    -20.3886E+06    -65.8711E+06    -15.3765E+06    -414.518E+03    -15.4822E-03     30.9882E-03    -15.5060E-03     9.94403E-03    -15.4665E-03     30.7109E-03    -15.4578E-03     9.93723E-03
             504     3.54482E-03     68.1331E-03    -18.5218E+06    -63.7439E+06    -10.8776E+06    -550.889E+03    -15.4903E-03     31.0072E-03    -15.5169E-03     13.3515E-03    -15.4751E-03     30.7315E-03    -15.4520E-03     13.3424E-03
             505     4.43101E-03     68.1471E-03    -16.5716E+06    -61.9892E+06    -6.80921E+06    -571.021E+03    -15.5077E-03     31.0337E-03    -15.5260E-03     16.8825E-03    -15.4913E-03     30.7582E-03    -15.4461E-03     16.8725E-03
             506     5.31728E-03     68.1645E-03    -14.6131E+06    -60.7520E+06    -3.44709E+06    -704.199E+03    -15.5372E-03     31.0697E-03    -15.5326E-03     20.5565E-03    -15.5180E-03     30.7931E-03    -15.4405E-03     20.5440E-03
             507     6.20349E-03     68.1852E-03    -12.6640E+06    -59.0645E+06    -696.644E+03    -826.403E+03    -15.5787E-03     31.1147E-03    -15.5360E-03     24.3919E-03    -15.5567E-03     30.8401E-03    -15.4355E-03     24.3769E-03
             508     7.08976E-03     68.2098E-03    -10.8284E+06    -57.1690E+06     1.69843E+06    -733.273E+03    -15.6310E-03     31.1692E-03    -15.5382E-03     28.3720E-03    -15.6068E-03     30.8986E-03    -15.4311E-03     28.3569E-03
             509     7.97598E-03     68.2379E-03    -9.23015E+06    -56.0368E+06     3.40808E+06    -762.945E+03    -15.6975E-03     31.2366E-03    -15.5391E-03     32.4669E-03    -15.6705E-03     30.9679E-03    -15.4274E-03     32.4498E-03
             510     8.86226E-03     68.2701E-03    -7.65154E+06    -53.3448E+06     4.40093E+06    -703.656E+03    -15.7693E-03     31.3040E-03    -15.5347E-03     36.6483E-03    -15.7414E-03     31.0467E-03    -15.4242E-03     36.6297E-03
             511     9.74848E-03     68.3060E-03    -6.33823E+06    -51.7294E+06     4.91668E+06    -577.012E+03    -15.8497E-03     31.3798E-03    -15.5301E-03     40.8047E-03    -15.8208E-03     31.1305E-03    -15.4213E-03     40.7847E-03
             512     10.6348E-03     68.3459E-03    -5.32898E+06    -48.2714E+06     3.49415E+06    -490.615E+03    -15.9378E-03     31.4517E-03    -15.5139E-03     44.8925E-03    -15.9107E-03     31.2243E-03    -15.4188E-03     44.8696E-03
             513     11.5210E-03     68.3894E-03    -4.50570E+06    -39.2401E+06     4.41883E+06    -544.408E+03    -15.9940E-03     31.4949E-03    -15.5010E-03     49.1325E-03    -15.9835E-03     31.3163E-03    -15.4154E-03     49.1039E-03
             514     12.4073E-03     68.4372E-03    -3.87202E+06    -36.7732E+06     2.38689E+06    -546.103E+03    -16.1347E-03     31.6168E-03    -15.4821E-03     54.8860E-03    -16.1329E-03     31.4639E-03    -15.4113E-03     54.8510E-03
             515     13.2935E-03     68.4914E-03    -3.64555E+06    -29.3819E+06    -3.64002E+06    -224.310E+03    -16.2681E-03     31.7054E-03    -15.4373E-03     59.9661E-03    -16.2860E-03     31.6165E-03    -15.4076E-03     59.9280E-03
             516     14.1801E-03     68.5486E-03    -3.49193E+06    -1.36636E+06     111.455E+03     64.1577E+03    -16.1406E-03     31.5469E-03    -15.4063E-03     64.1908E-03    -16.2314E-03     31.6202E-03    -15.3987E-03     64.1540E-03
             517     15.0660E-03     68.6108E-03    -3.72330E+06     28.4759E+06    -1.55807E+06     669.336E+03    -16.7878E-03     32.1301E-03    -15.3423E-03     82.9613E-03    -17.0427E-03     32.4774E-03    -15.3860E-03     82.9483E-03
             518     15.9531E-03     68.7027E-03    -5.67758E+06     73.4476E+06    -16.8341E+06     477.021E+03    -18.0397E-03     33.2361E-03    -15.1964E-03     116.310E-03    -18.9095E-03     34.3953E-03    -15.3789E-03     116.531E-03
             519     16.8375E-03     68.8281E-03    -4.57761E+06     131.354E+06     27.9843E+06     104.047E+03    -16.9155E-03     32.2386E-03    -15.3232E-03     104.344E-03    -18.0469E-03     33.7390E-03    -15.3671E-03     104.946E-03
             520     886.202E-06     69.0879E-03    -22.7284E+06    -68.5547E+06    -22.0019E+06    -196.574E+03    -15.4959E-03     30.9751E-03    -15.4793E-03     3.59170E-03    -15.4782E-03     30.6973E-03    -15.4569E-03     3.58867E-03
             521     1.77236E-03     69.0925E-03    -21.7777E+06    -67.5344E+06    -19.1547E+06    -334.301E+03    -15.4821E-03     30.9790E-03    -15.4969E-03     6.64463E-03    -15.4654E-03     30.7008E-03    -15.4632E-03     6.63937E-03
             522     2.65860E-03     69.1002E-03    -20.3126E+06    -65.5419E+06    -15.3016E+06    -473.197E+03    -15.4832E-03     30.9892E-03    -15.5060E-03     9.94010E-03    -15.4677E-03     30.7133E-03    -15.4580E-03     9.93254E-03
             523     3.54478E-03     69.1109E-03    -18.5401E+06    -63.4871E+06    -11.0555E+06    -579.497E+03    -15.4913E-03     31.0073E-03    -15.5160E-03     13.3489E-03    -15.4762E-03     30.7331E-03    -15.4524E-03     13.3394E-03
             524     4.43104E-03     69.1250E-03    -16.5632E+06    -61.8350E+06    -7.00317E+06    -653.880E+03    -15.5092E-03     31.0346E-03    -15.5254E-03     16.8810E-03    -15.4928E-03     30.7601E-03    -15.4467E-03     16.8699E-03
             525     5.31725E-03     69.1423E-03    -14.6043E+06    -60.3782E+06    -3.55713E+06    -767.969E+03    -15.5407E-03     31.0731E-03    -15.5324E-03     20.5570E-03    -15.5219E-03     30.7985E-03    -15.4415E-03     20.5436E-03
             526     6.20351E-03     69.1631E-03    -12.8315E+06    -58.8300E+06    -884.721E+03    -943.042E+03    -15.5835E-03     31.1199E-03    -15.5364E-03     24.3929E-03    -15.5624E-03     30.8470E-03    -15.4370E-03     24.3763E-03
             527     7.08972E-03     69.1875E-03    -11.1631E+06    -57.3122E+06     1.26764E+06    -884.367E+03    -15.6360E-03     31.1747E-03    -15.5387E-03     28.3777E-03    -15.6126E-03     30.9046E-03    -15.4331E-03     28.3606E-03
             528     7.97599E-03     69.2158E-03    -9.58957E+06    -55.6960E+06     3.07692E+06    -860.370E+03    -15.7017E-03     31.2416E-03    -15.5399E-03     32.4801E-03    -15.6765E-03     30.9757E-03    -15.4298E-03     32.4617E-03
             529     8.86221E-03     69.2478E-03    -8.19243E+06    -53.3851E+06     3.91191E+06    -1.03252E+06    -15.7713E-03     31.3071E-03    -15.5358E-03     36.6566E-03    -15.7453E-03     31.0511E-03    -15.4269E-03     36.6337E-03
             530     9.74849E-03     69.2839E-03    -6.82125E+06    -51.9184E+06     4.36594E+06    -802.206E+03    -15.8520E-03     31.3831E-03    -15.5311E-03     40.8161E-03    -15.8245E-03     31.1344E-03    -15.4241E-03     40.7931E-03
             531     10.6347E-03     69.3237E-03    -5.71277E+06    -48.1770E+06     3.06663E+06    -712.394E+03    -15.9422E-03     31.4574E-03    -15.5152E-03     44.9086E-03    -15.9166E-03     31.2316E-03    -15.4217E-03     44.8828E-03
             532     11.5210E-03     69.3674E-03    -4.88736E+06    -39.2760E+06     3.90261E+06     -611.13E+03    -15.9998E-03     31.5020E-03    -15.5022E-03     49.1153E-03    -15.9904E-03     31.3245E-03    -15.4186E-03     49.0859E-03
             533     12.4073E-03     69.4149E-03    -4.29888E+06    -36.7307E+06     1.91853E+06    -612.126E+03    -16.1228E-03     31.6060E-03    -15.4832E-03     54.8933E-03    -16.1226E-03     31.4546E-03    -15.4141E-03     54.8575E-03
             534     13.2936E-03     69.4694E-03    -3.81284E+06    -29.8226E+06    -4.10643E+06    -466.837E+03    -16.2593E-03     31.6970E-03    -15.4377E-03     60.0458E-03    -16.2765E-03     31.6067E-03    -15.4095E-03     60.0047E-03
             535     14.1795E-03     69.5264E-03    -3.31599E+06    -1.78964E+06    -388.930E+03    -63.8619E+03    -16.2607E-03     31.6702E-03    -15.4094E-03     63.9516E-03    -16.3495E-03     31.7419E-03    -15.4040E-03     63.9128E-03
             536     15.0671E-03     69.5880E-03    -2.55326E+06     27.7432E+06    -2.24363E+06     642.088E+03    -16.9187E-03     32.2691E-03    -15.3505E-03     82.9552E-03    -17.1667E-03     32.6131E-03    -15.3982E-03     82.9411E-03
             537     15.9521E-03     69.6817E-03    -1.63175E+06     73.6458E+06    -17.4397E+06     1.44882E+06    -17.9646E-03     33.1643E-03    -15.1997E-03     116.259E-03    -18.8099E-03     34.3158E-03    -15.3913E-03     116.493E-03
             538     16.8402E-03     69.8054E-03    -2.06452E+06     132.167E+06     28.8558E+06     471.899E+03    -16.8602E-03     32.1907E-03    -15.3305E-03     104.466E-03    -17.9814E-03     33.6901E-03    -15.3748E-03     105.078E-03
             539     886.169E-06     70.0656E-03    -22.9424E+06    -68.2109E+06    -22.1458E+06    -176.754E+03    -15.4929E-03     30.9723E-03    -15.4794E-03     3.57377E-03    -15.4766E-03     30.6967E-03    -15.4579E-03     3.57099E-03
             540     1.77240E-03     70.0704E-03    -21.8756E+06    -67.1710E+06    -19.2663E+06    -316.360E+03    -15.4830E-03     30.9791E-03    -15.4961E-03     6.64221E-03    -15.4671E-03     30.7030E-03    -15.4633E-03     6.63719E-03
             541     2.65856E-03     70.0780E-03    -20.3581E+06    -65.1919E+06    -15.4725E+06    -504.858E+03    -15.4845E-03     30.9899E-03    -15.5054E-03     9.93956E-03    -15.4695E-03     30.7160E-03    -15.4587E-03     9.93160E-03
             542     3.54481E-03     70.0888E-03    -18.5585E+06    -63.2256E+06    -11.2102E+06    -622.266E+03    -15.4920E-03     31.0079E-03    -15.5158E-03     13.3482E-03    -15.4772E-03     30.7352E-03    -15.4533E-03     13.3381E-03
             543     4.43101E-03     70.1027E-03    -16.6322E+06    -61.5440E+06    -7.12580E+06    -761.770E+03    -15.5121E-03     31.0377E-03    -15.5256E-03     16.8799E-03    -15.4962E-03     30.7649E-03    -15.4479E-03     16.8674E-03
             544     5.31726E-03     70.1201E-03    -14.6788E+06    -60.1365E+06    -3.73767E+06    -852.276E+03    -15.5438E-03     31.0766E-03    -15.5328E-03     20.5585E-03    -15.5255E-03     30.8035E-03    -15.4430E-03     20.5441E-03
             545     6.20347E-03     70.1409E-03    -12.8722E+06    -58.5165E+06    -1.05550E+06    -917.572E+03    -15.5856E-03     31.1226E-03    -15.5370E-03     24.3964E-03    -15.5650E-03     30.8516E-03    -15.4387E-03     24.3802E-03
             546     7.08973E-03     70.1654E-03    -11.1877E+06    -57.2820E+06     1.08909E+06    -1.02681E+06    -15.6396E-03     31.1794E-03    -15.5397E-03     28.3850E-03    -15.6162E-03     30.9097E-03    -15.4350E-03     28.3662E-03
             547     7.97595E-03     70.1936E-03    -9.55582E+06    -55.5333E+06     2.81799E+06    -1.01283E+06    -15.7033E-03     31.2436E-03    -15.5403E-03     32.4941E-03    -15.6778E-03     30.9788E-03    -15.4318E-03     32.4737E-03
             548     8.86221E-03     70.2258E-03    -8.17825E+06    -53.0605E+06     3.97876E+06    -1.07282E+06    -15.7731E-03     31.3107E-03    -15.5375E-03     36.6612E-03    -15.7476E-03     31.0562E-03    -15.4289E-03     36.6378E-03
             549     9.74843E-03     70.2616E-03    -6.98301E+06    -52.2376E+06     4.11449E+06    -1.13439E+06    -15.8555E-03     31.3880E-03    -15.5326E-03     40.8331E-03    -15.8279E-03     31.1383E-03    -15.4261E-03     40.8059E-03
             550     10.6347E-03     70.3016E-03    -5.91997E+06    -48.0941E+06     2.92521E+06    -866.709E+03    -15.9380E-03     31.4544E-03    -15.5164E-03     44.9353E-03    -15.9134E-03     31.2296E-03    -15.4235E-03     44.9076E-03
             551     11.5209E-03     70.3451E-03    -5.06368E+06    -39.4246E+06     3.82519E+06    -787.777E+03    -16.0113E-03     31.5155E-03    -15.5042E-03     49.1274E-03    -16.0025E-03     31.3377E-03    -15.4206E-03     49.0957E-03
             552     12.4072E-03     70.3928E-03    -4.50353E+06    -36.6860E+06     1.79517E+06    -584.928E+03    -16.1339E-03     31.6195E-03    -15.4856E-03     54.8339E-03    -16.1347E-03     31.4689E-03    -15.4169E-03     54.7983E-03
             553     13.2935E-03     70.4470E-03    -4.42859E+06    -29.9311E+06    -4.37839E+06    -603.357E+03    -16.2272E-03     31.6667E-03    -15.4396E-03     59.9899E-03    -16.2468E-03     31.5770E-03    -15.4116E-03     59.9472E-03
             554     14.1803E-03     70.5044E-03    -4.27423E+06    -2.10339E+06    -726.511E+03    -525.915E+03    -16.4511E-03     31.8675E-03    -15.4163E-03     64.2079E-03    -16.5443E-03     31.9401E-03    -15.4107E-03     64.1624E-03
             555     15.0648E-03     70.5662E-03    -3.20963E+06     26.9996E+06    -2.80480E+06    -476.253E+03    -16.8774E-03     32.2380E-03    -15.3606E-03     83.0034E-03    -17.1275E-03     32.5807E-03    -15.4091E-03     82.9757E-03
             556     15.9527E-03     70.6590E-03    -3.09335E+06     72.4825E+06    -17.1943E+06    -24.1834E+03    -17.7720E-03     32.9803E-03    -15.2083E-03     116.567E-03    -18.6223E-03     34.1269E-03    -15.3949E-03     116.783E-03
             557     16.8382E-03     70.7828E-03    -2.66165E+06     132.882E+06     29.6793E+06     1.10941E+06    -16.9874E-03     32.3224E-03    -15.3350E-03     104.563E-03    -18.1129E-03     33.8241E-03    -15.3754E-03     105.181E-03
             558     886.203E-06     71.0435E-03    -23.1752E+06    -67.9078E+06    -22.4063E+06    -119.674E+03    -15.4804E-03     30.9716E-03    -15.4911E-03     3.56898E-03    -15.4653E-03     30.6982E-03    -15.4711E-03     3.56693E-03
             559     1.77236E-03     71.0481E-03    -22.1466E+06    -66.7245E+06    -19.7024E+06    -366.654E+03    -15.4830E-03     30.9777E-03    -15.4947E-03     6.63988E-03    -15.4685E-03     30.7048E-03    -15.4643E-03     6.63420E-03
             560     2.65860E-03     71.0559E-03    -20.6586E+06    -64.7905E+06    -15.7754E+06    -589.293E+03    -15.4847E-03     30.9897E-03    -15.5049E-03     9.93632E-03    -15.4714E-03     30.7187E-03    -15.4599E-03     9.92726E-03
             561     3.54478E-03     71.0666E-03    -18.8000E+06    -62.9331E+06    -11.3537E+06    -741.491E+03    -15.4945E-03     31.0112E-03    -15.5167E-03     13.3452E-03    -15.4812E-03     30.7406E-03    -15.4549E-03     13.3336E-03
             562     4.43102E-03     71.0806E-03    -16.7806E+06    -61.1822E+06    -7.30632E+06    -868.513E+03    -15.5135E-03     31.0399E-03    -15.5264E-03     16.8807E-03    -15.4987E-03     30.7694E-03    -15.4498E-03     16.8668E-03
             563     5.31723E-03     71.0979E-03    -14.8028E+06    -59.9174E+06    -3.94720E+06    -986.470E+03    -15.5444E-03     31.0779E-03    -15.5336E-03     20.5612E-03    -15.5267E-03     30.8064E-03    -15.4450E-03     20.5451E-03
             564     6.20348E-03     71.1188E-03    -12.9095E+06    -58.3148E+06    -1.24149E+06    -1.01450E+06    -15.5858E-03     31.1233E-03    -15.5376E-03     24.4018E-03    -15.5653E-03     30.8536E-03    -15.4405E-03     24.3843E-03
             565     7.08970E-03     71.1432E-03    -11.2014E+06    -56.9401E+06     1.00800E+06    -1.13390E+06    -15.6400E-03     31.1804E-03    -15.5405E-03     28.3931E-03    -15.6169E-03     30.9126E-03    -15.4366E-03     28.3729E-03
             566     7.97595E-03     71.1715E-03    -9.68292E+06    -55.5500E+06     2.61926E+06    -1.18517E+06    -15.7004E-03     31.2412E-03    -15.5408E-03     32.5035E-03    -15.6752E-03     30.9769E-03    -15.4331E-03     32.4810E-03
             567     8.86219E-03     71.2035E-03    -8.29054E+06    -52.7942E+06     3.78478E+06    -1.12319E+06    -15.7689E-03     31.3061E-03    -15.5372E-03     36.6796E-03    -15.7440E-03     31.0534E-03    -15.4297E-03     36.6556E-03
             568     9.74846E-03     71.2396E-03    -7.13265E+06    -52.0790E+06     4.09682E+06    -1.23072E+06    -15.8522E-03     31.3852E-03    -15.5330E-03     40.8491E-03    -15.8256E-03     31.1365E-03    -15.4266E-03     40.8206E-03
             569     10.6347E-03     71.2793E-03    -6.06937E+06    -48.4091E+06     2.59748E+06    -1.19149E+06    -15.9291E-03     31.4445E-03    -15.5154E-03     44.9617E-03    -15.9043E-03     31.2188E-03    -15.4235E-03     44.9297E-03
             570     11.5210E-03     71.3231E-03    -5.11051E+06    -39.3833E+06     3.82523E+06    -902.165E+03    -16.0201E-03     31.5242E-03    -15.5041E-03     49.1956E-03    -16.0116E-03     31.3467E-03    -15.4205E-03     49.1624E-03
             571     12.4072E-03     71.3706E-03    -4.32547E+06    -37.0208E+06     1.88534E+06    -692.673E+03    -16.1914E-03     31.6797E-03    -15.4883E-03     54.8271E-03    -16.1910E-03     31.5271E-03    -15.4190E-03     54.7900E-03
             572     13.2935E-03     71.4248E-03    -4.15027E+06    -29.9558E+06    -4.29857E+06    -345.847E+03    -16.2579E-03     31.7025E-03    -15.4446E-03     59.8845E-03    -16.2764E-03     31.6123E-03    -15.4166E-03     59.8449E-03
             573     14.1794E-03     71.4820E-03    -4.23205E+06    -1.81748E+06    -634.183E+03    -491.246E+03    -16.1969E-03     31.6106E-03    -15.4138E-03     64.7334E-03    -16.2897E-03     31.6839E-03    -15.4082E-03     64.6894E-03
             574     15.0668E-03     71.5454E-03    -5.15094E+06     27.1742E+06    -4.27906E+06    -986.340E+03    -17.1281E-03     32.4808E-03    -15.3527E-03     83.1067E-03    -17.3877E-03     32.8309E-03    -15.4060E-03     83.0706E-03
             575     15.9528E-03     71.6345E-03    -6.29446E+06     72.5643E+06    -18.4412E+06    -206.689E+03    -18.0706E-03     33.2919E-03    -15.2213E-03     115.537E-03    -18.9357E-03     34.4457E-03    -15.4096E-03     115.749E-03
             576     16.8396E-03     71.7639E-03    -4.24619E+06     132.223E+06     27.9274E+06     418.239E+03    -16.4680E-03     31.8090E-03    -15.3411E-03     104.161E-03    -17.5940E-03     33.3084E-03    -15.3870E-03     104.772E-03
             577     886.169E-06     72.0213E-03    -23.0876E+06    -67.5332E+06    -22.5024E+06    -140.100E+03    -15.4734E-03     30.9726E-03    -15.4991E-03     3.57269E-03    -15.4583E-03     30.7011E-03    -15.4802E-03     3.57038E-03
             578     1.77239E-03     72.0260E-03    -22.1029E+06    -66.2106E+06    -19.6482E+06    -450.785E+03    -15.4854E-03     30.9810E-03    -15.4956E-03     6.64025E-03    -15.4715E-03     30.7106E-03    -15.4658E-03     6.63349E-03
             579     2.65856E-03     72.0336E-03    -20.6202E+06    -64.3968E+06    -15.6926E+06    -628.746E+03    -15.4874E-03     30.9941E-03    -15.5068E-03     9.93644E-03    -15.4745E-03     30.7250E-03    -15.4620E-03     9.92687E-03
             580     3.54479E-03     72.0445E-03    -18.8638E+06    -62.4995E+06    -11.3966E+06    -830.326E+03    -15.4961E-03     31.0142E-03    -15.5182E-03     13.3481E-03    -15.4836E-03     30.7459E-03    -15.4572E-03     13.3354E-03
             581     4.43099E-03     72.0584E-03    -16.8999E+06    -60.8379E+06    -7.40637E+06    -1.01880E+06    -15.5145E-03     31.0422E-03    -15.5278E-03     16.8839E-03    -15.5006E-03     30.7738E-03    -15.4521E-03     16.8681E-03
             582     5.31723E-03     72.0758E-03    -14.8839E+06    -59.5754E+06    -4.02509E+06    -1.15745E+06    -15.5445E-03     31.0794E-03    -15.5349E-03     20.5640E-03    -15.5276E-03     30.8098E-03    -15.4471E-03     20.5456E-03
             583     6.20345E-03     72.0966E-03    -12.9374E+06    -58.1455E+06    -1.37594E+06    -1.25315E+06    -15.5854E-03     31.1239E-03    -15.5386E-03     24.4065E-03    -15.5651E-03     30.8553E-03    -15.4424E-03     24.3859E-03
             584     7.08970E-03     72.1211E-03    -11.1790E+06    -56.6898E+06     940.661E+03    -1.21678E+06    -15.6358E-03     31.1769E-03    -15.5411E-03     28.3993E-03    -15.6129E-03     30.9104E-03    -15.4380E-03     28.3780E-03
             585     7.97594E-03     72.1493E-03    -9.60852E+06    -55.3234E+06     2.64981E+06    -1.32023E+06    -15.6957E-03     31.2369E-03    -15.5412E-03     32.5046E-03    -15.6705E-03     30.9735E-03    -15.4338E-03     32.4803E-03
             586     8.86221E-03     72.1815E-03    -8.16863E+06    -52.8426E+06     3.65374E+06    -1.28438E+06    -15.7611E-03     31.2976E-03    -15.5364E-03     36.6904E-03    -15.7354E-03     31.0447E-03    -15.4297E-03     36.6643E-03
             587     9.74844E-03     72.2174E-03    -6.94440E+06    -51.6756E+06     4.14137E+06    -1.25691E+06    -15.8438E-03     31.3753E-03    -15.5315E-03     40.8543E-03    -15.8169E-03     31.1283E-03    -15.4258E-03     40.8255E-03
             588     10.6347E-03     72.2573E-03    -6.05185E+06    -48.4388E+06     2.53830E+06    -1.42064E+06    -15.9295E-03     31.4436E-03    -15.5140E-03     44.9578E-03    -15.9045E-03     31.2177E-03    -15.4223E-03     44.9230E-03
             589     11.5210E-03     72.3008E-03    -5.12736E+06    -39.7477E+06     3.55203E+06    -1.19375E+06    -16.0056E-03     31.5072E-03    -15.5016E-03     49.2457E-03    -15.9962E-03     31.3282E-03    -15.4188E-03     49.2087E-03
             590     12.4073E-03     72.3487E-03    -4.32595E+06    -37.1239E+06     1.59306E+06     -863.56E+03    -16.2157E-03     31.7013E-03    -15.4856E-03     54.9518E-03    -16.2148E-03     31.5487E-03    -15.4175E-03     54.9124E-03
             591     13.2933E-03     72.4026E-03    -3.77041E+06    -30.4601E+06    -4.61609E+06    -599.297E+03    -16.3405E-03     31.7856E-03    -15.4451E-03     59.8611E-03    -16.3561E-03     31.6931E-03    -15.4186E-03     59.8179E-03
             592     14.1801E-03     72.4598E-03    -3.64254E+06    -1.66035E+06    -555.083E+03    -256.616E+03    -16.2655E-03     31.6856E-03    -15.4202E-03     64.0980E-03    -16.3556E-03     31.7585E-03    -15.4153E-03     64.0567E-03
             593     15.0667E-03     72.5218E-03    -3.48334E+06     28.1253E+06    -2.78722E+06    -6.46723E+03    -17.2328E-03     32.6007E-03    -15.3679E-03     83.3480E-03    -17.4877E-03     32.9512E-03    -15.4175E-03     83.3238E-03
             594     15.9499E-03     72.6174E-03    -3.36478E+06     71.5083E+06    -19.5794E+06    -274.372E+03    -17.9042E-03     33.1263E-03    -15.2221E-03     115.113E-03    -18.7459E-03     34.2667E-03    -15.4188E-03     115.329E-03
             595     16.8378E-03     72.7343E-03    -2.33870E+06     131.313E+06     27.0654E+06    -437.809E+03    -16.3405E-03     31.6775E-03    -15.3370E-03     104.894E-03    -17.4630E-03     33.1794E-03    -15.3887E-03     105.507E-03
             596     886.199E-06     72.9992E-03    -23.2144E+06    -67.0516E+06    -22.5997E+06    -309.107E+03    -15.4701E-03     30.9737E-03    -15.5036E-03     3.57095E-03    -15.4561E-03     30.7049E-03    -15.4857E-03     3.56647E-03
             597     1.77236E-03     73.0038E-03    -22.2048E+06    -65.6501E+06    -19.7176E+06    -504.787E+03    -15.4852E-03     30.9813E-03    -15.4961E-03     6.64413E-03    -15.4725E-03     30.7139E-03    -15.4673E-03     6.63667E-03
             598     2.65857E-03     73.0115E-03    -20.6647E+06    -63.9834E+06    -15.7478E+06    -734.107E+03    -15.4895E-03     30.9971E-03    -15.5075E-03     9.94121E-03    -15.4774E-03     30.7301E-03    -15.4635E-03     9.93028E-03
             599     3.54477E-03     73.0223E-03    -18.7794E+06    -62.0442E+06    -11.3585E+06    -879.098E+03    -15.4981E-03     31.0176E-03    -15.5194E-03     13.3520E-03    -15.4859E-03     30.7514E-03    -15.4590E-03     13.3386E-03
             600     4.43099E-03     73.0363E-03    -16.8267E+06    -60.3446E+06    -7.27387E+06    -1.12924E+06    -15.5166E-03     31.0462E-03    -15.5296E-03     16.8864E-03    -15.5033E-03     30.7800E-03    -15.4541E-03     16.8692E-03
             601     5.31721E-03     73.0536E-03    -14.8626E+06    -59.2202E+06    -4.00135E+06    -1.33265E+06    -15.5462E-03     31.0827E-03    -15.5365E-03     20.5667E-03    -15.5297E-03     30.8148E-03    -15.4491E-03     20.5461E-03
             602     6.20345E-03     73.0745E-03    -13.0219E+06    -57.8453E+06    -1.38471E+06    -1.43317E+06    -15.5849E-03     31.1250E-03    -15.5401E-03     24.4078E-03    -15.5655E-03     30.8580E-03    -15.4443E-03     24.3849E-03
             603     7.08969E-03     73.0989E-03    -11.1862E+06    -56.5558E+06     848.458E+03    -1.50606E+06    -15.6319E-03     31.1738E-03    -15.5420E-03     28.3957E-03    -15.6091E-03     30.9081E-03    -15.4395E-03     28.3707E-03
             604     7.97595E-03     73.1272E-03    -9.41690E+06    -54.9489E+06     2.66581E+06    -1.55033E+06    -15.6907E-03     31.2320E-03    -15.5413E-03     32.5017E-03    -15.6651E-03     30.9702E-03    -15.4347E-03     32.4744E-03
             605     8.86219E-03     73.1592E-03    -7.82702E+06    -52.8905E+06     3.71041E+06    -1.59489E+06    -15.7546E-03     31.2910E-03    -15.5364E-03     36.6767E-03    -15.7272E-03     31.0373E-03    -15.4298E-03     36.6466E-03
             606     9.74849E-03     73.1953E-03    -6.46535E+06    -51.5884E+06     4.12986E+06    -1.40183E+06    -15.8366E-03     31.3665E-03    -15.5299E-03     40.8571E-03    -15.8074E-03     31.1192E-03    -15.4251E-03     40.8264E-03
             607     10.6347E-03     73.2350E-03    -5.52994E+06    -48.0983E+06     2.81411E+06    -1.38263E+06    -15.9241E-03     31.4369E-03    -15.5128E-03     44.9540E-03    -15.8974E-03     31.2116E-03    -15.4210E-03     44.9196E-03
             608     11.5210E-03     73.2787E-03    -4.89818E+06    -40.0626E+06     3.48391E+06    -1.41958E+06    -15.9819E-03     31.4808E-03    -15.4990E-03     49.2655E-03    -15.9708E-03     31.3000E-03    -15.4163E-03     49.2257E-03
             609     12.4073E-03     73.3264E-03    -4.04788E+06    -37.2417E+06     1.49958E+06    -1.20639E+06    -16.1515E-03     31.6307E-03    -15.4792E-03     55.1035E-03    -16.1488E-03     31.4771E-03    -15.4118E-03     55.0599E-03
             610     13.2936E-03     73.3809E-03    -3.44524E+06    -30.6324E+06    -4.56491E+06    -1.05061E+06    -16.4048E-03     31.8440E-03    -15.4393E-03     60.0315E-03    -16.4187E-03     31.7502E-03    -15.4127E-03     59.9823E-03
             611     14.1792E-03     73.4373E-03    -2.88564E+06    -2.48430E+06    -293.101E+03    -392.159E+03    -16.5683E-03     31.9946E-03    -15.4263E-03     64.7435E-03    -16.6555E-03     32.0636E-03    -15.4200E-03     64.6992E-03
             612     15.0642E-03     73.5011E-03    -1.58547E+06     27.3936E+06    -1.75099E+06     737.834E+03    -16.4950E-03     31.8566E-03    -15.3616E-03     84.4308E-03    -16.7368E-03     32.1951E-03    -15.4078E-03     84.4215E-03
             613     15.9546E-03     73.5931E-03    -2.87192E+06     71.9478E+06    -17.5882E+06    -66.8501E+03    -17.4589E-03     32.6437E-03    -15.1848E-03     116.252E-03    -18.2966E-03     33.7776E-03    -15.3729E-03     116.469E-03
             614     16.8403E-03     73.7145E-03    -3.15034E+06     131.771E+06     28.6943E+06    -1.10804E+06    -17.1911E-03     32.5002E-03    -15.3091E-03     105.425E-03    -18.3239E-03     34.0064E-03    -15.3521E-03     106.019E-03
             615     886.162E-06     73.9770E-03    -23.3433E+06    -66.4156E+06    -22.7051E+06    -380.777E+03    -15.4681E-03     30.9750E-03    -15.5069E-03     3.56804E-03    -15.4556E-03     30.7098E-03    -15.4903E-03     3.56262E-03
             616     1.77238E-03     73.9817E-03    -22.3368E+06    -65.0816E+06    -19.9219E+06    -611.516E+03    -15.4853E-03     30.9816E-03    -15.4963E-03     6.64760E-03    -15.4738E-03     30.7175E-03    -15.4692E-03     6.63876E-03
             617     2.65856E-03     73.9893E-03    -20.7934E+06    -63.4070E+06    -15.8652E+06    -878.575E+03    -15.4912E-03     30.9994E-03    -15.5082E-03     9.94042E-03    -15.4804E-03     30.7357E-03    -15.4654E-03     9.92763E-03
             618     3.54477E-03     74.0001E-03    -18.8458E+06    -61.6390E+06    -11.4129E+06    -1.09670E+06    -15.5007E-03     31.0215E-03    -15.5209E-03     13.3496E-03    -15.4893E-03     30.7576E-03    -15.4612E-03     13.3334E-03
             619     4.43098E-03     74.0141E-03    -16.6963E+06    -59.7310E+06    -7.22555E+06    -1.29178E+06    -15.5181E-03     31.0492E-03    -15.5311E-03     16.8861E-03    -15.5050E-03     30.7858E-03    -15.4564E-03     16.8668E-03
             620     5.31721E-03     74.0315E-03    -14.6745E+06    -58.8955E+06    -3.74651E+06    -1.46138E+06    -15.5495E-03     31.0889E-03    -15.5394E-03     20.5621E-03    -15.5329E-03     30.8220E-03    -15.4515E-03     20.5399E-03
             621     6.20343E-03     74.0523E-03    -12.7878E+06    -57.4501E+06    -1.20397E+06    -1.57174E+06    -15.5859E-03     31.1284E-03    -15.5425E-03     24.4015E-03    -15.5662E-03     30.8628E-03    -15.4466E-03     24.3768E-03
             622     7.08967E-03     74.0768E-03    -11.0102E+06    -56.1029E+06     869.351E+03    -1.85767E+06    -15.6320E-03     31.1752E-03    -15.5432E-03     28.3884E-03    -15.6090E-03     30.9115E-03    -15.4416E-03     28.3589E-03
             623     7.97592E-03     74.1049E-03    -9.32182E+06    -54.8812E+06     2.52139E+06    -1.89198E+06    -15.6867E-03     31.2287E-03    -15.5420E-03     32.4935E-03    -15.6605E-03     30.9673E-03    -15.4363E-03     32.4618E-03
             624     8.86220E-03     74.1372E-03    -7.84353E+06    -52.5248E+06     3.65857E+06    -1.89672E+06    -15.7516E-03     31.2884E-03    -15.5368E-03     36.6604E-03    -15.7247E-03     31.0366E-03    -15.4309E-03     36.6264E-03
             625     9.74845E-03     74.1730E-03    -6.44258E+06    -51.9334E+06     3.96065E+06    -1.81538E+06    -15.8273E-03     31.3573E-03    -15.5300E-03     40.8413E-03    -15.7972E-03     31.1085E-03    -15.4256E-03     40.8053E-03
             626     10.6348E-03     74.2130E-03    -5.27741E+06    -47.8970E+06     2.78728E+06    -1.45820E+06    -15.9071E-03     31.4185E-03    -15.5114E-03     44.9398E-03    -15.8793E-03     31.1939E-03    -15.4203E-03     44.9045E-03
             627     11.5210E-03     74.2563E-03    -4.45369E+06    -39.9117E+06     3.69633E+06    -1.49130E+06    -15.9690E-03     31.4664E-03    -15.4974E-03     49.2018E-03    -15.9562E-03     31.2854E-03    -15.4145E-03     49.1611E-03
             628     12.4074E-03     74.3043E-03    -3.90003E+06    -37.4207E+06     1.30108E+06    -1.52207E+06    -16.0767E-03     31.5503E-03    -15.4736E-03     55.0412E-03    -16.0725E-03     31.3956E-03    -15.4071E-03     54.9938E-03
             629     13.2937E-03     74.3585E-03    -3.63438E+06    -30.7095E+06    -4.46590E+06    -1.23683E+06    -16.2333E-03     31.6607E-03    -15.4274E-03     60.2920E-03    -16.2480E-03     31.5664E-03    -15.3999E-03     60.2409E-03
             630     14.1802E-03     74.4162E-03    -3.39728E+06    -3.45753E+06    -781.432E+03    -884.323E+03    -16.1991E-03     31.5959E-03    -15.3967E-03     65.1745E-03    -16.2865E-03     31.6612E-03    -15.3907E-03     65.1251E-03
             631     15.0679E-03     74.4782E-03    -3.74422E+06     25.7072E+06    -2.79466E+06    -323.135E+03    -16.3247E-03     31.6447E-03    -15.3200E-03     83.0837E-03    -16.5690E-03     31.9751E-03    -15.3658E-03     83.0602E-03
             632     15.9535E-03     74.5684E-03    -2.53415E+06     73.4894E+06    -15.9578E+06     409.595E+03    -17.6512E-03     32.8040E-03    -15.1528E-03     116.073E-03    -18.4968E-03     33.9478E-03    -15.3355E-03     116.288E-03
             633     16.8394E-03     74.6959E-03    -2.24444E+06     133.202E+06     29.9701E+06    -217.525E+03    -17.5430E-03     32.8331E-03    -15.2901E-03     104.704E-03    -18.6676E-03     34.3357E-03    -15.3301E-03     105.291E-03
             634     886.199E-06     74.9549E-03    -23.7457E+06    -65.6625E+06    -23.0510E+06    -421.327E+03    -15.4763E-03     30.9745E-03    -15.4982E-03     3.57604E-03    -15.4664E-03     30.7141E-03    -15.4838E-03     3.57010E-03
             635     1.77236E-03     74.9595E-03    -22.6867E+06    -64.4006E+06    -20.1810E+06    -727.171E+03    -15.4887E-03     30.9862E-03    -15.4974E-03     6.64739E-03    -15.4796E-03     30.7264E-03    -15.4721E-03     6.63706E-03
             636     2.65855E-03     74.9672E-03    -21.1159E+06    -62.7462E+06    -16.1702E+06    -1.02427E+06    -15.4910E-03     31.0006E-03    -15.5096E-03     9.94227E-03    -15.4823E-03     30.7411E-03    -15.4688E-03     9.92760E-03
             637     3.54476E-03     74.9780E-03    -19.1973E+06    -61.0067E+06    -11.7439E+06    -1.35033E+06    -15.5009E-03     31.0228E-03    -15.5219E-03     13.3513E-03    -15.4917E-03     30.7630E-03    -15.4643E-03     13.3319E-03
             638     4.43096E-03     74.9920E-03    -17.1353E+06     -59.278E+06    -7.62211E+06    -1.54840E+06    -15.5186E-03     31.0506E-03    -15.5320E-03     16.8877E-03    -15.5078E-03     30.7907E-03    -15.4594E-03     16.8650E-03
             639     5.31719E-03     75.0093E-03    -15.0274E+06    -58.4226E+06    -4.09442E+06    -1.67531E+06    -15.5488E-03     31.0891E-03    -15.5403E-03     20.5632E-03    -15.5341E-03     30.8256E-03    -15.4543E-03     20.5381E-03
             640     6.20341E-03     75.0302E-03    -12.9578E+06    -57.0033E+06    -1.46469E+06    -1.90251E+06    -15.5862E-03     31.1295E-03    -15.5434E-03     24.3990E-03    -15.5675E-03     30.8668E-03    -15.4492E-03     24.3701E-03
             641     7.08966E-03     75.0546E-03    -11.1151E+06    -55.5183E+06     668.342E+03    -2.07816E+06    -15.6316E-03     31.1756E-03    -15.5440E-03     28.3857E-03    -15.6097E-03     30.9152E-03    -15.4440E-03     28.3532E-03
             642     7.97590E-03     75.0829E-03    -9.53985E+06    -54.7642E+06     2.23456E+06    -2.20664E+06    -15.6888E-03     31.2320E-03    -15.5431E-03     32.4797E-03    -15.6635E-03     30.9719E-03    -15.4387E-03     32.4439E-03
             643     8.86217E-03     75.1148E-03    -8.05120E+06    -52.2378E+06     3.33417E+06    -2.15706E+06    -15.7515E-03     31.2889E-03    -15.5374E-03     36.6516E-03    -15.7256E-03     31.0394E-03    -15.4333E-03     36.6142E-03
             644     9.74844E-03     75.1510E-03    -6.77212E+06    -51.8351E+06     3.61400E+06    -2.22331E+06    -15.8283E-03     31.3593E-03    -15.5310E-03     40.8011E-03    -15.7995E-03     31.1120E-03    -15.4280E-03     40.7598E-03
             645     10.6347E-03     75.1906E-03    -5.55293E+06    -48.4026E+06     2.09466E+06    -1.93301E+06    -15.9053E-03     31.4166E-03    -15.5113E-03     44.9016E-03    -15.8771E-03     31.1908E-03    -15.4226E-03     44.8601E-03
             646     11.5210E-03     75.2345E-03    -4.45999E+06    -39.3426E+06     3.42170E+06    -1.74189E+06    -15.9726E-03     31.4700E-03    -15.4974E-03     49.1204E-03    -15.9602E-03     31.2922E-03    -15.4168E-03     49.0764E-03
             647     12.4073E-03     75.2818E-03    -3.61922E+06    -37.6982E+06     1.16735E+06    -1.78202E+06    -16.0748E-03     31.5501E-03    -15.4753E-03     54.8383E-03    -16.0687E-03     31.3939E-03    -15.4095E-03     54.7874E-03
             648     13.2938E-03     75.3364E-03    -3.20321E+06    -31.0185E+06    -4.79048E+06    -1.42059E+06    -16.1023E-03     31.5263E-03    -15.4240E-03     59.8992E-03    -16.1136E-03     31.4300E-03    -15.3983E-03     59.8462E-03
             649     14.1805E-03     75.3931E-03    -3.05143E+06    -3.46990E+06    -1.28550E+06    -1.18060E+06    -16.0678E-03     31.4532E-03    -15.3854E-03     64.0211E-03    -16.1512E-03     31.5171E-03    -15.3823E-03     63.9685E-03
             650     15.0663E-03     75.4559E-03    -2.66875E+06     25.5507E+06    -3.32820E+06    -932.838E+03    -16.9037E-03     32.2269E-03    -15.3233E-03     81.6520E-03    -17.1431E-03     32.5572E-03    -15.3731E-03     81.6162E-03
             651     15.9531E-03     75.5463E-03    -2.39827E+06     72.5751E+06    -17.5308E+06    -1.09891E+06    -18.0292E-03     33.2118E-03    -15.1826E-03     115.150E-03    -18.8713E-03     34.3538E-03    -15.3720E-03     115.343E-03
             652     16.8407E-03     75.6732E-03    -2.39431E+06     132.491E+06     28.8778E+06     314.000E+03    -17.1590E-03     32.4817E-03    -15.3227E-03     104.517E-03    -18.2799E-03     33.9808E-03    -15.3670E-03     105.116E-03
             653     886.165E-06     75.9327E-03    -24.2271E+06    -64.7930E+06    -23.5037E+06    -461.407E+03    -15.4934E-03     30.9775E-03    -15.4841E-03     3.58175E-03    -15.4865E-03     30.7228E-03    -15.4725E-03     3.57530E-03
             654     1.77236E-03     75.9374E-03    -23.1878E+06    -63.6043E+06    -20.6105E+06    -811.499E+03    -15.4889E-03     30.9880E-03    -15.4990E-03     6.64747E-03    -15.4828E-03     30.7335E-03    -15.4762E-03     6.63605E-03
             655     2.65855E-03     75.9450E-03    -21.6029E+06    -61.9678E+06    -16.6384E+06    -1.18615E+06    -15.4902E-03     31.0007E-03    -15.5105E-03     9.94588E-03    -15.4844E-03     30.7465E-03    -15.4725E-03     9.92912E-03
             656     3.54474E-03     75.9559E-03    -19.7175E+06    -60.2603E+06    -12.2430E+06    -1.51628E+06    -15.4994E-03     31.0217E-03    -15.5223E-03     13.3554E-03    -15.4932E-03     30.7671E-03    -15.4675E-03     13.3338E-03
             657     4.43096E-03     75.9698E-03    -17.6908E+06    -58.7794E+06    -8.20093E+06    -1.75178E+06    -15.5177E-03     31.0498E-03    -15.5321E-03     16.8919E-03    -15.5096E-03     30.7940E-03    -15.4622E-03     16.8666E-03
             658     5.31717E-03     75.9872E-03    -15.5990E+06    -57.7898E+06    -4.84392E+06    -2.02885E+06    -15.5462E-03     31.0853E-03    -15.5391E-03     20.5702E-03    -15.5343E-03     30.8269E-03    -15.4569E-03     20.5406E-03
             659     6.20341E-03     76.0080E-03    -13.5598E+06    -56.4304E+06    -2.08019E+06    -2.30007E+06    -15.5849E-03     31.1276E-03    -15.5426E-03     24.4041E-03    -15.5692E-03     30.8695E-03    -15.4516E-03     24.3700E-03
             660     7.08963E-03     76.0325E-03    -11.6706E+06    -55.1599E+06     138.992E+03    -2.39642E+06    -15.6325E-03     31.1765E-03    -15.5440E-03     28.3842E-03    -15.6132E-03     30.9195E-03    -15.4464E-03     28.3477E-03
             661     7.97590E-03     76.0606E-03    -9.93632E+06    -54.2944E+06     1.80768E+06    -2.49525E+06    -15.6927E-03     31.2362E-03    -15.5435E-03     32.4791E-03    -15.6694E-03     30.9797E-03    -15.4413E-03     32.4396E-03
             662     8.86212E-03     76.0928E-03    -8.36624E+06    -52.1350E+06     2.75810E+06    -2.58660E+06    -15.7576E-03     31.2954E-03    -15.5378E-03     36.6473E-03    -15.7326E-03     31.0477E-03    -15.4363E-03     36.6044E-03
             663     9.74842E-03     76.1286E-03    -6.91818E+06    -51.4515E+06     3.27407E+06    -2.54171E+06    -15.8419E-03     31.3746E-03    -15.5327E-03     40.7953E-03    -15.8140E-03     31.1299E-03    -15.4317E-03     40.7499E-03
             664     10.6346E-03     76.1686E-03    -5.73916E+06    -48.7030E+06     1.70634E+06    -2.54467E+06    -15.9226E-03     31.4374E-03    -15.5148E-03     44.8791E-03    -15.8944E-03     31.2110E-03    -15.4273E-03     44.8297E-03
             665     11.5210E-03     76.2120E-03    -4.63761E+06    -39.3244E+06     2.95737E+06    -2.19270E+06    -15.9917E-03     31.4929E-03    -15.5012E-03     49.1216E-03    -15.9797E-03     31.3162E-03    -15.4226E-03     49.0718E-03
             666     12.4072E-03     76.2599E-03    -3.88984E+06    -37.4851E+06     1.14880E+06    -2.06910E+06    -16.1380E-03     31.6217E-03    -15.4838E-03     54.7100E-03    -16.1335E-03     31.4671E-03    -15.4180E-03     54.6553E-03
             667     13.2935E-03     76.3137E-03    -3.38244E+06    -31.4594E+06    -5.12758E+06    -1.96254E+06    -16.2846E-03     31.7241E-03    -15.4396E-03     59.7314E-03    -16.2957E-03     31.6265E-03    -15.4147E-03     59.6709E-03
             668     14.1795E-03     76.3713E-03    -2.75178E+06    -3.66352E+06    -1.24400E+06    -1.42206E+06    -16.2869E-03     31.7004E-03    -15.4135E-03     63.9233E-03    -16.3685E-03     31.7628E-03    -15.4104E-03     63.8670E-03
             669     15.0664E-03     76.4333E-03    -1.59185E+06     25.5759E+06    -2.99278E+06    -1.70758E+06    -16.8975E-03     32.2523E-03    -15.3548E-03     82.6178E-03    -17.1350E-03     32.5836E-03    -15.4045E-03     82.5730E-03
             670     15.9512E-03     76.5257E-03    -2.85791E+06     71.4984E+06    -18.7840E+06     -672.83E+03    -18.3378E-03     33.5512E-03    -15.2134E-03     116.253E-03    -19.1836E-03     34.6952E-03    -15.4069E-03     116.451E-03
             671     16.8365E-03     76.6487E-03    -3.58730E+06     131.658E+06     26.9559E+06     997.306E+03    -16.9936E-03     32.3448E-03    -15.3511E-03     105.299E-03    -18.1257E-03     33.8533E-03    -15.4021E-03     105.918E-03
             672     886.179E-06     76.9106E-03    -24.6032E+06    -63.8526E+06    -23.8665E+06    -473.098E+03    -15.4904E-03     30.9805E-03    -15.4901E-03     3.57992E-03    -15.4863E-03     30.7317E-03    -15.4812E-03     3.57331E-03
             673     1.77235E-03     76.9152E-03    -23.5245E+06    -62.6825E+06    -21.0204E+06    -911.022E+03    -15.4878E-03     30.9875E-03    -15.4998E-03     6.65057E-03    -15.4841E-03     30.7388E-03    -15.4799E-03     6.63787E-03
             674     2.65853E-03     76.9229E-03    -21.9554E+06    -61.0733E+06    -17.0128E+06    -1.33104E+06    -15.4902E-03     31.0010E-03    -15.5108E-03     9.94910E-03    -15.4870E-03     30.7524E-03    -15.4755E-03     9.93047E-03
             675     3.54474E-03     76.9337E-03    -20.0500E+06    -59.4878E+06    -12.6603E+06    -1.68587E+06    -15.4984E-03     31.0207E-03    -15.5223E-03     13.3598E-03    -15.4944E-03     30.7710E-03    -15.4702E-03     13.3360E-03
             676     4.43094E-03     76.9477E-03    -17.9362E+06    -58.0550E+06    -8.64071E+06    -2.03155E+06    -15.5160E-03     31.0475E-03    -15.5315E-03     16.8956E-03    -15.5095E-03     30.7963E-03    -15.4645E-03     16.8667E-03
             677     5.31717E-03     76.9650E-03    -15.8096E+06    -57.0285E+06    -5.21928E+06    -2.37154E+06    -15.5451E-03     31.0833E-03    -15.5383E-03     20.5748E-03    -15.5347E-03     30.8296E-03    -15.4588E-03     20.5408E-03
             678     6.20338E-03     76.9859E-03    -13.8311E+06    -55.8144E+06    -2.51842E+06    -2.64097E+06    -15.5838E-03     31.1255E-03    -15.5417E-03     24.4108E-03    -15.5697E-03     30.8715E-03    -15.4533E-03     24.3723E-03
             679     7.08964E-03     77.0103E-03    -11.9551E+06    -54.7433E+06    -280.991E+03    -2.80510E+06    -15.6339E-03     31.1772E-03    -15.5433E-03     28.3931E-03    -15.6159E-03     30.9233E-03    -15.4480E-03     28.3513E-03
             680     7.97585E-03     77.0386E-03    -10.1649E+06    -53.7966E+06     1.44868E+06    -2.93824E+06    -15.6937E-03     31.2367E-03    -15.5431E-03     32.4936E-03    -15.6717E-03     30.9835E-03    -15.4431E-03     32.4484E-03
             681     8.86214E-03     77.0705E-03    -8.51301E+06    -51.7783E+06     2.52774E+06    -3.05197E+06    -15.7635E-03     31.3019E-03    -15.5384E-03     36.6682E-03    -15.7394E-03     31.0565E-03    -15.4383E-03     36.6192E-03
             682     9.74834E-03     77.1066E-03    -7.01342E+06    -51.2608E+06     3.07630E+06    -3.09414E+06    -15.8467E-03     31.3805E-03    -15.5339E-03     40.8376E-03    -15.8192E-03     31.1372E-03    -15.4340E-03     40.7851E-03
             683     10.6346E-03     77.1463E-03    -5.75512E+06    -48.4839E+06     1.74888E+06    -2.97723E+06    -15.9356E-03     31.4531E-03    -15.5176E-03     44.9267E-03    -15.9078E-03     31.2278E-03    -15.4302E-03     44.8718E-03
             684     11.5208E-03     77.1900E-03    -4.73992E+06    -39.7224E+06     2.75244E+06    -2.77265E+06    -16.0097E-03     31.5143E-03    -15.5045E-03     49.2182E-03    -15.9973E-03     31.3360E-03    -15.4263E-03     49.1610E-03
             685     12.4071E-03     77.2376E-03    -3.74827E+06    -37.3451E+06     1.16503E+06    -2.34567E+06    -16.1873E-03     31.6763E-03    -15.4890E-03     54.8542E-03    -16.1824E-03     31.5221E-03    -15.4236E-03     54.7959E-03
             686     13.2933E-03     77.2918E-03    -3.66570E+06    -31.9511E+06    -5.44832E+06    -1.97005E+06    -16.2753E-03     31.7204E-03    -15.4451E-03     60.0973E-03    -16.2866E-03     31.6211E-03    -15.4207E-03     60.0368E-03
             687     14.1795E-03     77.3492E-03    -3.83389E+06    -4.15102E+06    -1.97415E+06    -1.70688E+06    -16.2074E-03     31.6213E-03    -15.4140E-03     64.7646E-03    -16.2927E-03     31.6840E-03    -15.4123E-03     64.7050E-03
             688     15.0654E-03     77.4110E-03    -4.47112E+06     26.0367E+06    -4.28771E+06    -1.54286E+06    -16.9856E-03     32.3382E-03    -15.3526E-03     83.3262E-03    -17.2382E-03     32.6797E-03    -15.4053E-03     83.2838E-03
             689     15.9541E-03     77.5031E-03    -6.14130E+06     70.8402E+06    -20.1910E+06    -67.5757E+03    -18.1918E-03     33.4028E-03    -15.2110E-03     116.527E-03    -19.0528E-03     34.5521E-03    -15.4058E-03     116.740E-03
             690     16.8395E-03     77.6305E-03    -4.61585E+06     130.905E+06     24.9267E+06     94.5876E+03    -16.6233E-03     31.9527E-03    -15.3293E-03     104.915E-03    -17.7530E-03     33.4584E-03    -15.3878E-03     105.525E-03
             691     886.162E-06     77.8884E-03    -24.6262E+06    -62.8454E+06    -23.9965E+06    -507.257E+03    -15.4873E-03     30.9826E-03    -15.4953E-03     3.58654E-03    -15.4845E-03     30.7390E-03    -15.4884E-03     3.57949E-03
             692     1.77234E-03     77.8932E-03    -23.6476E+06    -61.6134E+06    -21.2183E+06    -1.00273E+06    -15.4878E-03     30.9878E-03    -15.5000E-03     6.65116E-03    -15.4861E-03     30.7449E-03    -15.4825E-03     6.63727E-03
             693     2.65853E-03     77.9008E-03    -22.1313E+06    -60.0897E+06    -17.3219E+06    -1.49000E+06    -15.4895E-03     30.9998E-03    -15.5103E-03     9.95110E-03    -15.4881E-03     30.7568E-03    -15.4777E-03     9.93041E-03
             694     3.54472E-03     77.9116E-03    -20.2139E+06    -58.5777E+06    -12.9810E+06    -1.93159E+06    -15.4976E-03     31.0191E-03    -15.5215E-03     13.3628E-03    -15.4952E-03     30.7747E-03    -15.4721E-03     13.3358E-03
             695     4.43094E-03     77.9255E-03    -18.1298E+06    -57.1359E+06    -8.91926E+06    -2.35819E+06    -15.5139E-03     31.0445E-03    -15.5306E-03     16.9002E-03    -15.5093E-03     30.7986E-03    -15.4661E-03     16.8671E-03
             696     5.31715E-03     77.9429E-03    -16.0521E+06    -56.2400E+06    -5.55065E+06    -2.70989E+06    -15.5417E-03     31.0787E-03    -15.5370E-03     20.5808E-03    -15.5332E-03     30.8297E-03    -15.4600E-03     20.5424E-03
             697     6.20340E-03     77.9637E-03    -14.0290E+06    -55.0686E+06    -2.85188E+06    -3.01395E+06    -15.5799E-03     31.1198E-03    -15.5399E-03     24.4211E-03    -15.5674E-03     30.8703E-03    -15.4540E-03     24.3778E-03
             698     7.08961E-03     77.9882E-03    -12.0769E+06    -54.1637E+06    -540.039E+03    -3.28494E+06    -15.6290E-03     31.1706E-03    -15.5416E-03     28.4089E-03    -15.6121E-03     30.9201E-03    -15.4483E-03     28.3609E-03
             699     7.97589E-03     78.0163E-03    -10.2724E+06    -53.2946E+06     1.30376E+06    -3.41161E+06    -15.6889E-03     31.2305E-03    -15.5415E-03     32.5163E-03    -15.6680E-03     30.9801E-03    -15.4428E-03     32.4650E-03
             700     8.86209E-03     78.0485E-03    -8.65900E+06    -51.2947E+06     2.44301E+06    -3.54526E+06    -15.7547E-03     31.2914E-03    -15.5367E-03     36.7064E-03    -15.7319E-03     31.0487E-03    -15.4375E-03     36.6511E-03
             701     9.74841E-03     78.0844E-03    -7.24417E+06    -50.9568E+06     2.91294E+06    -3.59756E+06    -15.8342E-03     31.3655E-03    -15.5313E-03     40.8863E-03    -15.8080E-03     31.1243E-03    -15.4324E-03     40.8274E-03
             702     10.6346E-03     78.1242E-03    -5.98222E+06    -48.3222E+06     1.54322E+06    -3.58616E+06    -15.9219E-03     31.4359E-03    -15.5140E-03     45.0113E-03    -15.8952E-03     31.2120E-03    -15.4276E-03     44.9485E-03
             703     11.5209E-03     78.1677E-03    -4.78915E+06    -39.9494E+06     2.58917E+06    -3.27983E+06    -15.9988E-03     31.4995E-03    -15.5006E-03     49.3327E-03    -15.9860E-03     31.3203E-03    -15.4228E-03     49.2689E-03
             704     12.4072E-03     78.2156E-03    -3.93735E+06    -37.6781E+06     884.764E+03    -2.85418E+06    -16.1604E-03     31.6439E-03    -15.4834E-03     55.0610E-03    -16.1555E-03     31.4887E-03    -15.4187E-03     54.9962E-03
             705     13.2935E-03     78.2697E-03    -3.23092E+06    -32.7115E+06    -5.70600E+06    -2.10804E+06    -16.1980E-03     31.6342E-03    -15.4362E-03     59.8855E-03    -16.2056E-03     31.5308E-03    -15.4127E-03     59.8233E-03
             706     14.1805E-03     78.3263E-03    -3.46508E+06    -4.03301E+06    -2.01833E+06    -1.54240E+06    -16.2942E-03     31.7003E-03    -15.4061E-03     64.3504E-03    -16.3783E-03     31.7636E-03    -15.4053E-03     64.2924E-03
             707     15.0675E-03     78.3894E-03    -5.26411E+06     26.2043E+06    -5.12647E+06    -1.14821E+06    -17.5527E-03     32.9150E-03    -15.3623E-03     83.1685E-03    -17.8113E-03     33.2628E-03    -15.4183E-03     83.1279E-03
             708     15.9496E-03     78.4823E-03    -4.07369E+06     68.3914E+06    -19.9293E+06    -464.476E+03    -17.6408E-03     32.8708E-03    -15.2300E-03     114.421E-03    -18.4726E-03     33.9888E-03    -15.4229E-03     114.638E-03
             709     16.8389E-03     78.6043E-03    -1.07960E+06     130.206E+06     27.0309E+06    -471.893E+03    -15.9515E-03     31.2758E-03    -15.3244E-03     104.376E-03    -17.0545E-03     32.7589E-03    -15.3764E-03     104.989E-03
             710     886.174E-06     78.8664E-03    -24.6580E+06    -61.6927E+06    -24.0304E+06    -586.493E+03    -15.4908E-03     30.9843E-03    -15.4935E-03     3.57948E-03    -15.4898E-03     30.7466E-03    -15.4885E-03     3.57141E-03
             711     1.77234E-03     78.8710E-03    -23.6382E+06    -60.4627E+06    -21.3171E+06    -1.12467E+06    -15.4872E-03     30.9873E-03    -15.5001E-03     6.64960E-03    -15.4869E-03     30.7503E-03    -15.4848E-03     6.63413E-03
             712     2.65852E-03     78.8787E-03    -22.1218E+06    -58.9548E+06    -17.4442E+06    -1.65664E+06    -15.4888E-03     30.9986E-03    -15.5098E-03     9.95208E-03    -15.4888E-03     30.7613E-03    -15.4795E-03     9.92924E-03
             713     3.54473E-03     78.8894E-03    -20.2549E+06    -57.4803E+06    -13.0992E+06    -2.20045E+06    -15.4959E-03     31.0167E-03    -15.5208E-03     13.3628E-03    -15.4952E-03     30.7780E-03    -15.4735E-03     13.3324E-03
             714     4.43093E-03     78.9035E-03    -18.1759E+06    -56.1212E+06    -9.03699E+06    -2.66946E+06    -15.5109E-03     31.0406E-03    -15.5296E-03     16.9011E-03    -15.5079E-03     30.8000E-03    -15.4671E-03     16.8639E-03
             715     5.31716E-03     78.9207E-03    -16.0282E+06    -55.3011E+06    -5.61070E+06    -3.10905E+06    -15.5376E-03     31.0734E-03    -15.5358E-03     20.5828E-03    -15.5303E-03     30.8292E-03    -15.4604E-03     20.5393E-03
             716     6.20337E-03     78.9416E-03    -13.9489E+06    -54.2527E+06    -2.88456E+06    -3.46010E+06    -15.5732E-03     31.1115E-03    -15.5383E-03     24.4252E-03    -15.5615E-03     30.8660E-03    -15.4538E-03     24.3762E-03
             717     7.08965E-03     78.9660E-03    -12.0467E+06    -53.3875E+06    -547.566E+03    -3.74774E+06    -15.6191E-03     31.1585E-03    -15.5393E-03     28.4156E-03    -15.6032E-03     30.9119E-03    -15.4472E-03     28.3616E-03
             718     7.97587E-03     78.9942E-03    -10.1866E+06    -52.7559E+06     1.26137E+06    -3.98598E+06    -15.6753E-03     31.2135E-03    -15.5382E-03     32.5294E-03    -15.6546E-03     30.9657E-03    -15.4406E-03     32.4707E-03
             719     8.86219E-03     79.0263E-03    -8.53759E+06    -50.8918E+06     2.38853E+06    -3.94264E+06    -15.7378E-03     31.2700E-03    -15.5321E-03     36.7213E-03    -15.7149E-03     31.0292E-03    -15.4340E-03     36.6609E-03
             720     9.74841E-03     79.0623E-03    -7.22448E+06    -50.5158E+06     2.80037E+06    -3.97846E+06    -15.8151E-03     31.3403E-03    -15.5252E-03     40.9012E-03    -15.7893E-03     31.1014E-03    -15.4275E-03     40.8373E-03
             721     10.6348E-03     79.1020E-03    -6.14681E+06    -47.9649E+06     1.23406E+06    -4.10338E+06    -15.9044E-03     31.4107E-03    -15.5063E-03     45.0280E-03    -15.8786E-03     31.1892E-03    -15.4216E-03     44.9586E-03
             722     11.5210E-03     79.1456E-03    -5.15386E+06    -40.2438E+06     2.03661E+06    -3.91092E+06    -15.9719E-03     31.4636E-03    -15.4917E-03     49.3215E-03    -15.9597E-03     31.2844E-03    -15.4157E-03     49.2496E-03
             723     12.4074E-03     79.1933E-03    -4.22557E+06    -38.1115E+06     175.552E+03    -3.23417E+06    -16.1076E-03     31.5792E-03    -15.4716E-03     55.0460E-03    -16.1024E-03     31.4232E-03    -15.4093E-03     54.9764E-03
             724     13.2937E-03     79.2475E-03    -3.90461E+06    -32.9628E+06    -6.28025E+06    -2.82824E+06    -16.4159E-03     31.8472E-03    -15.4313E-03     59.8283E-03    -16.4263E-03     31.7449E-03    -15.4093E-03     59.7561E-03
             725     14.1792E-03     79.3040E-03    -2.63004E+06    -4.96463E+06    -2.17201E+06    -2.08010E+06    -16.7312E-03     32.1537E-03    -15.4224E-03     64.4994E-03    -16.8114E-03     32.2132E-03    -15.4223E-03     64.4325E-03
             726     15.0641E-03     79.3681E-03    -1.65939E+06     25.1876E+06    -3.69560E+06    -584.813E+03    -16.8941E-03     32.2678E-03    -15.3738E-03     84.2856E-03    -17.1326E-03     32.6006E-03    -15.4264E-03     84.2566E-03
             727     15.9523E-03     79.4618E-03    -2.21090E+06     67.2500E+06    -19.6236E+06    -710.000E+03    -17.2864E-03     32.4928E-03    -15.2064E-03     115.084E-03    -18.1009E-03     33.5951E-03    -15.3988E-03     115.292E-03
             728     16.8398E-03     79.5768E-03    -1.44839E+06     130.122E+06     27.3837E+06    -738.053E+03    -16.6437E-03     31.9532E-03    -15.3094E-03     106.123E-03    -17.7616E-03     33.4485E-03    -15.3591E-03     106.731E-03
             729     886.153E-06     79.8442E-03    -24.7796E+06     -60.383E+06    -24.1859E+06    -706.041E+03    -15.4790E-03     30.9829E-03    -15.5039E-03     3.56864E-03    -15.4803E-03     30.7521E-03    -15.5013E-03     3.55903E-03
             730     1.77234E-03     79.8489E-03    -23.7532E+06    -59.1809E+06    -21.4564E+06    -1.29257E+06    -15.4867E-03     30.9861E-03    -15.4994E-03     6.65072E-03    -15.4886E-03     30.7558E-03    -15.4864E-03     6.63309E-03
             731     2.65853E-03     79.8565E-03    -22.2013E+06    -57.6879E+06    -17.5167E+06    -1.87232E+06    -15.4878E-03     30.9971E-03    -15.5093E-03     9.94998E-03    -15.4899E-03     30.7665E-03    -15.4811E-03     9.92436E-03
             732     3.54471E-03     79.8673E-03    -20.2696E+06    -56.1974E+06    -13.1266E+06    -2.47477E+06    -15.4932E-03     31.0132E-03    -15.5201E-03     13.3605E-03    -15.4943E-03     30.7810E-03    -15.4748E-03     13.3265E-03
             733     4.43093E-03     79.8813E-03    -18.1537E+06    -54.9945E+06    -9.03477E+06    -3.03423E+06    -15.5076E-03     31.0363E-03    -15.5287E-03     16.8983E-03    -15.5061E-03     30.8013E-03    -15.4678E-03     16.8565E-03
             734     5.31714E-03     79.8986E-03    -16.0211E+06    -54.1656E+06    -5.59796E+06    -3.53207E+06    -15.5322E-03     31.0666E-03    -15.5344E-03     20.5805E-03    -15.5265E-03     30.8280E-03    -15.4606E-03     20.5315E-03
             735     6.20340E-03     79.9194E-03    -13.9618E+06    -53.3622E+06    -2.89871E+06    -3.94249E+06    -15.5656E-03     31.1019E-03    -15.5364E-03     24.4199E-03    -15.5552E-03     30.8609E-03    -15.4532E-03     24.3647E-03
             736     7.08963E-03     79.9439E-03    -11.9707E+06    -52.5234E+06    -619.668E+03    -4.23857E+06    -15.6070E-03     31.1431E-03    -15.5361E-03     28.4098E-03    -15.5919E-03     30.9008E-03    -15.4456E-03     28.3496E-03
             737     7.97593E-03     79.9720E-03    -10.2254E+06    -52.0202E+06     1.11272E+06    -4.50402E+06    -15.6620E-03     31.1958E-03    -15.5338E-03     32.5182E-03    -15.6425E-03     30.9520E-03    -15.4380E-03     32.4528E-03
             738     8.86218E-03     80.0041E-03    -8.49357E+06    -50.6438E+06     2.11418E+06    -4.56661E+06    -15.7239E-03     31.2505E-03    -15.5267E-03     36.7002E-03    -15.7007E-03     31.0113E-03    -15.4303E-03     36.6318E-03
             739     9.74852E-03     80.0400E-03    -6.87574E+06    -50.0480E+06     2.62101E+06    -4.40980E+06    -15.8069E-03     31.3257E-03    -15.5188E-03     40.8759E-03    -15.7798E-03     31.0889E-03    -15.4231E-03     40.8065E-03
             740     10.6348E-03     80.0798E-03    -5.73492E+06    -47.4716E+06     1.23689E+06    -4.44074E+06    -15.9010E-03     31.4014E-03    -15.5004E-03     44.9970E-03    -15.8739E-03     31.1818E-03    -15.4171E-03     44.9232E-03
             741     11.5211E-03     80.1234E-03    -4.79135E+06    -40.2230E+06     1.83007E+06    -4.42698E+06    -15.9522E-03     31.4372E-03    -15.4850E-03     49.2547E-03    -15.9379E-03     31.2578E-03    -15.4106E-03     49.1762E-03
             742     12.4074E-03     80.1711E-03    -3.73949E+06    -38.7657E+06    -288.978E+03    -4.01961E+06    -16.1087E-03     31.5727E-03    -15.4640E-03     55.0043E-03    -16.0995E-03     31.4134E-03    -15.4038E-03     54.9246E-03
             743     13.2937E-03     80.2253E-03    -2.72152E+06    -33.0692E+06    -6.42203E+06    -3.28331E+06    -16.4396E-03     31.8634E-03    -15.4239E-03     60.3856E-03    -16.4439E-03     31.7593E-03    -15.4041E-03     60.3075E-03
             744     14.1796E-03     80.2832E-03    -2.70029E+06    -5.96578E+06    -3.08529E+06    -2.76545E+06    -16.4106E-03     31.8143E-03    -15.4036E-03     65.6259E-03    -16.4883E-03     31.8701E-03    -15.4065E-03     65.5515E-03
             745     15.0665E-03     80.3460E-03    -774.884E+03     22.7973E+06    -4.68223E+06    -1.10002E+06    -16.0362E-03     31.3572E-03    -15.3210E-03     83.9371E-03    -16.2581E-03     31.6709E-03    -15.3764E-03     83.9061E-03
             746     15.9555E-03     80.4354E-03    -1.06204E+06     68.7532E+06    -19.3784E+06    -42.8542E+03    -17.5905E-03     32.7298E-03    -15.1393E-03     115.574E-03    -18.4124E-03     33.8483E-03    -15.3344E-03     115.778E-03
             747     16.8391E-03     80.5609E-03    -3.77461E+06     130.989E+06     26.9643E+06    -570.765E+03    -17.7007E-03     32.9833E-03    -15.2826E-03     105.404E-03    -18.8341E-03     34.4901E-03    -15.3323E-03     105.986E-03
             748     886.176E-06     80.8221E-03    -24.8802E+06    -58.8847E+06    -24.3088E+06    -838.363E+03    -15.4753E-03     30.9776E-03    -15.5023E-03     3.57702E-03    -15.4791E-03     30.7546E-03    -15.5024E-03     3.56570E-03
             749     1.77234E-03     80.8267E-03    -23.8753E+06    -57.7099E+06    -21.4691E+06    -1.47146E+06    -15.4874E-03     30.9855E-03    -15.4980E-03     6.65316E-03    -15.4921E-03     30.7627E-03    -15.4871E-03     6.63322E-03
             750     2.65851E-03     80.8344E-03    -22.2507E+06    -56.2660E+06    -17.4950E+06    -2.14466E+06    -15.4861E-03     30.9948E-03    -15.5087E-03     9.94848E-03    -15.4906E-03     30.7713E-03    -15.4823E-03     9.91934E-03
             751     3.54472E-03     80.8452E-03    -20.2819E+06    -54.7775E+06    -13.1153E+06    -2.79360E+06    -15.4897E-03     31.0087E-03    -15.5190E-03     13.3599E-03    -15.4930E-03     30.7836E-03    -15.4757E-03     13.3218E-03
             752     4.43092E-03     80.8592E-03    -18.1501E+06    -53.6881E+06    -8.98316E+06    -3.40705E+06    -15.5035E-03     31.0310E-03    -15.5275E-03     16.8973E-03    -15.5039E-03     30.8024E-03    -15.4682E-03     16.8507E-03
             753     5.31716E-03     80.8765E-03     -16.037E+06    -52.9800E+06    -5.59557E+06    -3.90924E+06    -15.5271E-03     31.0597E-03    -15.5326E-03     20.5769E-03    -15.5233E-03     30.8271E-03    -15.4605E-03     20.5230E-03
             754     6.20338E-03     80.8973E-03    -14.0139E+06    -52.2242E+06    -2.97346E+06    -4.40438E+06    -15.5584E-03     31.0921E-03    -15.5337E-03     24.4122E-03    -15.5498E-03     30.8570E-03    -15.4525E-03     24.3510E-03
             755     7.08967E-03     80.9217E-03    -12.1289E+06    -51.6845E+06    -877.897E+03    -4.75823E+06    -15.6009E-03     31.1334E-03    -15.5326E-03     28.3965E-03    -15.5874E-03     30.8959E-03    -15.4444E-03     28.3295E-03
             756     7.97592E-03     80.9499E-03    -10.3528E+06    -51.1947E+06     862.881E+03    -4.93863E+06    -15.6560E-03     31.1860E-03    -15.5300E-03     32.4979E-03    -15.6379E-03     30.9469E-03    -15.4364E-03     32.4269E-03
             757     8.86222E-03     80.9819E-03    -8.79828E+06    -50.0010E+06     1.74838E+06    -5.22092E+06    -15.7212E-03     31.2439E-03    -15.5227E-03     36.6680E-03    -15.6999E-03     31.0089E-03    -15.4287E-03     36.5911E-03
             758     9.74849E-03     81.0178E-03    -7.17753E+06    -49.8651E+06     2.09905E+06    -5.23279E+06    -15.8078E-03     31.3228E-03    -15.5150E-03     40.8571E-03    -15.7817E-03     31.0882E-03    -15.4218E-03     40.7771E-03
             759     10.6348E-03     81.0576E-03    -5.64583E+06    -47.0003E+06     1.02812E+06    -5.00682E+06    -15.8889E-03     31.3859E-03    -15.4970E-03     44.9620E-03    -15.8617E-03     31.1688E-03    -15.4155E-03     44.8809E-03
             760     11.5211E-03     81.1012E-03    -4.47507E+06    -39.9436E+06     1.86687E+06    -4.99623E+06    -15.9516E-03     31.4340E-03    -15.4825E-03     49.1875E-03    -15.9362E-03     31.2555E-03    -15.4087E-03     49.1016E-03
             761     12.4075E-03     81.1488E-03    -3.55323E+06    -38.9917E+06    -436.723E+03    -4.77806E+06    -16.1252E-03     31.5872E-03    -15.4621E-03     55.0146E-03    -16.1145E-03     31.4268E-03    -15.4026E-03     54.9251E-03
             762     13.2937E-03     81.2033E-03    -3.04476E+06    -33.7054E+06    -6.55535E+06    -4.35024E+06    -16.2011E-03     31.6173E-03    -15.4162E-03     60.4191E-03    -16.2056E-03     31.5104E-03    -15.3957E-03     60.3279E-03
             763     14.1804E-03     81.2608E-03    -2.31870E+06    -6.68841E+06    -2.79284E+06    -3.18603E+06    -15.9176E-03     31.2937E-03    -15.3762E-03     64.4994E-03    -15.9903E-03     31.3426E-03    -15.3771E-03     64.4215E-03
             764     15.0679E-03     81.3224E-03    -2.88657E+06     20.8480E+06    -5.26910E+06    -2.30772E+06    -16.4743E-03     31.7722E-03    -15.2978E-03     81.6969E-03    -16.7022E-03     32.0790E-03    -15.3502E-03     81.6460E-03
             765     15.9528E-03     81.4130E-03    -2.93158E+06     67.2464E+06    -20.7284E+06    -1.03690E+06    -18.1203E-03     33.2631E-03    -15.1428E-03     115.416E-03    -18.9610E-03     34.3922E-03    -15.3397E-03     115.610E-03
             766     16.8406E-03     81.5404E-03    -2.38847E+06     131.449E+06     25.6766E+06     741.694E+03    -17.4913E-03     32.7790E-03    -15.2877E-03     104.593E-03    -18.6144E-03     34.2858E-03    -15.3464E-03     105.191E-03
             767     886.160E-06     81.8000E-03    -24.8746E+06    -57.1400E+06    -24.1391E+06    -941.808E+03    -15.4839E-03     30.9746E-03    -15.4907E-03     3.57712E-03    -15.4904E-03     30.7601E-03    -15.4925E-03     3.56446E-03
             768     1.77233E-03     81.8047E-03    -23.7121E+06    -56.0679E+06    -21.2571E+06    -1.66230E+06    -15.4845E-03     30.9813E-03    -15.4968E-03     6.65138E-03    -15.4910E-03     30.7662E-03    -15.4874E-03     6.62898E-03
             769     2.65852E-03     81.8123E-03    -22.1201E+06    -54.6555E+06    -17.3277E+06    -2.40096E+06    -15.4830E-03     30.9899E-03    -15.5069E-03     9.95019E-03    -15.4894E-03     30.7740E-03    -15.4822E-03     9.91774E-03
             770     3.54471E-03     81.8231E-03    -20.1860E+06    -53.2473E+06    -12.9875E+06    -3.10173E+06    -15.4873E-03     31.0042E-03    -15.5169E-03     13.3607E-03    -15.4925E-03     30.7864E-03    -15.4754E-03     13.3186E-03
             771     4.43093E-03     81.8370E-03    -18.1140E+06    -52.2487E+06    -8.92525E+06    -3.73043E+06    -15.4999E-03     31.0251E-03    -15.5252E-03     16.8955E-03    -15.5024E-03     30.8036E-03    -15.4678E-03     16.8447E-03
             772     5.31715E-03     81.8544E-03    -15.9971E+06    -51.6955E+06    -5.60231E+06    -4.30521E+06    -15.5225E-03     31.0524E-03    -15.5299E-03     20.5719E-03    -15.5203E-03     30.8262E-03    -15.4597E-03     20.5129E-03
             773     6.20341E-03     81.8751E-03    -14.0111E+06    -50.9720E+06    -3.03934E+06    -4.78241E+06    -15.5556E-03     31.0862E-03    -15.5307E-03     24.4031E-03    -15.5487E-03     30.8574E-03    -15.4516E-03     24.3370E-03
             774     7.08965E-03     81.8995E-03    -12.1867E+06    -50.7087E+06    -969.060E+03    -5.18291E+06    -15.6022E-03     31.1323E-03    -15.5301E-03     28.3846E-03    -15.5903E-03     30.8999E-03    -15.4437E-03     28.3121E-03
             775     7.97593E-03     81.9277E-03    -10.4472E+06    -50.3472E+06     594.522E+03    -5.47947E+06    -15.6580E-03     31.1853E-03    -15.5273E-03     32.4812E-03    -15.6412E-03     30.9510E-03    -15.4362E-03     32.4033E-03
             776     8.86220E-03     81.9597E-03    -8.78641E+06    -49.0779E+06     1.70369E+06    -5.70468E+06    -15.7295E-03     31.2511E-03    -15.5216E-03     36.6545E-03    -15.7095E-03     31.0207E-03    -15.4292E-03     36.5714E-03
             777     9.74848E-03     81.9956E-03    -7.43882E+06    -49.4185E+06     1.79390E+06    -5.93966E+06    -15.8091E-03     31.3234E-03    -15.5142E-03     40.8372E-03    -15.7846E-03     31.0918E-03    -15.4228E-03     40.7480E-03
             778     10.6348E-03     82.0354E-03    -6.23926E+06    -46.8447E+06     442.560E+03    -5.80789E+06    -15.8872E-03     31.3831E-03    -15.4959E-03     44.9278E-03    -15.8624E-03     31.1685E-03    -15.4167E-03     44.8363E-03
             779     11.5211E-03     82.0789E-03    -5.11683E+06    -39.4765E+06     1.43079E+06    -5.61434E+06    -15.9758E-03     31.4585E-03    -15.4828E-03     49.1409E-03    -15.9636E-03     31.2840E-03    -15.4109E-03     49.0470E-03
             780     12.4074E-03     82.1266E-03    -4.12644E+06    -39.0032E+06    -831.186E+03    -5.51647E+06    -16.1171E-03     31.5811E-03    -15.4640E-03     54.9390E-03    -16.1088E-03     31.4220E-03    -15.4056E-03     54.8399E-03
             781     13.2938E-03     82.1810E-03    -3.49599E+06    -34.0108E+06    -7.11468E+06    -4.95269E+06    -16.1816E-03     31.5986E-03    -15.4170E-03     60.0509E-03    -16.1868E-03     31.4913E-03    -15.3982E-03     59.9522E-03
             782     14.1802E-03     82.2381E-03    -3.36190E+06    -8.16238E+06    -3.77444E+06    -3.98633E+06    -16.1330E-03     31.5173E-03    -15.3843E-03     63.8010E-03    -16.2070E-03     31.5613E-03    -15.3865E-03     63.7122E-03
             783     15.0659E-03     82.3000E-03    -2.32996E+06     19.6646E+06    -5.62849E+06    -2.18871E+06    -16.9499E-03     32.2758E-03    -15.3260E-03     82.0065E-03    -17.1768E-03     32.5807E-03    -15.3792E-03     81.9550E-03
             784     15.9529E-03     82.3918E-03    -3.89236E+06     65.8493E+06    -21.5879E+06    -840.844E+03    -18.3004E-03     33.4867E-03    -15.1864E-03     115.995E-03    -19.1417E-03     34.6106E-03    -15.3841E-03     116.193E-03
             785     16.8378E-03     82.5170E-03    -4.16524E+06     130.248E+06     24.1332E+06     43.5364E+03    -16.9271E-03     32.2434E-03    -15.3162E-03     104.565E-03    -18.0498E-03     33.7436E-03    -15.3784E-03     105.164E-03
             786     886.166E-06     82.7779E-03    -24.4717E+06    -55.1835E+06    -23.8738E+06    -1.02824E+06    -15.4807E-03     30.9722E-03    -15.4915E-03     3.57308E-03    -15.4884E-03     30.7665E-03    -15.4954E-03     3.55931E-03
             787     1.77233E-03     82.7825E-03    -23.5061E+06    -54.2683E+06    -21.0782E+06    -1.81725E+06    -15.4788E-03     30.9733E-03    -15.4944E-03     6.64958E-03    -15.4872E-03     30.7667E-03    -15.4870E-03     6.62517E-03
             788     2.65852E-03     82.7902E-03    -21.9246E+06    -52.8817E+06    -17.1110E+06    -2.61684E+06    -15.4794E-03     30.9832E-03    -15.5038E-03     9.94751E-03    -15.4877E-03     30.7756E-03    -15.4809E-03     9.91227E-03
             789     3.54472E-03     82.8009E-03    -19.9914E+06    -51.5783E+06    -12.7655E+06    -3.38934E+06    -15.4849E-03     30.9989E-03    -15.5140E-03     13.3548E-03    -15.4919E-03     30.7888E-03    -15.4741E-03     13.3091E-03
             790     4.43093E-03     82.8149E-03    -17.8564E+06    -50.7168E+06    -8.76052E+06    -4.06669E+06    -15.4971E-03     31.0193E-03    -15.5222E-03     16.8895E-03    -15.5007E-03     30.8049E-03    -15.4665E-03     16.8344E-03
             791     5.31717E-03     82.8322E-03    -15.7810E+06    -50.2581E+06    -5.48369E+06    -4.66227E+06    -15.5204E-03     31.0473E-03    -15.5269E-03     20.5636E-03    -15.5194E-03     30.8277E-03    -15.4585E-03     20.5000E-03
             792     6.20340E-03     82.8530E-03    -13.8315E+06    -49.7623E+06    -2.96166E+06    -5.13373E+06    -15.5567E-03     31.0848E-03    -15.5281E-03     24.3961E-03    -15.5508E-03     30.8617E-03    -15.4507E-03     24.3255E-03
             793     7.08966E-03     82.8773E-03    -12.0306E+06    -49.4980E+06    -919.397E+03    -5.56242E+06    -15.6038E-03     31.1317E-03    -15.5279E-03     28.3777E-03    -15.5930E-03     30.9050E-03    -15.4432E-03     28.3003E-03
             794     7.97592E-03     82.9055E-03    -10.3724E+06    -49.3805E+06      564.45E+03    -5.94716E+06    -15.6655E-03     31.1913E-03    -15.5258E-03     32.4799E-03    -15.6497E-03     30.9617E-03    -15.4364E-03     32.3959E-03
             795     8.86219E-03     82.9375E-03    -8.85962E+06    -48.1560E+06     1.49131E+06    -6.23842E+06    -15.7350E-03     31.2552E-03    -15.5203E-03     36.6653E-03    -15.7164E-03     31.0299E-03    -15.4301E-03     36.5752E-03
             796     9.74847E-03     82.9735E-03    -7.47271E+06    -48.6897E+06     1.67989E+06    -6.36828E+06    -15.8162E-03     31.3304E-03    -15.5142E-03     40.8256E-03    -15.7927E-03     31.1026E-03    -15.4244E-03     40.7309E-03
             797     10.6347E-03     83.0132E-03    -6.36437E+06    -46.5485E+06     96.7031E+03    -6.40030E+06    -15.9048E-03     31.4012E-03    -15.4964E-03     44.9377E-03    -15.8805E-03     31.1888E-03    -15.4192E-03     44.8386E-03
             798     11.5210E-03     83.0568E-03    -5.42105E+06    -39.1807E+06     951.540E+03    -6.18092E+06    -15.9970E-03     31.4812E-03    -15.4842E-03     49.1966E-03    -15.9862E-03     31.3093E-03    -15.4148E-03     49.0953E-03
             799     12.4073E-03     83.1044E-03    -4.80616E+06    -38.7668E+06    -1.33997E+06    -5.98698E+06    -16.1376E-03     31.6048E-03    -15.4673E-03     54.8885E-03    -16.1323E-03     31.4487E-03    -15.4108E-03     54.7833E-03
             800     13.2936E-03     83.1587E-03    -4.44444E+06    -34.6057E+06    -7.93928E+06    -5.50845E+06    -16.2370E-03     31.6597E-03    -15.4227E-03     60.0652E-03    -16.2447E-03     31.5518E-03    -15.4058E-03     59.9592E-03
             801     14.1797E-03     83.2160E-03    -4.02017E+06    -9.23711E+06    -4.68547E+06    -4.38550E+06    -16.2953E-03     31.6910E-03    -15.3958E-03     64.1831E-03    -16.3702E-03     31.7325E-03    -15.4000E-03     64.0885E-03
             802     15.0667E-03     83.2777E-03    -3.98084E+06     17.4365E+06    -7.37473E+06    -3.33942E+06    -17.0576E-03     32.3999E-03    -15.3423E-03     82.8574E-03    -17.2899E-03     32.7013E-03    -15.3987E-03     82.7909E-03
             803     15.9519E-03     83.3702E-03    -2.80026E+06     63.7915E+06    -23.3909E+06    -675.817E+03    -18.2975E-03     33.4957E-03    -15.1982E-03     116.512E-03    -19.1286E-03     34.6111E-03    -15.4036E-03     116.713E-03
             804     16.8391E-03     83.4955E-03    -1.72636E+06     130.396E+06     24.7258E+06     544.242E+03    -16.7871E-03     32.1163E-03    -15.3293E-03     104.208E-03    -17.8980E-03     33.6123E-03    -15.3922E-03     104.817E-03
             805     886.159E-06     83.7558E-03    -24.2628E+06    -53.1455E+06    -23.5519E+06    -1.09268E+06    -15.4778E-03     30.9632E-03    -15.4855E-03     3.57619E-03    -15.4878E-03     30.7669E-03    -15.4910E-03     3.56158E-03
             806     1.77234E-03     83.7605E-03    -23.1604E+06    -52.2603E+06    -20.7201E+06    -1.94113E+06    -15.4780E-03     30.9690E-03    -15.4910E-03     6.64683E-03    -15.4880E-03     30.7714E-03    -15.4852E-03     6.62082E-03
             807     2.65852E-03     83.7681E-03    -21.5965E+06    -50.9682E+06    -16.7879E+06    -2.83036E+06    -15.4765E-03     30.9775E-03    -15.5010E-03     9.94166E-03    -15.4864E-03     30.7785E-03    -15.4797E-03     9.90367E-03
             808     3.54472E-03     83.7789E-03    -19.6913E+06    -49.7633E+06    -12.5155E+06    -3.64468E+06    -15.4801E-03     30.9909E-03    -15.5108E-03     13.3489E-03    -15.4886E-03     30.7891E-03    -15.4727E-03     13.2998E-03
             809     4.43094E-03     83.7927E-03    -17.6521E+06    -49.0378E+06    -8.58566E+06    -4.41183E+06    -15.4936E-03     31.0123E-03    -15.5187E-03     16.8822E-03    -15.4989E-03     30.8057E-03    -15.4649E-03     16.8226E-03
             810     5.31717E-03     83.8101E-03    -15.5529E+06    -48.7799E+06    -5.35893E+06    -5.02242E+06    -15.5196E-03     31.0431E-03    -15.5235E-03     20.5590E-03    -15.5198E-03     30.8305E-03    -15.4570E-03     20.4907E-03
             811     6.20341E-03     83.8308E-03    -13.5872E+06    -48.4691E+06    -2.88132E+06    -5.50090E+06    -15.5554E-03     31.0803E-03    -15.5250E-03     24.3939E-03    -15.5502E-03     30.8632E-03    -15.4494E-03     24.3185E-03
             812     7.08967E-03     83.8552E-03    -11.8176E+06    -48.2625E+06    -855.149E+03    -5.89940E+06    -15.6032E-03     31.1281E-03    -15.5249E-03     28.3806E-03    -15.5931E-03     30.9072E-03    -15.4421E-03     28.2989E-03
             813     7.97593E-03     83.8833E-03    -10.2268E+06    -48.2146E+06     614.725E+03    -6.32039E+06    -15.6656E-03     31.1888E-03    -15.5232E-03     32.4965E-03    -15.6508E-03     30.9648E-03    -15.4354E-03     32.4077E-03
             814     8.86219E-03     83.9154E-03    -8.80202E+06    -47.2216E+06     1.41665E+06    -6.62942E+06    -15.7330E-03     31.2506E-03    -15.5176E-03     36.6869E-03    -15.7154E-03     31.0299E-03    -15.4293E-03     36.5918E-03
             815     9.74847E-03     83.9512E-03    -7.50317E+06    -47.8288E+06     1.59763E+06    -6.88020E+06    -15.8191E-03     31.3310E-03    -15.5119E-03     40.8686E-03    -15.7969E-03     31.1077E-03    -15.4237E-03     40.7672E-03
             816     10.6347E-03     83.9910E-03    -6.37529E+06    -46.1647E+06    -156.650E+03    -6.85735E+06    -15.9119E-03     31.4063E-03    -15.4943E-03     45.0011E-03    -15.8879E-03     31.1962E-03    -15.4189E-03     44.8961E-03
             817     11.5210E-03     84.0345E-03    -5.41629E+06    -38.8304E+06     769.992E+03    -6.71688E+06    -15.9885E-03     31.4709E-03    -15.4824E-03     49.3091E-03    -15.9779E-03     31.3009E-03    -15.4144E-03     49.2010E-03
             818     12.4073E-03     84.0824E-03    -4.57976E+06    -38.7014E+06    -1.58746E+06    -6.32185E+06    -16.1680E-03     31.6337E-03    -15.4657E-03     55.0008E-03    -16.1613E-03     31.4780E-03    -15.4109E-03     54.8911E-03
             819     13.2935E-03     84.1363E-03    -4.44952E+06    -35.1458E+06    -8.42740E+06    -5.75255E+06    -16.2086E-03     31.6297E-03    -15.4211E-03     60.0581E-03    -16.2147E-03     31.5197E-03    -15.4059E-03     59.9490E-03
             820     14.1802E-03     84.1937E-03    -4.35437E+06    -10.1473E+06    -5.32523E+06    -4.96684E+06    -16.2429E-03     31.6343E-03    -15.3915E-03     64.5723E-03    -16.3173E-03     31.6727E-03    -15.3971E-03     64.4705E-03
             821     15.0657E-03     84.2559E-03    -3.96112E+06     16.5304E+06    -8.10794E+06    -3.81676E+06    -17.0712E-03     32.4061E-03    -15.3348E-03     83.4713E-03    -17.3030E-03     32.7060E-03    -15.3936E-03     83.3990E-03
             822     15.9526E-03     84.3483E-03    -5.56478E+06     61.4337E+06    -25.4681E+06    -2.35468E+06    -17.9522E-03     33.1326E-03    -15.1804E-03     116.949E-03    -18.7907E-03     34.2433E-03    -15.3887E-03     117.137E-03
             823     16.8382E-03     84.4731E-03    -4.06865E+06     128.685E+06     22.2649E+06    -501.418E+03    -16.7529E-03     32.0504E-03    -15.2975E-03     104.820E-03    -17.8694E-03     33.5448E-03    -15.3669E-03     105.418E-03
             824     886.182E-06     84.7337E-03    -23.6258E+06    -50.9505E+06    -22.9525E+06    -1.13738E+06    -15.4890E-03     30.9566E-03    -15.4676E-03     3.58026E-03    -15.5000E-03     30.7695E-03    -15.4742E-03     3.56508E-03
             825     1.77234E-03     84.7383E-03    -22.6118E+06    -50.1185E+06    -20.1575E+06    -2.08424E+06    -15.4771E-03     30.9652E-03    -15.4881E-03     6.63945E-03    -15.4883E-03     30.7767E-03    -15.4834E-03     6.61160E-03
             826     2.65853E-03     84.7460E-03    -21.0624E+06    -48.9096E+06    -16.3628E+06    -3.00952E+06    -15.4720E-03     30.9697E-03    -15.4978E-03     9.93732E-03    -15.4828E-03     30.7796E-03    -15.4781E-03     9.89701E-03
             827     3.54473E-03     84.7567E-03    -19.2434E+06    -47.8797E+06    -12.1467E+06    -3.84568E+06    -15.4757E-03     30.9829E-03    -15.5072E-03     13.3448E-03    -15.4852E-03     30.7894E-03    -15.4706E-03     13.2932E-03
             828     4.43095E-03     84.7707E-03    -17.2868E+06    -47.1694E+06    -8.25846E+06    -4.64103E+06    -15.4900E-03     31.0049E-03    -15.5148E-03     16.8781E-03    -15.4967E-03     30.8066E-03    -15.4627E-03     16.8155E-03
             829     5.31718E-03     84.7879E-03    -15.3412E+06    -47.2083E+06    -5.19329E+06    -5.37341E+06    -15.5149E-03     31.0344E-03    -15.5195E-03     20.5577E-03    -15.5165E-03     30.8290E-03    -15.4547E-03     20.4849E-03
             830     6.20343E-03     84.8087E-03    -13.4527E+06    -47.1442E+06    -2.82828E+06    -5.84201E+06    -15.5493E-03     31.0699E-03    -15.5206E-03     24.3971E-03    -15.5454E-03     30.8591E-03    -15.4469E-03     24.3174E-03
             831     7.08968E-03     84.8330E-03    -11.6683E+06    -46.9435E+06    -807.967E+03    -6.28408E+06    -15.5957E-03     31.1158E-03    -15.5201E-03     28.3950E-03    -15.5868E-03     30.9012E-03    -15.4392E-03     28.3083E-03
             832     7.97596E-03     84.8612E-03    -10.0252E+06    -47.0347E+06     704.603E+03    -6.66443E+06    -15.6537E-03     31.1719E-03    -15.5181E-03     32.5196E-03    -15.6398E-03     30.9533E-03    -15.4319E-03     32.4264E-03
             833     8.86223E-03     84.8931E-03    -8.54074E+06    -46.1304E+06     1.54885E+06    -7.02937E+06    -15.7191E-03     31.2309E-03    -15.5118E-03     36.7217E-03    -15.7019E-03     31.0151E-03    -15.4248E-03     36.6216E-03
             834     9.74852E-03     84.9291E-03    -7.25542E+06    -46.9232E+06     1.66596E+06    -7.28273E+06    -15.8049E-03     31.3101E-03    -15.5052E-03     40.9305E-03    -15.7829E-03     31.0909E-03    -15.4183E-03     40.8240E-03
             835     10.6348E-03     84.9688E-03    -6.15271E+06    -45.6063E+06    -54.8597E+03    -7.41875E+06    -15.8976E-03     31.3851E-03    -15.4875E-03     45.0805E-03    -15.8734E-03     31.1773E-03    -15.4127E-03     44.9683E-03
             836     11.5211E-03     85.0124E-03    -5.13396E+06    -38.5697E+06     733.846E+03    -7.23221E+06    -15.9719E-03     31.4462E-03    -15.4742E-03     49.4021E-03    -15.9602E-03     31.2771E-03    -15.4072E-03     49.2873E-03
             837     12.4075E-03     85.0601E-03    -4.19032E+06    -38.5783E+06    -1.38933E+06    -6.97839E+06    -16.1555E-03     31.6134E-03    -15.4580E-03     55.1537E-03    -16.1473E-03     31.4575E-03    -15.4029E-03     55.0356E-03
             838     13.2936E-03     85.1144E-03    -3.45590E+06    -35.8562E+06    -8.56525E+06    -6.21820E+06    -16.2809E-03     31.6952E-03    -15.4142E-03     59.9130E-03    -16.2812E-03     31.5807E-03    -15.4001E-03     59.7975E-03
             839     14.1799E-03     85.1707E-03    -3.11521E+06    -10.5544E+06    -5.17947E+06    -5.34881E+06    -16.2041E-03     31.5906E-03    -15.3865E-03     64.5226E-03    -16.2721E-03     31.6252E-03    -15.3926E-03     64.4160E-03
             840     15.0671E-03     85.2345E-03    -3.05976E+06     15.3480E+06    -8.76264E+06    -4.55182E+06    -17.0033E-03     32.3275E-03    -15.3242E-03     83.6423E-03    -17.2282E-03     32.6214E-03    -15.3858E-03     83.5614E-03
             841     15.9527E-03     85.3259E-03    -1.96167E+06     59.4196E+06    -25.2043E+06    -2.56570E+06    -17.5886E-03     32.7503E-03    -15.1618E-03     115.388E-03    -18.3883E-03     33.8272E-03    -15.3711E-03     115.577E-03
             842     16.8415E-03     85.4499E-03    -1.77075E+06     127.618E+06     23.9530E+06    -492.660E+03    -16.7485E-03     32.0285E-03    -15.2800E-03     104.901E-03    -17.8480E-03     33.5053E-03    -15.3427E-03     105.503E-03
             843     886.162E-06     85.7116E-03    -22.8947E+06    -48.5824E+06    -22.2156E+06    -1.18648E+06    -15.4831E-03     30.9512E-03    -15.4680E-03     3.57453E-03    -15.4949E-03     30.7737E-03    -15.4755E-03     3.55871E-03
             844     1.77234E-03     85.7163E-03    -21.8584E+06    -47.8471E+06    -19.5302E+06    -2.21949E+06    -15.4707E-03     30.9549E-03    -15.4842E-03     6.63880E-03    -15.4824E-03     30.7757E-03    -15.4807E-03     6.60920E-03
             845     2.65854E-03     85.7238E-03    -20.3379E+06    -46.7497E+06    -15.7017E+06    -3.19164E+06    -15.4691E-03     30.9626E-03    -15.4935E-03     9.93320E-03    -15.4804E-03     30.7813E-03    -15.4748E-03     9.89054E-03
             846     3.54474E-03     85.7346E-03    -18.4606E+06    -45.9130E+06    -11.4850E+06    -4.06311E+06    -15.4721E-03     30.9754E-03    -15.5033E-03     13.3400E-03    -15.4816E-03     30.7896E-03    -15.4674E-03     13.2856E-03
             847     4.43096E-03     85.7485E-03    -16.4608E+06    -45.2489E+06    -7.62595E+06    -4.85149E+06    -15.4840E-03     30.9945E-03    -15.5105E-03     16.8771E-03    -15.4902E-03     30.8037E-03    -15.4591E-03     16.8119E-03
             848     5.31720E-03     85.7658E-03    -14.5836E+06    -45.5236E+06    -4.50356E+06    -5.52275E+06    -15.5073E-03     31.0225E-03    -15.5152E-03     20.5565E-03    -15.5086E-03     30.8235E-03    -15.4506E-03     20.4818E-03
             849     6.20345E-03     85.7865E-03    -12.8569E+06    -45.7166E+06    -2.30621E+06    -6.11374E+06    -15.5390E-03     31.0544E-03    -15.5154E-03     24.4031E-03    -15.5351E-03     30.8492E-03    -15.4420E-03     24.3198E-03
             850     7.08973E-03     85.8109E-03    -11.1634E+06    -45.4628E+06    -487.323E+03    -6.66301E+06    -15.5799E-03     31.0929E-03    -15.5130E-03     28.4124E-03    -15.5712E-03     30.8846E-03    -15.4333E-03     28.3208E-03
             851     7.97600E-03     85.8389E-03    -9.50003E+06    -45.8726E+06     1.02402E+06    -7.11045E+06    -15.6323E-03     31.1422E-03    -15.5099E-03     32.5442E-03    -15.6178E-03     30.9282E-03    -15.4245E-03     32.4453E-03
             852     8.86231E-03     85.8710E-03    -8.09386E+06    -45.0167E+06     1.83270E+06    -7.33574E+06    -15.6945E-03     31.1965E-03    -15.5020E-03     36.7597E-03    -15.6771E-03     30.9852E-03    -15.4158E-03     36.6557E-03
             853     9.74863E-03     85.9068E-03    -6.88797E+06    -45.8593E+06     2.00278E+06    -7.69277E+06    -15.7780E-03     31.2722E-03    -15.4942E-03     40.9822E-03    -15.7562E-03     31.0573E-03    -15.4077E-03     40.8705E-03
             854     10.6349E-03     85.9467E-03    -5.82102E+06    -44.8400E+06     150.031E+03    -7.92415E+06    -15.8708E-03     31.3457E-03    -15.4748E-03     45.1394E-03    -15.8463E-03     31.1409E-03    -15.4006E-03     45.0208E-03
             855     11.5213E-03     85.9901E-03    -4.79427E+06    -38.2546E+06     869.670E+03    -7.90049E+06    -15.9541E-03     31.4151E-03    -15.4610E-03     49.4757E-03    -15.9413E-03     31.2469E-03    -15.3942E-03     49.3524E-03
             856     12.4075E-03     86.0380E-03    -3.88562E+06    -38.5214E+06    -1.31941E+06    -7.51710E+06    -16.1210E-03     31.5646E-03    -15.4436E-03     55.2647E-03    -16.1115E-03     31.4083E-03    -15.3887E-03     55.1399E-03
             857     13.2939E-03     86.0921E-03    -3.47370E+06    -36.1078E+06    -8.30729E+06    -7.04446E+06    -16.3371E-03     31.7401E-03    -15.4030E-03     60.1282E-03    -16.3377E-03     31.6242E-03    -15.3871E-03     60.0020E-03
             858     14.1799E-03     86.1490E-03    -3.03774E+06    -11.6450E+06    -5.28175E+06    -5.97903E+06    -16.4185E-03     31.8019E-03    -15.3834E-03     64.5319E-03    -16.4853E-03     31.8319E-03    -15.3886E-03     64.4163E-03
             859     15.0660E-03     86.2111E-03    -2.56150E+06     14.3726E+06    -7.54548E+06    -4.82496E+06    -16.8147E-03     32.1424E-03    -15.3277E-03     83.8644E-03    -17.0351E-03     32.4266E-03    -15.3826E-03     83.7809E-03
             860     15.9523E-03     86.3057E-03    -4.17347E+06     56.5063E+06    -25.6054E+06    -3.55707E+06    -17.7269E-03     32.8901E-03    -15.1632E-03     114.852E-03    -18.5278E-03     33.9510E-03    -15.3671E-03     115.019E-03
             861     16.8386E-03     86.4229E-03    -3.79265E+06     125.559E+06     21.0644E+06    -978.997E+03    -16.9362E-03     32.2139E-03    -15.2776E-03     105.620E-03    -18.0506E-03     33.6994E-03    -15.3488E-03     106.220E-03
             862     886.170E-06     86.6895E-03    -21.9078E+06    -46.1307E+06    -21.3430E+06    -1.28842E+06    -15.4601E-03     30.9411E-03    -15.4811E-03     3.56625E-03    -15.4718E-03     30.7733E-03    -15.4891E-03     3.54912E-03
             863     1.77237E-03     86.6941E-03    -20.9448E+06    -45.3804E+06    -18.6184E+06    -2.34312E+06    -15.4643E-03     30.9431E-03    -15.4788E-03     6.63908E-03    -15.4763E-03     30.7736E-03    -15.4757E-03     6.60788E-03
             864     2.65855E-03     86.7018E-03    -19.4398E+06    -44.4726E+06    -14.8655E+06    -3.40946E+06    -15.4641E-03     30.9520E-03    -15.4879E-03     9.92846E-03    -15.4755E-03     30.7796E-03    -15.4695E-03     9.88300E-03
             865     3.54476E-03     86.7124E-03    -17.5964E+06    -43.8486E+06    -10.7318E+06    -4.31158E+06    -15.4646E-03     30.9619E-03    -15.4973E-03     13.3404E-03    -15.4737E-03     30.7841E-03    -15.4619E-03     13.2827E-03
             866     4.43099E-03     86.7264E-03    -15.6489E+06    -43.3398E+06    -6.92405E+06    -5.08281E+06    -15.4727E-03     30.9764E-03    -15.5037E-03     16.8805E-03    -15.4786E-03     30.7930E-03    -15.4528E-03     16.8123E-03
             867     5.31724E-03     86.7436E-03    -13.7334E+06    -43.9075E+06    -3.79893E+06    -5.67007E+06    -15.4932E-03     31.0009E-03    -15.5077E-03     20.5626E-03    -15.4936E-03     30.8077E-03    -15.4431E-03     20.4860E-03
             868     6.20350E-03     86.7644E-03    -11.9902E+06    -44.0321E+06    -1.56061E+06    -6.26018E+06    -15.5213E-03     31.0279E-03    -15.5066E-03     24.4158E-03    -15.5165E-03     30.8288E-03    -15.4332E-03     24.3306E-03
             869     7.08979E-03     86.7886E-03    -10.4389E+06    -43.8997E+06     68.4044E+03    -6.93502E+06    -15.5555E-03     31.0576E-03    -15.5020E-03     28.4343E-03    -15.5462E-03     30.8551E-03    -15.4229E-03     28.3392E-03
             870     7.97611E-03     86.8168E-03    -9.06766E+06    -44.5898E+06     1.39508E+06    -7.40905E+06    -15.6042E-03     31.1012E-03    -15.4971E-03     32.5725E-03    -15.5900E-03     30.8925E-03    -15.4123E-03     32.4697E-03
             871     8.86243E-03     86.8487E-03    -7.63901E+06    -43.9694E+06     2.25241E+06    -7.75154E+06    -15.6643E-03     31.1522E-03    -15.4879E-03     36.8003E-03    -15.6467E-03     30.9449E-03    -15.4018E-03     36.6910E-03
             872     9.74877E-03     86.8847E-03    -6.33392E+06    -44.6205E+06     2.52442E+06    -8.02762E+06    -15.7465E-03     31.2251E-03    -15.4786E-03     41.0331E-03    -15.7244E-03     31.0148E-03    -15.3921E-03     40.9171E-03
             873     10.6351E-03     86.9243E-03    -5.29464E+06    -43.8819E+06     770.639E+03    -8.41686E+06    -15.8430E-03     31.3018E-03    -15.4589E-03     45.2002E-03    -15.8181E-03     31.1002E-03    -15.3837E-03     45.0752E-03
             874     11.5214E-03     86.9680E-03    -4.40164E+06    -37.8010E+06     1.22978E+06    -8.44536E+06    -15.9207E-03     31.3641E-03    -15.4434E-03     49.5497E-03    -15.9071E-03     31.1971E-03    -15.3761E-03     49.4195E-03
             875     12.4079E-03     87.0156E-03    -3.51592E+06    -38.4005E+06    -974.836E+03    -8.23539E+06    -16.0902E-03     31.5154E-03    -15.4253E-03     55.3578E-03    -16.0794E-03     31.3587E-03    -15.3694E-03     55.2239E-03
             876     13.2941E-03     87.0700E-03    -2.75731E+06    -36.4324E+06    -8.16389E+06    -7.55250E+06    -16.2648E-03     31.6460E-03    -15.3812E-03     60.3208E-03    -16.2611E-03     31.5269E-03    -15.3652E-03     60.1885E-03
             877     14.1805E-03     87.1268E-03    -2.23729E+06    -12.1450E+06    -4.95298E+06    -6.83935E+06    -16.4466E-03     31.8082E-03    -15.3616E-03     65.1580E-03    -16.5098E-03     31.8347E-03    -15.3655E-03     65.0312E-03
             878     15.0662E-03     87.1899E-03    -1.68532E+06     12.4689E+06    -8.22277E+06    -4.77880E+06    -16.7333E-03     32.0353E-03    -15.3019E-03     83.7807E-03    -16.9424E-03     32.3064E-03    -15.3587E-03     83.6984E-03
             879     15.9547E-03     87.2805E-03    -1.80098E+06     54.4054E+06    -24.8977E+06    -2.33706E+06    -17.9624E-03     33.1077E-03    -15.1453E-03     116.045E-03    -18.7624E-03     34.1666E-03    -15.3460E-03     116.221E-03
             880     16.8392E-03     87.4062E-03    -2.57945E+06     124.252E+06     23.0858E+06    -1.51325E+06    -17.2436E-03     32.5216E-03    -15.2780E-03     105.996E-03    -18.3591E-03     34.0021E-03    -15.3390E-03     106.580E-03
             881     886.186E-06     87.6674E-03    -20.9494E+06    -43.5222E+06    -20.3203E+06    -1.39241E+06    -15.4501E-03     30.9254E-03    -15.4752E-03     3.56474E-03    -15.4623E-03     30.7677E-03    -15.4834E-03     3.54627E-03
             882     1.77236E-03     87.6721E-03    -19.9215E+06    -42.7609E+06    -17.6579E+06    -2.50327E+06    -15.4554E-03     30.9258E-03    -15.4704E-03     6.64175E-03    -15.4675E-03     30.7666E-03    -15.4678E-03     6.60849E-03
             883     2.65857E-03     87.6796E-03    -18.4546E+06    -42.0722E+06    -13.9210E+06    -3.58386E+06    -15.4507E-03     30.9295E-03    -15.4788E-03     9.93247E-03    -15.4619E-03     30.7662E-03    -15.4607E-03     9.88476E-03
             884     3.54479E-03     87.6904E-03    -16.6894E+06    -41.7001E+06    -9.83780E+06    -4.51963E+06    -15.4509E-03     30.9382E-03    -15.4873E-03     13.3455E-03    -15.4600E-03     30.7685E-03    -15.4518E-03     13.2852E-03
             885     4.43103E-03     87.7042E-03    -14.8054E+06    -41.4429E+06    -6.15368E+06    -5.26644E+06    -15.4551E-03     30.9475E-03    -15.4923E-03     16.8888E-03    -15.4607E-03     30.7712E-03    -15.4416E-03     16.8182E-03
             886     5.31730E-03     87.7215E-03    -12.9301E+06    -42.2380E+06    -3.15614E+06    -5.90639E+06    -15.4703E-03     30.9648E-03    -15.4945E-03     20.5772E-03    -15.4700E-03     30.7778E-03    -15.4303E-03     20.4976E-03
             887     6.20359E-03     87.7421E-03    -11.0838E+06    -42.3338E+06    -836.599E+03    -6.49933E+06    -15.4935E-03     30.9852E-03    -15.4917E-03     24.4380E-03    -15.4876E-03     30.7921E-03    -15.4185E-03     24.3498E-03
             888     7.08991E-03     87.7665E-03    -9.51193E+06    -42.3075E+06     972.592E+03    -7.02524E+06    -15.5256E-03     31.0117E-03    -15.4862E-03     28.4567E-03    -15.5152E-03     30.8146E-03    -15.4062E-03     28.3606E-03
             889     7.97625E-03     87.7945E-03    -8.20530E+06    -43.2679E+06     2.23066E+06    -7.48916E+06    -15.5723E-03     31.0520E-03    -15.4796E-03     32.6068E-03    -15.5569E-03     30.8474E-03    -15.3938E-03     32.5030E-03
             890     8.86260E-03     87.8265E-03    -7.09421E+06    -42.5335E+06     2.85958E+06      -8.043E+06    -15.6298E-03     31.0978E-03    -15.4680E-03     36.8490E-03    -15.6124E-03     30.8960E-03    -15.3818E-03     36.7359E-03
             891     9.74899E-03     87.8622E-03    -5.87635E+06    -43.5756E+06     3.02897E+06    -8.49039E+06    -15.7140E-03     31.1716E-03    -15.4576E-03     41.1014E-03    -15.6918E-03     30.9651E-03    -15.3707E-03     40.9795E-03
             892     10.6353E-03     87.9021E-03    -4.91209E+06    -42.7127E+06     1.33770E+06    -8.67524E+06    -15.8057E-03     31.2426E-03    -15.4369E-03     45.2707E-03    -15.7814E-03     31.0453E-03    -15.3611E-03     45.1426E-03
             893     11.5218E-03     87.9455E-03    -4.14873E+06    -37.1361E+06     1.71250E+06    -8.93793E+06    -15.8978E-03     31.3190E-03    -15.4212E-03     49.6256E-03    -15.8845E-03     31.1542E-03    -15.3528E-03     49.4891E-03
             894     12.4081E-03     87.9934E-03    -3.49147E+06    -38.1843E+06    -800.993E+03    -8.75236E+06    -16.0575E-03     31.4596E-03    -15.4021E-03     55.4093E-03    -16.0470E-03     31.3035E-03    -15.3457E-03     55.2689E-03
             895     13.2945E-03     88.0476E-03    -3.08310E+06    -36.5267E+06    -7.83541E+06    -8.46286E+06    -16.2271E-03     31.5861E-03    -15.3590E-03     60.3782E-03    -16.2253E-03     31.4665E-03    -15.3408E-03     60.2342E-03
             896     14.1808E-03     88.1046E-03    -2.69897E+06    -12.9755E+06    -4.93630E+06    -7.57230E+06    -16.3140E-03     31.6496E-03    -15.3356E-03     65.0208E-03    -16.3779E-03     31.6722E-03    -15.3375E-03     64.8851E-03
             897     15.0680E-03     88.1678E-03    -2.66508E+06     10.4621E+06    -7.61678E+06    -6.02941E+06    -16.9444E-03     32.2310E-03    -15.2866E-03     82.7835E-03    -17.1559E-03     32.4923E-03    -15.3360E-03     82.6828E-03
             898     15.9524E-03     88.2579E-03    -1.66592E+06     50.8928E+06    -24.9104E+06    -3.42787E+06    -18.1545E-03     33.2962E-03    -15.1417E-03     115.749E-03    -18.9589E-03     34.3476E-03    -15.3376E-03     115.914E-03
             899     16.8409E-03     88.3842E-03    -1.26493E+06     122.769E+06     22.7094E+06    -452.712E+03    -17.2270E-03     32.5010E-03    -15.2740E-03     104.766E-03    -18.3281E-03     33.9675E-03    -15.3366E-03     105.356E-03
             900     886.180E-06     88.6454E-03    -19.8103E+06    -40.6662E+06    -19.2642E+06    -1.48675E+06    -15.4440E-03     30.8963E-03    -15.4523E-03     3.57215E-03    -15.4561E-03     30.7497E-03    -15.4610E-03     3.55246E-03
             901     1.77240E-03     88.6499E-03    -18.8484E+06    -40.0515E+06    -16.6107E+06    -2.65958E+06    -15.4386E-03     30.8941E-03    -15.4554E-03     6.64549E-03    -15.4508E-03     30.7453E-03    -15.4531E-03     6.61023E-03
             902     2.65861E-03     88.6576E-03    -17.3893E+06    -39.6060E+06    -12.8397E+06    -3.73326E+06    -15.4310E-03     30.8942E-03    -15.4632E-03     9.94003E-03    -15.4421E-03     30.7402E-03    -15.4448E-03     9.89041E-03
             903     3.54485E-03     88.6682E-03    -15.6371E+06    -39.4629E+06    -8.77124E+06    -4.67660E+06    -15.4280E-03     30.8985E-03    -15.4705E-03     13.3556E-03    -15.4366E-03     30.7369E-03    -15.4345E-03     13.2933E-03
             904     4.43111E-03     88.6821E-03    -13.7682E+06    -39.5629E+06    -5.16923E+06    -5.42374E+06    -15.4290E-03     30.9031E-03    -15.4741E-03     16.9021E-03    -15.4335E-03     30.7333E-03    -15.4226E-03     16.8295E-03
             905     5.31741E-03     88.6992E-03    -11.9022E+06    -40.3443E+06    -2.22623E+06    -6.13741E+06    -15.4391E-03     30.9133E-03    -15.4742E-03     20.5999E-03    -15.4378E-03     30.7329E-03    -15.4096E-03     20.5174E-03
             906     6.20373E-03     88.7199E-03    -10.1681E+06    -40.7130E+06    -34.1789E+03    -6.77879E+06    -15.4573E-03     30.9266E-03    -15.4693E-03     24.4668E-03    -15.4504E-03     30.7391E-03    -15.3957E-03     24.3751E-03
             907     7.09008E-03     88.7441E-03    -8.62343E+06    -40.9652E+06     1.76670E+06    -7.09536E+06    -15.4870E-03     30.9491E-03    -15.4621E-03     28.4956E-03    -15.4753E-03     30.7562E-03    -15.3814E-03     28.3986E-03
             908     7.97645E-03     88.7722E-03    -7.30802E+06    -41.7289E+06     3.09129E+06    -7.54058E+06    -15.5312E-03     30.9850E-03    -15.4537E-03     32.6574E-03    -15.5148E-03     30.7855E-03    -15.3672E-03     32.5531E-03
             909     8.86286E-03     88.8041E-03    -6.14028E+06    -41.0609E+06     3.68203E+06    -8.07179E+06    -15.5931E-03     31.0336E-03    -15.4405E-03     36.9241E-03    -15.5743E-03     30.8365E-03    -15.3536E-03     36.8107E-03
             910     9.74923E-03     88.8400E-03    -5.41969E+06    -42.2893E+06     3.62713E+06    -8.55242E+06    -15.6754E-03     31.1042E-03    -15.4288E-03     41.1865E-03    -15.6536E-03     30.9025E-03    -15.3415E-03     41.0640E-03
             911     10.6357E-03     88.8797E-03    -4.75477E+06    -41.7313E+06     1.84770E+06    -8.90065E+06    -15.7765E-03     31.1846E-03    -15.4081E-03     45.3681E-03    -15.7536E-03     30.9913E-03    -15.3314E-03     45.2371E-03
             912     11.5220E-03     88.9233E-03    -4.16785E+06    -36.1236E+06     2.18384E+06    -9.06230E+06    -15.8878E-03     31.2809E-03    -15.3931E-03     49.7357E-03    -15.8768E-03     31.1205E-03    -15.3238E-03     49.5976E-03
             913     12.4085E-03     88.9710E-03    -3.72484E+06    -37.8367E+06    -518.746E+03    -9.13703E+06    -16.0585E-03     31.4346E-03    -15.3761E-03     55.4341E-03    -16.0500E-03     31.2801E-03    -15.3185E-03     55.2888E-03
             914     13.2948E-03     89.0252E-03    -3.52668E+06    -36.1667E+06    -7.79152E+06    -8.91166E+06    -16.3082E-03     31.6449E-03    -15.3367E-03     60.4860E-03    -16.3096E-03     31.5279E-03    -15.3181E-03     60.3361E-03
             915     14.1810E-03     89.0826E-03    -3.30078E+06    -13.8369E+06    -5.03315E+06    -8.33359E+06    -16.3989E-03     31.7201E-03    -15.3212E-03     64.9555E-03    -16.4640E-03     31.7390E-03    -15.3216E-03     64.8098E-03
             916     15.0665E-03     89.1452E-03    -2.63794E+06     8.39726E+06    -7.80550E+06    -6.38984E+06    -16.9986E-03     32.2757E-03    -15.2771E-03     83.1880E-03    -17.2086E-03     32.5288E-03    -15.3245E-03     83.0828E-03
             917     15.9542E-03     89.2367E-03    -4.84492E+06     47.9744E+06    -26.3175E+06    -3.94510E+06    -18.3923E-03     33.5309E-03    -15.1386E-03     116.767E-03    -19.2101E-03     34.5781E-03    -15.3327E-03     116.925E-03
             918     16.8377E-03     89.3616E-03    -4.57263E+06     120.270E+06     20.7282E+06    -1.40206E+06    -17.2014E-03     32.4732E-03    -15.2718E-03     105.388E-03    -18.3147E-03     33.9371E-03    -15.3359E-03     105.969E-03
             919     886.225E-06     89.6232E-03    -18.4112E+06    -37.6639E+06    -17.8074E+06    -1.59093E+06    -15.4250E-03     30.8487E-03    -15.4237E-03     3.57631E-03    -15.4366E-03     30.7130E-03    -15.4314E-03     3.55529E-03
             920     1.77242E-03     89.6278E-03    -17.4972E+06    -37.2696E+06    -15.1878E+06    -2.71444E+06    -15.4132E-03     30.8449E-03    -15.4317E-03     6.64650E-03    -15.4247E-03     30.7060E-03    -15.4282E-03     6.61054E-03
             921     2.65868E-03     89.6353E-03    -16.1527E+06    -37.1014E+06    -11.5398E+06    -3.80225E+06    -15.4017E-03     30.8401E-03    -15.4384E-03     9.94936E-03    -15.4121E-03     30.6949E-03    -15.4189E-03     9.89888E-03
             922     3.54494E-03     89.6460E-03    -14.5264E+06    -37.2023E+06    -7.58753E+06    -4.72560E+06    -15.3934E-03     30.8374E-03    -15.4440E-03     13.3713E-03    -15.4014E-03     30.6838E-03    -15.4069E-03     13.3083E-03
             923     4.43124E-03     89.6598E-03    -12.7155E+06    -37.5246E+06    -4.05788E+06    -5.58753E+06    -15.3905E-03     30.8363E-03    -15.4457E-03     16.9234E-03    -15.3944E-03     30.6735E-03    -15.3932E-03     16.8487E-03
             924     5.31757E-03     89.6770E-03    -10.9109E+06    -38.4392E+06    -1.33426E+06    -6.30624E+06    -15.3954E-03     30.8383E-03    -15.4429E-03     20.6319E-03    -15.3932E-03     30.6647E-03    -15.3780E-03     20.5473E-03
             925     6.20393E-03     89.6976E-03    -9.36768E+06    -39.1022E+06     662.181E+03    -6.83111E+06    -15.4095E-03     30.8450E-03    -15.4355E-03     24.5126E-03    -15.4019E-03     30.6634E-03    -15.3619E-03     24.4203E-03
             926     7.09032E-03     89.7219E-03    -7.98437E+06    -39.7299E+06     2.24420E+06    -7.21954E+06    -15.4348E-03     30.8606E-03    -15.4258E-03     28.5582E-03    -15.4223E-03     30.6722E-03    -15.3454E-03     28.4597E-03
             927     7.97676E-03     89.7498E-03    -6.66797E+06    -40.1612E+06     3.70144E+06    -7.58488E+06    -15.4802E-03     30.8959E-03    -15.4157E-03     32.7410E-03    -15.4637E-03     30.7024E-03    -15.3293E-03     32.6362E-03
             928     8.86318E-03     89.7817E-03    -5.65541E+06    -39.7414E+06     4.36049E+06    -8.02763E+06    -15.5434E-03     30.9453E-03    -15.4019E-03     37.0308E-03    -15.5250E-03     30.7531E-03    -15.3143E-03     36.9181E-03
             929     9.74966E-03     89.8175E-03    -4.76516E+06    -40.9770E+06     4.42000E+06    -8.33014E+06    -15.6305E-03     31.0201E-03    -15.3897E-03     41.3080E-03    -15.6084E-03     30.8229E-03    -15.3013E-03     41.1884E-03
             930     10.6361E-03     89.8573E-03    -4.23482E+06    -40.4348E+06     2.68210E+06    -8.83612E+06    -15.7536E-03     31.1232E-03    -15.3696E-03     45.5473E-03    -15.7311E-03     30.9343E-03    -15.2914E-03     45.4173E-03
             931     11.5225E-03     89.9009E-03    -3.74255E+06    -35.2900E+06     2.84407E+06    -9.11630E+06    -15.8765E-03     31.2325E-03    -15.3560E-03     49.9276E-03    -15.8654E-03     31.0747E-03    -15.2852E-03     49.7890E-03
             932     12.4089E-03     89.9487E-03    -3.37524E+06    -37.0702E+06     198.622E+03    -9.10700E+06    -16.1081E-03     31.4513E-03    -15.3432E-03     55.6356E-03    -16.1001E-03     31.2992E-03    -15.2836E-03     55.4906E-03
             933     13.2951E-03     90.0029E-03    -3.56009E+06    -35.7903E+06    -7.38867E+06    -9.07006E+06    -16.3822E-03     31.6914E-03    -15.3092E-03     60.8887E-03    -16.3850E-03     31.5759E-03    -15.2890E-03     60.7366E-03
             934     14.1812E-03     90.0607E-03    -3.56500E+06    -14.1671E+06     -4.9694E+06    -8.61384E+06    -16.4031E-03     31.7003E-03    -15.2972E-03     65.1782E-03    -16.4690E-03     31.7176E-03    -15.2963E-03     65.0290E-03
             935     15.0684E-03     90.1227E-03    -3.22041E+06     6.09239E+06    -8.46355E+06    -7.57593E+06    -17.1015E-03     32.3582E-03    -15.2567E-03     83.5274E-03    -17.3122E-03     32.6037E-03    -15.3032E-03     83.4068E-03
             936     15.9535E-03     90.2147E-03    -1.21967E+06     44.6406E+06    -25.4819E+06    -3.91335E+06    -18.3886E-03     33.5129E-03    -15.1243E-03     116.652E-03    -19.1811E-03     34.5334E-03    -15.3147E-03     116.812E-03
             937     16.8418E-03     90.3409E-03    -1.09292E+06     118.321E+06     23.0540E+06    -750.144E+03    -17.2255E-03     32.4904E-03    -15.2649E-03     104.567E-03    -18.3144E-03     33.9286E-03    -15.3196E-03     105.155E-03
             938     886.227E-06     90.6011E-03    -17.2227E+06    -34.6454E+06    -16.4093E+06    -1.47379E+06    -15.3827E-03     30.7723E-03    -15.3896E-03     3.57752E-03    -15.3947E-03     30.6479E-03    -15.3964E-03     3.55802E-03
             939     1.77251E-03     90.6056E-03    -16.3272E+06    -34.5038E+06    -13.8358E+06    -2.67057E+06    -15.3717E-03     30.7654E-03    -15.3937E-03     6.65809E-03    -15.3833E-03     30.6367E-03    -15.3892E-03     6.62272E-03
             940     2.65877E-03     90.6132E-03    -14.9976E+06    -34.6001E+06    -10.1408E+06    -3.71002E+06    -15.3591E-03     30.7592E-03    -15.4000E-03     9.96504E-03    -15.3694E-03     30.6228E-03    -15.3788E-03     9.91577E-03
             941     3.54509E-03     90.6237E-03    -13.3096E+06    -34.8264E+06    -6.23786E+06    -4.75613E+06    -15.3461E-03     30.7503E-03    -15.4042E-03     13.3923E-03    -15.3534E-03     30.6048E-03    -15.3656E-03     13.3290E-03
             942     4.43142E-03     90.6376E-03    -11.5212E+06    -35.3986E+06    -2.93588E+06    -5.65316E+06    -15.3369E-03     30.7400E-03    -15.4031E-03     16.9534E-03    -15.3395E-03     30.5845E-03    -15.3498E-03     16.8779E-03
             943     5.31781E-03     90.6546E-03    -9.86322E+06    -36.5657E+06    -387.522E+03    -6.36580E+06    -15.3367E-03     30.7343E-03    -15.3976E-03     20.6740E-03    -15.3333E-03     30.5672E-03    -15.3322E-03     20.5886E-03
             944     6.20423E-03     90.6752E-03    -8.33582E+06    -37.6666E+06     1.48013E+06    -6.79585E+06    -15.3466E-03     30.7344E-03    -15.3878E-03     24.5705E-03    -15.3371E-03     30.5573E-03    -15.3137E-03     24.4787E-03
             945     7.09068E-03     90.6994E-03    -7.02593E+06    -38.2105E+06     3.08301E+06    -7.20515E+06    -15.3701E-03     30.7460E-03    -15.3759E-03     28.6372E-03    -15.3563E-03     30.5627E-03    -15.2949E-03     28.5390E-03
             946     7.97716E-03     90.7274E-03    -5.90947E+06    -38.9583E+06     4.40212E+06    -7.55661E+06    -15.4141E-03     30.7780E-03    -15.3639E-03     32.8555E-03    -15.3965E-03     30.5883E-03    -15.2768E-03     32.7512E-03
             947     8.86367E-03     90.7592E-03    -4.96940E+06    -38.3922E+06     5.25697E+06    -7.78155E+06    -15.4735E-03     30.8226E-03    -15.3492E-03     37.1717E-03    -15.4548E-03     30.6348E-03    -15.2600E-03     37.0624E-03
             948     9.75016E-03     90.7951E-03    -4.17097E+06    -39.6841E+06     5.26189E+06    -8.33027E+06    -15.5718E-03     30.9074E-03    -15.3356E-03     41.5064E-03    -15.5498E-03     30.7144E-03    -15.2457E-03     41.3870E-03
             949     10.6367E-03     90.8348E-03    -3.44240E+06    -39.2010E+06     3.66477E+06    -8.60379E+06    -15.7113E-03     31.0272E-03    -15.3159E-03     45.8111E-03    -15.6879E-03     30.8419E-03    -15.2358E-03     45.6843E-03
             950     11.5231E-03     90.8785E-03    -3.12949E+06    -34.2208E+06     3.85646E+06    -8.95376E+06    -15.8560E-03     31.1603E-03    -15.3043E-03     50.2096E-03    -15.8448E-03     31.0054E-03    -15.2309E-03     50.0733E-03
             951     12.4095E-03     90.9263E-03    -2.85780E+06    -36.5234E+06     1.07208E+06    -9.04508E+06    -16.1369E-03     31.4320E-03    -15.2951E-03     56.0549E-03    -16.1285E-03     31.2807E-03    -15.2327E-03     55.9108E-03
             952     13.2957E-03     90.9808E-03    -2.85863E+06    -35.2230E+06    -6.15277E+06    -8.83737E+06    -16.3956E-03     31.6622E-03    -15.2666E-03     61.2817E-03    -16.3975E-03     31.5468E-03    -15.2421E-03     61.1327E-03
             953     14.1821E-03     91.0384E-03    -3.33431E+06    -13.8763E+06    -3.77853E+06    -8.75761E+06    -16.5070E-03     31.7685E-03    -15.2614E-03     65.3324E-03    -16.5741E-03     31.7854E-03    -15.2554E-03     65.1811E-03
             954     15.0675E-03     91.1004E-03    -3.41227E+06     5.13332E+06    -7.85636E+06    -8.01592E+06    -17.2880E-03     32.5185E-03    -15.2305E-03     84.0656E-03    -17.5016E-03     32.7610E-03    -15.2723E-03     83.9387E-03
             955     15.9538E-03     91.1938E-03    -5.50834E+06     39.7378E+06    -26.6267E+06    -5.75106E+06    -18.4402E-03     33.5487E-03    -15.1085E-03     117.160E-03    -19.2470E-03     34.5542E-03    -15.2913E-03     117.298E-03
             956     16.8383E-03     91.3168E-03    -4.46886E+06     114.906E+06     20.6588E+06    -1.77789E+06    -17.1998E-03     32.4408E-03    -15.2410E-03     104.946E-03    -18.2995E-03     33.8727E-03    -15.2979E-03     105.524E-03
             957     886.309E-06     91.5788E-03    -16.2663E+06    -31.7885E+06    -15.5507E+06    -1.34273E+06    -15.3170E-03     30.6544E-03    -15.3373E-03     3.58133E-03    -15.3297E-03     30.5416E-03    -15.3454E-03     3.56353E-03
             958     1.77259E-03     91.5834E-03    -15.3716E+06    -31.8288E+06    -12.5372E+06    -2.47826E+06    -15.3139E-03     30.6510E-03    -15.3372E-03     6.67159E-03    -15.3265E-03     30.5324E-03    -15.3314E-03     6.63872E-03
             959     2.65894E-03     91.5908E-03    -13.9093E+06    -32.0439E+06    -8.79593E+06    -3.64076E+06    -15.2994E-03     30.6430E-03    -15.3436E-03     9.98129E-03    -15.3099E-03     30.5159E-03    -15.3210E-03     9.93294E-03
             960     3.54528E-03     91.6014E-03    -12.1719E+06    -32.3109E+06    -5.10308E+06    -4.77371E+06    -15.2801E-03     30.6256E-03    -15.3455E-03     13.4202E-03    -15.2871E-03     30.4894E-03    -15.3065E-03     13.3567E-03
             961     4.43170E-03     91.6151E-03    -10.4572E+06    -33.3890E+06    -1.83667E+06    -5.62250E+06    -15.2659E-03     30.6090E-03    -15.3431E-03     16.9912E-03    -15.2677E-03     30.4604E-03    -15.2887E-03     16.9162E-03
             962     5.31814E-03     91.6322E-03    -8.90034E+06    -34.6742E+06     651.353E+03    -6.25705E+06    -15.2599E-03     30.5951E-03    -15.3353E-03     20.7265E-03    -15.2559E-03     30.4346E-03    -15.2688E-03     20.6426E-03
             963     6.20463E-03     91.6527E-03    -7.48923E+06    -36.2293E+06     2.37180E+06    -6.80302E+06    -15.2643E-03     30.5873E-03    -15.3230E-03     24.6422E-03    -15.2539E-03     30.4149E-03    -15.2478E-03     24.5504E-03
             964     7.09116E-03     91.6769E-03    -6.20174E+06    -36.8228E+06     3.79807E+06    -7.08153E+06    -15.2819E-03     30.5896E-03    -15.3077E-03     28.7471E-03    -15.2669E-03     30.4109E-03    -15.2263E-03     28.6507E-03
             965     7.97772E-03     91.7048E-03    -5.18584E+06    -37.7643E+06     5.10825E+06    -7.33834E+06    -15.3193E-03     30.6124E-03    -15.2931E-03     33.0039E-03    -15.3008E-03     30.4266E-03    -15.2053E-03     32.9026E-03
             966     8.86430E-03     91.7366E-03    -4.23456E+06    -37.2249E+06     5.93890E+06    -7.64204E+06    -15.3785E-03     30.6540E-03    -15.2756E-03     37.3741E-03    -15.3587E-03     30.4699E-03    -15.1858E-03     37.2667E-03
             967     9.75092E-03     91.7724E-03    -3.43675E+06    -38.0719E+06     6.30928E+06    -8.09187E+06    -15.4900E-03     30.7514E-03    -15.2614E-03     41.7779E-03    -15.4681E-03     30.5638E-03    -15.1697E-03     41.6619E-03
             968     10.6374E-03     91.8122E-03    -2.86978E+06    -38.3398E+06     4.67544E+06    -8.57967E+06    -15.6443E-03     30.8868E-03    -15.2424E-03     46.1445E-03    -15.6207E-03     30.7033E-03    -15.1593E-03     46.0183E-03
             969     11.5240E-03     91.8560E-03    -2.28520E+06    -33.0539E+06     5.08578E+06     -8.6374E+06    -15.8255E-03     31.0579E-03    -15.2324E-03     50.5964E-03    -15.8135E-03     30.9057E-03    -15.1558E-03     50.4644E-03
             970     12.4104E-03     91.9039E-03    -1.94722E+06    -35.7123E+06     2.51595E+06    -8.99625E+06    -16.1362E-03     31.3643E-03    -15.2281E-03     56.5212E-03    -16.1266E-03     31.2137E-03    -15.1609E-03     56.3778E-03
             971     13.2966E-03     91.9587E-03    -1.93928E+06    -35.2654E+06    -5.17560E+06    -8.70523E+06    -16.4262E-03     31.6294E-03    -15.2032E-03     61.6613E-03    -16.4249E-03     31.5110E-03    -15.1751E-03     61.5142E-03
             972     14.1827E-03     92.0161E-03    -1.98013E+06    -13.1944E+06    -2.23794E+06    -8.24017E+06    -16.6243E-03     31.8310E-03    -15.2067E-03     65.9524E-03    -16.6883E-03     31.8476E-03    -15.1959E-03     65.8076E-03
             973     15.0691E-03     92.0791E-03    -2.86698E+06     4.38233E+06    -7.11248E+06    -7.76851E+06    -17.4311E-03     32.6159E-03    -15.1848E-03     84.6477E-03    -17.6432E-03     32.8540E-03    -15.2225E-03     84.5239E-03
             974     15.9553E-03     92.1710E-03    -2.69268E+06     36.1071E+06    -25.2126E+06    -5.22346E+06    -18.4845E-03     33.5584E-03    -15.0739E-03     117.130E-03    -19.2705E-03     34.5362E-03    -15.2484E-03     117.274E-03
             975     16.8426E-03     92.2969E-03    -1.80995E+06     111.783E+06     23.0576E+06    -2.18707E+06    -17.3923E-03     32.6108E-03    -15.2185E-03     104.868E-03    -18.4747E-03     34.0167E-03    -15.2627E-03     105.437E-03
             976     886.349E-06     92.5564E-03    -15.2028E+06    -29.3394E+06    -14.4079E+06    -1.16683E+06    -15.2426E-03     30.4990E-03    -15.2564E-03     3.59392E-03    -15.2551E-03     30.3953E-03    -15.2639E-03     3.57841E-03
             977     1.77275E-03     92.5610E-03    -14.4421E+06    -29.2627E+06    -11.6470E+06    -2.15420E+06    -15.2355E-03     30.4939E-03    -15.2585E-03     6.68470E-03    -15.2484E-03     30.3855E-03    -15.2533E-03     6.65604E-03
             978     2.65912E-03     92.5684E-03    -13.2140E+06    -29.3312E+06    -8.04604E+06    -3.45849E+06    -15.2132E-03     30.4766E-03    -15.2634E-03     10.0046E-03    -15.2252E-03     30.3609E-03    -15.2419E-03     9.95863E-03
             979     3.54558E-03     92.5789E-03    -11.7130E+06    -29.8674E+06    -4.28541E+06    -4.62020E+06    -15.1902E-03     30.4547E-03    -15.2645E-03     13.4540E-03    -15.1996E-03     30.3289E-03    -15.2256E-03     13.3926E-03
             980     4.43205E-03     92.5926E-03    -10.0585E+06    -31.3519E+06    -915.473E+03    -5.51499E+06    -15.1717E-03     30.4331E-03    -15.2614E-03     17.0390E-03    -15.1757E-03     30.2928E-03    -15.2060E-03     16.9654E-03
             981     5.31859E-03     92.6096E-03    -8.34297E+06    -32.8593E+06     1.51263E+06    -6.20757E+06    -15.1578E-03     30.4088E-03    -15.2511E-03     20.7951E-03    -15.1548E-03     30.2552E-03    -15.1838E-03     20.7120E-03
             982     6.20516E-03     92.6301E-03    -6.84189E+06    -34.6850E+06     3.15075E+06    -6.68716E+06    -15.1543E-03     30.3900E-03    -15.2357E-03     24.7398E-03    -15.1441E-03     30.2232E-03    -15.1597E-03     24.6497E-03
             983     7.09179E-03     92.6541E-03    -5.62092E+06    -35.6761E+06     4.34436E+06    -6.99030E+06    -15.1613E-03     30.3776E-03    -15.2162E-03     28.8863E-03    -15.1459E-03     30.2029E-03    -15.1346E-03     28.7912E-03
             984     7.97847E-03     92.6820E-03    -4.47576E+06    -36.5943E+06     5.68441E+06    -7.14346E+06    -15.1911E-03     30.3887E-03    -15.1976E-03     33.1902E-03    -15.1714E-03     30.2068E-03    -15.1097E-03     33.0917E-03
             985     8.86519E-03     92.7138E-03    -3.62168E+06    -36.0311E+06     6.70268E+06    -7.40700E+06    -15.2583E-03     30.4360E-03    -15.1778E-03     37.6245E-03    -15.2382E-03     30.2558E-03    -15.0868E-03     37.5205E-03
             986     9.75188E-03     92.7497E-03    -2.98692E+06    -36.7346E+06     7.31525E+06    -7.73731E+06    -15.3796E-03     30.5424E-03    -15.1628E-03     42.1060E-03    -15.3587E-03     30.3593E-03    -15.0687E-03     41.9949E-03
             987     10.6385E-03     92.7895E-03    -2.64288E+06    -37.0324E+06     5.95296E+06    -8.17826E+06    -15.5562E-03     30.7014E-03    -15.1452E-03     46.5335E-03    -15.5351E-03     30.5221E-03    -15.0579E-03     46.4128E-03
             988     11.5251E-03     92.8333E-03    -2.06877E+06    -31.9968E+06     6.14210E+06    -8.87449E+06    -15.7792E-03     30.9156E-03    -15.1364E-03     51.0943E-03    -15.7691E-03     30.7667E-03    -15.0563E-03     50.9595E-03
             989     12.4115E-03     92.8816E-03    -1.27912E+06    -34.8188E+06     3.76097E+06    -8.95200E+06    -16.1354E-03     31.2724E-03    -15.1370E-03     57.0590E-03    -16.1255E-03     31.1234E-03    -15.0658E-03     56.9164E-03
             990     13.2978E-03     92.9363E-03    -1.08525E+06    -35.2934E+06    -3.85664E+06    -8.76874E+06    -16.5124E-03     31.6339E-03    -15.1215E-03     62.1608E-03    -16.5088E-03     31.5124E-03    -15.0880E-03     62.0127E-03
             991     14.1840E-03     92.9941E-03    -1.40678E+06    -13.2872E+06    -1.07269E+06    -8.12046E+06    -16.7050E-03     31.8395E-03    -15.1345E-03     66.2882E-03    -16.7680E-03     31.8534E-03    -15.1186E-03     66.1448E-03
             992     15.0699E-03     93.0569E-03    -1.09756E+06     3.94951E+06    -4.34193E+06    -7.28052E+06    -17.4922E-03     32.6191E-03    -15.1269E-03     85.1751E-03    -17.6994E-03     32.8490E-03    -15.1527E-03     85.0572E-03
             993     15.9546E-03     93.1503E-03    -2.29753E+06     32.7831E+06    -23.7771E+06    -5.65460E+06    -18.8937E-03     33.9247E-03    -15.0310E-03     117.424E-03    -19.6803E-03     34.8884E-03    -15.1940E-03     117.558E-03
             994     16.8404E-03     93.2724E-03    -2.80984E+06     108.515E+06     20.7880E+06    -2.25952E+06    -17.7703E-03     32.9529E-03    -15.1825E-03     104.632E-03    -18.8546E-03     34.3522E-03    -15.2319E-03     105.196E-03
             995     886.475E-06     93.5339E-03    -15.2234E+06    -27.2976E+06    -14.4421E+06    -881.164E+03    -15.1405E-03     30.2904E-03    -15.1498E-03     3.61434E-03    -15.1561E-03     30.1970E-03    -15.1604E-03     3.60253E-03
             996     1.77290E-03     93.5384E-03    -14.3369E+06    -26.9160E+06    -11.7285E+06    -1.87773E+06    -15.1258E-03     30.2779E-03    -15.1521E-03     6.70072E-03    -15.1415E-03     30.1812E-03    -15.1509E-03     6.67567E-03
             997     2.65943E-03     93.5458E-03    -13.0314E+06    -26.6207E+06    -7.59380E+06    -3.10607E+06    -15.0991E-03     30.2560E-03    -15.1569E-03     10.0330E-03    -15.1148E-03     30.1530E-03    -15.1374E-03     9.99163E-03
             998     3.54594E-03     93.5563E-03    -11.3945E+06    -27.4858E+06    -3.22946E+06    -4.32155E+06    -15.0732E-03     30.2326E-03    -15.1594E-03     13.4943E-03    -15.0859E-03     30.1166E-03    -15.1192E-03     13.4368E-03
             999     4.43253E-03     93.5699E-03    -9.67556E+06    -29.2399E+06     59.9251E+03    -5.28111E+06    -15.0466E-03     30.2005E-03    -15.1539E-03     17.0998E-03    -15.0531E-03     30.0687E-03    -15.0972E-03     17.0294E-03
            1000     5.31916E-03     93.5868E-03    -8.17050E+06    -31.0255E+06     2.09360E+06    -6.04622E+06    -15.0222E-03     30.1612E-03    -15.1390E-03     20.8838E-03    -15.0219E-03     30.0157E-03    -15.0717E-03     20.8029E-03
            1001     6.20587E-03     93.6072E-03    -6.83162E+06    -33.2678E+06     3.44094E+06    -6.52756E+06    -15.0080E-03     30.1270E-03    -15.1191E-03     24.8644E-03    -15.0000E-03     29.9668E-03    -15.0437E-03     24.7765E-03
            1002     7.09263E-03     93.6312E-03    -5.63924E+06    -34.4234E+06     4.63393E+06    -6.82140E+06    -15.0053E-03     30.1009E-03    -15.0956E-03     29.0510E-03    -14.9921E-03     29.9321E-03    -15.0143E-03     28.9583E-03
            1003     7.97946E-03     93.6590E-03    -4.58589E+06    -35.5526E+06     5.92604E+06    -7.08383E+06    -15.0324E-03     30.1054E-03    -15.0730E-03     33.4140E-03    -15.0151E-03     29.9284E-03    -14.9852E-03     33.3166E-03
            1004     8.86630E-03     93.6908E-03    -3.59049E+06    -35.0898E+06     7.19790E+06    -7.08098E+06    -15.1061E-03     30.1570E-03    -15.0510E-03     37.9278E-03    -15.0878E-03     29.9806E-03    -14.9589E-03     37.8284E-03
            1005     9.75314E-03     93.7266E-03    -3.05061E+06    -35.6684E+06     8.05032E+06    -7.13623E+06    -15.2446E-03     30.2799E-03    -15.0353E-03     42.4867E-03    -15.2265E-03     30.1010E-03    -14.9389E-03     42.3837E-03
            1006     10.6399E-03     93.7666E-03    -2.51079E+06    -35.3261E+06     7.25451E+06    -7.82676E+06    -15.4554E-03     30.4750E-03    -15.0197E-03     47.0037E-03    -15.4378E-03     30.3021E-03    -14.9285E-03     46.8880E-03
            1007     11.5266E-03     93.8106E-03    -2.09551E+06    -30.4344E+06     7.36439E+06    -8.73408E+06    -15.7186E-03     30.7325E-03    -15.0139E-03     51.6476E-03    -15.7125E-03     30.5896E-03    -14.9299E-03     51.5151E-03
            1008     12.4131E-03     93.8589E-03    -1.63558E+06    -34.1570E+06     4.80756E+06    -9.32136E+06    -16.1563E-03     31.1785E-03    -15.0221E-03     57.6875E-03    -16.1507E-03     31.0318E-03    -14.9462E-03     57.5403E-03
            1009     13.2993E-03     93.9141E-03    -1.24575E+06    -35.4060E+06    -2.94101E+06    -8.74747E+06    -16.6277E-03     31.6459E-03    -15.0182E-03     62.7833E-03    -16.6264E-03     31.5230E-03    -14.9798E-03     62.6354E-03
            1010     14.1850E-03     93.9721E-03    -1.10425E+06    -13.0000E+06     574.024E+03    -8.18438E+06    -16.8533E-03     31.9009E-03    -15.0476E-03     66.8412E-03    -16.9181E-03     31.9139E-03    -15.0242E-03     66.6967E-03
            1011     15.0710E-03     94.0351E-03    -1.33134E+06     2.85397E+06    -3.26871E+06    -6.98397E+06    -17.6415E-03     32.6948E-03    -15.0533E-03     85.5125E-03    -17.8506E-03     32.9188E-03    -15.0719E-03     85.3978E-03
            1012     15.9586E-03     94.1282E-03    -2.71173E+06     30.1609E+06    -22.8830E+06    -4.36772E+06    -19.1069E-03     34.0788E-03    -14.9719E-03     118.132E-03    -19.8950E-03     35.0307E-03    -15.1261E-03     118.279E-03
            1013     16.8420E-03     94.2544E-03    -3.60240E+06     106.037E+06     21.2520E+06    -2.47487E+06    -18.1210E-03     33.2587E-03    -15.1378E-03     105.120E-03    -19.2086E-03     34.6484E-03    -15.1801E-03     105.677E-03
            1014     886.535E-06     94.5111E-03    -15.2019E+06    -25.4127E+06    -14.6495E+06    -924.905E+03    -15.0040E-03     30.0239E-03    -15.0199E-03     3.63567E-03    -15.0219E-03     29.9402E-03    -15.0343E-03     3.62332E-03
            1015     1.77317E-03     94.5156E-03    -14.1468E+06    -24.8503E+06    -11.3944E+06    -1.77320E+06    -14.9870E-03     30.0061E-03    -15.0191E-03     6.72130E-03    -15.0052E-03     29.9189E-03    -15.0195E-03     6.69765E-03
            1016     2.65974E-03     94.5230E-03    -12.7815E+06    -24.3178E+06    -7.06031E+06    -2.66110E+06    -14.9542E-03     29.9761E-03    -15.0219E-03     10.0670E-03    -14.9728E-03     29.8834E-03    -15.0034E-03     10.0315E-03
            1017     3.54644E-03     94.5334E-03    -11.3888E+06    -25.0680E+06    -2.79577E+06    -3.75918E+06    -14.9174E-03     29.9382E-03    -15.0208E-03     13.5480E-03    -14.9342E-03     29.8337E-03    -14.9819E-03     13.4978E-03
            1018     4.43313E-03     94.5470E-03    -9.93172E+06    -27.1771E+06     473.497E+03    -4.80789E+06    -14.8812E-03     29.8934E-03    -15.0122E-03     17.1761E-03    -14.8926E-03     29.7717E-03    -14.9561E-03     17.1119E-03
            1019     5.31994E-03     94.5638E-03     -8.5473E+06    -29.2198E+06     2.40820E+06    -5.54974E+06    -14.8473E-03     29.8406E-03    -14.9933E-03     20.9901E-03    -14.8519E-03     29.7041E-03    -14.9265E-03     20.9158E-03
            1020     6.20679E-03     94.5840E-03    -7.36906E+06    -31.7382E+06     3.57993E+06    -6.19385E+06    -14.8229E-03     29.7916E-03    -14.9687E-03     25.0077E-03    -14.8200E-03     29.6395E-03    -14.8941E-03     24.9244E-03
            1021     7.09373E-03     94.6079E-03    -6.36362E+06    -33.3528E+06     4.55022E+06    -6.48278E+06    -14.8138E-03     29.7543E-03    -14.9405E-03     29.2435E-03    -14.8056E-03     29.5919E-03    -14.8602E-03     29.1555E-03
            1022     7.98071E-03     94.6357E-03    -5.59163E+06    -34.3275E+06     5.82152E+06    -6.68474E+06    -14.8408E-03     29.7549E-03    -14.9141E-03     33.6792E-03    -14.8300E-03     29.5855E-03    -14.8271E-03     33.5872E-03
            1023     8.86772E-03     94.6674E-03    -4.95701E+06    -34.5614E+06     6.83273E+06    -6.78007E+06    -14.9222E-03     29.8116E-03    -14.8894E-03     38.2803E-03    -14.9109E-03     29.6402E-03    -14.7980E-03     38.1851E-03
            1024     9.75474E-03     94.7034E-03    -4.07827E+06    -34.7344E+06     7.95093E+06    -6.69379E+06    -15.0887E-03     29.9617E-03    -14.8730E-03     42.9443E-03    -15.0767E-03     29.7889E-03    -14.7770E-03     42.8474E-03
            1025     10.6416E-03     94.7434E-03    -3.52145E+06    -33.2836E+06     7.74314E+06    -7.45260E+06    -15.3433E-03     30.2039E-03    -14.8606E-03     47.5598E-03    -15.3343E-03     30.0418E-03    -14.7686E-03     47.4493E-03
            1026     11.5284E-03     94.7876E-03    -2.97400E+06    -28.8451E+06     8.11029E+06    -8.45877E+06    -15.6738E-03     30.5362E-03    -14.8624E-03     52.2715E-03    -15.6754E-03     30.4013E-03    -14.7757E-03     52.1428E-03
            1027     12.4149E-03     94.8363E-03    -2.81371E+06    -33.1629E+06     5.33997E+06    -8.90556E+06    -16.1853E-03     31.0657E-03    -14.8804E-03     58.4371E-03    -16.1878E-03     30.9250E-03    -14.8015E-03     58.2955E-03
            1028     13.3010E-03     94.8920E-03    -2.99736E+06    -35.4676E+06    -2.85884E+06    -8.99210E+06    -16.7101E-03     31.5990E-03    -14.8889E-03     63.5479E-03    -16.7177E-03     31.4784E-03    -14.8475E-03     63.3970E-03
            1029     14.1870E-03     94.9501E-03    -2.71250E+06    -13.1040E+06     533.448E+03    -8.30297E+06    -17.1416E-03     32.0780E-03    -14.9364E-03     67.4064E-03    -17.2152E-03     32.0939E-03    -14.9108E-03     67.2594E-03
            1030     15.0728E-03     95.0133E-03    -2.31455E+06     1.60045E+06    -2.40341E+06    -7.53293E+06    -18.3002E-03     33.2813E-03    -14.9812E-03     85.8002E-03    -18.5173E-03     33.5029E-03    -14.9922E-03     85.6747E-03
            1031     15.9557E-03     95.1072E-03    -1.51883E+06     26.1467E+06    -22.0587E+06    -4.83022E+06    -19.2755E-03     34.2050E-03    -14.9295E-03     117.215E-03    -20.0530E-03     35.1339E-03    -15.0755E-03     117.357E-03
            1032     16.8446E-03     95.2311E-03    -1.24505E+06     103.460E+06     21.6891E+06    -1.52339E+06    -18.1868E-03     33.2880E-03    -15.1012E-03     104.196E-03    -19.2562E-03     34.6574E-03    -15.1410E-03     104.761E-03
            1033     886.740E-06     95.4881E-03    -15.5268E+06    -23.5809E+06    -14.7315E+06    -901.491E+03    -14.8303E-03     29.6859E-03    -14.8555E-03     3.65571E-03    -14.8524E-03     29.6119E-03    -14.8725E-03     3.64369E-03
            1034     1.77340E-03     95.4925E-03    -14.7996E+06    -23.1193E+06    -11.9666E+06    -1.53576E+06    -14.8095E-03     29.6571E-03    -14.8476E-03     6.75322E-03    -14.8327E-03     29.5804E-03    -14.8525E-03     6.73268E-03
            1035     2.66023E-03     95.4999E-03    -13.5907E+06    -22.5827E+06    -7.97775E+06    -2.15574E+06    -14.7666E-03     29.6121E-03    -14.8455E-03     10.1145E-03    -14.7904E-03     29.5306E-03    -14.8329E-03     10.0856E-03
            1036     3.54702E-03     95.5102E-03    -12.1141E+06    -22.8721E+06    -3.38124E+06    -2.99995E+06    -14.7175E-03     29.5583E-03    -14.8408E-03     13.6124E-03    -14.7402E-03     29.4667E-03    -14.8070E-03     13.5722E-03
            1037     4.43395E-03     95.5237E-03    -10.6661E+06    -25.1521E+06     533.174E+03    -4.02726E+06    -14.6727E-03     29.5038E-03    -14.8310E-03     17.2650E-03    -14.6908E-03     29.3931E-03    -14.7764E-03     17.2111E-03
            1038     5.32089E-03     95.5404E-03    -9.36195E+06    -27.5726E+06     2.67360E+06    -4.82825E+06    -14.6304E-03     29.4396E-03    -14.8092E-03     21.1090E-03    -14.6418E-03     29.3121E-03    -14.7423E-03     21.0442E-03
            1039     6.20796E-03     95.5605E-03    -8.40257E+06    -30.1444E+06     3.59626E+06    -5.40211E+06    -14.5973E-03     29.3766E-03    -14.7793E-03     25.1671E-03    -14.6019E-03     29.2339E-03    -14.7054E-03     25.0942E-03
            1040     7.09507E-03     95.5843E-03    -7.68286E+06    -32.3022E+06     4.25740E+06    -5.85692E+06    -14.5862E-03     29.3329E-03    -14.7467E-03     29.4615E-03    -14.5856E-03     29.1779E-03    -14.6674E-03     29.3819E-03
            1041     7.98228E-03     95.6120E-03    -6.96750E+06    -33.3162E+06     5.33759E+06    -6.01003E+06    -14.6166E-03     29.3327E-03    -14.7161E-03     33.9800E-03    -14.6134E-03     29.1710E-03    -14.6310E-03     33.8971E-03
            1042     8.86948E-03     95.6437E-03    -6.35839E+06    -33.7789E+06     6.50832E+06    -6.12293E+06    -14.7199E-03     29.4109E-03    -14.6910E-03     38.6786E-03    -14.7161E-03     29.2457E-03    -14.6003E-03     38.5924E-03
            1043     9.75664E-03     95.6797E-03    -5.70705E+06    -33.7589E+06     7.44462E+06    -6.53443E+06    -14.9178E-03     29.5924E-03    -14.6746E-03     43.4753E-03    -14.9145E-03     29.4274E-03    -14.5801E-03     43.3811E-03
            1044     10.6437E-03     95.7200E-03    -4.79989E+06    -31.5340E+06     7.88035E+06    -7.00586E+06    -15.2292E-03     29.8971E-03    -14.6679E-03     48.2089E-03    -15.2291E-03     29.7452E-03    -14.5758E-03     48.1046E-03
            1045     11.5305E-03     95.7644E-03    -4.51922E+06    -27.1365E+06     8.52168E+06    -7.83662E+06    -15.6466E-03     30.3267E-03    -14.6801E-03     53.0270E-03    -15.6589E-03     30.2020E-03    -14.5916E-03     52.9067E-03
            1046     12.4170E-03     95.8136E-03    -4.03368E+06    -32.0274E+06     5.75138E+06    -8.66070E+06    -16.2196E-03     30.9305E-03    -14.7109E-03     59.2705E-03    -16.2304E-03     30.7967E-03    -14.6299E-03     59.1323E-03
            1047     13.3032E-03     95.8696E-03    -3.72960E+06    -35.0491E+06    -2.71541E+06    -8.78599E+06    -16.8705E-03     31.6056E-03    -14.7351E-03     64.3442E-03    -16.8828E-03     31.4882E-03    -14.6924E-03     64.1959E-03
            1048     14.1887E-03     95.9283E-03    -3.65462E+06    -12.8776E+06     707.892E+03    -8.73485E+06    -17.5635E-03     32.3729E-03    -14.8093E-03     68.4305E-03    -17.6439E-03     32.3925E-03    -14.7818E-03     68.2766E-03
            1049     15.0732E-03     95.9927E-03    -3.52385E+06     180.549E+03    -2.73151E+06    -7.53841E+06    -18.6728E-03     33.5559E-03    -14.8831E-03     87.0833E-03    -18.8955E-03     33.7746E-03    -14.8919E-03     86.9564E-03
            1050     15.9595E-03     96.0869E-03    -5.10137E+06     22.6964E+06    -22.3541E+06    -5.50497E+06    -19.9678E-03     34.8379E-03    -14.8701E-03     118.341E-03    -20.7676E-03     35.7650E-03    -15.0074E-03     118.464E-03
            1051     16.8412E-03     96.2089E-03    -4.10144E+06     100.642E+06     22.0636E+06    -2.68239E+06    -18.7351E-03     33.8124E-03    -15.0773E-03     105.437E-03    -19.8303E-03     35.1863E-03    -15.1070E-03     105.981E-03
            1052     886.852E-06     96.4647E-03    -16.2827E+06    -22.3036E+06    -15.4460E+06    -351.647E+03    -14.6111E-03     29.2518E-03    -14.6407E-03     3.67360E-03    -14.6378E-03     29.1863E-03    -14.6619E-03     3.66871E-03
            1053     1.77384E-03     96.4691E-03    -15.8735E+06    -21.7091E+06    -13.0506E+06    -926.074E+03    -14.5853E-03     29.2132E-03    -14.6279E-03     6.79328E-03    -14.6143E-03     29.1467E-03    -14.6387E-03     6.78068E-03
            1054     2.66075E-03     96.4764E-03    -14.9033E+06    -21.2536E+06    -9.23648E+06    -1.55352E+06    -14.5355E-03     29.1583E-03    -14.6228E-03     10.1722E-03    -14.5659E-03     29.0871E-03    -14.6165E-03     10.1512E-03
            1055     3.54783E-03     96.4866E-03    -13.6676E+06    -21.2603E+06    -4.60683E+06    -2.12358E+06    -14.4739E-03     29.0888E-03    -14.6149E-03     13.6894E-03    -14.5050E-03     29.0092E-03    -14.5873E-03     13.6607E-03
            1056     4.43490E-03     96.5000E-03    -12.4531E+06    -23.3218E+06    -328.502E+03    -2.88593E+06    -14.4162E-03     29.0188E-03    -14.6026E-03     17.3674E-03    -14.4446E-03     28.9212E-03    -14.5524E-03     17.3284E-03
            1057     5.32212E-03     96.5166E-03    -11.4554E+06    -26.0685E+06     2.16369E+06    -3.66051E+06    -14.3655E-03     28.9446E-03    -14.5790E-03     21.2427E-03    -14.3888E-03     28.8283E-03    -14.5138E-03     21.1932E-03
            1058     6.20938E-03     96.5366E-03    -10.6010E+06    -28.7229E+06     3.03088E+06    -4.29787E+06    -14.3287E-03     28.8738E-03    -14.5451E-03     25.3471E-03    -14.3454E-03     28.7421E-03    -14.4729E-03     25.2888E-03
            1059     7.09676E-03     96.5603E-03    -9.91422E+06    -31.0385E+06     3.51335E+06    -4.86453E+06    -14.3204E-03     28.8291E-03    -14.5087E-03     29.7065E-03    -14.3316E-03     28.6847E-03    -14.4317E-03     29.6400E-03
            1060     7.98416E-03     96.5879E-03    -9.23102E+06    -32.3724E+06     4.40423E+06    -5.34953E+06    -14.3645E-03     28.8404E-03    -14.4758E-03     34.3203E-03    -14.3725E-03     28.6878E-03    -14.3935E-03     34.2464E-03
            1061     8.87159E-03     96.6196E-03    -8.32717E+06    -33.0106E+06     5.73285E+06    -5.52334E+06    -14.4940E-03     28.9456E-03    -14.4515E-03     39.1408E-03    -14.4998E-03     28.7880E-03    -14.3629E-03     39.0628E-03
            1062     9.75894E-03     96.6557E-03    -7.41119E+06    -32.0969E+06     7.10967E+06    -6.13679E+06    -14.7375E-03     29.1761E-03    -14.4386E-03     44.0865E-03    -14.7444E-03     29.0221E-03    -14.3458E-03     43.9979E-03
            1063     10.6461E-03     96.6962E-03    -6.54100E+06    -30.5026E+06     7.52096E+06    -6.90897E+06    -15.1119E-03     29.5512E-03    -14.4393E-03     48.9833E-03    -15.1213E-03     29.4073E-03    -14.3480E-03     48.8808E-03
            1064     11.5330E-03     96.7411E-03    -5.31867E+06    -25.4022E+06     9.03103E+06    -7.33208E+06    -15.6237E-03     30.0883E-03    -14.4645E-03     53.9488E-03    -15.6432E-03     29.9725E-03    -14.3748E-03     53.8355E-03
            1065     12.4195E-03     96.7906E-03    -4.68270E+06    -30.2308E+06     6.64279E+06    -8.53993E+06    -16.3072E-03     30.8205E-03    -14.5133E-03     60.2080E-03    -16.3253E-03     30.6954E-03    -14.4295E-03     60.0715E-03
            1066     13.3055E-03     96.8473E-03    -4.14311E+06    -34.9020E+06    -2.08327E+06    -8.92817E+06    -17.1322E-03     31.6935E-03    -14.5612E-03     65.4903E-03    -17.1484E-03     31.5771E-03    -14.5150E-03     65.3396E-03
            1067     14.1909E-03     96.9069E-03    -3.88575E+06    -12.2915E+06     1.42832E+06    -8.53382E+06    -17.8555E-03     32.5166E-03    -14.6611E-03     69.6956E-03    -17.9403E-03     32.5398E-03    -14.6305E-03     69.5435E-03
            1068     15.0762E-03     96.9721E-03    -3.82279E+06    -752.545E+03    -1.73775E+06    -8.26227E+06    -18.9847E-03     33.7482E-03    -14.7635E-03     87.5575E-03    -19.2097E-03     33.9621E-03    -14.7656E-03     87.4194E-03
            1069     15.9600E-03     97.0652E-03    -1.57712E+06     20.0968E+06    -20.0003E+06    -5.79302E+06    -20.5382E-03     35.3228E-03    -14.7845E-03     118.403E-03    -21.3239E-03     36.2322E-03    -14.9114E-03     118.513E-03
            1070     16.8465E-03     97.1914E-03    -1.56324E+06     97.6022E+06     24.4318E+06    -2.27639E+06    -19.5031E-03     34.5367E-03    -15.0336E-03     104.662E-03    -20.5825E-03     35.8862E-03    -15.0507E-03     105.193E-03
            1071     887.171E-06     97.4408E-03    -17.8032E+06    -22.1849E+06    -16.8972E+06     336.703E+03    -14.3471E-03     28.7037E-03    -14.3566E-03     3.68828E-03    -14.3794E-03     28.6432E-03    -14.3831E-03     3.69232E-03
            1072     1.77425E-03     97.4452E-03    -17.4672E+06    -20.8509E+06    -14.3760E+06     80.9684E+03    -14.3052E-03     28.6580E-03    -14.3529E-03     6.83829E-03    -14.3415E-03     28.6000E-03    -14.3692E-03     6.83876E-03
            1073     2.66152E-03     97.4524E-03    -16.9253E+06    -20.2677E+06    -10.5979E+06    -435.761E+03    -14.2528E-03     28.5995E-03    -14.3467E-03     10.2402E-03    -14.2928E-03     28.5382E-03    -14.3457E-03     10.2337E-03
            1074     3.54874E-03     97.4625E-03    -16.0082E+06    -20.3122E+06    -6.23672E+06    -882.819E+03    -14.1855E-03     28.5222E-03    -14.3367E-03     13.7792E-03    -14.2272E-03     28.4531E-03    -14.3152E-03     13.7666E-03
            1075     4.43615E-03     97.4758E-03    -14.9282E+06    -21.9875E+06    -1.84405E+06    -1.38180E+06    -14.1154E-03     28.4378E-03    -14.3224E-03     17.4797E-03    -14.1559E-03     28.3526E-03    -14.2781E-03     17.4603E-03
            1076     5.32357E-03     97.4922E-03    -13.8900E+06    -24.7251E+06     1.27646E+06    -2.08939E+06    -14.0574E-03     28.3561E-03    -14.2987E-03     21.3888E-03    -14.0934E-03     28.2513E-03    -14.2364E-03     21.3599E-03
            1077     6.21114E-03     97.5121E-03    -13.1134E+06    -27.3812E+06     2.36139E+06    -2.84738E+06    -14.0202E-03     28.2834E-03    -14.2632E-03     25.5435E-03    -14.0504E-03     28.1630E-03    -14.1927E-03     25.5041E-03
            1078     7.09874E-03     97.5357E-03    -12.5151E+06    -29.7049E+06     2.60520E+06    -3.61273E+06    -14.0218E-03     28.2459E-03    -14.2241E-03     29.9809E-03    -14.0465E-03     28.1131E-03    -14.1498E-03     29.9309E-03
            1079     7.98643E-03     97.5632E-03    -11.9719E+06    -31.0809E+06     3.35311E+06    -4.37747E+06    -14.0856E-03     28.2766E-03    -14.1910E-03     34.7010E-03    -14.1074E-03     28.1358E-03    -14.1118E-03     34.6400E-03
            1080     8.87406E-03     97.5950E-03    -11.1050E+06    -31.9439E+06     4.56381E+06    -5.22019E+06    -14.2462E-03     28.4150E-03    -14.1688E-03     39.6665E-03    -14.2655E-03     28.2683E-03    -14.0836E-03     39.5929E-03
            1081     9.76163E-03     97.6312E-03    -9.81013E+06    -30.5189E+06     6.16163E+06    -5.91757E+06    -14.5340E-03     28.6946E-03    -14.1606E-03     44.7922E-03    -14.5536E-03     28.5531E-03    -14.0713E-03     44.7070E-03
            1082     10.6490E-03     97.6721E-03    -8.66983E+06    -29.1074E+06     7.01285E+06    -6.67200E+06    -14.9883E-03     29.1603E-03    -14.1720E-03     49.8811E-03    -15.0094E-03     29.0270E-03    -14.0822E-03     49.7822E-03
            1083     11.5359E-03     97.7174E-03    -7.41614E+06    -23.8109E+06     8.47956E+06    -7.84058E+06    -15.5878E-03     29.7977E-03    -14.2099E-03     55.0491E-03    -15.6192E-03     29.6936E-03    -14.1222E-03     54.9297E-03
            1084     12.4224E-03     97.7678E-03    -5.69824E+06    -28.3140E+06     6.99970E+06    -8.61082E+06    -16.4201E-03     30.7002E-03    -14.2802E-03     61.4253E-03    -16.4467E-03     30.5859E-03    -14.1959E-03     61.2880E-03
            1085     13.3083E-03     97.8247E-03    -4.76896E+06    -34.2792E+06    -1.85996E+06    -9.40109E+06    -17.4150E-03     31.7700E-03    -14.3550E-03     66.9582E-03    -17.4365E-03     31.6583E-03    -14.3076E-03     66.8010E-03
            1086     14.1933E-03     97.8860E-03    -3.65643E+06    -12.1961E+06     1.76023E+06    -9.26220E+06    -18.1775E-03     32.6616E-03    -14.4840E-03     70.9081E-03    -18.2627E-03     32.6854E-03    -14.4522E-03     70.7459E-03
            1087     15.0776E-03     97.9508E-03    -1.88856E+06    -846.072E+03     443.497E+03    -8.48754E+06    -19.5520E-03     34.1787E-03    -14.6267E-03     88.9208E-03    -19.7746E-03     34.3903E-03    -14.6205E-03     88.7764E-03
            1088     15.9616E-03     98.0466E-03    -4.09744E+06     16.6243E+06    -19.6757E+06    -6.80756E+06    -21.3736E-03     36.0665E-03    -14.6929E-03     119.730E-03    -22.1768E-03     36.9712E-03    -14.8094E-03     119.817E-03
            1089     16.8434E-03     98.1696E-03    -4.07407E+06     93.3597E+06     19.9960E+06    -2.75648E+06    -20.0701E-03     35.0300E-03    -14.9599E-03     104.601E-03    -21.1518E-03     36.3707E-03    -14.9894E-03     105.111E-03
            1090     887.368E-06     98.4163E-03    -21.1673E+06    -23.4814E+06    -20.1987E+06     1.11039E+06    -14.0112E-03     28.0218E-03    -14.0106E-03     3.69699E-03    -14.0537E-03     27.9645E-03    -14.0469E-03     3.71107E-03
            1091     1.77491E-03     98.4207E-03    -21.0764E+06    -21.2247E+06    -17.5160E+06     1.54787E+06    -13.9623E-03     27.9744E-03    -14.0121E-03     6.88639E-03    -14.0115E-03     27.9243E-03    -14.0384E-03     6.90588E-03
            1092     2.66234E-03     98.4278E-03    -20.6803E+06    -19.7478E+06    -13.3402E+06     1.29214E+06    -13.9091E-03     27.9165E-03    -14.0073E-03     10.3107E-03    -13.9647E-03     27.8672E-03    -14.0154E-03     10.3266E-03
            1093     3.54996E-03     98.4379E-03    -19.8250E+06    -19.8463E+06    -8.57667E+06     749.109E+03    -13.8434E-03     27.8436E-03    -14.0003E-03     13.8722E-03    -13.9015E-03     27.7858E-03    -13.9856E-03     13.8808E-03
            1094     4.43756E-03     98.4510E-03    -18.6793E+06    -21.2926E+06    -4.05318E+06     350.948E+03    -13.7705E-03     27.7571E-03    -13.9866E-03     17.5992E-03    -13.8275E-03     27.6839E-03    -13.9489E-03     17.6024E-03
            1095     5.32535E-03     98.4673E-03    -17.6977E+06    -23.6761E+06    -699.556E+03    -199.745E+03    -13.7055E-03     27.6687E-03    -13.9632E-03     21.5435E-03    -13.7592E-03     27.5775E-03    -13.9067E-03     21.5392E-03
            1096     6.21317E-03     98.4871E-03    -16.9152E+06    -26.0574E+06     833.379E+03    -1.06738E+06    -13.6712E-03     27.6000E-03    -13.9288E-03     25.7555E-03    -13.7200E-03     27.4938E-03    -13.8623E-03     25.7395E-03
            1097     7.10111E-03     98.5105E-03    -16.2053E+06    -28.2021E+06     1.20383E+06    -2.17775E+06    -13.6883E-03     27.5787E-03    -13.8904E-03     30.2795E-03    -13.7314E-03     27.4607E-03    -13.8200E-03     30.2485E-03
            1098     7.98902E-03     98.5381E-03    -15.2896E+06    -29.4555E+06     1.95684E+06    -3.40361E+06    -13.7781E-03     27.6370E-03    -13.8590E-03     35.1214E-03    -13.8166E-03     27.5111E-03    -13.7843E-03     35.0735E-03
            1099     8.87696E-03     98.5699E-03    -14.0998E+06    -29.9814E+06     3.39591E+06    -4.85494E+06    -13.9742E-03     27.8156E-03    -13.8415E-03     40.2500E-03    -14.0094E-03     27.6845E-03    -13.7606E-03     40.1817E-03
            1100     9.76470E-03     98.6064E-03    -12.5984E+06    -29.1605E+06     4.91497E+06    -6.09518E+06    -14.3121E-03     28.1525E-03    -13.8404E-03     45.5765E-03    -14.3455E-03     28.0234E-03    -13.7553E-03     45.4896E-03
            1101     10.6522E-03     98.6475E-03    -10.6765E+06    -27.5433E+06     6.30192E+06    -6.88939E+06    -14.8421E-03     28.7054E-03    -13.8633E-03     50.9177E-03    -14.8742E-03     28.5835E-03    -13.7764E-03     50.8167E-03
            1102     11.5393E-03     98.6936E-03    -8.98874E+06    -21.3407E+06     8.26629E+06    -8.18494E+06    -15.5333E-03     29.4494E-03    -13.9160E-03     56.2858E-03    -15.5757E-03     29.3600E-03    -13.8307E-03     56.1625E-03
            1103     12.4259E-03     98.7444E-03    -7.28951E+06    -26.9410E+06     6.77309E+06    -9.71934E+06    -16.5057E-03     30.5132E-03    -14.0075E-03     62.9375E-03    -16.5422E-03     30.4085E-03    -13.9240E-03     62.7861E-03
            1104     13.3115E-03     98.8029E-03    -5.60418E+06    -33.0976E+06    -1.92652E+06    -10.0961E+06    -17.6477E-03     31.7556E-03    -14.1079E-03     68.7077E-03    -17.6757E-03     31.6519E-03    -14.0615E-03     68.5412E-03
            1105     14.1964E-03     98.8645E-03    -4.47960E+06    -11.7615E+06     1.73313E+06    -10.2009E+06    -18.5529E-03     32.8221E-03    -14.2692E-03     72.5528E-03    -18.6442E-03     32.8508E-03    -14.2370E-03     72.3774E-03
            1106     15.0810E-03     98.9307E-03    -4.83336E+06    -3.07217E+06    -1.08796E+06    -8.62371E+06    -20.1663E-03     34.6156E-03    -14.4493E-03     90.6175E-03    -20.4025E-03     34.8269E-03    -14.4433E-03     90.4679E-03
            1107     15.9646E-03     99.0270E-03    -4.41695E+06     14.5380E+06    -17.7182E+06    -5.83321E+06    -22.0111E-03     36.5807E-03    -14.5696E-03     120.996E-03    -22.8180E-03     37.4750E-03    -14.6729E-03     121.086E-03
            1108     16.8480E-03     99.1531E-03    -2.78261E+06     90.5028E+06     22.4768E+06    -3.79594E+06    -20.8908E-03     35.7716E-03    -14.8807E-03     104.751E-03    -21.9650E-03     37.0920E-03    -14.8956E-03     105.231E-03
            1109     887.831E-06     99.3911E-03    -25.3423E+06    -26.6540E+06    -24.2593E+06     2.10977E+06    -13.5997E-03     27.2154E-03    -13.6157E-03     3.70814E-03    -13.6526E-03     27.1541E-03    -13.6616E-03     3.73516E-03
            1110     1.77553E-03     99.3954E-03    -25.3324E+06    -23.1860E+06    -21.4107E+06     3.33868E+06    -13.5612E-03     27.1706E-03    -13.6094E-03     6.93148E-03    -13.6233E-03     27.1225E-03    -13.6461E-03     6.97416E-03
            1111     2.66344E-03     99.4025E-03    -25.1111E+06    -20.1947E+06    -16.8714E+06     3.59726E+06    -13.5062E-03     27.1123E-03    -13.6061E-03     10.3804E-03    -13.5781E-03     27.0722E-03    -13.6247E-03     10.4262E-03
            1112     3.55129E-03     99.4125E-03    -24.6817E+06    -19.6826E+06    -11.7387E+06     3.09183E+06    -13.4433E-03     27.0456E-03    -13.6023E-03     13.9695E-03    -13.5214E-03     27.0002E-03    -13.5966E-03     14.0085E-03
            1113     4.43933E-03     99.4255E-03    -23.8622E+06    -21.1227E+06    -7.17510E+06     2.47848E+06    -13.3772E-03     26.9689E-03    -13.5917E-03     17.7257E-03    -13.4558E-03     26.9086E-03    -13.5623E-03     17.7565E-03
            1114     5.32736E-03     99.4417E-03    -22.6905E+06    -22.9758E+06    -3.55747E+06     1.85849E+06    -13.3191E-03     26.8905E-03    -13.5714E-03     21.7080E-03    -13.3945E-03     26.8142E-03    -13.5230E-03     21.7305E-03
            1115     6.21557E-03     99.4613E-03    -21.4517E+06    -24.6546E+06    -1.29177E+06     731.285E+03    -13.2934E-03     26.8355E-03    -13.5421E-03     25.9785E-03    -13.3638E-03     26.7459E-03    -13.4817E-03     25.9860E-03
            1116     7.10377E-03     99.4847E-03    -20.1547E+06    -26.3374E+06    -421.497E+03    -867.575E+03    -13.3271E-03     26.8354E-03    -13.5083E-03     30.5899E-03    -13.3902E-03     26.7346E-03    -13.4430E-03     30.5761E-03
            1117     7.99205E-03     99.5122E-03    -18.6589E+06    -27.2332E+06     492.658E+03    -2.79874E+06    -13.4440E-03     26.9250E-03    -13.4810E-03     35.5655E-03    -13.5004E-03     26.8170E-03    -13.4120E-03     35.5258E-03
            1118     8.88019E-03     99.5442E-03    -16.8819E+06    -27.5960E+06     2.19746E+06    -4.70526E+06    -13.6763E-03     27.1463E-03    -13.4701E-03     40.8630E-03    -13.7269E-03     27.0327E-03    -13.3946E-03     40.7972E-03
            1119     9.76825E-03     99.5808E-03    -14.8440E+06     -27.015E+06     4.01098E+06    -6.50514E+06    -14.0735E-03     27.5523E-03    -13.4788E-03     46.4228E-03    -14.1196E-03     27.4382E-03    -13.3980E-03     46.3312E-03
            1120     10.6559E-03     99.6226E-03    -12.5482E+06    -26.0020E+06     5.36477E+06    -7.90436E+06    -14.6630E-03     28.1762E-03    -13.5132E-03     52.0345E-03    -14.7050E-03     28.0659E-03    -13.4305E-03     51.9210E-03
            1121     11.5432E-03     99.6692E-03    -9.94963E+06    -18.9123E+06     8.00362E+06    -8.93833E+06    -15.4598E-03     29.0414E-03    -13.5816E-03     57.6649E-03    -15.5098E-03     28.9658E-03    -13.4998E-03     57.5325E-03
            1122     12.4297E-03     99.7212E-03    -8.11964E+06    -24.7163E+06     6.68893E+06    -10.3964E+06    -16.5729E-03     30.2676E-03    -13.6948E-03     64.5724E-03    -16.6168E-03     30.1756E-03    -13.6137E-03     64.4126E-03
            1123     13.3155E-03     99.7805E-03    -6.73250E+06    -32.1355E+06    -2.22716E+06    -11.5171E+06    -17.8707E-03     31.6940E-03    -13.8233E-03     70.4786E-03    -17.9059E-03     31.5977E-03    -13.7781E-03     70.2935E-03
            1124     14.2002E-03     99.8437E-03    -5.74570E+06    -12.0714E+06     1.06998E+06    -10.6737E+06    -19.1057E-03     33.1289E-03    -14.0232E-03     74.0190E-03    -19.2039E-03     33.1608E-03    -13.9920E-03     73.8354E-03
            1125     15.0837E-03     99.9104E-03    -4.78270E+06    -4.34981E+06    -780.758E+03    -9.05448E+06    -21.0892E-03     35.3507E-03    -14.2615E-03     92.0733E-03    -21.3296E-03     35.5610E-03    -14.2522E-03     91.9119E-03
            1126     15.9655E-03     100.010E-03    -3.60677E+06     11.6024E+06    -17.0131E+06    -7.30100E+06    -22.8295E-03     37.2720E-03    -14.4425E-03     120.848E-03    -23.6326E-03     38.1528E-03    -14.5391E-03     120.904E-03
            1127     16.8488E-03     100.132E-03    -3.17654E+06     86.3835E+06     22.1254E+06    -4.32807E+06    -21.8776E-03     36.6858E-03    -14.8081E-03     103.706E-03    -22.9485E-03     37.9879E-03    -14.8182E-03     104.154E-03
            1128     888.111E-06     100.365E-03    -30.2756E+06    -31.6652E+06    -29.1997E+06     2.98104E+06    -13.1349E-03     26.2953E-03    -13.1604E-03     3.73020E-03    -13.1980E-03     26.2232E-03    -13.2166E-03     3.76851E-03
            1129     1.77642E-03     100.369E-03    -29.9014E+06    -27.1723E+06    -25.9471E+06     5.14413E+06    -13.1020E-03     26.2515E-03    -13.1495E-03     6.97794E-03    -13.1745E-03     26.1966E-03    -13.1965E-03     7.04399E-03
            1130     2.66458E-03     100.376E-03    -29.6219E+06    -22.0912E+06    -20.9723E+06     6.28690E+06    -13.0485E-03     26.1946E-03    -13.1462E-03     10.4470E-03    -13.1342E-03     26.1576E-03    -13.1760E-03     10.5276E-03
            1131     3.55295E-03     100.386E-03    -29.0312E+06    -19.9939E+06    -15.1732E+06     5.94548E+06    -12.9929E-03     26.1383E-03    -13.1454E-03     14.0613E-03    -13.0872E-03     26.1025E-03    -13.1502E-03     14.1373E-03
            1132     4.44125E-03     100.399E-03    -27.9508E+06    -21.0309E+06    -9.79223E+06     4.93318E+06    -12.9470E-03     26.0892E-03    -13.1422E-03     17.8514E-03    -13.0423E-03     26.0390E-03    -13.1201E-03     17.9140E-03
            1133     5.32974E-03     100.415E-03    -26.3984E+06    -22.3848E+06    -5.67050E+06     3.76099E+06    -12.9142E-03     26.0440E-03    -13.1298E-03     21.8737E-03    -13.0059E-03     25.9789E-03    -13.0874E-03     21.9210E-03
            1134     6.21820E-03     100.435E-03    -24.5683E+06    -23.0669E+06    -2.95020E+06     2.23671E+06    -12.9049E-03     26.0128E-03    -13.1080E-03     26.1966E-03    -12.9906E-03     25.9380E-03    -13.0536E-03     26.2238E-03
            1135     7.10681E-03     100.458E-03    -22.6687E+06    -23.9351E+06    -1.60529E+06     57.6220E+03    -12.9553E-03     26.0371E-03    -13.0819E-03     30.8981E-03    -13.0326E-03     25.9537E-03    -13.0223E-03     30.8966E-03
            1136     7.99532E-03     100.486E-03    -20.6380E+06     -24.297E+06    -442.025E+03    -2.52014E+06    -13.0938E-03     26.1556E-03    -13.0618E-03     36.0007E-03    -13.1628E-03     26.0663E-03    -12.9989E-03     35.9650E-03
            1137     8.88385E-03     100.518E-03    -18.4034E+06    -24.8878E+06     1.32696E+06    -4.97742E+06    -13.3632E-03     26.4225E-03    -13.0592E-03     41.4804E-03    -13.4239E-03     26.3256E-03    -12.9898E-03     41.4116E-03
            1138     9.77208E-03     100.555E-03    -16.1263E+06    -24.3032E+06     3.25606E+06    -7.04745E+06    -13.8056E-03     26.8836E-03    -13.0780E-03     47.2864E-03    -13.8607E-03     26.7858E-03    -13.0031E-03     47.1884E-03
            1139     10.6601E-03     100.597E-03    -13.6639E+06    -23.4988E+06     4.70319E+06    -9.12347E+06    -14.4668E-03     27.5920E-03    -13.1252E-03     53.1771E-03    -14.5168E-03     27.4964E-03    -13.0478E-03     53.0486E-03
            1140     11.5474E-03     100.644E-03    -11.0196E+06    -17.3057E+06     6.93552E+06    -10.4086E+06    -15.3581E-03     28.5667E-03    -13.2085E-03     59.1424E-03    -15.4141E-03     28.5019E-03    -13.1328E-03     58.9917E-03
            1141     12.4341E-03     100.697E-03    -8.34827E+06    -22.1896E+06     6.53860E+06    -11.2928E+06    -16.6493E-03     29.9949E-03    -13.3456E-03     66.3698E-03    -16.6980E-03     29.9163E-03    -13.2687E-03     66.1986E-03
            1142     13.3195E-03     100.758E-03    -6.89811E+06    -30.6726E+06    -2.30048E+06    -12.3943E+06    -18.2044E-03     31.7128E-03    -13.5084E-03     72.4404E-03    -18.2435E-03     31.6251E-03    -13.4654E-03     72.2435E-03
            1143     14.2038E-03     100.823E-03    -5.40995E+06    -13.3524E+06     803.017E+03    -11.8677E+06    -19.7021E-03     33.4560E-03    -13.7540E-03     76.2975E-03    -19.7988E-03     33.4839E-03    -13.7228E-03     76.0965E-03
            1144     15.0865E-03     100.892E-03    -3.54119E+06    -5.62924E+06    -645.231E+03    -9.51455E+06    -21.9144E-03     35.9582E-03    -14.0438E-03     94.7887E-03    -22.1522E-03     36.1654E-03    -14.0337E-03     94.6166E-03
            1145     15.9689E-03     100.992E-03    -4.12581E+06     10.4869E+06    -15.4454E+06    -7.92522E+06    -24.3172E-03     38.6201E-03    -14.3029E-03     122.960E-03    -25.1369E-03     39.5072E-03    -14.3893E-03     122.984E-03
            1146     16.8483E-03     101.115E-03    -2.35336E+06     82.1070E+06     22.2564E+06    -5.33210E+06    -23.2032E-03     37.9443E-03    -14.7411E-03     104.617E-03    -24.2770E-03     39.2367E-03    -14.7455E-03     105.022E-03
            1147     888.686E-06     101.338E-03    -36.8180E+06    -37.7250E+06    -36.0411E+06     3.20422E+06    -12.6206E-03     25.2641E-03    -12.6434E-03     3.75946E-03    -12.6977E-03     25.1812E-03    -12.7156E-03     3.80068E-03
            1148     1.77722E-03     101.342E-03    -35.5225E+06    -32.9787E+06    -32.1057E+06     5.96128E+06    -12.5942E-03     25.2295E-03    -12.6353E-03     7.02381E-03    -12.6775E-03     25.1627E-03    -12.6965E-03     7.10049E-03
            1149     2.66600E-03     101.349E-03    -34.0223E+06    -26.0223E+06    -26.1246E+06     8.34827E+06    -12.5466E-03     25.1806E-03    -12.6341E-03     10.5055E-03    -12.6411E-03     25.1378E-03    -12.6776E-03     10.6128E-03
            1150     3.55465E-03     101.359E-03    -32.9005E+06    -20.8863E+06    -19.0496E+06     8.64240E+06    -12.5036E-03     25.1412E-03    -12.6376E-03     14.1383E-03    -12.6103E-03     25.1122E-03    -12.6548E-03     14.2492E-03
            1151     4.44351E-03     101.372E-03    -31.3263E+06    -20.6784E+06    -12.5482E+06     7.09536E+06    -12.4864E-03     25.1302E-03    -12.6438E-03     17.9648E-03    -12.5951E-03     25.0906E-03    -12.6311E-03     18.0556E-03
            1152     5.33227E-03     101.388E-03    -29.1331E+06    -21.6028E+06    -7.71866E+06     5.31034E+06    -12.4876E-03     25.1304E-03    -12.6428E-03     22.0252E-03    -12.5911E-03     25.0762E-03    -12.6078E-03     22.0927E-03
            1153     6.22119E-03     101.407E-03    -26.7070E+06    -21.1296E+06    -4.45965E+06     3.20694E+06    -12.5089E-03     25.1411E-03    -12.6323E-03     26.3975E-03    -12.6059E-03     25.0812E-03    -12.5852E-03     26.4374E-03
            1154     7.11003E-03     101.431E-03    -24.1366E+06    -20.9594E+06    -2.63565E+06     454.326E+03    -12.5789E-03     25.1963E-03    -12.6174E-03     31.1755E-03    -12.6662E-03     25.1312E-03    -12.5652E-03     31.1795E-03
            1155     7.99897E-03     101.458E-03    -21.6484E+06    -20.8824E+06    -1.29175E+06    -2.56035E+06    -12.7365E-03     25.3440E-03    -12.6075E-03     36.4009E-03    -12.8141E-03     25.2743E-03    -12.5523E-03     36.3651E-03
            1156     8.88770E-03     101.491E-03    -19.3446E+06    -21.6924E+06     375.412E+03    -5.35083E+06    -13.0321E-03     25.6469E-03    -12.6148E-03     42.0670E-03    -13.1005E-03     25.5685E-03    -12.5534E-03     41.9939E-03
            1157     9.77632E-03     101.528E-03    -16.8768E+06    -21.2004E+06     2.32521E+06    -7.87028E+06    -13.5120E-03     26.1561E-03    -12.6441E-03     48.1267E-03    -13.5737E-03     26.0758E-03    -12.5772E-03     48.0189E-03
            1158     10.6645E-03     101.571E-03    -14.3648E+06    -20.2186E+06     3.98436E+06    -10.2113E+06    -14.2336E-03     26.9376E-03    -12.7040E-03     54.3516E-03    -14.2904E-03     26.8601E-03    -12.6339E-03     54.2098E-03
            1159     11.5521E-03     101.619E-03    -11.8955E+06    -15.5219E+06     5.99119E+06    -11.8756E+06    -15.2330E-03     28.0371E-03    -12.8041E-03     60.6895E-03    -15.2942E-03     27.9836E-03    -12.7344E-03     60.5205E-03
            1160     12.4388E-03     101.673E-03    -9.58110E+06    -20.4362E+06     5.72235E+06    -12.6931E+06    -16.6874E-03     29.6513E-03    -12.9640E-03     68.4252E-03    -16.7435E-03     29.5844E-03    -12.8918E-03     68.2366E-03
            1161     13.3242E-03     101.736E-03    -7.28155E+06    -28.2241E+06    -1.65841E+06    -13.7526E+06    -18.4801E-03     31.6423E-03    -13.1622E-03     74.9024E-03    -18.5263E-03     31.5673E-03    -13.1190E-03     74.6877E-03
            1162     14.2082E-03     101.802E-03    -5.07695E+06    -14.9504E+06     588.052E+03    -13.6351E+06    -20.1977E-03     33.6458E-03    -13.4481E-03     78.8745E-03    -20.2921E-03     33.6674E-03    -13.4161E-03     78.6490E-03
            1163     15.0914E-03     101.873E-03    -3.16948E+06    -8.15636E+06    -1.17357E+06    -11.5922E+06    -22.7431E-03     36.5305E-03    -13.7874E-03     97.3141E-03    -22.9783E-03     36.7290E-03    -13.7768E-03     97.1092E-03
            1164     15.9718E-03     101.975E-03    -377.258E+03     9.24550E+06    -11.7006E+06    -8.48205E+06    -25.3682E-03     39.4875E-03    -14.1193E-03     125.216E-03    -26.1803E-03     40.3651E-03    -14.1907E-03     125.213E-03
            1165     16.8519E-03     102.101E-03    -439.918E+03     77.7959E+06     24.9382E+06    -4.36175E+06    -24.8621E-03     39.4966E-03    -14.6345E-03     105.169E-03    -25.9281E-03     40.7649E-03    -14.6219E-03     105.548E-03
            1166     889.039E-06     102.310E-03    -46.9209E+06    -43.0538E+06    -46.6026E+06     2.08814E+06    -12.0654E-03     24.1423E-03    -12.0769E-03     3.79129E-03    -12.1700E-03     24.0627E-03    -12.1794E-03     3.81814E-03
            1167     1.77828E-03     102.314E-03    -43.8148E+06    -38.8247E+06    -41.5800E+06     4.45331E+06    -12.0495E-03     24.1273E-03    -12.0778E-03     7.05521E-03    -12.1520E-03     24.0570E-03    -12.1659E-03     7.11248E-03
            1168     2.66734E-03     102.321E-03    -39.6027E+06    -31.8041E+06    -33.8476E+06     7.48147E+06    -12.0158E-03     24.0993E-03    -12.0835E-03     10.5472E-03    -12.1186E-03     24.0468E-03    -12.1492E-03     10.6434E-03
            1169     3.55664E-03     102.331E-03    -35.6827E+06    -23.4498E+06    -24.2588E+06     9.68523E+06    -11.9924E-03     24.0864E-03    -12.0939E-03     14.1903E-03    -12.1017E-03     24.0561E-03    -12.1295E-03     14.3148E-03
            1170     4.44577E-03     102.344E-03    -33.1037E+06    -19.8889E+06    -15.7613E+06     8.78164E+06    -12.0033E-03     24.1133E-03    -12.1100E-03     18.0437E-03    -12.1173E-03     24.0849E-03    -12.1119E-03     18.1563E-03
            1171     5.33508E-03     102.360E-03    -30.3902E+06    -20.1868E+06    -9.83239E+06     6.02353E+06    -12.0463E-03     24.1692E-03    -12.1229E-03     22.1437E-03    -12.1551E-03     24.1269E-03    -12.0987E-03     22.2206E-03
            1172     6.22426E-03     102.379E-03    -27.1175E+06    -19.0187E+06    -5.73781E+06     3.47841E+06    -12.1075E-03     24.2346E-03    -12.1272E-03     26.5557E-03    -12.2076E-03     24.1876E-03    -12.0890E-03     26.5994E-03
            1173     7.11354E-03     102.403E-03    -24.3296E+06    -17.5397E+06    -3.34865E+06     595.565E+03    -12.2045E-03     24.3312E-03    -12.1267E-03     31.3879E-03    -12.2967E-03     24.2844E-03    -12.0827E-03     31.3940E-03
            1174     8.00270E-03     102.430E-03    -21.9038E+06    -17.1189E+06    -2.04392E+06    -2.75729E+06    -12.3779E-03     24.5071E-03    -12.1292E-03     36.7236E-03    -12.4609E-03     24.4575E-03    -12.0829E-03     36.6856E-03
            1175     8.89185E-03     102.463E-03    -19.4882E+06    -18.1807E+06    -584.113E+03    -5.78122E+06    -12.6889E-03     24.8362E-03    -12.1473E-03     42.5696E-03    -12.7615E-03     24.7767E-03    -12.0956E-03     42.4915E-03
            1176     9.78069E-03     102.501E-03    -17.1442E+06    -17.3547E+06     1.55944E+06    -8.72579E+06    -13.1922E-03     25.3801E-03    -12.1879E-03     48.9003E-03    -13.2594E-03     25.3203E-03    -12.1301E-03     48.7820E-03
            1177     10.6692E-03     102.544E-03    -14.4217E+06    -16.6034E+06     3.60610E+06    -11.5936E+06    -13.9567E-03     26.2172E-03    -12.2606E-03     55.4739E-03    -14.0180E-03     26.1580E-03    -12.1976E-03     55.3152E-03
            1178     11.5570E-03     102.593E-03    -12.0316E+06    -14.1081E+06     5.40063E+06    -12.6891E+06    -15.0603E-03     27.4367E-03    -12.3764E-03     62.2658E-03    -15.1229E-03     27.3908E-03    -12.3114E-03     62.0873E-03
            1179     12.4438E-03     102.649E-03    -10.1993E+06    -17.8011E+06     5.44190E+06    -13.8277E+06    -16.6424E-03     29.1972E-03    -12.5548E-03     70.5783E-03    -16.7047E-03     29.1444E-03    -12.4870E-03     70.3758E-03
            1180     13.3294E-03     102.713E-03    -8.03334E+06    -25.6627E+06    -1.49382E+06    -15.8937E+06    -18.6650E-03     31.4467E-03    -12.7816E-03     77.5241E-03    -18.7192E-03     31.3856E-03    -12.7403E-03     77.2818E-03
            1181     14.2132E-03     102.782E-03    -5.58006E+06    -15.3696E+06     550.463E+03    -16.1572E+06    -20.8295E-03     33.9424E-03    -13.1129E-03     81.5574E-03    -20.9279E-03     33.9649E-03    -13.0798E-03     81.2971E-03
            1182     15.0947E-03     102.855E-03    -2.37482E+06    -10.3147E+06    -991.532E+03    -14.1666E+06    -23.6615E-03     37.1727E-03    -13.5112E-03     100.232E-03    -23.8940E-03     37.3632E-03    -13.4978E-03     99.9871E-03
            1183     15.9752E-03     102.960E-03    -2.50813E+06     3.82892E+06    -12.4085E+06    -9.57044E+06    -26.5264E-03     40.4387E-03    -13.9123E-03     127.303E-03    -27.3409E-03     41.2940E-03    -13.9762E-03     127.261E-03
            1184     16.8547E-03     103.085E-03    -2.64733E+06     72.7981E+06     25.2986E+06    -3.56784E+06    -26.8197E-03     41.3395E-03    -14.5198E-03     105.784E-03    -27.8932E-03     42.5889E-03    -14.4950E-03     106.127E-03
            1185     889.662E-06     103.281E-03    -61.3367E+06    -44.7669E+06    -61.4008E+06    -492.754E+03    -11.4890E-03     22.9873E-03    -11.4983E-03     3.80440E-03    -11.6417E-03     22.9415E-03    -11.6515E-03     3.79797E-03
            1186     1.77913E-03     103.285E-03    -56.6317E+06    -41.9171E+06    -55.5090E+06    -75.2554E+03    -11.4842E-03     22.9878E-03    -11.5036E-03     7.06116E-03    -11.6261E-03     22.9408E-03    -11.6382E-03     7.06004E-03
            1187     2.66887E-03     103.292E-03    -49.1201E+06    -36.7031E+06    -46.0701E+06     1.74985E+06    -11.4761E-03     22.9938E-03    -11.5177E-03     10.5632E-03    -11.6018E-03     22.9484E-03    -11.6236E-03     10.5856E-03
            1188     3.55844E-03     103.302E-03    -40.0799E+06    -28.3467E+06    -33.8593E+06     5.08517E+06    -11.4749E-03     23.0110E-03    -11.5361E-03     14.1981E-03    -11.5852E-03     22.9766E-03    -11.6062E-03     14.2634E-03
            1189     4.44825E-03     103.315E-03    -32.6753E+06    -21.0100E+06    -21.3764E+06     7.74569E+06    -11.5075E-03     23.0693E-03    -11.5618E-03     18.0441E-03    -11.6095E-03     23.0427E-03    -11.5909E-03     18.1435E-03
            1190     5.33782E-03     103.331E-03    -29.1263E+06    -18.0194E+06    -12.2878E+06     6.66371E+06    -11.5909E-03     23.1811E-03    -11.5902E-03     22.1733E-03    -11.6928E-03     23.1513E-03    -11.5833E-03     22.2586E-03
            1191     6.22750E-03     103.350E-03    -26.6612E+06    -16.3375E+06     -7.0394E+06     3.22093E+06    -11.7003E-03     23.3123E-03    -11.6120E-03     26.6217E-03    -11.8001E-03     23.2798E-03    -11.5848E-03     26.6622E-03
            1192     7.11703E-03     103.374E-03    -23.2182E+06    -14.2069E+06    -3.78115E+06     44.0613E+03    -11.8310E-03     23.4589E-03    -11.6279E-03     31.4903E-03    -11.9217E-03     23.4277E-03    -11.5926E-03     31.4894E-03
            1193     8.00660E-03     103.401E-03    -20.4782E+06    -13.4767E+06    -2.15636E+06    -2.74043E+06    -12.0254E-03     23.6702E-03    -11.6448E-03     36.9071E-03    -12.1063E-03     23.6368E-03    -11.6064E-03     36.8697E-03
            1194     8.89598E-03     103.434E-03    -18.7156E+06    -14.0309E+06    -870.917E+03    -5.98993E+06    -12.3437E-03     24.0181E-03    -11.6745E-03     42.9230E-03    -12.4177E-03     23.9784E-03    -11.6313E-03     42.8426E-03
            1195     9.78521E-03     103.472E-03    -16.5270E+06    -12.8691E+06     1.46445E+06    -9.58086E+06    -12.8469E-03     24.5727E-03    -11.7258E-03     49.5167E-03    -12.9169E-03     24.5341E-03    -11.6759E-03     49.3881E-03
            1196     10.6740E-03     103.516E-03    -14.6951E+06    -13.0628E+06     3.36048E+06    -12.2596E+06    -13.6368E-03     25.4459E-03    -11.8091E-03     56.4715E-03    -13.7036E-03     25.4044E-03    -11.7520E-03     56.3051E-03
            1197     11.5621E-03     103.567E-03    -12.9922E+06    -12.9526E+06     4.59619E+06    -13.4560E+06    -14.8048E-03     26.7408E-03    -11.9361E-03     63.7811E-03    -14.8719E-03     26.7025E-03    -11.8755E-03     63.5938E-03
            1198     12.4493E-03     103.624E-03    -10.6684E+06    -13.9892E+06     5.64521E+06    -14.9856E+06    -16.5153E-03     28.6436E-03    -12.1283E-03     72.7342E-03    -16.5851E-03     28.6095E-03    -12.0643E-03     72.5178E-03
            1199     13.3348E-03     103.691E-03    -8.85913E+06    -22.3881E+06    -704.769E+03    -17.4794E+06    -18.8290E-03     31.2115E-03    -12.3825E-03     80.3978E-03    -18.8930E-03     31.1667E-03    -12.3407E-03     80.1354E-03
            1200     14.2183E-03     103.762E-03    -7.01958E+06    -14.9221E+06     679.620E+03    -18.2497E+06    -21.3746E-03     34.1293E-03    -12.7546E-03     84.9004E-03    -21.4823E-03     34.1572E-03    -12.7194E-03     84.6113E-03
            1201     15.1000E-03     103.837E-03     -5.9224E+06    -12.8664E+06    -2.05734E+06    -16.4906E+06    -24.6247E-03     37.8357E-03    -13.2110E-03     103.395E-03    -24.8717E-03     38.0221E-03    -13.1941E-03     103.112E-03
            1202     15.9796E-03     103.944E-03    -4.23675E+06    -4.31745E+06    -13.6482E+06    -10.5099E+06    -28.2806E-03     41.9783E-03    -13.6977E-03     130.372E-03    -29.0898E-03     42.7969E-03    -13.7535E-03     130.279E-03
            1203     16.8550E-03     104.075E-03    -2.46059E+06     67.4003E+06     27.8157E+06    -3.44419E+06    -29.0151E-03     43.4369E-03    -14.4218E-03     108.098E-03    -30.0906E-03     44.6624E-03    -14.3769E-03     108.389E-03
            1204     889.939E-06     104.251E-03    -69.7748E+06    -41.4247E+06    -69.6438E+06    -2.97925E+06    -10.9606E-03     21.9357E-03    -10.9751E-03     3.78449E-03    -11.1484E-03     21.9308E-03    -11.1621E-03     3.74597E-03
            1205     1.78013E-03     104.255E-03    -66.7696E+06    -40.0298E+06    -65.9226E+06    -4.94828E+06    -10.9616E-03     21.9353E-03    -10.9737E-03     7.01809E-03    -11.1418E-03     21.9275E-03    -11.1484E-03     6.95409E-03
            1206     2.67008E-03     104.262E-03    -61.3311E+06    -37.1769E+06    -59.7818E+06    -5.92701E+06    -10.9638E-03     21.9455E-03    -10.9816E-03     10.5111E-03    -11.1300E-03     21.9352E-03    -11.1377E-03     10.4344E-03
            1207     3.56029E-03     104.272E-03    -52.4675E+06    -31.9725E+06    -49.6209E+06    -4.74257E+06    -10.9767E-03     21.9760E-03    -10.9993E-03     14.1258E-03    -11.1208E-03     21.9643E-03    -11.1250E-03     14.0643E-03
            1208     4.45033E-03     104.284E-03    -40.5578E+06    -25.5485E+06    -35.3243E+06    -778.922E+03    -11.0193E-03     22.0509E-03    -11.0316E-03     17.9175E-03    -11.1340E-03     22.0333E-03    -11.1123E-03     17.9070E-03
            1209     5.34059E-03     104.301E-03    -29.3778E+06    -18.3974E+06    -20.1678E+06     2.95706E+06    -11.1134E-03     22.1864E-03    -11.0730E-03     22.0002E-03    -11.2046E-03     22.1664E-03    -11.1046E-03     22.0377E-03
            1210     6.23052E-03     104.320E-03    -23.3961E+06    -13.4192E+06    -9.28978E+06     2.64500E+06    -11.2656E-03     22.3800E-03    -11.1144E-03     26.4713E-03    -11.3501E-03     22.3607E-03    -11.1075E-03     26.5046E-03
            1211     7.12050E-03     104.344E-03    -21.3560E+06    -11.0584E+06    -4.06825E+06    -167.402E+03    -11.4509E-03     22.6001E-03    -11.1492E-03     31.3843E-03    -11.5364E-03     22.5823E-03    -11.1226E-03     31.3809E-03
            1212     8.01032E-03     104.372E-03    -19.1513E+06    -9.96019E+06    -1.83366E+06    -3.19004E+06    -11.6785E-03     22.8595E-03    -11.1809E-03     36.8600E-03    -11.7583E-03     22.8412E-03    -11.1479E-03     36.8170E-03
            1213     8.90008E-03     104.405E-03    -16.2901E+06    -9.49461E+06     9.29609E+03    -6.44264E+06    -11.9984E-03     23.2196E-03    -11.2212E-03     43.0081E-03    -12.0680E-03     23.1976E-03    -11.1837E-03     42.9224E-03
            1214     9.78955E-03     104.443E-03    -14.7842E+06    -8.57989E+06     2.18721E+06    -9.44156E+06    -12.4862E-03     23.7671E-03    -11.2809E-03     49.8408E-03    -12.5543E-03     23.7459E-03    -11.2361E-03     49.7148E-03
            1215     10.6787E-03     104.488E-03    -14.0241E+06    -9.82270E+06     3.79256E+06    -11.7521E+06    -13.2654E-03     24.6361E-03    -11.3707E-03     57.1904E-03    -13.3335E-03     24.6085E-03    -11.3171E-03     57.0316E-03
            1216     11.5672E-03     104.540E-03    -12.7912E+06    -10.2154E+06     5.10319E+06    -13.9566E+06    -14.4719E-03     25.9753E-03    -11.5034E-03     65.0884E-03    -14.5417E-03     25.9486E-03    -11.4445E-03     64.8960E-03
            1217     12.4545E-03     104.598E-03    -10.9005E+06    -10.2235E+06     6.51946E+06    -16.2636E+06    -16.3072E-03     28.0111E-03    -11.7039E-03     74.8139E-03    -16.3834E-03     27.9934E-03    -11.6406E-03     74.5826E-03
            1218     13.3405E-03     104.667E-03    -9.32502E+06    -18.9605E+06     1.43466E+06    -17.9968E+06    -18.8854E-03     30.8672E-03    -11.9818E-03     83.3949E-03    -18.9587E-03     30.8360E-03    -11.9336E-03     83.1267E-03
            1219     14.2239E-03     104.742E-03     -8.6688E+06    -13.3341E+06     1.67296E+06    -19.4832E+06    -21.8060E-03     34.1908E-03    -12.3848E-03     88.2780E-03    -21.9253E-03     34.2273E-03    -12.3445E-03     87.9719E-03
            1220     15.1048E-03     104.820E-03    -6.49238E+06    -15.4655E+06    -1.20475E+06    -18.4813E+06    -25.4954E-03     38.3901E-03    -12.8947E-03     106.978E-03    -25.7423E-03     38.5627E-03    -12.8689E-03     106.662E-03
            1221     15.9823E-03     104.931E-03    -5.55773E+06    -13.5178E+06    -15.0868E+06    -12.2466E+06    -29.7026E-03     43.1487E-03    -13.4460E-03     135.210E-03    -30.4987E-03     43.9210E-03    -13.4938E-03     135.060E-03
            1222     16.8595E-03     105.064E-03    -3.68902E+06     60.6497E+06     29.2970E+06    -4.35149E+06    -31.5810E-03     45.8622E-03    -14.2812E-03     112.464E-03    -32.6641E-03     47.0629E-03    -14.2173E-03     112.685E-03
            1223     890.507E-06     105.220E-03    -60.7444E+06    -34.7312E+06    -60.4808E+06    -3.81868E+06    -10.5763E-03     21.1471E-03    -10.5708E-03     3.68843E-03    -10.7419E-03     21.1493E-03    -10.7348E-03     3.63906E-03
            1224     1.78077E-03     105.224E-03    -60.1817E+06    -34.0996E+06    -59.0790E+06    -6.95556E+06    -10.5785E-03     21.1554E-03    -10.5769E-03     6.85368E-03    -10.7444E-03     21.1579E-03    -10.7356E-03     6.76375E-03
            1225     2.67132E-03     105.231E-03    -58.7222E+06    -32.5630E+06    -56.6013E+06    -9.94143E+06    -10.5904E-03     21.1736E-03    -10.5832E-03     10.2690E-03    -10.7548E-03     21.1781E-03    -10.7338E-03     10.1405E-03
            1226     3.56165E-03     105.240E-03    -55.7763E+06    -30.5778E+06    -52.1372E+06    -11.8008E+06    -10.6086E-03     21.2046E-03    -10.5960E-03     13.8183E-03    -10.7677E-03     21.2083E-03    -10.7315E-03     13.6656E-03
            1227     4.45219E-03     105.253E-03    -49.6227E+06    -28.0999E+06    -45.0976E+06    -11.3892E+06    -10.6345E-03     21.2490E-03    -10.6145E-03     17.5481E-03    -10.7766E-03     21.2460E-03    -10.7273E-03     17.4006E-03
            1228     5.34254E-03     105.270E-03    -38.9314E+06    -21.7735E+06    -35.3907E+06    -8.31311E+06    -10.6798E-03     21.3116E-03    -10.6318E-03     21.5546E-03    -10.7918E-03     21.3107E-03    -10.7207E-03     21.4467E-03
            1229     6.23319E-03     105.290E-03    -26.6884E+06    -14.5625E+06    -21.4038E+06    -3.70701E+06    -10.8024E-03     21.4719E-03    -10.6695E-03     25.9450E-03    -10.8840E-03     21.4691E-03    -10.7167E-03     25.8964E-03
            1230     7.12350E-03     105.313E-03    -18.6212E+06    -9.26078E+06    -7.46699E+06    -1.53373E+06    -11.0304E-03     21.7583E-03    -10.7279E-03     30.8577E-03    -11.0998E-03     21.7504E-03    -10.7248E-03     30.8368E-03
            1231     8.01367E-03     105.341E-03    -15.5938E+06    -5.93113E+06    -607.808E+03    -3.50775E+06    -11.3177E-03     22.0958E-03    -10.7781E-03     36.3996E-03    -11.3871E-03     22.0906E-03    -10.7500E-03     36.3527E-03
            1232     8.90366E-03     105.374E-03    -14.2738E+06    -5.26726E+06     1.31931E+06    -6.84835E+06    -11.6522E-03     22.4773E-03    -10.8251E-03     42.6417E-03    -11.7195E-03     22.4714E-03    -10.7902E-03     42.5511E-03
            1233     9.79354E-03     105.414E-03    -12.4513E+06    -5.36005E+06     3.38512E+06    -9.13855E+06    -12.1200E-03     23.0087E-03    -10.8888E-03     49.6633E-03    -12.1823E-03     22.9980E-03    -10.8460E-03     49.5418E-03
            1234     10.6830E-03     105.459E-03    -10.8409E+06    -6.27934E+06     5.78835E+06    -11.1808E+06    -12.8633E-03     23.8438E-03    -10.9805E-03     57.3792E-03    -12.9225E-03     23.8254E-03    -10.9267E-03     57.2289E-03
            1235     11.5719E-03     105.512E-03    -10.0479E+06    -6.65342E+06     7.56954E+06    -13.3787E+06    -14.0585E-03     25.1712E-03    -11.1128E-03     65.8957E-03    -14.1216E-03     25.1532E-03    -11.0507E-03     65.7125E-03
            1236     12.4598E-03     105.572E-03    -10.2084E+06    -6.26833E+06     8.80757E+06    -15.6009E+06    -15.9837E-03     27.2964E-03    -11.3127E-03     76.5312E-03    -16.0633E-03     27.2920E-03    -11.2448E-03     76.3104E-03
            1237     13.3457E-03     105.643E-03    -10.3359E+06    -15.9947E+06     4.30745E+06    -17.9012E+06    -18.7559E-03     30.3584E-03    -11.6025E-03     86.2499E-03    -18.8401E-03     30.3367E-03    -11.5428E-03     85.9848E-03
            1238     14.2293E-03     105.721E-03    -8.76884E+06    -9.29322E+06     4.78174E+06    -20.3754E+06    -22.0009E-03     34.0219E-03    -12.0210E-03     92.0620E-03    -22.1288E-03     34.0719E-03    -11.9709E-03     91.7445E-03
            1239     15.1098E-03     105.804E-03    -7.07538E+06    -18.6449E+06     13.2045E+03    -20.3324E+06    -26.0863E-03     38.6519E-03    -12.5657E-03     110.897E-03    -26.3290E-03     38.8035E-03    -12.5283E-03     110.552E-03
            1240     15.9894E-03     105.917E-03    -5.54724E+06    -22.9930E+06    -16.5500E+06    -13.2797E+06    -31.0504E-03     44.2177E-03    -13.1672E-03     139.612E-03    -31.8055E-03     44.9198E-03    -13.2086E-03     139.412E-03
            1241     16.8627E-03     106.056E-03    -4.66296E+06     54.9220E+06     29.4788E+06    -5.51169E+06    -34.3967E-03     48.5075E-03    -14.1108E-03     117.477E-03    -35.4758E-03     49.6800E-03    -14.0362E-03     117.614E-03
            1242     890.597E-06     106.188E-03    -43.1248E+06    -27.3563E+06    -42.6180E+06    -3.76976E+06    -10.3549E-03     20.6921E-03    -10.3371E-03     3.50603E-03    -10.4690E-03     20.6797E-03    -10.4480E-03     3.45726E-03
            1243     1.78144E-03     106.192E-03    -42.5505E+06    -26.7079E+06    -40.9490E+06    -6.92992E+06    -10.3756E-03     20.7325E-03    -10.3569E-03     6.54232E-03    -10.4902E-03     20.7200E-03    -10.4612E-03     6.45265E-03
            1244     2.67197E-03     106.199E-03    -42.1886E+06    -25.8932E+06    -38.9276E+06    -9.98858E+06    -10.4107E-03     20.7858E-03    -10.3751E-03     9.79966E-03    -10.5277E-03     20.7741E-03    -10.4711E-03     9.67039E-03
            1245     3.56269E-03     106.209E-03    -42.1146E+06    -25.3510E+06    -37.4852E+06    -12.5774E+06    -10.4418E-03     20.8332E-03    -10.3914E-03     13.1949E-03    -10.5614E-03     20.8220E-03    -10.4810E-03     13.0321E-03
            1246     4.45322E-03     106.222E-03    -41.6973E+06    -24.7910E+06    -36.3593E+06    -15.0889E+06    -10.4625E-03     20.8650E-03    -10.4025E-03     16.7847E-03    -10.5825E-03     20.8545E-03    -10.4879E-03     16.5893E-03
            1247     5.34399E-03     106.238E-03    -39.6262E+06    -21.9790E+06    -34.8588E+06    -16.3521E+06    -10.4728E-03     20.8775E-03    -10.4047E-03     20.6490E-03    -10.5889E-03     20.8759E-03    -10.4896E-03     20.4372E-03
            1248     6.23457E-03     106.258E-03    -33.4422E+06    -18.2109E+06    -29.5375E+06    -14.3280E+06    -10.5017E-03     20.9149E-03    -10.4132E-03     24.8846E-03    -10.6002E-03     20.9156E-03    -10.4860E-03     24.6988E-03
            1249     7.12543E-03     106.282E-03    -22.7758E+06    -11.1937E+06    -18.8129E+06    -9.85092E+06    -10.6201E-03     21.0573E-03    -10.4372E-03     29.6795E-03    -10.6911E-03     21.0622E-03    -10.4820E-03     29.5512E-03
            1250     8.01605E-03     106.310E-03    -13.3205E+06    -4.47450E+06    -5.78168E+06    -6.51803E+06    -10.8870E-03     21.3725E-03    -10.4855E-03     35.1921E-03    -10.9396E-03     21.3787E-03    -10.4886E-03     35.1065E-03
            1251     8.90640E-03     106.344E-03    -9.40329E+06    -1.90490E+06     3.10089E+06    -6.49330E+06    -11.2764E-03     21.8230E-03    -10.5466E-03     41.5179E-03    -11.3265E-03     21.8240E-03    -10.5147E-03     41.4321E-03
            1252     9.79646E-03     106.383E-03    -9.00775E+06    -2.35089E+06     5.77379E+06    -8.58088E+06    -11.7551E-03     22.3630E-03    -10.6078E-03     48.6930E-03    -11.8076E-03     22.3583E-03    -10.5625E-03     48.5793E-03
            1253     10.6863E-03     106.429E-03    -8.46738E+06    -2.72871E+06     8.01196E+06    -10.7966E+06    -12.4338E-03     23.1247E-03    -10.6909E-03     56.7493E-03    -12.4884E-03     23.1163E-03    -10.6346E-03     56.6051E-03
            1254     11.5756E-03     106.482E-03    -7.47802E+06    -3.82291E+06     10.5037E+06    -12.4264E+06    -13.5913E-03     24.4067E-03    -10.8155E-03     65.8732E-03    -13.6480E-03     24.3929E-03    -10.7466E-03     65.7040E-03
            1255     12.4639E-03     106.545E-03    -7.48936E+06    -3.55182E+06     12.8236E+06    -13.0462E+06    -15.5442E-03     26.5521E-03    -11.0079E-03     77.4308E-03    -15.6167E-03     26.5483E-03    -10.9278E-03     77.2455E-03
            1256     13.3505E-03     106.619E-03    -8.12143E+06    -9.83411E+06     10.4734E+06    -16.4629E+06    -18.3512E-03     29.6435E-03    -11.2923E-03     88.3208E-03    -18.4375E-03     29.6357E-03    -11.2139E-03     88.0773E-03
            1257     14.2345E-03     106.701E-03    -8.57245E+06     -5.1807E+06     9.41862E+06    -20.5254E+06    -21.8693E-03     33.5742E-03    -11.7049E-03     95.2044E-03    -22.0030E-03     33.6320E-03    -11.6378E-03     94.8872E-03
            1258     15.1158E-03     106.787E-03    -8.41881E+06    -20.1839E+06     3.53718E+06    -20.5923E+06    -26.7610E-03     39.0402E-03    -12.2792E-03     114.014E-03    -27.0029E-03     39.1706E-03    -12.2200E-03     113.658E-03
            1259     15.9916E-03     106.904E-03    -7.12236E+06    -32.3078E+06    -19.0625E+06    -16.4747E+06    -32.4259E-03     45.3454E-03    -12.9195E-03     143.710E-03    -33.1269E-03     45.9621E-03    -12.9577E-03     143.427E-03
            1260     16.8658E-03     107.050E-03    -2.73457E+06     45.6266E+06     26.1209E+06    -7.44772E+06    -36.7985E-03     50.7401E-03    -13.9416E-03     125.055E-03    -37.8532E-03     51.8722E-03    -13.8732E-03     125.098E-03
            1261     890.867E-06     107.156E-03    -26.0418E+06    -20.2458E+06    -25.4379E+06    -3.44746E+06    -10.3367E-03     20.6702E-03    -10.3336E-03     3.26427E-03    -10.4006E-03     20.6437E-03    -10.3936E-03     3.21960E-03
            1262     1.78144E-03     107.160E-03    -26.2014E+06    -19.8951E+06    -24.4944E+06    -6.18040E+06    -10.3818E-03     20.7304E-03    -10.3486E-03     6.08848E-03    -10.4485E-03     20.7045E-03    -10.4042E-03     6.00837E-03
            1263     2.67226E-03     107.167E-03    -26.3887E+06    -19.5643E+06    -23.3642E+06    -8.72507E+06    -10.4340E-03     20.8067E-03    -10.3726E-03     9.11401E-03    -10.5038E-03     20.7811E-03    -10.4228E-03     9.00088E-03
            1264     3.56283E-03     107.177E-03    -26.2929E+06    -19.2606E+06    -22.0831E+06    -11.3598E+06    -10.4901E-03     20.8886E-03    -10.3985E-03     12.2605E-03    -10.5618E-03     20.8626E-03    -10.4429E-03     12.1132E-03
            1265     4.45356E-03     107.190E-03    -26.1218E+06    -18.7254E+06    -20.3335E+06    -14.0836E+06    -10.5394E-03     20.9648E-03    -10.4254E-03     15.5818E-03    -10.6137E-03     20.9388E-03    -10.4621E-03     15.3991E-03
            1266     5.34405E-03     107.206E-03    -26.4197E+06    -17.9079E+06    -18.8939E+06    -16.3999E+06    -10.5665E-03     21.0138E-03    -10.4473E-03     19.1671E-03    -10.6456E-03     20.9903E-03    -10.4775E-03     18.9543E-03
            1267     6.23478E-03     107.226E-03    -26.5058E+06    -16.9094E+06    -18.7033E+06    -18.3100E+06    -10.5592E-03     21.0139E-03    -10.4547E-03     23.1409E-03    -10.6406E-03     20.9955E-03    -10.4853E-03     22.9032E-03
            1268     7.12541E-03     107.250E-03    -24.1592E+06    -13.3209E+06    -18.2337E+06    -18.2087E+06    -10.5267E-03     20.9721E-03    -10.4454E-03     27.6550E-03    -10.6025E-03     20.9677E-03    -10.4823E-03     27.4186E-03
            1269     8.01637E-03     107.278E-03    -17.3751E+06    -7.26415E+06    -12.1668E+06    -14.5418E+06    -10.5727E-03     21.0190E-03    -10.4463E-03     32.9093E-03    -10.6323E-03     21.0264E-03    -10.4714E-03     32.7200E-03
            1270     8.90722E-03     107.312E-03    -8.96679E+06    -2.15611E+06    -1.92120E+06    -10.1606E+06    -10.8304E-03     21.3027E-03    -10.4724E-03     39.1487E-03    -10.8705E-03     21.3090E-03    -10.4659E-03     39.0158E-03
            1271     9.79772E-03     107.352E-03    -3.77044E+06    -90.1575E+03     6.57489E+06    -8.47072E+06    -11.3015E-03     21.8201E-03    -10.5187E-03     46.4513E-03    -11.3317E-03     21.8176E-03    -10.4802E-03     46.3396E-03
            1272     10.6878E-03     107.398E-03    -2.55807E+06     518.820E+03     11.8833E+06    -9.68940E+06    -11.9939E-03     22.5807E-03    -10.5868E-03     54.8504E-03    -12.0282E-03     22.5733E-03    -10.5244E-03     54.7215E-03
            1273     11.5775E-03     107.453E-03    -3.44952E+06    -2.63807E+06     14.7028E+06    -10.1832E+06    -13.1370E-03     23.8319E-03    -10.6949E-03     64.5373E-03    -13.1792E-03     23.8098E-03    -10.6125E-03     64.3990E-03
            1274     12.4662E-03     107.516E-03    -4.49791E+06    -1.56879E+06     17.9497E+06    -10.4310E+06    -15.0149E-03     25.8828E-03    -10.8679E-03     76.9540E-03    -15.0785E-03     25.8729E-03    -10.7694E-03     76.8054E-03
            1275     13.3532E-03     107.593E-03    -5.67225E+06    -2.53245E+06     18.2341E+06    -13.3686E+06    -17.7867E-03     28.9185E-03    -11.1318E-03     88.8887E-03    -17.8755E-03     28.9254E-03    -11.0287E-03     88.6893E-03
            1276     14.2380E-03     107.678E-03    -8.50739E+06    -562.719E+03     16.3320E+06    -17.0727E+06    -21.6175E-03     33.1468E-03    -11.5293E-03     97.1382E-03    -21.7583E-03     33.2082E-03    -11.4345E-03     96.8690E-03
            1277     15.1183E-03     107.770E-03    -8.85621E+06    -17.4357E+06     10.6830E+06    -21.3650E+06    -26.9697E-03     39.0797E-03    -12.1100E-03     116.987E-03    -27.2090E-03     39.1950E-03    -12.0184E-03     116.619E-03
            1278     15.9961E-03     107.893E-03    -6.26979E+06    -39.4668E+06    -15.1481E+06    -19.9160E+06    -32.9706E-03     45.7329E-03    -12.7624E-03     147.750E-03    -33.5902E-03     46.2344E-03    -12.7718E-03     147.389E-03
            1279     16.8690E-03     108.043E-03    -4.75394E+06     32.0594E+06     22.9771E+06    -9.50148E+06    -38.6340E-03     52.4410E-03    -13.8071E-03     134.699E-03    -39.6754E-03     53.5139E-03    -13.7318E-03     134.650E-03
            1280     890.477E-06     108.124E-03    -11.1561E+06    -14.1633E+06    -10.7265E+06    -2.73930E+06    -10.6292E-03     21.2437E-03    -10.6145E-03     2.94636E-03    -10.6488E-03     21.2047E-03    -10.6314E-03     2.91075E-03
            1281     1.78118E-03     108.128E-03    -11.5345E+06    -14.0582E+06    -10.4446E+06    -5.04292E+06    -10.6793E-03     21.3141E-03    -10.6348E-03     5.47221E-03    -10.7015E-03     21.2758E-03    -10.6499E-03     5.40665E-03
            1282     2.67155E-03     108.135E-03    -11.7703E+06    -13.8979E+06    -9.50664E+06    -7.50604E+06    -10.7516E-03     21.4165E-03    -10.6648E-03     8.17954E-03    -10.7766E-03     21.3779E-03    -10.6752E-03     8.08194E-03
            1283     3.56208E-03     108.145E-03    -12.1462E+06    -13.5449E+06    -8.14497E+06    -9.92610E+06    -10.8348E-03     21.5369E-03    -10.7021E-03     10.9833E-03    -10.8643E-03     21.4988E-03    -10.7056E-03     10.8542E-03
            1284     4.45233E-03     108.158E-03    -12.9218E+06    -13.2698E+06    -7.06959E+06    -12.1308E+06    -10.9127E-03     21.6535E-03    -10.7408E-03     13.9398E-03    -10.9482E-03     21.6165E-03    -10.7381E-03     13.7819E-03
            1285     5.34275E-03     108.175E-03    -13.5671E+06    -12.7971E+06    -6.01270E+06    -14.2551E+06    -10.9703E-03     21.7473E-03    -10.7770E-03     17.1373E-03    -11.0114E-03     21.7122E-03    -10.7688E-03     16.9518E-03
            1286     6.23295E-03     108.194E-03    -14.1138E+06    -11.9508E+06    -4.39471E+06    -16.4782E+06    -10.9860E-03     21.7949E-03    -10.8089E-03     20.6812E-03    -11.0336E-03     21.7627E-03    -10.7931E-03     20.4666E-03
            1287     7.12335E-03     108.218E-03    -15.2175E+06    -11.1631E+06    -3.61341E+06    -18.2503E+06    -10.9294E-03     21.7546E-03    -10.8252E-03     24.7284E-03    -10.9850E-03     21.7270E-03    -10.8051E-03     24.4908E-03
            1288     8.01373E-03     108.246E-03    -15.7941E+06    -8.55593E+06    -4.48918E+06    -18.7274E+06    -10.7989E-03     21.6106E-03    -10.8117E-03     29.5026E-03    -10.8601E-03     21.5984E-03    -10.7989E-03     29.2587E-03
            1289     8.90456E-03     108.280E-03    -13.0339E+06    -5.24877E+06    -2.96493E+06    -16.3001E+06    -10.7098E-03     21.4964E-03    -10.7866E-03     35.2495E-03    -10.7644E-03     21.4947E-03    -10.7750E-03     35.0371E-03
            1290     9.79556E-03     108.320E-03    -7.49926E+06    -1.10873E+06     2.50221E+06    -12.3611E+06    -10.8586E-03     21.6298E-03    -10.7712E-03     42.2573E-03    -10.8998E-03     21.6331E-03    -10.7462E-03     42.0956E-03
            1291     10.6863E-03     108.367E-03    -3.30493E+06     1.58333E+06     10.7206E+06    -9.57401E+06    -11.4413E-03     22.2342E-03    -10.7930E-03     50.8603E-03    -11.4782E-03     22.2339E-03    -10.7369E-03     50.7338E-03
            1292     11.5762E-03     108.422E-03    -1.54848E+06    -2.60098E+06     17.8420E+06    -8.38002E+06    -12.6185E-03     23.4900E-03    -10.8715E-03     61.1733E-03    -12.6535E-03     23.4586E-03    -10.7763E-03     61.0601E-03
            1293     12.4652E-03     108.488E-03    -1.39045E+06    -430.879E+03     22.9847E+06    -7.57601E+06    -14.4945E-03     25.5039E-03    -11.0094E-03     74.2597E-03    -14.5467E-03     25.4831E-03    -10.8919E-03     74.1512E-03
            1294     13.3529E-03     108.567E-03    -3.76653E+06     2.04066E+06     25.9110E+06    -8.05536E+06    -17.1375E-03     28.3799E-03    -11.2424E-03     87.1855E-03    -17.2256E-03     28.3869E-03    -11.1104E-03     87.0596E-03
            1295     14.2378E-03     108.656E-03    -6.34124E+06     6.22440E+06     25.3089E+06    -11.9715E+06    -20.9157E-03     32.5135E-03    -11.5978E-03     97.4955E-03    -21.0549E-03     32.5790E-03    -11.4710E-03     97.2985E-03
            1296     15.1197E-03     108.753E-03    -8.24653E+06    -7.44203E+06     20.2463E+06    -19.9691E+06    -26.2575E-03     38.3903E-03    -12.1328E-03     118.284E-03    -26.4897E-03     38.5084E-03    -12.0088E-03     117.940E-03
            1297     15.9967E-03     108.880E-03    -9.27628E+06    -45.3270E+06    -7.38027E+06    -22.6274E+06    -32.6754E-03     45.4437E-03    -12.7684E-03     149.679E-03    -33.2075E-03     45.8038E-03    -12.7261E-03     149.259E-03
            1298     16.8708E-03     109.036E-03    -5.16985E+06     15.4133E+06     21.0636E+06    -12.3054E+06    -39.1750E-03     52.9363E-03    -13.7614E-03     144.246E-03    -40.1659E-03     53.9036E-03    -13.6709E-03     144.099E-03
            1299     890.126E-06     109.093E-03     817.868E+03    -9.33097E+06     950.641E+03    -2.21492E+06    -11.3010E-03     22.5776E-03    -11.2766E-03     2.52338E-03    -11.2847E-03     22.5284E-03    -11.2595E-03     2.49446E-03
            1300     1.77996E-03     109.097E-03     526.189E+03    -9.12994E+06     1.37420E+06    -4.09983E+06    -11.3627E-03     22.6681E-03    -11.3054E-03     4.70589E-03    -11.3489E-03     22.6198E-03    -11.2861E-03     4.65233E-03
            1301     2.67000E-03     109.104E-03    -118.284E+03    -8.95726E+06     2.12836E+06    -6.11774E+06    -11.4591E-03     22.8035E-03    -11.3445E-03     7.00513E-03    -11.4499E-03     22.7559E-03    -11.3207E-03     6.92519E-03
            1302     3.55972E-03     109.114E-03    -927.847E+03    -8.85158E+06     2.79534E+06    -7.98118E+06    -11.5669E-03     22.9586E-03    -11.3917E-03     9.38036E-03    -11.5631E-03     22.9119E-03    -11.3636E-03     9.27600E-03
            1303     4.44955E-03     109.128E-03    -1.68162E+06    -8.58666E+06     3.65260E+06    -9.86893E+06    -11.6788E-03     23.1227E-03    -11.4439E-03     11.8825E-03    -11.6804E-03     23.0772E-03    -11.4108E-03     11.7534E-03
            1304     5.33909E-03     109.144E-03    -2.69111E+06    -8.25077E+06     4.77755E+06    -11.7567E+06    -11.7733E-03     23.2719E-03    -11.4985E-03     14.5855E-03    -11.7824E-03     23.2281E-03    -11.4588E-03     14.4316E-03
            1305     6.22875E-03     109.164E-03    -4.34449E+06    -7.61052E+06     5.80953E+06    -13.2604E+06    -11.8252E-03     23.3743E-03    -11.5491E-03     17.5842E-03    -11.8451E-03     23.3349E-03    -11.5028E-03     17.4105E-03
            1306     7.11825E-03     109.187E-03    -6.04185E+06    -7.21590E+06     6.98711E+06    -14.7232E+06    -11.8144E-03     23.4057E-03    -11.5912E-03     21.0104E-03    -11.8454E-03     23.3693E-03    -11.5371E-03     20.8175E-03
            1307     8.00798E-03     109.216E-03    -7.78623E+06    -6.15563E+06     8.13542E+06    -15.8926E+06    -11.7009E-03     23.3166E-03    -11.6157E-03     25.0769E-03    -11.7441E-03     23.2866E-03    -11.5548E-03     24.8687E-03
            1308     8.89774E-03     109.249E-03    -9.88674E+06    -5.83125E+06     7.75475E+06    -16.3884E+06    -11.4647E-03     23.0743E-03    -11.6097E-03     29.9953E-03    -11.5185E-03     23.0498E-03    -11.5481E-03     29.7807E-03
            1309     9.78804E-03     109.289E-03    -10.6171E+06    -3.64846E+06     7.34393E+06    -14.8013E+06    -11.2286E-03     22.8011E-03    -11.5725E-03     36.0739E-03    -11.2889E-03     22.7893E-03    -11.5151E-03     35.8799E-03
            1310     10.6788E-03     109.335E-03    -8.38942E+06    -402.238E+03     12.0916E+06    -11.6242E+06    -11.3055E-03     22.8495E-03    -11.5439E-03     43.9653E-03    -11.3666E-03     22.8441E-03    -11.4707E-03     43.8124E-03
            1311     11.5695E-03     109.392E-03    -4.26740E+06    -2.50632E+06     20.1538E+06    -9.59254E+06    -12.1217E-03     23.6828E-03    -11.5611E-03     54.2950E-03    -12.1720E-03     23.6506E-03    -11.4505E-03     54.1675E-03
            1312     12.4588E-03     109.458E-03    -100.760E+03    -2.79713E+06     27.6549E+06    -7.12408E+06    -13.8341E-03     25.4740E-03    -11.6398E-03     67.9561E-03    -13.8783E-03     25.4277E-03    -11.4974E-03     67.8568E-03
            1313     13.3463E-03     109.540E-03     2.94934E+06     3.29164E+06     34.2486E+06    -4.39526E+06    -16.2686E-03     28.0741E-03    -11.8054E-03     81.8822E-03    -16.3268E-03     28.0552E-03    -11.6432E-03     81.8099E-03
            1314     14.2327E-03     109.631E-03     2.03350E+06     12.6052E+06     36.6635E+06    -5.73851E+06    -19.6663E-03     31.7480E-03    -12.0816E-03     93.9343E-03    -19.7707E-03     31.7981E-03    -11.9195E-03     93.8278E-03
            1315     15.1150E-03     109.734E-03    -4.45399E+06     4.55578E+06     32.1770E+06    -10.7495E+06    -24.5544E-03     37.0714E-03    -12.5171E-03     115.624E-03    -24.7572E-03     37.1816E-03    -12.3563E-03     115.414E-03
            1316     15.9944E-03     109.865E-03    -11.8499E+06    -39.2053E+06     3.44783E+06    -19.4304E+06    -30.7535E-03     43.8035E-03    -13.0500E-03     149.346E-03    -31.1926E-03     44.0518E-03    -12.9588E-03     148.968E-03
            1317     16.8682E-03     110.028E-03    -12.1638E+06    -700.265E+03     4.92642E+06    -20.2573E+06    -36.8474E-03     50.6536E-03    -13.8063E-03     153.167E-03    -37.7491E-03     51.4963E-03    -13.7630E-03     152.886E-03
            1318     888.973E-06     110.063E-03     9.10044E+06    -5.49605E+06     9.61092E+06    -1.67208E+06    -12.4364E-03     24.8431E-03    -12.4067E-03     2.04925E-03    -12.3969E-03     24.7885E-03    -12.3639E-03     2.02725E-03
            1319     1.77816E-03     110.068E-03     8.63316E+06    -5.25996E+06     9.79743E+06    -3.06566E+06    -12.5269E-03     24.9735E-03    -12.4465E-03     3.78632E-03    -12.4905E-03     24.9204E-03    -12.4024E-03     3.74593E-03
            1320     2.66694E-03     110.075E-03     8.00993E+06    -5.21097E+06     10.1668E+06    -4.46265E+06    -12.6444E-03     25.1425E-03    -12.4981E-03     5.58534E-03    -12.6117E-03     25.0901E-03    -12.4513E-03     5.52650E-03
            1321     3.55583E-03     110.086E-03     7.21953E+06    -5.00742E+06     10.8421E+06    -5.98922E+06    -12.7788E-03     25.3384E-03    -12.5596E-03     7.45098E-03    -12.7514E-03     25.2873E-03    -12.5086E-03     7.37199E-03
            1322     4.44440E-03     110.099E-03     6.07085E+06    -4.92647E+06     11.6804E+06    -7.41826E+06    -12.9248E-03     25.5539E-03    -12.6292E-03     9.42384E-03    -12.9047E-03     25.5038E-03    -12.5724E-03     9.32592E-03
            1323     5.33300E-03     110.115E-03     4.49890E+06    -4.68893E+06     12.4219E+06    -8.59365E+06    -13.0698E-03     25.7729E-03    -12.7032E-03     11.5514E-03    -13.0591E-03     25.7254E-03    -12.6408E-03     11.4378E-03
            1324     6.22133E-03     110.135E-03     3.02547E+06    -4.46068E+06     13.4907E+06    -9.72289E+06    -13.2007E-03     25.9810E-03    -12.7803E-03     13.9025E-03    -13.1995E-03     25.9354E-03    -12.7107E-03     13.7738E-03
            1325     7.10970E-03     110.159E-03     1.37459E+06    -3.82658E+06     15.2811E+06    -10.8110E+06    -13.2960E-03     26.1547E-03    -12.8586E-03     16.5676E-03    -13.3069E-03     26.1123E-03    -12.7787E-03     16.4243E-03
            1326     7.99790E-03     110.187E-03    -562.561E+03    -3.76801E+06     17.0442E+06    -11.5193E+06    -13.3247E-03     26.2558E-03    -12.9311E-03     19.6857E-03    -13.3483E-03     26.2143E-03    -12.8396E-03     19.5329E-03
            1327     8.88632E-03     110.220E-03    -2.21371E+06    -3.51002E+06     19.0761E+06    -12.0595E+06    -13.2537E-03     26.2444E-03    -12.9907E-03     23.4432E-03    -13.2892E-03     26.2039E-03    -12.8870E-03     23.2830E-03
            1328     9.77477E-03     110.259E-03    -3.20137E+06    -4.03893E+06     20.9975E+06    -12.5356E+06    -13.0618E-03     26.0910E-03    -13.0292E-03     28.1411E-03    -13.1047E-03     26.0468E-03    -12.9137E-03     27.9746E-03
            1329     10.6635E-03     110.305E-03    -3.54389E+06    -2.42843E+06     23.1873E+06    -11.4055E+06    -12.8167E-03     25.8570E-03    -13.0402E-03     34.3736E-03    -12.8671E-03     25.8184E-03    -12.9156E-03     34.2219E-03
            1330     11.5529E-03     110.361E-03    -2.90057E+06    -2.29204E+06     27.3211E+06    -10.3369E+06    -12.8746E-03     25.9227E-03    -13.0481E-03     43.1240E-03    -12.9285E-03     25.8784E-03    -12.9039E-03     42.9861E-03
            1331     12.4424E-03     110.429E-03     45.2582E+03    -5.75231E+06     31.9097E+06    -9.10590E+06    -13.5208E-03     26.5929E-03    -13.0722E-03     55.5645E-03    -13.5629E-03     26.5220E-03    -12.9043E-03     55.4417E-03
            1332     13.3312E-03     110.511E-03     5.93875E+06     1.21444E+06     38.6388E+06    -6.73998E+06    -14.9686E-03     28.1005E-03    -13.1320E-03     69.8870E-03    -15.0057E-03     28.0511E-03    -12.9491E-03     69.7910E-03
            1333     14.2172E-03     110.606E-03     10.7964E+06     11.1358E+06     45.6529E+06    -1.62446E+06    -17.6495E-03     30.9303E-03    -13.2809E-03     83.7689E-03    -17.7006E-03     30.9273E-03    -13.0844E-03     83.7281E-03
            1334     15.1018E-03     110.712E-03     9.11731E+06     10.2487E+06     45.6447E+06     2.08008E+06    -21.5110E-03     35.0561E-03    -13.5450E-03     106.220E-03    -21.6217E-03     35.1035E-03    -13.3449E-03     106.198E-03
            1335     15.9832E-03     110.847E-03     4.55222E+06    -17.4468E+06     27.6382E+06    -9.46563E+06    -25.9145E-03     39.7826E-03    -13.8681E-03     141.714E-03    -26.1768E-03     39.9195E-03    -13.7112E-03     141.501E-03
            1336     16.8642E-03     111.014E-03     2.46243E+06    -6.16439E+06     8.03114E+06    -20.3765E+06    -29.2514E-03     43.4591E-03    -14.2076E-03     155.244E-03    -29.8491E-03     44.0211E-03    -14.1621E-03     154.972E-03
            1337     887.730E-06     111.037E-03     13.0987E+06    -2.77574E+06     13.5957E+06    -913.756E+03    -14.1678E-03     28.2613E-03    -14.0935E-03     1.52816E-03    -14.1181E-03     28.2087E-03    -14.0405E-03     1.51592E-03
            1338     1.77505E-03     111.041E-03     12.7964E+06    -2.57363E+06     14.0070E+06    -1.97661E+06    -14.2882E-03     28.4572E-03    -14.1690E-03     2.61834E-03    -14.2410E-03     28.4053E-03    -14.1138E-03     2.59191E-03
            1339     2.66256E-03     111.049E-03     12.4512E+06    -2.41672E+06     14.9207E+06    -3.04657E+06    -14.4119E-03     28.6529E-03    -14.2410E-03     3.79875E-03    -14.3681E-03     28.6011E-03    -14.1809E-03     3.75806E-03
            1340     3.54970E-03     111.059E-03     11.8273E+06    -2.34686E+06     16.0620E+06    -3.94576E+06    -14.5693E-03     28.8884E-03    -14.3191E-03     5.04946E-03    -14.5304E-03     28.8362E-03    -14.2525E-03     4.99668E-03
            1341     4.43685E-03     111.073E-03     10.9183E+06    -2.29820E+06     17.2835E+06    -4.77868E+06    -14.7629E-03     29.1710E-03    -14.4081E-03     6.38779E-03    -14.7304E-03     29.1187E-03    -14.3342E-03     6.32371E-03
            1342     5.32366E-03     111.089E-03     10.0790E+06    -2.32543E+06     18.9699E+06    -5.61109E+06    -15.0020E-03     29.5141E-03    -14.5122E-03     7.82942E-03    -14.9763E-03     29.4605E-03    -14.4285E-03     7.75402E-03
            1343     6.21036E-03     111.110E-03     9.02337E+06    -1.93963E+06     21.1870E+06    -6.42909E+06    -15.2822E-03     29.9151E-03    -14.6329E-03     9.39751E-03    -15.2657E-03     29.8619E-03    -14.5373E-03     9.31090E-03
            1344     7.09668E-03     111.133E-03     7.81399E+06    -1.86728E+06     23.5992E+06    -6.91420E+06    -15.5961E-03     30.3662E-03    -14.7701E-03     11.1254E-03    -15.5896E-03     30.3118E-03    -14.6607E-03     11.0318E-03
            1345     7.98283E-03     111.162E-03     6.78363E+06    -1.63374E+06     26.6498E+06    -7.48866E+06    -15.9226E-03     30.8462E-03    -14.9236E-03     13.0764E-03    -15.9264E-03     30.7903E-03    -14.7978E-03     12.9746E-03
            1346     8.86853E-03     111.194E-03     5.78675E+06    -1.93890E+06     29.4020E+06    -7.93233E+06    -16.2085E-03     31.2942E-03    -15.0857E-03     15.3974E-03    -16.2212E-03     31.2345E-03    -14.9443E-03     15.2890E-03
            1347     9.75407E-03     111.234E-03     4.30413E+06    -2.03777E+06     31.6027E+06    -8.36617E+06    -16.4182E-03     31.6668E-03    -15.2486E-03     18.3647E-03    -16.4419E-03     31.6059E-03    -15.0939E-03     18.2498E-03
            1348     10.6395E-03     111.279E-03     3.51030E+06    -2.99955E+06     33.7436E+06    -8.67446E+06    -16.5305E-03     31.9386E-03    -15.4081E-03     22.4052E-03    -16.5604E-03     31.8712E-03    -15.2402E-03     22.2856E-03
            1349     11.5249E-03     111.334E-03     3.73648E+06    -1.68298E+06     36.5762E+06    -8.38758E+06    -16.4224E-03     31.9753E-03    -15.5529E-03     28.2053E-03    -16.4579E-03     31.9104E-03    -15.3730E-03     28.0892E-03
            1350     12.4107E-03     111.401E-03     4.36247E+06    -5.28423E+06     37.9220E+06    -9.34333E+06    -15.8889E-03     31.5515E-03    -15.6626E-03     36.5352E-03    -15.9184E-03     31.4661E-03    -15.4717E-03     36.4073E-03
            1351     13.2978E-03     111.483E-03     5.93213E+06    -1.87759E+06     41.2409E+06    -9.19243E+06    -15.0351E-03     30.7487E-03    -15.7136E-03     47.4531E-03    -15.0673E-03     30.6743E-03    -15.5133E-03     47.3277E-03
            1352     14.1865E-03     111.578E-03     10.6505E+06     2.97056E+06     46.4595E+06    -4.02942E+06    -14.8345E-03     30.5533E-03    -15.7188E-03     60.7616E-03    -14.8611E-03     30.4935E-03    -15.5062E-03     60.7003E-03
            1353     15.0722E-03     111.689E-03     19.7765E+06     6.70217E+06     53.8890E+06     3.61083E+06    -16.7545E-03     32.4971E-03    -15.7427E-03     83.7718E-03    -16.7734E-03     32.4545E-03    -15.5116E-03     83.7952E-03
            1354     15.9579E-03     111.822E-03     25.5402E+06     4.36069E+06     53.7748E+06    -1.64164E+06    -18.9135E-03     34.6901E-03    -15.7766E-03     117.390E-03    -18.9879E-03     34.7154E-03    -15.5510E-03     117.322E-03
            1355     16.8442E-03     111.990E-03     16.9903E+06    -2.91568E+06     25.7948E+06    -8.86540E+06    -12.9046E-03     28.4189E-03    -15.5143E-03     133.713E-03    -13.1074E-03     28.6004E-03    -15.4057E-03     133.603E-03
            1356     885.431E-06     112.014E-03     16.9031E+06    -1.03664E+06     16.9355E+06    -696.433E+03    -16.6258E-03     33.3239E-03    -16.6981E-03     535.780E-06    -16.5646E-03     33.2694E-03    -16.6364E-03     526.469E-06
            1357     1.77089E-03     112.019E-03     16.6636E+06    -861.400E+03     17.7992E+06    -1.14690E+06    -16.7577E-03     33.4499E-03    -16.6923E-03     959.526E-06    -16.6993E-03     33.3953E-03    -16.6262E-03     944.000E-06
            1358     2.65596E-03     112.027E-03     16.3115E+06    -767.251E+03     19.2788E+06    -1.57391E+06    -16.9067E-03     33.6637E-03    -16.7570E-03     1.41966E-03    -16.8524E-03     33.6079E-03    -16.6832E-03     1.39826E-03
            1359     3.54110E-03     112.038E-03     15.8634E+06    -794.734E+03     20.8832E+06    -2.00441E+06    -17.1101E-03     33.9554E-03    -16.8453E-03     1.91456E-03    -17.0603E-03     33.8978E-03    -16.7627E-03     1.88721E-03
            1360     4.42587E-03     112.051E-03     15.4389E+06    -777.731E+03     23.2009E+06    -2.39308E+06    -17.4026E-03     34.3646E-03    -16.9620E-03     2.43935E-03    -17.3584E-03     34.3043E-03    -16.8672E-03     2.40654E-03
            1361     5.31043E-03     112.068E-03     14.8048E+06      -650.3E+03     25.9858E+06    -2.89329E+06    -17.7998E-03     34.9116E-03    -17.1118E-03     2.98951E-03    -17.7631E-03     34.8490E-03    -17.0024E-03     2.94973E-03
            1362     6.19447E-03     112.089E-03     14.0929E+06    -704.849E+03     28.8694E+06    -3.11232E+06    -18.3253E-03     35.6241E-03    -17.2989E-03     3.55391E-03    -18.2963E-03     35.5580E-03    -17.1739E-03     3.51071E-03
            1363     7.07802E-03     112.113E-03     13.4151E+06    -477.201E+03     32.3509E+06    -3.43682E+06    -18.9830E-03     36.5128E-03    -17.5298E-03     4.12578E-03    -18.9630E-03     36.4438E-03    -17.3868E-03     4.07767E-03
            1364     7.96076E-03     112.142E-03     12.5540E+06    -527.601E+03     35.4508E+06    -3.57195E+06    -19.7433E-03     37.5463E-03    -17.8031E-03     4.72239E-03    -19.7322E-03     37.4738E-03    -17.6432E-03     4.67165E-03
            1365     8.84280E-03     112.176E-03     11.4513E+06    -530.197E+03     37.9806E+06    -3.81698E+06    -20.5937E-03     38.7110E-03    -18.1173E-03     5.40555E-03    -20.5922E-03     38.6365E-03    -17.9433E-03     5.35056E-03
            1366     9.72400E-03     112.214E-03     10.5911E+06    -1.07560E+06     40.4869E+06    -3.90365E+06    -21.5416E-03     40.0182E-03    -18.4767E-03     6.29675E-03    -21.5476E-03     39.9385E-03    -18.2880E-03     6.23933E-03
            1367     10.6041E-03     112.261E-03     9.49696E+06    -1.00573E+06     42.2296E+06    -4.71676E+06    -22.4813E-03     41.3563E-03    -18.8750E-03     7.62916E-03    -22.4960E-03     41.2759E-03    -18.6761E-03     7.55982E-03
            1368     11.4832E-03     112.315E-03     8.18213E+06    -2.17949E+06     42.3907E+06    -4.91885E+06    -22.9771E-03     42.2683E-03    -19.2912E-03     9.74856E-03    -22.9976E-03     42.1837E-03    -19.0879E-03     9.67555E-03
            1369     12.3617E-03     112.381E-03     6.78354E+06    -1.47169E+06     44.2062E+06    -5.92756E+06    -22.1975E-03     41.8762E-03    -19.6786E-03     13.0537E-03    -22.2293E-03     41.7946E-03    -19.4653E-03     12.9678E-03
            1370     13.2412E-03     112.458E-03     4.48661E+06    -4.13972E+06     44.6482E+06    -6.63099E+06    -19.3855E-03     39.3186E-03    -19.9332E-03     18.1285E-03    -19.4256E-03     39.2264E-03    -19.7104E-03     18.0350E-03
            1371     14.1236E-03     112.551E-03     2.80769E+06    -202.470E+03     44.3636E+06    -6.69152E+06    -16.0969E-03     36.0845E-03    -19.9877E-03     26.0561E-03    -16.1512E-03     36.0148E-03    -19.7696E-03     25.9635E-03
            1372     15.0135E-03     112.657E-03     4.79273E+06    -1.65700E+06     48.7869E+06    -4.75839E+06    -15.7706E-03     35.7564E-03    -19.9858E-03     41.3158E-03    -15.8248E-03     35.6741E-03    -19.7464E-03     41.2446E-03
            1373     15.9000E-03     112.796E-03     8.37721E+06      6.7922E+06     54.6172E+06    -739.940E+03    -10.8013E-03     30.6447E-03    -19.8434E-03     60.8095E-03    -10.8764E-03     30.6147E-03    -19.5923E-03     60.7834E-03
            1374     16.7902E-03     112.951E-03     484.693E+03     7.48112E+06     31.4464E+06     793.965E+03     2.98112E-03     16.1238E-03    -19.1049E-03     63.4872E-03     2.88793E-03     16.1492E-03    -18.9592E-03     63.4972E-03
            1375     16.8388E-03     56.1156E-03    -3.10928E+06     131.032E+06     29.0517E+06     83.0425E+03    -17.1843E-03     32.5181E-03    -15.3338E-03     104.924E-03    -18.3197E-03     34.0235E-03    -15.3741E-03     105.524E-03
            1376     15.9540E-03     55.9909E-03    -2.59585E+06     74.5844E+06    -15.6000E+06     275.220E+03    -18.3985E-03     33.5857E-03    -15.1872E-03     116.108E-03    -19.2588E-03     34.7468E-03    -15.3696E-03     116.317E-03
            1377     15.0669E-03     55.8992E-03    -3.13009E+06     28.8077E+06    -1.09296E+06    -524.630E+03    -16.7644E-03     32.0880E-03    -15.3237E-03     82.7227E-03    -17.0151E-03     32.4331E-03    -15.3664E-03     82.6940E-03
            1378     14.1798E-03     55.8368E-03    -3.79485E+06     -653.83E+03     936.205E+03    -437.000E+03    -16.1867E-03     31.5746E-03    -15.3879E-03     64.3767E-03    -16.2815E-03     31.6509E-03    -15.3768E-03     64.3333E-03
            1379     13.2942E-03     55.7795E-03    -3.73581E+06    -29.0167E+06    -2.87939E+06     152.545E+03    -16.2274E-03     31.6445E-03    -15.4171E-03     59.8996E-03    -16.2471E-03     31.5563E-03    -15.3840E-03     59.8666E-03
            1380     12.4075E-03     55.7254E-03    -3.95352E+06    -35.6742E+06     3.37377E+06     150.892E+03    -16.1008E-03     31.5635E-03    -15.4627E-03     54.8279E-03    -16.1023E-03     31.4146E-03    -15.3884E-03     54.8020E-03
            1381     11.5214E-03     55.6777E-03    -4.48631E+06    -38.8107E+06     5.36139E+06    -1.30041E+03    -15.9969E-03     31.4782E-03    -15.4813E-03     49.1582E-03    -15.9882E-03     31.3003E-03    -15.3917E-03     49.1367E-03
            1382     10.6350E-03     55.6341E-03    -5.26213E+06    -47.8705E+06     4.34528E+06    -83.2662E+03    -15.9294E-03     31.4214E-03    -15.4920E-03     44.8806E-03    -15.9038E-03     31.1945E-03    -15.3932E-03     44.8630E-03
            1383     9.74882E-03     55.5943E-03    -6.19171E+06    -51.8282E+06     5.77728E+06    -71.4402E+03    -15.8478E-03     31.3546E-03    -15.5068E-03     40.7569E-03    -15.8193E-03     31.1034E-03    -15.3938E-03     40.7434E-03
            1384     8.86248E-03     55.5584E-03    -7.30967E+06    -53.0824E+06     5.43256E+06    -21.0763E+03    -15.7603E-03     31.2693E-03    -15.5091E-03     36.5806E-03    -15.7324E-03     31.0114E-03    -15.3944E-03     36.5708E-03
            1385     7.97628E-03     55.5264E-03    -8.61541E+06    -55.9362E+06     4.35938E+06     4.69214E+03    -15.6857E-03     31.1964E-03    -15.5107E-03     32.4012E-03    -15.6571E-03     30.9260E-03    -15.3953E-03     32.3940E-03
            1386     7.08997E-03     55.4981E-03    -10.0639E+06    -57.6535E+06     2.70186E+06     28.9513E+03    -15.6188E-03     31.1271E-03    -15.5083E-03     28.2917E-03    -15.5914E-03     30.8516E-03    -15.3966E-03     28.2865E-03
            1387     6.20376E-03     55.4738E-03    -11.7130E+06    -59.2542E+06     474.751E+03     55.3618E+03    -15.5611E-03     31.0650E-03    -15.5039E-03     24.3081E-03    -15.5358E-03     30.7863E-03    -15.3986E-03     24.3045E-03
            1388     5.31745E-03     55.4530E-03    -13.5472E+06    -61.1458E+06    -2.25682E+06     33.6264E+03    -15.5172E-03     31.0153E-03    -15.4981E-03     20.4772E-03    -15.4938E-03     30.7333E-03    -15.4011E-03     20.4743E-03
            1389     4.43123E-03     55.4358E-03    -15.4723E+06    -62.7176E+06    -5.68153E+06     29.4121E+03    -15.4829E-03     30.9719E-03    -15.4890E-03     16.8109E-03    -15.4616E-03     30.6895E-03    -15.4041E-03     16.8087E-03
            1390     3.54494E-03     55.4217E-03    -17.4534E+06    -64.6511E+06    -9.80365E+06     18.8919E+03    -15.4593E-03     30.9369E-03    -15.4776E-03     13.2903E-03    -15.4390E-03     30.6535E-03    -15.4075E-03     13.2885E-03
            1391     2.65872E-03     55.4111E-03    -19.2758E+06    -66.7163E+06    -14.2347E+06         962.281    -15.4467E-03     30.9115E-03    -15.4648E-03     9.90282E-03    -15.4258E-03     30.6267E-03    -15.4113E-03     9.90140E-03
            1392     1.77244E-03     55.4033E-03    -20.7846E+06    -68.7245E+06    -18.2484E+06     13.2622E+03    -15.4414E-03     30.8951E-03    -15.4538E-03     6.63063E-03    -15.4193E-03     30.6082E-03    -15.4152E-03     6.62986E-03
            1393     886.251E-06     55.3988E-03    -21.7500E+06    -69.9324E+06    -21.0605E+06     35.0715E+03    -15.4269E-03     30.8891E-03    -15.4621E-03     3.54377E-03    -15.4037E-03     30.6016E-03    -15.4345E-03     3.54373E-03
            1394     16.8387E-03     55.1369E-03    -3.24768E+06     130.610E+06     28.6429E+06    -278.909E+03    -16.9987E-03     32.3229E-03    -15.3242E-03     105.499E-03    -18.1317E-03     33.8250E-03    -15.3657E-03     106.098E-03
            1395     15.9520E-03     55.0119E-03    -3.33509E+06     74.3038E+06    -16.8148E+06     10.9336E+03    -18.2165E-03     33.4006E-03    -15.1841E-03     115.718E-03    -19.0723E-03     34.5571E-03    -15.3711E-03     115.924E-03
            1396     15.0666E-03     54.9220E-03    -2.55685E+06     29.4072E+06    -1.15504E+06     86.0512E+03    -16.9480E-03     32.2701E-03    -15.3221E-03     82.3909E-03    -17.1958E-03     32.6165E-03    -15.3668E-03     82.3686E-03
            1397     14.1807E-03     54.8587E-03    -2.89302E+06    -952.021E+03     976.109E+03     2.29883E+03    -16.1453E-03     31.5286E-03    -15.3833E-03     64.5005E-03    -16.2352E-03     31.6020E-03    -15.3728E-03     64.4629E-03
            1398     13.2937E-03     54.8020E-03    -3.34530E+06    -29.4079E+06    -2.93700E+06    -68.0617E+03    -16.1864E-03     31.6023E-03    -15.4159E-03     60.0340E-03    -16.2035E-03     31.5117E-03    -15.3831E-03     59.9982E-03
            1399     12.4077E-03     54.7476E-03    -3.48746E+06    -35.5259E+06     3.77572E+06     161.007E+03    -16.1342E-03     31.5976E-03    -15.4634E-03     54.9200E-03    -16.1343E-03     31.4482E-03    -15.3879E-03     54.8942E-03
            1400     11.5212E-03     54.6999E-03    -4.22629E+06    -38.5923E+06     5.49434E+06     31.7812E+03    -16.0040E-03     31.4834E-03    -15.4795E-03     49.1547E-03    -15.9945E-03     31.3060E-03    -15.3899E-03     49.1337E-03
            1401     10.6351E-03     54.6563E-03    -5.04356E+06    -47.9220E+06     4.38692E+06    -58.3083E+03    -15.9353E-03     31.4249E-03    -15.4895E-03     44.8858E-03    -15.9086E-03     31.1974E-03    -15.3908E-03     44.8686E-03
            1402     9.74876E-03     54.6165E-03    -6.02283E+06    -51.8000E+06     5.82299E+06    -46.6879E+03    -15.8441E-03     31.3482E-03    -15.5041E-03     40.7535E-03    -15.8148E-03     31.0967E-03    -15.3911E-03     40.7404E-03
            1403     8.86257E-03     54.5806E-03    -7.25453E+06    -53.1723E+06     5.41185E+06    -46.5534E+03    -15.7599E-03     31.2662E-03    -15.5064E-03     36.5744E-03    -15.7316E-03     31.0078E-03    -15.3917E-03     36.5643E-03
            1404     7.97625E-03     54.5485E-03    -8.63848E+06    -55.9429E+06     4.31958E+06     7.58428E+03    -15.6862E-03     31.1937E-03    -15.5076E-03     32.3878E-03    -15.6576E-03     30.9234E-03    -15.3923E-03     32.3807E-03
            1405     7.09004E-03     54.5204E-03    -10.2046E+06    -57.6616E+06     2.51411E+06    -1.54312E+03    -15.6168E-03     31.1212E-03    -15.5043E-03     28.2799E-03    -15.5899E-03     30.8461E-03    -15.3934E-03     28.2743E-03
            1406     6.20373E-03     54.4960E-03    -11.8374E+06    -59.2973E+06     323.375E+03       21.92E+03    -15.5608E-03     31.0605E-03    -15.4997E-03     24.2962E-03    -15.5358E-03     30.7820E-03    -15.3949E-03     24.2921E-03
            1407     5.31751E-03     54.4753E-03    -13.6044E+06    -61.0956E+06    -2.37299E+06     47.8921E+03    -15.5149E-03     31.0083E-03    -15.4934E-03     20.4653E-03    -15.4918E-03     30.7269E-03    -15.3969E-03     20.4625E-03
            1408     4.43121E-03     54.4579E-03    -15.5369E+06    -62.7423E+06    -5.77961E+06     41.1345E+03    -15.4795E-03     30.9637E-03    -15.4842E-03     16.7981E-03    -15.4584E-03     30.6815E-03    -15.3996E-03     16.7960E-03
            1409     3.54499E-03     54.4440E-03    -17.4472E+06    -64.5972E+06    -9.85613E+06     41.1648E+03    -15.4556E-03     30.9281E-03    -15.4725E-03     13.2787E-03    -15.4352E-03     30.6450E-03    -15.4028E-03     13.2772E-03
            1410     2.65871E-03     54.4332E-03    -19.2347E+06    -66.7257E+06    -14.2061E+06     17.3684E+03    -15.4416E-03     30.9017E-03    -15.4601E-03     9.89051E-03    -15.4206E-03     30.6167E-03    -15.4065E-03     9.88930E-03
            1411     1.77249E-03     54.4257E-03    -20.7400E+06    -68.7430E+06    -18.1521E+06     43.8789E+03    -15.4346E-03     30.8847E-03    -15.4501E-03     6.61722E-03    -15.4124E-03     30.5974E-03    -15.4111E-03     6.61685E-03
            1412     886.204E-06     54.4209E-03    -21.7904E+06    -69.8581E+06    -21.0638E+06     35.4203E+03    -15.4432E-03     30.8818E-03    -15.4386E-03     3.55612E-03    -15.4203E-03     30.5947E-03    -15.4110E-03     3.55608E-03
            1413     16.8402E-03     54.1607E-03    -3.08478E+06     130.625E+06     29.2852E+06    -501.850E+03    -17.2373E-03     32.5248E-03    -15.2875E-03     104.392E-03    -18.3527E-03     34.0081E-03    -15.3260E-03     104.980E-03
            1414     15.9533E-03     54.0336E-03    -3.17014E+06     74.0432E+06    -15.9154E+06    -799.198E+03    -17.3975E-03     32.5586E-03    -15.1611E-03     114.808E-03    -18.2341E-03     33.6929E-03    -15.3434E-03     115.008E-03
            1415     15.0670E-03     53.9435E-03    -3.07488E+06     29.1958E+06    -1.50004E+06     97.7031E+03    -16.4804E-03     31.8090E-03    -15.3286E-03     82.6788E-03    -16.7280E-03     32.1537E-03    -15.3740E-03     82.6598E-03
            1416     14.1801E-03     53.8817E-03    -3.50641E+06    -905.509E+03     391.645E+03     32.2324E+03    -16.3521E-03     31.7493E-03    -15.3972E-03     65.0543E-03    -16.4456E-03     31.8259E-03    -15.3888E-03     65.0162E-03
            1417     13.2939E-03     53.8239E-03    -3.28976E+06    -29.4162E+06    -3.03389E+06     55.8058E+03    -16.3493E-03     31.7700E-03    -15.4207E-03     60.1657E-03    -16.3663E-03     31.6797E-03    -15.3885E-03     60.1310E-03
            1418     12.4076E-03     53.7698E-03    -3.71247E+06    -35.5996E+06     3.57998E+06     66.5577E+03    -16.1601E-03     31.6222E-03    -15.4621E-03     54.8549E-03    -16.1608E-03     31.4730E-03    -15.3872E-03     54.8279E-03
            1419     11.5214E-03     53.7221E-03    -4.24500E+06    -38.4147E+06     5.50441E+06     77.2370E+03    -16.0021E-03     31.4796E-03    -15.4775E-03     49.1717E-03    -15.9930E-03     31.3031E-03    -15.3881E-03     49.1513E-03
            1420     10.6350E-03     53.6784E-03    -5.05279E+06    -47.9036E+06     4.37530E+06     8.77423E+03    -15.9404E-03     31.4277E-03    -15.4873E-03     44.8608E-03    -15.9137E-03     31.2003E-03    -15.3887E-03     44.8444E-03
            1421     9.74886E-03     53.6387E-03    -6.04866E+06    -51.8001E+06     5.77674E+06    -5.80328E+03    -15.8449E-03     31.3462E-03    -15.5013E-03     40.7479E-03    -15.8156E-03     31.0948E-03    -15.3885E-03     40.7353E-03
            1422     8.86252E-03     53.6027E-03    -7.24287E+06    -53.2004E+06     5.34382E+06     12.2239E+03    -15.7616E-03     31.2646E-03    -15.5031E-03     36.5575E-03    -15.7331E-03     31.0061E-03    -15.3887E-03     36.5482E-03
            1423     7.97633E-03     53.5708E-03    -8.64738E+06    -56.0007E+06     4.24953E+06     46.9891E+03    -15.6855E-03     31.1894E-03    -15.5039E-03     32.3642E-03    -15.6568E-03     30.9189E-03    -15.3889E-03     32.3576E-03
            1424     7.09002E-03     53.5426E-03    -10.1986E+06    -57.6025E+06     2.44375E+06     64.6477E+03    -15.6159E-03     31.1161E-03    -15.5001E-03     28.2622E-03    -15.5890E-03     30.8413E-03    -15.3896E-03     28.2574E-03
            1425     6.20380E-03     53.5183E-03    -11.9317E+06    -59.3213E+06     155.469E+03      7.7535E+03    -15.5586E-03     31.0535E-03    -15.4949E-03     24.2808E-03    -15.5338E-03     30.7753E-03    -15.3908E-03     24.2766E-03
            1426     5.31750E-03     53.4975E-03    -13.7502E+06    -61.1221E+06    -2.47280E+06     33.5029E+03    -15.5120E-03     31.0007E-03    -15.4887E-03     20.4528E-03    -15.4894E-03     30.7195E-03    -15.3925E-03     20.4499E-03
            1427     4.43127E-03     53.4802E-03    -15.6375E+06    -62.7006E+06    -5.87971E+06     41.7053E+03    -15.4756E-03     30.9546E-03    -15.4790E-03     16.7880E-03    -15.4549E-03     30.6728E-03    -15.3948E-03     16.7859E-03
            1428     3.54498E-03     53.4662E-03    -17.5503E+06    -64.5890E+06    -9.96564E+06     8.26704E+03    -15.4509E-03     30.9179E-03    -15.4670E-03     13.2706E-03    -15.4309E-03     30.6352E-03    -15.3978E-03     13.2687E-03
            1429     2.65875E-03     53.4556E-03    -19.3140E+06    -66.7219E+06    -14.2955E+06     24.5356E+03    -15.4375E-03     30.8919E-03    -15.4544E-03     9.88721E-03    -15.4168E-03     30.6072E-03    -15.4011E-03     9.88610E-03
            1430     1.77247E-03     53.4479E-03    -20.7629E+06    -68.7460E+06    -18.1577E+06     28.0365E+03    -15.4293E-03     30.8737E-03    -15.4444E-03     6.61572E-03    -15.4072E-03     30.5864E-03    -15.4054E-03     6.61514E-03
            1431     886.258E-06     53.4433E-03    -21.7380E+06    -69.7941E+06    -21.0041E+06     43.0661E+03    -15.4546E-03     30.8704E-03    -15.4158E-03     3.58556E-03    -15.4316E-03     30.5835E-03    -15.3881E-03     3.58562E-03
            1432     16.8412E-03     53.1800E-03    -1.69146E+06     131.018E+06     28.9663E+06    -266.442E+03    -17.2997E-03     32.5970E-03    -15.2973E-03     106.285E-03    -18.4277E-03     34.1002E-03    -15.3400E-03     106.893E-03
            1433     15.9551E-03     53.0594E-03    -2.85892E+06     73.5928E+06    -16.9571E+06     143.032E+03    -17.5180E-03     32.6875E-03    -15.1695E-03     116.291E-03    -18.3553E-03     33.8251E-03    -15.3569E-03     116.508E-03
            1434     15.0651E-03     52.9661E-03    -3.18351E+06     28.7866E+06    -1.48703E+06     136.952E+03    -16.4678E-03     31.8124E-03    -15.3447E-03     83.9106E-03    -16.7176E-03     32.1574E-03    -15.3892E-03     83.8928E-03
            1435     14.1794E-03     52.9030E-03    -2.87460E+06    -583.476E+03     858.543E+03    -70.6522E+03    -16.5478E-03     31.9575E-03    -15.4097E-03     64.4054E-03    -16.6388E-03     32.0337E-03    -15.4004E-03     64.3653E-03
            1436     13.2939E-03     52.8460E-03    -3.57237E+06    -29.4511E+06    -3.20254E+06     6.19878E+03    -16.4378E-03     31.8601E-03    -15.4222E-03     59.7698E-03    -16.4559E-03     31.7702E-03    -15.3904E-03     59.7343E-03
            1437     12.4077E-03     52.7921E-03    -3.80443E+06    -35.6454E+06     3.46497E+06     76.9107E+03    -16.1630E-03     31.6230E-03    -15.4601E-03     54.8439E-03    -16.1639E-03     31.4739E-03    -15.3856E-03     54.8170E-03
            1438     11.5213E-03     52.7441E-03    -4.44192E+06    -38.3457E+06     5.33263E+06     1.00169E+03    -16.0100E-03     31.4846E-03    -15.4746E-03     49.1645E-03    -16.0017E-03     31.3089E-03    -15.3859E-03     49.1430E-03
            1439     10.6351E-03     52.7007E-03    -5.16119E+06    -47.9472E+06     4.20267E+06     53.5519E+03    -15.9368E-03     31.4208E-03    -15.4840E-03     44.8383E-03    -15.9103E-03     31.1936E-03    -15.3860E-03     44.8226E-03
            1440     9.74881E-03     52.6609E-03    -6.15640E+06    -51.7924E+06     5.65670E+06     90.1874E+03    -15.8527E-03     31.3503E-03    -15.4977E-03     40.7277E-03    -15.8238E-03     31.0994E-03    -15.3853E-03     40.7163E-03
            1441     8.86263E-03     52.6250E-03    -7.42598E+06    -53.1825E+06     5.12048E+06     53.9183E+03    -15.7602E-03     31.2584E-03    -15.4983E-03     36.5342E-03    -15.7323E-03     31.0006E-03    -15.3848E-03     36.5255E-03
            1442     7.97631E-03     52.5930E-03    -8.77084E+06    -56.0557E+06     4.10645E+06     58.5494E+03    -15.6830E-03     31.1823E-03    -15.4993E-03     32.3432E-03    -15.6546E-03     30.9118E-03    -15.3847E-03     32.3367E-03
            1443     7.09010E-03     52.5649E-03    -10.2641E+06    -57.5693E+06     2.42678E+06     79.7030E+03    -15.6130E-03     31.1086E-03    -15.4956E-03     28.2425E-03    -15.5864E-03     30.8342E-03    -15.3851E-03     28.2380E-03
            1444     6.20379E-03     52.5405E-03    -11.9120E+06    -59.2643E+06     196.743E+03     67.8657E+03    -15.5543E-03     31.0446E-03    -15.4903E-03     24.2639E-03    -15.5295E-03     30.7666E-03    -15.3861E-03     24.2605E-03
            1445     5.31756E-03     52.5198E-03    -13.7459E+06    -61.1524E+06    -2.47423E+06     23.8815E+03    -15.5074E-03     30.9914E-03    -15.4840E-03     20.4384E-03    -15.4848E-03     30.7100E-03    -15.3877E-03     20.4354E-03
            1446     4.43126E-03     52.5025E-03    -15.6635E+06    -62.6656E+06    -5.87334E+06     21.3064E+03    -15.4709E-03     30.9451E-03    -15.4742E-03     16.7763E-03    -15.4504E-03     30.6636E-03    -15.3900E-03     16.7740E-03
            1447     3.54502E-03     52.4886E-03    -17.5954E+06    -64.5786E+06    -9.98944E+06     18.7595E+03    -15.4465E-03     30.9085E-03    -15.4620E-03     13.2596E-03    -15.4267E-03     30.6260E-03    -15.3928E-03     13.2579E-03
            1448     2.65874E-03     52.4778E-03    -19.4019E+06    -66.7215E+06    -14.3663E+06         803.922    -15.4327E-03     30.8817E-03    -15.4490E-03     9.87800E-03    -15.4123E-03     30.5972E-03    -15.3959E-03     9.87658E-03
            1449     1.77250E-03     52.4702E-03    -20.8801E+06    -68.7419E+06    -18.2931E+06    -7.32915E+03    -15.4285E-03     30.8654E-03    -15.4368E-03     6.60374E-03    -15.4068E-03     30.5785E-03    -15.3984E-03     6.60271E-03
            1450     886.214E-06     52.4655E-03    -21.9037E+06    -69.7769E+06    -21.1158E+06    -4.93926E+03    -15.4359E-03     30.8519E-03    -15.4160E-03     3.60369E-03    -15.4136E-03     30.5655E-03    -15.3887E-03     3.60312E-03
            1451     16.8360E-03     52.1999E-03    -3.95080E+06     129.575E+06     26.7058E+06    -171.366E+03    -16.4532E-03     31.8066E-03    -15.3534E-03     105.850E-03    -17.5920E-03     33.3140E-03    -15.4020E-03     106.463E-03
            1452     15.9500E-03     52.0814E-03    -4.52925E+06     73.3412E+06    -18.0376E+06    -251.857E+03    -18.5850E-03     33.8070E-03    -15.2220E-03     115.345E-03    -19.4449E-03     34.9635E-03    -15.4119E-03     115.550E-03
            1453     15.0671E-03     51.9883E-03    -3.08191E+06     30.3048E+06    -990.891E+03    -226.338E+03    -17.5493E-03     32.8852E-03    -15.3359E-03     82.5517E-03    -17.8046E-03     33.2399E-03    -15.3803E-03     82.5211E-03
            1454     14.1807E-03     51.9248E-03    -3.61504E+06    -499.733E+03     446.715E+03     20.1187E+03    -16.0761E-03     31.4551E-03    -15.3790E-03     63.8873E-03    -16.1683E-03     31.5313E-03    -15.3708E-03     63.8504E-03
            1455     13.2939E-03     51.8684E-03    -3.52720E+06    -29.6667E+06    -3.40710E+06     9.17919E+03    -16.1940E-03     31.6069E-03    -15.4128E-03     59.6965E-03    -16.2109E-03     31.5158E-03    -15.3818E-03     59.6617E-03
            1456     12.4076E-03     51.8140E-03    -3.83106E+06    -35.7390E+06     3.32393E+06     25.4737E+03    -16.1964E-03     31.6538E-03    -15.4574E-03     54.7783E-03    -16.1973E-03     31.5046E-03    -15.3834E-03     54.7506E-03
            1457     11.5215E-03     51.7665E-03    -4.49298E+06    -38.2348E+06     5.20114E+06     100.935E+03    -16.0085E-03     31.4787E-03    -15.4702E-03     49.1095E-03    -16.0004E-03     31.3039E-03    -15.3823E-03     49.0894E-03
            1458     10.6351E-03     51.7228E-03    -5.37813E+06    -48.0649E+06     3.92636E+06      23.032E+03    -15.9392E-03     31.4183E-03    -15.4791E-03     44.8290E-03    -15.9132E-03     31.1912E-03    -15.3819E-03     44.8129E-03
            1459     9.74894E-03     51.6831E-03    -6.24044E+06    -51.8112E+06     5.58773E+06     116.253E+03    -15.8533E-03     31.3461E-03    -15.4928E-03     40.6878E-03    -15.8247E-03     31.0952E-03    -15.3807E-03     40.6768E-03
            1460     8.86260E-03     51.6472E-03    -7.39422E+06    -53.1048E+06     5.19152E+06     123.594E+03    -15.7558E-03     31.2492E-03    -15.4935E-03     36.5046E-03    -15.7280E-03     30.9916E-03    -15.3798E-03     36.4968E-03
            1461     7.97641E-03     51.6152E-03    -8.79792E+06    -56.0445E+06     4.10894E+06     51.0250E+03    -15.6779E-03     31.1721E-03    -15.4942E-03     32.3223E-03    -15.6497E-03     30.9018E-03    -15.3796E-03     32.3157E-03
            1462     7.09009E-03     51.5871E-03    -10.2866E+06    -57.5848E+06     2.46928E+06     40.5121E+03    -15.6077E-03     31.0984E-03    -15.4907E-03     28.2245E-03    -15.5812E-03     30.8239E-03    -15.3800E-03     28.2195E-03
            1463     6.20386E-03     51.5628E-03    -11.9198E+06    -59.2343E+06     246.428E+03     58.5658E+03    -15.5491E-03     31.0345E-03    -15.4853E-03     24.2482E-03    -15.5245E-03     30.7566E-03    -15.3809E-03     24.2446E-03
            1464     5.31755E-03     51.5420E-03    -13.7104E+06    -61.1035E+06    -2.43915E+06     44.8087E+03    -15.5023E-03     30.9811E-03    -15.4788E-03     20.4232E-03    -15.4796E-03     30.6999E-03    -15.3825E-03     20.4204E-03
            1465     4.43131E-03     51.5248E-03    -15.6474E+06    -62.6819E+06    -5.84061E+06     23.0769E+03    -15.4662E-03     30.9353E-03    -15.4691E-03     16.7622E-03    -15.4456E-03     30.6535E-03    -15.3847E-03     16.7598E-03
            1466     3.54501E-03     51.5108E-03    -17.5895E+06    -64.5561E+06    -9.95443E+06     27.0113E+03    -15.4432E-03     30.8997E-03    -15.4565E-03     13.2460E-03    -15.4235E-03     30.6172E-03    -15.3872E-03     13.2444E-03
            1467     2.65878E-03     51.5001E-03    -19.3903E+06    -66.7091E+06    -14.3449E+06     15.4096E+03    -15.4303E-03     30.8726E-03    -15.4423E-03     9.86442E-03    -15.4099E-03     30.5882E-03    -15.3892E-03     9.86319E-03
            1468     1.77249E-03     51.4925E-03    -20.9170E+06    -68.7284E+06    -18.3226E+06    -4.19638E+03    -15.4274E-03     30.8546E-03    -15.4272E-03     6.59907E-03    -15.4059E-03     30.5679E-03    -15.3888E-03     6.59808E-03
            1469     886.302E-06     51.4879E-03    -21.9121E+06    -69.7970E+06    -21.2343E+06    -16.2585E+03    -15.3977E-03     30.8280E-03    -15.4303E-03     3.56934E-03    -15.3752E-03     30.5417E-03    -15.4035E-03     3.56863E-03
            1470     16.8406E-03     51.2303E-03    -2.59193E+06     130.814E+06     28.9740E+06     535.610E+03    -17.0969E-03     32.4075E-03    -15.3107E-03     102.820E-03    -18.2043E-03     33.8862E-03    -15.3517E-03     103.412E-03
            1471     15.9522E-03     51.0977E-03    -3.82823E+06     74.6848E+06    -16.8831E+06    -401.396E+03    -17.9427E-03     33.1104E-03    -15.1677E-03     113.581E-03    -18.7850E-03     34.2533E-03    -15.3549E-03     113.777E-03
            1472     15.0681E-03     51.0102E-03    -4.71451E+06     29.2268E+06    -2.82471E+06    -635.430E+03    -16.8235E-03     32.1305E-03    -15.3070E-03     81.8969E-03    -17.0783E-03     32.4805E-03    -15.3566E-03     81.8652E-03
            1473     14.1807E-03     50.9486E-03    -4.29170E+06    -1.11515E+06    -94.3076E+03    -135.802E+03    -16.1331E-03     31.5061E-03    -15.3730E-03     65.1845E-03    -16.2285E-03     31.5826E-03    -15.3657E-03     65.1452E-03
            1474     13.2938E-03     50.8902E-03    -3.98987E+06    -29.4791E+06    -3.30707E+06     29.5753E+03    -16.2019E-03     31.6098E-03    -15.4079E-03     60.1736E-03    -16.2215E-03     31.5202E-03    -15.3759E-03     60.1391E-03
            1475     12.4078E-03     50.8363E-03    -4.02195E+06    -35.8329E+06     3.12612E+06    -23.4676E+03    -16.1649E-03     31.6167E-03    -15.4518E-03     54.7066E-03    -16.1662E-03     31.4675E-03    -15.3784E-03     54.6783E-03
            1476     11.5214E-03     50.7886E-03    -4.61743E+06    -38.3722E+06     5.22040E+06     71.7762E+03    -16.0197E-03     31.4856E-03    -15.4659E-03     49.0787E-03    -16.0120E-03     31.3102E-03    -15.3774E-03     49.0582E-03
            1477     10.6353E-03     50.7451E-03    -5.31411E+06    -47.8269E+06     4.14010E+06     105.317E+03    -15.9409E-03     31.4148E-03    -15.4739E-03     44.8056E-03    -15.9153E-03     31.1885E-03    -15.3761E-03     44.7905E-03
            1478     9.74891E-03     50.7053E-03    -6.26506E+06    -52.0094E+06     5.59433E+06    -13.7951E+03    -15.8454E-03     31.3324E-03    -15.4870E-03     40.6594E-03    -15.8167E-03     31.0806E-03    -15.3746E-03     40.6468E-03
            1479     8.86274E-03     50.6694E-03    -7.32480E+06    -53.0384E+06     5.36792E+06     113.741E+03    -15.7495E-03     31.2376E-03    -15.4881E-03     36.4766E-03    -15.7217E-03     30.9799E-03    -15.3737E-03     36.4686E-03
            1480     7.97639E-03     50.6374E-03    -8.61613E+06    -55.9616E+06     4.24459E+06     70.1723E+03    -15.6709E-03     31.1594E-03    -15.4885E-03     32.3005E-03    -15.6421E-03     30.8890E-03    -15.3736E-03     32.2942E-03
            1481     7.09018E-03     50.6094E-03    -10.1545E+06    -57.6105E+06     2.54000E+06     36.5588E+03    -15.6021E-03     31.0870E-03    -15.4850E-03     28.2019E-03    -15.5750E-03     30.8121E-03    -15.3740E-03     28.1969E-03
            1482     6.20385E-03     50.5850E-03    -11.8340E+06    -59.2402E+06     296.719E+03     56.4209E+03    -15.5447E-03     31.0241E-03    -15.4794E-03     24.2266E-03    -15.5197E-03     30.7459E-03    -15.3748E-03     24.2230E-03
            1483     5.31762E-03     50.5643E-03    -13.6638E+06    -61.0641E+06    -2.37841E+06     55.7111E+03    -15.4979E-03     30.9705E-03    -15.4726E-03     20.3991E-03    -15.4751E-03     30.6893E-03    -15.3761E-03     20.3965E-03
            1484     4.43131E-03     50.5470E-03    -15.5938E+06    -62.6718E+06    -5.80162E+06     43.8055E+03    -15.4620E-03     30.9243E-03    -15.4624E-03     16.7410E-03    -15.4412E-03     30.6425E-03    -15.3779E-03     16.7390E-03
            1485     3.54507E-03     50.5331E-03    -17.5454E+06    -64.5520E+06    -9.91698E+06     36.3166E+03    -15.4385E-03     30.8876E-03    -15.4492E-03     13.2265E-03    -15.4185E-03     30.6050E-03    -15.3797E-03     13.2250E-03
            1486     2.65877E-03     50.5224E-03    -19.3595E+06    -66.6801E+06    -14.3288E+06     32.1816E+03    -15.4252E-03     30.8592E-03    -15.4341E-03     9.85019E-03    -15.4047E-03     30.5749E-03    -15.3810E-03     9.84918E-03
            1487     1.77254E-03     50.5148E-03    -20.8345E+06    -68.7109E+06    -18.2633E+06     7.05974E+03    -15.4177E-03     30.8366E-03    -15.4189E-03     6.59328E-03    -15.3958E-03     30.5498E-03    -15.3804E-03     6.59244E-03
            1488     886.234E-06     50.5101E-03    -21.8163E+06    -69.7950E+06    -21.0891E+06     3.56156E+03    -15.3898E-03     30.8129E-03    -15.4231E-03     3.52874E-03    -15.3670E-03     30.5262E-03    -15.3957E-03     3.52830E-03
            1489     16.8409E-03     50.2460E-03    -3.14905E+06     131.932E+06     30.6716E+06     47.2331E+03    -17.6987E-03     32.9919E-03    -15.2932E-03     106.420E-03    -18.8429E-03     34.5045E-03    -15.3266E-03     107.026E-03
            1490     15.9580E-03     50.1256E-03    -2.22345E+06     75.1118E+06    -14.7682E+06     1.07549E+06    -17.6310E-03     32.7813E-03    -15.1503E-03     116.704E-03    -18.4741E-03     33.9260E-03    -15.3298E-03     116.929E-03
            1491     15.0644E-03     50.0324E-03    -2.35133E+06     28.1596E+06    -1.87325E+06     397.168E+03    -16.2525E-03     31.5696E-03    -15.3171E-03     83.2236E-03    -16.4938E-03     31.9079E-03    -15.3639E-03     83.2095E-03
            1492     14.1796E-03     49.9699E-03    -3.23692E+06    -1.25205E+06     780.661E+03    -287.885E+03    -16.4548E-03     31.8476E-03    -15.3928E-03     64.4793E-03    -16.5461E-03     31.9207E-03    -15.3824E-03     64.4368E-03
            1493     13.2944E-03     49.9127E-03    -3.74690E+06    -29.6204E+06    -3.20427E+06    -209.844E+03    -16.3780E-03     31.7870E-03    -15.4090E-03     60.1590E-03    -16.3967E-03     31.6965E-03    -15.3766E-03     60.1208E-03
            1494     12.4076E-03     49.8584E-03    -4.03506E+06    -35.8338E+06     3.19011E+06    -68.1029E+03    -16.1622E-03     31.6093E-03    -15.4470E-03     54.7711E-03    -16.1637E-03     31.4599E-03    -15.3732E-03     54.7423E-03
            1495     11.5216E-03     49.8108E-03    -4.55315E+06    -38.5303E+06     5.23718E+06     13.3583E+03    -16.0265E-03     31.4869E-03    -15.4604E-03     49.0450E-03    -16.0183E-03     31.3106E-03    -15.3718E-03     49.0237E-03
            1496     10.6352E-03     49.7672E-03    -5.29336E+06    -47.7277E+06     4.26168E+06     39.5599E+03    -15.9391E-03     31.4070E-03    -15.4679E-03     44.7856E-03    -15.9136E-03     31.1810E-03    -15.3697E-03     44.7696E-03
            1497     9.74907E-03     49.7275E-03    -6.15460E+06    -51.9433E+06     5.59313E+06     11.8161E+03    -15.8370E-03     31.3173E-03    -15.4803E-03     40.6496E-03    -15.8078E-03     31.0656E-03    -15.3681E-03     40.6373E-03
            1498     8.86271E-03     49.6916E-03    -7.33867E+06    -53.2267E+06     5.26673E+06    -12.0445E+03    -15.7458E-03     31.2271E-03    -15.4813E-03     36.4608E-03    -15.7176E-03     30.9686E-03    -15.3672E-03     36.4512E-03
            1499     7.97651E-03     49.6597E-03    -8.64383E+06    -55.8207E+06     4.22504E+06     92.5740E+03    -15.6675E-03     31.1488E-03    -15.4813E-03     32.2797E-03    -15.6390E-03     30.8791E-03    -15.3667E-03     32.2737E-03
            1500     7.09018E-03     49.6316E-03    -10.1582E+06    -57.6615E+06     2.49456E+06     55.6568E+03    -15.5994E-03     31.0768E-03    -15.4774E-03     28.1768E-03    -15.5723E-03     30.8016E-03    -15.3666E-03     28.1720E-03
            1501     6.20395E-03     49.6073E-03    -11.8256E+06    -59.2182E+06     313.970E+03     72.0341E+03    -15.5417E-03     31.0129E-03    -15.4713E-03     24.1951E-03    -15.5167E-03     30.7349E-03    -15.3667E-03     24.1917E-03
            1502     5.31763E-03     49.5866E-03    -13.6248E+06    -61.0556E+06    -2.37111E+06     62.3350E+03    -15.4944E-03     30.9579E-03    -15.4635E-03     20.3667E-03    -15.4714E-03     30.6767E-03    -15.3671E-03     20.3642E-03
            1503     4.43139E-03     49.5693E-03    -15.5457E+06    -62.6471E+06    -5.77450E+06     58.6610E+03    -15.4561E-03     30.9086E-03    -15.4525E-03     16.7091E-03    -15.4351E-03     30.6268E-03    -15.3680E-03     16.7072E-03
            1504     3.54508E-03     49.5554E-03    -17.4808E+06    -64.5442E+06    -9.89686E+06     57.8730E+03    -15.4293E-03     30.8680E-03    -15.4387E-03     13.2013E-03    -15.4091E-03     30.5853E-03    -15.3693E-03     13.2000E-03
            1505     2.65882E-03     49.5448E-03    -19.2735E+06    -66.6335E+06    -14.2643E+06     41.8135E+03    -15.4136E-03     30.8374E-03    -15.4238E-03     9.83003E-03    -15.3928E-03     30.5530E-03    -15.3706E-03     9.82914E-03
            1506     1.77253E-03     49.5371E-03    -20.7675E+06     -68.679E+06    -18.1918E+06     4.74493E+03    -15.4038E-03     30.8141E-03    -15.4103E-03     6.57487E-03    -15.3818E-03     30.5273E-03    -15.3715E-03     6.57400E-03
            1507     886.298E-06     49.5325E-03    -21.7685E+06    -69.8170E+06    -21.0389E+06    -26.4757E+03    -15.4000E-03     30.7981E-03    -15.3981E-03     3.50759E-03    -15.3771E-03     30.5111E-03    -15.3705E-03     3.50677E-03
            1508     16.8369E-03     49.2661E-03    -3.35119E+06     129.485E+06     27.5101E+06    -196.375E+03    -16.7100E-03     32.0519E-03    -15.3419E-03     106.222E-03    -17.8504E-03     33.5604E-03    -15.3873E-03     106.831E-03
            1509     15.9478E-03     49.1469E-03    -3.46866E+06     74.4648E+06    -16.8571E+06     205.082E+03    -18.5688E-03     33.7711E-03    -15.2023E-03     114.852E-03    -19.4240E-03     34.9272E-03    -15.3895E-03     115.059E-03
            1510     15.0687E-03     49.0548E-03    -2.19174E+06     30.5954E+06    -595.310E+03     771.743E+03    -17.1918E-03     32.5144E-03    -15.3226E-03     82.2040E-03    -17.4399E-03     32.8650E-03    -15.3668E-03     82.1879E-03
            1511     14.1808E-03     48.9922E-03    -3.30458E+06    -740.996E+03     471.231E+03     341.307E+03    -16.0489E-03     31.4256E-03    -15.3766E-03     64.5100E-03    -16.1396E-03     31.5005E-03    -15.3684E-03     64.4773E-03
            1512     13.2936E-03     48.9346E-03    -3.64131E+06    -29.7076E+06     -3.5739E+06    -313.142E+03    -16.3607E-03     31.7667E-03    -15.4060E-03     60.0736E-03    -16.3784E-03     31.6764E-03    -15.3755E-03     60.0341E-03
            1513     12.4080E-03     48.8807E-03    -3.66695E+06    -36.1999E+06     3.05133E+06    -153.637E+03    -16.2254E-03     31.6687E-03    -15.4433E-03     54.7301E-03    -16.2243E-03     31.5172E-03    -15.3702E-03     54.7000E-03
            1514     11.5215E-03     48.8329E-03    -4.33742E+06    -38.4787E+06     5.14081E+06     79.3126E+03    -16.0180E-03     31.4724E-03    -15.4544E-03     49.0611E-03    -16.0086E-03     31.2962E-03    -15.3666E-03     49.0407E-03
            1515     10.6354E-03     48.7894E-03    -5.17061E+06    -47.8177E+06     4.10300E+06     73.8236E+03    -15.9406E-03     31.4025E-03    -15.4619E-03     44.7738E-03    -15.9142E-03     31.1761E-03    -15.3645E-03     44.7584E-03
            1516     9.74903E-03     48.7497E-03    -6.24511E+06    -51.7935E+06     5.51581E+06     60.1501E+03    -15.8389E-03     31.3129E-03    -15.4740E-03     40.6428E-03    -15.8102E-03     31.0622E-03    -15.3623E-03     40.6312E-03
            1517     8.86285E-03     48.7139E-03    -7.43783E+06    -53.2874E+06     5.08569E+06    -3.14632E+03    -15.7481E-03     31.2220E-03    -15.4740E-03     36.4460E-03    -15.7200E-03     30.9637E-03    -15.3605E-03     36.4365E-03
            1518     7.97651E-03     48.6819E-03    -8.77576E+06    -55.9094E+06     4.17207E+06     27.4656E+03    -15.6737E-03     31.1470E-03    -15.4734E-03     32.2525E-03    -15.6456E-03     30.8772E-03    -15.3587E-03     32.2457E-03
            1519     7.09029E-03     48.6539E-03    -10.2441E+06    -57.5794E+06     2.46320E+06     80.6643E+03    -15.6023E-03     31.0699E-03    -15.4676E-03     28.1403E-03    -15.5757E-03     30.7953E-03    -15.3569E-03     28.1359E-03
            1520     6.20397E-03     48.6295E-03    -11.9031E+06    -59.2643E+06     221.514E+03     45.8309E+03    -15.5401E-03     30.9998E-03    -15.4597E-03     24.1551E-03    -15.5153E-03     30.7218E-03    -15.3554E-03     24.1514E-03
            1521     5.31773E-03     48.6089E-03    -13.7009E+06    -61.0139E+06    -2.45060E+06     74.0843E+03    -15.4889E-03     30.9395E-03    -15.4506E-03     20.3281E-03    -15.4663E-03     30.6587E-03    -15.3545E-03     20.3257E-03
            1522     4.43142E-03     48.5916E-03    -15.6186E+06    -62.6436E+06    -5.85962E+06     57.0898E+03    -15.4467E-03     30.8850E-03    -15.4384E-03     16.6707E-03    -15.4260E-03     30.6035E-03    -15.3542E-03     16.6689E-03
            1523     3.54515E-03     48.5778E-03    -17.5306E+06    -64.5150E+06    -9.93850E+06     54.2808E+03    -15.4162E-03     30.8402E-03    -15.4240E-03     13.1699E-03    -15.3962E-03     30.5578E-03    -15.3547E-03     13.1686E-03
            1524     2.65884E-03     48.5671E-03    -19.2927E+06    -66.6036E+06    -14.3035E+06     44.7393E+03    -15.3982E-03     30.8071E-03    -15.4089E-03     9.80039E-03    -15.3775E-03     30.5230E-03    -15.3559E-03     9.79955E-03
            1525     1.77258E-03     48.5595E-03    -20.7599E+06    -68.6139E+06    -18.2259E+06     21.7978E+03    -15.3885E-03     30.7840E-03    -15.3955E-03     6.54967E-03    -15.3664E-03     30.4975E-03    -15.3571E-03     6.54903E-03
            1526     886.253E-06     48.5548E-03    -21.8371E+06    -69.8601E+06    -21.1092E+06    -5.18613E+03    -15.3864E-03     30.7692E-03    -15.3828E-03     3.50453E-03    -15.3636E-03     30.4822E-03    -15.3554E-03     3.50398E-03
            1527     16.8398E-03     48.2956E-03    -3.68514E+06     129.476E+06     28.8187E+06     107.311E+03    -17.0953E-03     32.4044E-03    -15.3091E-03     103.901E-03    -18.2068E-03     33.8789E-03    -15.3474E-03     104.486E-03
            1528     15.9557E-03     48.1634E-03    -4.98556E+06     74.0852E+06    -16.1464E+06    -464.436E+03    -17.6083E-03     32.7875E-03    -15.1792E-03     113.304E-03    -18.4472E-03     33.9187E-03    -15.3601E-03     113.497E-03
            1529     15.0665E-03     48.0784E-03    -3.91091E+06     30.0341E+06    -1.48346E+06     86.2188E+03    -16.6788E-03     32.0100E-03    -15.3312E-03     82.6118E-03    -16.9332E-03     32.3614E-03    -15.3764E-03     82.5916E-03
            1530     14.1799E-03     48.0147E-03    -3.68258E+06     137.286E+03     930.673E+03     520.956E+03    -16.5058E-03     31.8962E-03    -15.3904E-03     65.7956E-03    -16.6032E-03     31.9783E-03    -15.3806E-03     65.7632E-03
            1531     13.2943E-03     47.9566E-03    -3.54661E+06    -28.8044E+06    -3.05941E+06     5.37017E+03    -16.3783E-03     31.7843E-03    -15.4060E-03     60.1264E-03    -16.3973E-03     31.6973E-03    -15.3744E-03     60.0910E-03
            1532     12.4077E-03     47.9028E-03    -4.09744E+06    -36.7972E+06     2.48994E+06    -361.924E+03    -16.2048E-03     31.6457E-03    -15.4409E-03     54.7124E-03    -16.2042E-03     31.4927E-03    -15.3692E-03     54.6797E-03
            1533     11.5217E-03     47.8551E-03    -4.45872E+06    -38.6802E+06     5.10944E+06     13.0137E+03    -16.0477E-03     31.5009E-03    -15.4532E-03     49.0859E-03    -16.0387E-03     31.3239E-03    -15.3651E-03     49.0646E-03
            1534     10.6353E-03     47.8116E-03     -5.2012E+06    -47.7343E+06     4.22763E+06     201.557E+03    -15.9539E-03     31.4128E-03    -15.4589E-03     44.7726E-03    -15.9279E-03     31.1866E-03    -15.3611E-03     44.7587E-03
            1535     9.74918E-03     47.7719E-03    -6.14547E+06    -51.7775E+06     5.63536E+06     128.347E+03    -15.8591E-03     31.3281E-03    -15.4690E-03     40.6141E-03    -15.8301E-03     31.0772E-03    -15.3569E-03     40.6033E-03
            1536     8.86283E-03     47.7361E-03    -7.38909E+06    -53.1335E+06     5.18568E+06     55.4114E+03    -15.7627E-03     31.2292E-03    -15.4665E-03     36.4147E-03    -15.7348E-03     30.9714E-03    -15.3528E-03     36.4060E-03
            1537     7.97665E-03     47.7042E-03    -8.76280E+06    -56.0462E+06     4.10441E+06         67.2188    -15.6855E-03     31.1487E-03    -15.4631E-03     32.2099E-03    -15.6571E-03     30.8782E-03    -15.3486E-03     32.2027E-03
            1538     7.09034E-03     47.6761E-03    -10.2783E+06    -57.5602E+06     2.43108E+06     65.5763E+03    -15.6084E-03     31.0633E-03    -15.4549E-03     28.0909E-03    -15.5818E-03     30.7888E-03    -15.3444E-03     28.0862E-03
            1539     6.20411E-03     47.6518E-03    -11.9605E+06    -59.2507E+06     128.538E+03      87.285E+03    -15.5395E-03     30.9840E-03    -15.4445E-03     24.1065E-03    -15.5149E-03     30.7062E-03    -15.3406E-03     24.1034E-03
            1540     5.31779E-03     47.6312E-03    -13.8010E+06    -61.0093E+06    -2.54155E+06     64.4733E+03    -15.4810E-03     30.9146E-03    -15.4336E-03     20.2800E-03    -15.4587E-03     30.6341E-03    -15.3378E-03     20.2775E-03
            1541     4.43152E-03     47.6140E-03    -15.7152E+06    -62.5987E+06    -5.93066E+06     60.8419E+03    -15.4340E-03     30.8539E-03    -15.4200E-03     16.6261E-03    -15.4137E-03     30.5729E-03    -15.3361E-03     16.6243E-03
            1542     3.54520E-03     47.6001E-03    -17.6432E+06    -64.5050E+06    -10.0338E+06     33.1663E+03    -15.4004E-03     30.8048E-03    -15.4044E-03     13.1326E-03    -15.3808E-03     30.5227E-03    -15.3355E-03     13.1311E-03
            1543     2.65892E-03     47.5895E-03    -19.4190E+06    -66.5914E+06    -14.4537E+06     39.5084E+03    -15.3800E-03     30.7681E-03    -15.3881E-03     9.77225E-03    -15.3598E-03     30.4845E-03    -15.3357E-03     9.77135E-03
            1544     1.77259E-03     47.5819E-03    -20.8758E+06    -68.5654E+06    -18.4000E+06     47.5915E+03    -15.3698E-03     30.7432E-03    -15.3734E-03     6.52651E-03    -15.3482E-03     30.4574E-03    -15.3357E-03     6.52620E-03
            1545     886.327E-06     47.5773E-03    -21.8167E+06    -69.8375E+06    -21.1602E+06     33.9203E+03    -15.3477E-03     30.7245E-03    -15.3768E-03     3.48667E-03    -15.3248E-03     30.4378E-03    -15.3497E-03     3.48662E-03
            1546     16.8417E-03     47.3091E-03    -1.22249E+06     130.904E+06     31.8890E+06     220.196E+03    -17.2181E-03     32.5174E-03    -15.2993E-03     106.227E-03    -18.3400E-03     34.0072E-03    -15.3279E-03     106.839E-03
            1547     15.9535E-03     47.1936E-03    -2.09727E+06     73.3967E+06    -13.9513E+06     328.330E+03    -16.9485E-03     32.1371E-03    -15.1886E-03     115.891E-03    -17.7751E-03     33.2573E-03    -15.3618E-03     116.116E-03
            1548     15.0639E-03     47.0986E-03    -2.98778E+06     28.7035E+06    -1.05513E+06     425.256E+03    -16.6916E-03     32.0524E-03    -15.3607E-03     83.8429E-03    -16.9443E-03     32.3994E-03    -15.4033E-03     83.8282E-03
            1549     14.1802E-03     47.0358E-03    -2.89428E+06     427.310E+03     1.76098E+06     125.263E+03    -16.8723E-03     32.2825E-03    -15.4103E-03     64.3538E-03    -16.9672E-03     32.3636E-03    -15.3979E-03     64.3149E-03
            1550     13.2939E-03     46.9791E-03    -3.53686E+06    -28.3738E+06    -2.68198E+06     183.779E+03    -16.4205E-03     31.8312E-03    -15.4107E-03     60.0237E-03    -16.4404E-03     31.7456E-03    -15.3779E-03     59.9907E-03
            1551     12.4079E-03     46.9248E-03    -4.02849E+06    -36.3816E+06     2.71905E+06    -106.777E+03    -16.2172E-03     31.6604E-03    -15.4431E-03     54.7860E-03    -16.2172E-03     31.5090E-03    -15.3710E-03     54.7566E-03
            1552     11.5215E-03     46.8773E-03    -4.85298E+06    -39.3835E+06     4.81234E+06    -241.417E+03    -16.0874E-03     31.5405E-03    -15.4531E-03     49.0152E-03    -16.0788E-03     31.3609E-03    -15.3649E-03     48.9906E-03
            1553     10.6355E-03     46.8338E-03    -5.35075E+06    -47.6325E+06     4.32600E+06     81.3181E+03    -15.9897E-03     31.4456E-03    -15.4560E-03     44.7235E-03    -15.9647E-03     31.2201E-03    -15.3575E-03     44.7081E-03
            1554     9.74914E-03     46.7942E-03    -6.14525E+06    -51.7865E+06     5.58860E+06     101.617E+03    -15.8859E-03     31.3478E-03    -15.4620E-03     40.5600E-03    -15.8568E-03     31.0969E-03    -15.3500E-03     40.5488E-03
            1555     8.86300E-03     46.7583E-03    -7.27690E+06    -53.0736E+06     5.25514E+06     139.965E+03    -15.7873E-03     31.2437E-03    -15.4564E-03     36.3527E-03    -15.7590E-03     30.9859E-03    -15.3426E-03     36.3451E-03
            1556     7.97670E-03     46.7264E-03    -8.72797E+06    -55.9530E+06     4.01045E+06     77.3400E+03    -15.6960E-03     31.1451E-03    -15.4491E-03     32.1487E-03    -15.6674E-03     30.8753E-03    -15.3353E-03     32.1425E-03
            1557     7.09049E-03     46.6984E-03    -10.3001E+06    -57.7099E+06     2.37519E+06     73.4883E+03    -15.6127E-03     31.0515E-03    -15.4388E-03     28.0270E-03    -15.5860E-03     30.7765E-03    -15.3283E-03     28.0224E-03
            1558     6.20419E-03     46.6742E-03    -11.9719E+06    -59.1486E+06     172.529E+03     124.127E+03    -15.5362E-03     30.9623E-03    -15.4261E-03     24.0463E-03    -15.5119E-03     30.6850E-03    -15.3221E-03     24.0436E-03
            1559     5.31793E-03     46.6535E-03    -13.7769E+06    -61.0005E+06    -2.51999E+06     67.7987E+03    -15.4713E-03     30.8842E-03    -15.4130E-03     20.2267E-03    -15.4489E-03     30.6037E-03    -15.3172E-03     20.2243E-03
            1560     4.43160E-03     46.6364E-03    -15.6940E+06    -62.5678E+06    -5.91487E+06     57.2461E+03    -15.4189E-03     30.8165E-03    -15.3976E-03     16.5795E-03    -15.3986E-03     30.5355E-03    -15.3137E-03     16.5777E-03
            1561     3.54530E-03     46.6225E-03    -17.6395E+06    -64.4800E+06    -10.0470E+06     55.8297E+03    -15.3812E-03     30.7618E-03    -15.3806E-03     13.0921E-03    -15.3616E-03     30.4799E-03    -15.3118E-03     13.0908E-03
            1562     2.65897E-03     46.6119E-03    -19.4565E+06    -66.5845E+06    -14.4355E+06     39.2967E+03    -15.3576E-03     30.7211E-03    -15.3635E-03     9.74377E-03    -15.3375E-03     30.4374E-03    -15.3109E-03     9.74287E-03
            1563     1.77266E-03     46.6043E-03    -20.9049E+06    -68.5475E+06    -18.3818E+06     45.8702E+03    -15.3446E-03     30.6927E-03    -15.3482E-03     6.50764E-03    -15.3231E-03     30.4071E-03    -15.3104E-03     6.50731E-03
            1564     886.309E-06     46.5997E-03    -21.8887E+06    -69.7636E+06    -21.1773E+06     13.4723E+03    -15.3234E-03     30.6733E-03    -15.3499E-03     3.46886E-03    -15.3009E-03     30.3870E-03    -15.3229E-03     3.46855E-03
            1565     16.8377E-03     46.3340E-03    -1.83278E+06     128.941E+06     28.1879E+06    -280.409E+03    -16.1931E-03     31.5391E-03    -15.3460E-03     104.825E-03    -17.3097E-03     33.0252E-03    -15.3893E-03     105.440E-03
            1566     15.9500E-03     46.2152E-03    -2.63356E+06     73.9676E+06    -16.0155E+06     697.314E+03    -18.1116E-03     33.3463E-03    -15.2347E-03     115.440E-03    -18.9593E-03     34.4938E-03    -15.4183E-03     115.670E-03
            1567     15.0683E-03     46.1199E-03    -3.25165E+06     30.0735E+06    -1.02051E+06     641.629E+03    -17.6132E-03     32.9691E-03    -15.3560E-03     83.4081E-03    -17.8735E-03     33.3276E-03    -15.3999E-03     83.3894E-03
            1568     14.1800E-03     46.0582E-03    -3.23168E+06     29.7075E+03     801.767E+03     514.377E+03    -16.3064E-03     31.6987E-03    -15.3923E-03     64.0543E-03    -16.3985E-03     31.7770E-03    -15.3836E-03     64.0228E-03
            1569     13.2939E-03     46.0009E-03    -3.38799E+06    -28.1112E+06    -2.87739E+06     262.029E+03    -16.4130E-03     31.8251E-03    -15.4121E-03     59.8664E-03    -16.4322E-03     31.7408E-03    -15.3808E-03     59.8344E-03
            1570     12.4077E-03     45.9471E-03    -3.67328E+06    -36.1981E+06     2.95545E+06     131.713E+03    -16.3054E-03     31.7488E-03    -15.4434E-03     54.6666E-03    -16.3042E-03     31.5975E-03    -15.3709E-03     54.6401E-03
            1571     11.5217E-03     45.8993E-03    -4.41482E+06    -39.2618E+06     4.78405E+06    -7.42112E+03    -16.1134E-03     31.5610E-03    -15.4476E-03     48.8896E-03    -16.1028E-03     31.3815E-03    -15.3603E-03     48.8680E-03
            1572     10.6354E-03     45.8560E-03    -5.45011E+06    -48.0062E+06     3.92384E+06    -115.357E+03    -16.0197E-03     31.4669E-03    -15.4472E-03     44.6134E-03    -15.9941E-03     31.2402E-03    -15.3501E-03     44.5954E-03
            1573     9.74933E-03     45.8163E-03    -6.34787E+06    -51.6573E+06     5.33629E+06     86.4504E+03    -15.9121E-03     31.3621E-03    -15.4500E-03     40.4740E-03    -15.8839E-03     31.1125E-03    -15.3392E-03     40.4627E-03
            1574     8.86305E-03     45.7806E-03    -7.48753E+06    -53.2236E+06     5.02233E+06     93.4232E+03    -15.8039E-03     31.2454E-03    -15.4414E-03     36.2631E-03    -15.7761E-03     30.9875E-03    -15.3283E-03     36.2548E-03
            1575     7.97689E-03     45.7487E-03    -8.79814E+06    -55.8265E+06     4.09730E+06     206.381E+03    -15.7033E-03     31.1353E-03    -15.4320E-03     32.0633E-03    -15.6753E-03     30.8661E-03    -15.3178E-03     32.0588E-03
            1576     7.09060E-03     45.7207E-03    -10.3663E+06    -57.6681E+06     2.34203E+06     81.7053E+03    -15.6098E-03     31.0284E-03    -15.4186E-03     27.9539E-03    -15.5834E-03     30.7537E-03    -15.3082E-03     27.9494E-03
            1577     6.20436E-03     45.6965E-03    -11.9532E+06    -59.1824E+06     265.835E+03     35.2390E+03    -15.5275E-03     30.9318E-03    -15.4043E-03     23.9768E-03    -15.5031E-03     30.6541E-03    -15.2998E-03     23.9730E-03
            1578     5.31803E-03     45.6759E-03    -13.6968E+06    -60.9411E+06    -2.44774E+06     89.7402E+03    -15.4566E-03     30.8456E-03    -15.3890E-03     20.1680E-03    -15.4340E-03     30.5651E-03    -15.2930E-03     20.1658E-03
            1579     4.43174E-03     45.6588E-03    -15.6577E+06    -62.5888E+06    -5.87358E+06     88.8775E+03    -15.4012E-03     30.7732E-03    -15.3720E-03     16.5309E-03    -15.3808E-03     30.4920E-03    -15.2879E-03     16.5295E-03
            1580     3.54539E-03     45.6450E-03    -17.6273E+06    -64.3967E+06    -9.94479E+06     75.0196E+03    -15.3598E-03     30.7133E-03    -15.3535E-03     13.0496E-03    -15.3405E-03     30.4316E-03    -15.2843E-03     13.0486E-03
            1581     2.65906E-03     45.6343E-03    -19.4163E+06    -66.5724E+06    -14.2946E+06     21.0857E+03    -15.3307E-03     30.6662E-03    -15.3355E-03     9.71064E-03    -15.3107E-03     30.3824E-03    -15.2823E-03     9.70951E-03
            1582     1.77269E-03     45.6268E-03    -20.9276E+06    -68.5580E+06    -18.2795E+06     30.4258E+03    -15.3119E-03     30.6328E-03    -15.3209E-03     6.48510E-03    -15.2907E-03     30.3470E-03    -15.2826E-03     6.48458E-03
            1583     886.359E-06     45.6222E-03    -21.8899E+06    -69.6688E+06    -21.2016E+06     5.60269E+03    -15.3069E-03     30.6195E-03    -15.3126E-03     3.47253E-03    -15.2846E-03     30.3337E-03    -15.2859E-03     3.47212E-03
            1584     16.8387E-03     45.3628E-03    -4.63881E+06     129.094E+06     26.4954E+06     251.508E+03    -16.6649E-03     32.0194E-03    -15.3545E-03     104.050E-03    -17.7896E-03     33.5091E-03    -15.4025E-03     104.653E-03
            1585     15.9526E-03     45.2319E-03    -6.48439E+06     73.9451E+06    -17.0957E+06    -531.584E+03    -18.4907E-03     33.7163E-03    -15.2257E-03     115.650E-03    -19.3628E-03     34.8776E-03    -15.4090E-03     115.848E-03
            1586     15.0656E-03     45.1431E-03    -4.12571E+06     29.5726E+06    -1.23719E+06    -284.441E+03    -17.2394E-03     32.5859E-03    -15.3465E-03     82.7046E-03    -17.4999E-03     32.9403E-03    -15.3896E-03     82.6761E-03
            1587     14.1803E-03     45.0802E-03    -3.74937E+06     -3.2705E+03     773.987E+03     410.020E+03    -16.4338E-03     31.8219E-03    -15.3881E-03     64.4620E-03    -16.5290E-03     31.9015E-03    -15.3788E-03     64.4287E-03
            1588     13.2939E-03     45.0231E-03    -3.71125E+06    -27.6099E+06    -2.73691E+06     325.585E+03    -16.4221E-03     31.8251E-03    -15.4030E-03     59.6344E-03    -16.4436E-03     31.7434E-03    -15.3713E-03     59.6032E-03
            1589     12.4080E-03     44.9688E-03    -3.86772E+06    -36.2647E+06     2.66607E+06     24.6905E+03    -16.2858E-03     31.7178E-03    -15.4320E-03     54.4369E-03    -16.2849E-03     31.5668E-03    -15.3605E-03     54.4091E-03
            1590     11.5217E-03     44.9216E-03    -4.35896E+06    -39.1643E+06     4.90013E+06     111.332E+03    -16.1288E-03     31.5653E-03    -15.4365E-03     48.7559E-03    -16.1182E-03     31.3860E-03    -15.3489E-03     48.7358E-03
            1591     10.6356E-03     44.8780E-03    -5.16405E+06    -48.0159E+06     4.13159E+06     168.728E+03    -16.0358E-03     31.4697E-03    -15.4340E-03     44.4915E-03    -16.0090E-03     31.2422E-03    -15.3362E-03     44.4772E-03
            1592     9.74943E-03     44.8386E-03    -6.29444E+06    -51.7074E+06     5.39783E+06     45.3152E+03    -15.9249E-03     31.3585E-03    -15.4336E-03     40.3612E-03    -15.8964E-03     31.1084E-03    -15.3226E-03     40.3492E-03
            1593     8.86329E-03     44.8027E-03    -7.42715E+06    -53.2201E+06     5.11910E+06     89.6706E+03    -15.8077E-03     31.2302E-03    -15.4225E-03     36.1621E-03    -15.7797E-03     30.9721E-03    -15.3090E-03     36.1538E-03
            1594     7.97703E-03     44.7710E-03    -8.73327E+06    -55.9689E+06     4.20475E+06     139.130E+03    -15.7011E-03     31.1121E-03    -15.4110E-03     31.9759E-03    -15.6728E-03     30.8419E-03    -15.2961E-03     31.9705E-03
            1595     7.09080E-03     44.7430E-03    -10.1811E+06    -57.3674E+06     2.54930E+06     147.231E+03    -15.6018E-03     30.9968E-03    -15.3950E-03     27.8749E-03    -15.5752E-03     30.7230E-03    -15.2843E-03     27.8714E-03
            1596     6.20449E-03     44.7189E-03    -11.9458E+06    -59.2600E+06     254.435E+03    -5.31357E+03    -15.5136E-03     30.8921E-03    -15.3785E-03     23.9041E-03    -15.4891E-03     30.6140E-03    -15.2740E-03     23.8998E-03
            1597     5.31820E-03     44.6983E-03    -13.7874E+06    -61.0003E+06    -2.39202E+06     77.9942E+03    -15.4386E-03     30.8004E-03    -15.3618E-03     20.1007E-03    -15.4164E-03     30.5197E-03    -15.2654E-03     20.0984E-03
            1598     4.43184E-03     44.6812E-03    -15.6880E+06    -62.5074E+06    -5.74530E+06     98.7438E+03    -15.3768E-03     30.7202E-03    -15.3435E-03     16.4747E-03    -15.3568E-03     30.4393E-03    -15.2588E-03     16.4734E-03
            1599     3.54551E-03     44.6675E-03    -17.5784E+06    -64.3383E+06    -9.79389E+06     9.03398E+03    -15.3324E-03     30.6564E-03    -15.3241E-03     13.0090E-03    -15.3131E-03     30.3748E-03    -15.2543E-03     13.0072E-03
            1600     2.65913E-03     44.6569E-03    -19.3751E+06    -66.5648E+06    -14.1836E+06     12.3227E+03    -15.3008E-03     30.6063E-03    -15.3055E-03     9.68032E-03    -15.2808E-03     30.3223E-03    -15.2518E-03     9.67908E-03
            1601     1.77276E-03     44.6493E-03    -20.8730E+06    -68.5285E+06    -18.2016E+06    -14.3934E+03    -15.2820E-03     30.5723E-03    -15.2903E-03     6.46751E-03    -15.2607E-03     30.2864E-03    -15.2517E-03     6.46642E-03
            1602     886.358E-06     44.6448E-03    -21.8553E+06    -69.6906E+06    -21.1278E+06     1.52286E+03    -15.2856E-03     30.5577E-03    -15.2721E-03     3.46791E-03    -15.2632E-03     30.2717E-03    -15.2450E-03     3.46745E-03
            1603     16.8379E-03     44.3791E-03    -2.18336E+06     131.164E+06     29.9404E+06     1.07451E+06    -17.2237E-03     32.5606E-03    -15.3369E-03     104.614E-03    -18.3471E-03     34.0552E-03    -15.3743E-03     105.225E-03
            1604     15.9536E-03     44.2572E-03    -1.74223E+06     73.8318E+06    -15.4095E+06       569.4E+03    -18.0390E-03     33.2360E-03    -15.1970E-03     115.900E-03    -18.8841E-03     34.3817E-03    -15.3786E-03     116.114E-03
            1605     15.0663E-03     44.1640E-03    -2.91093E+06     28.1422E+06    -1.11578E+06    -394.507E+03    -17.0042E-03     32.3407E-03    -15.3365E-03     82.4796E-03    -17.2550E-03     32.6843E-03    -15.3787E-03     82.4513E-03
            1606     14.1802E-03     44.1022E-03    -3.45322E+06     132.137E+03     1.30305E+06    -249.271E+03    -16.6525E-03     32.0305E-03    -15.3781E-03     63.7000E-03    -16.7475E-03     32.1100E-03    -15.3667E-03     63.6572E-03
            1607     13.2946E-03     44.0450E-03    -3.29729E+06    -27.8917E+06    -2.39160E+06     178.936E+03    -16.4014E-03     31.7857E-03    -15.3844E-03     59.4811E-03    -16.4207E-03     31.7013E-03    -15.3511E-03     59.4481E-03
            1608     12.4081E-03     43.9912E-03    -3.64124E+06    -35.6366E+06     3.00533E+06     184.416E+03    -16.2290E-03     31.6426E-03    -15.4136E-03     54.4219E-03    -16.2283E-03     31.4938E-03    -15.3416E-03     54.3963E-03
            1609     11.5220E-03     43.9434E-03    -4.39647E+06    -39.6628E+06     4.93269E+06    -7.10856E+03    -16.1252E-03     31.5444E-03    -15.4192E-03     48.6522E-03    -16.1140E-03     31.3625E-03    -15.3307E-03     48.6306E-03
            1610     10.6358E-03     43.9004E-03    -5.03367E+06    -47.8341E+06     4.51986E+06     243.243E+03    -16.0403E-03     31.4558E-03    -15.4155E-03     44.3803E-03    -16.0138E-03     31.2284E-03    -15.3162E-03     44.3669E-03
            1611     9.74969E-03     43.8606E-03    -5.88331E+06    -51.6240E+06     5.79193E+06     150.685E+03    -15.9201E-03     31.3330E-03    -15.4129E-03     40.2630E-03    -15.8902E-03     31.0822E-03    -15.3006E-03     40.2525E-03
            1612     8.86346E-03     43.8251E-03    -7.12426E+06    -53.2563E+06     5.35888E+06     84.7887E+03    -15.8015E-03     31.2012E-03    -15.3997E-03     36.0660E-03    -15.7723E-03     30.9420E-03    -15.2853E-03     36.0577E-03
            1613     7.97725E-03     43.7932E-03    -8.43525E+06    -55.9876E+06     4.36894E+06     92.4591E+03    -15.6933E-03     31.0791E-03    -15.3858E-03     31.8856E-03    -15.6636E-03     30.8081E-03    -15.2706E-03     31.8796E-03
            1614     7.09098E-03     43.7654E-03    -9.89006E+06    -57.3177E+06     2.75321E+06     94.9508E+03    -15.5886E-03     30.9566E-03    -15.3681E-03     27.7849E-03    -15.5609E-03     30.6824E-03    -15.2568E-03     27.7807E-03
            1615     6.20469E-03     43.7413E-03    -11.5360E+06    -59.1888E+06     682.780E+03     160.616E+03    -15.4975E-03     30.8482E-03    -15.3506E-03     23.8210E-03    -15.4717E-03     30.5692E-03    -15.2446E-03     23.8189E-03
            1616     5.31835E-03     43.7208E-03    -13.5248E+06    -61.0910E+06    -2.01152E+06     123.061E+03    -15.4181E-03     30.7504E-03    -15.3324E-03     20.0271E-03    -15.3950E-03     30.4684E-03    -15.2342E-03     20.0254E-03
            1617     4.43201E-03     43.7037E-03    -15.5148E+06    -62.3067E+06    -5.47706E+06     38.2794E+03    -15.3499E-03     30.6616E-03    -15.3116E-03     16.4127E-03    -15.3298E-03     30.3810E-03    -15.2262E-03     16.4106E-03
            1618     3.54561E-03     43.6900E-03    -17.4883E+06    -64.3770E+06    -9.65837E+06    -20.8402E+03    -15.3006E-03     30.5918E-03    -15.2912E-03     12.9536E-03    -15.2810E-03     30.3096E-03    -15.2208E-03     12.9514E-03
            1619     2.65922E-03     43.6795E-03    -19.3227E+06    -66.5324E+06    -14.1310E+06    -17.5747E+03    -15.2698E-03     30.5412E-03    -15.2714E-03     9.63172E-03    -15.2496E-03     30.2572E-03    -15.2176E-03     9.63012E-03
            1620     1.77281E-03     43.6720E-03    -20.8280E+06    -68.5265E+06    -18.1803E+06    -43.8343E+03    -15.2519E-03     30.5060E-03    -15.2540E-03     6.43509E-03    -15.2304E-03     30.2200E-03    -15.2154E-03     6.43362E-03
            1621     886.426E-06     43.6674E-03    -21.8976E+06    -69.7567E+06    -21.1363E+06    -7.28443E+03    -15.2592E-03     30.4820E-03    -15.2228E-03     3.45656E-03    -15.2369E-03     30.1957E-03    -15.1956E-03     3.45599E-03
            1622     16.8414E-03     43.4036E-03    -3.29855E+06     129.897E+06     28.1208E+06    -96.1816E+03    -17.0303E-03     32.3328E-03    -15.3025E-03     104.478E-03    -18.1462E-03     33.8166E-03    -15.3454E-03     105.074E-03
            1623     15.9518E-03     43.2783E-03    -2.93781E+06     74.2834E+06    -16.9518E+06     882.132E+03    -17.9055E-03     33.0744E-03    -15.1689E-03     116.029E-03    -18.7515E-03     34.2229E-03    -15.3572E-03     116.253E-03
            1624     15.0670E-03     43.1862E-03    -1.95276E+06     29.1747E+06    -1.16213E+06     529.127E+03    -17.1787E-03     32.4885E-03    -15.3098E-03     82.6888E-03    -17.4267E-03     32.8364E-03    -15.3551E-03     82.6711E-03
            1625     14.1810E-03     43.1238E-03    -2.61045E+06    -281.670E+03     1.25826E+06    -128.572E+03    -16.4357E-03     31.7901E-03    -15.3544E-03     63.6889E-03    -16.5250E-03     31.8654E-03    -15.3439E-03     63.6485E-03
            1626     13.2944E-03     43.0675E-03    -2.94894E+06    -28.2249E+06    -2.55184E+06     75.0021E+03    -16.3961E-03     31.7628E-03    -15.3667E-03     59.5446E-03    -16.4131E-03     31.6765E-03    -15.3342E-03     59.5103E-03
            1627     12.4084E-03     43.0131E-03    -3.19807E+06    -35.6036E+06     3.56409E+06     384.474E+03    -16.2768E-03     31.6731E-03    -15.3962E-03     54.4632E-03    -16.2747E-03     31.5229E-03    -15.3222E-03     54.4402E-03
            1628     11.5223E-03     42.9658E-03    -4.01467E+06    -39.2481E+06     5.19146E+06     284.437E+03    -16.1174E-03     31.5145E-03    -15.3971E-03     48.6136E-03    -16.1052E-03     31.3337E-03    -15.3084E-03     48.5958E-03
            1629     10.6361E-03     42.9223E-03    -4.90603E+06    -48.1746E+06     4.33544E+06     9.21019E+03    -16.0357E-03     31.4269E-03    -15.3912E-03     44.3163E-03    -16.0076E-03     31.1978E-03    -15.2926E-03     44.3000E-03
            1630     9.74993E-03     42.8830E-03    -5.74330E+06    -51.4201E+06     5.95135E+06     233.521E+03    -15.9157E-03     31.3035E-03    -15.3878E-03     40.1677E-03    -15.8856E-03     31.0532E-03    -15.2751E-03     40.1583E-03
            1631     8.86371E-03     42.8472E-03    -6.92480E+06    -53.2559E+06     5.44382E+06      138.81E+03    -15.7943E-03     31.1666E-03    -15.3723E-03     35.9719E-03    -15.7642E-03     30.9070E-03    -15.2578E-03     35.9644E-03
            1632     7.97749E-03     42.8157E-03    -8.31298E+06    -55.9354E+06     4.52444E+06     97.1646E+03    -15.6828E-03     31.0394E-03    -15.3566E-03     31.7748E-03    -15.6528E-03     30.7682E-03    -15.2408E-03     31.7690E-03
            1633     7.09121E-03     42.7878E-03    -9.87077E+06    -57.3484E+06     2.80079E+06     98.2380E+03    -15.5707E-03     30.9071E-03    -15.3365E-03     27.6829E-03    -15.5429E-03     30.6326E-03    -15.2250E-03     27.6787E-03
            1634     6.20489E-03     42.7638E-03    -11.5742E+06    -59.2676E+06     759.558E+03     173.735E+03    -15.4745E-03     30.7920E-03    -15.3175E-03     23.7232E-03    -15.4489E-03     30.5127E-03    -15.2110E-03     23.7212E-03
            1635     5.31855E-03     42.7433E-03    -13.3228E+06    -60.9128E+06    -1.79029E+06     179.014E+03    -15.3908E-03     30.6884E-03    -15.2977E-03     19.9396E-03    -15.3673E-03     30.4066E-03    -15.1990E-03     19.9387E-03
            1636     4.43215E-03     42.7263E-03    -15.3340E+06    -62.2400E+06    -5.32377E+06     69.4460E+03    -15.3213E-03     30.5966E-03    -15.2753E-03     16.3360E-03    -15.3005E-03     30.3158E-03    -15.1894E-03     16.3344E-03
            1637     3.54576E-03     42.7126E-03    -17.4086E+06    -64.3414E+06    -9.55218E+06     48.4448E+03    -15.2693E-03     30.5224E-03    -15.2531E-03     12.8905E-03    -15.2495E-03     30.2401E-03    -15.1823E-03     12.8892E-03
            1638     2.65933E-03     42.7021E-03    -19.3295E+06    -66.5023E+06    -14.1523E+06    -8.92228E+03    -15.2342E-03     30.4652E-03    -15.2310E-03     9.58659E-03    -15.2140E-03     30.1814E-03    -15.1773E-03     9.58510E-03
            1639     1.77291E-03     42.6946E-03    -20.9005E+06    -68.5539E+06    -18.2793E+06    -16.3203E+03    -15.2128E-03     30.4247E-03    -15.2118E-03     6.40391E-03    -15.1915E-03     30.1388E-03    -15.1735E-03     6.40280E-03
            1640     886.437E-06     42.6901E-03    -21.9566E+06    -69.7959E+06    -21.2100E+06        -646.863    -15.2086E-03     30.3964E-03    -15.1878E-03     3.44948E-03    -15.1864E-03     30.1101E-03    -15.1608E-03     3.44900E-03
            1641     16.8384E-03     42.4264E-03    -3.91903E+06     129.850E+06     27.6062E+06     301.188E+03    -17.3674E-03     32.6748E-03    -15.3074E-03     105.141E-03    -18.4961E-03     34.1705E-03    -15.3520E-03     105.738E-03
            1642     15.9544E-03     42.3006E-03    -5.11103E+06     74.8448E+06    -15.7698E+06    -623.652E+03    -18.3799E-03     33.5428E-03    -15.1630E-03     116.520E-03    -19.2472E-03     34.7035E-03    -15.3429E-03     116.717E-03
            1643     15.0672E-03     42.2078E-03    -3.87819E+06     29.0329E+06    -989.180E+03    -299.040E+03    -16.9237E-03     32.2165E-03    -15.2928E-03     82.5996E-03    -17.1787E-03     32.5636E-03    -15.3342E-03     82.5726E-03
            1644     14.1806E-03     42.1465E-03    -3.02277E+06    -668.471E+03     1.04005E+06     248.329E+03    -16.3635E-03     31.7056E-03    -15.3421E-03     63.8582E-03    -16.4536E-03     31.7796E-03    -15.3315E-03     63.8231E-03
            1645     13.2948E-03     42.0892E-03    -3.32045E+06    -28.2364E+06    -2.62849E+06     185.843E+03    -16.4810E-03     31.8341E-03    -15.3531E-03     59.4805E-03    -16.4998E-03     31.7485E-03    -15.3205E-03     59.4474E-03
            1646     12.4087E-03     42.0354E-03    -3.65890E+06    -35.8249E+06     3.24495E+06     241.102E+03    -16.3127E-03     31.6891E-03    -15.3763E-03     54.3627E-03    -16.3120E-03     31.5388E-03    -15.3029E-03     54.3379E-03
            1647     11.5225E-03     41.9878E-03    -3.98549E+06    -38.8929E+06     5.37503E+06     330.127E+03    -16.1310E-03     31.5056E-03    -15.3746E-03     48.5938E-03    -16.1194E-03     31.3262E-03    -15.2856E-03     48.5767E-03
            1648     10.6364E-03     41.9446E-03    -4.74706E+06    -48.0682E+06     4.34734E+06     182.645E+03    -16.0421E-03     31.4074E-03    -15.3652E-03     44.2350E-03    -16.0134E-03     31.1785E-03    -15.2669E-03     44.2209E-03
            1649     9.75019E-03     41.9051E-03    -5.82264E+06    -51.6771E+06     5.84276E+06     137.832E+03    -15.9186E-03     31.2777E-03    -15.3592E-03     40.0670E-03    -15.8883E-03     31.0264E-03    -15.2466E-03     40.0564E-03
            1650     8.86401E-03     41.8697E-03    -6.96763E+06    -53.0040E+06     5.47757E+06     267.150E+03    -15.7899E-03     31.1304E-03    -15.3405E-03     35.8568E-03    -15.7604E-03     30.8721E-03    -15.2262E-03     35.8509E-03
            1651     7.97775E-03     41.8379E-03    -8.39599E+06    -55.9404E+06     4.43689E+06     125.887E+03    -15.6668E-03     30.9889E-03    -15.3221E-03     31.6621E-03    -15.6371E-03     30.7179E-03    -15.2066E-03     31.6567E-03
            1652     7.09148E-03     41.8103E-03    -9.99024E+06    -57.4122E+06     2.83655E+06     212.480E+03    -15.5522E-03     30.8525E-03    -15.3003E-03     27.5687E-03    -15.5249E-03     30.5777E-03    -15.1884E-03     27.5660E-03
            1653     6.20513E-03     41.7862E-03    -11.7425E+06    -59.1648E+06     523.296E+03     157.410E+03    -15.4480E-03     30.7255E-03    -15.2775E-03     23.6184E-03    -15.4230E-03     30.4473E-03    -15.1721E-03     23.6163E-03
            1654     5.31876E-03     41.7659E-03    -13.5594E+06    -60.8580E+06    -2.01305E+06     50.8003E+03    -15.3598E-03     30.6157E-03    -15.2559E-03     19.8402E-03    -15.3373E-03     30.3348E-03    -15.1581E-03     19.8376E-03
            1655     4.43236E-03     41.7490E-03    -15.4195E+06    -62.2211E+06    -5.38682E+06     128.666E+03    -15.2860E-03     30.5183E-03    -15.2323E-03     16.2449E-03    -15.2656E-03     30.2379E-03    -15.1466E-03     16.2440E-03
            1656     3.54590E-03     41.7354E-03    -17.4016E+06    -64.2654E+06    -9.60693E+06     101.780E+03    -15.2304E-03     30.4387E-03    -15.2083E-03     12.8145E-03    -15.2106E-03     30.1568E-03    -15.1379E-03     12.8139E-03
            1657     2.65945E-03     41.7248E-03    -19.2655E+06    -66.4566E+06    -14.1212E+06     73.8350E+03    -15.1900E-03     30.3756E-03    -15.1856E-03     9.53414E-03    -15.1696E-03     30.0919E-03    -15.1320E-03     9.53373E-03
            1658     1.77296E-03     41.7174E-03    -20.8688E+06    -68.5487E+06    -18.2738E+06     61.4748E+03    -15.1666E-03     30.3331E-03    -15.1665E-03     6.36982E-03    -15.1451E-03     30.0472E-03    -15.1282E-03     6.36972E-03
            1659     886.501E-06     41.7128E-03    -21.9650E+06    -69.7576E+06    -21.2582E+06     36.7137E+03    -15.1488E-03     30.3060E-03    -15.1572E-03     3.42524E-03    -15.1266E-03     30.0200E-03    -15.1305E-03     3.42525E-03
            1660     16.8390E-03     41.4462E-03    -2.40599E+06     130.525E+06     29.4611E+06     352.540E+03    -17.6660E-03     32.9842E-03    -15.3181E-03     104.605E-03    -18.7954E-03     34.4829E-03    -15.3566E-03     105.195E-03
            1661     15.9530E-03     41.3217E-03    -958.156E+03     74.7275E+06    -14.8306E+06    -88.1700E+03    -18.5122E-03     33.6645E-03    -15.1523E-03     115.524E-03    -19.3615E-03     34.8186E-03    -15.3334E-03     115.724E-03
            1662     15.0675E-03     41.2310E-03    -1.86688E+06     28.6274E+06     11.5673E+03     36.1617E+03    -16.9105E-03     32.1914E-03    -15.2808E-03     82.5229E-03    -17.1553E-03     32.5311E-03    -15.3196E-03     82.5003E-03
            1663     14.1810E-03     41.1681E-03    -3.45229E+06    -418.993E+03     1.10540E+06     80.9044E+03    -16.4104E-03     31.7365E-03    -15.3261E-03     63.8634E-03    -16.5034E-03     31.8126E-03    -15.3149E-03     63.8259E-03
            1664     13.2950E-03     41.1114E-03    -3.28331E+06    -28.4619E+06    -2.85160E+06     246.680E+03    -16.4758E-03     31.8088E-03    -15.3330E-03     59.3099E-03    -16.4935E-03     31.7221E-03    -15.3012E-03     59.2775E-03
            1665     12.4089E-03     41.0575E-03    -3.59210E+06    -35.6615E+06     3.18298E+06     288.435E+03    -16.3192E-03     31.6740E-03    -15.3548E-03     54.2927E-03    -16.3182E-03     31.5244E-03    -15.2820E-03     54.2685E-03
            1666     11.5228E-03     41.0100E-03    -4.31817E+06    -38.9939E+06     5.16622E+06     125.687E+03    -16.1610E-03     31.5110E-03    -15.3500E-03     48.5199E-03    -16.1505E-03     31.3318E-03    -15.2614E-03     48.5002E-03
            1667     10.6367E-03     40.9668E-03    -4.95329E+06    -47.9035E+06     4.28333E+06     256.232E+03    -16.0565E-03     31.3932E-03    -15.3367E-03     44.1332E-03    -16.0289E-03     31.1655E-03    -15.2387E-03     44.1201E-03
            1668     9.75052E-03     40.9275E-03    -5.87506E+06    -51.7527E+06     5.77694E+06     244.188E+03    -15.9240E-03     31.2510E-03    -15.3270E-03     39.9593E-03    -15.8937E-03     30.9994E-03    -15.2146E-03     39.9502E-03
            1669     8.86431E-03     40.8919E-03    -7.11280E+06    -52.9771E+06     5.41213E+06     230.374E+03    -15.7829E-03     31.0879E-03    -15.3050E-03     35.7370E-03    -15.7540E-03     30.8300E-03    -15.1908E-03     35.7308E-03
            1670     7.97807E-03     40.8605E-03    -8.45800E+06    -55.7913E+06     4.43208E+06     253.313E+03    -15.6545E-03     30.9380E-03    -15.2834E-03     31.5415E-03    -15.6253E-03     30.6678E-03    -15.1681E-03     31.5378E-03
            1671     7.09175E-03     40.8327E-03    -9.98814E+06    -57.5233E+06     2.80383E+06     181.562E+03    -15.5333E-03     30.7920E-03    -15.2587E-03     27.4450E-03    -15.5058E-03     30.5167E-03    -15.1468E-03     27.4420E-03
            1672     6.20542E-03     40.8089E-03    -11.5814E+06    -58.9426E+06     661.272E+03     190.634E+03    -15.4244E-03     30.6573E-03    -15.2330E-03     23.4960E-03    -15.3990E-03     30.3797E-03    -15.1274E-03     23.4943E-03
            1673     5.31901E-03     40.7885E-03    -13.4919E+06    -60.8221E+06    -2.09469E+06     94.5257E+03    -15.3276E-03     30.5354E-03    -15.2077E-03     19.7266E-03    -15.3047E-03     30.2547E-03    -15.1105E-03     19.7246E-03
            1674     4.43257E-03     40.7717E-03    -15.5321E+06    -62.2802E+06    -5.54537E+06     67.9764E+03    -15.2469E-03     30.4284E-03    -15.1816E-03     16.1448E-03    -15.2267E-03     30.1481E-03    -15.0965E-03     16.1432E-03
            1675     3.54610E-03     40.7581E-03    -17.4611E+06    -64.1862E+06    -9.76944E+06     130.458E+03    -15.1855E-03     30.3405E-03    -15.1550E-03     12.7240E-03    -15.1659E-03     30.0594E-03    -15.0855E-03     12.7238E-03
            1676     2.65959E-03     40.7477E-03    -19.2800E+06    -66.4343E+06    -14.2348E+06     115.307E+03    -15.1408E-03     30.2715E-03    -15.1306E-03     9.45257E-03    -15.1204E-03     29.9881E-03    -15.0775E-03     9.45271E-03
            1677     1.77307E-03     40.7402E-03    -20.7749E+06    -68.4824E+06    -18.1963E+06     130.820E+03    -15.1099E-03     30.2217E-03    -15.1118E-03     6.31241E-03    -15.0881E-03     29.9358E-03    -15.0733E-03     6.31322E-03
            1678     886.522E-06     40.7358E-03    -21.7940E+06    -69.6037E+06    -21.0757E+06     68.1549E+03    -15.0850E-03     30.1979E-03    -15.1128E-03     3.40284E-03    -15.0625E-03     29.9121E-03    -15.0857E-03     3.40325E-03
            1679     16.8403E-03     40.4678E-03    -2.18534E+06     130.341E+06     28.7877E+06    -532.898E+03    -17.5071E-03     32.8006E-03    -15.2935E-03     105.159E-03    -18.6318E-03     34.2967E-03    -15.3353E-03     105.740E-03
            1680     15.9542E-03     40.3439E-03    -3.17643E+06     73.2906E+06    -18.0452E+06     156.705E+03    -18.2404E-03     33.3711E-03    -15.1307E-03     115.005E-03    -19.0851E-03     34.5170E-03    -15.3226E-03     115.210E-03
            1681     15.0675E-03     40.2528E-03    -2.83564E+06     28.9792E+06    -1.52690E+06     655.891E+03    -17.0674E-03     32.3320E-03    -15.2646E-03     82.5380E-03    -17.3159E-03     32.6778E-03    -15.3101E-03     82.5226E-03
            1682     14.1816E-03     40.1903E-03    -2.54516E+06    -44.2955E+03     1.39039E+06     268.387E+03    -16.4933E-03     31.8016E-03    -15.3084E-03     64.0961E-03    -16.5828E-03     31.8779E-03    -15.2977E-03     64.0606E-03
            1683     13.2953E-03     40.1335E-03    -3.13718E+06    -28.8460E+06    -2.93885E+06     283.222E+03    -16.4647E-03     31.7773E-03    -15.3127E-03     59.3771E-03    -16.4807E-03     31.6884E-03    -15.2810E-03     59.3454E-03
            1684     12.4092E-03     40.0795E-03    -3.42234E+06    -35.5151E+06     3.57455E+06     464.754E+03    -16.3636E-03     31.6971E-03    -15.3334E-03     54.2206E-03    -16.3625E-03     31.5473E-03    -15.2591E-03     54.1986E-03
            1685     11.5231E-03     40.0322E-03    -4.24368E+06    -38.7385E+06     5.27425E+06     306.964E+03    -16.1811E-03     31.5039E-03    -15.3228E-03     48.3960E-03    -16.1707E-03     31.3257E-03    -15.2341E-03     48.3787E-03
            1686     10.6370E-03     39.9890E-03    -5.16693E+06    -48.0169E+06     4.09410E+06     97.6040E+03    -16.0650E-03     31.3702E-03    -15.3053E-03     44.0395E-03    -16.0379E-03     31.1425E-03    -15.2077E-03     44.0245E-03
            1687     9.75086E-03     39.9497E-03    -5.93792E+06    -51.7579E+06     5.80234E+06      250.06E+03    -15.9292E-03     31.2218E-03    -15.2926E-03     39.8407E-03    -15.8992E-03     30.9702E-03    -15.1799E-03     39.8317E-03
            1688     8.86465E-03     39.9144E-03    -7.06228E+06    -52.9250E+06     5.50049E+06     262.360E+03    -15.7825E-03     31.0493E-03    -15.2667E-03     35.6131E-03    -15.7536E-03     30.7914E-03    -15.1522E-03     35.6073E-03
            1689     7.97840E-03     39.8829E-03    -8.41141E+06    -55.7643E+06     4.47605E+06     232.472E+03    -15.6497E-03     30.8903E-03    -15.2407E-03     31.4027E-03    -15.6202E-03     30.6201E-03    -15.1252E-03     31.3988E-03
            1690     7.09211E-03     39.8554E-03    -9.91101E+06    -57.3957E+06     2.80835E+06     210.768E+03    -15.5189E-03     30.7300E-03    -15.2112E-03     27.3030E-03    -15.4912E-03     30.4552E-03    -15.0995E-03     27.3004E-03
            1691     6.20573E-03     39.8315E-03    -11.6669E+06    -58.9874E+06     508.983E+03     173.988E+03    -15.3993E-03     30.5802E-03    -15.1809E-03     23.3545E-03    -15.3741E-03     30.3027E-03    -15.0759E-03     23.3526E-03
            1692     5.31931E-03     39.8113E-03    -13.4862E+06    -60.6633E+06    -2.19112E+06     225.658E+03    -15.2952E-03     30.4467E-03    -15.1515E-03     19.5889E-03    -15.2723E-03     30.1669E-03    -15.0549E-03     19.5887E-03
            1693     4.43283E-03     39.7945E-03    -15.5068E+06    -62.2803E+06    -5.70164E+06     153.145E+03    -15.2045E-03     30.3260E-03    -15.1214E-03     16.0165E-03    -15.1840E-03     30.0458E-03    -15.0371E-03     16.0160E-03
            1694     3.54631E-03     39.7810E-03    -17.5653E+06    -64.1681E+06    -9.90493E+06     133.620E+03    -15.1347E-03     30.2265E-03    -15.0917E-03     12.6194E-03    -15.1154E-03     29.9457E-03    -15.0228E-03     12.6193E-03
            1695     2.65977E-03     39.7706E-03    -19.3787E+06    -66.3541E+06    -14.3588E+06     151.995E+03    -15.0860E-03     30.1496E-03    -15.0636E-03     9.36918E-03    -15.0660E-03     29.8669E-03    -15.0111E-03     9.36980E-03
            1696     1.77320E-03     39.7633E-03    -20.8421E+06    -68.3945E+06    -18.2669E+06     87.3986E+03    -15.0497E-03     30.0896E-03    -15.0399E-03     6.24487E-03    -15.0283E-03     29.8044E-03    -15.0019E-03     6.24512E-03
            1697     886.596E-06     39.7587E-03    -21.8121E+06    -69.4684E+06    -21.0994E+06     79.6098E+03    -15.0179E-03     30.0484E-03    -15.0305E-03     3.35308E-03    -14.9957E-03     29.7634E-03    -15.0036E-03     3.35365E-03
            1698     16.8393E-03     39.4886E-03    -3.19040E+06     130.237E+06     27.9679E+06     13.6019E+03    -17.1876E-03     32.4856E-03    -15.2980E-03     106.153E-03    -18.3171E-03     33.9850E-03    -15.3424E-03     106.751E-03
            1699     15.9533E-03     39.3662E-03    -4.93641E+06     73.3568E+06    -17.3828E+06     403.962E+03    -18.4161E-03     33.5657E-03    -15.1496E-03     115.660E-03    -19.2680E-03     34.7110E-03    -15.3358E-03     115.867E-03
            1700     15.0676E-03     39.2746E-03    -4.24510E+06     28.7847E+06    -1.89270E+06    -333.522E+03    -17.3807E-03     32.6462E-03    -15.2655E-03     82.6085E-03    -17.6362E-03     32.9943E-03    -15.3105E-03     82.5776E-03
            1701     14.1813E-03     39.2124E-03    -3.29912E+06    -380.724E+03     1.08907E+06     76.4799E+03    -16.5941E-03     31.8899E-03    -15.2958E-03     63.8526E-03    -16.6856E-03     31.9652E-03    -15.2850E-03     63.8144E-03
            1702     13.2955E-03     39.1555E-03    -3.19836E+06    -28.8846E+06    -2.63375E+06     440.935E+03    -16.5419E-03     31.8365E-03    -15.2946E-03     59.3590E-03    -16.5587E-03     31.7470E-03    -15.2612E-03     59.3292E-03
            1703     12.4095E-03     39.1016E-03    -3.58730E+06    -35.5645E+06     3.62869E+06     401.384E+03    -16.4030E-03     31.7115E-03    -15.3085E-03     54.1023E-03    -16.4025E-03     31.5615E-03    -15.2336E-03     54.0795E-03
            1704     11.5235E-03     39.0544E-03    -4.10548E+06    -38.4471E+06     5.60389E+06     418.829E+03    -16.1899E-03     31.4842E-03    -15.2943E-03     48.2957E-03    -16.1796E-03     31.3066E-03    -15.2046E-03     48.2798E-03
            1705     10.6374E-03     39.0112E-03    -4.91081E+06    -47.8252E+06     4.39841E+06     233.572E+03    -16.0771E-03     31.3502E-03    -15.2731E-03     43.9416E-03    -16.0494E-03     31.1225E-03    -15.1746E-03     43.9284E-03
            1706     9.75120E-03     38.9721E-03    -5.96823E+06    -51.9428E+06     5.73266E+06     99.5698E+03    -15.9427E-03     31.1978E-03    -15.2552E-03     39.7146E-03    -15.9124E-03     30.9453E-03    -15.1425E-03     39.7037E-03
            1707     8.86504E-03     38.9368E-03    -7.01942E+06    -52.8995E+06     5.52418E+06     264.810E+03    -15.7951E-03     31.0191E-03    -15.2240E-03     35.4568E-03    -15.7659E-03     30.7612E-03    -15.1095E-03     35.4512E-03
            1708     7.97878E-03     38.9055E-03    -8.35309E+06    -55.6740E+06     4.34516E+06     248.779E+03    -15.6507E-03     30.8420E-03    -15.1913E-03     31.2363E-03    -15.6209E-03     30.5723E-03    -15.0768E-03     31.2327E-03
            1709     7.09248E-03     38.8779E-03    -9.90444E+06    -57.4131E+06     2.65335E+06     260.067E+03    -15.5092E-03     30.6653E-03    -15.1561E-03     27.1251E-03    -15.4812E-03     30.3906E-03    -15.0452E-03     27.1233E-03
            1710     6.20610E-03     38.8543E-03    -11.6222E+06    -58.9142E+06     334.379E+03     312.467E+03    -15.3774E-03     30.4972E-03    -15.1198E-03     23.1807E-03    -15.3518E-03     30.2202E-03    -15.0159E-03     23.1807E-03
            1711     5.31965E-03     38.8341E-03    -13.5597E+06    -60.6549E+06    -2.40627E+06     269.891E+03    -15.2615E-03     30.3462E-03    -15.0848E-03     19.4204E-03    -15.2386E-03     30.0669E-03    -14.9892E-03     19.4207E-03
            1712     4.43315E-03     38.8175E-03    -15.5210E+06    -62.1222E+06    -5.79592E+06     288.519E+03    -15.1595E-03     30.2089E-03    -15.0494E-03     15.8582E-03    -15.1391E-03     29.9297E-03    -14.9658E-03     15.8595E-03
            1713     3.54659E-03     38.8040E-03    -17.5359E+06    -64.1366E+06    -9.87089E+06     221.661E+03    -15.0751E-03     30.0906E-03    -15.0155E-03     12.4798E-03    -15.0558E-03     29.8100E-03    -14.9465E-03     12.4808E-03
            1714     2.65997E-03     38.7937E-03    -19.4370E+06    -66.2194E+06    -14.3248E+06     167.257E+03    -15.0136E-03     29.9974E-03    -14.9837E-03     9.26161E-03    -14.9942E-03     29.7154E-03    -14.9312E-03     9.26244E-03
            1715     1.77334E-03     38.7863E-03    -20.9803E+06    -68.2778E+06    -18.3758E+06      96.541E+03    -14.9739E-03     29.9298E-03    -14.9559E-03     6.17714E-03    -14.9532E-03     29.6455E-03    -14.9183E-03     6.17752E-03
            1716     886.709E-06     38.7820E-03    -22.0396E+06    -69.3907E+06    -21.2592E+06     60.4255E+03    -14.9540E-03     29.8753E-03    -14.9213E-03     3.32596E-03    -14.9327E-03     29.5912E-03    -14.8950E-03     3.32629E-03
            1717     16.8393E-03     38.5118E-03    -3.22651E+06     129.763E+06     28.3083E+06     193.841E+03    -17.4144E-03     32.7182E-03    -15.3038E-03     105.550E-03    -18.5326E-03     34.2035E-03    -15.3457E-03     106.136E-03
            1718     15.9525E-03     38.3869E-03    -2.55175E+06     74.1060E+06    -15.8685E+06     34.5154E+03    -18.6776E-03     33.8184E-03    -15.1408E-03     114.388E-03    -19.5086E-03     34.9494E-03    -15.3239E-03     114.575E-03
            1719     15.0676E-03     38.2959E-03    -1.97372E+06     29.2848E+06    -363.959E+03    -109.217E+03    -17.3647E-03     32.6112E-03    -15.2464E-03     81.0009E-03    -17.6073E-03     32.9517E-03    -15.2878E-03     80.9716E-03
            1720     14.1821E-03     38.2347E-03    -3.51452E+06    -903.229E+03     648.219E+03    -95.0210E+03    -16.4892E-03     31.7614E-03    -15.2723E-03     63.5483E-03    -16.5799E-03     31.8346E-03    -15.2626E-03     63.5085E-03
            1721     13.2958E-03     38.1773E-03    -3.52883E+06     -29.248E+06    -3.10003E+06     157.179E+03    -16.5684E-03     31.8399E-03    -15.2716E-03     59.4234E-03    -16.5856E-03     31.7498E-03    -15.2395E-03     59.3898E-03
            1722     12.4099E-03     38.1238E-03    -3.49916E+06    -35.5318E+06     3.64338E+06     421.993E+03    -16.4223E-03     31.7059E-03    -15.2835E-03     54.0198E-03    -16.4214E-03     31.5558E-03    -15.2087E-03     53.9974E-03
            1723     11.5238E-03     38.0765E-03    -4.16431E+06    -38.3334E+06     5.49776E+06     325.231E+03    -16.2260E-03     31.4906E-03    -15.2647E-03     48.2554E-03    -16.2158E-03     31.3137E-03    -15.1755E-03     48.2384E-03
            1724     10.6377E-03     38.0336E-03    -4.87779E+06    -47.7121E+06     4.42077E+06     352.146E+03    -16.1227E-03     31.3606E-03    -15.2379E-03     43.8146E-03    -16.0949E-03     31.1333E-03    -15.1395E-03     43.8030E-03
            1725     9.75163E-03     37.9944E-03    -5.90434E+06    -51.7629E+06     5.58566E+06     273.126E+03    -15.9731E-03     31.1851E-03    -15.2121E-03     39.5446E-03    -15.9424E-03     30.9336E-03    -15.1005E-03     39.5360E-03
            1726     8.86545E-03     37.9593E-03    -7.24689E+06    -53.1213E+06     5.05328E+06     191.923E+03    -15.8163E-03     30.9895E-03    -15.1732E-03     35.2589E-03    -15.7872E-03     30.7314E-03    -15.0604E-03     35.2524E-03
            1727     7.97924E-03     37.9280E-03    -8.58998E+06    -55.5638E+06     3.95352E+06     358.043E+03    -15.6581E-03     30.7911E-03    -15.1329E-03     31.0152E-03    -15.6291E-03     30.5228E-03    -15.0201E-03     31.0130E-03
            1728     7.09293E-03     37.9007E-03    -10.1947E+06    -57.4453E+06     2.13663E+06     354.690E+03    -15.5010E-03     30.5909E-03    -15.0898E-03     26.9012E-03    -15.4737E-03     30.3172E-03    -14.9811E-03     26.9006E-03
            1729     6.20654E-03     37.8770E-03    -11.9102E+06    -58.8810E+06     26.8216E+03     396.611E+03    -15.3537E-03     30.4007E-03    -15.0471E-03     22.9596E-03    -15.3291E-03     30.1248E-03    -14.9443E-03     22.9607E-03
            1730     5.32008E-03     37.8571E-03    -13.7282E+06    -60.5068E+06    -2.59667E+06     387.472E+03    -15.2180E-03     30.2235E-03    -15.0054E-03     19.2186E-03    -15.1960E-03     29.9454E-03    -14.9108E-03     19.2205E-03
            1731     4.43352E-03     37.8405E-03    -15.6968E+06    -62.0502E+06     -5.8755E+06     290.025E+03    -15.1005E-03     30.0653E-03    -14.9648E-03     15.6845E-03    -15.0810E-03     29.7869E-03    -14.8815E-03     15.6859E-03
            1732     3.54692E-03     37.8272E-03    -17.6029E+06    -63.9604E+06    -9.88045E+06     261.426E+03    -15.0028E-03     29.9287E-03    -14.9259E-03     12.3410E-03    -14.9841E-03     29.6491E-03    -14.8570E-03     12.3426E-03
            1733     2.66024E-03     37.8169E-03    -19.3729E+06    -66.0935E+06    -14.2128E+06     152.663E+03    -14.9263E-03     29.8176E-03    -14.8913E-03     9.16009E-03    -14.9069E-03     29.5360E-03    -14.8384E-03     9.16075E-03
            1734     1.77351E-03     37.8097E-03    -20.8394E+06    -68.1478E+06    -18.1657E+06     92.1617E+03    -14.8756E-03     29.7399E-03    -14.8642E-03     6.10459E-03    -14.8547E-03     29.4558E-03    -14.8260E-03     6.10493E-03
            1735     886.733E-06     37.8052E-03    -21.8364E+06    -69.3111E+06    -21.0708E+06     17.8877E+03    -14.8643E-03     29.6947E-03    -14.8304E-03     3.28674E-03    -14.8424E-03     29.4105E-03    -14.8036E-03     3.28652E-03
            1736     16.8399E-03     37.5339E-03    -3.11430E+06     129.452E+06     28.5679E+06    -541.184E+03    -18.0860E-03     33.3487E-03    -15.2627E-03     104.700E-03    -19.1869E-03     34.8152E-03    -15.3030E-03     105.258E-03
            1737     15.9558E-03     37.4076E-03    -2.90217E+06     74.2415E+06    -16.2190E+06     2.14223E+03    -18.2048E-03     33.2938E-03    -15.0890E-03     114.258E-03    -19.0196E-03     34.4089E-03    -15.2735E-03     114.439E-03
            1738     15.0693E-03     37.3187E-03    -2.06408E+06     29.4758E+06    -687.124E+03      505.44E+03    -16.7465E-03     31.9712E-03    -15.2247E-03     81.9485E-03    -16.9868E-03     32.3108E-03    -15.2679E-03     81.9319E-03
            1739     14.1819E-03     37.2568E-03    -2.71141E+06    -951.182E+03     460.443E+03     374.306E+03    -16.6280E-03     31.8935E-03    -15.2655E-03     64.5122E-03    -16.7159E-03     31.9671E-03    -15.2579E-03     64.4777E-03
            1740     13.2960E-03     37.1994E-03    -3.04654E+06    -29.4017E+06    -3.43138E+06     222.364E+03    -16.7183E-03     31.9744E-03    -15.2562E-03     59.5681E-03    -16.7324E-03     31.8833E-03    -15.2263E-03     59.5351E-03
            1741     12.4101E-03     37.1458E-03    -3.43932E+06    -35.7312E+06     3.31394E+06     359.452E+03    -16.4937E-03     31.7541E-03    -15.2603E-03     53.9639E-03    -16.4915E-03     31.6032E-03    -15.1870E-03     53.9406E-03
            1742     11.5241E-03     37.0987E-03    -3.99707E+06    -38.1022E+06     5.24915E+06     437.947E+03    -16.3268E-03     31.5594E-03    -15.2326E-03     48.1262E-03    -16.3158E-03     31.3837E-03    -15.1453E-03     48.1106E-03
            1743     10.6381E-03     37.0557E-03    -4.91630E+06    -47.8638E+06     3.96846E+06     423.444E+03    -16.1987E-03     31.3942E-03    -15.1956E-03     43.5951E-03    -16.1701E-03     31.1668E-03    -15.0992E-03     43.5844E-03
            1744     9.75208E-03     37.0168E-03    -5.96891E+06    -51.5162E+06     5.31282E+06     521.982E+03    -16.0242E-03     31.1844E-03    -15.1602E-03     39.2953E-03    -15.9938E-03     30.9345E-03    -15.0503E-03     39.2900E-03
            1745     8.86598E-03     36.9816E-03    -7.29355E+06    -53.0763E+06     4.60856E+06     412.262E+03    -15.8436E-03     30.9549E-03    -15.1113E-03     34.9836E-03    -15.8141E-03     30.6977E-03    -15.0007E-03     34.9799E-03
            1746     7.97977E-03     36.9507E-03    -8.82759E+06    -55.7211E+06     3.56298E+06     438.487E+03    -15.6649E-03     30.7278E-03    -15.0628E-03     30.7285E-03    -15.6362E-03     30.4596E-03    -14.9514E-03     30.7274E-03
            1747     7.09348E-03     36.9234E-03    -10.3785E+06    -57.2482E+06     1.92185E+06     519.188E+03    -15.4863E-03     30.4977E-03    -15.0114E-03     26.6257E-03    -15.4598E-03     30.2255E-03    -14.9037E-03     26.6272E-03
            1748     6.20708E-03     36.9000E-03    -12.0926E+06    -58.8819E+06    -107.410E+03     419.688E+03    -15.3148E-03     30.2763E-03    -14.9615E-03     22.7060E-03    -15.2910E-03     30.0008E-03    -14.8591E-03     22.7074E-03
            1749     5.32056E-03     36.8801E-03    -13.8807E+06    -60.3137E+06    -2.54074E+06     385.848E+03    -15.1574E-03     30.0715E-03    -14.9141E-03     18.9970E-03    -15.1364E-03     29.7945E-03    -14.8192E-03     18.9989E-03
            1750     4.43397E-03     36.8637E-03    -15.7642E+06    -61.9029E+06    -5.81401E+06     292.388E+03    -15.0218E-03     29.8903E-03    -14.8686E-03     15.4985E-03    -15.0029E-03     29.6126E-03    -14.7851E-03     15.4999E-03
            1751     3.54725E-03     36.8505E-03    -17.7129E+06    -63.8158E+06    -9.88164E+06     174.100E+03    -14.9142E-03     29.7400E-03    -14.8258E-03     12.1871E-03    -14.8962E-03     29.4612E-03    -14.7570E-03     12.1876E-03
            1752     2.66050E-03     36.8404E-03    -19.4730E+06    -65.9124E+06    -14.3078E+06     95.4315E+03    -14.8306E-03     29.6182E-03    -14.7875E-03     9.03747E-03    -14.8118E-03     29.3378E-03    -14.7353E-03     9.03741E-03
            1753     1.77369E-03     36.8331E-03    -20.9292E+06    -68.0761E+06    -18.2584E+06    -13.8080E+03    -14.7745E-03     29.5323E-03    -14.7579E-03     6.02244E-03    -14.7540E-03     29.2489E-03    -14.7201E-03     6.02143E-03
            1754     886.877E-06     36.8288E-03    -21.8798E+06    -69.2993E+06    -21.1632E+06     5.02605E+03    -14.7412E-03     29.4795E-03    -14.7384E-03     3.22882E-03    -14.7194E-03     29.1955E-03    -14.7120E-03     3.22845E-03
            1755     16.8421E-03     36.5528E-03    -2.76477E+06     130.499E+06     29.3117E+06    -497.727E+03    -18.0644E-03     33.3208E-03    -15.2564E-03     105.427E-03    -19.1752E-03     34.8001E-03    -15.2951E-03     106.000E-03
            1756     15.9547E-03     36.4320E-03    -4.19058E+06     73.8539E+06    -15.7294E+06    -480.320E+03    -17.6275E-03     32.7310E-03    -15.1035E-03     115.103E-03    -18.4483E-03     33.8447E-03    -15.2831E-03     115.297E-03
            1757     15.0661E-03     36.3410E-03    -3.88631E+06     28.1766E+06    -1.72053E+06     151.461E+03    -16.9207E-03     32.1687E-03    -15.2480E-03     83.3234E-03    -17.1694E-03     32.5086E-03    -15.2918E-03     83.3020E-03
            1758     14.1815E-03     36.2780E-03    -3.03469E+06    -727.609E+03     412.614E+03     315.681E+03    -17.0584E-03     32.3315E-03    -15.2731E-03     64.1450E-03    -17.1488E-03     32.4074E-03    -15.2656E-03     64.1080E-03
            1759     13.2962E-03     36.2213E-03    -3.37763E+06    -29.1784E+06    -3.76559E+06     391.259E+03    -16.8822E-03     32.1245E-03    -15.2423E-03     59.1071E-03    -16.8975E-03     32.0352E-03    -15.2139E-03     59.0759E-03
            1760     12.4103E-03     36.1679E-03    -3.57941E+06    -35.9282E+06     2.68260E+06     320.522E+03    -16.6543E-03     31.8865E-03    -15.2321E-03     53.7720E-03    -16.6517E-03     31.7358E-03    -15.1614E-03     53.7479E-03
            1761     11.5246E-03     36.1206E-03    -4.26727E+06    -38.1876E+06     4.65932E+06     553.551E+03    -16.4552E-03     31.6463E-03    -15.1911E-03     47.8140E-03    -16.4445E-03     31.4714E-03    -15.1062E-03     47.7997E-03
            1762     10.6386E-03     36.0780E-03    -5.11164E+06    -47.7347E+06     3.39195E+06     658.875E+03    -16.2818E-03     31.4228E-03    -15.1410E-03     43.2658E-03    -16.2535E-03     31.1971E-03    -15.0474E-03     43.2581E-03
            1763     9.75272E-03     36.0390E-03    -6.12193E+06    -51.5975E+06     4.95337E+06     631.363E+03    -16.0813E-03     31.1766E-03    -15.0953E-03     38.9462E-03    -16.0510E-03     30.9270E-03    -14.9868E-03     38.9423E-03
            1764     8.86663E-03     36.0043E-03    -7.34371E+06    -52.7916E+06     4.52561E+06     685.029E+03    -15.8628E-03     30.8990E-03    -15.0362E-03     34.6348E-03    -15.8338E-03     30.6434E-03    -14.9264E-03     34.6346E-03
            1765     7.98045E-03     35.9733E-03    -8.74395E+06    -55.7682E+06     3.59187E+06     569.315E+03    -15.6557E-03     30.6349E-03    -14.9792E-03     30.4004E-03    -15.6265E-03     30.3663E-03    -14.8677E-03     30.4010E-03
            1766     7.09414E-03     35.9464E-03    -10.2559E+06    -57.1141E+06     2.17597E+06     550.938E+03    -15.4504E-03     30.3708E-03    -14.9204E-03     26.3174E-03    -15.4238E-03     30.0987E-03    -14.8118E-03     26.3194E-03
            1767     6.20769E-03     35.9230E-03    -11.8565E+06    -58.6461E+06     219.386E+03     455.592E+03    -15.2566E-03     30.1203E-03    -14.8637E-03     22.4286E-03    -15.2323E-03     29.8451E-03    -14.7604E-03     22.4306E-03
            1768     5.32113E-03     35.9034E-03    -13.6549E+06    -60.2354E+06    -2.22774E+06     326.580E+03    -15.0814E-03     29.8922E-03    -14.8108E-03     18.7491E-03    -15.0598E-03     29.6148E-03    -14.7148E-03     18.7503E-03
            1769     4.43443E-03     35.8871E-03    -15.5802E+06    -61.6819E+06    -5.57292E+06     267.748E+03    -14.9323E-03     29.6925E-03    -14.7602E-03     15.2845E-03    -14.9132E-03     29.4152E-03    -14.6760E-03     15.2856E-03
            1770     3.54767E-03     35.8741E-03    -17.5461E+06    -63.6906E+06    -9.70140E+06     168.692E+03    -14.8143E-03     29.5277E-03    -14.7134E-03     12.0071E-03    -14.7959E-03     29.2491E-03    -14.6441E-03     12.0075E-03
            1771     2.66082E-03     35.8640E-03    -19.4058E+06    -65.7325E+06    -14.3016E+06     51.1451E+03    -14.7243E-03     29.3952E-03    -14.6709E-03     8.89329E-03    -14.7054E-03     29.1155E-03    -14.6189E-03     8.89269E-03
            1772     1.77391E-03     35.8569E-03    -20.9191E+06    -68.0560E+06    -18.3661E+06    -29.3293E+03    -14.6611E-03     29.2986E-03    -14.6375E-03     5.93145E-03    -14.6404E-03     29.0154E-03    -14.6003E-03     5.93025E-03
            1773     886.955E-06     35.8525E-03    -21.9522E+06    -69.3568E+06    -21.1682E+06    -52.8957E+03    -14.6075E-03     29.2365E-03    -14.6290E-03     3.18131E-03    -14.5860E-03     28.9524E-03    -14.6025E-03     3.18020E-03
            1774     16.8389E-03     35.5734E-03    -2.46753E+06     130.758E+06     29.6591E+06     26.8374E+03    -17.4614E-03     32.7930E-03    -15.3317E-03     105.900E-03    -18.5922E-03     34.2933E-03    -15.3694E-03     106.493E-03
            1775     15.9528E-03     35.4559E-03    -3.97755E+06     74.0790E+06    -16.7684E+06    -688.860E+03    -18.7671E-03     33.9249E-03    -15.1578E-03     114.391E-03    -19.6037E-03     35.0589E-03    -15.3433E-03     114.574E-03
            1776     15.0684E-03     35.3619E-03    -4.95466E+06     27.6706E+06    -3.32965E+06    -331.823E+03    -17.7863E-03     33.0311E-03    -15.2448E-03     82.7762E-03    -18.0400E-03     33.3751E-03    -15.2944E-03     82.7430E-03
            1777     14.1825E-03     35.2995E-03    -4.10162E+06    -1.23073E+06    -768.201E+03     135.621E+03    -17.0209E-03     32.2665E-03    -15.2456E-03     63.4031E-03    -17.1126E-03     32.3415E-03    -15.2417E-03     63.3641E-03
            1778     13.2964E-03     35.2433E-03    -3.90894E+06    -29.0283E+06    -4.37388E+06     389.353E+03    -16.9827E-03     32.1935E-03    -15.2108E-03     58.6902E-03    -16.9998E-03     32.1064E-03    -15.1849E-03     58.6588E-03
            1779     12.4109E-03     35.1895E-03    -4.27549E+06    -35.9865E+06     1.93587E+06     398.816E+03    -16.8190E-03     32.0068E-03    -15.1878E-03     53.3461E-03    -16.8187E-03     31.8579E-03    -15.1197E-03     53.3226E-03
            1780     11.5252E-03     35.1428E-03    -4.87675E+06    -38.5503E+06     4.10523E+06     624.240E+03    -16.5509E-03     31.6848E-03    -15.1339E-03     47.3635E-03    -16.5418E-03     31.5096E-03    -15.0504E-03     47.3501E-03
            1781     10.6394E-03     35.1000E-03    -5.60523E+06    -47.4578E+06     3.19960E+06     719.034E+03    -16.3457E-03     31.4179E-03    -15.0722E-03     42.8578E-03    -16.3200E-03     31.1945E-03    -14.9792E-03     42.8509E-03
            1782     9.75350E-03     35.0615E-03    -6.43879E+06    -51.6483E+06     4.79183E+06     663.458E+03    -16.1086E-03     31.1242E-03    -15.0156E-03     38.5550E-03    -16.0795E-03     30.8749E-03    -14.9074E-03     38.5515E-03
            1783     8.86745E-03     35.0267E-03    -7.49534E+06    -52.6893E+06     4.69369E+06     701.086E+03    -15.8598E-03     30.8076E-03    -14.9477E-03     34.2704E-03    -15.8319E-03     30.5524E-03    -14.8370E-03     34.2705E-03
            1784     7.98125E-03     34.9962E-03    -8.72723E+06    -55.4842E+06     3.79927E+06     608.843E+03    -15.6233E-03     30.5050E-03    -14.8817E-03     30.0607E-03    -15.5947E-03     30.2374E-03    -14.7696E-03     30.0619E-03
            1785     7.09489E-03     34.9693E-03    -10.1242E+06    -57.0869E+06     2.45941E+06     475.833E+03    -15.3958E-03     30.2119E-03    -14.8160E-03     25.9963E-03    -15.3690E-03     29.9393E-03    -14.7063E-03     25.9974E-03
            1786     6.20840E-03     34.9463E-03    -11.7069E+06    -58.3605E+06     458.314E+03     424.355E+03    -15.1842E-03     29.9364E-03    -14.7522E-03     22.1273E-03    -15.1599E-03     29.6621E-03    -14.6483E-03     22.1289E-03
            1787     5.32174E-03     34.9268E-03    -13.4952E+06    -60.1297E+06    -2.05474E+06     309.254E+03    -14.9963E-03     29.6895E-03    -14.6932E-03     18.4749E-03    -14.9743E-03     29.4122E-03    -14.5967E-03     18.4759E-03
            1788     4.43500E-03     34.9107E-03    -15.4405E+06    -61.5396E+06    -5.45947E+06     257.678E+03    -14.8317E-03     29.4686E-03    -14.6369E-03     15.0423E-03    -14.8122E-03     29.1917E-03    -14.5526E-03     15.0434E-03
            1789     3.54811E-03     34.8977E-03    -17.3976E+06    -63.5122E+06    -9.69065E+06     167.755E+03    -14.6993E-03     29.2847E-03    -14.5854E-03     11.8124E-03    -14.6804E-03     29.0067E-03    -14.5166E-03     11.8128E-03
            1790     2.66116E-03     34.8879E-03    -19.1785E+06    -65.6308E+06    -14.2120E+06     80.5005E+03    -14.6017E-03     29.1420E-03    -14.5403E-03     8.74515E-03    -14.5819E-03     28.8624E-03    -14.4884E-03     8.74495E-03
            1791     1.77415E-03     34.8808E-03    -20.6591E+06    -67.9956E+06    -18.2030E+06     34.5345E+03    -14.5322E-03     29.0375E-03    -14.5053E-03     5.82542E-03    -14.5105E-03     28.7540E-03    -14.4678E-03     5.82507E-03
            1792     887.090E-06     34.8766E-03    -21.6923E+06    -69.3966E+06    -21.0576E+06    -22.3529E+03    -14.4737E-03     28.9713E-03    -14.4975E-03     3.11658E-03    -14.4510E-03     28.6864E-03    -14.4707E-03     3.11586E-03
            1793     16.8361E-03     34.5950E-03    -3.01793E+06     130.368E+06     28.8555E+06     846.942E+03    -17.3146E-03     32.6552E-03    -15.3405E-03     103.808E-03    -18.4328E-03     34.1417E-03    -15.3809E-03     104.396E-03
            1794     15.9528E-03     34.4741E-03    -4.69016E+06     74.0223E+06    -16.6290E+06    -117.202E+03    -19.2471E-03     34.4030E-03    -15.1559E-03     112.437E-03    -20.0853E-03     35.5355E-03    -15.3395E-03     112.616E-03
            1795     15.0684E-03     34.3837E-03    -4.27407E+06     27.8698E+06    -2.87892E+06    -620.023E+03    -18.0782E-03     33.2928E-03    -15.2146E-03     81.9144E-03    -18.3311E-03     33.6379E-03    -15.2632E-03     81.8752E-03
            1796     14.1823E-03     34.3215E-03    -4.66490E+06    -1.74989E+06    -787.845E+03    -66.1833E+03    -17.0418E-03     32.2448E-03    -15.2030E-03     63.3088E-03    -17.1349E-03     32.3175E-03    -15.1977E-03     63.2674E-03
            1797     13.2971E-03     34.2645E-03    -4.63216E+06    -29.0373E+06    -4.15882E+06     226.721E+03    -17.0791E-03     32.2403E-03    -15.1612E-03     58.2833E-03    -17.1000E-03     32.1538E-03    -15.1332E-03     58.2494E-03
            1798     12.4117E-03     34.2114E-03    -4.65035E+06    -36.1927E+06     1.89576E+06     419.622E+03    -16.8956E-03     32.0214E-03    -15.1258E-03     52.8664E-03    -16.8966E-03     31.8719E-03    -15.0571E-03     52.8432E-03
            1799     11.5261E-03     34.1646E-03    -5.20704E+06    -38.6603E+06     4.14943E+06     539.843E+03    -16.5995E-03     31.6609E-03    -15.0614E-03     46.9518E-03    -16.5918E-03     31.4854E-03    -14.9771E-03     46.9373E-03
            1800     10.6403E-03     34.1223E-03    -5.75751E+06    -47.4059E+06     3.33705E+06     598.100E+03    -16.3664E-03     31.3563E-03    -14.9899E-03     42.4771E-03    -16.3416E-03     31.1330E-03    -14.8961E-03     42.4687E-03
            1801     9.75442E-03     34.0838E-03    -6.55422E+06    -51.5162E+06     5.01295E+06     601.409E+03    -16.1060E-03     31.0303E-03    -14.9243E-03     38.1923E-03    -16.0778E-03     30.7815E-03    -14.8151E-03     38.1881E-03
            1802     8.86836E-03     34.0495E-03    -7.54899E+06    -52.6417E+06     4.84179E+06     518.471E+03    -15.8395E-03     30.6869E-03    -14.8474E-03     33.9173E-03    -15.8121E-03     30.4317E-03    -14.7359E-03     33.9152E-03
            1803     7.98212E-03     34.0190E-03    -8.66437E+06    -55.2557E+06     4.03411E+06     483.735E+03    -15.5836E-03     30.3563E-03    -14.7728E-03     29.7106E-03    -15.5552E-03     30.0894E-03    -14.6599E-03     29.7103E-03
            1804     7.09574E-03     33.9925E-03    -10.0680E+06    -56.9823E+06     2.49955E+06     425.344E+03    -15.3356E-03     30.0338E-03    -14.6982E-03     25.6536E-03    -15.3086E-03     29.7616E-03    -14.5885E-03     25.6542E-03
            1805     6.20916E-03     33.9697E-03    -11.7172E+06    -58.2448E+06     422.772E+03     395.597E+03    -15.1063E-03     29.7328E-03    -14.6265E-03     21.8007E-03    -15.0822E-03     29.4591E-03    -14.5230E-03     21.8020E-03
            1806     5.32247E-03     33.9505E-03    -13.5804E+06    -59.9438E+06    -2.17466E+06     356.690E+03    -14.9010E-03     29.4611E-03    -14.5601E-03     18.1756E-03    -14.8795E-03     29.1849E-03    -14.4643E-03     18.1773E-03
            1807     4.43560E-03     33.9345E-03    -15.5507E+06    -61.4191E+06    -5.61577E+06     235.384E+03    -14.7209E-03     29.2182E-03    -14.4973E-03     14.7750E-03    -14.7019E-03     28.9422E-03    -14.4137E-03     14.7758E-03
            1808     3.54864E-03     33.9218E-03    -17.4583E+06    -63.3303E+06    -9.87818E+06     145.093E+03    -14.5715E-03     29.0116E-03    -14.4402E-03     11.5844E-03    -14.5529E-03     28.7349E-03    -14.3724E-03     11.5846E-03
            1809     2.66155E-03     33.9119E-03    -19.2020E+06    -65.5843E+06    -14.4006E+06     84.8536E+03    -14.4590E-03     28.8510E-03    -14.3920E-03     8.56715E-03    -14.4392E-03     28.5720E-03    -14.3411E-03     8.56704E-03
            1810     1.77441E-03     33.9051E-03    -20.5900E+06    -67.9119E+06    -18.2120E+06     81.8405E+03    -14.3861E-03     28.7422E-03    -14.3561E-03     5.70422E-03    -14.3642E-03     28.4589E-03    -14.3189E-03     5.70449E-03
            1811     887.216E-06     33.9008E-03    -21.5172E+06    -69.3532E+06    -20.8514E+06     46.5416E+03    -14.3393E-03     28.6730E-03    -14.3337E-03     3.04782E-03    -14.3160E-03     28.3877E-03    -14.3062E-03     3.04801E-03
            1812     16.8433E-03     33.6189E-03    -2.05790E+06     130.854E+06     30.0457E+06     1.11370E+06    -17.9290E-03     33.2009E-03    -15.2720E-03     104.138E-03    -19.0355E-03     34.6776E-03    -15.3085E-03     104.717E-03
            1813     15.9547E-03     33.4949E-03    -815.309E+03     75.1996E+06    -14.2874E+06     945.048E+03    -18.5247E-03     33.6159E-03    -15.0912E-03     113.024E-03    -19.3418E-03     34.7385E-03    -15.2705E-03     113.224E-03
            1814     15.0687E-03     33.4050E-03    -2.24125E+06     28.0847E+06    -1.90475E+06     92.4991E+03    -17.9151E-03     33.0847E-03    -15.1696E-03     80.9750E-03    -18.1584E-03     33.4253E-03    -15.2166E-03     80.9459E-03
            1815     14.1840E-03     33.3428E-03    -3.60200E+06    -1.74849E+06     455.582E+03    -21.0297E+03    -17.3245E-03     32.4772E-03    -15.1526E-03     62.7947E-03    -17.4145E-03     32.5468E-03    -15.1426E-03     62.7526E-03
            1816     13.2982E-03     33.2864E-03    -4.07526E+06    -29.3428E+06    -3.36502E+06     217.244E+03    -17.1074E-03     32.2028E-03    -15.0954E-03     58.0462E-03    -17.1258E-03     32.1123E-03    -15.0638E-03     58.0123E-03
            1817     12.4126E-03     33.2330E-03    -4.44814E+06    -36.0877E+06     2.28832E+06     263.135E+03    -16.8913E-03     31.9429E-03    -15.0516E-03     52.5936E-03    -16.8916E-03     31.7927E-03    -14.9814E-03     52.5685E-03
            1818     11.5271E-03     33.1868E-03    -4.76016E+06    -38.9022E+06     4.59131E+06     318.927E+03    -16.6222E-03     31.6029E-03    -14.9806E-03     46.6435E-03    -16.6123E-03     31.4246E-03    -14.8944E-03     46.6263E-03
            1819     10.6413E-03     33.1445E-03    -5.36195E+06    -47.3454E+06     3.85112E+06     493.752E+03    -16.3740E-03     31.2745E-03    -14.9005E-03     42.1535E-03    -16.3478E-03     31.0500E-03    -14.8048E-03     42.1439E-03
            1820     9.75541E-03     33.1065E-03    -6.12466E+06    -51.4522E+06     5.25131E+06     475.534E+03    -16.1053E-03     30.9297E-03    -14.8244E-03     37.8458E-03    -16.0753E-03     30.6800E-03    -14.7146E-03     37.8402E-03
            1821     8.86932E-03     33.0722E-03    -7.21384E+06    -52.5122E+06     5.03394E+06     466.415E+03    -15.8241E-03     30.5615E-03    -14.7375E-03     33.5426E-03    -15.7953E-03     30.3061E-03    -14.6257E-03     33.5400E-03
            1822     7.98310E-03     33.0422E-03    -8.64290E+06    -55.2304E+06     3.84956E+06     461.309E+03    -15.5480E-03     30.1996E-03    -14.6516E-03     29.3256E-03    -15.5193E-03     29.9329E-03    -14.5397E-03     29.3251E-03
            1823     7.09664E-03     33.0158E-03    -10.2358E+06    -56.8388E+06     2.26426E+06     480.355E+03    -15.2789E-03     29.8458E-03    -14.5669E-03     25.2701E-03    -15.2526E-03     29.5748E-03    -14.4583E-03     25.2715E-03
            1824     6.21005E-03     32.9934E-03    -11.9734E+06    -58.1723E+06     108.013E+03     435.863E+03    -15.0254E-03     29.5109E-03    -14.4855E-03     21.4319E-03    -15.0021E-03     29.2383E-03    -14.3833E-03     21.4338E-03
            1825     5.32323E-03     32.9743E-03    -13.7823E+06    -59.7400E+06    -2.46571E+06     359.126E+03    -14.7951E-03     29.2056E-03    -14.4105E-03     17.8327E-03    -14.7745E-03     28.9311E-03    -14.3163E-03     17.8345E-03
            1826     4.43630E-03     32.9586E-03    -15.6806E+06    -61.2269E+06    -5.84109E+06     225.682E+03    -14.5955E-03     28.9363E-03    -14.3408E-03     14.4794E-03    -14.5770E-03     28.6618E-03    -14.2585E-03     14.4801E-03
            1827     3.54920E-03     32.9460E-03    -17.5944E+06    -63.2061E+06    -10.0618E+06     103.276E+03    -14.4314E-03     28.7093E-03    -14.2778E-03     11.3394E-03    -14.4134E-03     28.4336E-03    -14.2110E-03     11.3391E-03
            1828     2.66201E-03     32.9364E-03    -19.2957E+06    -65.5488E+06    -14.5217E+06     77.9128E+03    -14.3045E-03     28.5295E-03    -14.2250E-03     8.38283E-03    -14.2850E-03     28.2509E-03    -14.1745E-03     8.38267E-03
            1829     1.77471E-03     32.9295E-03    -20.6631E+06    -67.8439E+06    -18.3240E+06     62.4784E+03    -14.2200E-03     28.4057E-03    -14.1856E-03     5.57266E-03    -14.1985E-03     28.1230E-03    -14.1489E-03     5.57271E-03
            1830     887.368E-06     32.9255E-03    -21.5246E+06    -69.2705E+06    -20.8680E+06     6.69975E+03    -14.1776E-03     28.3303E-03    -14.1528E-03     2.97837E-03    -14.1545E-03     28.0455E-03    -14.1255E-03     2.97805E-03
            1831     16.8390E-03     32.6393E-03    -3.76347E+06     128.988E+06     27.6824E+06    -249.743E+03    -18.1733E-03     33.4212E-03    -15.2479E-03     104.798E-03    -19.2841E-03     34.8962E-03    -15.2910E-03     105.354E-03
            1832     15.9553E-03     32.5177E-03    -3.15121E+06     74.8047E+06    -15.9541E+06     1.14526E+06    -18.9228E-03     33.9774E-03    -15.0547E-03     114.822E-03    -19.7560E-03     35.1113E-03    -15.2383E-03     115.020E-03
            1833     15.0698E-03     32.4255E-03    -1.78519E+06     29.7448E+06    -1.38023E+06     1.33745E+06    -18.0629E-03     33.1858E-03    -15.1229E-03     81.4728E-03    -18.3067E-03     33.5329E-03    -15.1704E-03     81.4589E-03
            1834     14.1842E-03     32.3645E-03    -2.85556E+06    -1.70585E+06     225.519E+03     768.136E+03    -17.4069E-03     32.5019E-03    -15.0949E-03     62.6528E-03    -17.4920E-03     32.5701E-03    -15.0872E-03     62.6208E-03
            1835     13.2991E-03     32.3079E-03    -3.23732E+06    -29.3451E+06    -3.40046E+06     413.856E+03    -17.2134E-03     32.2423E-03    -15.0288E-03     58.1082E-03    -17.2272E-03     32.1502E-03    -14.9986E-03     58.0769E-03
            1836     12.4136E-03     32.2551E-03    -3.43911E+06    -35.8828E+06     2.62822E+06     316.833E+03    -16.9545E-03     31.9306E-03    -14.9761E-03     52.4757E-03    -16.9502E-03     31.7791E-03    -14.9059E-03     52.4516E-03
            1837     11.5280E-03     32.2086E-03    -4.21760E+06    -39.0703E+06     4.48423E+06     310.316E+03    -16.6596E-03     31.5539E-03    -14.8943E-03     46.3632E-03    -16.6462E-03     31.3739E-03    -14.8091E-03     46.3461E-03
            1838     10.6423E-03     32.1670E-03    -4.97328E+06    -47.5049E+06     3.77471E+06     475.545E+03    -16.4120E-03     31.2159E-03    -14.8039E-03     41.8023E-03    -16.3833E-03     30.9899E-03    -14.7090E-03     41.7927E-03
            1839     9.75642E-03     32.1289E-03    -5.97915E+06    -51.2329E+06     5.04173E+06     536.949E+03    -16.1254E-03     30.8404E-03    -14.7151E-03     37.4510E-03    -16.0945E-03     30.5918E-03    -14.6069E-03     37.4463E-03
            1840     8.87041E-03     32.0953E-03    -7.22122E+06    -52.6250E+06     4.66940E+06     543.411E+03    -15.8243E-03     30.4399E-03    -14.6156E-03     33.1013E-03    -15.7948E-03     30.1844E-03    -14.5055E-03     33.0998E-03
            1841     7.98412E-03     32.0653E-03    -8.63391E+06    -55.1158E+06     3.66944E+06     674.633E+03    -15.5198E-03     30.0376E-03    -14.5177E-03     28.8661E-03    -15.4909E-03     29.7717E-03    -14.4069E-03     28.8686E-03
            1842     7.09769E-03     32.0395E-03    -10.2650E+06    -56.7324E+06     2.05206E+06     597.593E+03    -15.2215E-03     29.6424E-03    -14.4210E-03     24.8203E-03    -15.1951E-03     29.3723E-03    -14.3136E-03     24.8233E-03
            1843     6.21099E-03     32.0171E-03    -11.9719E+06    -57.9784E+06     8.11223E+03     512.531E+03    -14.9386E-03     29.2675E-03    -14.3289E-03     21.0076E-03    -14.9155E-03     28.9960E-03    -14.2274E-03     21.0106E-03
            1844     5.32415E-03     31.9985E-03    -13.8335E+06    -59.5361E+06    -2.65498E+06     366.647E+03    -14.6783E-03     28.9222E-03    -14.2438E-03     17.4471E-03    -14.6580E-03     28.6491E-03    -14.1507E-03     17.4491E-03
            1845     4.43705E-03     31.9830E-03    -15.7579E+06    -60.9733E+06    -6.04139E+06     201.844E+03    -14.4512E-03     28.6176E-03    -14.1665E-03     14.1475E-03    -14.4332E-03     28.3448E-03    -14.0854E-03     14.1479E-03
            1846     3.54984E-03     31.9706E-03    -17.6354E+06    -63.1163E+06    -10.1478E+06     71.2758E+03    -14.2715E-03     28.3700E-03    -14.0984E-03     11.0677E-03    -14.2537E-03     28.0949E-03    -14.0321E-03     11.0670E-03
            1847     2.66249E-03     31.9611E-03    -19.3754E+06    -65.5611E+06    -14.5356E+06     63.9631E+03    -14.1374E-03     28.1777E-03    -14.0404E-03     8.17703E-03    -14.1182E-03     27.8992E-03    -13.9899E-03     8.17672E-03
            1848     1.77506E-03     31.9545E-03    -20.7774E+06    -67.7384E+06    -18.4212E+06     68.7226E+03    -14.0383E-03     28.0334E-03    -13.9951E-03     5.43319E-03    -14.0173E-03     27.7516E-03    -13.9588E-03     5.43334E-03
            1849     887.547E-06     31.9503E-03    -21.6795E+06    -69.2323E+06    -21.0914E+06    -20.7660E+03    -13.9608E-03     27.9439E-03    -13.9831E-03     2.92239E-03    -13.9382E-03     27.6598E-03    -13.9567E-03     2.92173E-03
            1850     16.8411E-03     31.6614E-03    -2.83724E+06     128.279E+06     27.3458E+06    -98.9939E+03    -18.3057E-03     33.5512E-03    -15.2455E-03     103.010E-03    -19.3953E-03     35.0068E-03    -15.2907E-03     103.553E-03
            1851     15.9544E-03     31.5376E-03    -4.81390E+06     73.0864E+06    -16.5895E+06     522.537E+03    -19.2960E-03     34.3353E-03    -15.0393E-03     114.270E-03    -20.1308E-03     35.4606E-03    -15.2212E-03     114.453E-03
            1852     15.0701E-03     31.4469E-03    -3.86376E+06     29.8337E+06    -804.251E+03     1.12447E+06    -18.2588E-03     33.3509E-03    -15.0921E-03     80.9846E-03    -18.5123E-03     33.6989E-03    -15.1338E-03     80.9661E-03
            1853     14.1852E-03     31.3858E-03    -3.48761E+06    -907.402E+03     14.0671E+03     947.975E+03    -17.4532E-03     32.4992E-03    -15.0460E-03     62.3465E-03    -17.5414E-03     32.5718E-03    -15.0396E-03     62.3168E-03
            1854     13.2997E-03     31.3297E-03    -3.36023E+06    -28.9495E+06    -3.85776E+06     362.536E+03    -17.3754E-03     32.3430E-03    -14.9676E-03     57.8183E-03    -17.3893E-03     32.2534E-03    -14.9400E-03     57.7861E-03
            1855     12.4145E-03     31.2767E-03    -3.49255E+06    -36.1080E+06     2.28283E+06     338.314E+03    -17.0890E-03     31.9898E-03    -14.9008E-03     52.1402E-03    -17.0838E-03     31.8374E-03    -14.8320E-03     52.1164E-03
            1856     11.5290E-03     31.2309E-03    -3.99615E+06    -38.9487E+06     4.20200E+06     520.317E+03    -16.7516E-03     31.5552E-03    -14.8035E-03     45.9897E-03    -16.7367E-03     31.3756E-03    -14.7203E-03     45.9755E-03
            1857     10.6434E-03     31.1892E-03    -4.92460E+06    -47.7655E+06     3.36040E+06     625.540E+03    -16.4844E-03     31.1828E-03    -14.6983E-03     41.3408E-03    -16.4543E-03     30.9558E-03    -14.6051E-03     41.3333E-03
            1858     9.75762E-03     31.1518E-03    -5.93486E+06    -51.0491E+06     4.81783E+06     753.799E+03    -16.1682E-03     30.7625E-03    -14.5943E-03     36.9363E-03    -16.1368E-03     30.5149E-03    -14.4876E-03     36.9346E-03
            1859     8.87154E-03     31.1182E-03    -7.24564E+06    -52.6605E+06     4.36818E+06     758.832E+03    -15.8300E-03     30.3096E-03    -14.4797E-03     32.5601E-03    -15.8000E-03     30.0543E-03    -14.3710E-03     32.5615E-03
            1860     7.98536E-03     31.0888E-03    -8.67870E+06    -55.0787E+06     3.53215E+06     798.711E+03    -15.4889E-03     29.8570E-03    -14.3681E-03     28.3257E-03    -15.4600E-03     29.5915E-03    -14.2580E-03     28.3299E-03
            1861     7.09881E-03     31.0631E-03    -10.1731E+06    -56.4161E+06     1.93261E+06     736.323E+03    -15.1516E-03     29.4093E-03    -14.2576E-03     24.3083E-03    -15.1251E-03     29.1407E-03    -14.1514E-03     24.3132E-03
            1862     6.21211E-03     31.0413E-03    -11.8751E+06    -57.8461E+06    -72.1756E+03     583.968E+03    -14.8335E-03     28.9881E-03    -14.1546E-03     20.5319E-03    -14.8098E-03     28.7172E-03    -14.0539E-03     20.5359E-03
            1863     5.32510E-03     31.0228E-03    -13.7211E+06    -59.2065E+06    -2.59704E+06     471.247E+03    -14.5440E-03     28.6043E-03    -14.0603E-03     17.0276E-03    -14.5236E-03     28.3326E-03    -13.9676E-03     17.0310E-03
            1864     4.43794E-03     31.0077E-03    -15.7086E+06    -60.7126E+06    -6.08689E+06     224.789E+03    -14.2944E-03     28.2689E-03    -13.9745E-03     13.7879E-03    -14.2765E-03     27.9974E-03    -13.8942E-03     13.7888E-03
            1865     3.55054E-03     30.9955E-03    -17.6473E+06    -62.9912E+06    -10.2555E+06     61.1939E+03    -14.0937E-03     27.9937E-03    -13.9001E-03     10.7781E-03    -14.0759E-03     27.7195E-03    -13.8344E-03     10.7773E-03
            1866     2.66304E-03     30.9863E-03    -19.3492E+06    -65.6317E+06    -14.5775E+06     44.3398E+03    -13.9435E-03     27.7820E-03    -13.8384E-03     7.95827E-03    -13.9241E-03     27.5031E-03    -13.7881E-03     7.95774E-03
            1867     1.77542E-03     30.9797E-03    -20.6946E+06    -67.6333E+06    -18.3677E+06     74.9184E+03    -13.8351E-03     27.6269E-03    -13.7917E-03     5.29219E-03    -13.8140E-03     27.3454E-03    -13.7555E-03     5.29244E-03
            1868     887.724E-06     30.9758E-03    -21.6054E+06    -69.1684E+06    -21.0064E+06     42.0703E+03    -13.7591E-03     27.5372E-03    -13.7781E-03     2.83274E-03    -13.7364E-03     27.2532E-03    -13.7515E-03     2.83291E-03
            1869     16.8409E-03     30.6837E-03    -2.31062E+06     128.766E+06     29.0301E+06     317.807E+03    -18.8584E-03     34.0990E-03    -15.2406E-03     103.188E-03    -19.9474E-03     35.5528E-03    -15.2788E-03     103.721E-03
            1870     15.9564E-03     30.5582E-03    -2.85727E+06     73.3139E+06    -15.6780E+06     858.301E+03    -19.5318E-03     34.5399E-03    -15.0081E-03     114.561E-03    -20.3581E-03     35.6618E-03    -15.1886E-03     114.740E-03
            1871     15.0710E-03     30.4679E-03    -2.79075E+06     29.1956E+06    -816.557E+03     704.487E+03    -18.2548E-03     33.3059E-03    -15.0512E-03     80.7365E-03    -18.4995E-03     33.6467E-03    -15.0935E-03     80.7126E-03
            1872     14.1855E-03     30.4073E-03    -2.58515E+06      -77.38E+03     620.258E+03     789.527E+03    -17.6896E-03     32.6856E-03    -14.9960E-03     62.0589E-03    -17.7753E-03     32.7601E-03    -14.9890E-03     62.0263E-03
            1873     13.3008E-03     30.3509E-03    -2.91013E+06    -28.6525E+06    -3.91774E+06     641.209E+03    -17.5235E-03     32.4224E-03    -14.8989E-03     57.3626E-03    -17.5350E-03     32.3333E-03    -14.8727E-03     57.3338E-03
            1874     12.4155E-03     30.2987E-03    -3.52604E+06    -36.1748E+06     1.90433E+06     490.460E+03    -17.2193E-03     32.0355E-03    -14.8162E-03     51.6285E-03    -17.2132E-03     31.8830E-03    -14.7491E-03     51.6065E-03
            1875     11.5301E-03     30.2528E-03    -4.28906E+06    -39.1433E+06     3.85942E+06     625.505E+03    -16.8827E-03     31.5849E-03    -14.7022E-03     45.4406E-03    -16.8682E-03     31.4051E-03    -14.6199E-03     45.4277E-03
            1876     10.6447E-03     30.2118E-03    -4.97104E+06    -47.7191E+06     3.16668E+06     812.322E+03    -16.5725E-03     31.1510E-03    -14.5785E-03     40.7435E-03    -16.5422E-03     30.9245E-03    -14.4863E-03     40.7385E-03
            1877     9.75889E-03     30.1744E-03    -5.95355E+06    -51.1373E+06     4.61707E+06      908.81E+03    -16.2098E-03     30.6667E-03    -14.4568E-03     36.3087E-03    -16.1781E-03     30.4188E-03    -14.3510E-03     36.3091E-03
            1878     8.87298E-03     30.1415E-03    -7.11524E+06    -52.4677E+06     4.28264E+06     997.780E+03    -15.8210E-03     30.1468E-03    -14.3258E-03     31.9312E-03    -15.7904E-03     29.8923E-03    -14.2180E-03     31.9358E-03
            1879     7.98664E-03     30.1123E-03    -8.45040E+06    -54.9486E+06     3.38984E+06     872.916E+03    -15.4382E-03     29.6375E-03    -14.1993E-03     27.7274E-03    -15.4080E-03     29.3724E-03    -14.0904E-03     27.7326E-03
            1880     7.10015E-03     30.0872E-03    -9.93948E+06    -56.2119E+06     2.00004E+06     837.617E+03    -15.0639E-03     29.1406E-03    -14.0767E-03     23.7378E-03    -15.0365E-03     28.8725E-03    -13.9707E-03     23.7441E-03
            1881     6.21327E-03     30.0656E-03    -11.6285E+06    -57.5376E+06    -9.23865E+03     734.625E+03    -14.7073E-03     28.6695E-03    -13.9622E-03     20.0079E-03    -14.6830E-03     28.3997E-03    -13.8620E-03     20.0140E-03
            1882     5.32620E-03     30.0476E-03    -13.4518E+06    -58.9124E+06    -2.39493E+06     492.428E+03    -14.3892E-03     28.2486E-03    -13.8594E-03     16.5660E-03    -14.3682E-03     27.9776E-03    -13.7665E-03     16.5698E-03
            1883     4.43883E-03     30.0327E-03    -15.2889E+06    -60.3497E+06    -5.80598E+06     281.840E+03    -14.1186E-03     27.8847E-03    -13.7661E-03     13.3984E-03    -14.0995E-03     27.6139E-03    -13.6854E-03     13.4001E-03
            1884     3.55133E-03     30.0209E-03    -17.1681E+06    -62.9254E+06    -10.0414E+06     118.384E+03    -13.8991E-03     27.5848E-03    -13.6857E-03     10.4693E-03    -13.8794E-03     27.3098E-03    -13.6197E-03     10.4693E-03
            1885     2.66361E-03     30.0118E-03    -18.9479E+06    -65.6166E+06    -14.3877E+06     114.458E+03    -13.7300E-03     27.3510E-03    -13.6210E-03     7.72704E-03    -13.7088E-03     27.0714E-03    -13.5704E-03     7.72746E-03
            1886     1.77579E-03     30.0054E-03    -20.3815E+06    -67.5805E+06    -18.1839E+06     112.955E+03    -13.6167E-03     27.1908E-03    -13.5741E-03     5.13485E-03    -13.5943E-03     26.9088E-03    -13.5374E-03     5.13562E-03
            1887     887.907E-06     30.0014E-03    -21.3335E+06    -69.0262E+06    -20.7684E+06     164.105E+03    -13.5738E-03     27.1030E-03    -13.5291E-03     2.76389E-03    -13.5503E-03     26.8190E-03    -13.5019E-03     2.76565E-03
            1888     16.8396E-03     29.7009E-03    -3.90377E+06     128.636E+06     28.4679E+06     105.717E+03    -19.2734E-03     34.5035E-03    -15.2301E-03     102.186E-03    -20.3667E-03     35.9571E-03    -15.2686E-03     102.703E-03
            1889     15.9562E-03     29.5801E-03    -4.12681E+06     73.3313E+06    -16.2201E+06    -288.923E+03    -19.7079E-03     34.6836E-03    -14.9756E-03     113.427E-03    -20.5348E-03     35.8032E-03    -15.1571E-03     113.585E-03
            1890     15.0708E-03     29.4887E-03    -2.57067E+06     28.6912E+06    -1.55264E+06     392.462E+03    -18.3953E-03     33.3983E-03    -15.0030E-03     80.6779E-03    -18.6356E-03     33.7359E-03    -15.0487E-03     80.6486E-03
            1891     14.1868E-03     29.4281E-03    -2.81254E+06    -413.986E+03     163.473E+03     762.467E+03    -17.9140E-03     32.8491E-03    -14.9350E-03     61.5355E-03    -17.9992E-03     32.9222E-03    -14.9295E-03     61.5017E-03
            1892     13.3017E-03     29.3726E-03    -2.86558E+06    -28.4147E+06    -3.95107E+06     905.772E+03    -17.7331E-03     32.5525E-03    -14.8194E-03     56.8443E-03    -17.7442E-03     32.4640E-03    -14.7938E-03     56.8184E-03
            1893     12.4167E-03     29.3202E-03    -3.23173E+06    -36.0859E+06     1.80060E+06     950.813E+03    -17.3887E-03     32.1048E-03    -14.7160E-03     51.0512E-03    -17.3808E-03     31.9520E-03    -14.6500E-03     51.0351E-03
            1894     11.5316E-03     29.2750E-03    -4.11102E+06    -39.1523E+06     3.63712E+06     920.286E+03    -17.0071E-03     31.5889E-03    -14.5818E-03     44.7641E-03    -16.9911E-03     31.4088E-03    -14.5009E-03     44.7551E-03
            1895     10.6461E-03     29.2341E-03    -5.06628E+06    -47.7296E+06     2.61743E+06     939.365E+03    -16.6472E-03     31.0847E-03    -14.4376E-03     40.0631E-03    -16.6163E-03     30.8589E-03    -14.3479E-03     40.0598E-03
            1896     9.76050E-03     29.1974E-03    -5.95174E+06    -51.1525E+06     4.35710E+06     1.04880E+06    -16.2292E-03     30.5285E-03    -14.2992E-03     35.6073E-03    -16.1969E-03     30.2807E-03    -14.1946E-03     35.6097E-03
            1897     8.87444E-03     29.1647E-03    -7.01696E+06    -52.2822E+06     4.09535E+06     1.02663E+06    -15.7904E-03     29.9423E-03    -14.1519E-03     31.2468E-03    -15.7591E-03     29.6887E-03    -14.0455E-03     31.2520E-03
            1898     7.98820E-03     29.1362E-03    -8.20645E+06    -54.6891E+06     3.41527E+06     964.840E+03    -15.3660E-03     29.3777E-03    -14.0117E-03     27.0665E-03    -15.3349E-03     29.1134E-03    -13.9034E-03     27.0730E-03
            1899     7.10152E-03     29.1114E-03    -9.63527E+06    -56.1162E+06     2.16256E+06     906.293E+03    -14.9506E-03     28.8278E-03    -13.8772E-03     23.1111E-03    -14.9219E-03     28.5595E-03    -13.7711E-03     23.1184E-03
            1900     6.21462E-03     29.0904E-03    -11.1941E+06    -57.1576E+06     357.579E+03     810.109E+03    -14.5624E-03     28.3148E-03    -13.7524E-03     19.4403E-03    -14.5369E-03     28.0456E-03    -13.6515E-03     19.4475E-03
            1901     5.32734E-03     29.0727E-03    -12.9354E+06    -58.4846E+06    -2.16904E+06     527.448E+03    -14.2148E-03     27.8545E-03    -13.6397E-03     16.0715E-03    -14.1921E-03     27.5845E-03    -13.5469E-03     16.0758E-03
            1902     4.43988E-03     29.0582E-03    -14.7763E+06    -60.1051E+06    -5.61410E+06     258.588E+03    -13.9199E-03     27.4594E-03    -13.5396E-03     12.9817E-03    -13.8988E-03     27.1888E-03    -13.4591E-03     12.9831E-03
            1903     3.55212E-03     29.0466E-03    -16.5890E+06    -62.8902E+06    -9.77689E+06     265.875E+03    -13.6851E-03     27.1399E-03    -13.4548E-03     10.1286E-03    -13.6628E-03     26.8639E-03    -13.3885E-03     10.1306E-03
            1904     2.66425E-03     29.0378E-03    -18.2945E+06    -65.5061E+06    -14.0113E+06     275.302E+03    -13.5096E-03     26.8958E-03    -13.3861E-03     7.47066E-03    -13.4859E-03     26.6152E-03    -13.3347E-03     7.47320E-03
            1905     1.77622E-03     29.0315E-03    -19.7020E+06    -67.4922E+06    -17.5781E+06     264.593E+03    -13.3906E-03     26.7252E-03    -13.3346E-03     4.95850E-03    -13.3658E-03     26.4419E-03    -13.2961E-03     4.96127E-03
            1906     888.141E-06     29.0277E-03    -20.6516E+06     -68.722E+06    -19.9991E+06     196.879E+03    -13.3219E-03     26.6178E-03    -13.2958E-03     2.67875E-03    -13.2965E-03     26.3332E-03    -13.2662E-03     2.68094E-03
            1907     16.8431E-03     28.7219E-03    -2.08667E+06     129.430E+06     29.3401E+06     374.669E+03    -19.4496E-03     34.6742E-03    -15.2246E-03     102.720E-03    -20.5374E-03     36.1290E-03    -15.2625E-03     103.235E-03
            1908     15.9570E-03     28.6006E-03    -2.64728E+06     74.0391E+06    -17.0260E+06     442.027E+03    -20.1904E-03     35.1342E-03    -14.9438E-03     113.090E-03    -21.0064E-03     36.2531E-03    -15.1325E-03     113.249E-03
            1909     15.0729E-03     28.5097E-03    -4.01878E+06     27.7642E+06    -3.45689E+06     305.306E+03    -18.8042E-03     33.7484E-03    -14.9441E-03     80.4132E-03    -19.0469E-03     34.0854E-03    -14.9959E-03     80.3798E-03
            1910     14.1873E-03     28.4490E-03    -3.51567E+06    -738.692E+03    -481.503E+03     564.793E+03    -18.0791E-03     32.9376E-03    -14.8586E-03     61.0753E-03    -18.1651E-03     33.0100E-03    -14.8548E-03     61.0386E-03
            1911     13.3030E-03     28.3938E-03    -3.49021E+06    -28.5203E+06     -4.6458E+06     859.382E+03    -17.9731E-03     32.6956E-03    -14.7225E-03     56.1506E-03    -17.9858E-03     32.6081E-03    -14.6993E-03     56.1237E-03
            1912     12.4182E-03     28.3419E-03    -3.63112E+06    -36.1262E+06     1.44540E+06     1.12863E+06    -17.5712E-03     32.1683E-03    -14.5971E-03     50.3409E-03    -17.5642E-03     32.0160E-03    -14.5322E-03     50.3271E-03
            1913     11.5331E-03     28.2970E-03    -4.17919E+06    -38.9260E+06     3.51467E+06     1.24681E+06    -17.1035E-03     31.5456E-03    -14.4421E-03     44.0525E-03    -17.0876E-03     31.3665E-03    -14.3621E-03     44.0479E-03
            1914     10.6478E-03     28.2566E-03    -4.89979E+06    -47.5892E+06     2.48244E+06     1.11671E+06    -16.6949E-03     30.9737E-03    -14.2788E-03     39.3268E-03    -16.6630E-03     30.7482E-03    -14.1903E-03     39.3261E-03
            1915     9.76216E-03     28.2204E-03    -5.68550E+06    -51.1760E+06     4.21994E+06     1.07569E+06    -16.2255E-03     30.3485E-03    -14.1231E-03     34.8580E-03    -16.1913E-03     30.1003E-03    -14.0195E-03     34.8609E-03
            1916     8.87622E-03     28.1884E-03    -6.71045E+06    -52.0428E+06     4.21791E+06     1.10100E+06    -15.7438E-03     29.7044E-03    -13.9605E-03     30.5174E-03    -15.7115E-03     29.4512E-03    -13.8543E-03     30.5237E-03
            1917     7.98981E-03     28.1602E-03    -8.01262E+06    -54.5297E+06     3.47240E+06     1.03717E+06    -15.2722E-03     29.0780E-03    -13.8058E-03     26.3612E-03    -15.2404E-03     28.8141E-03    -13.6977E-03     26.3689E-03
            1918     7.10313E-03     28.1361E-03    -9.43281E+06    -55.8482E+06     2.31452E+06     948.630E+03    -14.8164E-03     28.4756E-03    -13.6592E-03     22.4509E-03    -14.7873E-03     28.2080E-03    -13.5529E-03     22.4589E-03
            1919     6.21601E-03     28.1154E-03    -10.9603E+06    -56.8396E+06     449.830E+03     752.920E+03    -14.3950E-03     27.9184E-03    -13.5234E-03     18.8387E-03    -14.3689E-03     27.6503E-03    -13.4228E-03     18.8452E-03
            1920     5.32865E-03     28.0982E-03    -12.5498E+06    -58.0091E+06    -2.10920E+06     519.047E+03    -14.0204E-03     27.4219E-03    -13.4015E-03     15.5432E-03    -13.9966E-03     27.1537E-03    -13.3097E-03     15.5475E-03
            1921     4.44092E-03     28.0840E-03    -14.3482E+06    -59.9785E+06    -5.67249E+06     386.611E+03    -13.7059E-03     27.0002E-03    -13.2943E-03     12.5360E-03    -13.6828E-03     26.7297E-03    -13.2149E-03     12.5392E-03
            1922     3.55304E-03     28.0728E-03    -16.2088E+06    -62.8645E+06    -9.69362E+06     396.111E+03    -13.4596E-03     26.6637E-03    -13.2042E-03     9.76342E-03    -13.4356E-03     26.3872E-03    -13.1380E-03     9.76717E-03
            1923     2.66491E-03     28.0641E-03    -17.8439E+06    -65.3505E+06    -13.6759E+06     443.749E+03    -13.2734E-03     26.4033E-03    -13.1299E-03     7.19178E-03    -13.2482E-03     26.1224E-03    -13.0776E-03     7.19655E-03
            1924     1.77671E-03     28.0581E-03    -19.1489E+06    -67.2156E+06    -17.0245E+06     351.957E+03    -13.1407E-03     26.2133E-03    -13.0726E-03     4.77521E-03    -13.1143E-03     25.9298E-03    -13.0325E-03     4.77913E-03
            1925     888.381E-06     28.0543E-03    -19.9918E+06    -68.3485E+06    -19.3921E+06     180.697E+03    -13.0363E-03     26.0875E-03    -13.0512E-03     2.56546E-03    -13.0090E-03     25.8030E-03    -13.0201E-03     2.56746E-03
            1926     16.8377E-03     27.7397E-03    -4.72515E+06     128.420E+06     28.7030E+06     170.449E+03    -19.5972E-03     34.8201E-03    -15.2229E-03     102.353E-03    -20.6913E-03     36.2701E-03    -15.2588E-03     102.853E-03
            1927     15.9567E-03     27.6201E-03    -5.25434E+06     73.3192E+06    -16.1148E+06    -126.305E+03    -20.7709E-03     35.6962E-03    -14.9253E-03     111.735E-03    -21.5946E-03     36.8082E-03    -15.1045E-03     111.873E-03
            1928     15.0727E-03     27.5302E-03    -3.37489E+06     28.4079E+06    -2.75941E+06     560.677E+03    -19.2807E-03     34.1622E-03    -14.8815E-03     79.3859E-03    -19.5206E-03     34.4990E-03    -14.9316E-03     79.3523E-03
            1929     14.1892E-03     27.4700E-03    -4.17818E+06    -907.315E+03    -679.137E+03     477.339E+03    -18.3317E-03     33.0977E-03    -14.7660E-03     60.5288E-03    -18.4195E-03     33.1694E-03    -14.7621E-03     60.4903E-03
            1930     13.3044E-03     27.4146E-03    -4.16256E+06    -28.9012E+06    -4.95584E+06     733.756E+03    -18.1466E-03     32.7546E-03    -14.6080E-03     55.4538E-03    -18.1609E-03     32.6660E-03    -14.5849E-03     55.4250E-03
            1931     12.4199E-03     27.3635E-03    -4.19500E+06    -36.3105E+06     962.091E+03     1.09157E+06    -17.7044E-03     32.1651E-03    -14.4608E-03     49.5753E-03    -17.6986E-03     32.0128E-03    -14.3972E-03     49.5611E-03
            1932     11.5350E-03     27.3190E-03    -4.51656E+06    -38.7753E+06     3.35865E+06     1.14352E+06    -17.1867E-03     31.4731E-03    -14.2865E-03     43.3436E-03    -17.1721E-03     31.2951E-03    -14.2069E-03     43.3379E-03
            1933     10.6497E-03     27.2792E-03    -4.90273E+06    -47.3554E+06     2.39091E+06     1.12271E+06    -16.7199E-03     30.8240E-03    -14.1041E-03     38.5537E-03    -16.6878E-03     30.5995E-03    -14.0163E-03     38.5534E-03
            1934     9.76409E-03     27.2436E-03    -5.63451E+06    -51.0808E+06     4.14202E+06     1.09092E+06    -16.2058E-03     30.1370E-03    -13.9312E-03     34.0960E-03    -16.1712E-03     29.8891E-03    -13.8283E-03     34.0995E-03
            1935     8.87802E-03     27.2121E-03    -6.62580E+06    -51.9842E+06     4.19240E+06     1.14393E+06    -15.6824E-03     29.4352E-03    -13.7527E-03     29.7479E-03    -15.6495E-03     29.1820E-03    -13.6468E-03     29.7551E-03
            1936     7.99164E-03     27.1847E-03    -7.78433E+06    -54.2271E+06     3.53705E+06     1.12632E+06    -15.1645E-03     28.7476E-03    -13.5830E-03     25.6150E-03    -15.1320E-03     28.4847E-03    -13.4754E-03     25.6240E-03
            1937     7.10475E-03     27.1610E-03    -9.16694E+06    -55.6152E+06     2.33117E+06     974.080E+03    -14.6690E-03     28.0924E-03    -13.4235E-03     21.7464E-03    -14.6388E-03     27.8256E-03    -13.3179E-03     21.7549E-03
            1938     6.21759E-03     27.1409E-03    -10.6950E+06    -56.3241E+06     417.080E+03     731.458E+03    -14.2119E-03     27.4881E-03    -13.2762E-03     18.2003E-03    -14.1851E-03     27.2222E-03    -13.1770E-03     18.2067E-03
            1939     5.32997E-03     27.1241E-03    -12.3773E+06    -57.8141E+06    -2.26722E+06     505.554E+03    -13.8124E-03     26.9576E-03    -13.1452E-03     14.9776E-03    -13.7877E-03     26.6903E-03    -13.0547E-03     14.9818E-03
            1940     4.44213E-03     27.1104E-03    -14.1219E+06    -59.8911E+06    -5.83322E+06     567.924E+03    -13.4794E-03     26.5093E-03    -13.0300E-03     12.0552E-03    -13.4550E-03     26.2391E-03    -12.9518E-03     12.0607E-03
            1941     3.55397E-03     27.0994E-03    -15.9258E+06    -62.7640E+06    -9.70358E+06     630.596E+03    -13.2172E-03     26.1502E-03    -12.9331E-03     9.38159E-03    -13.1919E-03     25.8738E-03    -12.8675E-03     9.38843E-03
            1942     2.66569E-03     27.0911E-03    -17.6058E+06    -65.1018E+06    -13.4870E+06     585.254E+03    -13.0131E-03     25.8663E-03    -12.8532E-03     6.90290E-03    -12.9873E-03     25.5860E-03    -12.8007E-03     6.90953E-03
            1943     1.77719E-03     27.0852E-03    -18.9091E+06    -66.7446E+06    -16.9006E+06     408.585E+03    -12.8606E-03     25.6531E-03    -12.7925E-03     4.58147E-03    -12.8339E-03     25.3713E-03    -12.7528E-03     4.58615E-03
            1944     888.630E-06     27.0816E-03    -19.7319E+06    -68.0056E+06    -19.2040E+06     188.423E+03    -12.7533E-03     25.5285E-03    -12.7752E-03     2.46376E-03    -12.7255E-03     25.2451E-03    -12.7440E-03     2.46587E-03
            1945     16.8445E-03     26.7608E-03    -1.30378E+06     128.902E+06     29.4361E+06     1.22241E+06    -20.2871E-03     35.4612E-03    -15.1741E-03     101.455E-03    -21.3538E-03     36.8955E-03    -15.2119E-03     101.945E-03
            1946     15.9582E-03     26.6388E-03    -2.34373E+06     73.0323E+06    -16.5151E+06     684.371E+03    -20.7914E-03     35.6405E-03    -14.8491E-03     110.441E-03    -21.5866E-03     36.7345E-03    -15.0341E-03     110.580E-03
            1947     15.0752E-03     26.5506E-03    -3.89297E+06     28.4121E+06    -2.69441E+06     257.982E+03    -19.4534E-03     34.2529E-03    -14.7995E-03     78.3179E-03    -19.6928E-03     34.5872E-03    -14.8485E-03     78.2788E-03
            1948     14.1902E-03     26.4906E-03    -3.69341E+06    -703.906E+03    -254.514E+03     594.555E+03    -18.6304E-03     33.2926E-03    -14.6622E-03     60.0579E-03    -18.7161E-03     33.3635E-03    -14.6571E-03     60.0200E-03
            1949     13.3063E-03     26.4358E-03    -3.75856E+06    -29.3828E+06    -4.62397E+06     787.535E+03    -18.3071E-03     32.7889E-03    -14.4818E-03     54.8141E-03    -18.3182E-03     32.6959E-03    -14.4569E-03     54.7861E-03
            1950     12.4217E-03     26.3851E-03    -3.84567E+06    -36.2556E+06     1.16059E+06     935.469E+03    -17.8015E-03     32.1154E-03    -14.3138E-03     48.8553E-03    -17.7937E-03     31.9618E-03    -14.2499E-03     48.8394E-03
            1951     11.5369E-03     26.3412E-03    -4.10673E+06    -38.7882E+06     3.43452E+06     943.494E+03    -17.2623E-03     31.3821E-03    -14.1198E-03     42.6136E-03    -17.2452E-03     31.2028E-03    -14.0404E-03     42.6056E-03
            1952     10.6517E-03     26.3021E-03    -4.63447E+06    -47.2710E+06     2.44779E+06     1.07365E+06    -16.7467E-03     30.6648E-03    -13.9181E-03     37.7722E-03    -16.7131E-03     30.4399E-03    -13.8306E-03     37.7716E-03
            1953     9.76605E-03     26.2670E-03    -5.37929E+06    -50.9992E+06     4.07854E+06     1.17022E+06    -16.1873E-03     29.9136E-03    -13.7263E-03     33.2919E-03    -16.1512E-03     29.6655E-03    -13.6241E-03     33.2967E-03
            1954     8.88004E-03     26.2362E-03    -6.44551E+06    -51.8977E+06     4.03867E+06     1.21481E+06    -15.6146E-03     29.1448E-03    -13.5302E-03     28.9329E-03    -15.5805E-03     28.8919E-03    -13.4254E-03     28.9413E-03
            1955     7.99350E-03     26.2094E-03    -7.69343E+06    -53.9578E+06     3.34762E+06     1.18431E+06    -15.0522E-03     28.3967E-03    -13.3445E-03     24.8149E-03    -15.0192E-03     28.1352E-03    -13.2384E-03     24.8249E-03
            1956     7.10660E-03     26.1863E-03    -9.06124E+06    -55.2516E+06     2.14833E+06     1.02589E+06    -14.5102E-03     27.6812E-03    -13.1710E-03     20.9960E-03    -14.4797E-03     27.4162E-03    -13.0670E-03     21.0053E-03
            1957     6.21918E-03     26.1668E-03    -10.6222E+06    -55.9102E+06     191.164E+03     801.950E+03    -14.0175E-03     27.0295E-03    -13.0120E-03     17.5197E-03    -13.9906E-03     26.7659E-03    -12.9146E-03     17.5271E-03
            1958     5.33147E-03     26.1506E-03    -12.3655E+06    -57.5983E+06    -2.56172E+06     666.759E+03    -13.5913E-03     26.4623E-03    -12.8710E-03     14.3840E-03    -13.5663E-03     26.1964E-03    -12.7824E-03     14.3904E-03
            1959     4.44335E-03     26.1373E-03    -14.2428E+06    -60.0191E+06    -6.17472E+06     769.195E+03    -13.2364E-03     25.9839E-03    -12.7476E-03     11.5598E-03    -13.2119E-03     25.7137E-03    -12.6708E-03     11.5680E-03
            1960     3.55504E-03     26.1266E-03    -16.0200E+06    -62.4476E+06    -10.0314E+06     893.873E+03    -12.9501E-03     25.5931E-03    -12.6430E-03     8.98712E-03    -12.9253E-03     25.3188E-03    -12.5794E-03     8.99743E-03
            1961     2.66644E-03     26.1185E-03    -17.5672E+06    -64.7088E+06    -13.7150E+06     715.428E+03    -12.7293E-03     25.2880E-03    -12.5587E-03     6.60198E-03    -12.7035E-03     25.0099E-03    -12.5080E-03     6.61035E-03
            1962     1.77774E-03     26.1128E-03    -18.7731E+06    -66.1971E+06    -16.8963E+06     499.034E+03    -12.5703E-03     25.0659E-03    -12.4955E-03     4.37312E-03    -12.5438E-03     24.7866E-03    -12.4568E-03     4.37900E-03
            1963     888.870E-06     26.1094E-03    -19.5834E+06    -67.5663E+06    -19.1203E+06     256.285E+03    -12.4683E-03     24.9328E-03    -12.4644E-03     2.34623E-03    -12.4405E-03     24.6512E-03    -12.4337E-03     2.34924E-03
            1964     16.8406E-03     25.7783E-03    -3.04035E+06     128.070E+06     29.1949E+06     204.205E+03    -20.7244E-03     35.8723E-03    -15.1479E-03     102.409E-03    -21.7974E-03     37.3046E-03    -15.1833E-03     102.875E-03
            1965     15.9601E-03     25.6590E-03    -2.76896E+06     73.5895E+06    -15.7295E+06     1.75103E+06    -21.2124E-03     36.0137E-03    -14.8013E-03     111.109E-03    -22.0047E-03     37.1030E-03    -14.9826E-03     111.251E-03
            1966     15.0751E-03     25.5706E-03    -2.29583E+06     28.9293E+06    -2.54413E+06     1.20832E+06    -19.8414E-03     34.5623E-03    -14.7208E-03     78.3904E-03    -20.0723E-03     34.8951E-03    -14.7722E-03     78.3611E-03
            1967     14.1922E-03     25.5109E-03    -2.64604E+06    -688.688E+03     69.5577E+03     561.237E+03    -18.9972E-03     33.5550E-03    -14.5578E-03     59.4669E-03    -19.0771E-03     33.6229E-03    -14.5526E-03     59.4275E-03
            1968     13.3080E-03     25.4569E-03    -2.68963E+06    -29.5613E+06    -4.65437E+06     893.261E+03    -18.4991E-03     32.8489E-03    -14.3498E-03     54.1916E-03    -18.5036E-03     32.7524E-03    -14.3263E-03     54.1651E-03
            1969     12.4237E-03     25.4067E-03    -2.86758E+06    -36.1947E+06     1.49966E+06     1.04211E+06    -17.9417E-03     32.1032E-03    -14.1615E-03     48.2130E-03    -17.9289E-03     31.9474E-03    -14.0974E-03     48.1987E-03
            1970     11.5389E-03     25.3635E-03    -3.56417E+06    -38.6577E+06     3.35955E+06     1.03196E+06    -17.3566E-03     31.3009E-03    -13.9443E-03     41.8281E-03    -17.3364E-03     31.1211E-03    -13.8663E-03     41.8216E-03
            1971     10.6538E-03     25.3250E-03    -4.21636E+06    -47.4221E+06     2.21240E+06     1.10751E+06    -16.7909E-03     30.5119E-03    -13.7210E-03     36.9109E-03    -16.7543E-03     30.2857E-03    -13.6351E-03     36.9110E-03
            1972     9.76821E-03     25.2907E-03    -5.00695E+06    -50.9357E+06     3.85629E+06     1.32314E+06    -16.1754E-03     29.6840E-03    -13.5086E-03     32.4009E-03    -16.1370E-03     29.4358E-03    -13.4082E-03     32.4080E-03
            1973     8.88208E-03     25.2605E-03    -6.07190E+06    -51.8245E+06     3.80482E+06     1.40702E+06    -15.5453E-03     28.8391E-03    -13.2938E-03     28.0402E-03    -15.5090E-03     28.5862E-03    -13.1908E-03     28.0513E-03
            1974     7.99556E-03     25.2344E-03    -7.34368E+06    -53.5959E+06     3.21174E+06     1.35448E+06    -14.9279E-03     28.0198E-03    -13.0919E-03     23.9512E-03    -14.8934E-03     27.7597E-03    -12.9874E-03     23.9636E-03
            1975     7.10844E-03     25.2121E-03    -8.82528E+06    -54.9089E+06     2.07059E+06     1.16782E+06    -14.3443E-03     27.2489E-03    -12.9047E-03     20.1982E-03    -14.3129E-03     26.9853E-03    -12.8019E-03     20.2095E-03
            1976     6.22096E-03     25.1932E-03    -10.4540E+06    -55.4981E+06     48.4949E+03     990.516E+03    -13.8116E-03     26.5447E-03    -12.7331E-03     16.8046E-03    -13.7842E-03     26.2831E-03    -12.6372E-03     16.8146E-03
            1977     5.33297E-03     25.1775E-03    -12.2259E+06    -57.4774E+06    -2.73164E+06     912.066E+03    -13.3554E-03     25.9377E-03    -12.5823E-03     13.7684E-03    -13.3296E-03     25.6724E-03    -12.4949E-03     13.7781E-03
            1978     4.44471E-03     25.1646E-03    -14.0294E+06    -60.0519E+06    -6.20481E+06     1.05994E+06    -12.9770E-03     25.4282E-03    -12.4512E-03     11.0432E-03    -12.9514E-03     25.1575E-03    -12.3748E-03     11.0553E-03
            1979     3.55609E-03     25.1544E-03    -15.7317E+06    -62.0342E+06    -10.0260E+06     1.06106E+06    -12.6674E-03     25.0070E-03    -12.3396E-03     8.57494E-03    -12.6418E-03     24.7343E-03    -12.2769E-03     8.58747E-03
            1980     2.66730E-03     25.1466E-03    -17.1468E+06    -64.1142E+06    -13.6001E+06     838.740E+03    -12.4317E-03     24.6830E-03    -12.2513E-03     6.29230E-03    -12.4049E-03     24.4071E-03    -12.2014E-03     6.30230E-03
            1981     1.77826E-03     25.1411E-03    -18.2435E+06    -65.6710E+06    -16.5511E+06     566.062E+03    -12.2718E-03     24.4565E-03    -12.1848E-03     4.16894E-03    -12.2438E-03     24.1787E-03    -12.1459E-03     4.17572E-03
            1982     889.208E-06     25.1377E-03    -18.8997E+06    -66.9608E+06    -18.4893E+06     362.421E+03    -12.1725E-03     24.3080E-03    -12.1355E-03     2.22442E-03    -12.1431E-03     24.0275E-03    -12.1034E-03     2.22882E-03
            1983     16.8433E-03     24.7960E-03    -2.85607E+06     126.416E+06     27.9794E+06     238.777E+03    -20.9777E-03     36.1047E-03    -15.1270E-03     100.618E-03    -22.0244E-03     37.5089E-03    -15.1663E-03     101.065E-03
            1984     15.9584E-03     24.6782E-03    -3.62289E+06     73.1172E+06    -15.8239E+06     741.049E+03    -21.5534E-03     36.3174E-03    -14.7641E-03     109.612E-03    -22.3345E-03     37.3912E-03    -14.9440E-03     109.732E-03
            1985     15.0771E-03     24.5896E-03    -2.53539E+06     30.3474E+06    -1.84906E+06     970.558E+03    -20.3686E-03     35.0210E-03    -14.6524E-03     77.3745E-03    -20.6021E-03     35.3586E-03    -14.7020E-03     77.3382E-03
            1986     14.1934E-03     24.5312E-03    -2.57687E+06    -891.931E+03    -716.152E+03     957.255E+03    -19.2793E-03     33.7318E-03    -14.4525E-03     58.6335E-03    -19.3560E-03     33.7983E-03    -14.4511E-03     58.5986E-03
            1987     13.3097E-03     24.4778E-03    -2.64601E+06    -29.7210E+06    -5.11332E+06     944.072E+03    -18.7811E-03     33.0003E-03    -14.2193E-03     53.4868E-03    -18.7836E-03     32.9028E-03    -14.1979E-03     53.4606E-03
            1988     12.4255E-03     24.4284E-03    -2.69415E+06    -36.2271E+06     1.03935E+06     1.17656E+06    -18.1647E-03     32.1669E-03    -14.0022E-03     47.3722E-03    -18.1496E-03     32.0107E-03    -13.9406E-03     47.3597E-03
            1989     11.5410E-03     24.3857E-03    -3.07822E+06    -38.5037E+06     3.09293E+06     1.26702E+06    -17.4829E-03     31.2415E-03    -13.7585E-03     40.8680E-03    -17.4596E-03     31.0616E-03    -13.6828E-03     40.8648E-03
            1990     10.6560E-03     24.3480E-03    -3.90689E+06    -47.4826E+06     1.79848E+06     1.39674E+06    -16.8351E-03     30.3466E-03    -13.5115E-03     35.9266E-03    -16.7960E-03     30.1198E-03    -13.4280E-03     35.9308E-03
            1991     9.77039E-03     24.3145E-03    -4.83538E+06    -50.9547E+06     3.44131E+06     1.52354E+06    -16.1581E-03     29.4360E-03    -13.2778E-03     31.4160E-03    -16.1180E-03     29.1878E-03    -13.1797E-03     31.4259E-03
            1992     8.88436E-03     24.2852E-03    -5.85784E+06    -51.6642E+06     3.46186E+06     1.61002E+06    -15.4628E-03     28.5067E-03    -13.0439E-03     27.0642E-03    -15.4249E-03     28.2547E-03    -12.9432E-03     27.0781E-03
            1993     7.99763E-03     24.2599E-03    -7.06218E+06    -53.2848E+06     3.01816E+06     1.57547E+06    -14.7875E-03     27.6136E-03    -12.8262E-03     23.0331E-03    -14.7516E-03     27.3548E-03    -12.7236E-03     23.0485E-03
            1994     7.11048E-03     24.2382E-03    -8.48701E+06    -54.4533E+06     2.10335E+06     1.42553E+06    -14.1585E-03     26.7847E-03    -12.6262E-03     19.3581E-03    -14.1261E-03     26.5228E-03    -12.5244E-03     19.3729E-03
            1995     6.22273E-03     24.2201E-03    -10.1044E+06    -55.1405E+06     175.304E+03     1.20444E+06    -13.5922E-03     26.0358E-03    -12.4437E-03     16.0687E-03    -13.5636E-03     25.7752E-03    -12.3482E-03     16.0815E-03
            1996     5.33461E-03     24.2049E-03    -11.8246E+06    -57.3836E+06    -2.61091E+06     1.20431E+06    -13.1079E-03     25.3912E-03    -12.2833E-03     13.1403E-03    -13.0805E-03     25.1257E-03    -12.1960E-03     13.1538E-03
            1997     4.44606E-03     24.1926E-03    -13.5938E+06    -59.9436E+06    -6.03343E+06     1.30061E+06    -12.7041E-03     24.8484E-03    -12.1443E-03     10.5200E-03    -12.6767E-03     24.5774E-03    -12.0678E-03     10.5352E-03
            1998     3.55724E-03     24.1827E-03    -15.2008E+06    -61.4534E+06    -9.70265E+06     1.23337E+06    -12.3733E-03     24.4000E-03    -12.0267E-03     8.15558E-03    -12.3463E-03     24.1290E-03    -11.9641E-03     8.17040E-03
            1999     2.66811E-03     24.1752E-03    -16.6089E+06    -63.4760E+06    -13.2135E+06     951.357E+03    -12.1250E-03     24.0595E-03    -11.9346E-03     5.98825E-03    -12.0969E-03     23.7855E-03    -11.8845E-03     5.99975E-03
            2000     1.77887E-03     24.1699E-03    -17.6971E+06    -65.0476E+06    -16.1212E+06     672.865E+03    -11.9536E-03     23.8204E-03    -11.8668E-03     3.97136E-03    -11.9244E-03     23.5442E-03    -11.8274E-03     3.97955E-03
            2001     889.440E-06     24.1668E-03    -18.4664E+06    -66.2409E+06    -17.9404E+06     375.797E+03    -11.8458E-03     23.6725E-03    -11.8267E-03     2.11320E-03    -11.8160E-03     23.3942E-03    -11.7936E-03     2.11778E-03
            2002     16.8435E-03     23.8170E-03    -2.39983E+06     126.447E+06     29.0890E+06     141.648E+03    -21.7729E-03     36.8698E-03    -15.0969E-03     99.6537E-03    -22.8029E-03     38.2558E-03    -15.1313E-03     100.071E-03
            2003     15.9615E-03     23.6958E-03    -2.49571E+06     73.3434E+06    -15.9501E+06     677.852E+03    -21.9134E-03     36.6059E-03    -14.6925E-03     109.258E-03    -22.6778E-03     37.6681E-03    -14.8750E-03     109.364E-03
            2004     15.0779E-03     23.6092E-03    -2.25459E+06     29.8545E+06    -2.54083E+06     754.523E+03    -20.5434E-03     35.1031E-03    -14.5597E-03     76.2758E-03    -20.7692E-03     35.4343E-03    -14.6125E-03     76.2352E-03
            2005     14.1948E-03     23.5512E-03    -2.34954E+06    -571.830E+03    -545.124E+03     1.07447E+06    -19.5404E-03     33.8821E-03    -14.3417E-03     57.4692E-03    -19.6149E-03     33.9478E-03    -14.3402E-03     57.4352E-03
            2006     13.3114E-03     23.4985E-03    -2.60287E+06    -29.6438E+06    -5.65574E+06     1.08571E+06    -19.0674E-03     33.1453E-03    -14.0778E-03     52.4195E-03    -19.0681E-03     33.0479E-03    -14.0594E-03     52.3949E-03
            2007     12.4277E-03     23.4498E-03    -2.69086E+06    -36.3808E+06     554.017E+03     1.07327E+06    -18.3999E-03     32.2310E-03    -13.8312E-03     46.2418E-03    -18.3832E-03     32.0741E-03    -13.7717E-03     46.2280E-03
            2008     11.5433E-03     23.4081E-03    -3.14095E+06    -38.6006E+06     2.69924E+06     1.46695E+06    -17.5906E-03     31.1507E-03    -13.5601E-03     39.7584E-03    -17.5665E-03     30.9706E-03    -13.4861E-03     39.7581E-03
            2009     10.6583E-03     23.3713E-03    -3.67459E+06    -47.4649E+06     1.59151E+06     1.69670E+06    -16.8699E-03     30.1593E-03    -13.2895E-03     34.8363E-03    -16.8289E-03     29.9323E-03    -13.2074E-03     34.8447E-03
            2010     9.77284E-03     23.3386E-03    -4.39803E+06    -50.8494E+06     3.25047E+06     1.78135E+06    -16.1135E-03     29.1480E-03    -13.0345E-03     30.3332E-03    -16.0708E-03     28.8998E-03    -12.9381E-03     30.3467E-03
            2011     8.88661E-03     23.3102E-03    -5.41712E+06    -51.5277E+06     3.35127E+06     1.83861E+06    -15.3548E-03     28.1380E-03    -12.7832E-03     26.0300E-03    -15.3147E-03     27.8860E-03    -12.6839E-03     26.0471E-03
            2012     7.99990E-03     23.2857E-03    -6.62342E+06    -52.9406E+06     3.10489E+06     1.82299E+06    -14.6266E-03     27.1777E-03    -12.5511E-03     22.0725E-03    -14.5891E-03     26.9198E-03    -12.4492E-03     22.0912E-03
            2013     7.11248E-03     23.2649E-03    -7.95734E+06    -53.9216E+06     2.32319E+06     1.58195E+06    -13.9488E-03     26.2881E-03    -12.3394E-03     18.5007E-03    -13.9147E-03     26.0277E-03    -12.2380E-03     18.5176E-03
            2014     6.22462E-03     23.2473E-03    -9.42744E+06    -54.8569E+06     475.067E+03     1.44490E+06    -13.3530E-03     25.5009E-03    -12.1479E-03     15.3282E-03    -13.3219E-03     25.2402E-03    -12.0523E-03     15.3443E-03
            2015     5.33622E-03     23.2329E-03    -11.1598E+06    -57.3011E+06    -2.28925E+06     1.54217E+06    -12.8465E-03     24.8265E-03    -11.9800E-03     12.5195E-03    -12.8163E-03     24.5599E-03    -11.8922E-03     12.5375E-03
            2016     4.44748E-03     23.2210E-03    -12.9685E+06    -59.6104E+06    -5.64696E+06     1.61639E+06    -12.4207E-03     24.2554E-03    -11.8346E-03     10.0135E-03    -12.3912E-03     23.9845E-03    -11.7576E-03     10.0330E-03
            2017     3.55835E-03     23.2117E-03    -14.6465E+06    -60.8063E+06    -9.34620E+06     1.44107E+06    -12.0755E-03     23.7871E-03    -11.7116E-03     7.75997E-03    -12.0472E-03     23.5180E-03    -11.6489E-03     7.77754E-03
            2018     2.66901E-03     23.2045E-03    -16.0845E+06    -62.7413E+06    -12.7711E+06     1.15833E+06    -11.8155E-03     23.4315E-03    -11.6160E-03     5.69670E-03    -11.7865E-03     23.1597E-03    -11.5656E-03     5.71092E-03
            2019     1.77942E-03     23.1994E-03    -17.2977E+06    -64.3073E+06    -15.6637E+06     836.758E+03    -11.6293E-03     23.1774E-03    -11.5481E-03     3.77161E-03    -11.5998E-03     22.9037E-03    -11.5081E-03     3.78194E-03
            2020     889.755E-06     23.1964E-03    -17.9982E+06    -65.3722E+06    -17.6512E+06     447.275E+03    -11.5226E-03     23.0365E-03    -11.5139E-03     2.01268E-03    -11.4921E-03     22.7614E-03    -11.4813E-03     2.01821E-03
            2021     16.8431E-03     22.8314E-03    -3.76463E+06     126.100E+06     28.3870E+06     24.5225E+03    -22.6308E-03     37.7094E-03    -15.0786E-03     98.6085E-03    -23.6591E-03     39.0897E-03    -15.1141E-03     98.9962E-03
            2022     15.9617E-03     22.7159E-03    -4.50694E+06     73.2015E+06    -15.9135E+06    -270.777E+03    -22.6964E-03     37.3250E-03    -14.6286E-03     108.118E-03    -23.4625E-03     38.3812E-03    -14.8078E-03     108.194E-03
            2023     15.0795E-03     22.6273E-03    -3.17006E+06     29.2806E+06    -2.29750E+06     620.587E+03    -20.8052E-03     35.2641E-03    -14.4589E-03     75.3167E-03    -21.0305E-03     35.5887E-03    -14.5082E-03     75.2720E-03
            2024     14.1970E-03     22.5715E-03    -3.24033E+06    -1.02559E+06    -1.01977E+06     784.087E+03    -19.8152E-03     34.0269E-03    -14.2117E-03     56.3565E-03    -19.8911E-03     34.0906E-03    -14.2106E-03     56.3182E-03
            2025     13.3136E-03     22.5189E-03    -2.77157E+06    -29.1367E+06    -5.85753E+06     905.090E+03    -19.3368E-03     33.2547E-03    -13.9179E-03     51.3585E-03    -19.3377E-03     33.1594E-03    -13.9009E-03     51.3313E-03
            2026     12.4300E-03     22.4713E-03    -2.74226E+06    -36.7451E+06    -90.4149E+03     1.15120E+06    -18.5475E-03     32.1895E-03    -13.6420E-03     44.9192E-03    -18.5288E-03     32.0309E-03    -13.5852E-03     44.9067E-03
            2027     11.5457E-03     22.4306E-03    -3.07926E+06    -38.8198E+06     2.33538E+06     1.51076E+06    -17.6664E-03     31.0136E-03    -13.3472E-03     38.5453E-03    -17.6405E-03     30.8322E-03    -13.2747E-03     38.5459E-03
            2028     10.6609E-03     22.3946E-03    -3.49269E+06    -47.3845E+06     1.22093E+06     1.78021E+06    -16.8662E-03     29.9199E-03    -13.0536E-03     33.6623E-03    -16.8236E-03     29.6931E-03    -12.9738E-03     33.6722E-03
            2029     9.77527E-03     22.3631E-03    -4.05108E+06    -50.8057E+06     3.17754E+06     1.92068E+06    -16.0335E-03     28.8146E-03    -12.7811E-03     29.1979E-03    -15.9888E-03     28.5659E-03    -12.6857E-03     29.2136E-03
            2030     8.88908E-03     22.3355E-03    -4.88089E+06    -51.3717E+06     3.40232E+06     2.07777E+06    -15.2090E-03     27.7238E-03    -12.5148E-03     24.9692E-03    -15.1663E-03     27.4716E-03    -12.4162E-03     24.9896E-03
            2031     8.00211E-03     22.3120E-03    -5.91134E+06    -52.4872E+06     3.40296E+06     1.97368E+06    -14.4330E-03     26.7044E-03    -12.2714E-03     21.1081E-03    -14.3929E-03     26.4472E-03    -12.1697E-03     21.1290E-03
            2032     7.11461E-03     22.2920E-03    -7.19427E+06    -53.4420E+06     2.63981E+06     1.79888E+06    -13.7204E-03     25.7707E-03    -12.0503E-03     17.6527E-03    -13.6837E-03     25.5111E-03    -11.9492E-03     17.6727E-03
            2033     6.22645E-03     22.2753E-03    -8.81934E+06    -54.6532E+06     545.914E+03     1.76973E+06    -13.0942E-03     24.9455E-03    -11.8513E-03     14.6072E-03    -13.0604E-03     24.6848E-03    -11.7565E-03     14.6276E-03
            2034     5.33786E-03     22.2613E-03    -10.5130E+06    -57.1637E+06    -2.02522E+06     1.89455E+06    -12.5690E-03     24.2486E-03    -11.6795E-03     11.9191E-03    -12.5361E-03     23.9813E-03    -11.5915E-03     11.9418E-03
            2035     4.44882E-03     22.2501E-03    -12.1910E+06    -59.1357E+06    -5.18711E+06     1.93731E+06    -12.1329E-03     23.6638E-03    -11.5308E-03     9.52686E-03    -12.1008E-03     23.3935E-03    -11.4533E-03     9.55053E-03
            2036     3.55946E-03     22.2411E-03    -13.8280E+06    -60.0543E+06    -8.75830E+06     1.77611E+06    -11.7811E-03     23.1859E-03    -11.4048E-03     7.38379E-03    -11.7506E-03     22.9185E-03    -11.3415E-03     7.40575E-03
            2037     2.66982E-03     22.2344E-03    -15.3189E+06    -61.8913E+06    -12.0846E+06     1.43999E+06    -11.5121E-03     22.8192E-03    -11.3072E-03     5.41791E-03    -11.4815E-03     22.5496E-03    -11.2556E-03     5.43582E-03
            2038     1.78000E-03     22.2295E-03    -16.4313E+06    -63.3326E+06    -14.8726E+06     1.01024E+06    -11.3215E-03     22.5594E-03    -11.2379E-03     3.59267E-03    -11.2903E-03     22.2882E-03    -11.1966E-03     3.60527E-03
            2039     890.003E-06     22.2266E-03    -17.2244E+06    -64.3751E+06    -16.7687E+06     583.257E+03    -11.2252E-03     22.4152E-03    -11.1900E-03     1.94463E-03    -11.1937E-03     22.1427E-03    -11.1555E-03     1.95192E-03
            2040     16.8440E-03     21.8485E-03    -2.00391E+06     126.934E+06     29.9361E+06     659.798E+03    -23.2978E-03     38.3554E-03    -15.0576E-03     97.2479E-03    -24.3078E-03     39.7221E-03    -15.0891E-03     97.6151E-03
            2041     15.9633E-03     21.7323E-03    -2.72267E+06     73.1728E+06    -15.9923E+06     386.095E+03    -23.3616E-03     37.9202E-03    -14.5586E-03     106.291E-03    -24.1071E-03     38.9622E-03    -14.7407E-03     106.358E-03
            2042     15.0818E-03     21.6472E-03    -3.14219E+06     28.4993E+06    -2.88402E+06     189.343E+03    -21.3629E-03     35.7096E-03    -14.3466E-03     74.1390E-03    -21.5822E-03     36.0272E-03    -14.3978E-03     74.0849E-03
            2043     14.1983E-03     21.5908E-03    -2.82702E+06    -553.891E+03    -713.441E+03     661.006E+03    -20.1423E-03     34.2074E-03    -14.0651E-03     55.3158E-03    -20.2154E-03     34.2706E-03    -14.0638E-03     55.2752E-03
            2044     13.3161E-03     21.5394E-03    -3.01507E+06    -29.4180E+06    -6.35202E+06     688.795E+03    -19.5535E-03     33.2932E-03    -13.7397E-03     50.0442E-03    -19.5533E-03     33.1964E-03    -13.7244E-03     50.0142E-03
            2045     12.4325E-03     21.4929E-03    -2.80910E+06    -37.0751E+06    -557.960E+03     1.09206E+06    -18.6309E-03     32.0694E-03    -13.4384E-03     43.6063E-03    -18.6104E-03     31.9089E-03    -13.3834E-03     43.5935E-03
            2046     11.5484E-03     21.4531E-03    -3.04176E+06    -39.0469E+06     1.95449E+06     1.53861E+06    -17.6812E-03     30.8037E-03    -13.1226E-03     37.3029E-03    -17.6536E-03     30.6211E-03    -13.0518E-03     37.3043E-03
            2047     10.6634E-03     21.4184E-03    -3.39160E+06    -47.3000E+06     829.923E+03     1.72562E+06    -16.8104E-03     29.6204E-03    -12.8100E-03     32.4947E-03    -16.7665E-03     29.3941E-03    -12.7323E-03     32.5042E-03
            2048     9.77789E-03     21.3876E-03    -3.85429E+06    -50.9624E+06     2.95605E+06     1.98975E+06    -15.9154E-03     28.4385E-03    -12.5230E-03     28.0612E-03    -15.8689E-03     28.1888E-03    -12.4288E-03     28.0781E-03
            2049     8.89145E-03     21.3613E-03    -4.53814E+06    -51.0620E+06     3.36929E+06     2.08546E+06    -15.0272E-03     27.2721E-03    -12.2449E-03     23.9252E-03    -14.9831E-03     27.0208E-03    -12.1474E-03     23.9461E-03
            2050     8.00439E-03     21.3386E-03    -5.27472E+06    -52.0313E+06     3.45527E+06     1.93902E+06    -14.2097E-03     26.2027E-03    -11.9929E-03     20.1753E-03    -14.1671E-03     25.9466E-03    -11.8926E-03     20.1960E-03
            2051     7.11659E-03     21.3197E-03    -6.33714E+06    -53.3089E+06     3.02769E+06     2.04009E+06    -13.4748E-03     25.2425E-03    -11.7677E-03     16.8270E-03    -13.4344E-03     24.9816E-03    -11.6661E-03     16.8502E-03
            2052     6.22828E-03     21.3036E-03    -7.82913E+06    -54.3942E+06     964.227E+03     2.25680E+06    -12.8294E-03     24.3936E-03    -11.5642E-03     13.9079E-03    -12.7916E-03     24.1322E-03    -11.4692E-03     13.9347E-03
            2053     5.33940E-03     21.2905E-03    -9.57804E+06    -56.8847E+06    -1.68342E+06     2.29471E+06    -12.2882E-03     23.6779E-03    -11.3898E-03     11.3434E-03    -12.2515E-03     23.4102E-03    -11.3018E-03     11.3713E-03
            2054     4.45013E-03     21.2797E-03    -11.3265E+06    -58.6083E+06    -4.73309E+06     2.31886E+06    -11.8474E-03     23.0876E-03    -11.2402E-03     9.06649E-03    -11.8124E-03     22.8180E-03    -11.1625E-03     9.09517E-03
            2055     3.56051E-03     21.2713E-03    -12.9726E+06    -59.1701E+06    -8.13532E+06     2.14003E+06    -11.4935E-03     22.6072E-03    -11.1136E-03     7.02597E-03    -11.4609E-03     22.3420E-03    -11.0497E-03     7.05268E-03
            2056     2.67062E-03     21.2647E-03    -14.3588E+06    -60.8301E+06    -11.3271E+06     1.74274E+06    -11.2242E-03     22.2395E-03    -11.0153E-03     5.14940E-03    -11.1914E-03     21.9726E-03    -10.9629E-03     5.17125E-03
            2057     1.78050E-03     21.2602E-03    -15.5394E+06    -62.1600E+06    -14.0615E+06     1.24015E+06    -11.0360E-03     21.9796E-03    -10.9436E-03     3.41793E-03    -11.0032E-03     21.7117E-03    -10.9012E-03     3.43353E-03
            2058     890.307E-06     21.2574E-03    -16.3211E+06    -63.1479E+06    -15.9279E+06      709.17E+03    -10.9317E-03     21.8226E-03    -10.8909E-03     1.86694E-03    -10.8986E-03     21.5537E-03    -10.8553E-03     1.87587E-03
            2059     16.8443E-03     20.8635E-03    -3.55571E+06     126.829E+06     30.7931E+06    -143.631E+03    -23.9835E-03     39.0033E-03    -15.0198E-03     95.8311E-03    -24.9853E-03     40.3535E-03    -15.0446E-03     96.1584E-03
            2060     15.9640E-03     20.7494E-03    -3.12855E+06     73.2635E+06    -14.6746E+06     213.916E+03    -23.8303E-03     38.3126E-03    -14.4823E-03     104.246E-03    -24.5631E-03     39.3370E-03    -14.6574E-03     104.295E-03
            2061     15.0826E-03     20.6653E-03    -2.56412E+06     28.3370E+06    -2.87149E+06     779.160E+03    -21.8899E-03     36.1139E-03    -14.2241E-03     72.3170E-03    -22.1006E-03     36.4245E-03    -14.2758E-03     72.2667E-03
            2062     14.2018E-03     20.6104E-03    -3.20102E+06    -402.343E+03    -592.822E+03     495.558E+03    -20.4758E-03     34.3826E-03    -13.9068E-03     54.1071E-03    -20.5491E-03     34.4449E-03    -13.9046E-03     54.0639E-03
            2063     13.3185E-03     20.5599E-03    -2.83092E+06    -29.5304E+06    -6.57452E+06     724.190E+03    -19.6606E-03     33.2128E-03    -13.5522E-03     48.8637E-03    -19.6575E-03     33.1139E-03    -13.5382E-03     48.8347E-03
            2064     12.4353E-03     20.5144E-03    -2.84317E+06    -37.6412E+06    -1.20327E+06     1.03098E+06    -18.6823E-03     31.9114E-03    -13.2291E-03     42.3575E-03    -18.6592E-03     31.7481E-03    -13.1764E-03     42.3446E-03
            2065     11.5510E-03     20.4761E-03    -3.00547E+06    -39.2456E+06     1.69614E+06     1.48230E+06    -17.6538E-03     30.5499E-03    -12.8960E-03     36.1288E-03    -17.6248E-03     30.3660E-03    -12.8263E-03     36.1301E-03
            2066     10.6661E-03     20.4422E-03    -3.32146E+06    -47.2500E+06     515.031E+03     1.73631E+06    -16.7180E-03     29.2855E-03    -12.5675E-03     31.3331E-03    -16.6729E-03     29.0594E-03    -12.4916E-03     31.3433E-03
            2067     9.78032E-03     20.4129E-03    -3.68764E+06    -51.1049E+06     2.59472E+06     1.87258E+06    -15.7593E-03     28.0278E-03    -12.2685E-03     26.9500E-03    -15.7110E-03     27.7775E-03    -12.1761E-03     26.9658E-03
            2068     8.89384E-03     20.3874E-03    -4.16147E+06    -50.7386E+06     3.44453E+06     1.99242E+06    -14.8285E-03     26.8115E-03    -11.9830E-03     22.8970E-03    -14.7829E-03     26.5610E-03    -11.8861E-03     22.9169E-03
            2069     8.00651E-03     20.3660E-03    -5.04114E+06    -51.6395E+06     3.37647E+06     1.92554E+06    -13.9716E-03     25.6962E-03    -11.7246E-03     19.2596E-03    -13.9281E-03     25.4417E-03    -11.6256E-03     19.2804E-03
            2070     7.11857E-03     20.3477E-03    -6.07729E+06    -53.4579E+06     2.89038E+06     2.07035E+06    -13.2146E-03     24.7115E-03    -11.4969E-03     16.0332E-03    -13.1725E-03     24.4496E-03    -11.3961E-03     16.0570E-03
            2071     6.22996E-03     20.3326E-03    -7.18425E+06    -54.2943E+06     1.03847E+06     2.51648E+06    -12.5622E-03     23.8544E-03    -11.2922E-03     13.2398E-03    -12.5214E-03     23.5924E-03    -11.1979E-03     13.2702E-03
            2072     5.34087E-03     20.3200E-03    -8.62637E+06    -56.5199E+06    -1.39268E+06     2.85448E+06    -12.0176E-03     23.1352E-03    -11.1176E-03     10.7950E-03    -11.9771E-03     22.8675E-03    -11.0301E-03     10.8302E-03
            2073     4.45134E-03     20.3099E-03    -10.3636E+06    -57.9056E+06    -4.27509E+06     2.83230E+06    -11.5711E-03     22.5402E-03    -10.9691E-03     8.63191E-03    -11.5329E-03     22.2721E-03    -10.8915E-03     8.66730E-03
            2074     3.56146E-03     20.3018E-03    -11.9862E+06    -58.1315E+06    -7.59720E+06     2.54378E+06    -11.2182E-03     22.0622E-03    -10.8440E-03     6.69148E-03    -11.1829E-03     21.8000E-03    -10.7803E-03     6.72347E-03
            2075     2.67133E-03     20.2958E-03    -13.4399E+06    -59.6258E+06    -10.7119E+06     2.14204E+06    -10.9577E-03     21.7044E-03    -10.7467E-03     4.90957E-03    -10.9230E-03     21.4413E-03    -10.6943E-03     4.93662E-03
            2076     1.78102E-03     20.2914E-03    -14.5921E+06     -60.703E+06    -13.2733E+06     1.58870E+06    -10.7728E-03     21.4467E-03    -10.6738E-03     3.26122E-03    -10.7385E-03     21.1836E-03    -10.6310E-03     3.28134E-03
            2077     890.531E-06     20.2888E-03    -15.3792E+06    -61.5951E+06    -15.0232E+06     879.851E+03    -10.6524E-03     21.2814E-03    -10.6290E-03     1.78149E-03    -10.6181E-03     21.0175E-03    -10.5925E-03     1.79264E-03
            2078     16.8461E-03     19.8786E-03    -2.11302E+06     126.708E+06     30.2228E+06     132.852E+03    -24.7314E-03     39.7148E-03    -14.9834E-03     95.4500E-03    -25.7136E-03     41.0518E-03    -15.0130E-03     95.7526E-03
            2079     15.9663E-03     19.7662E-03    -3.35015E+06     73.4051E+06    -16.2627E+06     868.897E+03    -24.6878E-03     39.0828E-03    -14.3950E-03     102.879E-03    -25.4026E-03     40.0936E-03    -14.5779E-03     102.915E-03
            2080     15.0860E-03     19.6831E-03    -3.87825E+06     28.2236E+06    -4.15478E+06     452.838E+03    -22.3120E-03     36.4075E-03    -14.0955E-03     70.9372E-03    -22.5208E-03     36.7149E-03    -14.1516E-03     70.8800E-03
            2081     14.2030E-03     19.6300E-03    -2.96548E+06    -404.759E+03    -733.283E+03     607.689E+03    -20.7167E-03     34.4678E-03    -13.7511E-03     53.0417E-03    -20.7863E-03     34.5277E-03    -13.7499E-03     53.0001E-03
            2082     13.3211E-03     19.5802E-03    -3.05217E+06    -29.6471E+06    -6.98089E+06     717.968E+03    -19.8161E-03     33.1871E-03    -13.3710E-03     47.7704E-03    -19.8118E-03     33.0870E-03    -13.3585E-03     47.7418E-03
            2083     12.4377E-03     19.5364E-03    -2.82359E+06    -38.0885E+06    -1.79389E+06     999.361E+03    -18.7231E-03     31.7488E-03    -13.0257E-03     41.1187E-03    -18.6974E-03     31.5831E-03    -12.9753E-03     41.1060E-03
            2084     11.5536E-03     19.4989E-03    -2.92823E+06    -39.5538E+06     1.34639E+06     1.39831E+06    -17.6221E-03     30.2983E-03    -12.6762E-03     34.9458E-03    -17.5911E-03     30.1127E-03    -12.6079E-03     34.9467E-03
            2085     10.6686E-03     19.4666E-03    -3.12030E+06    -47.2520E+06     370.878E+03     1.69995E+06    -16.5996E-03     28.9343E-03    -12.3348E-03     30.1623E-03    -16.5528E-03     28.7078E-03    -12.2599E-03     30.1725E-03
            2086     9.78274E-03     19.4382E-03    -3.44133E+06    -50.9602E+06     2.38328E+06     1.75927E+06    -15.5846E-03     27.6109E-03    -12.0263E-03     25.8489E-03    -15.5347E-03     27.3609E-03    -11.9355E-03     25.8637E-03
            2087     8.89601E-03     19.4142E-03    -4.00453E+06    -50.6937E+06     3.38515E+06     1.82978E+06    -14.6187E-03     26.3545E-03    -11.7358E-03     21.8822E-03    -14.5721E-03     26.1039E-03    -11.6396E-03     21.9004E-03
            2088     8.00857E-03     19.3936E-03    -4.73547E+06    -51.3814E+06     3.46211E+06     2.03475E+06    -13.7316E-03     25.2059E-03    -11.4744E-03     18.3547E-03    -13.6870E-03     24.9521E-03    -11.3757E-03     18.3771E-03
            2089     7.12033E-03     19.3765E-03    -5.86855E+06    -53.4524E+06     2.44324E+06     2.14976E+06    -12.9540E-03     24.1979E-03    -11.2439E-03     15.2685E-03    -12.9101E-03     23.9363E-03    -11.1457E-03     15.2934E-03
            2090     6.23153E-03     19.3620E-03    -7.17193E+06    -54.6461E+06     493.145E+03     2.65566E+06    -12.2997E-03     23.3404E-03    -11.0407E-03     12.6041E-03    -12.2575E-03     23.0773E-03    -10.9486E-03     12.6363E-03
            2091     5.34220E-03     19.3503E-03    -8.50439E+06    -56.1642E+06    -1.76334E+06     3.24746E+06    -11.7583E-03     22.6256E-03    -10.8673E-03     10.2738E-03    -11.7171E-03     22.3599E-03    -10.7824E-03     10.3143E-03
            2092     4.45244E-03     19.3406E-03    -9.82755E+06    -56.9792E+06    -4.37002E+06     3.25578E+06    -11.3147E-03     22.0352E-03    -10.7205E-03     8.21804E-03    -11.2750E-03     21.7711E-03    -10.6455E-03     8.25896E-03
            2093     3.56234E-03     19.3330E-03    -11.2091E+06    -57.0564E+06    -7.33077E+06     3.02938E+06    -10.9641E-03     21.5633E-03    -10.5991E-03     6.36995E-03    -10.9269E-03     21.3049E-03    -10.5368E-03     6.40826E-03
            2094     2.67197E-03     19.3272E-03    -12.5353E+06    -58.1565E+06    -10.1313E+06     2.61688E+06    -10.7079E-03     21.2138E-03    -10.5059E-03     4.67886E-03    -10.6716E-03     20.9559E-03    -10.4540E-03     4.71208E-03
            2095     1.78141E-03     19.3232E-03    -13.5639E+06    -58.9451E+06    -12.4586E+06     1.91505E+06    -10.5303E-03     20.9674E-03    -10.4371E-03     3.11014E-03    -10.4946E-03     20.7104E-03    -10.3943E-03     3.13450E-03
            2096     890.757E-06     19.3206E-03    -14.1333E+06    -59.6575E+06    -13.9509E+06     1.07516E+06    -10.4195E-03     20.8138E-03    -10.3943E-03     1.69364E-03    -10.3834E-03     20.5563E-03    -10.3571E-03     1.70733E-03
            2097     16.8436E-03     18.8913E-03    -4.11460E+06     125.876E+06     30.2411E+06     114.077E+03    -25.4470E-03     40.3997E-03    -14.9528E-03     93.9269E-03    -26.4160E-03     41.7134E-03    -14.9781E-03     94.1966E-03
            2098     15.9665E-03     18.7809E-03    -4.62540E+06     73.1420E+06    -14.5311E+06     505.020E+03    -25.2446E-03     39.5729E-03    -14.3283E-03     100.062E-03    -25.9435E-03     40.5572E-03    -14.5003E-03     100.075E-03
            2099     15.0863E-03     18.7013E-03    -3.24564E+06     28.8431E+06    -2.90100E+06     492.623E+03    -22.7208E-03     36.7046E-03    -13.9838E-03     68.8383E-03    -22.9225E-03     37.0057E-03    -14.0354E-03     68.7789E-03
            2100     14.2059E-03     18.6488E-03    -4.13715E+06    -442.912E+03    -1.24987E+06     248.081E+03    -20.9607E-03     34.5639E-03    -13.6032E-03     51.5630E-03    -21.0330E-03     34.6236E-03    -13.6028E-03     51.5167E-03
            2101     13.3231E-03     18.6009E-03    -3.56346E+06    -29.8696E+06    -7.72371E+06     409.957E+03    -19.9432E-03     33.1399E-03    -13.1967E-03     46.3391E-03    -19.9386E-03     33.0391E-03    -13.1869E-03     46.3071E-03
            2102     12.4402E-03     18.5581E-03    -3.16510E+06    -38.5325E+06    -2.27404E+06     793.511E+03    -18.7473E-03     31.5805E-03    -12.8332E-03     39.7544E-03    -18.7210E-03     31.4128E-03    -12.7841E-03     39.7397E-03
            2103     11.5559E-03     18.5224E-03    -3.07650E+06    -39.7636E+06     1.01530E+06     1.16519E+06    -17.5481E-03     30.0174E-03    -12.4694E-03     33.7034E-03    -17.5165E-03     29.8308E-03    -12.4022E-03     33.7019E-03
            2104     10.6709E-03     18.4910E-03    -2.98871E+06    -47.4160E+06     156.782E+03     1.42760E+06    -16.4681E-03     28.5861E-03    -12.1180E-03     28.9923E-03    -16.4198E-03     28.3585E-03    -12.0441E-03     28.9996E-03
            2105     9.78491E-03     18.4643E-03    -3.08900E+06    -50.7423E+06     2.40115E+06     1.63746E+06    -15.4088E-03     27.2117E-03    -11.8029E-03     24.7472E-03    -15.3572E-03     26.9621E-03    -11.7129E-03     24.7608E-03
            2106     8.89807E-03     18.4411E-03    -3.51096E+06    -50.6903E+06     3.41615E+06     1.70308E+06    -14.4041E-03     25.9130E-03    -11.5090E-03     20.8774E-03    -14.3549E-03     25.6616E-03    -11.4133E-03     20.8942E-03
            2107     8.01037E-03     18.4218E-03    -4.16121E+06    -51.4372E+06     3.58201E+06     1.95396E+06    -13.4988E-03     24.7458E-03    -11.2470E-03     17.4630E-03    -13.4513E-03     24.4906E-03    -11.1485E-03     17.4846E-03
            2108     7.12197E-03     18.4055E-03    -5.09537E+06    -53.5213E+06     2.52157E+06     2.47476E+06    -12.7163E-03     23.7330E-03    -11.0167E-03     14.5086E-03    -12.6685E-03     23.4698E-03    -10.9191E-03     14.5379E-03
            2109     6.23293E-03     18.3920E-03    -6.48104E+06    -55.0116E+06     393.234E+03     3.07419E+06    -12.0603E-03     22.8751E-03    -10.8148E-03     11.9688E-03    -12.0139E-03     22.6093E-03    -10.7236E-03     12.0066E-03
            2110     5.34337E-03     18.3808E-03    -7.86255E+06    -55.8173E+06    -1.95312E+06     3.52337E+06    -11.5223E-03     22.1645E-03    -10.6422E-03     9.75027E-03    -11.4781E-03     21.8999E-03    -10.5596E-03     9.79436E-03
            2111     4.45341E-03     18.3718E-03    -9.17457E+06    -56.0082E+06      -4.411E+06     3.60159E+06    -11.0859E-03     21.5830E-03    -10.4972E-03     7.79222E-03    -11.0443E-03     21.3229E-03    -10.4247E-03     7.83769E-03
            2112     3.56310E-03     18.3645E-03    -10.3683E+06    -55.9258E+06    -6.91427E+06     3.40183E+06    -10.7410E-03     21.1200E-03    -10.3790E-03     6.03708E-03    -10.7018E-03     20.8655E-03    -10.3175E-03     6.08025E-03
            2113     2.67254E-03     18.3592E-03    -11.3596E+06    -56.4205E+06    -9.27010E+06     2.95885E+06    -10.4841E-03     20.7726E-03    -10.2885E-03     4.42793E-03    -10.4457E-03     20.5205E-03    -10.2366E-03     4.46560E-03
            2114     1.78179E-03     18.3552E-03    -12.1507E+06    -56.8829E+06    -11.1853E+06     2.15890E+06    -10.3094E-03     20.5340E-03    -10.2246E-03     2.93568E-03    -10.2715E-03     20.2834E-03    -10.1804E-03     2.96321E-03
            2115     890.909E-06     18.3530E-03    -12.7047E+06    -57.3974E+06    -12.4739E+06     1.27048E+06    -10.2099E-03     20.3944E-03    -10.1845E-03     1.59588E-03    -10.1720E-03     20.1440E-03    -10.1453E-03     1.61211E-03
            2116     16.8491E-03     17.9053E-03    -1.94117E+06     126.092E+06     30.3333E+06     747.648E+03    -26.4183E-03     41.3158E-03    -14.8975E-03     92.6912E-03    -27.3530E-03     42.6033E-03    -14.9258E-03     92.9360E-03
            2117     15.9689E-03     17.7963E-03    -3.29715E+06     73.3929E+06    -14.3126E+06     420.682E+03    -25.5594E-03     39.7930E-03    -14.2336E-03     97.6592E-03    -26.2238E-03     40.7479E-03    -14.4068E-03     97.6556E-03
            2118     15.0896E-03     17.7184E-03    -3.77364E+06     28.6661E+06    -2.65134E+06     419.264E+03    -22.9779E-03     36.8434E-03    -13.8655E-03     66.5090E-03    -23.1741E-03     37.1357E-03    -13.9149E-03     66.4470E-03
            2119     14.2074E-03     17.6683E-03    -3.30262E+06    -75.9688E+03    -715.151E+03     437.601E+03    -21.1615E-03     34.6198E-03    -13.4583E-03     50.0019E-03    -21.2282E-03     34.6766E-03    -13.4570E-03     49.9582E-03
            2120     13.3257E-03     17.6212E-03    -3.68574E+06    -29.8893E+06    -7.86776E+06     133.597E+03    -19.9973E-03     33.0275E-03    -13.0302E-03     44.8703E-03    -19.9913E-03     32.9252E-03    -13.0208E-03     44.8355E-03
            2121     12.4424E-03     17.5804E-03    -3.23260E+06    -39.0443E+06    -2.72022E+06     344.291E+03    -18.6935E-03     31.3455E-03    -12.6519E-03     38.3259E-03    -18.6651E-03     31.1749E-03    -12.6042E-03     38.3063E-03
            2122     11.5582E-03     17.5457E-03    -2.89891E+06    -40.0368E+06     919.037E+03     743.708E+03    -17.4346E-03     29.7147E-03    -12.2801E-03     32.4454E-03    -17.4009E-03     29.5260E-03    -12.2133E-03     32.4392E-03
            2123     10.6730E-03     17.5161E-03    -2.81698E+06    -47.5004E+06    -34.6371E+03     1.03621E+06    -16.3267E-03     28.2483E-03    -11.9215E-03     27.8143E-03    -16.2768E-03     28.0198E-03    -11.8487E-03     27.8170E-03
            2124     9.78691E-03     17.4903E-03    -2.78621E+06    -50.9093E+06     2.39440E+06     1.29858E+06    -15.2405E-03     26.8429E-03    -11.6025E-03     23.6253E-03    -15.1869E-03     26.5919E-03    -11.5127E-03     23.6348E-03
            2125     8.89986E-03     17.4687E-03    -3.02088E+06    -50.5054E+06     3.51511E+06     1.52020E+06    -14.2048E-03     25.5105E-03    -11.3057E-03     19.8472E-03    -14.1535E-03     25.2590E-03    -11.2105E-03     19.8618E-03
            2126     8.01199E-03     17.4503E-03    -3.56151E+06    -51.8248E+06      3.5761E+06     1.82398E+06    -13.2897E-03     24.3331E-03    -11.0434E-03     16.5508E-03    -13.2386E-03     24.0750E-03    -10.9452E-03     16.5709E-03
            2127     7.12339E-03     17.4351E-03    -4.42953E+06    -54.0730E+06     2.63414E+06     2.70991E+06    -12.5122E-03     23.3260E-03    -10.8138E-03     13.7170E-03    -12.4603E-03     23.0589E-03    -10.7158E-03     13.7495E-03
            2128     6.23418E-03     17.4223E-03    -5.51240E+06    -55.1245E+06     610.495E+03     3.54746E+06    -11.8598E-03     22.4710E-03    -10.6112E-03     11.2931E-03    -11.8087E-03     22.2029E-03    -10.5202E-03     11.3371E-03
            2129     5.34445E-03     17.4119E-03    -6.76645E+06    -55.3674E+06    -1.53226E+06     3.92405E+06    -11.3230E-03     21.7613E-03    -10.4383E-03     9.17583E-03    -11.2746E-03     21.4967E-03    -10.3558E-03     9.22517E-03
            2130     4.45430E-03     17.4032E-03    -7.86059E+06    -54.9459E+06    -3.60083E+06     3.85126E+06    -10.8888E-03     21.1820E-03    -10.2932E-03     7.30768E-03    -10.8433E-03     20.9240E-03    -10.2201E-03     7.35644E-03
            2131     3.56382E-03     17.3966E-03    -8.72916E+06    -54.6640E+06    -5.66293E+06     3.54578E+06    -10.5435E-03     20.7188E-03    -10.1753E-03     5.64472E-03    -10.4997E-03     20.4664E-03    -10.1117E-03     5.68979E-03
            2132     2.67308E-03     17.3914E-03    -9.41470E+06    -54.5872E+06    -7.55515E+06     3.06359E+06    -10.2833E-03     20.3683E-03    -10.0850E-03     4.14037E-03    -10.2403E-03     20.1200E-03    -10.0299E-03     4.17943E-03
            2133     1.78215E-03     17.3878E-03    -9.92652E+06    -54.6594E+06    -9.06172E+06     2.28833E+06    -10.1083E-03     20.1296E-03    -10.0213E-03     2.75034E-03    -10.0656E-03     19.8839E-03    -9.97295E-03     2.77956E-03
            2134     891.121E-06     17.3855E-03    -10.2948E+06    -54.8892E+06    -10.0383E+06     1.34556E+06    -10.0030E-03     19.9883E-03    -9.98526E-03     1.48331E-03    -9.96029E-03     19.7434E-03    -9.94093E-03     1.50051E-03
            2135     16.8451E-03     16.9168E-03    -3.26042E+06     125.486E+06     30.1784E+06      493.64E+03    -27.2838E-03     42.1511E-03    -14.8673E-03     91.3476E-03    -28.1995E-03     43.4132E-03    -14.8936E-03     91.5557E-03
            2136     15.9698E-03     16.8107E-03    -3.28282E+06     73.6900E+06    -12.0359E+06     958.684E+03    -26.2315E-03     40.3959E-03    -14.1644E-03     95.2930E-03    -26.8716E-03     41.3210E-03    -14.3267E-03     95.2769E-03
            2137     15.0900E-03     16.7360E-03    -2.88205E+06     29.0443E+06    -1.67478E+06     517.966E+03    -23.2614E-03     37.0132E-03    -13.7519E-03     64.3256E-03    -23.4458E-03     37.2955E-03    -13.7982E-03     64.2636E-03
            2138     14.2100E-03     16.6870E-03    -3.25763E+06     154.939E+03    -786.171E+03     342.838E+03    -21.2494E-03     34.5686E-03    -13.3191E-03     48.3281E-03    -21.3130E-03     34.6234E-03    -13.3185E-03     48.2841E-03
            2139     13.3276E-03     16.6421E-03    -2.70358E+06    -29.4917E+06    -7.98604E+06     250.354E+03    -19.9769E-03     32.8525E-03    -12.8757E-03     43.4225E-03    -19.9644E-03     32.7491E-03    -12.8689E-03     43.3904E-03
            2140     12.4445E-03     16.6025E-03    -2.71660E+06    -39.3661E+06    -2.97902E+06     142.893E+03    -18.6210E-03     31.1103E-03    -12.4893E-03     36.9562E-03    -18.5881E-03     30.9367E-03    -12.4432E-03     36.9349E-03
            2141     11.5601E-03     16.5697E-03    -2.76473E+06    -40.3504E+06     601.400E+03     344.568E+03    -17.3328E-03     29.4434E-03    -12.1106E-03     31.1874E-03    -17.2969E-03     29.2528E-03    -12.0451E-03     31.1768E-03
            2142     10.6749E-03     16.5411E-03    -2.56835E+06    -47.6551E+06    -257.562E+03     599.357E+03    -16.2003E-03     27.9466E-03    -11.7463E-03     26.5905E-03    -16.1482E-03     27.7170E-03    -11.6748E-03     26.5881E-03
            2143     9.78862E-03     16.5170E-03    -2.47498E+06    -51.1219E+06     2.45115E+06     863.749E+03    -15.0946E-03     26.5187E-03    -11.4241E-03     22.4269E-03    -15.0391E-03     26.2658E-03    -11.3341E-03     22.4312E-03
            2144     8.90147E-03     16.4964E-03    -2.55615E+06    -50.5674E+06     3.70492E+06     1.10992E+06    -14.0497E-03     25.1734E-03    -11.1237E-03     18.7234E-03    -13.9960E-03     24.9204E-03    -11.0281E-03     18.7330E-03
            2145     8.01346E-03     16.4794E-03    -2.95658E+06    -52.4772E+06     3.60125E+06     1.76245E+06    -13.1317E-03     23.9893E-03    -10.8576E-03     15.5325E-03    -13.0765E-03     23.7269E-03    -10.7592E-03     15.5520E-03
            2146     7.12470E-03     16.4649E-03    -3.69253E+06    -54.8997E+06     2.94742E+06     2.78165E+06    -12.3539E-03     22.9797E-03    -10.6257E-03     12.8052E-03    -12.2976E-03     22.7068E-03    -10.5260E-03     12.8388E-03
            2147     6.23535E-03     16.4531E-03    -4.48999E+06    -55.2188E+06     1.64224E+06     3.67007E+06    -11.7014E-03     22.1219E-03    -10.4205E-03     10.4903E-03    -11.6465E-03     21.8503E-03    -10.3257E-03     10.5360E-03
            2148     5.34548E-03     16.4431E-03    -5.10271E+06    -54.6901E+06     7.31408E+03     3.97114E+06    -11.1615E-03     21.4039E-03    -10.2424E-03     8.48176E-03    -11.1079E-03     21.1380E-03    -10.1556E-03     8.53179E-03
            2149     4.45519E-03     16.4352E-03    -5.59881E+06    -53.7318E+06    -1.55784E+06     3.74297E+06    -10.7164E-03     20.8086E-03    -10.0922E-03     6.71585E-03    -10.6643E-03     20.5504E-03    -10.0139E-03     6.76327E-03
            2150     3.56456E-03     16.4288E-03    -5.98224E+06    -53.3263E+06    -3.11136E+06     3.34035E+06    -10.3581E-03     20.3287E-03    -9.97059E-03     5.15911E-03    -10.3062E-03     20.0753E-03    -9.90015E-03     5.20158E-03
            2151     2.67364E-03     16.4241E-03    -6.22113E+06    -52.8075E+06    -4.46629E+06     2.83958E+06    -10.0874E-03     19.9646E-03    -9.87717E-03     3.77832E-03    -10.0355E-03     19.7161E-03    -9.81391E-03     3.81453E-03
            2152     1.78253E-03     16.4206E-03    -6.32781E+06    -52.4929E+06    -5.46891E+06     2.09738E+06    -9.90356E-03     19.7151E-03    -9.81155E-03     2.50885E-03    -9.85116E-03     19.4698E-03    -9.75360E-03     2.53563E-03
            2153     891.288E-06     16.4187E-03    -6.24379E+06    -52.4086E+06    -6.03591E+06     1.17778E+06    -9.80011E-03     19.5682E-03    -9.76812E-03     1.35912E-03    -9.74652E-03     19.3241E-03    -9.71325E-03     1.37416E-03
            2154     16.8496E-03     15.9278E-03    -2.64306E+06     124.934E+06     30.0075E+06     462.079E+03    -28.2628E-03     43.0893E-03    -14.8264E-03     88.4018E-03    -29.1397E-03     44.3134E-03    -14.8537E-03     88.5710E-03
            2155     15.9711E-03     15.8249E-03    -3.49885E+06     73.5827E+06    -12.4736E+06     294.505E+03    -26.5935E-03     40.6697E-03    -14.0762E-03     91.1688E-03    -27.1968E-03     41.5582E-03    -14.2402E-03     91.1262E-03
            2156     15.0931E-03     15.7527E-03    -2.95473E+06     29.5626E+06    -1.52958E+06     568.731E+03    -23.3210E-03     36.9619E-03    -13.6409E-03     61.5930E-03    -23.4965E-03     37.2364E-03    -13.6871E-03     61.5317E-03
            2157     14.2114E-03     15.7065E-03    -2.96427E+06     188.713E+03    -1.29183E+06     310.804E+03    -21.2431E-03     34.4359E-03    -13.1929E-03     46.7113E-03    -21.3013E-03     34.4881E-03    -13.1953E-03     46.6680E-03
            2158     13.3294E-03     15.6626E-03    -3.08324E+06    -29.2479E+06    -8.76251E+06     138.783E+03    -19.9393E-03     32.6792E-03    -12.7399E-03     41.9266E-03    -19.9260E-03     32.5766E-03    -12.7368E-03     41.8941E-03
            2159     12.4461E-03     15.6253E-03    -2.56734E+06    -39.2868E+06    -3.09737E+06     105.740E+03    -18.5713E-03     30.9193E-03    -12.3480E-03     35.4526E-03    -18.5364E-03     30.7449E-03    -12.3028E-03     35.4317E-03
            2160     11.5619E-03     15.5936E-03    -2.43637E+06    -40.5161E+06     695.874E+03     43.5704E+03    -17.2819E-03     29.2437E-03    -11.9618E-03     29.8097E-03    -17.2436E-03     29.0510E-03    -11.8960E-03     29.7958E-03
            2161     10.6765E-03     15.5668E-03    -2.39867E+06    -47.8035E+06    -312.789E+03     142.672E+03    -16.1351E-03     27.7230E-03    -11.5879E-03     25.2132E-03    -16.0814E-03     27.4921E-03    -11.5167E-03     25.2054E-03
            2162     9.79020E-03     15.5437E-03    -2.05120E+06    -51.2458E+06     2.68227E+06     178.274E+03    -15.0189E-03     26.2763E-03    -11.2574E-03     21.0375E-03    -14.9611E-03     26.0215E-03    -11.1667E-03     21.0333E-03
            2163     8.90297E-03     15.5247E-03    -1.96877E+06    -51.1097E+06     4.25962E+06     656.310E+03    -13.9747E-03     24.9234E-03    -10.9487E-03     17.3547E-03    -13.9180E-03     24.6659E-03    -10.8504E-03     17.3587E-03
            2164     8.01487E-03     15.5085E-03    -2.40788E+06    -53.5079E+06     4.20330E+06     1.70006E+06    -13.0518E-03     23.7233E-03    -10.6715E-03     14.2247E-03    -12.9931E-03     23.4540E-03    -10.5694E-03     14.2435E-03
            2165     7.12607E-03     15.4952E-03    -3.08367E+06    -55.4630E+06     4.04137E+06     2.68576E+06    -12.2511E-03     22.6794E-03    -10.4283E-03     11.5940E-03    -12.1924E-03     22.4012E-03    -10.3232E-03     11.6264E-03
            2166     6.23660E-03     15.4840E-03    -3.50806E+06    -55.2490E+06     3.30655E+06     3.17495E+06    -11.5696E-03     21.7813E-03    -10.2118E-03     9.39940E-03    -11.5121E-03     21.5057E-03    -10.1100E-03     9.43882E-03
            2167     5.34663E-03     15.4749E-03    -3.62661E+06    -53.9349E+06     1.80706E+06     3.32732E+06    -10.9964E-03     21.0174E-03    -10.0210E-03     7.53487E-03    -10.9391E-03     20.7505E-03    -9.92852E-03     7.57669E-03
            2168     4.45620E-03     15.4674E-03    -3.54820E+06    -52.5049E+06     394.960E+03     3.04786E+06    -10.5269E-03     20.3874E-03    -9.86043E-03     5.93461E-03    -10.4692E-03     20.1295E-03    -9.77717E-03     5.97314E-03
            2169     3.56540E-03     15.4617E-03    -3.38788E+06    -52.1219E+06    -384.615E+03     2.63662E+06    -10.1608E-03     19.8928E-03    -9.73202E-03     4.52814E-03    -10.1016E-03     19.6377E-03    -9.65345E-03     4.56159E-03
            2170     2.67431E-03     15.4571E-03    -3.19080E+06    -51.2057E+06    -1.26984E+06     2.16499E+06    -9.86962E-03     19.4984E-03    -9.62881E-03     3.28151E-03    -9.80951E-03     19.2489E-03    -9.55628E-03     3.30906E-03
            2171     1.78299E-03     15.4541E-03    -2.94253E+06    -50.6538E+06    -2.02792E+06     1.49105E+06    -9.65627E-03     19.2120E-03    -9.55577E-03     2.17549E-03    -9.59460E-03     18.9660E-03    -9.48819E-03     2.19448E-03
            2172     891.532E-06     15.4520E-03    -2.81331E+06    -50.4380E+06    -2.46967E+06     821.712E+03    -9.54555E-03     19.0517E-03    -9.50615E-03     1.19132E-03    -9.48284E-03     18.8073E-03    -9.44128E-03     1.20179E-03
            2173     16.8478E-03     14.9374E-03    -2.57226E+06     125.218E+06     31.4133E+06     489.253E+03    -29.1432E-03     43.9380E-03    -14.7947E-03     86.7680E-03    -29.9945E-03     45.1337E-03    -14.8155E-03     86.9046E-03
            2174     15.9737E-03     14.8388E-03    -3.51220E+06     74.0008E+06    -10.7198E+06     675.835E+03    -26.8923E-03     40.8993E-03    -14.0070E-03     87.9320E-03    -27.4628E-03     41.7513E-03    -14.1628E-03     87.8797E-03
            2175     15.0934E-03     14.7704E-03    -3.70020E+06     29.0678E+06    -1.89391E+06     248.582E+03    -23.2540E-03     36.8013E-03    -13.5473E-03     59.5209E-03    -23.4218E-03     37.0647E-03    -13.5936E-03     59.4570E-03
            2176     14.2130E-03     14.7254E-03    -3.18050E+06     532.467E+03    -1.36745E+06     291.866E+03    -21.3243E-03     34.4137E-03    -13.0894E-03     45.0995E-03    -21.3807E-03     34.4647E-03    -13.0924E-03     45.0571E-03
            2177     13.3309E-03     14.6837E-03    -2.72444E+06    -28.7363E+06    -9.05575E+06    -22.5649E+03    -20.0065E-03     32.6267E-03    -12.6202E-03     40.1768E-03    -19.9897E-03     32.5246E-03    -12.6199E-03     40.1433E-03
            2178     12.4478E-03     14.6477E-03    -2.21017E+06    -39.4518E+06    -3.13436E+06    -292.552E+03    -18.5945E-03     30.8114E-03    -12.2169E-03     33.7655E-03    -18.5564E-03     30.6346E-03    -12.1722E-03     33.7403E-03
            2179     11.5634E-03     14.6179E-03    -2.14284E+06    -40.5916E+06     941.047E+03     9.51041E+03    -17.3344E-03     29.1516E-03    -11.8173E-03     28.1094E-03    -17.2942E-03     28.9571E-03    -11.7506E-03     28.0957E-03
            2180     10.6781E-03     14.5922E-03    -2.24825E+06    -47.5717E+06     96.0514E+03    -207.995E+03    -16.1923E-03     27.6177E-03    -11.4254E-03     23.4179E-03    -16.1384E-03     27.3867E-03    -11.3527E-03     23.4060E-03
            2181     9.79187E-03     14.5708E-03    -2.27716E+06    -51.2351E+06     3.04477E+06    -511.288E+03    -15.0622E-03     26.1362E-03    -11.0740E-03     19.1715E-03    -15.0058E-03     25.8811E-03    -10.9812E-03     19.1587E-03
            2182     8.90468E-03     14.5528E-03    -2.29550E+06    -52.3224E+06     4.83648E+06     68.0654E+03    -13.9961E-03     24.7408E-03    -10.7446E-03     15.4946E-03    -13.9399E-03     24.4767E-03    -10.6412E-03     15.4913E-03
            2183     8.01667E-03     14.5381E-03    -2.53163E+06    -54.7033E+06     5.31579E+06     1.43773E+06    -13.0327E-03     23.4775E-03    -10.4448E-03     12.4300E-03    -12.9744E-03     23.2006E-03    -10.3352E-03     12.4457E-03
            2184     7.12783E-03     14.5256E-03    -2.93148E+06    -55.6318E+06     5.41541E+06     2.20794E+06    -12.1709E-03     22.3473E-03    -10.1764E-03     9.94754E-03    -12.1131E-03     22.0660E-03    -10.0644E-03     9.97400E-03
            2185     6.23832E-03     14.5155E-03    -3.35459E+06    -55.0458E+06     4.14215E+06     2.40780E+06    -11.4174E-03     21.3526E-03    -9.93514E-03     7.92674E-03    -11.3606E-03     21.0764E-03    -9.82975E-03     7.95638E-03
            2186     5.34818E-03     14.5070E-03    -3.49891E+06    -53.1989E+06     2.33482E+06     2.25989E+06    -10.7753E-03     20.5008E-03    -9.72551E-03     6.27514E-03    -10.7191E-03     20.2366E-03    -9.63163E-03     6.30330E-03
            2187     4.45752E-03     14.5003E-03    -3.37175E+06    -51.5860E+06     879.406E+03     1.97570E+06    -10.2688E-03     19.8207E-03    -9.55192E-03     4.90400E-03    -10.2122E-03     19.5665E-03    -9.46783E-03     4.92879E-03
            2188     3.56650E-03     14.4948E-03    -3.22208E+06    -51.0624E+06    -84.2516E+03     1.63354E+06    -9.88164E-03     19.2929E-03    -9.41122E-03     3.71476E-03    -9.82363E-03     19.0424E-03    -9.33293E-03     3.73534E-03
            2189     2.67519E-03     14.4908E-03    -2.95783E+06    -50.0355E+06    -888.966E+03     1.15196E+06    -9.57504E-03     18.8708E-03    -9.29579E-03     2.66442E-03    -9.51601E-03     18.6262E-03    -9.22340E-03     2.67896E-03
            2190     1.78361E-03     14.4879E-03    -2.67569E+06    -49.4695E+06    -1.77109E+06     738.925E+03    -9.34329E-03     18.5492E-03    -9.20595E-03     1.74780E-03    -9.28238E-03     18.3083E-03    -9.13920E-03     1.75712E-03
            2191     891.832E-06     14.4862E-03    -2.45585E+06    -49.2447E+06    -2.26350E+06     403.587E+03    -9.21984E-03     18.3333E-03    -9.11351E-03     908.578E-06    -9.15737E-03     18.0940E-03    -9.04986E-03     913.676E-06
            2192     16.8495E-03     13.9446E-03    -3.19863E+06     124.397E+06     31.4306E+06     380.026E+03    -29.5345E-03     44.3192E-03    -14.7847E-03     84.3549E-03    -30.3535E-03     45.4775E-03    -14.8033E-03     84.4616E-03
            2193     15.9731E-03     13.8528E-03    -3.61350E+06     74.0463E+06    -9.15033E+06     515.564E+03    -27.2701E-03     41.2433E-03    -13.9732E-03     83.3573E-03    -27.8059E-03     42.0559E-03    -14.1211E-03     83.2891E-03
            2194     15.0952E-03     13.7876E-03    -3.14624E+06     29.9104E+06    -745.948E+03     385.624E+03    -23.6135E-03     37.0914E-03    -13.4779E-03     56.6787E-03    -23.7719E-03     37.3471E-03    -13.5205E-03     56.6154E-03
            2195     14.2140E-03     13.7444E-03    -3.36041E+06     705.335E+03    -2.71420E+06    -325.898E+03    -21.4880E-03     34.4731E-03    -12.9852E-03     43.0142E-03    -21.5399E-03     34.5236E-03    -12.9949E-03     42.9649E-03
            2196     13.3324E-03     13.7045E-03    -2.46986E+06    -28.3108E+06    -9.70203E+06    -505.878E+03    -20.1766E-03     32.6749E-03    -12.4982E-03     38.0834E-03    -20.1561E-03     32.5733E-03    -12.5021E-03     38.0446E-03
            2197     12.4493E-03     13.6705E-03    -2.07632E+06    -39.8843E+06    -2.83533E+06    -275.612E+03    -18.8316E-03     30.9072E-03    -12.0756E-03     31.6463E-03    -18.7914E-03     30.7263E-03    -12.0289E-03     31.6219E-03
            2198     11.5653E-03     13.6419E-03    -2.18889E+06    -40.6982E+06     1.57073E+06    -155.211E+03    -17.5713E-03     29.2169E-03    -11.6456E-03     25.8665E-03    -17.5313E-03     29.0202E-03    -11.5756E-03     25.8512E-03
            2199     10.6802E-03     13.6179E-03    -2.20995E+06    -46.9536E+06     1.33776E+06    -410.512E+03    -16.4075E-03     27.6272E-03    -11.2197E-03     21.0049E-03    -16.3556E-03     27.3969E-03    -11.1417E-03     20.9908E-03
            2200     9.79422E-03     13.5978E-03    -2.45248E+06    -51.1572E+06     4.34747E+06    -844.796E+03    -15.2229E-03     26.0539E-03    -10.8309E-03     16.6838E-03    -15.1690E-03     25.7971E-03    -10.7315E-03     16.6670E-03
            2201     8.90720E-03     13.5814E-03    -3.14953E+06    -53.7981E+06     5.88730E+06    -288.054E+03    -14.0682E-03     24.5327E-03    -10.4645E-03     13.0562E-03    -14.0155E-03     24.2608E-03    -10.3524E-03     13.0485E-03
            2202     8.01921E-03     13.5676E-03    -3.84129E+06    -55.8465E+06     5.44886E+06     871.648E+03    -12.9996E-03     23.1233E-03    -10.1237E-03     10.1550E-03    -12.9463E-03     22.8423E-03    -10.0099E-03     10.1636E-03
            2203     7.13036E-03     13.5565E-03    -4.41367E+06    -55.6392E+06     4.72209E+06     1.56853E+06    -12.0350E-03     21.8525E-03    -9.81752E-03     7.89835E-03    -11.9835E-03     21.5742E-03    -9.70684E-03     7.91674E-03
            2204     6.24069E-03     13.5472E-03    -4.80339E+06    -54.5715E+06     3.22719E+06     1.48695E+06    -11.1856E-03     20.7330E-03    -9.54744E-03     6.12560E-03    -11.1353E-03     20.4626E-03    -9.44521E-03     6.14352E-03
            2205     5.35032E-03     13.5398E-03    -4.95299E+06    -52.5329E+06     1.47937E+06     1.13792E+06    -10.4740E-03     19.7900E-03    -9.31604E-03     4.74905E-03    -10.4248E-03     19.5325E-03    -9.22529E-03     4.76286E-03
            2206     4.45940E-03     13.5335E-03    -5.04218E+06    -51.1124E+06    -229.764E+03     927.437E+03    -9.90367E-03     19.0287E-03    -9.12501E-03     3.64440E-03    -9.85449E-03     18.7808E-03    -9.04474E-03     3.65577E-03
            2207     3.56804E-03     13.5288E-03    -4.97659E+06    -50.1739E+06    -1.92797E+06     603.051E+03    -9.45815E-03     18.4290E-03    -8.97087E-03     2.72743E-03    -9.40751E-03     18.1882E-03    -8.90054E-03     2.73480E-03
            2208     2.67631E-03     13.5250E-03    -4.88701E+06    -49.4754E+06    -3.17598E+06     242.771E+03    -9.13603E-03     17.9868E-03    -8.85078E-03     1.96012E-03    -9.08414E-03     17.7511E-03    -8.78784E-03     1.96298E-03
            2209     1.78441E-03     13.5226E-03    -4.76757E+06    -48.9637E+06    -3.98617E+06     136.536E+03    -8.91043E-03     17.6672E-03    -8.75676E-03     1.29825E-03    -8.85750E-03     17.4351E-03    -8.69878E-03     1.29984E-03
            2210     892.323E-06     13.5209E-03    -4.74000E+06    -48.8205E+06    -4.49355E+06     92.0625E+03    -8.78130E-03     17.4271E-03    -8.64579E-03     680.044E-06    -8.72763E-03     17.1964E-03    -8.59059E-03     681.145E-06
            2211     16.8486E-03     12.9536E-03    -2.61329E+06     124.544E+06     33.1309E+06     504.963E+03    -29.9347E-03     44.7124E-03    -14.7777E-03     81.8746E-03    -30.7178E-03     45.8324E-03    -14.7888E-03     81.9528E-03
            2212     15.9742E-03     12.8653E-03    -4.03919E+06     74.0454E+06    -8.44342E+06     462.352E+03    -27.8428E-03     41.7708E-03    -13.9280E-03     78.2348E-03    -28.3443E-03     42.5455E-03    -14.0717E-03     78.1480E-03
            2213     15.0959E-03     12.8043E-03    -3.68300E+06     30.3116E+06    -973.857E+03    -16.2365E+03    -23.9578E-03     37.3476E-03    -13.3898E-03     52.6244E-03    -24.1074E-03     37.5948E-03    -13.4333E-03     52.5550E-03
            2214     14.2160E-03     12.7635E-03    -2.73893E+06     1.84869E+06    -2.11881E+06    -653.182E+03    -21.6683E-03     34.5402E-03    -12.8720E-03     40.8185E-03    -21.7161E-03     34.5912E-03    -12.8813E-03     40.7660E-03
            2215     13.3340E-03     12.7252E-03    -2.62649E+06    -28.9858E+06    -9.69762E+06    -868.665E+03    -20.6045E-03     32.9595E-03    -12.3550E-03     35.6531E-03    -20.5816E-03     32.8526E-03    -12.3576E-03     35.6100E-03
            2216     12.4517E-03     12.6928E-03    -2.25500E+06    -40.2853E+06    -2.03018E+06    -223.738E+03    -19.3118E-03     31.2020E-03    -11.8902E-03     28.9520E-03    -19.2718E-03     31.0169E-03    -11.8387E-03     28.9286E-03
            2217     11.5680E-03     12.6659E-03    -2.38965E+06    -40.5092E+06     2.78511E+06    -223.954E+03    -18.0020E-03     29.4108E-03    -11.4089E-03     23.0960E-03    -17.9642E-03     29.2128E-03    -11.3327E-03     23.0801E-03
            2218     10.6834E-03     12.6433E-03    -2.60684E+06    -46.3127E+06     2.88061E+06    -803.424E+03    -16.7258E-03     27.6556E-03    -10.9298E-03     18.0977E-03    -16.6785E-03     27.4264E-03    -10.8445E-03     18.0788E-03
            2219     9.79767E-03     12.6250E-03    -2.93716E+06    -51.2891E+06     5.78832E+06    -964.861E+03    -15.3968E-03     25.8865E-03    -10.4897E-03     13.8080E-03    -15.3469E-03     25.6274E-03    -10.3821E-03     13.7899E-03
            2220     8.91080E-03     12.6099E-03    -3.91880E+06    -55.1977E+06     7.06868E+06    -218.820E+03    -14.0890E-03     24.1662E-03    -10.0772E-03     10.3483E-03    -14.0396E-03     23.8864E-03    -9.95609E-03     10.3418E-03
            2221     8.02283E-03     12.5979E-03    -5.26644E+06    -56.5824E+06     5.47078E+06     675.006E+03    -12.8766E-03     22.5668E-03    -9.69013E-03     7.73828E-03    -12.8292E-03     22.2840E-03    -9.57310E-03     7.74449E-03
            2222     7.13381E-03     12.5879E-03    -6.24529E+06    -55.6021E+06     3.47307E+06     894.935E+03    -11.7969E-03     21.1398E-03    -9.34289E-03     5.76857E-03    -11.7528E-03     20.8661E-03    -9.23585E-03     5.77844E-03
            2223     6.24390E-03     12.5799E-03    -6.83156E+06    -53.8651E+06     1.62071E+06     615.831E+03    -10.8607E-03     19.9018E-03    -9.04104E-03     4.28447E-03    -10.8193E-03     19.6401E-03    -8.94492E-03     4.29128E-03
            2224     5.35322E-03     12.5731E-03    -7.31721E+06    -52.0947E+06    -477.237E+03     157.386E+03    -10.0741E-03     18.8575E-03    -8.78341E-03     3.20195E-03    -10.0345E-03     18.6084E-03    -8.69965E-03     3.20321E-03
            2225     4.46192E-03     12.5679E-03    -7.42763E+06    -50.7715E+06    -2.52576E+06    -157.306E+03    -9.42701E-03     17.9981E-03    -8.57105E-03     2.37626E-03    -9.38692E-03     17.7587E-03    -8.49929E-03     2.37370E-03
            2226     3.57006E-03     12.5635E-03    -7.37348E+06    -49.9178E+06    -4.47881E+06    -307.279E+03    -8.91889E-03     17.3230E-03    -8.40407E-03     1.71943E-03    -8.87691E-03     17.0906E-03    -8.34339E-03     1.71510E-03
            2227     2.67785E-03     12.5604E-03    -7.40659E+06    -49.3469E+06    -5.97749E+06    -304.935E+03    -8.55348E-03     16.8354E-03    -8.28188E-03     1.20893E-03    -8.51031E-03     16.6080E-03    -8.22947E-03     1.20476E-03
            2228     1.78532E-03     12.5580E-03    -7.53826E+06    -49.0449E+06    -6.94917E+06    -236.145E+03    -8.31885E-03     16.5175E-03    -8.19861E-03     777.819E-06    -8.27536E-03     16.2932E-03    -8.15131E-03     774.628E-06
            2229     892.665E-06     12.5568E-03    -7.53965E+06    -48.8644E+06    -7.36774E+06    -122.442E+03    -8.19291E-03     16.3289E-03    -8.13604E-03     364.861E-06    -8.14902E-03     16.1063E-03    -8.09109E-03     363.207E-06
            2230     16.8494E-03     11.9621E-03    -3.24487E+06     123.863E+06     33.4054E+06     763.086E+03    -30.7001E-03     45.4354E-03    -14.7352E-03     78.5761E-03    -31.4443E-03     46.5110E-03    -14.7431E-03     78.6222E-03
            2231     15.9754E-03     11.8758E-03    -4.59468E+06     75.1882E+06    -5.67990E+06     798.425E+03    -27.7374E-03     41.6040E-03    -13.8667E-03     72.5305E-03    -28.2014E-03     42.3356E-03    -13.9974E-03     72.4373E-03
            2232     15.0987E-03     11.8221E-03    -4.23025E+06     31.6008E+06    -1.80401E+06    -1.08561E+06    -24.0062E-03     37.3060E-03    -13.2998E-03     50.1076E-03    -24.1494E-03     37.5517E-03    -13.3485E-03     50.0263E-03
            2233     14.2172E-03     11.7822E-03    -3.48475E+06     1.27418E+06    -4.38831E+06    -1.53155E+06    -22.6366E-03     35.3735E-03    -12.7369E-03     39.1449E-03    -22.6817E-03     35.4236E-03    -12.7557E-03     39.0797E-03
            2234     13.3368E-03     11.7453E-03    -2.72644E+06    -29.6592E+06    -9.90966E+06    -333.404E+03    -21.4478E-03     33.6064E-03    -12.1586E-03     32.7152E-03    -21.4220E-03     33.4944E-03    -12.1612E-03     32.6787E-03
            2235     12.4548E-03     11.7149E-03    -3.02262E+06    -40.5407E+06    -2.04193E+06    -162.626E+03    -19.9544E-03     31.5795E-03    -11.6252E-03     25.8725E-03    -19.9165E-03     31.3930E-03    -11.5722E-03     25.8502E-03
            2236     11.5719E-03     11.6895E-03    -3.25856E+06    -40.0160E+06     3.71119E+06    -427.458E+03    -18.4943E-03     29.5746E-03    -11.0803E-03     19.9470E-03    -18.4622E-03     29.3782E-03    -10.9990E-03     19.9289E-03
            2237     10.6877E-03     11.6690E-03    -3.71281E+06    -45.6019E+06     3.73474E+06    -958.472E+03    -16.9744E-03     27.5138E-03    -10.5394E-03     14.9998E-03    -16.9345E-03     27.2881E-03    -10.4492E-03     14.9793E-03
            2238     9.80220E-03     11.6522E-03    -4.69673E+06    -51.9131E+06     6.43832E+06    -996.671E+03    -15.4195E-03     25.4698E-03    -10.0503E-03     10.9509E-03    -15.3782E-03     25.2089E-03    -9.93598E-03     10.9327E-03
            2239     8.91531E-03     11.6392E-03    -5.99104E+06    -56.4592E+06     6.87431E+06    -57.8966E+03    -13.9430E-03     23.5371E-03    -9.59415E-03     7.83801E-03    -13.9016E-03     23.2542E-03    -9.46923E-03     7.83374E-03
            2240     8.02714E-03     11.6286E-03    -7.17384E+06    -56.7396E+06     5.01881E+06     479.468E+03    -12.6101E-03     21.7809E-03    -9.17085E-03     5.62198E-03    -12.5713E-03     21.5007E-03    -9.05308E-03     5.62582E-03
            2241     7.13788E-03     11.6202E-03    -8.09215E+06    -55.3228E+06     2.77532E+06     301.562E+03    -11.4447E-03     20.2382E-03    -8.79350E-03     4.00459E-03    -11.4091E-03     19.9695E-03    -8.68767E-03     4.00691E-03
            2242     6.24764E-03     11.6132E-03    -8.83326E+06    -53.2568E+06     52.4111E+03    -138.617E+03    -10.4488E-03     18.9103E-03    -8.46150E-03     2.83875E-03    -10.4159E-03     18.6569E-03    -8.37120E-03     2.83588E-03
            2243     5.35659E-03     11.6077E-03    -9.29517E+06    -51.6646E+06    -2.54483E+06    -668.676E+03    -9.60444E-03     17.7822E-03    -8.17773E-03     2.01018E-03    -9.57237E-03     17.5411E-03    -8.10206E-03     2.00081E-03
            2244     4.46478E-03     11.6031E-03    -9.77928E+06    -50.7484E+06    -5.20480E+06    -954.409E+03    -8.90116E-03     16.8429E-03    -7.94170E-03     1.39553E-03    -8.86896E-03     16.6109E-03    -7.87996E-03     1.38269E-03
            2245     3.57247E-03     11.5996E-03    -10.2339E+06    -50.1739E+06    -7.49440E+06    -859.327E+03    -8.34341E-03     16.0981E-03    -7.75468E-03     934.379E-06    -8.31098E-03     15.8729E-03    -7.70456E-03     922.933E-06
            2246     2.67967E-03     11.5968E-03    -10.5665E+06    -49.6707E+06    -9.10571E+06    -628.029E+03    -7.92934E-03     15.5455E-03    -7.61616E-03     603.356E-06    -7.89697E-03     15.3257E-03    -7.57435E-03     595.015E-06
            2247     1.78661E-03     11.5949E-03    -10.7867E+06    -49.3737E+06    -10.2456E+06    -391.945E+03    -7.65014E-03     15.1736E-03    -7.52351E-03     326.261E-06    -7.61764E-03     14.9573E-03    -7.48751E-03     321.058E-06
            2248     893.354E-06     11.5936E-03    -10.8992E+06    -49.2159E+06    -10.8226E+06    -227.008E+03    -7.50067E-03     14.9748E-03    -7.47412E-03     93.0067E-06    -7.46807E-03     14.7603E-03    -7.44107E-03     90.0030E-06
            2249     16.8518E-03     10.9648E-03    -1.35197E+06     122.339E+06     30.9664E+06     818.812E+03    -31.1909E-03     45.8719E-03    -14.6810E-03     76.6183E-03    -31.8884E-03     46.9093E-03    -14.7016E-03     76.6386E-03
            2250     15.9780E-03     10.8919E-03    -1.41413E+06     76.0708E+06    -6.82360E+06     1.18169E+06    -27.7218E-03     41.5151E-03    -13.7932E-03     67.6457E-03    -28.1284E-03     42.2069E-03    -13.9356E-03     67.5544E-03
            2251     15.0961E-03     10.8381E-03    -2.78818E+06     34.6448E+06     314.565E+03    -300.999E+03    -24.9709E-03     38.1749E-03    -13.2040E-03     47.2777E-03    -25.1079E-03     38.4241E-03    -13.2486E-03     47.2039E-03
            2252     14.2198E-03     10.7986E-03    -5.37688E+06     259.060E+03    -4.86737E+06    -1.21342E+06    -23.9406E-03     36.4982E-03    -12.5576E-03     35.4193E-03    -23.9899E-03     36.5436E-03    -12.5746E-03     35.3560E-03
            2253     13.3403E-03     10.7652E-03    -6.03633E+06    -30.5541E+06    -10.9700E+06    -531.442E+03    -22.3898E-03     34.2771E-03    -11.8873E-03     29.0267E-03    -22.3754E-03     34.1647E-03    -11.8891E-03     28.9875E-03
            2254     12.4594E-03     10.7363E-03    -5.23206E+06    -40.0496E+06    -1.73797E+06    -400.243E+03    -20.6103E-03     31.8871E-03    -11.2767E-03     22.5024E-03    -20.5834E-03     31.7046E-03    -11.2198E-03     22.4773E-03
            2255     11.5770E-03     10.7132E-03    -5.20734E+06    -39.6310E+06     4.70570E+06    -921.269E+03    -18.7834E-03     29.4519E-03    -10.6685E-03     16.7065E-03    -18.7623E-03     29.2582E-03    -10.5800E-03     16.6825E-03
            2256     10.6930E-03     10.6947E-03    -5.56978E+06    -45.0789E+06     4.98583E+06    -1.22094E+06    -16.9475E-03     27.0276E-03    -10.0801E-03     12.0890E-03    -16.9189E-03     26.8049E-03    -9.98173E-03     12.0655E-03
            2257     9.80732E-03     10.6803E-03    -6.44437E+06    -52.9052E+06     7.28791E+06    -831.162E+03    -15.1762E-03     24.7349E-03    -9.55872E-03     8.49159E-03    -15.1432E-03     24.4702E-03    -9.43622E-03     8.47586E-03
            2258     8.92014E-03     10.6691E-03    -7.83499E+06    -57.2792E+06     7.49320E+06    -136.248E+03    -13.5743E-03     22.6547E-03    -9.08040E-03     5.86680E-03    -13.5418E-03     22.3693E-03    -8.94852E-03     5.86170E-03
            2259     8.03165E-03     10.6603E-03    -9.04885E+06    -56.5800E+06     4.47121E+06    -8.30987E+03    -12.1729E-03     20.8084E-03    -8.63543E-03     4.10454E-03    -12.1429E-03     20.5324E-03    -8.51791E-03     4.10219E-03
            2260     7.14197E-03     10.6533E-03    -9.91700E+06    -54.8367E+06     1.30803E+06    -394.931E+03    -10.9774E-03     19.2188E-03    -8.24138E-03     2.88362E-03    -10.9495E-03     18.9573E-03    -8.14095E-03     2.87699E-03
            2261     6.25130E-03     10.6477E-03    -10.5071E+06    -52.8103E+06    -1.61870E+06    -921.355E+03    -9.97125E-03     17.8678E-03    -7.89652E-03     2.02140E-03    -9.94496E-03     17.6214E-03    -7.81280E-03     2.00843E-03
            2262     5.35979E-03     10.6432E-03    -11.2461E+06    -51.5419E+06    -4.60409E+06    -1.18502E+06    -9.11992E-03     16.7176E-03    -7.59766E-03     1.39756E-03    -9.09480E-03     16.4829E-03    -7.52964E-03     1.38150E-03
            2263     4.46762E-03     10.6397E-03    -12.1361E+06    -51.0452E+06    -7.80602E+06    -1.14229E+06    -8.40182E-03     15.7444E-03    -7.34257E-03     943.656E-06    -8.37721E-03     15.5181E-03    -7.28999E-03     928.360E-06
            2264     3.57478E-03     10.6368E-03    -12.9795E+06    -50.6557E+06    -10.4052E+06    -961.158E+03    -7.81947E-03     14.9526E-03    -7.13313E-03     612.188E-06    -7.79586E-03     14.7332E-03    -7.09288E-03     599.390E-06
            2265     2.68153E-03     10.6346E-03    -13.6412E+06    -50.1982E+06     -12.193E+06    -696.753E+03    -7.36456E-03     14.3331E-03    -6.96858E-03     370.041E-06    -7.34231E-03     14.1196E-03    -6.93698E-03     360.780E-06
            2266     1.78789E-03     10.6330E-03    -14.0846E+06    -49.8290E+06    -13.4538E+06    -427.463E+03    -7.02398E-03     13.8739E-03    -6.84988E-03     183.460E-06    -7.00265E-03     13.6646E-03    -6.82448E-03     177.771E-06
            2267     893.989E-06     10.6321E-03    -14.3420E+06    -49.5943E+06    -14.1926E+06    -188.590E+03    -6.82502E-03     13.6018E-03    -6.77680E-03     68.2038E-06    -6.80420E-03     13.3953E-03    -6.75506E-03     65.6768E-06
            2268     16.8502E-03     9.97122E-03    -2.33414E+06     120.711E+06     29.9848E+06     181.722E+03    -31.3767E-03     46.0403E-03    -14.6636E-03     72.9100E-03    -32.0372E-03     47.0344E-03    -14.6853E-03     72.8953E-03
            2269     15.9751E-03     9.90480E-03    -3.52874E+06     76.5093E+06    -5.13182E+06     1.09754E+06    -29.4209E-03     43.1470E-03    -13.7261E-03     61.9856E-03    -29.8114E-03     43.8117E-03    -13.8576E-03     61.8748E-03
            2270     15.1033E-03     9.85197E-03    -4.90383E+06     36.6813E+06     3.82202E+06     1.87206E+06    -26.8096E-03     39.8370E-03    -13.0274E-03     42.6126E-03    -26.9582E-03     40.0875E-03    -13.0543E-03     42.5592E-03
            2271     14.2241E-03     9.81562E-03    -6.76370E+06     1.63528E+06    -1.36091E+06     714.361E+03    -24.5844E-03     36.8712E-03    -12.2868E-03     31.4754E-03    -24.6435E-03     36.9161E-03    -12.2861E-03     31.4380E-03
            2272     13.3452E-03     9.78363E-03    -7.30196E+06    -30.3783E+06    -9.13211E+06    -1.16728E+06    -23.0432E-03     34.5859E-03    -11.5428E-03     25.3149E-03    -23.0358E-03     34.4715E-03    -11.5338E-03     25.2680E-03
            2273     12.4650E-03     9.75779E-03    -6.94049E+06    -40.2244E+06     9.37619E+03    -1.36144E+06    -20.9564E-03     31.8250E-03    -10.8687E-03     19.0540E-03    -20.9392E-03     31.6405E-03    -10.8002E-03     19.0171E-03
            2274     11.5826E-03     9.73698E-03    -6.92436E+06    -38.8090E+06     6.90846E+06    -1.50936E+06    -18.6509E-03     28.8693E-03    -10.2184E-03     13.8094E-03    -18.6422E-03     28.6784E-03    -10.1176E-03     13.7786E-03
            2275     10.6984E-03     9.72123E-03    -7.46856E+06    -45.3031E+06     7.19714E+06    -1.88731E+06    -16.5350E-03     26.1490E-03    -9.61404E-03     9.75692E-03    -16.5186E-03     25.9246E-03    -9.50154E-03     9.72541E-03
            2276     9.81228E-03     9.70905E-03    -8.15211E+06    -54.0265E+06     7.90852E+06    -1.17890E+06    -14.6299E-03     23.7142E-03    -9.08430E-03     6.75808E-03    -14.6046E-03     23.4453E-03    -8.95460E-03     6.73815E-03
            2277     8.92462E-03     9.70000E-03    -9.10309E+06    -57.6839E+06     7.50314E+06    -518.459E+03    -12.9738E-03     21.5835E-03    -8.60970E-03     4.70585E-03    -12.9470E-03     21.2979E-03    -8.47534E-03     4.69596E-03
            2278     8.03554E-03     9.69294E-03    -10.1398E+06    -56.2512E+06     4.04569E+06    -645.556E+03    -11.5784E-03     19.7530E-03    -8.17461E-03     3.42170E-03    -11.5537E-03     19.4809E-03    -8.05811E-03     3.41119E-03
            2279     7.14534E-03     9.68751E-03    -10.9291E+06    -54.3668E+06    -147.406E+03    -1.15750E+06    -10.4220E-03     18.2112E-03    -7.78919E-03     2.58190E-03    -10.3978E-03     17.9557E-03    -7.69525E-03     2.56542E-03
            2280     6.25419E-03     9.68312E-03    -11.8059E+06    -52.7786E+06    -3.47640E+06    -1.40176E+06    -9.46103E-03     16.9166E-03    -7.45560E-03     1.98406E-03    -9.43861E-03     16.6750E-03    -7.37934E-03     1.96486E-03
            2281     5.36228E-03     9.67976E-03    -12.8733E+06    -51.8716E+06    -6.70228E+06    -1.24969E+06    -8.65484E-03     15.8200E-03    -7.16516E-03     1.53576E-03    -8.63435E-03     15.5891E-03    -7.10479E-03     1.51881E-03
            2282     4.46963E-03     9.67706E-03    -13.9938E+06    -51.5187E+06    -9.93261E+06    -978.804E+03    -7.97841E-03     14.8919E-03    -6.91349E-03     1.18953E-03    -7.95932E-03     14.6691E-03    -6.86816E-03     1.17630E-03
            2283     3.57649E-03     9.67502E-03    -15.0009E+06    -51.1366E+06    -12.5426E+06    -728.144E+03    -7.41190E-03     14.1133E-03    -6.70136E-03     925.006E-06    -7.39459E-03     13.8975E-03    -6.66817E-03     915.174E-06
            2284     2.68284E-03     9.67339E-03    -15.8178E+06    -50.6572E+06    -14.4149E+06    -541.877E+03    -6.95031E-03     13.4804E-03    -6.53005E-03     684.534E-06    -6.93506E-03     13.2709E-03    -6.50573E-03     677.241E-06
            2285     1.78881E-03     9.67237E-03    -16.4215E+06    -50.2727E+06    -15.7484E+06    -366.258E+03    -6.59817E-03     13.0001E-03    -6.40191E-03     435.606E-06    -6.58455E-03     12.7954E-03    -6.38395E-03     430.688E-06
            2286     894.492E-06     9.67166E-03    -16.7238E+06    -49.9320E+06    -16.4566E+06    -169.452E+03    -6.38345E-03     12.6945E-03    -6.31107E-03     250.118E-06    -6.37075E-03     12.4930E-03    -6.29670E-03     247.827E-06
            2287     16.8517E-03     8.98231E-03    -3.49753E+06     121.422E+06     32.7786E+06     1.11985E+06    -33.0326E-03     47.6297E-03    -14.5971E-03     67.5049E-03    -33.6549E-03     48.5758E-03    -14.6042E-03     67.4588E-03
            2288     15.9809E-03     8.91047E-03    -6.49619E+06     75.9834E+06    -2.09996E+06     1.05271E+06    -30.8691E-03     44.4363E-03    -13.5673E-03     56.4467E-03    -31.2455E-03     45.0658E-03    -13.6785E-03     56.3167E-03
            2289     15.1053E-03     8.86670E-03    -6.72986E+06     35.5471E+06     5.62446E+06     1.74152E+06    -27.8639E-03     40.6353E-03    -12.7714E-03     38.1310E-03    -28.0143E-03     40.8720E-03    -12.7850E-03     38.0736E-03
            2290     14.2292E-03     8.83181E-03    -5.67790E+06     4.69147E+06     3.04760E+06     1.16312E+06    -25.3397E-03     37.2963E-03    -11.9567E-03     28.6717E-03    -25.4010E-03     37.3455E-03    -11.9400E-03     28.6406E-03
            2291     13.3510E-03     8.80228E-03    -5.84330E+06    -28.7423E+06    -4.44001E+06    -925.338E+03    -23.2569E-03     34.4155E-03    -11.1586E-03     22.0955E-03    -23.2494E-03     34.2983E-03    -11.1307E-03     22.0533E-03
            2292     12.4707E-03     8.77927E-03    -6.51763E+06    -40.6109E+06     2.93393E+06    -1.87988E+06    -20.6987E-03     31.1500E-03    -10.4513E-03     16.0279E-03    -20.6820E-03     30.9577E-03    -10.3683E-03     15.9858E-03
            2293     11.5880E-03     8.76192E-03    -7.12491E+06    -38.0576E+06     9.95322E+06    -2.35758E+06    -18.0308E-03     27.8312E-03    -9.80034E-03     11.6208E-03    -18.0283E-03     27.6395E-03    -9.68506E-03     11.5801E-03
            2294     10.7030E-03     8.74862E-03    -7.84378E+06    -45.8191E+06     9.92613E+06    -2.48531E+06    -15.7363E-03     24.9551E-03    -9.21879E-03     8.33944E-03    -15.7249E-03     24.7245E-03    -9.09135E-03     8.30080E-03
            2295     9.81624E-03     8.73908E-03    -9.07829E+06    -55.3820E+06     8.99580E+06    -1.72272E+06    -13.7957E-03     22.5152E-03    -8.71946E-03     6.00742E-03    -13.7747E-03     22.2393E-03    -8.58101E-03     5.98078E-03
            2296     8.92775E-03     8.73193E-03    -10.2878E+06    -57.7592E+06     6.52052E+06    -1.20564E+06    -12.1748E-03     20.4520E-03    -8.27721E-03     4.57059E-03    -12.1525E-03     20.1692E-03    -8.14594E-03     4.55201E-03
            2297     8.03802E-03     8.72668E-03    -11.0823E+06    -55.9303E+06     2.50865E+06    -1.49837E+06    -10.8698E-03     18.7553E-03    -7.88553E-03     3.74042E-03    -10.8481E-03     18.4884E-03    -7.77582E-03     3.71896E-03
            2298     7.14721E-03     8.72254E-03    -11.8931E+06    -54.3024E+06    -1.65586E+06    -1.67629E+06    -9.81762E-03     17.3651E-03    -7.54747E-03     3.23421E-03    -9.79616E-03     17.1135E-03    -7.45976E-03     3.21104E-03
            2299     6.25556E-03     8.71943E-03    -12.8830E+06    -53.1910E+06    -5.27527E+06    -1.53230E+06    -8.96076E-03     16.2193E-03    -7.25856E-03     2.84395E-03    -8.94055E-03     15.9799E-03    -7.18913E-03     2.82304E-03
            2300     5.36317E-03     8.71697E-03    -13.9085E+06    -52.5145E+06    -8.51755E+06    -1.13696E+06    -8.25745E-03     15.2688E-03    -7.01138E-03     2.50603E-03    -8.23859E-03     15.0389E-03    -6.95765E-03     2.49051E-03
            2301     4.47028E-03     8.71517E-03    -14.8779E+06    -52.0418E+06    -11.3078E+06    -689.716E+03    -7.67410E-03     14.4763E-03    -6.80217E-03     2.19742E-03    -7.65669E-03     14.2541E-03    -6.76168E-03     2.18790E-03
            2302     3.57683E-03     8.71379E-03    -15.7787E+06    -51.4651E+06    -13.4240E+06    -457.265E+03    -7.19238E-03     13.8230E-03    -6.63063E-03     1.90267E-03    -7.17722E-03     13.6081E-03    -6.60024E-03     1.89633E-03
            2303     2.68299E-03     8.71283E-03    -16.4819E+06    -50.9577E+06    -15.0095E+06    -374.660E+03    -6.81527E-03     13.3115E-03    -6.49622E-03     1.54160E-03    -6.80204E-03     13.1024E-03    -6.47348E-03     1.53647E-03
            2304     1.78885E-03     8.71214E-03    -16.8725E+06    -50.5905E+06    -16.1496E+06    -345.230E+03    -6.55023E-03     12.9464E-03    -6.39619E-03     1.08769E-03    -6.53783E-03     12.7414E-03    -6.37911E-03     1.08305E-03
            2305     894.483E-06     8.71185E-03    -17.1882E+06    -50.3904E+06    -16.8639E+06    -162.783E+03    -6.38476E-03     12.7042E-03    -6.31948E-03     622.277E-06    -6.37313E-03     12.5017E-03    -6.30581E-03     620.077E-06
            2306     16.8554E-03     7.98390E-03    -3.26091E+06     121.788E+06     39.4933E+06     1.64370E+06    -35.2722E-03     49.7892E-03    -14.5171E-03     64.7763E-03    -35.8720E-03     50.6957E-03    -14.4915E-03     64.6930E-03
            2307     15.9842E-03     7.92175E-03    -3.45579E+06     75.7070E+06     2.34891E+06     1.94020E+06    -32.0166E-03     45.3880E-03    -13.3714E-03     52.7888E-03    -32.3558E-03     45.9774E-03    -13.4645E-03     52.6578E-03
            2308     15.1105E-03     7.87842E-03    -3.40416E+06     35.0485E+06     6.42390E+06     991.611E+03    -28.5908E-03     41.0785E-03    -12.4877E-03     34.3444E-03    -28.7161E-03     41.2978E-03    -12.5014E-03     34.2788E-03
            2309     14.2347E-03     7.84775E-03    -3.99696E+06     6.41036E+06     6.38124E+06     583.801E+03    -25.9231E-03     37.5474E-03    -11.6243E-03     25.4070E-03    -25.9805E-03     37.5951E-03    -11.5958E-03     25.3694E-03
            2310     13.3565E-03     7.82117E-03    -4.71761E+06    -26.8405E+06     156.722E+03    -131.110E+03    -22.9279E-03     33.7286E-03    -10.8007E-03     19.3903E-03    -22.9223E-03     33.6108E-03    -10.7542E-03     19.3610E-03
            2311     12.4756E-03     7.80199E-03    -5.80138E+06    -39.5520E+06     6.20940E+06    -1.70564E+06    -19.7861E-03     29.8915E-03    -10.1054E-03     13.9375E-03    -19.7713E-03     29.6979E-03    -10.0086E-03     13.8997E-03
            2312     11.5919E-03     7.78784E-03    -7.05877E+06    -37.6069E+06     12.7426E+06    -2.93814E+06    -16.9387E-03     26.4414E-03    -9.50261E-03     10.4709E-03    -16.9403E-03     26.2475E-03    -9.37414E-03     10.4238E-03
            2313     10.7060E-03     7.77748E-03    -8.51255E+06    -46.6086E+06     12.0882E+06    -2.88553E+06    -14.5978E-03     23.5853E-03    -8.98747E-03     8.07371E-03    -14.5917E-03     23.3485E-03    -8.84710E-03     8.03054E-03
            2314     9.81807E-03     7.77019E-03    -9.87386E+06    -56.5375E+06     9.98050E+06    -2.17504E+06    -12.7333E-03     21.2939E-03    -8.56057E-03     6.43784E-03    -12.7160E-03     21.0120E-03    -8.41437E-03     6.40572E-03
            2315     8.92874E-03     7.76504E-03    -10.9005E+06    -57.5908E+06     5.82455E+06    -2.07109E+06    -11.2606E-03     19.4503E-03    -8.18976E-03     5.57432E-03    -11.2406E-03     19.1704E-03    -8.06132E-03     5.54477E-03
            2316     8.03819E-03     7.76121E-03    -11.7706E+06    -56.0003E+06     799.814E+03    -2.25598E+06    -10.1291E-03     18.0051E-03    -7.87592E-03     5.12922E-03    -10.1083E-03     17.7414E-03    -7.77366E-03     5.09807E-03
            2317     7.14677E-03     7.75835E-03    -12.5912E+06    -54.7533E+06    -3.22560E+06    -2.07419E+06    -9.25383E-03     16.8741E-03    -7.62029E-03     4.81954E-03    -9.23297E-03     16.6236E-03    -7.53877E-03     4.79129E-03
            2318     6.25463E-03     7.75615E-03    -13.3822E+06    -53.8586E+06    -6.59420E+06    -1.65045E+06    -8.56461E-03     15.9770E-03    -7.41243E-03     4.51515E-03    -8.54405E-03     15.7369E-03    -7.34790E-03     4.49277E-03
            2319     5.36200E-03     7.75455E-03    -14.0990E+06    -53.2898E+06    -9.49556E+06    -1.14921E+06    -8.02547E-03     15.2709E-03    -7.24547E-03     4.16165E-03    -8.00504E-03     15.0388E-03    -7.19523E-03     4.14602E-03
            2320     4.46882E-03     7.75338E-03    -14.6090E+06    -52.5718E+06    -11.4697E+06    -713.891E+03    -7.61171E-03     14.7280E-03    -7.11632E-03     3.74176E-03    -7.59197E-03     14.5031E-03    -7.07625E-03     3.73197E-03
            2321     3.57537E-03     7.75256E-03    -14.9061E+06    -51.6789E+06    -12.5527E+06    -510.699E+03    -7.30956E-03     14.3299E-03    -7.02038E-03     3.22199E-03    -7.29101E-03     14.1114E-03    -6.98660E-03     3.21501E-03
            2322     2.68169E-03     7.75194E-03    -15.0933E+06    -51.1403E+06    -13.5827E+06    -516.589E+03    -7.09470E-03     14.0457E-03    -6.95099E-03     2.56843E-03    -7.07635E-03     13.8316E-03    -6.92286E-03     2.56150E-03
            2323     1.78783E-03     7.75158E-03    -15.2457E+06    -50.9804E+06    -14.5219E+06    -447.277E+03    -6.96283E-03     13.8678E-03    -6.90493E-03     1.81119E-03    -6.94410E-03     13.6560E-03    -6.88151E-03     1.80526E-03
            2324     893.961E-06     7.75132E-03    -15.3409E+06    -50.8822E+06    -14.9834E+06    -286.177E+03    -6.89614E-03     13.7714E-03    -6.87531E-03     992.189E-06    -6.87730E-03     13.5611E-03    -6.85420E-03     988.408E-06
            2325     16.8545E-03     6.98637E-03    -3.93758E+06     119.721E+06     40.4316E+06     1.10685E+06    -36.8225E-03     51.2701E-03    -14.4476E-03     61.7637E-03    -37.3949E-03     52.1365E-03    -14.4134E-03     61.6375E-03
            2326     15.9867E-03     6.92847E-03    -4.46286E+06     76.7180E+06     3.22948E+06     1.28098E+06    -33.7766E-03     46.9743E-03    -13.1977E-03     47.1008E-03    -34.0953E-03     47.5407E-03    -13.2863E-03     46.9449E-03
            2327     15.1146E-03     6.89110E-03    -4.09124E+06     36.3197E+06     6.04903E+06     1.04437E+06    -29.2521E-03     41.4742E-03    -12.2221E-03     30.7505E-03    -29.3738E-03     41.6932E-03    -12.2386E-03     30.6882E-03
            2328     14.2389E-03     6.86290E-03    -5.35708E+06     6.47573E+06     8.12774E+06     1.05443E+06    -25.5261E-03     36.8721E-03    -11.3460E-03     22.5355E-03    -25.5900E-03     36.9167E-03    -11.3070E-03     22.5079E-03
            2329     13.3605E-03     6.84148E-03    -6.54758E+06    -24.5439E+06     3.88394E+06     280.473E+03    -21.8194E-03     32.3785E-03    -10.5591E-03     17.1739E-03    -21.8303E-03     32.2680E-03    -10.4946E-03     17.1533E-03
            2330     12.4783E-03     6.82606E-03    -7.38262E+06    -37.5991E+06     9.36644E+06    -1.86305E+06    -18.2926E-03     28.2263E-03    -9.93368E-03     13.1186E-03    -18.2926E-03     28.0396E-03    -9.82163E-03     13.0811E-03
            2331     11.5933E-03     6.81533E-03    -8.53714E+06    -37.1541E+06     15.4303E+06    -3.18399E+06    -15.4311E-03     24.8614E-03    -9.43028E-03     10.6836E-03    -15.4445E-03     24.6680E-03    -9.28688E-03     10.6345E-03
            2332     10.7059E-03     6.80768E-03    -10.1330E+06    -47.5670E+06     13.5995E+06    -3.25055E+06    -13.2249E-03     22.2480E-03    -9.02313E-03     9.18728E-03    -13.2277E-03     22.0066E-03    -8.87146E-03     9.14009E-03
            2333     9.81694E-03     6.80250E-03    -11.3161E+06    -57.0170E+06     9.33261E+06    -3.14211E+06    -11.5864E-03     20.2866E-03    -8.70022E-03     8.20985E-03    -11.5747E-03     20.0054E-03    -8.55447E-03     8.16569E-03
            2334     8.92658E-03     6.79895E-03    -11.9093E+06    -57.7326E+06     3.91057E+06    -3.17404E+06    -10.3922E-03     18.8280E-03    -8.43579E-03     7.73534E-03    -10.3743E-03     18.5515E-03    -8.31526E-03     7.69183E-03
            2335     8.03535E-03     6.79632E-03    -12.3224E+06    -56.5048E+06    -659.147E+03    -2.98523E+06    -9.53569E-03     17.7684E-03    -8.23272E-03     7.44038E-03    -9.51483E-03     17.5052E-03    -8.13621E-03     7.40002E-03
            2336     7.14344E-03     6.79434E-03    -12.7745E+06    -55.4699E+06    -4.14059E+06    -2.64806E+06    -8.91155E-03     16.9942E-03    -8.08267E-03     7.08402E-03    -8.88927E-03     16.7417E-03    -8.00442E-03     7.04852E-03
            2337     6.25107E-03     6.79289E-03    -13.0270E+06    -54.7687E+06    -7.02645E+06    -2.16353E+06    -8.46307E-03     16.4375E-03    -7.97440E-03     6.63525E-03    -8.43879E-03     16.1929E-03    -7.91123E-03     6.60638E-03
            2338     5.35828E-03     6.79177E-03    -13.0380E+06    -54.0612E+06    -8.93433E+06    -1.61923E+06    -8.16586E-03     16.0674E-03    -7.90152E-03     6.01132E-03    -8.13984E-03     15.8290E-03    -7.84890E-03     5.98974E-03
            2339     4.46537E-03     6.79100E-03    -12.8320E+06    -53.0420E+06    -9.72178E+06    -1.35758E+06    -7.98249E-03     15.8389E-03    -7.85641E-03     5.25186E-03    -7.95574E-03     15.6064E-03    -7.80950E-03     5.23385E-03
            2340     3.57233E-03     6.79034E-03    -12.3798E+06    -52.0356E+06    -10.0547E+06    -1.25309E+06    -7.87706E-03     15.7067E-03    -7.82964E-03     4.37388E-03    -7.84899E-03     15.4791E-03    -7.78651E-03     4.35737E-03
            2341     2.67924E-03     6.78993E-03    -12.0112E+06    -51.6108E+06    -10.6806E+06    -997.731E+03    -7.82432E-03     15.6382E-03    -7.81386E-03     3.37839E-03    -7.79411E-03     15.4130E-03    -7.77501E-03     3.36529E-03
            2342     1.78617E-03     6.78957E-03    -11.9152E+06    -51.5455E+06    -11.3198E+06    -690.069E+03    -7.79872E-03     15.6070E-03    -7.80824E-03     2.32093E-03    -7.76718E-03     15.3829E-03    -7.77282E-03     2.31188E-03
            2343     893.026E-06     6.78940E-03    -11.7825E+06    -51.5251E+06    -11.6876E+06    -522.559E+03    -7.80110E-03     15.6140E-03    -7.81291E-03     1.25944E-03    -7.76832E-03     15.3905E-03    -7.77955E-03     1.25262E-03
            2344     16.8565E-03     5.98384E-03    -4.33119E+06     119.715E+06     42.2617E+06     1.79971E+06    -38.6012E-03     52.9484E-03    -14.3472E-03     57.3237E-03    -39.1450E-03     53.7796E-03    -14.3032E-03     57.1710E-03
            2345     15.9904E-03     5.93478E-03    -6.78892E+06     77.1035E+06     6.31230E+06     746.640E+03    -34.3830E-03     47.4116E-03    -13.0286E-03     39.1084E-03    -34.6824E-03     47.9430E-03    -13.0989E-03     38.9431E-03
            2346     15.1182E-03     5.90298E-03    -8.65377E+06     36.2176E+06     8.38963E+06     1.49375E+06    -28.6138E-03     40.6509E-03    -12.0371E-03     26.3478E-03    -28.7535E-03     40.8646E-03    -12.0351E-03     26.2989E-03
            2347     14.2422E-03     5.87963E-03    -10.3678E+06     7.62780E+06     11.2530E+06     1.30568E+06    -23.8703E-03     35.0891E-03    -11.2188E-03     20.2487E-03    -23.9626E-03     35.1394E-03    -11.1586E-03     20.2307E-03
            2348     13.3614E-03     5.86333E-03    -11.0331E+06    -22.3628E+06     7.30849E+06    -602.693E+03    -19.7603E-03     30.3018E-03    -10.5415E-03     16.4610E-03    -19.8006E-03     30.2026E-03    -10.4566E-03     16.4333E-03
            2349     12.4775E-03     5.85201E-03    -11.0775E+06    -35.0690E+06     12.0192E+06    -2.95032E+06    -16.3184E-03     26.3671E-03    -10.0487E-03     14.0271E-03    -16.3440E-03     26.1942E-03    -9.92165E-03     13.9780E-03
            2350     11.5907E-03     5.84435E-03    -11.5408E+06    -37.1856E+06     17.5920E+06    -4.32705E+06    -13.6957E-03     23.3888E-03    -9.69309E-03     12.7013E-03    -13.7271E-03     23.1964E-03    -9.53448E-03     12.6388E-03
            2351     10.7020E-03     5.83910E-03    -12.0541E+06    -48.1716E+06     14.2315E+06    -4.42732E+06    -11.8906E-03     21.3142E-03    -9.42359E-03     11.8332E-03    -11.9030E-03     21.0716E-03    -9.26511E-03     11.7716E-03
            2352     9.81173E-03     5.83559E-03    -12.4719E+06    -57.1862E+06     7.76842E+06    -4.58579E+06    -10.6705E-03     19.8945E-03    -9.22393E-03     11.1678E-03    -10.6621E-03     19.6163E-03    -9.08408E-03     11.1055E-03
            2353     8.92069E-03     5.83318E-03    -12.6145E+06    -58.3555E+06     2.35888E+06    -4.64037E+06    -9.88889E-03     18.9705E-03    -9.08165E-03     10.6772E-03    -9.87136E-03     18.6942E-03    -8.96695E-03     10.6152E-03
            2354     8.02908E-03     5.83129E-03    -12.3808E+06    -57.2974E+06    -1.26093E+06    -4.35442E+06    -9.39173E-03     18.3811E-03    -8.98941E-03     10.1180E-03    -9.36913E-03     18.1148E-03    -8.89468E-03     10.0603E-03
            2355     7.13711E-03     5.82987E-03    -11.7951E+06    -56.4803E+06    -4.00684E+06    -3.87006E+06    -9.08232E-03     18.0162E-03    -8.93386E-03     9.35600E-03    -9.05387E-03     17.7569E-03    -8.85490E-03     9.30496E-03
            2356     6.24491E-03     5.82874E-03    -11.1809E+06    -55.8450E+06    -5.94379E+06    -3.25413E+06    -8.91282E-03     17.8187E-03    -8.90588E-03     8.44289E-03    -8.87933E-03     17.5644E-03    -8.83841E-03     8.40010E-03
            2357     5.35273E-03     5.82779E-03    -10.3914E+06    -54.8382E+06    -6.67185E+06    -2.87063E+06    -8.84250E-03     17.7407E-03    -8.89820E-03     7.38318E-03    -8.80541E-03     17.4913E-03    -8.83698E-03     7.34555E-03
            2358     4.46051E-03     5.82705E-03    -9.38999E+06    -53.6420E+06    -6.71607E+06    -2.65506E+06    -8.82999E-03     17.7318E-03    -8.90180E-03     6.24409E-03    -8.78953E-03     17.4869E-03    -8.84399E-03     6.20940E-03
            2359     3.56833E-03     5.82643E-03    -8.68698E+06    -52.9065E+06    -6.88623E+06    -2.27546E+06    -8.84648E-03     17.7563E-03    -8.90984E-03     5.06209E-03    -8.80330E-03     17.5143E-03    -8.85496E-03     5.03242E-03
            2360     2.67621E-03     5.82595E-03    -8.28857E+06    -52.6590E+06    -7.21245E+06    -1.69837E+06    -8.87814E-03     17.7967E-03    -8.91854E-03     3.82607E-03    -8.83283E-03     17.5558E-03    -8.86623E-03     3.80394E-03
            2361     1.78411E-03     5.82561E-03    -7.91041E+06    -52.4507E+06    -7.41833E+06    -1.09635E+06    -8.90691E-03     17.8324E-03    -8.92550E-03     2.58862E-03    -8.85971E-03     17.5923E-03    -8.87507E-03     2.57433E-03
            2362     892.081E-06     5.82541E-03    -7.82189E+06    -52.5133E+06    -7.74730E+06    -606.828E+03    -8.92555E-03     17.8541E-03    -8.92856E-03     1.40539E-03    -8.87726E-03     17.6142E-03    -8.87981E-03     1.39748E-03
            2363     16.8614E-03     4.98111E-03    -3.05224E+06     118.500E+06     48.8192E+06     2.60605E+06    -39.6724E-03     53.9347E-03    -14.2622E-03     52.7066E-03    -40.1745E-03     54.7059E-03    -14.1855E-03     52.5440E-03
            2364     15.9937E-03     4.94159E-03    -6.29114E+06     77.3389E+06     12.7524E+06     4.83783E+06    -32.9979E-03     45.9397E-03    -12.9418E-03     33.9721E-03    -33.2700E-03     46.4278E-03    -12.9811E-03     33.8819E-03
            2365     15.1203E-03     4.91614E-03    -11.7982E+06     36.8919E+06     10.2270E+06     3.97139E+06    -26.3773E-03     38.4043E-03    -12.0271E-03     24.0709E-03    -26.5289E-03     38.6160E-03    -12.0123E-03     24.0669E-03
            2366     14.2408E-03     4.89936E-03    -14.4951E+06     10.0703E+06     13.0531E+06     1.22126E+06    -20.9551E-03     32.3184E-03    -11.3633E-03     20.6495E-03    -21.0719E-03     32.3820E-03    -11.2916E-03     20.6387E-03
            2367     13.3577E-03     4.88723E-03    -15.5762E+06    -18.9308E+06     9.61795E+06    -2.38121E+06    -17.1127E-03     27.9903E-03    -10.8775E-03     18.4468E-03    -17.1833E-03     27.9107E-03    -10.7794E-03     18.4008E-03
            2368     12.4714E-03     4.87987E-03    -14.9851E+06    -32.8249E+06     13.3423E+06    -5.64654E+06    -14.2381E-03     24.8059E-03    -10.5678E-03     17.1285E-03    -14.2881E-03     24.6477E-03    -10.4317E-03     17.0470E-03
            2369     11.5828E-03     4.87463E-03    -14.2594E+06    -37.6331E+06     18.0126E+06    -6.73470E+06    -12.3091E-03     22.6873E-03    -10.3782E-03     16.3703E-03    -12.3539E-03     22.4957E-03    -10.2129E-03     16.2781E-03
            2370     10.6929E-03     4.87105E-03    -14.0641E+06    -48.7742E+06     13.6422E+06    -6.78628E+06    -11.1534E-03     21.3976E-03    -10.2442E-03     15.3525E-03    -11.1740E-03     21.1556E-03    -10.0848E-03     15.2613E-03
            2371     9.80223E-03     4.86863E-03    -13.3079E+06    -57.4495E+06     6.56913E+06    -7.02960E+06    -10.4970E-03     20.6491E-03    -10.1521E-03     14.3331E-03    -10.4906E-03     20.3724E-03    -10.0166E-03     14.2400E-03
            2372     8.91113E-03     4.86671E-03    -11.8637E+06    -59.3327E+06     1.70905E+06    -7.07260E+06    -10.1642E-03     20.2616E-03    -10.0974E-03     13.2566E-03    -10.1405E-03     19.9801E-03    -9.98562E-03     13.1637E-03
            2373     8.01990E-03     4.86517E-03    -10.2768E+06    -58.5292E+06    -1.10466E+06    -6.57862E+06    -10.0039E-03     20.0746E-03    -10.0706E-03     12.0333E-03    -9.96922E-03     19.7987E-03    -9.97639E-03     11.9471E-03
            2374     7.12863E-03     4.86385E-03    -8.95459E+06    -58.0594E+06    -3.10562E+06    -5.73212E+06    -9.94812E-03     20.0094E-03    -10.0613E-03     10.6843E-03    -9.90447E-03     19.7367E-03    -9.97964E-03     10.6094E-03
            2375     6.23746E-03     4.86276E-03    -7.61652E+06    -57.0163E+06    -3.76255E+06    -5.01111E+06    -9.94501E-03     20.0093E-03    -10.0643E-03     9.31560E-03    -9.89515E-03     19.7408E-03    -9.98938E-03     9.25023E-03
            2376     5.34625E-03     4.86177E-03    -6.24591E+06    -55.8671E+06    -3.98039E+06    -4.59518E+06    -9.96576E-03     20.0382E-03    -10.0725E-03     7.93765E-03    -9.91035E-03     19.7737E-03    -10.0023E-03     7.87783E-03
            2377     4.45513E-03     4.86097E-03    -5.27112E+06    -54.9677E+06    -3.86794E+06    -3.94174E+06    -10.0007E-03     20.0848E-03    -10.0842E-03     6.56643E-03    -9.94182E-03     19.8232E-03    -10.0162E-03     6.51517E-03
            2378     3.56404E-03     4.86029E-03    -4.70965E+06    -54.3631E+06    -3.64837E+06    -3.10370E+06    -10.0393E-03     20.1356E-03    -10.0963E-03     5.23306E-03    -9.97882E-03     19.8759E-03    -10.0289E-03     5.19272E-03
            2379     2.67300E-03     4.85974E-03    -4.33876E+06    -54.1226E+06    -3.79314E+06    -2.33253E+06    -10.0731E-03     20.1780E-03    -10.1049E-03     3.91182E-03    -10.0109E-03     19.9191E-03    -10.0390E-03     3.88151E-03
            2380     1.78198E-03     4.85938E-03    -4.14783E+06    -53.9707E+06    -3.86609E+06    -1.51954E+06    -10.0988E-03     20.2094E-03    -10.1106E-03     2.63424E-03    -10.0357E-03     19.9511E-03    -10.0457E-03     2.61449E-03
            2381     890.978E-06     4.85910E-03    -3.90632E+06    -53.7942E+06    -3.86625E+06    -677.728E+03    -10.1073E-03     20.2241E-03    -10.1168E-03     1.43562E-03    -10.0432E-03     19.9664E-03    -10.0524E-03     1.42680E-03
            2382     16.8615E-03     3.98310E-03    -5.26866E+06     112.760E+06     49.7850E+06     4.28675E+06    -38.9106E-03     53.2636E-03    -14.3530E-03     49.6694E-03    -39.3691E-03     53.9603E-03    -14.2599E-03     49.5368E-03
            2383     15.9914E-03     3.94800E-03    -10.8017E+06     75.6194E+06     15.7465E+06     9.54319E+06    -30.3555E-03     43.4910E-03    -13.1355E-03     31.4146E-03    -30.6218E-03     43.9427E-03    -13.1507E-03     31.4175E-03
            2384     15.1153E-03     3.93359E-03    -15.6713E+06     42.3317E+06     11.0195E+06     7.75064E+06    -22.6730E-03     35.0628E-03    -12.3898E-03     24.4017E-03    -22.8470E-03     35.3001E-03    -12.3734E-03     24.4623E-03
            2385     14.2328E-03     3.92147E-03    -19.5110E+06     15.7496E+06     12.4258E+06     796.370E+03    -17.7610E-03     29.7128E-03    -11.9518E-03     24.2435E-03    -17.9086E-03     29.8113E-03    -11.8842E-03     24.2347E-03
            2386     13.3468E-03     3.91355E-03    -19.0923E+06    -13.9515E+06     9.00605E+06    -5.89868E+06    -14.9036E-03     26.5817E-03    -11.6781E-03     22.6139E-03    -14.9970E-03     26.5318E-03    -11.5852E-03     22.5266E-03
            2387     12.4585E-03     3.90879E-03    -16.9715E+06    -31.5580E+06     10.3680E+06    -9.53244E+06    -13.1336E-03     24.6636E-03    -11.5300E-03     21.1875E-03    -13.1904E-03     24.5180E-03    -11.4078E-03     21.0581E-03
            2388     11.5693E-03     3.90484E-03    -15.2085E+06    -38.7836E+06     11.8149E+06    -10.1764E+06    -12.1384E-03     23.5848E-03    -11.4465E-03     19.6553E-03    -12.1769E-03     23.3973E-03    -11.3091E-03     19.5200E-03
            2389     10.6795E-03     3.90224E-03    -13.3925E+06    -49.5788E+06     6.14907E+06    -10.0459E+06    -11.6264E-03     23.0063E-03    -11.3798E-03     17.7352E-03    -11.6314E-03     22.7697E-03    -11.2578E-03     17.6029E-03
            2390     9.78950E-03     3.90009E-03    -11.4135E+06    -58.0439E+06     818.630E+03    -10.3382E+06    -11.4282E-03     22.7648E-03    -11.3366E-03     15.9361E-03    -11.4030E-03     22.4904E-03    -11.2318E-03     15.8008E-03
            2391     8.89957E-03     3.89837E-03    -9.28103E+06    -60.8582E+06    -2.47109E+06    -10.2038E+06    -11.3593E-03     22.6651E-03    -11.3059E-03     14.1119E-03    -11.3143E-03     22.3782E-03    -11.2165E-03     13.9788E-03
            2392     8.00960E-03     3.89680E-03    -7.11973E+06    -60.6484E+06    -4.71872E+06    -9.15086E+06    -11.3228E-03     22.6036E-03    -11.2808E-03     12.3556E-03    -11.2639E-03     22.3177E-03    -11.2061E-03     12.2365E-03
            2393     7.11968E-03     3.89550E-03    -5.07859E+06    -60.2229E+06    -4.43435E+06    -7.80584E+06    -11.3102E-03     22.5809E-03    -11.2707E-03     10.6806E-03    -11.2420E-03     22.2937E-03    -11.1982E-03     10.5790E-03
            2394     6.22970E-03     3.89434E-03    -3.55693E+06    -58.6632E+06    -3.60093E+06    -6.67914E+06    -11.2967E-03     22.5604E-03    -11.2637E-03     9.12498E-03    -11.2243E-03     22.2775E-03    -11.1915E-03     9.03816E-03
            2395     5.33978E-03     3.89334E-03    -2.77747E+06    -57.6228E+06    -3.02060E+06    -5.64327E+06    -11.2846E-03     22.5428E-03    -11.2582E-03     7.65494E-03    -11.2107E-03     22.2631E-03    -11.1857E-03     7.58163E-03
            2396     4.44982E-03     3.89250E-03    -2.54314E+06    -57.0800E+06    -2.53887E+06    -4.45110E+06    -11.2748E-03     22.5291E-03    -11.2542E-03     6.25576E-03    -11.2012E-03     22.2510E-03    -11.1805E-03     6.19795E-03
            2397     3.55988E-03     3.89178E-03    -2.56051E+06    -56.0698E+06    -2.77639E+06    -3.39386E+06    -11.2608E-03     22.5080E-03    -11.2472E-03     4.93431E-03    -11.1884E-03     22.2354E-03    -11.1760E-03     4.89023E-03
            2398     2.66991E-03     3.89124E-03    -2.59050E+06    -55.9269E+06    -2.82241E+06    -2.55712E+06    -11.2510E-03     22.4946E-03    -11.2436E-03     3.67150E-03    -11.1788E-03     22.2228E-03    -11.1729E-03     3.63830E-03
            2399     1.77994E-03     3.89082E-03    -2.53228E+06    -55.7506E+06    -2.75309E+06    -1.67607E+06    -11.2446E-03     22.4865E-03    -11.2419E-03     2.45548E-03    -11.1725E-03     22.2153E-03    -11.1711E-03     2.43372E-03
            2400     889.968E-06     3.89061E-03    -2.43385E+06    -55.4065E+06    -2.41389E+06    -973.676E+03    -11.2320E-03     22.4846E-03    -11.2525E-03     1.32736E-03    -11.1603E-03     22.2146E-03    -11.1807E-03     1.31472E-03
            2401     16.8527E-03     2.97924E-03    -5.69529E+06     105.697E+06     49.4929E+06     7.79313E+06    -36.0496E-03     50.8070E-03    -14.7573E-03     43.9679E-03    -36.4457E-03     51.4160E-03    -14.6549E-03     43.9129E-03
            2402     15.9840E-03     2.96072E-03    -12.5180E+06     73.3264E+06     19.9875E+06     12.4228E+06    -25.5401E-03     39.3244E-03    -13.7844E-03     29.4302E-03    -25.7882E-03     39.7316E-03    -13.7726E-03     29.5102E-03
            2403     15.1015E-03     2.95396E-03    -15.3338E+06     51.2562E+06     13.2227E+06     9.18607E+06    -18.9740E-03     32.2600E-03    -13.2860E-03     28.2421E-03    -19.1577E-03     32.5333E-03    -13.2720E-03     28.3347E-03
            2404     14.2159E-03     2.94580E-03    -15.3110E+06     25.9136E+06     8.18325E+06    -1.02251E+06    -16.1763E-03     29.1980E-03    -13.0218E-03     28.5932E-03    -16.3092E-03     29.3449E-03    -12.9962E-03     28.5663E-03
            2405     13.3285E-03     2.94030E-03    -14.5889E+06    -9.65226E+06     1.36033E+06    -9.10641E+06    -14.7746E-03     27.6409E-03    -12.8663E-03     25.5664E-03    -14.8390E-03     27.6152E-03    -12.8243E-03     25.4410E-03
            2406     12.4409E-03     2.93647E-03    -13.6717E+06    -30.6552E+06    -1.56594E+06    -12.5966E+06    -14.0327E-03     26.7955E-03    -12.7628E-03     22.5659E-03    -14.0562E-03     26.6659E-03    -12.7064E-03     22.3985E-03
            2407     11.5530E-03     2.93318E-03    -12.0913E+06    -40.4211E+06    -3.93611E+06    -13.4604E+06    -13.5221E-03     26.1992E-03    -12.6771E-03     19.7591E-03    -13.5193E-03     26.0212E-03    -12.6206E-03     19.5822E-03
            2408     10.6647E-03     2.93093E-03    -10.1369E+06    -51.0951E+06    -10.4852E+06    -12.9576E+06    -13.2814E-03     25.8722E-03    -12.5908E-03     17.1689E-03    -13.2435E-03     25.6471E-03    -12.5544E-03     16.9995E-03
            2409     9.77657E-03     2.92885E-03    -8.32816E+06    -59.2436E+06    -14.6172E+06    -12.5291E+06    -13.1799E-03     25.6997E-03    -12.5199E-03     14.8800E-03    -13.1149E-03     25.4370E-03    -12.4950E-03     14.7167E-03
            2410     8.88827E-03     2.92717E-03    -7.10717E+06    -63.1108E+06    -14.0877E+06    -11.7687E+06    -13.0466E-03     25.5159E-03    -12.4694E-03     12.8091E-03    -12.9705E-03     25.2313E-03    -12.4380E-03     12.6560E-03
            2411     7.99988E-03     2.92577E-03    -6.28015E+06    -63.4465E+06    -14.0734E+06    -10.4125E+06    -12.9075E-03     25.3233E-03    -12.4157E-03     11.0163E-03    -12.8268E-03     25.0356E-03    -12.3850E-03     10.8810E-03
            2412     7.11131E-03     2.92449E-03    -5.40400E+06    -62.8900E+06    -12.9392E+06    -8.87044E+06    -12.7740E-03     25.1452E-03    -12.3711E-03     9.39369E-03    -12.6913E-03     24.8574E-03    -12.3368E-03     9.27849E-03
            2413     6.22271E-03     2.92344E-03    -4.67166E+06    -61.3335E+06    -10.1236E+06    -7.10148E+06    -12.6509E-03     24.9897E-03    -12.3388E-03     7.92456E-03    -12.5708E-03     24.7045E-03    -12.2937E-03     7.83236E-03
            2414     5.33392E-03     2.92250E-03    -4.54614E+06    -59.9894E+06    -8.18526E+06    -5.38278E+06    -12.5420E-03     24.8500E-03    -12.3080E-03     6.58528E-03    -12.4660E-03     24.5686E-03    -12.2554E-03     6.51539E-03
            2415     4.44511E-03     2.92172E-03    -4.84308E+06    -59.3934E+06    -7.00553E+06    -4.04347E+06    -12.4458E-03     24.7258E-03    -12.2800E-03     5.34497E-03    -12.3738E-03     24.4460E-03    -12.2219E-03     5.29246E-03
            2416     3.55618E-03     2.92109E-03    -5.14199E+06    -57.8167E+06    -6.80939E+06    -2.94662E+06    -12.3597E-03     24.6108E-03    -12.2511E-03     4.19326E-03    -12.2918E-03     24.3390E-03    -12.1939E-03     4.15498E-03
            2417     2.66720E-03     2.92057E-03    -5.44319E+06    -57.6508E+06    -6.54881E+06    -2.17284E+06    -12.2929E-03     24.5237E-03    -12.2308E-03     3.10583E-03    -12.2271E-03     24.2528E-03    -12.1720E-03     3.07762E-03
            2418     1.77815E-03     2.92021E-03    -5.76421E+06    -57.4476E+06    -6.17312E+06    -1.41757E+06    -12.2458E-03     24.4625E-03    -12.2168E-03     2.06760E-03    -12.1824E-03     24.1925E-03    -12.1560E-03     2.04920E-03
            2419     889.094E-06     2.91996E-03    -5.93352E+06    -57.0461E+06    -6.33725E+06    -855.053E+03    -12.2098E-03     24.4203E-03    -12.2105E-03     1.11718E-03    -12.1475E-03     24.1530E-03    -12.1509E-03     1.10607E-03
            2420     16.8467E-03     1.98451E-03    -3.09215E+06     97.7831E+06     51.7600E+06     10.4916E+06    -30.3644E-03     46.0240E-03    -15.6595E-03     41.0955E-03    -30.6834E-03     46.5309E-03    -15.5380E-03     41.1267E-03
            2421     15.9620E-03     1.97950E-03    -6.14468E+06     74.3544E+06     31.8908E+06     12.8016E+06    -21.3189E-03     36.3436E-03    -15.0247E-03     32.9028E-03    -21.5313E-03     36.7057E-03    -14.9641E-03     33.0248E-03
            2422     15.0778E-03     1.97514E-03    -4.48652E+06     61.7890E+06     19.3943E+06     5.72263E+06    -18.9847E-03     33.6455E-03    -14.6608E-03     31.2364E-03    -19.1335E-03     33.9411E-03    -14.6469E-03     31.2927E-03
            2423     14.1933E-03     1.96871E-03    -2.27644E+06     33.9915E+06     2.04613E+06    -2.26581E+06    -18.0392E-03     32.3999E-03    -14.3606E-03     27.9884E-03    -18.1068E-03     32.5736E-03    -14.3964E-03     27.9499E-03
            2424     13.3087E-03     1.96416E-03    -3.41754E+06    -5.12751E+06    -10.0083E+06    -8.19258E+06    -17.2060E-03     31.3457E-03    -14.1398E-03     22.6489E-03    -17.2030E-03     31.3411E-03    -14.1774E-03     22.5376E-03
            2425     12.4238E-03     1.96061E-03    -4.83126E+06    -28.8281E+06    -17.7092E+06    -12.8032E+06    -16.3739E-03     30.3248E-03    -13.9509E-03     18.8102E-03    -16.3316E-03     30.2141E-03    -13.9906E-03     18.6414E-03
            2426     11.5382E-03     1.95848E-03    -5.35879E+06    -42.7587E+06    -22.8950E+06    -13.8152E+06    -15.7769E-03     29.5650E-03    -13.7880E-03     15.8759E-03    -15.7092E-03     29.3925E-03    -13.8327E-03     15.6952E-03
            2427     10.6521E-03     1.95625E-03    -5.88069E+06    -53.3797E+06    -27.2717E+06    -12.5812E+06    -15.3480E-03     28.9910E-03    -13.6431E-03     13.4313E-03    -15.2608E-03     28.7724E-03    -13.6935E-03     13.2672E-03
            2428     9.76573E-03     1.95461E-03    -6.61568E+06    -61.1926E+06    -30.0568E+06    -11.4546E+06    -14.9761E-03     28.4913E-03    -13.5152E-03     11.3769E-03    -14.8771E-03     28.2387E-03    -13.5672E-03     11.2277E-03
            2429     8.87899E-03     1.95327E-03    -7.41110E+06    -65.7584E+06    -28.3507E+06    -10.2758E+06    -14.6318E-03     28.0486E-03    -13.4168E-03     9.68426E-03    -14.5325E-03     27.7717E-03    -13.4525E-03     9.55066E-03
            2430     7.99193E-03     1.95213E-03    -8.23456E+06    -66.2068E+06    -24.8588E+06    -8.85466E+06    -14.3138E-03     27.6464E-03    -13.3326E-03     8.23283E-03    -14.2231E-03     27.3634E-03    -13.3489E-03     8.11780E-03
            2431     7.10466E-03     1.95119E-03    -9.16039E+06    -65.6049E+06    -22.4972E+06    -7.46343E+06    -14.0266E-03     27.2791E-03    -13.2525E-03     6.97499E-03    -13.9447E-03     26.9970E-03    -13.2566E-03     6.87810E-03
            2432     6.21705E-03     1.95033E-03    -9.86427E+06    -64.4054E+06    -20.3280E+06    -5.87667E+06    -13.7769E-03     26.9582E-03    -13.1813E-03     5.85185E-03    -13.7035E-03     26.6799E-03    -13.1752E-03     5.77557E-03
            2433     5.32934E-03     1.94961E-03    -10.1392E+06    -62.4667E+06    -17.7616E+06    -4.18843E+06    -13.5603E-03     26.6812E-03    -13.1209E-03     4.83437E-03    -13.4947E-03     26.4093E-03    -13.1045E-03     4.77998E-03
            2434     4.44136E-03     1.94901E-03    -10.2004E+06    -61.1616E+06    -15.0042E+06    -3.09735E+06    -13.3782E-03     26.4507E-03    -13.0726E-03     3.90347E-03    -13.3188E-03     26.1814E-03    -13.0441E-03     3.86324E-03
            2435     3.55328E-03     1.94852E-03    -10.1271E+06    -59.5897E+06    -13.0569E+06    -2.29283E+06    -13.2277E-03     26.2574E-03    -13.0298E-03     3.04895E-03    -13.1730E-03     25.9931E-03    -12.9940E-03     3.01918E-03
            2436     2.66507E-03     1.94813E-03    -10.1718E+06    -59.0461E+06    -11.8863E+06    -1.35384E+06    -13.1099E-03     26.1049E-03    -12.9950E-03     2.25074E-03    -13.0579E-03     25.8416E-03    -12.9541E-03     2.23313E-03
            2437     1.77678E-03     1.94785E-03    -10.4215E+06    -58.6726E+06    -11.1960E+06    -832.898E+03    -13.0213E-03     25.9903E-03    -12.9690E-03     1.50038E-03    -12.9721E-03     25.7282E-03    -12.9248E-03     1.48955E-03
            2438     888.401E-06     1.94768E-03    -10.5434E+06    -58.2264E+06    -11.0085E+06    -314.478E+03    -12.9641E-03     25.9182E-03    -12.9541E-03     807.174E-06    -12.9162E-03     25.6585E-03    -12.9095E-03     803.061E-06
            2439     16.8112E-03     1.00172E-03     999.325E+03     93.5599E+06     57.3007E+06     8.70838E+06    -30.4013E-03     47.6647E-03    -17.2634E-03     42.0531E-03    -30.6615E-03     48.0934E-03    -17.1140E-03     42.0945E-03
            2440     15.9323E-03     994.606E-06     5.02901E+06     80.8139E+06     40.0482E+06     5.35390E+06    -25.7288E-03     42.2970E-03    -16.5682E-03     30.5893E-03    -25.8906E-03     42.6462E-03    -16.4924E-03     30.6366E-03
            2441     15.0540E-03     992.100E-06     8.68475E+06     67.3679E+06     15.9812E+06     1.01430E+06    -23.9500E-03     39.9123E-03    -15.9623E-03     22.3429E-03    -24.0304E-03     40.2158E-03    -15.9927E-03     22.3483E-03
            2442     14.1747E-03     985.856E-06     9.42610E+06     38.0940E+06    -8.28454E+06    -694.489E+03    -21.8720E-03     37.3203E-03    -15.4484E-03     17.3982E-03    -21.8692E-03     37.5101E-03    -15.5587E-03     17.3845E-03
            2443     13.2945E-03     983.318E-06     8.18415E+06     382.099E+03    -24.0303E+06    -4.82571E+06    -20.0227E-03     35.0934E-03    -15.0707E-03     13.0824E-03    -19.9481E-03     35.1188E-03    -15.2033E-03     13.0169E-03
            2444     12.4118E-03     981.750E-06     5.44684E+06    -27.2294E+06    -32.7928E+06    -8.39596E+06    -18.6909E-03     33.4724E-03    -14.7815E-03     10.6961E-03    -18.5770E-03     33.3762E-03    -14.9139E-03     10.5858E-03
            2445     11.5280E-03     980.064E-06     1.61034E+06    -44.8256E+06    -37.0567E+06    -8.91710E+06    -17.7281E-03     32.2754E-03    -14.5472E-03     8.81854E-03    -17.6016E-03     32.1028E-03    -14.6699E-03     8.70211E-03
            2446     10.6438E-03     978.940E-06    -1.98702E+06    -55.8897E+06    -37.6766E+06    -7.90814E+06    -16.9254E-03     31.2802E-03    -14.3548E-03     7.33897E-03    -16.7998E-03     31.0583E-03    -14.4592E-03     7.23592E-03
            2447     9.75856E-03     977.985E-06    -5.06554E+06    -63.2273E+06    -36.8003E+06    -6.59436E+06    -16.2504E-03     30.4426E-03    -14.1922E-03     6.15402E-03    -16.1308E-03     30.1872E-03    -14.2771E-03     6.06818E-03
            2448     8.87290E-03     977.198E-06    -7.79163E+06    -67.6642E+06    -35.1853E+06    -5.85471E+06    -15.7156E-03     29.7673E-03    -14.0517E-03     5.19284E-03    -15.6055E-03     29.4914E-03    -14.1183E-03     5.11671E-03
            2449     7.98681E-03     976.596E-06    -9.85723E+06    -68.3736E+06    -32.1004E+06    -5.12594E+06    -15.2584E-03     29.1892E-03    -13.9308E-03     4.40283E-03    -15.1620E-03     28.9082E-03    -13.9779E-03     4.33625E-03
            2450     7.10025E-03     976.055E-06    -11.3548E+06    -67.6837E+06    -28.4172E+06    -4.11420E+06    -14.8661E-03     28.6924E-03    -13.8263E-03     3.72014E-03    -14.7836E-03     28.4117E-03    -13.8538E-03     3.66673E-03
            2451     6.21348E-03     975.617E-06    -12.6518E+06    -66.6158E+06    -25.8126E+06    -3.14282E+06    -14.5270E-03     28.2575E-03    -13.7305E-03     3.11078E-03    -14.4562E-03     27.9802E-03    -13.7447E-03     3.06998E-03
            2452     5.32632E-03     975.213E-06    -13.4400E+06    -64.2107E+06    -23.3665E+06    -2.35799E+06    -14.2320E-03     27.8779E-03    -13.6460E-03     2.56301E-03    -14.1722E-03     27.6102E-03    -13.6502E-03     2.53240E-03
            2453     4.43900E-03     974.875E-06    -13.5816E+06    -62.2151E+06    -20.5930E+06    -1.88477E+06    -13.9856E-03     27.5629E-03    -13.5772E-03     2.06284E-03    -13.9335E-03     27.3013E-03    -13.5703E-03     2.03838E-03
            2454     3.55143E-03     974.611E-06    -13.6122E+06    -61.0930E+06    -18.0077E+06    -1.32188E+06    -13.7859E-03     27.3088E-03    -13.5228E-03     1.60531E-03    -13.7393E-03     27.0491E-03    -13.5046E-03     1.58815E-03
            2455     2.66372E-03     974.400E-06    -13.5593E+06    -60.0750E+06    -15.8594E+06    -666.689E+03    -13.6295E-03     27.1097E-03    -13.4802E-03     1.18270E-03    -13.5872E-03     26.8520E-03    -13.4528E-03     1.17403E-03
            2456     1.77587E-03     974.252E-06    -13.3270E+06    -59.2568E+06    -14.4604E+06    -299.871E+03    -13.5164E-03     26.9644E-03    -13.4480E-03     782.612E-06    -13.4761E-03     26.7084E-03    -13.4150E-03     778.702E-06
            2457     887.956E-06     974.166E-06    -13.3214E+06    -58.8110E+06    -13.4035E+06    -135.955E+03    -13.4486E-03     26.8754E-03    -13.4268E-03     425.391E-06    -13.4102E-03     26.6202E-03    -13.3893E-03     423.653E-06


