********************************************************************************
Field Output Report, written Tue May 28 22:50:10 2024

Source 1
---------

   ODB: G:/Abaqus_calc_2019/1740/Vel_10/odb/zeides_2a_8_red_2000_cal_0_vel_10_fric_0100.odb
   Step: Step-1
   Frame: Increment  14041085: Step Time =    1.442

Loc 1 : Nodal values from source 1

Output sorted by column "Nodal Label".

Field Output reported at nodes for region: DIE_2A_8_D0_36-1.Region_1
   Computation algorithm: EXTRAPOLATE_COMPUTE_AVERAGE
   Averaged at nodes
   Averaging regions: ODB_REGIONS

      Node Label     COORD.COOR1     COORD.COOR2
                          @Loc 1          @Loc 1
-------------------------------------------------
               1     15.4045E-03     186.235E-03


Field Output reported at nodes for region: DIE_2A_8_D0_36-1.Region_2
   Computation algorithm: EXTRAPOLATE_COMPUTE_AVERAGE
   Averaged at nodes
   Averaging regions: ODB_REGIONS

      Node Label     COORD.COOR1     COORD.COOR2
                          @Loc 1          @Loc 1
-------------------------------------------------
               1     15.4045E-03     186.235E-03


Field Output reported at nodes for part: WIRE-1
   Computation algorithm: EXTRAPOLATE_COMPUTE_AVERAGE
   Averaged at nodes
   Averaging regions: ODB_REGIONS

      Node Label     COORD.COOR1     COORD.COOR2           S.S11           S.S22           S.S33           S.S12         PE.PE11         PE.PE22         PE.PE33         PE.PE12         LE.LE11         LE.LE22         LE.LE33         LE.LE12
                          @Loc 1          @Loc 1          @Loc 1          @Loc 1          @Loc 1          @Loc 1          @Loc 1          @Loc 1          @Loc 1          @Loc 1          @Loc 1          @Loc 1          @Loc 1          @Loc 1
-------------------------------------------------------------------------------------------------------------------------------------------------------------------------------------------------------------------------------------------------
               1    -4.76590E-06     85.7856E-03    -96.5063E+06    -182.378E+06    -93.7499E+06     789.257E+03    -226.913E-03     453.772E-03    -226.858E-03     1.26847E-03    -226.799E-03     453.199E-03    -226.923E-03     1.54380E-03
               2     14.3520E-03     87.1435E-03    -2.02702E+06     46.8259E+06     70.7391E+06    -2.53936E+06    -224.979E-03     451.695E-03    -226.716E-03     71.0660E-03    -225.353E-03     452.024E-03    -226.427E-03     67.7032E-03
               3     14.4076E-03     173.444E-03    -59.9621E+06    -16.9585E+06     4.11150E+06     27.4186E+06    -127.400E-03     351.540E-03    -224.140E-03     9.15361E-03    -127.671E-03     351.569E-03    -224.008E-03     8.82640E-03
               4    -17.6682E-06     171.438E-03     2.34626E+06    -14.7767E+06    -2.90578E+06    -5.93271E+06    -255.060E-03     516.257E-03    -261.197E-03    -12.0942E-03    -254.941E-03     516.674E-03    -261.193E-03    -12.0531E-03
               5     2.52957E-06     1.05471E-15    -76.9349E+06    -214.366E+06    -76.6532E+06    -7.49768E+06    -197.821E-03     392.900E-03    -195.079E-03    -1.38756E-03    -197.175E-03     392.124E-03    -195.040E-03    -1.51611E-03
               6     14.2394E-03     1.05471E-15    -9.64775E+06     56.9694E+06     74.7446E+06     7.14822E+06    -400.798E-03     629.158E-03    -228.359E-03     86.3893E-03    -401.302E-03     629.653E-03    -228.054E-03     80.9604E-03
               7     716.992E-06     85.7854E-03    -96.7577E+06    -176.543E+06    -93.7920E+06     497.198E+03    -227.010E-03     453.873E-03    -226.864E-03     4.74214E-03    -226.975E-03     453.276E-03    -226.936E-03     4.89618E-03
               8     1.43449E-03     85.7986E-03    -90.9703E+06    -163.106E+06    -86.9965E+06     769.862E+03    -227.005E-03     453.899E-03    -226.894E-03     10.3461E-03    -227.051E-03     453.302E-03    -226.961E-03     10.4214E-03
               9     2.15115E-03     85.8163E-03    -87.6169E+06    -154.661E+06    -79.3758E+06     1.49569E+06    -226.942E-03     453.860E-03    -226.917E-03     15.1158E-03    -227.011E-03     453.302E-03    -226.963E-03     15.2016E-03
              10     2.86953E-03     85.8448E-03    -86.2255E+06    -144.984E+06    -69.8165E+06     1.13018E+06    -227.124E-03     454.076E-03    -226.952E-03     20.4085E-03    -227.227E-03     453.562E-03    -226.965E-03     20.3974E-03
              11     3.58552E-03     85.8799E-03    -78.4193E+06    -126.102E+06    -55.2808E+06     1.84457E+06    -227.002E-03     453.988E-03    -226.986E-03     24.9330E-03    -227.126E-03     453.547E-03    -226.966E-03     24.8672E-03
              12     4.30420E-03     85.9221E-03    -73.4291E+06    -102.621E+06    -42.9276E+06     4.10081E+06    -226.742E-03     453.706E-03    -226.964E-03     29.9275E-03    -226.900E-03     453.364E-03    -226.923E-03     29.8159E-03
              13     5.02154E-03     85.9715E-03    -67.1634E+06    -77.0543E+06    -27.4486E+06     3.07744E+06    -227.255E-03     454.220E-03    -226.965E-03     35.7237E-03    -227.449E-03     453.981E-03    -226.893E-03     35.3777E-03
              14     5.73801E-03     86.0290E-03    -63.4879E+06    -53.8142E+06    -13.5126E+06    -937.366E+03    -227.686E-03     454.705E-03    -227.019E-03     40.7003E-03    -227.929E-03     454.571E-03    -226.917E-03     40.0050E-03
              15     6.45473E-03     86.0910E-03    -63.6274E+06    -30.1317E+06    -3.04957E+06    -2.63528E+06    -227.282E-03     454.333E-03    -227.051E-03     45.0005E-03    -227.590E-03     454.317E-03    -226.930E-03     44.0600E-03
              16     7.17333E-03     86.1643E-03    -58.2114E+06    -10.5123E+06     4.72784E+06    -3.45184E+06    -227.132E-03     454.158E-03    -227.026E-03     48.9137E-03    -227.470E-03     454.238E-03    -226.903E-03     47.6708E-03
              17     7.88941E-03     86.2447E-03    -46.3271E+06     1.80195E+06     17.0174E+06     2.77889E+06    -226.918E-03     453.917E-03    -226.999E-03     54.1133E-03    -227.244E-03     454.036E-03    -226.849E-03     52.8047E-03
              18     8.60838E-03     86.3302E-03    -36.4671E+06     10.0867E+06     33.1706E+06     2.99103E+06    -226.299E-03     453.255E-03    -226.957E-03     59.1097E-03    -226.638E-03     453.405E-03    -226.753E-03     57.4171E-03
              19     9.32769E-03     86.4177E-03    -30.2208E+06     20.4989E+06     45.2249E+06    -1.23166E+06    -226.109E-03     452.975E-03    -226.865E-03     63.6074E-03    -226.484E-03     453.184E-03    -226.625E-03     61.3854E-03
              20     10.0457E-03     86.5140E-03    -25.5568E+06     27.7773E+06     56.7944E+06     5.21094E+06    -226.590E-03     453.384E-03    -226.794E-03     68.4061E-03    -227.017E-03     453.654E-03    -226.514E-03     65.6780E-03
              21     10.7636E-03     86.6079E-03    -27.5668E+06     26.4765E+06     60.4742E+06    -2.08804E+06    -227.580E-03     454.342E-03    -226.762E-03     71.1440E-03    -228.077E-03     454.660E-03    -226.458E-03     67.5242E-03
              22     11.4845E-03     86.7092E-03    -25.0190E+06     29.6236E+06     62.5414E+06    -6.48950E+06    -228.347E-03     455.117E-03    -226.769E-03     71.7424E-03    -228.843E-03     455.447E-03    -226.463E-03     68.0095E-03
              23     12.1990E-03     86.8256E-03    -19.2453E+06     32.0754E+06     63.0040E+06    -6.54739E+06    -228.794E-03     455.595E-03    -226.801E-03     71.2660E-03    -229.289E-03     455.953E-03    -226.505E-03     67.1290E-03
              24     12.9129E-03     86.9289E-03    -11.1234E+06     37.6937E+06     64.0285E+06    -6.10535E+06    -228.026E-03     454.840E-03    -226.815E-03     72.6649E-03    -228.510E-03     455.234E-03    -226.533E-03     68.2169E-03
              25     13.6342E-03     87.0469E-03    -2.81245E+06     46.0074E+06     69.7303E+06    -847.711E+03    -226.004E-03     452.771E-03    -226.767E-03     72.7405E-03    -226.415E-03     453.134E-03    -226.481E-03     69.0094E-03
              26     14.3560E-03     88.6365E-03     -5.0353E+06     36.1258E+06     68.4803E+06     2.36237E+06    -225.729E-03     452.425E-03    -226.696E-03     72.3210E-03    -226.088E-03     452.697E-03    -226.399E-03     69.2805E-03
              27     14.3520E-03     90.1203E-03    -7.16983E+06     36.3879E+06     68.8112E+06     2.53429E+06    -227.774E-03     454.385E-03    -226.611E-03     72.0088E-03    -228.151E-03     454.667E-03    -226.310E-03     68.8984E-03
              28     14.3581E-03     91.6175E-03     8.95143E+06     31.7977E+06     73.3796E+06    -3.63561E+06    -226.044E-03     452.625E-03    -226.580E-03     69.0228E-03    -226.348E-03     452.861E-03    -226.273E-03     65.6776E-03
              29     14.3544E-03     93.0959E-03    -10.5461E+06    -16.3093E+06     48.7501E+06    -20.3888E+06    -223.647E-03     450.195E-03    -226.548E-03     69.2644E-03    -223.952E-03     450.264E-03    -226.265E-03     65.6713E-03
              30     14.3595E-03     94.5854E-03     9.67605E+06    -93.2858E+06     27.4852E+06    -14.5606E+06    -225.358E-03     451.828E-03    -226.470E-03     71.8923E-03    -226.450E-03     452.544E-03    -226.211E-03     67.7005E-03
              31     14.3525E-03     96.0801E-03    -14.8792E+06    -102.224E+06     20.2690E+06     3.94702E+06    -227.665E-03     454.124E-03    -226.460E-03     70.0380E-03    -228.879E-03     454.862E-03    -226.189E-03     65.8057E-03
              32     14.3590E-03     97.5606E-03    -4.64417E+06    -83.0890E+06     19.0926E+06    -845.558E+03    -229.778E-03     456.256E-03    -226.478E-03     65.5318E-03    -231.058E-03     457.166E-03    -226.255E-03     63.1031E-03
              33     14.3460E-03     99.0759E-03     25.5457E+06    -70.5204E+06     35.9975E+06     20.2144E+06    -230.496E-03     457.143E-03    -226.647E-03     66.1129E-03    -231.633E-03     458.015E-03    -226.402E-03     64.3588E-03
              34     14.3566E-03     100.555E-03    -25.8113E+06    -16.0629E+06     49.4836E+06     16.0701E+06    -227.809E-03     454.538E-03    -226.729E-03     70.5232E-03    -228.209E-03     454.646E-03    -226.421E-03     67.1962E-03
              35     14.3524E-03     102.048E-03     1.46139E+06     37.4089E+06     75.8085E+06    -3.02726E+06    -227.185E-03     453.753E-03    -226.568E-03     69.9137E-03    -227.569E-03     454.056E-03    -226.246E-03     66.2144E-03
              36     14.3609E-03     103.542E-03     7.12690E+06     60.3516E+06     87.1985E+06     5.12805E+06    -226.363E-03     452.786E-03    -226.422E-03     69.3721E-03    -226.705E-03     453.114E-03    -226.084E-03     66.6771E-03
              37     14.3585E-03     105.027E-03    -1.46905E+06     55.5590E+06     75.4494E+06     4.74818E+06    -224.719E-03     450.934E-03    -226.215E-03     70.9954E-03    -225.088E-03     451.276E-03    -225.916E-03     68.2240E-03
              38     14.3667E-03     106.513E-03    -6.30513E+06     59.4894E+06     76.8244E+06    -2.82497E+06    -225.804E-03     451.780E-03    -225.975E-03     72.8559E-03    -226.270E-03     452.212E-03    -225.668E-03     69.0897E-03
              39     14.3649E-03     108.005E-03     1.56176E+06     71.5771E+06     89.0942E+06    -2.98801E+06    -227.670E-03     453.503E-03    -225.833E-03     71.7600E-03    -228.129E-03     453.964E-03    -225.493E-03     67.9762E-03
              40     14.3673E-03     109.499E-03    -4.50375E+06     69.6312E+06     85.3045E+06     771.002E+03    -227.062E-03     452.836E-03    -225.773E-03     71.7061E-03    -227.514E-03     453.271E-03    -225.441E-03     68.3545E-03
              41     14.3682E-03     110.982E-03    -1.10335E+06     72.4355E+06     87.3197E+06     165.387E+03    -226.044E-03     451.754E-03    -225.709E-03     71.7165E-03    -226.493E-03     452.202E-03    -225.376E-03     68.2454E-03
              42     14.3691E-03     112.472E-03    -2.81750E+06     74.1079E+06     88.1139E+06    -108.789E+03    -226.964E-03     452.591E-03    -225.627E-03     70.4722E-03    -227.423E-03     453.048E-03    -225.290E-03     66.9645E-03
              43     14.3697E-03     113.961E-03    -1.31939E+06     75.3243E+06     90.4604E+06    -165.664E+03    -227.022E-03     452.587E-03    -225.564E-03     71.2756E-03    -227.479E-03     453.044E-03    -225.219E-03     67.7872E-03
              44     14.3715E-03     115.452E-03    -2.08502E+06     75.7859E+06     90.5964E+06     1.08893E+06    -226.412E-03     451.906E-03    -225.494E-03     73.1432E-03    -226.890E-03     452.384E-03    -225.148E-03     69.5126E-03
              45     14.3724E-03     116.939E-03    -2.59078E+06     78.6932E+06     92.1192E+06     1.11369E+06    -226.272E-03     451.678E-03    -225.406E-03     73.3344E-03    -226.760E-03     452.169E-03    -225.056E-03     69.7040E-03
              46     14.3742E-03     118.424E-03    -2.61005E+06     81.2926E+06     93.5007E+06     607.230E+03    -226.233E-03     451.524E-03    -225.291E-03     70.9761E-03    -226.710E-03     452.009E-03    -224.937E-03     67.4329E-03
              47     14.3762E-03     119.910E-03    -2.29039E+06     84.3301E+06     94.3247E+06     813.015E+03    -225.934E-03     451.077E-03    -225.144E-03     69.5730E-03    -226.403E-03     451.565E-03    -224.791E-03     66.1228E-03
              48     14.3789E-03     121.396E-03    -2.54343E+06     87.8081E+06     94.9745E+06     475.962E+03    -226.274E-03     451.253E-03    -224.979E-03     69.2682E-03    -226.744E-03     451.751E-03    -224.628E-03     65.8573E-03
              49     14.3801E-03     122.887E-03    -3.25172E+06     87.7459E+06     94.8103E+06    -136.945E+03    -226.608E-03     451.436E-03    -224.828E-03     69.9908E-03    -227.084E-03     451.938E-03    -224.476E-03     66.5410E-03
              50     14.3830E-03     124.373E-03    -2.11007E+06     88.5081E+06     97.1506E+06     534.254E+03    -225.927E-03     450.643E-03    -224.717E-03     70.4178E-03    -226.415E-03     451.157E-03    -224.356E-03     66.8637E-03
              51     14.3837E-03     125.860E-03    -1.96379E+06     92.2732E+06     98.8200E+06     1.29035E+06    -224.630E-03     449.243E-03    -224.613E-03     70.5141E-03    -225.133E-03     449.781E-03    -224.250E-03     66.9014E-03
              52     14.3872E-03     127.340E-03    -2.78009E+06     95.0444E+06     98.3475E+06     817.272E+03    -224.593E-03     449.040E-03    -224.446E-03     70.2587E-03    -225.096E-03     449.585E-03    -224.088E-03     66.7131E-03
              53     14.3886E-03     128.825E-03    -3.16948E+06     96.0555E+06     99.6120E+06     40.8586E+03    -225.845E-03     450.122E-03    -224.277E-03     69.9886E-03    -226.357E-03     450.676E-03    -223.914E-03     66.3869E-03
              54     14.3904E-03     130.318E-03    -1.95752E+06     97.4232E+06     101.986E+06     822.337E+03    -225.865E-03     450.020E-03    -224.155E-03     71.7703E-03    -226.397E-03     450.596E-03    -223.784E-03     68.0174E-03
              55     14.3928E-03     131.796E-03    -2.46334E+06     101.373E+06     100.990E+06     929.359E+03    -225.166E-03     449.174E-03    -224.009E-03     71.7580E-03    -225.709E-03     449.777E-03    -223.647E-03     67.9605E-03
              56     14.3948E-03     133.284E-03    -3.41809E+06     104.152E+06     102.788E+06     994.740E+03    -224.444E-03     448.321E-03    -223.877E-03     71.8889E-03    -225.000E-03     448.936E-03    -223.509E-03     68.1142E-03
              57     14.3972E-03     134.767E-03    -2.95276E+06     105.355E+06     104.885E+06    -181.485E+03    -224.373E-03     448.165E-03    -223.792E-03     72.9109E-03    -224.949E-03     448.801E-03    -223.416E-03     68.9732E-03
              58     14.3958E-03     136.250E-03    -2.78350E+06     103.548E+06     100.908E+06    -387.341E+03    -224.178E-03     447.892E-03    -223.714E-03     73.4002E-03    -224.750E-03     448.530E-03    -223.356E-03     69.4370E-03
              59     14.3999E-03     137.732E-03    -1.92358E+06     102.155E+06     104.184E+06    -193.014E+03    -223.339E-03     446.971E-03    -223.632E-03     74.9900E-03    -223.904E-03     447.590E-03    -223.257E-03     71.2027E-03
              60     14.4000E-03     139.212E-03    -3.69331E+06     103.296E+06     105.039E+06     1.77296E+06    -223.869E-03     447.353E-03    -223.484E-03     75.5194E-03    -224.456E-03     447.990E-03    -223.103E-03     71.6363E-03
              61     14.4035E-03     140.695E-03    -2.11213E+06     110.097E+06     103.572E+06     2.35099E+06    -223.756E-03     447.079E-03    -223.323E-03     74.5461E-03    -224.349E-03     447.756E-03    -222.962E-03     70.5510E-03
              62     14.4043E-03     142.173E-03    -1.98130E+06     114.741E+06     103.396E+06    -1.54810E+06    -223.394E-03     446.593E-03    -223.199E-03     73.4148E-03    -223.983E-03     447.283E-03    -222.845E-03     69.4768E-03
              63     14.4062E-03     143.654E-03    -3.53568E+06     113.729E+06     103.031E+06     221.824E+03    -224.584E-03     447.638E-03    -223.055E-03     72.9918E-03    -225.161E-03     448.309E-03    -222.699E-03     69.2793E-03
              64     14.4082E-03     145.136E-03    -2.94599E+06     113.017E+06     103.791E+06     548.614E+03    -226.174E-03     449.081E-03    -222.907E-03     71.8180E-03    -226.738E-03     449.734E-03    -222.548E-03     68.1890E-03
              65     14.4085E-03     146.623E-03    -2.32901E+06     111.056E+06     101.283E+06    -876.929E+03    -226.604E-03     449.389E-03    -222.784E-03     72.3045E-03    -227.162E-03     450.039E-03    -222.436E-03     68.5982E-03
              66     14.4115E-03     148.107E-03    -2.08752E+06     107.507E+06     96.9626E+06    -1.34477E+06    -227.098E-03     449.753E-03    -222.655E-03     74.9759E-03    -227.661E-03     450.409E-03    -222.323E-03     71.1258E-03
              67     14.4110E-03     149.597E-03    -4.25252E+06     97.3907E+06     88.6094E+06    -2.46289E+06    -228.324E-03     450.851E-03    -222.527E-03     76.4422E-03    -228.882E-03     451.483E-03    -222.219E-03     72.4677E-03
              68     14.4133E-03     151.082E-03    -1.64251E+06     86.9392E+06     85.8394E+06    -1.65076E+06    -228.790E-03     451.198E-03    -222.408E-03     77.2387E-03    -229.309E-03     451.771E-03    -222.103E-03     73.3880E-03
              69     14.4152E-03     152.567E-03    -3.29801E+06     69.7149E+06     82.4317E+06    -6.28080E+06    -230.714E-03     452.956E-03    -222.242E-03     77.0952E-03    -231.207E-03     453.446E-03    -221.926E-03     73.2062E-03
              70     14.4163E-03     154.062E-03    -1.81919E+06     43.4887E+06     83.1229E+06    -6.81532E+06    -233.564E-03     455.652E-03    -222.088E-03     78.9532E-03    -234.016E-03     456.011E-03    -221.733E-03     75.0279E-03
              71     14.4192E-03     155.559E-03    -1.68262E+06     13.8551E+06     83.4976E+06    -7.88967E+06    -236.401E-03     458.348E-03    -221.946E-03     82.8718E-03    -236.829E-03     458.577E-03    -221.547E-03     78.8153E-03
              72     14.4192E-03     157.061E-03    -6.05734E+06    -29.1868E+06     75.5176E+06    -12.0159E+06    -239.572E-03     461.379E-03    -221.808E-03     84.7307E-03    -239.957E-03     461.421E-03    -221.379E-03     80.5387E-03
              73     14.4215E-03     158.563E-03     6.75141E+06    -56.2040E+06     74.1856E+06    -2.40820E+06    -242.857E-03     464.510E-03    -221.653E-03     87.1714E-03    -243.138E-03     464.401E-03    -221.211E-03     83.1355E-03
              74     14.4221E-03     160.075E-03    -12.2280E+06    -83.2648E+06     59.7866E+06    -8.65835E+06    -246.340E-03     467.852E-03    -221.512E-03     87.6368E-03    -246.659E-03     467.659E-03    -221.075E-03     83.4482E-03
              75     14.4214E-03     161.585E-03     5.06844E+06    -115.480E+06     56.8586E+06    -6.50963E+06    -249.251E-03     470.658E-03    -221.407E-03     89.1851E-03    -249.438E-03     470.288E-03    -220.963E-03     84.9745E-03
              76     14.4248E-03     163.101E-03    -449.738E+03    -135.430E+06     47.7964E+06    -5.47910E+06    -253.372E-03     474.611E-03    -221.239E-03     89.2240E-03    -253.526E-03     474.144E-03    -220.803E-03     85.2150E-03
              77     14.4220E-03     164.625E-03    -1.20563E+06    -155.145E+06     25.9176E+06    -4.15469E+06    -256.411E-03     477.457E-03    -221.047E-03     88.9089E-03    -256.481E-03     476.898E-03    -220.691E-03     85.2006E-03
              78     14.4264E-03     166.154E-03     965.778E+03    -167.568E+06     27.6595E+06    -2.41154E+06    -254.991E-03     476.049E-03    -221.058E-03     90.8906E-03    -255.029E-03     475.416E-03    -220.678E-03     87.3727E-03
              79     14.4233E-03     167.669E-03     1.52415E+06    -159.989E+06     36.3885E+06     6.34651E+06    -251.116E-03     472.262E-03    -221.146E-03     88.6863E-03    -251.163E-03     471.640E-03    -220.734E-03     85.4157E-03
              80     14.4271E-03     169.177E-03    -5.50847E+06    -148.946E+06     29.3844E+06     1.71981E+06    -241.130E-03     462.428E-03    -221.298E-03     84.9157E-03    -241.166E-03     461.832E-03    -220.928E-03     82.2792E-03
              81     14.4254E-03     170.673E-03     13.9838E+06    -140.532E+06     17.4632E+06    -912.832E+03    -218.802E-03     440.349E-03    -221.547E-03     84.4175E-03    -218.648E-03     439.698E-03    -221.277E-03     83.0514E-03
              82     14.4377E-03     172.105E-03     15.4996E+06    -73.1241E+06     11.7740E+06     26.1929E+06    -165.836E-03     388.720E-03    -222.885E-03     47.6827E-03    -165.690E-03     388.359E-03    -222.742E-03     47.3301E-03
              83     13.5806E-03     173.333E-03    -61.2337E+06     32.9792E+06     38.5713E+06     1.83833E+06    -130.897E-03     357.520E-03    -226.623E-03    -14.5319E-03    -131.291E-03     357.765E-03    -226.389E-03    -14.7281E-03
              84     12.7704E-03     173.174E-03    -50.5072E+06     14.6660E+06     57.8726E+06    -28.8587E+06    -138.291E-03     369.514E-03    -231.224E-03    -68.4503E-03    -138.669E-03     369.669E-03    -230.882E-03    -68.2914E-03
              85     11.9908E-03     173.011E-03    -30.8655E+06    -41.9535E+06     43.5231E+06    -15.5903E+06    -146.375E-03     381.539E-03    -235.164E-03    -114.459E-03    -146.606E-03     381.432E-03    -234.840E-03    -113.885E-03
              86     11.2311E-03     172.842E-03    -26.1917E+06      -862.9E+03     51.1408E+06    -1.57339E+06    -154.341E-03     392.988E-03    -238.647E-03    -142.071E-03    -154.656E-03     393.082E-03    -238.352E-03    -141.257E-03
              87     10.4843E-03     172.682E-03    -31.9039E+06     5.11561E+06     53.2718E+06    -6.59307E+06    -163.461E-03     405.294E-03    -241.833E-03    -159.973E-03    -163.839E-03     405.427E-03    -241.527E-03    -159.177E-03
              88     9.74920E-03     172.527E-03    -35.4513E+06    -2.57357E+06     56.9491E+06    -10.7250E+06    -174.119E-03     418.830E-03    -244.711E-03    -170.232E-03    -174.508E-03     418.908E-03    -244.371E-03    -169.555E-03
              89     9.02370E-03     172.384E-03    -36.2193E+06     306.806E+03     61.5007E+06    -15.3044E+06    -185.126E-03     432.356E-03    -247.231E-03    -175.896E-03    -185.529E-03     432.429E-03    -246.871E-03    -175.321E-03
              90     8.30696E-03     172.250E-03    -35.6405E+06    -8.08925E+06     59.4423E+06    -16.3021E+06    -196.268E-03     445.659E-03    -249.391E-03    -175.360E-03    -196.638E-03     445.662E-03    -249.030E-03    -174.918E-03
              91     7.59806E-03     172.126E-03    -33.8753E+06    -3.89531E+06     60.7952E+06    -17.0206E+06    -206.996E-03     458.198E-03    -251.202E-03    -171.603E-03    -207.349E-03     458.196E-03    -250.844E-03    -171.259E-03
              92     6.89330E-03     172.015E-03    -31.3275E+06    -4.33226E+06     58.2739E+06    -18.3911E+06    -217.062E-03     469.702E-03    -252.640E-03    -165.214E-03    -217.382E-03     469.675E-03    -252.297E-03    -165.006E-03
              93     6.19560E-03     171.909E-03    -27.0414E+06    -3.78554E+06     55.2476E+06    -20.0431E+06    -224.922E-03     478.693E-03    -253.771E-03    -155.910E-03    -225.200E-03     478.645E-03    -253.450E-03    -155.845E-03
              94     5.49901E-03     171.816E-03    -20.7157E+06    -6.94304E+06     53.5948E+06    -20.6706E+06    -231.002E-03     485.766E-03    -254.764E-03    -145.933E-03    -231.235E-03     485.687E-03    -254.456E-03    -145.922E-03
              95     4.80504E-03     171.737E-03    -15.5148E+06    -10.1741E+06     51.6911E+06    -18.3783E+06    -236.655E-03     492.332E-03    -255.677E-03    -133.588E-03    -236.843E-03     492.214E-03    -255.381E-03    -133.679E-03
              96     4.11337E-03     171.665E-03    -12.4494E+06    -6.30355E+06     46.6674E+06    -16.2817E+06    -241.535E-03     498.036E-03    -256.501E-03    -118.240E-03    -241.693E-03     497.918E-03    -256.240E-03    -118.492E-03
              97     3.42443E-03     171.606E-03    -10.5733E+06    -4.53869E+06     35.6404E+06    -16.5357E+06    -246.502E-03     503.729E-03    -257.227E-03    -101.245E-03    -246.628E-03     503.615E-03    -257.027E-03    -101.673E-03
              98     2.73761E-03     171.560E-03    -7.54173E+06    -7.78267E+06     23.8912E+06    -16.0842E+06    -250.757E-03     508.595E-03    -257.838E-03    -84.3620E-03    -250.847E-03     508.489E-03    -257.696E-03    -84.7710E-03
              99     2.04885E-03     171.522E-03    -3.37936E+06    -9.73933E+06     14.7880E+06    -13.6548E+06    -253.452E-03     511.860E-03    -258.408E-03    -67.0989E-03    -253.510E-03     511.756E-03    -258.315E-03    -67.3728E-03
             100     1.36192E-03     171.490E-03    -44.6992E+03    -10.1492E+06     7.13601E+06    -10.3800E+06    -256.785E-03     515.550E-03    -258.765E-03    -48.1736E-03    -256.834E-03     515.451E-03    -258.715E-03    -48.3895E-03
             101     684.855E-06     171.476E-03     1.92891E+06    -12.5533E+06     541.619E+03    -7.24171E+06    -257.005E-03     517.018E-03    -260.013E-03    -25.2012E-03    -256.973E-03     517.184E-03    -259.995E-03    -25.2752E-03
             102     13.6523E-06     169.860E-03    -33.2240E+06    -29.6115E+06    -32.8566E+06    -4.46428E+06    -243.628E-03     486.969E-03    -243.341E-03    -4.05055E-03    -243.477E-03     487.201E-03    -243.414E-03    -4.30372E-03
             103    -9.06333E-06     168.366E-03    -109.208E+06    -68.3227E+06    -106.153E+06    -4.97651E+06    -219.869E-03     442.079E-03    -222.209E-03     964.975E-06    -219.934E-03     442.148E-03    -222.483E-03     1.07071E-03
             104     729.923E-09     166.926E-03    -174.053E+06    -113.341E+06    -173.722E+06    -7.43418E+06    -208.057E-03     421.050E-03    -212.993E-03     191.592E-06    -208.438E-03     421.102E-03    -213.444E-03     644.495E-06
             105     349.279E-09     165.468E-03    -207.689E+06    -148.851E+06    -209.537E+06    -6.07440E+06    -205.587E-03     409.312E-03    -203.725E-03     3.10777E-03    -206.009E-03     409.298E-03    -204.256E-03     3.37468E-03
             106     1.15067E-06     164.073E-03    -181.521E+06    -168.108E+06    -183.057E+06     26.5343E+03    -202.753E-03     403.051E-03    -200.298E-03     827.926E-06    -203.021E-03     402.889E-03    -200.707E-03     1.48339E-03
             107     751.844E-09     162.649E-03    -126.385E+06    -168.519E+06    -125.820E+06     2.26056E+06    -203.151E-03     405.198E-03    -202.047E-03     2.15821E-03    -203.231E-03     404.885E-03    -202.248E-03     2.73862E-03
             108    -1.21887E-06     161.213E-03    -96.9641E+06    -160.963E+06    -96.6553E+06    -804.896E+03    -205.210E-03     408.488E-03    -203.278E-03     6.04779E-03    -205.192E-03     408.135E-03    -203.387E-03     6.14083E-03
             109     4.31202E-06     159.793E-03    -84.8635E+06    -160.870E+06    -85.0424E+06    -2.21774E+06    -205.248E-03     410.949E-03    -205.700E-03     6.17747E-03    -205.154E-03     410.578E-03    -205.769E-03     6.16196E-03
             110    -8.30972E-06     158.366E-03    -99.5639E+06    -174.129E+06    -99.0596E+06    -1.75904E+06    -205.111E-03     415.166E-03    -210.055E-03     4.65389E-03    -205.009E-03     414.793E-03    -210.153E-03     4.79651E-03
             111     4.78349E-06     156.913E-03    -110.895E+06    -185.205E+06    -110.904E+06    -1.06806E+06    -209.765E-03     418.754E-03    -208.990E-03     7.91112E-03    -209.676E-03     418.367E-03    -209.115E-03     7.88605E-03
             112    -489.155E-09     155.469E-03    -107.459E+06    -187.760E+06    -107.672E+06    -1.56299E+06    -211.846E-03     418.289E-03    -206.443E-03     10.5851E-03    -211.748E-03     417.869E-03    -206.554E-03     10.4081E-03
             113     3.71334E-06     154.041E-03    -120.028E+06    -197.475E+06    -120.417E+06    -2.69982E+06    -211.764E-03     420.723E-03    -208.959E-03     6.82985E-03    -211.704E-03     420.274E-03    -209.100E-03     6.81607E-03
             114    -3.14735E-06     152.600E-03    -129.689E+06    -214.298E+06    -129.254E+06    -2.37792E+06    -213.059E-03     427.435E-03    -214.375E-03     474.576E-06    -213.034E-03     426.910E-03    -214.523E-03     774.268E-06
             115     424.481E-09     151.140E-03    -133.885E+06    -224.833E+06    -134.158E+06    -1.11566E+06    -216.327E-03     433.589E-03    -217.261E-03    -991.490E-06    -216.332E-03     433.006E-03    -217.412E-03    -587.005E-06
             116     724.283E-09     149.669E-03    -137.910E+06    -225.078E+06    -138.265E+06     383.693E+03    -217.923E-03     437.584E-03    -219.662E-03     5.15286E-03    -217.957E-03     437.000E-03    -219.827E-03     5.16868E-03
             117    -4.58963E-06     148.189E-03    -138.138E+06    -223.771E+06    -136.136E+06    -17.3851E+03    -218.552E-03     438.764E-03    -220.212E-03     6.52153E-03    -218.600E-03     438.180E-03    -220.368E-03     6.34706E-03
             118     5.87621E-06     146.730E-03    -136.601E+06    -228.676E+06    -137.789E+06    -1.48432E+06    -222.695E-03     440.982E-03    -218.287E-03     3.71107E-03    -222.736E-03     440.366E-03    -218.446E-03     3.73997E-03
             119    -978.513E-09     145.260E-03    -140.009E+06    -235.044E+06    -140.703E+06    -542.412E+03    -222.870E-03     443.753E-03    -220.882E-03     3.41558E-03    -222.925E-03     443.103E-03    -221.042E-03     3.52910E-03
             120    -1.20578E-06     143.766E-03    -135.323E+06    -239.733E+06    -134.025E+06    -1.08421E+06    -221.682E-03     444.617E-03    -222.934E-03     5.45421E-03    -221.732E-03     443.918E-03    -223.061E-03     5.41170E-03
             121     1.45901E-06     142.296E-03    -132.079E+06    -244.870E+06    -133.411E+06    -551.424E+03    -223.603E-03     446.461E-03    -222.858E-03     4.64771E-03    -223.629E-03     445.732E-03    -222.978E-03     4.71649E-03
             122    -782.127E-09     140.820E-03    -127.995E+06    -248.221E+06    -127.549E+06    -524.973E+03    -223.275E-03     449.404E-03    -226.129E-03     2.62896E-03    -223.251E-03     448.661E-03    -226.221E-03     2.83963E-03
             123    -4.16117E-06     139.321E-03    -124.691E+06    -251.711E+06    -124.210E+06    -682.992E+03    -223.733E-03     449.960E-03    -226.227E-03     3.39388E-03    -223.659E-03     449.220E-03    -226.302E-03     3.45597E-03
             124     5.30361E-06     137.837E-03    -127.408E+06    -251.317E+06    -128.251E+06     1.01757E+06    -223.960E-03     448.573E-03    -224.613E-03     6.93916E-03    -223.867E-03     447.885E-03    -224.705E-03     6.70863E-03
             125    -7.67109E-06     136.359E-03    -126.289E+06    -245.514E+06    -124.991E+06     794.513E+03    -223.088E-03     449.004E-03    -225.916E-03     4.06832E-03    -222.956E-03     448.369E-03    -226.002E-03     4.06993E-03
             126     5.64462E-06     134.873E-03    -122.583E+06    -244.585E+06    -123.060E+06    -680.656E+03    -225.889E-03     450.264E-03    -224.375E-03     2.90158E-03    -225.713E-03     449.630E-03    -224.458E-03     2.96218E-03
             127    -1.82408E-06     133.377E-03    -120.563E+06    -247.018E+06    -120.568E+06    -49.8431E+03    -224.763E-03     447.820E-03    -223.057E-03     5.88028E-03    -224.583E-03     447.158E-03    -223.127E-03     5.78128E-03
             128     72.8325E-09     131.908E-03    -119.062E+06    -249.108E+06    -118.735E+06     428.464E+03    -224.226E-03     447.363E-03    -223.138E-03     5.54030E-03    -224.049E-03     446.671E-03    -223.198E-03     5.49804E-03
             129     2.88192E-06     130.416E-03    -118.444E+06    -250.504E+06    -118.221E+06    -765.259E+03    -226.391E-03     449.043E-03    -222.652E-03     6.40524E-03    -226.220E-03     448.327E-03    -222.708E-03     6.21165E-03
             130    -807.042E-09     128.931E-03    -121.867E+06    -248.505E+06    -122.978E+06     219.611E+03    -224.032E-03     447.639E-03    -223.607E-03     6.25536E-03    -223.892E-03     446.936E-03    -223.685E-03     6.02456E-03
             131    -989.573E-09     127.459E-03    -111.842E+06    -245.579E+06     -111.96E+06     675.464E+03    -224.350E-03     448.164E-03    -223.814E-03     1.47420E-03    -224.202E-03     447.439E-03    -223.856E-03     1.54301E-03
             132     3.27472E-06     125.972E-03    -108.289E+06    -242.421E+06    -108.887E+06     449.828E+03    -225.834E-03     449.462E-03    -223.629E-03     524.775E-06    -225.694E-03     448.736E-03    -223.665E-03     716.483E-06
             133    -2.64471E-06     124.485E-03    -112.340E+06    -235.915E+06    -112.479E+06     1.53412E+06    -223.759E-03     448.724E-03    -224.965E-03     696.915E-06    -223.656E-03     448.030E-03    -225.023E-03     931.811E-06
             134     46.5800E-09     123.007E-03    -113.208E+06    -231.747E+06    -112.453E+06    -228.231E+03    -222.246E-03     448.235E-03    -225.989E-03     1.51287E-03    -222.163E-03     447.556E-03    -226.052E-03     1.65081E-03
             135    -3.04942E-06     121.511E-03    -113.093E+06    -231.746E+06    -113.171E+06     186.980E+03    -223.433E-03     448.373E-03    -224.941E-03     4.95697E-03    -223.352E-03     447.693E-03    -225.006E-03     4.82771E-03
             136     3.66534E-06     120.031E-03    -110.458E+06    -229.125E+06    -110.271E+06     642.827E+03    -224.131E-03     446.919E-03    -222.788E-03     5.14904E-03    -224.034E-03     446.240E-03    -222.847E-03     5.06073E-03
             137    -2.58182E-06     118.555E-03    -108.804E+06    -226.713E+06    -108.936E+06     248.131E+03    -222.864E-03     445.503E-03    -222.639E-03     1.72291E-03    -222.754E-03     444.825E-03    -222.697E-03     1.91717E-03
             138     1.56959E-06     117.083E-03    -108.144E+06    -223.152E+06    -107.981E+06     987.238E+03    -223.984E-03     448.023E-03    -224.039E-03    -312.726E-06    -223.890E-03     447.360E-03    -224.099E-03     15.7225E-06
             139    -858.778E-09     115.586E-03    -107.270E+06    -218.392E+06    -106.792E+06     473.950E+03    -225.373E-03     450.548E-03    -225.174E-03     3.43811E-03    -225.284E-03     449.906E-03    -225.236E-03     3.44585E-03
             140     213.054E-09     114.094E-03    -105.958E+06    -215.411E+06    -105.687E+06     662.440E+03    -224.604E-03     449.962E-03    -225.359E-03     5.76979E-03    -224.494E-03     449.336E-03    -225.421E-03     5.63851E-03
             141    -916.803E-09     112.617E-03    -105.424E+06    -212.471E+06    -106.124E+06     345.542E+03    -224.222E-03     450.122E-03    -225.901E-03     4.55847E-03    -224.106E-03     449.518E-03    -225.970E-03     4.60462E-03
             142    -1.07258E-06     111.127E-03    -107.099E+06    -209.848E+06    -106.598E+06     874.832E+03    -225.189E-03     451.990E-03    -226.801E-03     3.50687E-03    -225.077E-03     451.404E-03    -226.874E-03     3.67927E-03
             143     472.399E-09     109.634E-03    -106.028E+06    -205.444E+06    -105.079E+06     822.444E+03    -226.598E-03     452.004E-03    -225.406E-03     1.24275E-03    -226.473E-03     451.429E-03    -225.480E-03     1.44871E-03
             144     1.55092E-06     108.156E-03    -113.326E+06    -209.794E+06    -111.766E+06     724.487E+03    -226.573E-03     451.676E-03    -225.103E-03     542.424E-06    -226.474E-03     451.090E-03    -225.193E-03     759.874E-06
             145    -1.72859E-06     106.660E-03    -104.780E+06    -201.786E+06    -105.709E+06     3.81384E+06    -226.037E-03     453.044E-03    -227.008E-03     1.45575E-03    -225.937E-03     452.468E-03    -227.092E-03     1.68853E-03
             146     256.931E-09     105.166E-03    -87.7854E+06    -182.825E+06    -86.9346E+06     1.12076E+06    -226.166E-03     453.506E-03    -227.340E-03     2.88211E-03    -226.053E-03     452.962E-03    -227.382E-03     2.95713E-03
             147    -697.685E-09     103.676E-03    -95.9264E+06    -192.507E+06    -99.3735E+06    -3.09365E+06    -226.365E-03     453.313E-03    -226.947E-03     6.96191E-03    -226.275E-03     452.739E-03    -227.026E-03     6.68280E-03
             148     37.3128E-09     102.172E-03    -97.8748E+06    -195.599E+06    -102.417E+06     43.4545E+03    -226.458E-03     452.767E-03    -226.309E-03     8.25012E-03    -226.381E-03     452.173E-03    -226.396E-03     7.92449E-03
             149     566.301E-09     100.699E-03    -96.9982E+06    -191.277E+06    -93.3158E+06    -646.369E+03    -227.012E-03     452.208E-03    -225.197E-03     4.46944E-03    -226.954E-03     451.605E-03    -225.245E-03     4.34460E-03
             150     1.26376E-06     99.2045E-03    -82.9895E+06    -184.024E+06    -86.2136E+06     4.95066E+06    -225.100E-03     451.687E-03    -226.587E-03     2.59383E-03    -224.992E-03     451.076E-03    -226.631E-03     2.76120E-03
             151    -5.45390E-06     97.7204E-03    -78.7673E+06    -178.672E+06    -76.3715E+06     1.43098E+06    -223.854E-03     452.225E-03    -228.371E-03     1.57180E-03    -223.741E-03     451.623E-03    -228.380E-03     1.80630E-03
             152     2.97991E-06     96.2282E-03    -87.8939E+06    -200.204E+06    -92.3472E+06    -8.58855E+06    -226.702E-03     454.099E-03    -227.397E-03     1.55674E-03    -226.579E-03     453.433E-03    -227.441E-03     1.55992E-03
             153    -1.74755E-06     94.7313E-03    -93.5940E+06    -200.559E+06    -91.1837E+06     1.77810E+06    -228.080E-03     455.027E-03    -226.947E-03     2.65772E-03    -227.985E-03     454.362E-03    -226.976E-03     2.86127E-03
             154     1.95582E-06     93.2425E-03    -95.1887E+06    -188.696E+06    -87.4553E+06     1.64222E+06    -226.857E-03     454.790E-03    -227.933E-03     2.59887E-03    -226.783E-03     454.179E-03    -227.959E-03     2.67294E-03
             155    -3.85418E-06     91.7430E-03    -96.0261E+06    -193.047E+06    -98.6740E+06    -2.26203E+06    -226.240E-03     453.405E-03    -227.165E-03     4.14074E-03    -226.135E-03     452.800E-03    -227.239E-03     3.94523E-03
             156     4.16557E-06     90.2511E-03    -94.6438E+06    -185.972E+06    -92.0490E+06     2.02463E+06    -226.258E-03     452.844E-03    -226.586E-03     7.48966E-03    -226.158E-03     452.279E-03    -226.639E-03     7.21044E-03
             157    -5.19318E-06     88.7635E-03    -94.6162E+06    -185.190E+06    -97.4860E+06    -1.21096E+06    -226.516E-03     453.210E-03    -226.693E-03     4.46215E-03    -226.402E-03     452.664E-03    -226.775E-03     4.27803E-03
             158     5.66799E-06     87.2758E-03    -98.6084E+06    -189.875E+06    -101.898E+06     1.41984E+06    -227.260E-03     453.357E-03    -226.096E-03     1.54852E-03    -227.140E-03     452.785E-03    -226.188E-03     1.70734E-03
             159     3.69159E-06     84.2900E-03    -95.7390E+06    -182.205E+06    -96.8011E+06    -1.40074E+06    -227.205E-03     453.871E-03    -226.665E-03     727.495E-06    -227.083E-03     453.283E-03    -226.746E-03     937.295E-06
             160    -2.13157E-06     82.8012E-03    -92.7583E+06    -176.410E+06    -92.2304E+06     3.11500E+06    -226.714E-03     453.866E-03    -227.151E-03     3.66493E-03    -226.593E-03     453.282E-03    -227.222E-03     3.68514E-03
             161    -335.962E-09     81.3010E-03    -91.5288E+06    -168.818E+06    -91.4998E+06    -858.912E+03    -225.956E-03     453.479E-03    -227.523E-03     2.17031E-03    -225.844E-03     452.932E-03    -227.603E-03     2.18659E-03
             162     277.573E-09     79.8223E-03    -99.7467E+06    -176.352E+06    -99.6567E+06    -2.98879E+06    -226.828E-03     453.233E-03    -226.405E-03     1.66309E-03    -226.742E-03     452.679E-03    -226.503E-03     1.68852E-03
             163     123.061E-09     78.3197E-03    -98.1542E+06    -185.309E+06    -97.1244E+06    -532.883E+03    -226.616E-03     453.404E-03    -226.788E-03     2.91927E-03    -226.519E-03     452.787E-03    -226.862E-03     3.02728E-03
             164    -1.02146E-06     76.8336E-03    -99.3989E+06    -190.780E+06    -99.1837E+06     598.225E+03    -225.055E-03     452.454E-03    -227.399E-03     4.31950E-03    -224.954E-03     451.789E-03    -227.474E-03     4.33470E-03
             165    -1.70940E-06     75.3396E-03    -103.278E+06    -190.247E+06    -101.431E+06     1.99123E+06    -225.338E-03     451.735E-03    -226.398E-03     3.96441E-03    -225.254E-03     451.072E-03    -226.479E-03     3.95798E-03
             166     2.67268E-06     73.8557E-03    -92.5664E+06    -174.224E+06    -91.8975E+06     1.29342E+06    -226.920E-03     451.975E-03    -225.055E-03     3.57772E-03    -226.817E-03     451.366E-03    -225.128E-03     3.62072E-03
             167    -1.21693E-06     72.3654E-03    -97.1022E+06    -171.318E+06    -96.5630E+06    -3.92880E+06    -226.297E-03     451.930E-03    -225.633E-03     3.71665E-03    -226.199E-03     451.343E-03    -225.727E-03     3.66760E-03
             168     431.793E-09     70.8748E-03    -99.5964E+06    -178.489E+06    -102.231E+06     3.33123E+06    -225.210E-03     451.708E-03    -226.498E-03     4.08876E-03    -225.085E-03     451.090E-03    -226.606E-03     4.19128E-03
             169    -1.84114E-06     69.3868E-03    -87.9442E+06    -159.082E+06    -85.5481E+06     3.73625E+06    -226.162E-03     451.981E-03    -225.819E-03     2.51834E-03    -226.022E-03     451.432E-03    -225.889E-03     2.66572E-03
             170     3.43505E-06     67.9015E-03    -96.0186E+06    -169.422E+06    -97.4051E+06    -6.38047E+06    -226.220E-03     452.005E-03    -225.785E-03     2.12469E-03    -226.100E-03     451.456E-03    -225.887E-03     1.99993E-03
             171    -4.72431E-06     66.4088E-03    -106.742E+06    -179.249E+06    -106.468E+06     4.00213E+06    -225.241E-03     452.660E-03    -227.418E-03     3.41754E-03    -225.165E-03     452.094E-03    -227.536E-03     3.52412E-03
             172     2.60627E-06     64.9153E-03    -109.693E+06    -176.111E+06    -105.793E+06     -301.73E+03    -226.564E-03     453.853E-03    -227.288E-03     4.65653E-03    -226.522E-03     453.290E-03    -227.403E-03     4.65950E-03
             173    -1.76633E-06     63.4207E-03    -103.236E+06    -178.679E+06    -104.826E+06    -372.940E+03    -226.546E-03     452.517E-03    -225.971E-03     4.53827E-03    -226.481E-03     451.931E-03    -226.086E-03     4.46995E-03
             174     1.47969E-06     61.9390E-03    -88.2788E+06    -165.675E+06    -87.9959E+06     1.77173E+06    -226.198E-03     452.439E-03    -226.241E-03     2.18638E-03    -226.113E-03     451.887E-03    -226.312E-03     2.39063E-03
             175    -1.47833E-06     60.4514E-03    -94.8604E+06    -173.619E+06    -96.5847E+06    -3.24994E+06    -227.115E-03     454.086E-03    -226.971E-03     461.484E-06    -227.041E-03     453.509E-03    -227.065E-03     650.990E-06
             176     1.44753E-06     58.9479E-03    -97.9612E+06    -172.467E+06    -98.1923E+06     4.45446E+06    -226.747E-03     453.334E-03    -226.587E-03     2.94424E-03    -226.676E-03     452.734E-03    -226.685E-03     3.13197E-03
             177    -1.44013E-06     57.4621E-03    -99.6130E+06    -167.126E+06    -97.9705E+06    -2.81516E+06    -226.337E-03     452.710E-03    -226.372E-03     4.71724E-03    -226.271E-03     452.103E-03    -226.476E-03     4.60756E-03
             178     1.12518E-06     55.9715E-03    -102.737E+06    -173.236E+06    -103.508E+06    -4.03694E+06    -227.199E-03     453.645E-03    -226.447E-03     4.20239E-03    -227.129E-03     453.010E-03    -226.564E-03     3.97466E-03
             179    -10.3362E-09     54.4761E-03    -104.142E+06    -179.371E+06    -103.930E+06     2.24838E+06    -227.293E-03     454.264E-03    -226.971E-03     5.76576E-03    -227.227E-03     453.618E-03    -227.080E-03     5.67510E-03
             180    -912.369E-09     52.9837E-03    -99.1289E+06    -178.761E+06    -102.454E+06     292.989E+03    -226.125E-03     453.429E-03    -227.304E-03     4.03116E-03    -226.047E-03     452.801E-03    -227.413E-03     4.12061E-03
             181    -136.409E-09     51.4988E-03    -85.4150E+06    -165.055E+06    -93.6089E+06     2.03158E+06    -225.761E-03     452.950E-03    -227.189E-03     2.35373E-03    -225.652E-03     452.374E-03    -227.294E-03     2.49428E-03
             182    -1.17388E-06     50.0066E-03    -92.7493E+06    -167.221E+06    -92.1715E+06    -1.64253E+06    -227.058E-03     454.726E-03    -227.667E-03     2.82884E-03    -226.981E-03     454.144E-03    -227.751E-03     2.68928E-03
             183     1.37488E-06     48.5080E-03    -103.936E+06    -179.992E+06    -97.5515E+06    -2.31564E+06    -228.797E-03     456.721E-03    -227.924E-03     3.85544E-03    -228.738E-03     456.090E-03    -228.001E-03     3.73710E-03
             184    -527.970E-09     47.0125E-03    -99.7778E+06    -178.028E+06    -95.7889E+06     2.23967E+06    -228.303E-03     456.556E-03    -228.253E-03     3.78769E-03    -228.227E-03     455.933E-03    -228.329E-03     3.87226E-03
             185    -474.962E-09     45.5158E-03    -97.0134E+06    -175.634E+06    -97.5002E+06    -1.23640E+06    -227.410E-03     454.992E-03    -227.582E-03     3.23057E-03    -227.333E-03     454.399E-03    -227.674E-03     3.21797E-03
             186     984.098E-09     44.0249E-03    -96.5211E+06    -179.113E+06    -97.2470E+06    -182.110E+03    -227.543E-03     454.364E-03    -226.821E-03     3.97546E-03    -227.476E-03     453.771E-03    -226.907E-03     3.87417E-03
             187    -686.113E-09     42.5313E-03    -97.6292E+06    -178.864E+06    -96.7445E+06     1.29991E+06    -227.440E-03     454.979E-03    -227.540E-03     4.57210E-03    -227.389E-03     454.393E-03    -227.622E-03     4.49540E-03
             188     42.5178E-09     41.0352E-03    -94.9171E+06    -174.431E+06    -96.3747E+06     888.648E+03    -227.979E-03     455.453E-03    -227.474E-03     3.71597E-03    -227.921E-03     454.868E-03    -227.566E-03     3.78642E-03
             189     1.10173E-06     39.5442E-03    -96.3053E+06    -177.911E+06    -99.8070E+06    -384.288E+03    -227.906E-03     455.002E-03    -227.096E-03     3.22130E-03    -227.842E-03     454.393E-03    -227.198E-03     3.23184E-03
             190    -1.32898E-06     38.0497E-03    -97.7873E+06    -175.163E+06    -96.7735E+06     821.188E+03    -227.666E-03     455.394E-03    -227.728E-03     3.32564E-03    -227.608E-03     454.801E-03    -227.816E-03     3.33688E-03
             191     1.25171E-06     36.5550E-03    -99.0174E+06    -173.611E+06      -93.09E+06    -1.33981E+06    -228.806E-03     457.506E-03    -228.700E-03     4.59863E-03    -228.744E-03     456.923E-03    -228.770E-03     4.67673E-03
             192    -1.22490E-06     35.0507E-03    -101.461E+06    -181.912E+06    -104.160E+06      -935.1E+03    -228.944E-03     457.879E-03    -228.935E-03     3.69200E-03    -228.845E-03     457.261E-03    -229.045E-03     3.74181E-03
             193     902.828E-09     33.5620E-03    -99.6468E+06    -177.436E+06    -99.7483E+06     1.41771E+06    -228.803E-03     457.371E-03    -228.568E-03     2.93385E-03    -228.701E-03     456.746E-03    -228.665E-03     2.93074E-03
             194    -532.174E-09     32.0584E-03    -96.1019E+06    -174.359E+06    -97.8600E+06    -1.48340E+06    -229.309E-03     458.597E-03    -229.288E-03     4.09416E-03    -229.210E-03     457.985E-03    -229.385E-03     4.03470E-03
             195    -95.4521E-09     30.5598E-03    -99.7039E+06    -174.861E+06    -97.9302E+06     1.26000E+06    -229.799E-03     459.381E-03    -229.583E-03     3.99662E-03    -229.731E-03     458.795E-03    -229.674E-03     4.02971E-03
             196     794.349E-09     29.0576E-03    -96.5372E+06    -171.276E+06    -94.4221E+06     206.424E+03    -230.511E-03     460.089E-03    -229.578E-03     4.91055E-03    -230.425E-03     459.499E-03    -229.662E-03     4.89012E-03
             197    -415.491E-09     27.5570E-03    -91.6667E+06    -164.894E+06    -92.7271E+06    -608.490E+03    -230.865E-03     461.176E-03    -230.310E-03     4.56152E-03    -230.741E-03     460.557E-03    -230.402E-03     4.49763E-03
             198     509.201E-09     26.0521E-03    -97.3019E+06    -171.366E+06    -99.7201E+06     1.00981E+06    -230.696E-03     461.555E-03    -230.859E-03     4.37783E-03    -230.575E-03     460.898E-03    -230.968E-03     4.28673E-03
             199    -1.17414E-06     24.5503E-03    -101.904E+06    -170.089E+06    -100.780E+06     1.77009E+06    -230.662E-03     461.639E-03    -230.976E-03     3.91805E-03    -230.582E-03     461.004E-03    -231.086E-03     3.72578E-03
             200     1.11055E-06     23.0455E-03    -98.1141E+06    -160.008E+06    -97.8348E+06    -1.39126E+06    -230.670E-03     461.080E-03    -230.410E-03     3.42101E-03    -230.602E-03     460.483E-03    -230.525E-03     3.24969E-03
             201    -942.675E-09     21.5448E-03    -93.6833E+06    -161.768E+06    -101.313E+06    -183.385E+03    -229.679E-03     459.976E-03    -230.297E-03     4.07121E-03    -229.581E-03     459.357E-03    -230.433E-03     4.04361E-03
             202    -454.151E-09     20.0414E-03    -99.0561E+06    -163.480E+06    -97.7914E+06     1.36958E+06    -228.499E-03     457.572E-03    -229.072E-03     3.01558E-03    -228.431E-03     456.945E-03    -229.181E-03     2.92705E-03
             203     776.330E-09     18.5503E-03    -102.308E+06    -166.995E+06    -98.0219E+06    -4.56289E+06    -226.480E-03     452.641E-03    -226.161E-03     2.44957E-03    -226.435E-03     452.013E-03    -226.261E-03     2.15241E-03
             204    -848.819E-09     17.0625E-03    -103.884E+06    -173.085E+06    -105.309E+06     557.845E+03    -223.562E-03     446.980E-03    -223.418E-03     2.57693E-03    -223.511E-03     446.337E-03    -223.543E-03     2.45486E-03
             205     874.759E-09     15.5849E-03    -103.746E+06    -171.615E+06    -102.842E+06     2.21394E+06    -219.951E-03     439.554E-03    -219.602E-03     1.68372E-03    -219.893E-03     438.907E-03    -219.717E-03     1.59712E-03
             206    -639.790E-09     14.1209E-03    -97.0103E+06    -165.106E+06    -95.1840E+06    -954.285E+03    -215.100E-03     430.239E-03    -215.139E-03     1.71965E-03    -215.007E-03     429.615E-03    -215.235E-03     1.59441E-03
             207     77.0084E-09     12.6724E-03    -92.1370E+06    -167.262E+06    -93.6676E+06     1.59780E+06    -210.449E-03     421.318E-03    -210.869E-03     651.815E-06    -210.311E-03     420.700E-03    -210.961E-03     580.786E-06
             208    -457.048E-09     11.2340E-03    -98.9492E+06    -177.302E+06    -98.8394E+06    -2.33617E+06    -205.358E-03     410.778E-03    -205.420E-03    -458.072E-06    -205.214E-03     410.159E-03    -205.514E-03    -678.302E-06
             209     409.445E-09     9.81378E-03    -98.5419E+06    -176.404E+06    -97.3460E+06     57.8425E+03    -200.269E-03     400.360E-03    -200.091E-03     84.4093E-06    -200.097E-03     399.777E-03    -200.179E-03    -101.111E-06
             210    -476.836E-09     8.40768E-03    -93.5481E+06    -169.042E+06    -93.8336E+06     2.79076E+06    -197.387E-03     394.376E-03    -196.988E-03     957.474E-06    -197.160E-03     393.823E-03    -197.077E-03     825.251E-06
             211     667.818E-09     7.00193E-03    -100.313E+06    -175.800E+06    -97.2149E+06    -2.87840E+06    -195.703E-03     391.116E-03    -195.414E-03     1.21333E-03    -195.452E-03     390.534E-03    -195.499E-03     1.03359E-03
             212    -928.729E-09     5.60485E-03    -98.3943E+06    -187.651E+06    -96.9730E+06    -2.02193E+06    -194.246E-03     389.151E-03    -194.905E-03     1.19093E-03    -193.942E-03     388.533E-03    -194.975E-03     1.01886E-03
             213    -340.704E-09     4.20821E-03    -90.1832E+06    -197.393E+06    -92.4087E+06     48.7796E+03    -194.703E-03     389.979E-03    -195.275E-03     790.807E-06    -194.306E-03     389.350E-03    -195.320E-03     654.722E-06
             214     106.683E-09     2.80542E-03    -81.0461E+06    -204.995E+06    -80.8156E+06     497.042E+03    -195.752E-03     391.724E-03    -195.972E-03     979.914E-06    -195.235E-03     391.052E-03    -195.961E-03     938.634E-06
             215    -948.725E-09     1.40283E-03    -75.3366E+06    -211.486E+06    -75.1618E+06    -2.58436E+06    -196.835E-03     392.590E-03    -195.755E-03     368.646E-06    -196.214E-03     391.845E-03    -195.715E-03     317.307E-06
             216     740.040E-06     1.05471E-15    -71.8319E+06    -190.621E+06    -63.2040E+06    -2.94291E+06    -197.408E-03     393.176E-03    -195.769E-03    -233.838E-06    -197.033E-03     392.399E-03    -195.704E-03    -284.916E-06
             217     1.47813E-03     1.05471E-15    -63.2269E+06    -162.162E+06    -50.1894E+06    -152.191E+03    -197.151E-03     393.731E-03    -196.580E-03     1.10092E-03    -197.046E-03     392.981E-03    -196.504E-03     1.07488E-03
             218     2.21782E-03     1.05471E-15    -58.5495E+06    -152.107E+06    -50.0934E+06    -128.280E+03    -197.654E-03     394.481E-03    -196.827E-03     1.23981E-03    -197.568E-03     393.797E-03    -196.772E-03     1.17257E-03
             219     2.95579E-03     1.05471E-15    -56.4302E+06    -136.806E+06    -48.0618E+06     29.3985E+03    -198.473E-03     395.584E-03    -197.111E-03     1.44832E-03    -198.408E-03     394.973E-03    -197.072E-03     1.36184E-03
             220     3.69352E-03     1.05471E-15    -53.6065E+06    -118.220E+06    -46.5000E+06    -1.71041E+06    -199.570E-03     397.033E-03    -197.462E-03     1.96449E-03    -199.522E-03     396.511E-03    -197.446E-03     1.81774E-03
             221     4.43013E-03     1.05471E-15    -49.8563E+06    -98.4913E+06    -46.6475E+06    -3.20416E+06    -201.073E-03     398.969E-03    -197.897E-03     2.12762E-03    -201.063E-03     398.570E-03    -197.915E-03     1.92139E-03
             222     5.16610E-03     1.05471E-15    -45.8705E+06    -69.5587E+06    -44.4716E+06    -4.04476E+06    -203.167E-03     401.622E-03    -198.456E-03     2.49801E-03    -203.200E-03     401.376E-03    -198.511E-03     2.26027E-03
             223     5.89887E-03     1.05471E-15    -42.6117E+06    -39.1617E+06    -36.4429E+06    -1.55932E+06    -205.588E-03     404.768E-03    -199.181E-03     3.16527E-03    -205.661E-03     404.657E-03    -199.244E-03     2.91475E-03
             224     6.63080E-03     1.05471E-15    -40.7184E+06    -22.8041E+06    -25.0311E+06    -650.224E+03    -208.154E-03     408.217E-03    -200.062E-03     3.66477E-03    -208.259E-03     408.169E-03    -200.095E-03     3.38550E-03
             225     7.36066E-03     1.05471E-15    -36.9637E+06    -14.5374E+06    -15.0721E+06    -3.57833E+06    -211.063E-03     412.112E-03    -201.050E-03     3.91753E-03    -211.179E-03     412.090E-03    -201.050E-03     3.53816E-03
             226     8.08808E-03     1.05471E-15    -32.2488E+06    -4.98834E+06    -6.12806E+06    -1.58260E+06    -214.910E-03     417.070E-03    -202.159E-03     4.62396E-03    -215.032E-03     417.078E-03    -202.136E-03     4.16745E-03
             227     8.81274E-03     1.05471E-15    -29.8652E+06     4.23361E+06     9.10697E+06     2.94188E+06    -219.764E-03     423.247E-03    -203.483E-03     4.54622E-03    -219.917E-03     423.283E-03    -203.400E-03     4.04308E-03
             228     9.53326E-03     1.05471E-15    -27.4418E+06     11.2945E+06     27.5725E+06    -2.26627E+06    -225.930E-03     430.981E-03    -205.051E-03     3.82586E-03    -226.110E-03     431.025E-03    -204.890E-03     3.19489E-03
             229     10.2511E-03     1.05471E-15    -22.6785E+06     18.4713E+06     42.1034E+06     1.07604E+06    -234.613E-03     441.516E-03    -206.903E-03     5.17157E-03    -234.797E-03     441.565E-03    -206.686E-03     4.56720E-03
             230     10.9545E-03     1.05471E-15    -19.3411E+06     24.7529E+06     52.4553E+06     1.03569E+06    -244.306E-03     453.402E-03    -209.097E-03     7.68614E-03    -244.497E-03     453.463E-03    -208.842E-03     6.71390E-03
             231     11.6589E-03     1.05471E-15    -13.6911E+06     34.3779E+06     64.2341E+06    -2.92457E+06    -256.345E-03     468.024E-03    -211.679E-03     7.12192E-03    -256.542E-03     468.112E-03    -211.388E-03     5.77334E-03
             232     12.3548E-03     1.05471E-15    -8.59185E+06     44.1707E+06     72.7717E+06    -2.34142E+06    -276.859E-03     491.720E-03    -214.861E-03     4.93961E-03    -277.058E-03     491.843E-03    -214.549E-03     3.31067E-03
             233     13.0286E-03     1.05471E-15    -5.73848E+06     52.1636E+06     76.3459E+06    -2.67183E+06    -310.323E-03     529.401E-03    -219.078E-03     8.24987E-03    -310.526E-03     529.566E-03    -218.764E-03     6.54313E-03
             234     13.6750E-03     1.05471E-15    -6.15298E+06     57.4702E+06     77.0510E+06     4.41337E+06    -365.744E-03     590.681E-03    -224.936E-03     49.1413E-03    -366.097E-03     591.025E-03    -224.625E-03     45.7218E-03
             235     14.3072E-03     1.86511E-03    -4.52366E+06     59.9488E+06     75.6959E+06     2.20440E+06    -357.434E-03     585.093E-03    -227.659E-03     96.6364E-03    -358.010E-03     585.660E-03    -227.361E-03     90.9745E-03
             236     14.3342E-03     3.46807E-03    -1.00619E+06     58.6356E+06     73.1259E+06    -3.85073E+06    -298.488E-03     525.058E-03    -226.570E-03     100.204E-03    -299.079E-03     525.634E-03    -226.288E-03     94.7509E-03
             237     14.3485E-03     5.03803E-03     304.983E+03     55.3818E+06     68.7886E+06    -2.25931E+06    -276.380E-03     502.289E-03    -225.909E-03     89.6813E-03    -276.879E-03     502.786E-03    -225.646E-03     84.9164E-03
             238     14.3575E-03     6.59561E-03     1.18543E+06     57.1029E+06     76.6772E+06     774.468E+03    -266.519E-03     492.179E-03    -225.661E-03     82.3803E-03    -266.992E-03     492.637E-03    -225.362E-03     77.9041E-03
             239     14.3540E-03     8.13577E-03    -319.112E+03     54.2477E+06     75.7396E+06     4.47766E+06    -257.479E-03     483.262E-03    -225.783E-03     76.6487E-03    -257.926E-03     483.681E-03    -225.483E-03     72.4961E-03
             240     14.3572E-03     9.65955E-03    -3.25112E+06     48.0577E+06     68.5062E+06     1.18992E+06    -246.776E-03     472.789E-03    -226.013E-03     75.1664E-03    -247.206E-03     473.179E-03    -225.736E-03     71.1873E-03
             241     14.3549E-03     11.1648E-03    -3.61897E+06     48.9450E+06     76.5190E+06    -5.21671E+06    -241.233E-03     467.497E-03    -226.264E-03     73.1124E-03    -241.686E-03     467.889E-03    -225.948E-03     68.8739E-03
             242     14.3520E-03     12.6785E-03    -2.35146E+06     47.3117E+06     73.9551E+06    -4.22388E+06    -235.408E-03     461.824E-03    -226.417E-03     72.6163E-03    -235.831E-03     462.194E-03    -226.112E-03     68.6615E-03
             243     14.3593E-03     14.1645E-03    -1.44218E+06     43.8331E+06     65.8582E+06    -910.960E+03    -227.857E-03     454.275E-03    -226.418E-03     73.0255E-03    -228.244E-03     454.622E-03    -226.150E-03     69.4034E-03
             244     14.3564E-03     15.6567E-03    -582.776E+03     46.7817E+06     72.6736E+06     2.64344E+06    -227.635E-03     454.136E-03    -226.501E-03     69.4472E-03    -228.015E-03     454.470E-03    -226.204E-03     65.9887E-03
             245     14.3519E-03     17.1505E-03    -745.131E+03     49.2564E+06     76.7792E+06     1.41368E+06    -226.887E-03     453.499E-03    -226.612E-03     71.4717E-03    -227.266E-03     453.829E-03    -226.299E-03     68.2301E-03
             246     14.3597E-03     18.6325E-03    -3.07745E+06     44.1145E+06     69.5314E+06     239.832E+03    -222.525E-03     449.090E-03    -226.566E-03     72.7872E-03    -222.888E-03     449.398E-03    -226.278E-03     69.7573E-03
             247     14.3562E-03     20.1191E-03    -2.26660E+06     43.9347E+06     71.2021E+06    -815.277E+03    -223.068E-03     449.640E-03    -226.572E-03     69.6438E-03    -223.421E-03     449.936E-03    -226.277E-03     66.6066E-03
             248     14.3545E-03     21.5979E-03    -1.47145E+06     45.4066E+06     70.8982E+06    -1.90550E+06    -223.231E-03     449.847E-03    -226.615E-03     67.8938E-03    -223.591E-03     450.157E-03    -226.324E-03     64.6405E-03
             249     14.3583E-03     23.0832E-03    -2.02295E+06     44.8028E+06     71.7463E+06     2.39745E+06    -221.366E-03     447.977E-03    -226.612E-03     68.5507E-03    -221.709E-03     448.266E-03    -226.315E-03     65.6884E-03
             250     14.3557E-03     24.5670E-03    -263.243E+03     47.6014E+06     74.2916E+06     1.03039E+06    -223.559E-03     450.184E-03    -226.626E-03     67.1223E-03    -223.898E-03     450.477E-03    -226.323E-03     64.2146E-03
             251     14.3534E-03     26.0499E-03    -2.14542E+06     46.0912E+06     68.3777E+06    -2.03486E+06    -223.754E-03     450.375E-03    -226.621E-03     67.7857E-03    -224.114E-03     450.693E-03    -226.343E-03     64.5244E-03
             252     14.3592E-03     27.5394E-03    -777.172E+03     46.7035E+06     71.0029E+06     3.00605E+06    -223.019E-03     449.593E-03    -226.575E-03     72.3471E-03    -223.387E-03     449.920E-03    -226.286E-03     69.2058E-03
             253     14.3545E-03     29.0274E-03     4.43741E+06     50.9324E+06     74.4686E+06     3.41151E+06    -223.940E-03     450.476E-03    -226.537E-03     72.7061E-03    -224.305E-03     450.823E-03    -226.245E-03     69.4364E-03
             254     14.3591E-03     30.5080E-03    -1.13616E+06     45.4513E+06     69.7449E+06    -7.56650E+06    -224.935E-03     451.534E-03    -226.599E-03     70.4961E-03    -225.335E-03     451.890E-03    -226.315E-03     66.6729E-03
             255     14.3489E-03     32.0017E-03    -11.5297E+06     37.4267E+06     65.4098E+06    -1.46579E+06    -226.803E-03     453.479E-03    -226.675E-03     73.0050E-03    -227.215E-03     453.793E-03    -226.386E-03     69.6417E-03
             256     14.3583E-03     33.4911E-03    -4.32608E+06     44.8917E+06     70.0895E+06     3.94641E+06    -224.604E-03     451.252E-03    -226.648E-03     73.4065E-03    -224.977E-03     451.566E-03    -226.356E-03     70.4295E-03
             257     14.3547E-03     34.9686E-03    -7.01691E+06     42.9607E+06     68.2499E+06    -3.85320E+06    -222.866E-03     449.425E-03    -226.559E-03     71.5643E-03    -223.261E-03     449.750E-03    -226.270E-03     68.2205E-03
             258     14.3596E-03     36.4574E-03    -5.66328E+06     43.8732E+06     67.2424E+06     1.01902E+06    -225.325E-03     451.797E-03    -226.471E-03     71.4011E-03    -225.707E-03     452.119E-03    -226.191E-03     68.1772E-03
             259     14.3542E-03     37.9485E-03    -2.11669E+06     46.5161E+06     70.2123E+06    -3.96151E+06    -227.762E-03     454.355E-03    -226.593E-03     66.3811E-03    -228.120E-03     454.667E-03    -226.306E-03     63.0557E-03
             260     14.3497E-03     39.4381E-03    -10.4557E+06     39.5685E+06     65.9575E+06    -2.04220E+06    -226.792E-03     453.551E-03    -226.758E-03     68.8645E-03    -227.180E-03     453.851E-03    -226.471E-03     65.6127E-03
             261     14.3565E-03     40.9250E-03     3.67114E+06     51.8756E+06     76.6209E+06     10.7644E+06    -224.345E-03     451.079E-03    -226.733E-03     70.6890E-03    -224.700E-03     451.409E-03    -226.431E-03     67.6856E-03
             262     14.3535E-03     42.4127E-03     12.2639E+06     61.0456E+06     85.2509E+06     7.84779E+06    -225.147E-03     451.906E-03    -226.759E-03     67.4500E-03    -225.476E-03     452.248E-03    -226.439E-03     64.4430E-03
             263     14.3509E-03     43.9030E-03     1.17074E+06     51.1531E+06     73.4237E+06    -4.53910E+06    -226.412E-03     453.180E-03    -226.768E-03     69.3800E-03    -226.784E-03     453.525E-03    -226.477E-03     65.9913E-03
             264     14.3552E-03     45.3847E-03    -8.41678E+06     42.9233E+06     66.5240E+06    -7.74201E+06    -226.303E-03     452.975E-03    -226.672E-03     67.6138E-03    -226.721E-03     453.323E-03    -226.389E-03     63.8673E-03
             265     14.3540E-03     46.8811E-03     5.22993E+06     54.5102E+06     79.0742E+06     7.07775E+06    -225.310E-03     451.963E-03    -226.653E-03     68.9985E-03    -225.911E-03     452.547E-03    -226.344E-03     65.7319E-03
             266     14.3559E-03     48.3753E-03     2.22126E+06     48.8786E+06     74.3993E+06     1.41349E+06    -225.126E-03     451.795E-03    -226.668E-03     71.9112E-03    -225.746E-03     452.380E-03    -226.371E-03     68.4595E-03
             267     14.3523E-03     49.8511E-03    -9.97011E+06     40.7474E+06     61.6797E+06    -6.98785E+06    -227.425E-03     453.979E-03    -226.554E-03     71.0086E-03    -228.117E-03     454.601E-03    -226.291E-03     67.5532E-03
             268     14.3586E-03     51.3508E-03    -9.33420E+06     44.8198E+06     66.9969E+06    -2.15426E+06    -229.461E-03     455.945E-03    -226.484E-03     67.0306E-03    -230.119E-03     456.535E-03    -226.200E-03     64.0488E-03
             269     14.3515E-03     52.8476E-03    -12.7568E+06     40.3358E+06     67.5895E+06    -2.02663E+06    -229.481E-03     456.128E-03    -226.647E-03     65.8765E-03    -229.865E-03     456.415E-03    -226.349E-03     62.9032E-03
             270     14.3514E-03     54.3416E-03    -8.45099E+06     42.8691E+06     67.8449E+06     3.14255E+06    -227.927E-03     454.666E-03    -226.739E-03     73.4678E-03    -228.314E-03     454.978E-03    -226.450E-03     70.5776E-03
             271     14.3559E-03     55.8308E-03     5.94240E+06     54.8935E+06     80.1838E+06     7.18572E+06    -225.741E-03     452.410E-03    -226.669E-03     72.1780E-03    -226.101E-03     452.754E-03    -226.356E-03     69.1597E-03
             272     14.3552E-03     57.3136E-03     6.49577E+06     54.4608E+06     78.6085E+06     1.71505E+06    -225.085E-03     451.679E-03    -226.594E-03     67.2893E-03    -225.439E-03     452.022E-03    -226.290E-03     63.9799E-03
             273     14.3564E-03     58.7988E-03     2.19278E+06     52.4170E+06     75.6375E+06    -3.11540E+06    -227.411E-03     453.950E-03    -226.539E-03     67.2152E-03    -227.789E-03     454.303E-03    -226.240E-03     63.6115E-03
             274     14.3542E-03     60.3015E-03     5.24928E+06     56.8426E+06     81.0170E+06    -444.712E+03    -229.073E-03     455.648E-03    -226.576E-03     68.5664E-03    -229.442E-03     456.003E-03    -226.260E-03     65.1505E-03
             275     14.3540E-03     61.7937E-03    -3.40269E+06     48.0758E+06     75.4421E+06    -1.32549E+06    -227.452E-03     454.055E-03    -226.603E-03     72.5522E-03    -227.849E-03     454.393E-03    -226.291E-03     69.1887E-03
             276     14.3575E-03     63.2788E-03    -878.300E+03     48.0237E+06     72.7374E+06    -1.63791E+06    -226.028E-03     452.471E-03    -226.443E-03     73.9137E-03    -226.440E-03     452.839E-03    -226.147E-03     70.1629E-03
             277     14.3608E-03     64.7682E-03      69.497E+03     50.8494E+06     74.8091E+06    -298.891E+03    -227.355E-03     453.632E-03    -226.277E-03     71.6509E-03    -227.756E-03     453.997E-03    -225.977E-03     67.9847E-03
             278     14.3581E-03     66.2643E-03    -2.48970E+06     53.0875E+06     80.2766E+06    -70.0729E+03    -230.391E-03     456.718E-03    -226.327E-03     70.4120E-03    -230.790E-03     457.065E-03    -225.999E-03     67.0165E-03
             279     14.3545E-03     67.7637E-03    -1.98941E+06     51.2321E+06     77.1314E+06    -518.292E+03    -230.068E-03     456.555E-03    -226.487E-03     70.1585E-03    -230.454E-03     456.894E-03    -226.173E-03     66.7715E-03
             280     14.3552E-03     69.2487E-03    -2.92618E+06     46.8150E+06     71.1123E+06    -768.592E+03    -226.790E-03     453.358E-03    -226.568E-03     71.0101E-03    -227.159E-03     453.677E-03    -226.276E-03     67.7542E-03
             281     14.3565E-03     70.7390E-03    -856.438E+03     48.5546E+06     72.8971E+06     654.666E+03    -227.201E-03     453.719E-03    -226.518E-03     73.6032E-03    -227.572E-03     454.048E-03    -226.223E-03     70.3825E-03
             282     14.3558E-03     72.2361E-03    -1.23364E+06     49.5857E+06     73.3394E+06     1.07063E+06    -228.803E-03     455.261E-03    -226.458E-03     74.1583E-03    -229.201E-03     455.619E-03    -226.162E-03     70.6684E-03
             283     14.3569E-03     73.7237E-03    -5.24263E+06     48.1777E+06     72.9094E+06    -1.30153E+06    -228.303E-03     454.748E-03    -226.445E-03     73.4082E-03    -228.715E-03     455.101E-03    -226.142E-03     69.9063E-03
             284     14.3571E-03     75.2168E-03     4.03610E+06     57.4726E+06     81.1552E+06     7.13012E+06    -228.255E-03     454.717E-03    -226.463E-03     70.9473E-03    -228.601E-03     455.047E-03    -226.146E-03     68.1083E-03
             285     14.3554E-03     76.7081E-03    -2.78588E+06     47.9244E+06     69.6155E+06     6.49228E+06    -227.234E-03     453.808E-03    -226.574E-03     64.7449E-03    -227.562E-03     454.095E-03    -226.291E-03     61.9910E-03
             286     14.3515E-03     78.1894E-03    -5.07855E+06     47.8753E+06     70.1236E+06    -8.07193E+06    -226.648E-03     453.337E-03    -226.689E-03     66.3813E-03    -227.027E-03     453.665E-03    -226.401E-03     62.8735E-03
             287     14.3558E-03     79.6843E-03    -2.38583E+06     50.6695E+06     74.9257E+06    -8.19333E+06    -228.473E-03     455.126E-03    -226.653E-03     68.1816E-03    -228.855E-03     455.463E-03    -226.348E-03     64.6103E-03
             288     14.3516E-03     81.1837E-03    -9.59955E+06     43.5831E+06     67.6157E+06     2.76637E+06    -228.419E-03     455.060E-03    -226.641E-03     69.3351E-03    -228.792E-03     455.359E-03    -226.353E-03     66.3021E-03
             289     14.3557E-03     82.6728E-03     2.58118E+06     53.5818E+06     77.9711E+06     3.76927E+06    -228.161E-03     454.775E-03    -226.614E-03     75.0820E-03    -228.529E-03     455.117E-03    -226.306E-03     71.9270E-03
             290     14.3551E-03     84.1680E-03    -4.09929E+06     50.6935E+06     75.8057E+06    -1.55532E+06    -228.968E-03     455.503E-03    -226.536E-03     73.3522E-03    -229.361E-03     455.844E-03    -226.224E-03     70.0841E-03
             291     14.3554E-03     85.6620E-03     5.27425E+06     54.0472E+06     76.9707E+06    -859.486E+03    -227.355E-03     453.977E-03    -226.621E-03     69.8136E-03    -227.707E-03     454.316E-03    -226.322E-03     66.4793E-03
             292     717.823E-06     87.2777E-03    -96.9179E+06    -178.963E+06    -96.0034E+06     1.72063E+06    -227.224E-03     453.663E-03    -226.439E-03     4.85898E-03    -227.192E-03     453.071E-03    -226.519E-03     4.92782E-03
             293     1.43470E-03     87.2901E-03    -92.1710E+06    -162.333E+06    -84.5377E+06     1.14915E+06    -227.128E-03     453.984E-03    -226.856E-03     10.0758E-03    -227.192E-03     453.395E-03    -226.910E-03     10.0856E-03
             294     2.15243E-03     87.3090E-03    -90.2909E+06    -155.710E+06    -78.8322E+06    -879.342E+03    -227.083E-03     454.030E-03    -226.946E-03     15.1499E-03    -227.170E-03     453.474E-03    -226.984E-03     15.1123E-03
             295     2.86821E-03     87.3368E-03    -86.6067E+06    -144.997E+06    -70.2645E+06    -112.235E+03    -226.902E-03     453.866E-03    -226.964E-03     21.0285E-03    -227.011E-03     453.357E-03    -226.979E-03     20.9415E-03
             296     3.58649E-03     87.3731E-03    -82.0520E+06    -127.385E+06    -58.0662E+06     175.674E+03    -226.823E-03     453.772E-03    -226.948E-03     25.8144E-03    -226.962E-03     453.336E-03    -226.935E-03     25.6641E-03
             297     4.30310E-03     87.4120E-03    -77.1702E+06    -107.502E+06    -46.2273E+06    -315.057E+03    -227.117E-03     454.064E-03    -226.946E-03     30.4382E-03    -227.283E-03     453.708E-03    -226.910E-03     30.1317E-03
             298     5.02138E-03     87.4637E-03    -68.3691E+06    -78.1365E+06    -27.8725E+06     2.87472E+06    -227.093E-03     454.067E-03    -226.974E-03     35.1189E-03    -227.287E-03     453.822E-03    -226.901E-03     34.8126E-03
             299     5.73926E-03     87.5221E-03    -70.2217E+06    -52.6198E+06    -16.3710E+06     5.44861E+06    -227.372E-03     454.366E-03    -226.994E-03     40.2998E-03    -227.645E-03     454.251E-03    -226.898E-03     39.7181E-03
             300     6.45586E-03     87.5858E-03    -70.0961E+06    -27.9973E+06    -5.21187E+06     3.56259E+06    -227.982E-03     455.033E-03    -227.050E-03     45.7078E-03    -228.327E-03     455.044E-03    -226.934E-03     44.7665E-03
             301     7.17065E-03     87.6572E-03    -57.0320E+06    -2.61701E+06     12.2229E+06    -1.43059E+06    -227.447E-03     454.551E-03    -227.104E-03     50.6951E-03    -227.804E-03     454.661E-03    -226.957E-03     49.4651E-03
             302     7.89046E-03     87.7345E-03    -48.9452E+06     3.55439E+06     15.0258E+06    -5.59239E+06    -226.174E-03     453.193E-03    -227.019E-03     55.1207E-03    -226.528E-03     453.342E-03    -226.878E-03     53.4296E-03
             303     8.60981E-03     87.8183E-03    -44.2248E+06     5.74966E+06     19.7806E+06    -3.34448E+06    -225.637E-03     452.513E-03    -226.876E-03     58.8833E-03    -225.988E-03     452.670E-03    -226.721E-03     57.1301E-03
             304     9.32830E-03     87.9085E-03    -42.8648E+06     12.4156E+06     33.6206E+06    -3.62973E+06    -225.863E-03     452.641E-03    -226.779E-03     61.7412E-03    -226.270E-03     452.843E-03    -226.566E-03     59.4857E-03
             305     10.0494E-03     87.9987E-03    -33.6671E+06     22.8667E+06     51.2009E+06    -1.54485E+06    -226.789E-03     453.530E-03    -226.741E-03     64.7533E-03    -227.231E-03     453.785E-03    -226.469E-03     61.9521E-03
             306     10.7683E-03     88.1044E-03    -24.6478E+06     30.5482E+06     62.8945E+06     287.505E+03    -228.898E-03     455.683E-03    -226.784E-03     68.3523E-03    -229.377E-03     456.000E-03    -226.478E-03     64.8852E-03
             307     11.4768E-03     88.2077E-03    -19.5371E+06     34.9562E+06     67.8713E+06    -3.59170E+06    -229.150E-03     456.021E-03    -226.871E-03     72.0537E-03    -229.660E-03     456.389E-03    -226.554E-03     67.9989E-03
             308     12.1952E-03     88.3145E-03    -10.7131E+06     40.4310E+06     73.2153E+06    -3.33667E+06    -227.604E-03     454.497E-03    -226.893E-03     77.2245E-03    -228.083E-03     454.869E-03    -226.570E-03     73.3898E-03
             309     12.9152E-03     88.4266E-03     -6.6178E+06     42.0396E+06     72.2307E+06    -5.47903E+06    -227.213E-03     454.039E-03    -226.827E-03     79.0845E-03    -227.689E-03     454.432E-03    -226.517E-03     74.9733E-03
             310     13.6330E-03     88.5259E-03    -4.17332E+06     39.9125E+06     70.4274E+06    -2.51207E+06    -226.504E-03     453.246E-03    -226.742E-03     75.1583E-03    -226.923E-03     453.588E-03    -226.442E-03     71.4168E-03
             311     717.231E-06     88.7704E-03    -95.6703E+06    -179.504E+06    -96.2384E+06    -1.01648E+06    -226.940E-03     453.672E-03    -226.732E-03     6.09597E-03    -226.911E-03     453.088E-03    -226.814E-03     5.94739E-03
             312     1.43427E-03     88.7823E-03    -93.4897E+06    -165.749E+06    -89.4297E+06     45.1480E+03    -227.146E-03     453.991E-03    -226.845E-03     10.1300E-03    -227.213E-03     453.402E-03    -226.916E-03     10.0864E-03
             313     2.15083E-03     88.8013E-03    -88.5848E+06    -153.022E+06    -77.7142E+06     1.19021E+06    -226.906E-03     453.834E-03    -226.929E-03     15.4613E-03    -226.995E-03     453.294E-03    -226.967E-03     15.4528E-03
             314     2.86963E-03     88.8287E-03    -87.6728E+06    -144.719E+06    -69.0628E+06     1.21897E+06    -226.792E-03     453.714E-03    -226.922E-03     20.5585E-03    -226.911E-03     453.209E-03    -226.930E-03     20.4814E-03
             315     3.58718E-03     88.8625E-03    -86.2654E+06    -129.072E+06    -60.1753E+06     892.642E+03    -226.966E-03     453.878E-03    -226.913E-03     25.1693E-03    -227.120E-03     453.443E-03    -226.902E-03     25.0158E-03
             316     4.30482E-03     88.9071E-03    -78.9874E+06    -107.593E+06    -44.3497E+06    -23.0588E+03    -227.393E-03     454.362E-03    -226.969E-03     30.3078E-03    -227.571E-03     454.006E-03    -226.920E-03     30.0156E-03
             317     5.01976E-03     88.9561E-03    -75.3012E+06    -87.3052E+06    -33.0213E+06     1.95217E+06    -227.338E-03     454.359E-03    -227.020E-03     35.1212E-03    -227.549E-03     454.089E-03    -226.950E-03     34.7503E-03
             318     5.73778E-03     89.0117E-03    -70.2829E+06    -57.9542E+06    -20.0159E+06     6.28860E+06    -227.024E-03     454.046E-03    -227.022E-03     40.4138E-03    -227.282E-03     453.908E-03    -226.936E-03     39.9699E-03
             319     6.45552E-03     89.0810E-03    -56.3005E+06    -21.0436E+06     1.72630E+06     5.94587E+06    -226.817E-03     453.820E-03    -227.003E-03     45.7542E-03    -227.106E-03     453.829E-03    -226.882E-03     45.0139E-03
             320     7.17468E-03     89.1493E-03    -47.5218E+06     4.31218E+06     17.6848E+06     4.33931E+06    -226.928E-03     453.896E-03    -226.968E-03     51.0285E-03    -227.251E-03     454.015E-03    -226.817E-03     49.9585E-03
             321     7.89069E-03     89.2262E-03    -51.3022E+06     6.12224E+06     20.2581E+06    -1.02377E+06    -227.204E-03     454.141E-03    -226.937E-03     55.1046E-03    -227.588E-03     454.306E-03    -226.771E-03     53.3487E-03
             322     8.60865E-03     89.3060E-03    -51.0348E+06     6.25809E+06     23.8690E+06    -4.41340E+06    -227.192E-03     454.113E-03    -226.920E-03     57.5369E-03    -227.593E-03     454.285E-03    -226.736E-03     55.5757E-03
             323     9.32815E-03     89.3981E-03    -38.6421E+06     21.6530E+06     38.9834E+06    -4.73921E+06    -227.492E-03     454.424E-03    -226.932E-03     59.3847E-03    -227.901E-03     454.659E-03    -226.712E-03     57.0344E-03
             324     10.0425E-03     89.4912E-03    -33.8546E+06     29.2186E+06     48.5518E+06    -5.19916E+06    -227.681E-03     454.635E-03    -226.954E-03     62.8680E-03    -228.134E-03     454.930E-03    -226.704E-03     59.8808E-03
             325     10.7578E-03     89.5952E-03    -27.6086E+06     33.0424E+06     58.3145E+06    -4.52719E+06    -226.539E-03     453.477E-03    -226.938E-03     68.9751E-03    -227.004E-03     453.792E-03    -226.654E-03     65.8638E-03
             326     11.4832E-03     89.7032E-03    -25.5179E+06     30.9859E+06     59.8441E+06    -9.32158E+06    -225.875E-03     452.705E-03    -226.830E-03     73.4840E-03    -226.380E-03     453.056E-03    -226.538E-03     69.6837E-03
             327     12.2022E-03     89.8005E-03    -17.3573E+06     33.0887E+06     65.8606E+06    -4.58306E+06    -226.596E-03     453.327E-03    -226.731E-03     76.8553E-03    -227.079E-03     453.675E-03    -226.425E-03     73.0834E-03
             328     12.9223E-03     89.9164E-03    -5.69843E+06     39.2387E+06     75.3289E+06    -2.72280E+06    -227.149E-03     453.830E-03    -226.681E-03     76.4735E-03    -227.606E-03     454.188E-03    -226.353E-03     72.5047E-03
             329     13.6386E-03     90.0237E-03    -7.92116E+06     35.6379E+06     70.0894E+06    -3.21750E+06    -227.527E-03     454.156E-03    -226.629E-03     73.1149E-03    -227.963E-03     454.487E-03    -226.319E-03     69.2344E-03
             330     717.829E-06     90.2635E-03    -94.9208E+06    -179.393E+06    -91.6626E+06     927.331E+03    -226.623E-03     453.180E-03    -226.558E-03     7.91745E-03    -226.600E-03     452.587E-03    -226.618E-03     7.78366E-03
             331     1.43465E-03     90.2741E-03    -94.3771E+06    -169.581E+06    -88.6545E+06     831.908E+03    -227.106E-03     453.748E-03    -226.642E-03     10.7607E-03    -227.174E-03     453.142E-03    -226.702E-03     10.7873E-03
             332     2.15288E-03     90.2930E-03    -89.2882E+06    -157.287E+06    -77.7148E+06     3.04266E+06    -227.183E-03     454.012E-03    -226.828E-03     15.4375E-03    -227.272E-03     453.453E-03    -226.859E-03     15.4830E-03
             333     2.86887E-03     90.3204E-03    -86.3783E+06    -145.414E+06    -66.5125E+06     3.16749E+06    -227.256E-03     454.203E-03    -226.947E-03     20.1093E-03    -227.371E-03     453.688E-03    -226.943E-03     20.0902E-03
             334     3.58547E-03     90.3556E-03    -82.1408E+06    -129.085E+06    -54.4209E+06     3.84055E+06    -227.267E-03     454.292E-03    -227.025E-03     25.1462E-03    -227.406E-03     453.839E-03    -226.991E-03     25.0757E-03
             335     4.30224E-03     90.3986E-03    -78.6486E+06    -107.400E+06    -42.1992E+06     5.07511E+06    -226.940E-03     453.984E-03    -227.045E-03     30.0421E-03    -227.116E-03     453.623E-03    -226.986E-03     29.9264E-03
             336     5.02214E-03     90.4486E-03    -75.8634E+06    -88.4549E+06    -32.5898E+06     1.49996E+06    -227.026E-03     454.050E-03    -227.025E-03     35.4542E-03    -227.241E-03     453.777E-03    -226.950E-03     35.1063E-03
             337     5.73773E-03     90.5060E-03    -59.7104E+06    -55.5606E+06    -12.5477E+06     1.29239E+06    -227.030E-03     454.046E-03    -227.016E-03     41.0416E-03    -227.252E-03     453.895E-03    -226.912E-03     40.5198E-03
             338     6.45618E-03     90.5691E-03    -49.2587E+06    -21.8138E+06     4.01899E+06     3.02477E+06    -226.523E-03     453.487E-03    -226.965E-03     45.1823E-03    -226.780E-03     453.481E-03    -226.842E-03     44.3675E-03
             339     7.17460E-03     90.6402E-03    -50.2428E+06    -1.92263E+06     11.7432E+06     3.69196E+06    -226.769E-03     453.664E-03    -226.896E-03     49.0906E-03    -227.088E-03     453.764E-03    -226.761E-03     47.9591E-03
             340     7.89359E-03     90.7196E-03    -47.2887E+06     9.90476E+06     23.8517E+06     6.38854E+06    -227.998E-03     454.924E-03    -226.926E-03     53.1178E-03    -228.365E-03     455.090E-03    -226.753E-03     51.5645E-03
             341     8.60874E-03     90.8011E-03    -41.9331E+06     15.6975E+06     35.1676E+06     6.94306E+06    -228.679E-03     455.710E-03    -227.032E-03     56.7795E-03    -229.072E-03     455.909E-03    -226.818E-03     54.7861E-03
             342     9.32262E-03     90.8905E-03    -35.7790E+06     26.8340E+06     44.3259E+06     2.34953E+06    -227.866E-03     454.959E-03    -227.092E-03     61.7431E-03    -228.279E-03     455.211E-03    -226.858E-03     59.4875E-03
             343     10.0418E-03     90.9862E-03    -33.0755E+06     35.0894E+06     50.8895E+06     2.05106E+06    -226.609E-03     453.664E-03    -227.055E-03     67.4931E-03    -227.072E-03     453.986E-03    -226.803E-03     64.7375E-03
             344     10.7631E-03     91.0825E-03    -30.1476E+06     38.6796E+06     59.6609E+06    -203.563E+03    -225.537E-03     452.488E-03    -226.951E-03     71.3525E-03    -226.031E-03     452.840E-03    -226.665E-03     68.2752E-03
             345     11.4811E-03     91.1835E-03    -29.5085E+06     38.6841E+06     64.6543E+06    -7.54101E+06    -226.287E-03     453.124E-03    -226.837E-03     72.1641E-03    -226.811E-03     453.494E-03    -226.527E-03     68.6335E-03
             346     12.2004E-03     91.2960E-03    -28.5958E+06     32.5706E+06     61.6943E+06    -15.4471E+06    -227.373E-03     454.137E-03    -226.765E-03     71.7912E-03    -227.915E-03     454.515E-03    -226.462E-03     67.5680E-03
             347     12.9145E-03     91.4048E-03    -18.1882E+06     26.4361E+06     60.0605E+06    -14.8481E+06    -226.477E-03     453.176E-03    -226.700E-03     72.3102E-03    -226.960E-03     453.515E-03    -226.411E-03     67.9622E-03
             348     13.6366E-03     91.5106E-03    -1.62567E+06     26.9864E+06     66.1028E+06    -5.56428E+06    -225.908E-03     452.525E-03    -226.617E-03     70.9053E-03    -226.280E-03     452.795E-03    -226.323E-03     67.1348E-03
             349     717.778E-06     91.7523E-03    -93.0848E+06    -182.868E+06    -93.1011E+06    -119.985E+03    -226.419E-03     453.302E-03    -226.883E-03     6.12574E-03    -226.382E-03     452.682E-03    -226.948E-03     6.04093E-03
             350     1.43597E-03     91.7660E-03     -89.626E+06    -169.762E+06    -83.2293E+06     1.41153E+06    -227.033E-03     453.726E-03    -226.693E-03     10.1567E-03    -227.080E-03     453.102E-03    -226.733E-03     10.1788E-03
             351     2.15120E-03     91.7861E-03    -88.6056E+06    -162.685E+06    -76.5012E+06     1.54426E+06    -227.377E-03     454.246E-03    -226.870E-03     14.7606E-03    -227.454E-03     453.655E-03    -226.888E-03     14.7976E-03
             352     2.86903E-03     91.8129E-03    -83.9736E+06    -150.407E+06    -65.7224E+06     3.66429E+06    -227.255E-03     454.256E-03    -227.001E-03     20.4010E-03    -227.352E-03     453.712E-03    -226.990E-03     20.4109E-03
             353     3.58634E-03     91.8487E-03    -76.4638E+06    -132.386E+06    -49.7986E+06     5.56984E+06    -227.106E-03     454.166E-03    -227.060E-03     25.7776E-03    -227.220E-03     453.683E-03    -227.006E-03     25.7209E-03
             354     4.30411E-03     91.8905E-03    -73.1754E+06    -110.788E+06    -40.5726E+06     5.66749E+06    -226.913E-03     453.952E-03    -227.039E-03     30.5396E-03    -227.062E-03     453.566E-03    -226.975E-03     30.3909E-03
             355     5.01972E-03     91.9393E-03    -64.9743E+06    -79.5167E+06    -24.3063E+06     5.83773E+06    -226.828E-03     453.836E-03    -227.008E-03     35.7046E-03    -227.015E-03     453.580E-03    -226.920E-03     35.4172E-03
             356     5.73958E-03     91.9984E-03    -60.7681E+06    -55.8317E+06    -10.6682E+06     3.21047E+06    -226.980E-03     453.965E-03    -226.985E-03     40.2126E-03    -227.211E-03     453.813E-03    -226.869E-03     39.6426E-03
             357     6.45620E-03     92.0608E-03    -63.0643E+06    -32.9253E+06    -6.22454E+06     2.40659E+06    -227.246E-03     454.198E-03    -226.953E-03     44.6375E-03    -227.545E-03     454.175E-03    -226.845E-03     43.6960E-03
             358     7.17272E-03     92.1325E-03    -57.6010E+06    -6.09184E+06     7.24335E+06     6.90107E+06    -227.510E-03     454.479E-03    -226.970E-03     49.4771E-03    -227.852E-03     454.575E-03    -226.841E-03     48.4249E-03
             359     7.88902E-03     92.2103E-03    -47.1814E+06     8.56884E+06     22.1253E+06     6.24273E+06    -227.621E-03     454.629E-03    -227.008E-03     54.1541E-03    -227.976E-03     454.783E-03    -226.842E-03     52.7849E-03
             360     8.60681E-03     92.2987E-03    -41.1010E+06     12.5598E+06     30.1009E+06     5.63615E+06    -227.226E-03     454.236E-03    -227.010E-03     58.5814E-03    -227.602E-03     454.423E-03    -226.818E-03     56.6529E-03
             361     9.32660E-03     92.3810E-03    -33.2289E+06     27.2872E+06     45.3522E+06     7.16078E+06    -226.746E-03     453.731E-03    -226.985E-03     63.8761E-03    -227.153E-03     453.986E-03    -226.750E-03     61.6449E-03
             362     10.0458E-03     92.4748E-03    -26.1585E+06     43.9805E+06     62.0310E+06     5.34891E+06    -226.820E-03     453.769E-03    -226.950E-03     67.2239E-03    -227.286E-03     454.119E-03    -226.665E-03     64.3572E-03
             363     10.7634E-03     92.5710E-03    -25.6596E+06     45.6781E+06     68.7762E+06     5.16934E+06    -227.646E-03     454.579E-03    -226.933E-03     68.5885E-03    -228.157E-03     454.962E-03    -226.618E-03     65.2244E-03
             364     11.4810E-03     92.6783E-03    -20.0181E+06     50.1532E+06     74.9789E+06     2.98463E+06    -228.123E-03     455.067E-03    -226.943E-03     72.3109E-03    -228.633E-03     455.466E-03    -226.612E-03     68.8984E-03
             365     12.1945E-03     92.7894E-03    -20.4334E+06     53.8884E+06     74.4248E+06    -2.57025E+06    -227.172E-03     454.084E-03    -226.912E-03     73.4925E-03    -227.721E-03     454.535E-03    -226.588E-03     69.5567E-03
             366     12.9184E-03     92.8891E-03    -24.9121E+06     42.8558E+06     66.2762E+06    -18.3735E+06    -225.832E-03     452.640E-03    -226.809E-03     73.9952E-03    -226.395E-03     453.075E-03    -226.503E-03     69.5333E-03
             367     13.6347E-03     93.0031E-03    -17.9238E+06     6.94980E+06     54.7292E+06    -26.1154E+06    -224.475E-03     451.119E-03    -226.645E-03     72.4840E-03    -224.895E-03     451.342E-03    -226.355E-03     68.4146E-03
             368     716.432E-06     93.2418E-03    -93.1928E+06    -183.875E+06    -88.0573E+06     970.313E+03    -226.899E-03     454.450E-03    -227.552E-03     5.80518E-03    -226.871E-03     453.811E-03    -227.590E-03     5.77998E-03
             369     1.43328E-03     93.2588E-03    -88.8368E+06    -173.822E+06    -84.2954E+06     1.47095E+06    -226.909E-03     454.024E-03    -227.115E-03     10.7899E-03    -226.939E-03     453.376E-03    -227.156E-03     10.7443E-03
             370     2.15216E-03     93.2783E-03    -86.3199E+06    -165.267E+06    -75.1915E+06     2.39368E+06    -226.921E-03     453.971E-03    -227.049E-03     14.8997E-03    -226.983E-03     453.361E-03    -227.061E-03     14.9267E-03
             371     2.86870E-03     93.3051E-03    -80.5086E+06    -152.629E+06    -62.9576E+06     2.67867E+06    -226.811E-03     453.831E-03    -227.020E-03     20.3635E-03    -226.893E-03     453.269E-03    -226.997E-03     20.3530E-03
             372     3.58611E-03     93.3407E-03    -75.0886E+06    -137.705E+06    -53.9345E+06     2.65153E+06    -226.683E-03     453.642E-03    -226.959E-03     25.8699E-03    -226.780E-03     453.141E-03    -226.920E-03     25.7089E-03
             373     4.30334E-03     93.3820E-03    -68.6987E+06    -113.049E+06    -40.9077E+06     5.41001E+06    -226.931E-03     453.852E-03    -226.921E-03     30.9638E-03    -227.056E-03     453.451E-03    -226.862E-03     30.7572E-03
             374     5.02236E-03     93.4324E-03    -65.1702E+06    -85.1300E+06    -26.2466E+06     10.9329E+06    -227.169E-03     454.099E-03    -226.929E-03     36.0654E-03    -227.345E-03     453.817E-03    -226.843E-03     35.8626E-03
             375     5.73766E-03     93.4891E-03    -63.1687E+06    -59.2769E+06    -12.4721E+06     10.2451E+06    -227.095E-03     454.040E-03    -226.945E-03     40.8366E-03    -227.332E-03     453.878E-03    -226.829E-03     40.3299E-03
             376     6.45575E-03     93.5542E-03    -61.4659E+06    -35.5901E+06    -1.94253E+06     8.21252E+06    -227.348E-03     454.296E-03    -226.948E-03     45.8634E-03    -227.639E-03     454.249E-03    -226.817E-03     45.0449E-03
             377     7.17377E-03     93.6244E-03    -56.0355E+06    -12.4261E+06     8.08068E+06     10.5086E+06    -227.445E-03     454.396E-03    -226.951E-03     51.1257E-03    -227.770E-03     454.455E-03    -226.811E-03     50.1973E-03
             378     7.89124E-03     93.7058E-03    -44.3378E+06     7.97643E+06     25.1383E+06     7.48949E+06    -226.572E-03     453.508E-03    -226.936E-03     56.4326E-03    -226.922E-03     453.656E-03    -226.757E-03     55.0344E-03
             379     8.61033E-03     93.7846E-03    -37.6295E+06     17.6290E+06     37.9622E+06     1.85871E+06    -226.280E-03     453.149E-03    -226.869E-03     59.8885E-03    -226.658E-03     453.346E-03    -226.650E-03     57.9473E-03
             380     9.32907E-03     93.8726E-03    -32.5662E+06     28.6961E+06     46.8057E+06     3.68972E+06    -227.250E-03     454.066E-03    -226.815E-03     62.6949E-03    -227.662E-03     454.328E-03    -226.576E-03     60.3414E-03
             381     10.0453E-03     93.9671E-03    -25.4145E+06     39.8612E+06     58.1217E+06     2.56763E+06    -228.232E-03     455.077E-03    -226.845E-03     66.5669E-03    -228.698E-03     455.426E-03    -226.575E-03     63.4113E-03
             382     10.7610E-03     94.0662E-03    -14.0065E+06     48.1171E+06     72.0491E+06     2.94071E+06    -228.130E-03     455.037E-03    -226.907E-03     70.7096E-03    -228.605E-03     455.424E-03    -226.596E-03     67.2045E-03
             383     11.4770E-03     94.1700E-03    -5.40737E+06     59.1080E+06     82.6838E+06     4.61223E+06    -227.043E-03     453.942E-03    -226.898E-03     75.9534E-03    -227.527E-03     454.377E-03    -226.563E-03     72.3971E-03
             384     12.2012E-03     94.2772E-03     6.81862E+06     71.8618E+06     93.3467E+06     2.56115E+06    -226.720E-03     453.554E-03    -226.833E-03     77.4135E-03    -227.202E-03     454.044E-03    -226.481E-03     73.4927E-03
             385     12.9139E-03     94.3833E-03     21.7888E+06     82.9750E+06     102.839E+06    -7.66227E+06    -226.060E-03     452.805E-03    -226.745E-03     76.0709E-03    -226.557E-03     453.375E-03    -226.382E-03     71.5761E-03
             386     13.6375E-03     94.4829E-03     18.6621E+06    -1.70515E+06     67.1026E+06    -16.6115E+06    -225.221E-03     451.802E-03    -226.581E-03     74.0508E-03    -226.037E-03     452.484E-03    -226.270E-03     69.5040E-03
             387     717.214E-06     94.7385E-03    -91.1633E+06    -189.513E+06    -88.1192E+06     2.45865E+06    -227.569E-03     454.691E-03    -227.122E-03     5.61695E-03    -227.531E-03     454.024E-03    -227.155E-03     5.71823E-03
             388     1.43445E-03     94.7493E-03    -88.6532E+06    -175.824E+06    -82.6788E+06     2.37780E+06    -226.810E-03     454.005E-03    -227.195E-03     11.2962E-03    -226.844E-03     453.350E-03    -227.225E-03     11.2651E-03
             389     2.15079E-03     94.7708E-03    -83.5497E+06    -166.053E+06    -74.4956E+06     938.699E+03    -226.580E-03     453.601E-03    -227.021E-03     15.8904E-03    -226.630E-03     452.984E-03    -227.032E-03     15.8451E-03
             390     2.86901E-03     94.7966E-03    -78.1148E+06    -155.637E+06    -64.5344E+06     1.26919E+06    -226.516E-03     453.419E-03    -226.903E-03     20.7691E-03    -226.581E-03     452.841E-03    -226.886E-03     20.6977E-03
             391     3.58720E-03     94.8312E-03    -74.5236E+06    -141.788E+06    -54.4702E+06     1.89218E+06    -226.613E-03     453.443E-03    -226.830E-03     26.2734E-03    -226.702E-03     452.922E-03    -226.788E-03     26.0623E-03
             392     4.30533E-03     94.8738E-03    -67.4321E+06    -116.200E+06    -38.7377E+06     5.55478E+06    -226.999E-03     453.821E-03    -226.821E-03     31.1352E-03    -227.117E-03     453.399E-03    -226.749E-03     30.9356E-03
             393     5.02110E-03     94.9245E-03    -61.4185E+06    -92.4917E+06    -24.2595E+06     6.78191E+06    -227.080E-03     453.925E-03    -226.845E-03     35.8605E-03    -227.230E-03     453.599E-03    -226.743E-03     35.5885E-03
             394     5.74015E-03     94.9817E-03    -52.9814E+06    -66.2030E+06    -9.15951E+06     8.75758E+06    -226.922E-03     453.770E-03    -226.848E-03     41.0639E-03    -227.103E-03     453.554E-03    -226.721E-03     40.5307E-03
             395     6.45767E-03     95.0449E-03    -44.9421E+06    -35.0267E+06     9.35058E+06     12.3734E+06    -226.924E-03     453.766E-03    -226.842E-03     46.8053E-03    -227.146E-03     453.677E-03    -226.679E-03     46.1712E-03
             396     7.17380E-03     95.1194E-03    -38.8100E+06    -8.30537E+06     23.2253E+06     9.48597E+06    -226.543E-03     453.340E-03    -226.797E-03     51.7510E-03    -226.815E-03     453.377E-03    -226.613E-03     50.7286E-03
             397     7.89330E-03     95.1915E-03    -32.3475E+06     9.78399E+06     31.2745E+06     8.42478E+06    -226.307E-03     453.014E-03    -226.707E-03     56.0674E-03    -226.616E-03     453.152E-03    -226.518E-03     54.4796E-03
             398     8.61208E-03     95.2773E-03    -28.9565E+06     18.1923E+06     44.1459E+06     11.6950E+06    -227.187E-03     453.876E-03    -226.689E-03     59.6749E-03    -227.525E-03     454.048E-03    -226.453E-03     57.9681E-03
             399     9.32783E-03     95.3651E-03    -28.2751E+06     27.6060E+06     57.0724E+06     9.11655E+06    -227.931E-03     454.668E-03    -226.738E-03     63.3919E-03    -228.324E-03     454.894E-03    -226.451E-03     61.3061E-03
             400     10.0459E-03     95.4598E-03    -22.3471E+06     37.5619E+06     62.0097E+06    -2.68293E+06    -227.362E-03     454.098E-03    -226.736E-03     68.6290E-03    -227.810E-03     454.421E-03    -226.448E-03     65.5653E-03
             401     10.7648E-03     95.5594E-03    -12.1858E+06     47.2586E+06     69.7263E+06    -5.13627E+06    -226.629E-03     453.317E-03    -226.688E-03     73.1632E-03    -227.096E-03     453.706E-03    -226.390E-03     69.5815E-03
             402     11.4867E-03     95.6575E-03     2.10450E+06     67.0855E+06     89.6677E+06     1.46784E+06    -226.747E-03     453.401E-03    -226.654E-03     77.0295E-03    -227.222E-03     453.862E-03    -226.306E-03     73.3649E-03
             403     12.2005E-03     95.7691E-03     8.65627E+06     84.8121E+06     101.463E+06    -7.80114E+06    -226.564E-03     453.160E-03    -226.596E-03     78.0095E-03    -227.077E-03     453.710E-03    -226.224E-03     73.8430E-03
             404     12.9249E-03     95.8730E-03     4.83348E+06     86.4817E+06     99.5859E+06    -9.21153E+06    -227.099E-03     453.631E-03    -226.533E-03     75.1021E-03    -227.669E-03     454.236E-03    -226.167E-03     70.7446E-03
             405     13.6404E-03     95.9719E-03    -4.84434E+06    -8.82749E+06     60.5246E+06     2.52748E+06    -227.862E-03     454.354E-03    -226.492E-03     71.7202E-03    -228.765E-03     455.032E-03    -226.170E-03     67.5385E-03
             406     716.683E-06     96.2301E-03    -86.4736E+06    -191.984E+06    -90.7130E+06    -5.32035E+06    -226.724E-03     453.849E-03    -227.125E-03     4.96238E-03    -226.660E-03     453.171E-03    -227.175E-03     4.94427E-03
             407     1.43415E-03     96.2418E-03    -81.6957E+06    -176.404E+06    -82.7088E+06    -750.101E+03    -226.619E-03     453.421E-03    -226.802E-03     11.2764E-03    -226.624E-03     452.756E-03    -226.841E-03     11.2271E-03
             408     2.15284E-03     96.2616E-03    -79.2115E+06    -165.639E+06    -73.1765E+06     111.368E+03    -226.487E-03     453.197E-03    -226.710E-03     16.2459E-03    -226.521E-03     452.576E-03    -226.721E-03     16.2111E-03
             409     2.87016E-03     96.2875E-03    -78.1082E+06    -157.068E+06    -63.5887E+06    -335.728E+03    -226.752E-03     453.441E-03    -226.689E-03     20.9015E-03    -226.817E-03     452.855E-03    -226.665E-03     20.8023E-03
             410     3.58735E-03     96.3221E-03    -72.9898E+06    -143.707E+06    -50.5147E+06    -38.1958E+03    -227.078E-03     453.822E-03    -226.744E-03     25.8961E-03    -227.161E-03     453.283E-03    -226.682E-03     25.7043E-03
             411     4.30404E-03     96.3659E-03    -67.7605E+06    -122.554E+06    -39.7650E+06     1.15353E+06    -226.883E-03     453.655E-03    -226.772E-03     30.8665E-03    -226.993E-03     453.205E-03    -226.694E-03     30.5828E-03
             412     5.02275E-03     96.4164E-03    -60.1435E+06    -95.9252E+06    -24.6808E+06     2.52970E+06    -226.639E-03     453.400E-03    -226.761E-03     35.8910E-03    -226.779E-03     453.058E-03    -226.658E-03     35.4793E-03
             413     5.73964E-03     96.4715E-03    -53.5667E+06    -75.3298E+06    -10.4524E+06     2.02101E+06    -226.577E-03     453.308E-03    -226.731E-03     40.9225E-03    -226.745E-03     453.049E-03    -226.596E-03     40.3288E-03
             414     6.45740E-03     96.5377E-03    -41.5018E+06    -42.8817E+06     6.51496E+06     5.33320E+06    -225.973E-03     452.624E-03    -226.652E-03     46.3238E-03    -226.163E-03     452.496E-03    -226.497E-03     45.6118E-03
             415     7.17830E-03     96.6068E-03    -30.7832E+06    -5.93006E+06     25.9869E+06     9.82171E+06    -226.060E-03     452.616E-03    -226.557E-03     51.4759E-03    -226.298E-03     452.649E-03    -226.373E-03     50.4705E-03
             416     7.89565E-03     96.6843E-03    -32.3002E+06     10.1467E+06     31.6329E+06     8.34694E+06    -227.275E-03     453.784E-03    -226.509E-03     55.6372E-03    -227.582E-03     453.921E-03    -226.319E-03     54.0913E-03
             417     8.61228E-03     96.7674E-03    -26.3523E+06     13.5419E+06     38.7687E+06     10.0761E+06    -227.521E-03     454.060E-03    -226.539E-03     59.2472E-03    -227.829E-03     454.210E-03    -226.327E-03     57.5207E-03
             418     9.33160E-03     96.8589E-03    -12.6390E+06     29.1168E+06     58.6030E+06     11.0421E+06    -226.881E-03     453.456E-03    -226.575E-03     63.2631E-03    -227.194E-03     453.657E-03    -226.306E-03     61.3011E-03
             419     10.0489E-03     96.9504E-03    -6.02356E+06     51.4249E+06     79.6774E+06     4.20682E+06    -226.424E-03     452.996E-03    -226.572E-03     67.3481E-03    -226.823E-03     453.325E-03    -226.239E-03     64.5355E-03
             420     10.7691E-03     97.0449E-03    -7.92314E+06     56.2370E+06     87.0798E+06    -805.064E+03    -226.696E-03     453.231E-03    -226.535E-03     70.6874E-03    -227.176E-03     453.630E-03    -226.170E-03     67.1258E-03
             421     11.4844E-03     97.1510E-03    -6.69661E+06     65.5303E+06     90.0907E+06    -2.05706E+06    -226.804E-03     453.284E-03    -226.480E-03     73.5796E-03    -227.317E-03     453.745E-03    -226.115E-03     69.7969E-03
             422     12.2068E-03     97.2575E-03    -7.08164E+06     82.8298E+06     94.4181E+06     1.70609E+06    -227.079E-03     453.516E-03    -226.437E-03     74.5031E-03    -227.642E-03     454.074E-03    -226.075E-03     70.5188E-03
             423     12.9213E-03     97.3603E-03    -13.1306E+06     77.6216E+06     85.6833E+06     6.70552E+06    -228.512E-03     454.938E-03    -226.425E-03     72.5957E-03    -229.144E-03     455.549E-03    -226.090E-03     68.7771E-03
             424     13.6367E-03     97.4746E-03    -10.1223E+06    -9.00782E+06     47.9010E+06     3.21894E+06    -229.561E-03     456.016E-03    -226.455E-03     68.3476E-03    -230.531E-03     456.777E-03    -226.188E-03     65.3855E-03
             425     718.314E-06     97.7208E-03    -81.9602E+06    -179.072E+06    -79.6209E+06    -1.92276E+06    -225.320E-03     452.636E-03    -227.316E-03     5.21211E-03    -225.267E-03     451.992E-03    -227.336E-03     5.27876E-03
             426     1.43589E-03     97.7327E-03    -84.2760E+06    -177.747E+06    -82.8979E+06    -5.22833E+06    -226.651E-03     452.972E-03    -226.321E-03     10.8800E-03    -226.662E-03     452.299E-03    -226.356E-03     10.7815E-03
             427     2.15272E-03     97.7514E-03    -82.2172E+06    -170.112E+06    -77.8660E+06    -2.23500E+06    -226.698E-03     453.124E-03    -226.426E-03     15.6216E-03    -226.731E-03     452.490E-03    -226.449E-03     15.5787E-03
             428     2.87052E-03     97.7792E-03    -80.0922E+06    -156.812E+06    -66.0485E+06     1.18032E+06    -227.110E-03     453.660E-03    -226.550E-03     20.7081E-03    -227.180E-03     453.081E-03    -226.537E-03     20.6917E-03
             429     3.58723E-03     97.8149E-03    -77.9508E+06    -141.442E+06    -53.5867E+06    -601.683E+03    -227.019E-03     453.687E-03    -226.668E-03     25.8332E-03    -227.125E-03     453.169E-03    -226.618E-03     25.7175E-03
             430     4.30493E-03     97.8571E-03    -74.2483E+06    -126.627E+06    -43.8775E+06    -3.00980E+06    -226.425E-03     453.100E-03    -226.676E-03     31.1519E-03    -226.556E-03     452.645E-03    -226.604E-03     30.7910E-03
             431     5.02264E-03     97.9052E-03    -66.2066E+06    -103.634E+06    -30.7562E+06    -972.364E+03    -226.104E-03     452.706E-03    -226.602E-03     36.6806E-03    -226.255E-03     452.343E-03    -226.510E-03     36.1576E-03
             432     5.74103E-03     97.9648E-03    -60.2961E+06    -75.7135E+06    -15.5419E+06     1.28375E+06    -226.112E-03     452.634E-03    -226.522E-03     41.8869E-03    -226.305E-03     452.389E-03    -226.402E-03     41.2959E-03
             433     6.45995E-03     98.0243E-03    -55.3038E+06    -51.0888E+06    -3.02463E+06     655.278E+03    -226.229E-03     452.682E-03    -226.453E-03     45.9549E-03    -226.468E-03     452.552E-03    -226.314E-03     45.0412E-03
             434     7.17764E-03     98.0956E-03    -48.0716E+06    -18.0533E+06     11.6288E+06     2.75218E+06    -226.447E-03     452.849E-03    -226.403E-03     50.5232E-03    -226.732E-03     452.866E-03    -226.249E-03     49.4307E-03
             435     7.89572E-03     98.1774E-03    -35.0229E+06     15.0359E+06     33.4453E+06     5.34072E+06    -227.030E-03     453.444E-03    -226.414E-03     55.4821E-03    -227.348E-03     453.594E-03    -226.218E-03     54.1666E-03
             436     8.61288E-03     98.2601E-03    -24.5777E+06     20.9327E+06     41.1751E+06    -23.5297E+03    -227.112E-03     453.531E-03    -226.420E-03     59.3525E-03    -227.437E-03     453.724E-03    -226.208E-03     57.2905E-03
             437     9.33028E-03     98.3459E-03    -20.7911E+06     24.5598E+06     41.9256E+06     1.26338E+06    -226.327E-03     452.695E-03    -226.368E-03     62.6844E-03    -226.661E-03     452.921E-03    -226.164E-03     60.3569E-03
             438     10.0515E-03     98.4394E-03    -13.3605E+06     45.6600E+06     66.7534E+06     8.93540E+06    -226.803E-03     453.194E-03    -226.391E-03     66.2559E-03    -227.197E-03     453.509E-03    -226.104E-03     63.6865E-03
             439     10.7670E-03     98.5380E-03    -5.96575E+06     61.5573E+06     93.2258E+06     7.48626E+06    -227.952E-03     454.437E-03    -226.485E-03     69.5148E-03    -228.433E-03     454.846E-03    -226.100E-03     66.0874E-03
             440     11.4873E-03     98.6406E-03    -2.59963E+06     69.3553E+06     99.7790E+06     4.78401E+06    -228.069E-03     454.607E-03    -226.538E-03     70.4462E-03    -228.589E-03     455.075E-03    -226.136E-03     66.5006E-03
             441     12.2036E-03     98.7435E-03     1.06507E+06     72.0196E+06     95.1858E+06     7.53279E+06    -228.268E-03     454.815E-03    -226.547E-03     71.1722E-03    -228.771E-03     455.301E-03    -226.177E-03     67.1825E-03
             442     12.9212E-03     98.8631E-03     12.5068E+06     77.1147E+06     92.5913E+06     11.9744E+06    -228.823E-03     455.389E-03    -226.566E-03     70.6263E-03    -229.334E-03     455.950E-03    -226.233E-03     66.7663E-03
             443     13.6407E-03     98.9568E-03     22.7274E+06     5.68954E+06     64.4467E+06     16.9245E+06    -229.779E-03     456.394E-03    -226.616E-03     67.5173E-03    -230.619E-03     457.148E-03    -226.335E-03     64.7501E-03
             444     718.312E-06     99.2108E-03    -83.8287E+06    -179.099E+06    -82.6281E+06     4.93550E+06    -225.656E-03     451.909E-03    -226.253E-03     5.60363E-03    -225.613E-03     451.272E-03    -226.285E-03     5.76865E-03
             445     1.43529E-03     99.2236E-03    -85.8172E+06    -172.594E+06    -76.6213E+06     3.15801E+06    -226.616E-03     452.679E-03    -226.063E-03     10.7321E-03    -226.654E-03     452.026E-03    -226.071E-03     10.8745E-03
             446     2.15339E-03     99.2416E-03    -90.6539E+06    -171.544E+06    -77.6609E+06     317.650E+03    -227.049E-03     453.361E-03    -226.312E-03     15.8250E-03    -227.124E-03     452.733E-03    -226.320E-03     15.8636E-03
             447     2.86999E-03     99.2716E-03    -87.0265E+06    -160.379E+06    -70.8294E+06    -441.063E+03    -226.779E-03     453.247E-03    -226.468E-03     21.2004E-03    -226.871E-03     452.666E-03    -226.463E-03     21.1529E-03
             448     3.58770E-03     99.3059E-03    -79.1495E+06    -138.825E+06    -54.2699E+06     806.280E+03    -226.388E-03     452.899E-03    -226.511E-03     26.0721E-03    -226.501E-03     452.396E-03    -226.466E-03     25.9669E-03
             449     4.30600E-03     99.3466E-03    -74.3181E+06    -121.508E+06    -39.4445E+06    -2.49025E+06    -226.209E-03     452.700E-03    -226.491E-03     31.1197E-03    -226.354E-03     452.265E-03    -226.405E-03     30.7161E-03
             450     5.02414E-03     99.3962E-03    -69.1362E+06    -104.726E+06    -31.1683E+06    -5.60496E+06    -225.973E-03     452.386E-03    -226.413E-03     36.2023E-03    -226.137E-03     452.024E-03    -226.317E-03     35.5732E-03
             451     5.74344E-03     99.4509E-03    -65.0665E+06    -76.6950E+06    -20.1778E+06     2.62279E+06    -226.137E-03     452.474E-03    -226.336E-03     40.7322E-03    -226.344E-03     452.236E-03    -226.232E-03     40.1872E-03
             452     6.46074E-03     99.5177E-03    -60.0850E+06    -47.1255E+06    -1.29049E+06     3.02995E+06    -226.861E-03     453.213E-03    -226.352E-03     45.1437E-03    -227.130E-03     453.105E-03    -226.203E-03     44.2626E-03
             453     7.17726E-03     99.5862E-03    -53.8584E+06    -17.0505E+06     11.5230E+06    -3.14232E+06    -226.993E-03     453.367E-03    -226.374E-03     50.4522E-03    -227.310E-03     453.399E-03    -226.214E-03     49.2294E-03
             454     7.89615E-03     99.6652E-03    -45.6068E+06     6.98213E+06     21.2237E+06    -2.06765E+06    -226.312E-03     452.658E-03    -226.347E-03     55.2248E-03    -226.651E-03     452.799E-03    -226.184E-03     53.8494E-03
             455     8.61565E-03     99.7523E-03    -41.2056E+06     16.2512E+06     33.9107E+06    -572.168E+03    -226.566E-03     452.902E-03    -226.336E-03     58.2307E-03    -226.953E-03     453.102E-03    -226.131E-03     56.2192E-03
             456     9.33423E-03     99.8351E-03    -33.6256E+06     30.1465E+06     48.4947E+06    -2.25475E+06    -227.579E-03     453.956E-03    -226.377E-03     60.3196E-03    -228.005E-03     454.229E-03    -226.129E-03     57.6924E-03
             457     10.0503E-03     99.9287E-03    -24.5806E+06     43.5917E+06     57.6727E+06     486.858E+03    -227.880E-03     454.311E-03    -226.431E-03     63.6457E-03    -228.316E-03     454.647E-03    -226.170E-03     60.8069E-03
             458     10.7696E-03     100.032E-03    -16.9293E+06     53.9009E+06     71.8690E+06     7.98194E+06    -228.122E-03     454.644E-03    -226.522E-03     66.6151E-03    -228.602E-03     455.047E-03    -226.216E-03     63.2769E-03
             459     11.4832E-03     100.132E-03    -11.0999E+06     59.0614E+06     83.1225E+06     8.79922E+06    -228.596E-03     455.215E-03    -226.619E-03     69.7161E-03    -229.117E-03     455.666E-03    -226.273E-03     65.8176E-03
             460     12.1981E-03     100.242E-03    -7.36544E+06     66.8950E+06     89.0695E+06     6.63164E+06    -228.351E-03     455.032E-03    -226.681E-03     73.7318E-03    -228.889E-03     455.523E-03    -226.322E-03     69.7226E-03
             461     12.9169E-03     100.344E-03    -10.2248E+06     60.0767E+06     86.6332E+06     15.2478E+06    -228.771E-03     455.492E-03    -226.721E-03     75.3749E-03    -229.295E-03     455.941E-03    -226.360E-03     71.6965E-03
             462     13.6289E-03     100.465E-03    -21.2177E+06     14.1067E+06     63.7848E+06     20.4037E+06    -228.710E-03     455.441E-03    -226.731E-03     73.0246E-03    -229.161E-03     455.681E-03    -226.402E-03     69.7028E-03
             463     717.400E-06     100.698E-03    -95.0943E+06    -189.202E+06    -93.1038E+06     873.883E+03    -226.788E-03     452.486E-03    -225.697E-03     5.51601E-03    -226.779E-03     451.842E-03    -225.751E-03     5.53384E-03
             464     1.43707E-03     100.713E-03    -89.8205E+06    -178.798E+06    -85.2170E+06     4.84369E+06    -226.404E-03     452.653E-03    -226.249E-03     9.80320E-03    -226.451E-03     451.996E-03    -226.286E-03     9.97786E-03
             465     2.15294E-03     100.735E-03    -88.1833E+06    -166.344E+06    -73.6959E+06     5.74345E+06    -226.307E-03     452.618E-03    -226.311E-03     15.6522E-03    -226.385E-03     452.008E-03    -226.310E-03     15.7694E-03
             466     2.87079E-03     100.761E-03    -88.7778E+06    -157.457E+06    -66.3272E+06     949.820E+03    -226.150E-03     452.455E-03    -226.305E-03     21.1409E-03    -226.261E-03     451.885E-03    -226.279E-03     21.0826E-03
             467     3.58946E-03     100.795E-03    -82.4406E+06    -142.943E+06    -55.8360E+06     526.498E+03    -225.979E-03     452.241E-03    -226.262E-03     26.2622E-03    -226.100E-03     451.724E-03    -226.214E-03     26.1517E-03
             468     4.30666E-03     100.838E-03    -74.4581E+06    -121.695E+06    -41.1720E+06     2.77970E+06    -226.310E-03     452.553E-03    -226.243E-03     31.1988E-03    -226.452E-03     452.119E-03    -226.165E-03     30.8902E-03
             469     5.02498E-03     100.884E-03    -71.1257E+06    -98.0500E+06    -26.3887E+06     1.53848E+06    -226.908E-03     453.206E-03    -226.298E-03     35.6196E-03    -227.100E-03     452.874E-03    -226.184E-03     35.0666E-03
             470     5.74150E-03     100.942E-03    -64.7839E+06    -75.8993E+06    -13.2736E+06    -1.33882E+06    -226.868E-03     453.233E-03    -226.365E-03     39.7916E-03    -227.090E-03     452.994E-03    -226.227E-03     39.0732E-03
             471     6.45991E-03     101.007E-03    -54.8289E+06    -46.8681E+06    -134.457E+03    -1.05267E+06    -226.847E-03     453.238E-03    -226.391E-03     44.7031E-03    -227.091E-03     453.121E-03    -226.244E-03     43.7919E-03
             472     7.17900E-03     101.078E-03    -48.3157E+06    -9.58006E+06     14.5751E+06    -1.47762E+06    -227.327E-03     453.753E-03    -226.425E-03     48.7865E-03    -227.635E-03     453.813E-03    -226.269E-03     47.4697E-03
             473     7.89516E-03     101.156E-03    -49.9139E+06     9.53808E+06     22.5421E+06    -4.66027E+06    -226.823E-03     453.278E-03    -226.455E-03     52.1364E-03    -227.203E-03     453.450E-03    -226.284E-03     50.3163E-03
             474     8.61373E-03     101.237E-03    -49.4194E+06     16.4745E+06     32.8832E+06     3.23252E+06    -226.653E-03     453.126E-03    -226.473E-03     55.9739E-03    -227.068E-03     453.329E-03    -226.261E-03     54.1660E-03
             475     9.33006E-03     101.332E-03    -41.5487E+06     30.8816E+06     49.1986E+06     3.31461E+06    -228.055E-03     454.594E-03    -226.539E-03     59.5474E-03    -228.511E-03     454.870E-03    -226.278E-03     57.1802E-03
             476     10.0459E-03     101.420E-03    -36.1554E+06      40.387E+06     54.5056E+06    -2.07210E+06    -228.614E-03     455.236E-03    -226.622E-03     63.8196E-03    -229.115E-03     455.594E-03    -226.355E-03     60.6841E-03
             477     10.7617E-03     101.522E-03    -29.9886E+06     44.6792E+06     55.7864E+06     3.96979E+06    -227.342E-03     453.990E-03    -226.648E-03     68.0647E-03    -227.846E-03     454.384E-03    -226.390E-03     64.8040E-03
             478     11.4823E-03     101.626E-03    -25.5804E+06     49.3432E+06     63.9004E+06     10.2792E+06    -226.673E-03     453.304E-03    -226.631E-03     72.2363E-03    -227.201E-03     453.731E-03    -226.346E-03     68.8294E-03
             479     12.2042E-03     101.729E-03    -26.3352E+06     46.9930E+06      70.811E+06     18.1976E+06    -227.557E-03     454.182E-03    -226.625E-03     75.8378E-03    -228.121E-03     454.613E-03    -226.301E-03     72.2899E-03
             480     12.9197E-03     101.844E-03    -19.7213E+06     37.7325E+06     71.6956E+06     23.9983E+06    -227.855E-03     454.471E-03    -226.616E-03     78.3303E-03    -228.378E-03     454.850E-03    -226.284E-03     74.8390E-03
             481     13.6423E-03     101.952E-03    -5.34171E+06     34.8903E+06     73.6370E+06     10.9066E+06    -227.346E-03     453.934E-03    -226.587E-03     74.9332E-03    -227.776E-03     454.254E-03    -226.262E-03     71.3877E-03
             482     718.409E-06     102.196E-03    -97.3257E+06    -191.009E+06    -97.1375E+06     104.656E+03    -226.712E-03     453.137E-03    -226.425E-03     7.28056E-03    -226.706E-03     452.504E-03    -226.492E-03     7.18626E-03
             483     1.43220E-03     102.200E-03    -98.6932E+06    -186.626E+06    -93.4849E+06     134.266E+03    -226.369E-03     452.865E-03    -226.496E-03     10.1168E-03    -226.441E-03     452.198E-03    -226.550E-03     10.1464E-03
             484     2.15349E-03     102.224E-03    -89.8051E+06    -170.964E+06    -81.2091E+06     1.90232E+06    -225.711E-03     452.075E-03    -226.364E-03     15.5853E-03    -225.780E-03     451.456E-03    -226.392E-03     15.5799E-03
             485     2.87203E-03     102.250E-03    -83.4108E+06    -153.047E+06    -65.3260E+06     2.98716E+06    -225.825E-03     452.057E-03    -226.232E-03     19.6963E-03    -225.916E-03     451.499E-03    -226.216E-03     19.6584E-03
             486     3.58929E-03     102.285E-03    -82.3351E+06    -141.649E+06    -54.6379E+06     525.912E+03    -226.040E-03     452.228E-03    -226.188E-03     24.5422E-03    -226.166E-03     451.718E-03    -226.136E-03     24.3419E-03
             487     4.30889E-03     102.325E-03    -79.5264E+06    -125.743E+06    -44.8828E+06     1.84456E+06    -226.612E-03     452.823E-03    -226.211E-03     29.7005E-03    -226.770E-03     452.383E-03    -226.138E-03     29.3530E-03
             488     5.02507E-03     102.378E-03    -73.9458E+06    -101.187E+06    -30.9475E+06     4.63899E+06    -227.208E-03     453.519E-03    -226.310E-03     34.7253E-03    -227.404E-03     453.182E-03    -226.211E-03     34.2207E-03
             489     5.74198E-03     102.434E-03    -63.7757E+06    -73.6701E+06    -12.0742E+06     532.871E+03    -227.353E-03     453.794E-03    -226.441E-03     39.4858E-03    -227.579E-03     453.567E-03    -226.302E-03     38.6541E-03
             490     6.45958E-03     102.495E-03    -59.3420E+06    -48.8997E+06    -1.63081E+06    -570.663E+03    -227.468E-03     453.991E-03    -226.523E-03     44.7782E-03    -227.733E-03     453.876E-03    -226.374E-03     43.8007E-03
             491     7.17504E-03     102.573E-03    -54.0078E+06    -11.0582E+06     10.3866E+06     713.669E+03    -227.179E-03     453.738E-03    -226.559E-03     48.8992E-03    -227.509E-03     453.808E-03    -226.413E-03     47.5775E-03
             492     7.89322E-03     102.646E-03    -48.5412E+06     14.9176E+06     25.8662E+06     4.79739E+06    -227.461E-03     454.074E-03    -226.613E-03     53.0460E-03    -227.848E-03     454.267E-03    -226.435E-03     51.3550E-03
             493     8.60989E-03     102.730E-03    -45.6200E+06     18.7064E+06     35.0696E+06     10.3087E+06    -227.351E-03     454.016E-03    -226.665E-03     57.2195E-03    -227.755E-03     454.223E-03    -226.450E-03     55.5074E-03
             494     9.32976E-03     102.820E-03    -45.9713E+06     25.2712E+06     38.1612E+06     8.84369E+06    -226.438E-03     453.070E-03    -226.632E-03     62.2986E-03    -226.884E-03     453.332E-03    -226.411E-03     60.2617E-03
             495     10.0479E-03     102.919E-03    -45.2637E+06     33.2505E+06     46.7966E+06     5.57456E+06    -227.097E-03     453.701E-03    -226.604E-03     68.1675E-03    -227.614E-03     454.039E-03    -226.353E-03     65.4621E-03
             496     10.7656E-03     103.012E-03    -41.6042E+06     34.9527E+06     53.4025E+06     863.695E+03    -227.589E-03     454.197E-03    -226.608E-03     70.9899E-03    -228.149E-03     454.579E-03    -226.332E-03     67.5546E-03
             497     11.4850E-03     103.111E-03    -33.0473E+06     36.6998E+06     59.7432E+06     7.33729E+06    -227.339E-03     453.948E-03    -226.609E-03     72.4968E-03    -227.875E-03     454.324E-03    -226.316E-03     69.1139E-03
             498     12.2001E-03     103.224E-03    -21.0182E+06     38.8655E+06     68.0729E+06     17.0131E+06    -227.025E-03     453.618E-03    -226.593E-03     73.6452E-03    -227.527E-03     453.986E-03    -226.279E-03     70.2757E-03
             499     12.9205E-03     103.330E-03    -11.8338E+06     41.3504E+06     70.8875E+06     11.0877E+06    -226.238E-03     452.761E-03    -226.523E-03     75.4567E-03    -226.750E-03     453.172E-03    -226.211E-03     71.4022E-03
             500     13.6363E-03     103.441E-03    -663.829E+03     51.9411E+06     79.5663E+06     4.98751E+06    -226.121E-03     452.571E-03    -226.449E-03     73.1591E-03    -226.555E-03     452.955E-03    -226.126E-03     69.5994E-03
             501     716.490E-06     103.681E-03    -96.6344E+06    -190.644E+06    -97.8683E+06    -1.45167E+06    -226.280E-03     452.973E-03    -226.693E-03     7.31049E-03    -226.264E-03     452.348E-03    -226.766E-03     7.15947E-03
             502     1.43811E-03     103.695E-03    -97.7525E+06    -185.836E+06    -93.6247E+06    -189.363E+03    -226.369E-03     452.796E-03    -226.427E-03     9.92970E-03    -226.437E-03     452.131E-03    -226.483E-03     9.87356E-03
             503     2.15209E-03     103.710E-03    -92.4076E+06    -174.054E+06    -83.4531E+06    -1.40082E+06    -226.273E-03     452.673E-03    -226.400E-03     15.3184E-03    -226.348E-03     452.046E-03    -226.431E-03     15.1883E-03
             504     2.87013E-03     103.741E-03    -85.0969E+06    -157.316E+06    -71.1059E+06     719.722E+03    -226.181E-03     452.545E-03    -226.364E-03     19.7371E-03    -226.268E-03     451.979E-03    -226.368E-03     19.6348E-03
             505     3.58896E-03     103.772E-03    -82.3209E+06    -141.082E+06    -57.8194E+06     3.14199E+06    -226.676E-03     453.068E-03    -226.391E-03     23.9507E-03    -226.800E-03     452.566E-03    -226.356E-03     23.7991E-03
             506     4.30457E-03     103.818E-03    -80.5821E+06    -124.138E+06    -44.5425E+06     2.09886E+06    -226.830E-03     453.302E-03    -226.472E-03     29.3488E-03    -226.997E-03     452.871E-03    -226.398E-03     28.9915E-03
             507     5.02307E-03     103.868E-03    -75.3614E+06    -103.449E+06    -33.1118E+06     1.38978E+06    -226.638E-03     453.146E-03    -226.509E-03     34.0364E-03    -226.831E-03     452.801E-03    -226.415E-03     33.5799E-03
             508     5.74186E-03     103.925E-03    -67.7911E+06    -77.5373E+06    -19.0727E+06     2.64254E+06    -227.082E-03     453.624E-03    -226.542E-03     39.3358E-03    -227.306E-03     453.388E-03    -226.427E-03     38.6909E-03
             509     6.45722E-03     103.991E-03    -65.8645E+06    -50.3043E+06    -6.55733E+06     4.82521E+06    -227.206E-03     453.796E-03    -226.590E-03     45.4316E-03    -227.492E-03     453.689E-03    -226.455E-03     44.5805E-03
             510     7.17646E-03     104.061E-03    -65.4542E+06    -18.7630E+06     3.24517E+06     8.30218E+06    -226.703E-03     453.289E-03    -226.585E-03     50.2270E-03    -227.066E-03     453.344E-03    -226.447E-03     49.1088E-03
             511     7.89498E-03     104.138E-03    -57.6630E+06     5.68007E+06     16.4388E+06     12.9565E+06    -227.224E-03     453.808E-03    -226.584E-03     55.4761E-03    -227.617E-03     453.968E-03    -226.426E-03     54.2655E-03
             512     8.61130E-03     104.226E-03    -47.7210E+06     15.7048E+06     28.4553E+06     8.91878E+06    -227.404E-03     454.018E-03    -226.615E-03     58.9233E-03    -227.810E-03     454.229E-03    -226.426E-03     57.1407E-03
             513     9.32784E-03     104.305E-03    -42.6137E+06     21.7870E+06     35.5172E+06     7.23519E+06    -226.050E-03     452.630E-03    -226.581E-03     62.8025E-03    -226.484E-03     452.888E-03    -226.373E-03     60.5049E-03
             514     10.0503E-03     104.405E-03    -34.0173E+06     35.0076E+06     53.2902E+06     11.2895E+06    -225.662E-03     452.178E-03    -226.516E-03     67.6204E-03    -226.122E-03     452.487E-03    -226.251E-03     65.2007E-03
             515     10.7690E-03     104.506E-03    -31.4362E+06     38.1036E+06     65.2610E+06     8.62455E+06    -227.415E-03     453.912E-03    -226.497E-03     70.0951E-03    -227.943E-03     454.274E-03    -226.180E-03     66.8078E-03
             516     11.4817E-03     104.606E-03    -29.0943E+06     36.8813E+06     67.8597E+06     6.56647E+06    -228.115E-03     454.633E-03    -226.518E-03     74.2978E-03    -228.658E-03     455.007E-03    -226.190E-03     70.7598E-03
             517     12.2018E-03     104.712E-03    -16.9587E+06     46.3313E+06     74.7857E+06     5.55508E+06    -226.800E-03     453.301E-03    -226.501E-03     77.5584E-03    -227.313E-03     453.701E-03    -226.169E-03     74.0408E-03
             518     12.9199E-03     104.819E-03    -9.21501E+06     49.5222E+06     75.6802E+06     3.62221E+06    -226.094E-03     452.500E-03    -226.406E-03     79.4339E-03    -226.615E-03     452.945E-03    -226.086E-03     75.3843E-03
             519     13.6427E-03     104.929E-03    -4.16189E+06     52.6837E+06     75.0300E+06     3.92239E+06    -225.420E-03     451.701E-03    -226.280E-03     75.8531E-03    -225.871E-03     452.106E-03    -225.976E-03     72.3121E-03
             520     718.553E-06     105.172E-03    -97.0313E+06    -190.534E+06    -95.4438E+06     186.440E+03    -226.205E-03     453.125E-03    -226.919E-03     5.24542E-03    -226.187E-03     452.503E-03    -226.980E-03     5.23143E-03
             521     1.43264E-03     105.184E-03    -96.7515E+06    -186.603E+06    -93.5053E+06    -430.819E+03    -226.301E-03     452.771E-03    -226.469E-03     9.70187E-03    -226.362E-03     452.099E-03    -226.526E-03     9.62486E-03
             522     2.15357E-03     105.203E-03    -90.9163E+06    -173.069E+06    -82.0517E+06     1.13487E+06    -226.463E-03     452.904E-03    -226.442E-03     14.9905E-03    -226.533E-03     452.278E-03    -226.469E-03     14.9334E-03
             523     2.87090E-03     105.229E-03    -92.3116E+06    -163.299E+06    -74.9821E+06     3.05224E+06    -226.723E-03     453.204E-03    -226.481E-03     20.4404E-03    -226.832E-03     452.624E-03    -226.485E-03     20.4314E-03
             524     3.58698E-03     105.266E-03    -88.1520E+06    -146.441E+06    -62.7788E+06     4.55507E+06    -226.960E-03     453.521E-03    -226.562E-03     25.4418E-03    -227.095E-03     453.006E-03    -226.535E-03     25.4557E-03
             525     4.30552E-03     105.308E-03    -80.1103E+06    -125.214E+06    -46.4778E+06     3.67861E+06    -226.800E-03     453.430E-03    -226.630E-03     30.5488E-03    -226.955E-03     452.991E-03    -226.565E-03     30.3523E-03
             526     5.02282E-03     105.358E-03    -73.6904E+06    -102.646E+06    -31.1108E+06     4.03251E+06    -226.608E-03     453.254E-03    -226.646E-03     35.4851E-03    -226.794E-03     452.905E-03    -226.546E-03     35.1583E-03
             527     5.73932E-03     105.416E-03    -72.2106E+06    -82.2337E+06    -21.0471E+06     5.14841E+06    -226.539E-03     453.159E-03    -226.620E-03     40.7708E-03    -226.773E-03     452.906E-03    -226.502E-03     40.3141E-03
             528     6.45968E-03     105.481E-03    -66.7590E+06    -55.5650E+06    -8.64454E+06     7.41798E+06    -226.494E-03     453.076E-03    -226.582E-03     45.3596E-03    -226.769E-03     452.942E-03    -226.448E-03     44.6794E-03
             529     7.17683E-03     105.551E-03    -64.4389E+06    -26.9717E+06     1.35711E+06     11.4659E+06    -226.606E-03     453.144E-03    -226.537E-03     49.5682E-03    -226.946E-03     453.155E-03    -226.398E-03     48.5630E-03
             530     7.89371E-03     105.629E-03    -58.1880E+06    -679.779E+03     12.7118E+06     13.0548E+06    -226.198E-03     452.679E-03    -226.481E-03     55.3331E-03    -226.573E-03     452.808E-03    -226.332E-03     54.2422E-03
             531     8.61363E-03     105.715E-03    -44.4900E+06     18.2381E+06     29.4672E+06     7.74175E+06    -226.090E-03     452.515E-03    -226.425E-03     59.6777E-03    -226.482E-03     452.728E-03    -226.239E-03     58.0059E-03
             532     9.33240E-03     105.799E-03    -35.8715E+06     22.4541E+06     43.8117E+06     5.46456E+06    -226.923E-03     453.337E-03    -226.414E-03     63.9517E-03    -227.340E-03     453.579E-03    -226.176E-03     61.6040E-03
             533     10.0472E-03     105.890E-03    -33.0186E+06     26.4116E+06     51.0416E+06     9.38133E+06    -226.564E-03     452.954E-03    -226.390E-03     69.3107E-03    -227.009E-03     453.228E-03    -226.126E-03     66.8146E-03
             534     10.7672E-03     105.996E-03    -25.2589E+06     40.2468E+06     64.9210E+06     13.0727E+06    -225.833E-03     452.169E-03    -226.336E-03     72.6580E-03    -226.305E-03     452.506E-03    -226.033E-03     69.9520E-03
             535     11.4903E-03     106.099E-03    -17.7716E+06     48.6427E+06     78.2439E+06     10.4153E+06    -226.182E-03     452.460E-03    -226.278E-03     75.1687E-03    -226.683E-03     452.843E-03    -225.931E-03     71.9946E-03
             536     12.2074E-03     106.200E-03    -15.7991E+06     46.7103E+06     77.9395E+06     3.40253E+06    -226.439E-03     452.638E-03    -226.198E-03     78.1856E-03    -226.960E-03     453.042E-03    -225.853E-03     74.5337E-03
             537     12.9273E-03     106.309E-03    -10.4402E+06     50.1618E+06     78.1029E+06     3.26135E+06    -226.318E-03     452.432E-03    -226.114E-03     80.0849E-03    -226.823E-03     452.851E-03    -225.781E-03     76.3818E-03
             538     13.6429E-03     106.417E-03    -6.92216E+06     56.9883E+06     77.7910E+06     540.492E+03    -225.985E-03     452.007E-03    -226.022E-03     76.4901E-03    -226.469E-03     452.443E-03    -225.706E-03     72.7159E-03
             539     716.134E-06     106.663E-03    -101.174E+06    -195.793E+06    -99.5874E+06     3.52594E+06    -225.998E-03     452.646E-03    -226.649E-03     5.02061E-03    -225.977E-03     452.016E-03    -226.716E-03     5.17410E-03
             540     1.43726E-03     106.674E-03    -98.4550E+06    -187.205E+06    -91.6729E+06     3.00762E+06    -226.375E-03     452.682E-03    -226.307E-03     11.1098E-03    -226.447E-03     452.008E-03    -226.351E-03     11.1731E-03
             541     2.15222E-03     106.693E-03    -97.8329E+06    -178.948E+06    -85.7081E+06     3.29391E+06    -226.835E-03     453.235E-03    -226.400E-03     15.4782E-03    -226.926E-03     452.594E-03    -226.427E-03     15.5796E-03
             542     2.86978E-03     106.721E-03    -92.1552E+06    -163.716E+06    -73.5455E+06     4.03219E+06    -226.693E-03     453.204E-03    -226.511E-03     20.5694E-03    -226.801E-03     452.618E-03    -226.508E-03     20.6476E-03
             543     3.58833E-03     106.757E-03    -88.3696E+06    -148.043E+06    -62.1655E+06     5.11297E+06    -226.520E-03     453.059E-03    -226.540E-03     26.2202E-03    -226.654E-03     452.534E-03    -226.508E-03     26.2390E-03
             544     4.30497E-03     106.799E-03    -82.9860E+06    -129.410E+06    -48.8680E+06     5.09583E+06    -226.565E-03     453.109E-03    -226.544E-03     31.1417E-03    -226.723E-03     452.655E-03    -226.480E-03     31.0941E-03
             545     5.02283E-03     106.849E-03     -77.655E+06    -110.211E+06    -35.9204E+06     5.40768E+06    -226.594E-03     453.138E-03    -226.544E-03     36.5056E-03    -226.782E-03     452.764E-03    -226.451E-03     36.2572E-03
             546     5.74203E-03     106.906E-03    -73.6639E+06    -88.7154E+06    -23.9318E+06     7.98600E+06    -226.552E-03     453.082E-03    -226.531E-03     41.4885E-03    -226.780E-03     452.803E-03    -226.415E-03     41.0535E-03
             547     6.45799E-03     106.971E-03    -66.0145E+06    -61.0535E+06    -8.13436E+06     10.2895E+06    -226.340E-03     452.843E-03    -226.503E-03     45.9994E-03    -226.601E-03     452.677E-03    -226.360E-03     45.4582E-03
             548     7.17633E-03     107.043E-03    -55.8292E+06    -28.5024E+06     7.01058E+06     10.6400E+06    -226.104E-03     452.541E-03    -226.437E-03     51.0529E-03    -226.401E-03     452.518E-03    -226.279E-03     50.2170E-03
             549     7.89592E-03     107.118E-03    -49.6388E+06     2.08152E+06     18.2886E+06     10.7038E+06    -225.580E-03     451.907E-03    -226.326E-03     55.9463E-03    -225.932E-03     452.036E-03    -226.166E-03     54.7095E-03
             550     8.61520E-03     107.201E-03    -45.4521E+06     17.0996E+06     28.8008E+06     9.45822E+06    -225.073E-03     451.276E-03    -226.202E-03     59.9144E-03    -225.465E-03     451.483E-03    -226.017E-03     58.3056E-03
             551     9.33449E-03     107.290E-03    -40.4247E+06     17.7383E+06     39.9073E+06     9.23587E+06    -225.887E-03     452.007E-03    -226.121E-03     64.8670E-03    -226.293E-03     452.217E-03    -225.888E-03     62.9780E-03
             552     10.0540E-03     107.385E-03    -37.5258E+06     24.0303E+06     49.1658E+06     9.22902E+06    -226.696E-03     452.781E-03    -226.085E-03     70.5106E-03    -227.156E-03     453.051E-03    -225.820E-03     68.0758E-03
             553     10.7721E-03     107.479E-03    -29.9401E+06     39.4820E+06     61.1198E+06     8.06772E+06    -226.144E-03     452.195E-03    -226.051E-03     73.8453E-03    -226.636E-03     452.544E-03    -225.759E-03     71.0381E-03
             554     11.4899E-03     107.587E-03    -21.9292E+06     43.4847E+06     70.6413E+06     6.25486E+06    -225.720E-03     451.713E-03    -225.993E-03     74.1300E-03    -226.214E-03     452.079E-03    -225.671E-03     70.9711E-03
             555     12.2108E-03     107.688E-03    -15.4890E+06     47.6167E+06     78.2091E+06     4.13523E+06    -226.113E-03     452.048E-03    -225.935E-03     75.4672E-03    -226.628E-03     452.450E-03    -225.591E-03     71.7988E-03
             556     12.9287E-03     107.798E-03    -9.12822E+06     55.8303E+06     83.5291E+06     3.49185E+06    -226.244E-03     452.125E-03    -225.881E-03     76.8825E-03    -226.755E-03     452.559E-03    -225.531E-03     73.0885E-03
             557     13.6515E-03     107.903E-03    -2.19563E+06     64.9224E+06     86.8131E+06    -164.137E+03    -226.866E-03     452.708E-03    -225.842E-03     74.0577E-03    -227.345E-03     453.158E-03    -225.499E-03     70.2264E-03
             558     719.480E-06     108.150E-03    -105.806E+06    -201.194E+06    -103.943E+06     1.12934E+06    -226.538E-03     452.094E-03    -225.556E-03     4.09711E-03    -226.515E-03     451.453E-03    -225.630E-03     4.24786E-03
             559     1.43496E-03     108.164E-03    -100.552E+06    -191.359E+06    -95.5480E+06     2.19332E+06    -226.559E-03     452.673E-03    -226.115E-03     10.4630E-03    -226.629E-03     451.988E-03    -226.169E-03     10.5571E-03
             560     2.15360E-03     108.186E-03    -100.096E+06    -183.322E+06    -88.9934E+06     3.07840E+06    -226.651E-03     452.941E-03    -226.290E-03     15.7198E-03    -226.743E-03     452.286E-03    -226.324E-03     15.8380E-03
             561     2.87049E-03     108.211E-03    -93.9451E+06    -168.429E+06    -76.5210E+06     3.49601E+06    -226.441E-03     452.812E-03    -226.372E-03     21.0971E-03    -226.546E-03     452.209E-03    -226.374E-03     21.1525E-03
             562     3.58798E-03     108.247E-03    -88.7436E+06    -151.601E+06    -63.7594E+06     5.77385E+06    -226.100E-03     452.461E-03    -226.361E-03     26.6851E-03    -226.229E-03     451.922E-03    -226.332E-03     26.7330E-03
             563     4.30697E-03     108.290E-03    -85.0290E+06    -133.570E+06    -50.9071E+06     7.74733E+06    -226.096E-03     452.414E-03    -226.319E-03     31.7144E-03    -226.255E-03     451.946E-03    -226.256E-03     31.7818E-03
             564     5.02487E-03     108.339E-03    -78.6787E+06    -113.388E+06    -36.0188E+06     7.18044E+06    -226.200E-03     452.493E-03    -226.293E-03     37.2312E-03    -226.387E-03     452.102E-03    -226.194E-03     37.0959E-03
             565     5.74127E-03     108.397E-03    -71.7162E+06    -91.7393E+06    -22.3139E+06     7.94304E+06    -226.252E-03     452.518E-03    -226.266E-03     43.1032E-03    -226.466E-03     452.216E-03    -226.140E-03     42.7477E-03
             566     6.46082E-03     108.461E-03    -65.7968E+06    -66.5885E+06    -9.56726E+06     9.90942E+06    -225.972E-03     452.187E-03    -226.215E-03     47.7408E-03    -226.222E-03     451.995E-03    -226.071E-03     47.2154E-03
             567     7.18021E-03     108.529E-03    -57.8335E+06    -32.8174E+06     6.71727E+06     11.0866E+06    -225.595E-03     451.729E-03    -226.134E-03     52.4280E-03    -225.890E-03     451.682E-03    -225.969E-03     51.7306E-03
             568     7.89818E-03     108.608E-03    -51.4917E+06    -680.036E+03     18.0732E+06     8.85800E+06    -225.419E-03     451.434E-03    -226.015E-03     56.8567E-03    -225.783E-03     451.560E-03    -225.849E-03     55.4941E-03
             569     8.61674E-03     108.687E-03    -48.4605E+06     13.0076E+06     24.6821E+06     8.61868E+06    -225.372E-03     451.277E-03    -225.905E-03     61.0664E-03    -225.773E-03     451.480E-03    -225.730E-03     59.3468E-03
             570     9.33709E-03     108.776E-03    -42.6450E+06     16.1551E+06     36.9966E+06     11.6272E+06    -225.457E-03     451.297E-03    -225.840E-03     64.7973E-03    -225.860E-03     451.499E-03    -225.617E-03     63.0738E-03
             571     10.0569E-03     108.871E-03    -33.9086E+06     29.5075E+06     52.2294E+06     9.85211E+06    -225.904E-03     451.700E-03    -225.796E-03     68.3637E-03    -226.354E-03     451.983E-03    -225.528E-03     65.9381E-03
             572     10.7750E-03     108.973E-03    -27.5656E+06     42.8724E+06     64.3272E+06     5.76557E+06    -226.607E-03     452.388E-03    -225.782E-03     72.2935E-03    -227.118E-03     452.768E-03    -225.482E-03     69.0980E-03
             573     11.4940E-03     109.071E-03    -22.1433E+06     46.3342E+06     74.0936E+06     4.56172E+06    -226.693E-03     452.489E-03    -225.797E-03     74.1391E-03    -227.218E-03     452.885E-03    -225.461E-03     70.6622E-03
             574     12.2116E-03     109.178E-03    -15.6184E+06     51.9837E+06     81.3231E+06     3.13082E+06    -226.645E-03     452.439E-03    -225.794E-03     75.3205E-03    -227.178E-03     452.865E-03    -225.440E-03     71.5640E-03
             575     12.9314E-03     109.284E-03    -8.64883E+06     59.5406E+06     85.1762E+06     199.071E+03    -227.021E-03     452.802E-03    -225.782E-03     75.4657E-03    -227.556E-03     453.271E-03    -225.430E-03     71.3238E-03
             576     13.6466E-03     109.392E-03    -4.71032E+06     66.1567E+06     85.9396E+06    -7.45358E+03    -227.160E-03     452.936E-03    -225.776E-03     73.2227E-03    -227.646E-03     453.391E-03    -225.435E-03     69.4380E-03
             577     717.164E-06     109.643E-03    -105.379E+06    -203.293E+06    -103.886E+06     751.932E+03    -226.723E-03     452.530E-03    -225.807E-03     4.39919E-03    -226.691E-03     451.882E-03    -225.879E-03     4.55758E-03
             578     1.43534E-03     109.654E-03    -102.575E+06    -196.290E+06    -98.5439E+06     1.20135E+06    -226.347E-03     452.583E-03    -226.236E-03     10.4165E-03    -226.415E-03     451.879E-03    -226.295E-03     10.5168E-03
             579     2.15308E-03     109.674E-03    -99.2997E+06    -186.002E+06    -89.7990E+06     2.43280E+06    -225.774E-03     451.971E-03    -226.197E-03     15.7595E-03    -225.857E-03     451.303E-03    -226.232E-03     15.8538E-03
             580     2.87167E-03     109.702E-03    -96.8070E+06    -174.473E+06    -80.0785E+06     2.79843E+06    -225.736E-03     451.825E-03    -226.090E-03     21.0743E-03    -225.842E-03     451.203E-03    -226.097E-03     21.1092E-03
             581     3.58974E-03     109.735E-03    -91.6496E+06    -158.268E+06    -66.9864E+06     4.60365E+06    -225.742E-03     451.767E-03    -226.025E-03     27.2391E-03    -225.872E-03     451.205E-03    -225.998E-03     27.2597E-03
             582     4.30750E-03     109.779E-03    -83.7271E+06    -137.087E+06    -50.7072E+06     6.69451E+06    -225.711E-03     451.691E-03    -225.980E-03     32.5308E-03    -225.859E-03     451.202E-03    -225.913E-03     32.5319E-03
             583     5.02597E-03     109.828E-03    -78.0501E+06    -116.558E+06    -36.3851E+06     7.52139E+06    -225.663E-03     451.595E-03    -225.932E-03     37.5722E-03    -225.840E-03     451.186E-03    -225.832E-03     37.4278E-03
             584     5.74648E-03     109.885E-03    -73.2571E+06    -95.2334E+06    -22.9174E+06     8.37239E+06    -225.482E-03     451.353E-03    -225.871E-03     43.0163E-03    -225.696E-03     451.035E-03    -225.741E-03     42.7004E-03
             585     6.46415E-03     109.950E-03    -66.4597E+06    -70.5464E+06    -9.14036E+06     8.41427E+06    -225.431E-03     451.227E-03    -225.796E-03     47.4881E-03    -225.680E-03     451.016E-03    -225.643E-03     46.9309E-03
             586     7.18187E-03     110.018E-03    -60.5673E+06    -40.8373E+06     2.91009E+06     10.6906E+06    -225.468E-03     451.180E-03    -225.712E-03     52.4789E-03    -225.762E-03     451.105E-03    -225.550E-03     51.7302E-03
             587     7.90204E-03     110.095E-03    -55.0080E+06    -6.46368E+06     14.5358E+06     10.6980E+06    -225.618E-03     451.251E-03    -225.633E-03     56.6240E-03    -225.983E-03     451.356E-03    -225.471E-03     55.3251E-03
             588     8.62202E-03     110.175E-03    -47.7743E+06     15.0332E+06     27.2361E+06     9.70277E+06    -226.160E-03     451.770E-03    -225.610E-03     60.2019E-03    -226.570E-03     451.985E-03    -225.426E-03     58.3734E-03
             589     9.33888E-03     110.265E-03    -40.4614E+06     19.8116E+06     38.8401E+06     9.64568E+06    -226.341E-03     451.972E-03    -225.630E-03     63.9404E-03    -226.757E-03     452.202E-03    -225.406E-03     61.8792E-03
             590     10.0567E-03     110.358E-03    -34.6246E+06     30.5243E+06     49.3035E+06     7.24340E+06    -226.017E-03     451.643E-03    -225.626E-03     67.7880E-03    -226.474E-03     451.942E-03    -225.374E-03     65.2314E-03
             591     10.7774E-03     110.459E-03    -27.3721E+06     44.1808E+06     64.9936E+06     5.54533E+06    -226.076E-03     451.704E-03    -225.628E-03     71.0994E-03    -226.580E-03     452.080E-03    -225.328E-03     67.9988E-03
             592     11.4952E-03     110.563E-03    -20.1337E+06     49.9781E+06     78.8896E+06     4.63105E+06    -226.733E-03     452.388E-03    -225.655E-03     72.9313E-03    -227.256E-03     452.788E-03    -225.304E-03     69.4747E-03
             593     12.2138E-03     110.666E-03    -13.3984E+06     56.6871E+06     85.8342E+06     2.50921E+06    -227.471E-03     453.157E-03    -225.686E-03     75.2665E-03    -228.010E-03     453.601E-03    -225.320E-03     71.4395E-03
             594     12.9305E-03     110.775E-03    -8.51339E+06     61.5275E+06     86.8498E+06     936.594E+03    -227.753E-03     453.468E-03    -225.715E-03     76.3514E-03    -228.289E-03     453.940E-03    -225.358E-03     72.3002E-03
             595     13.6499E-03     110.884E-03    -4.46731E+06     67.0896E+06     86.0559E+06     642.743E+03    -226.890E-03     452.607E-03    -225.717E-03     73.8808E-03    -227.374E-03     453.063E-03    -225.377E-03     70.1430E-03
             596     718.051E-06     111.132E-03    -105.906E+06    -207.186E+06    -104.343E+06     1.34701E+06    -225.578E-03     451.937E-03    -226.359E-03     6.27517E-03    -225.551E-03     451.275E-03    -226.426E-03     6.36291E-03
             597     1.43546E-03     111.144E-03    -103.657E+06    -200.103E+06    -98.5235E+06     2.29495E+06    -225.931E-03     451.850E-03    -225.920E-03     11.2878E-03    -225.999E-03     451.129E-03    -225.972E-03     11.3468E-03
             598     2.15357E-03     111.163E-03    -100.351E+06    -189.357E+06    -89.5432E+06     3.03503E+06    -225.532E-03     451.403E-03    -225.872E-03     16.2393E-03    -225.617E-03     450.721E-03    -225.899E-03     16.3412E-03
             599     2.87228E-03     111.189E-03    -95.7466E+06    -175.629E+06    -77.8001E+06     3.37771E+06    -225.233E-03     450.994E-03    -225.762E-03     21.2615E-03    -225.336E-03     450.361E-03    -225.757E-03     21.3445E-03
             600     3.59143E-03     111.223E-03    -90.6934E+06    -160.628E+06    -65.4715E+06     3.24818E+06    -225.257E-03     450.921E-03    -225.664E-03     26.7967E-03    -225.383E-03     450.345E-03    -225.627E-03     26.7306E-03
             601     4.31023E-03     111.267E-03    -85.3419E+06    -143.563E+06    -53.0427E+06     4.42567E+06    -225.165E-03     450.751E-03    -225.586E-03     32.4292E-03    -225.311E-03     450.238E-03    -225.519E-03     32.3012E-03
             602     5.02896E-03     111.315E-03    -80.1017E+06    -123.446E+06    -39.5708E+06     6.87574E+06    -225.289E-03     450.813E-03    -225.524E-03     37.7509E-03    -225.463E-03     450.379E-03    -225.427E-03     37.5794E-03
             603     5.74580E-03     111.373E-03    -74.0939E+06    -100.319E+06    -24.9210E+06     8.35419E+06    -225.271E-03     450.749E-03    -225.478E-03     42.4430E-03    -225.480E-03     450.411E-03    -225.350E-03     42.1184E-03
             604     6.46629E-03     111.435E-03    -67.7684E+06    -75.0309E+06    -10.6076E+06     8.87742E+06    -224.975E-03     450.391E-03    -225.415E-03     46.7609E-03    -225.223E-03     450.163E-03    -225.261E-03     46.1794E-03
             605     7.18669E-03     111.506E-03    -60.8212E+06    -45.6936E+06     3.11604E+06     9.25167E+06    -225.375E-03     450.727E-03    -225.351E-03     51.9240E-03    -225.671E-03     450.635E-03    -225.181E-03     50.9958E-03
             606     7.90443E-03     111.581E-03    -52.9355E+06    -8.41054E+06     17.9341E+06     10.7756E+06    -226.319E-03     451.662E-03    -225.343E-03     56.1000E-03    -226.674E-03     451.747E-03    -225.164E-03     54.8347E-03
             607     8.62075E-03     111.666E-03    -46.6088E+06     16.4381E+06     28.9144E+06     10.2677E+06    -226.585E-03     451.967E-03    -225.382E-03     59.7999E-03    -226.994E-03     452.185E-03    -225.193E-03     57.9762E-03
             608     9.34023E-03     111.752E-03    -41.1781E+06     21.4350E+06     38.0402E+06     7.89948E+06    -226.493E-03     451.927E-03    -225.434E-03     64.3371E-03    -226.925E-03     452.179E-03    -225.215E-03     62.0836E-03
             609     10.0595E-03     111.847E-03    -34.2035E+06     34.2972E+06     53.0002E+06     6.48737E+06    -226.663E-03     452.152E-03    -225.489E-03     68.4206E-03    -227.137E-03     452.472E-03    -225.224E-03     65.7401E-03
             610     10.7763E-03     111.945E-03    -28.0542E+06     46.5351E+06     66.9103E+06     5.02346E+06    -226.558E-03     452.091E-03    -225.533E-03     71.1429E-03    -227.066E-03     452.471E-03    -225.225E-03     68.1249E-03
             611     11.4967E-03     112.050E-03    -20.9589E+06     52.3184E+06     78.6359E+06     3.47261E+06    -226.672E-03     452.241E-03    -225.570E-03     72.8980E-03    -227.196E-03     452.649E-03    -225.222E-03     69.5180E-03
             612     12.2147E-03     112.156E-03    -14.8385E+06     58.1712E+06     85.7726E+06     2.33082E+06    -227.297E-03     452.898E-03    -225.601E-03     75.1677E-03    -227.844E-03     453.351E-03    -225.235E-03     71.3488E-03
             613     12.9330E-03     112.266E-03    -9.95236E+06     62.1436E+06     87.5433E+06     1.77690E+06    -227.352E-03     452.977E-03    -225.625E-03     76.1589E-03    -227.896E-03     453.452E-03    -225.263E-03     72.1177E-03
             614     13.6504E-03     112.371E-03    -4.51481E+06     69.9373E+06     88.5593E+06     678.979E+03    -227.025E-03     452.656E-03    -225.631E-03     73.0417E-03    -227.523E-03     453.129E-03    -225.283E-03     69.1950E-03
             615     718.600E-06     112.619E-03    -105.284E+06    -211.321E+06    -104.355E+06     587.775E+03    -224.924E-03     450.465E-03    -225.541E-03     6.71206E-03    -224.892E-03     449.781E-03    -225.604E-03     6.70229E-03
             616     1.43741E-03     112.633E-03    -103.917E+06    -204.825E+06    -99.2678E+06     1.97500E+06    -225.483E-03     450.722E-03    -225.239E-03     11.1283E-03    -225.544E-03     449.978E-03    -225.288E-03     11.1541E-03
             617     2.15553E-03     112.650E-03    -100.442E+06    -193.061E+06    -90.1459E+06     3.12660E+06    -225.301E-03     450.604E-03    -225.304E-03     15.9862E-03    -225.379E-03     449.903E-03    -225.329E-03     16.0781E-03
             618     2.87387E-03     112.676E-03    -95.6444E+06    -178.688E+06    -77.7835E+06     3.98949E+06    -225.238E-03     450.546E-03    -225.308E-03     21.7107E-03    -225.337E-03     449.898E-03    -225.299E-03     21.7826E-03
             619     3.59163E-03     112.711E-03    -90.7097E+06    -163.749E+06    -65.2158E+06     3.36537E+06    -225.066E-03     450.353E-03    -225.287E-03     27.0584E-03    -225.189E-03     449.762E-03    -225.244E-03     26.9521E-03
             620     4.31096E-03     112.752E-03    -86.3702E+06    -147.735E+06    -53.3272E+06     3.73516E+06    -224.823E-03     450.053E-03    -225.231E-03     31.9714E-03    -224.969E-03     449.524E-03    -225.158E-03     31.7983E-03
             621     5.03035E-03     112.803E-03    -80.6440E+06    -127.516E+06    -39.5418E+06     6.17917E+06    -224.839E-03     450.005E-03    -225.166E-03     37.4001E-03    -225.010E-03     449.552E-03    -225.062E-03     37.2261E-03
             622     5.75085E-03     112.860E-03    -73.0783E+06    -104.201E+06    -24.2386E+06     7.07236E+06    -225.021E-03     450.144E-03    -225.123E-03     42.1530E-03    -225.220E-03     449.784E-03    -224.987E-03     41.8103E-03
             623     6.46827E-03     112.922E-03    -66.0617E+06    -78.5773E+06    -9.71547E+06     8.05517E+06    -225.230E-03     450.329E-03    -225.099E-03     46.5507E-03    -225.470E-03     450.084E-03    -224.938E-03     45.8528E-03
             624     7.18676E-03     112.990E-03    -59.8556E+06    -49.2380E+06     4.42575E+06     9.02743E+06    -225.734E-03     450.835E-03    -225.101E-03     51.8806E-03    -226.025E-03     450.726E-03    -224.921E-03     50.8857E-03
             625     7.90573E-03     113.072E-03    -53.4896E+06    -15.2964E+06     17.4967E+06     9.58626E+06    -226.164E-03     451.289E-03    -225.124E-03     56.3375E-03    -226.509E-03     451.338E-03    -224.937E-03     55.1209E-03
             626     8.62532E-03     113.153E-03    -46.2136E+06     13.5391E+06     29.6301E+06     8.70047E+06    -226.260E-03     451.419E-03    -225.159E-03     60.0229E-03    -226.659E-03     451.616E-03    -224.963E-03     58.2763E-03
             627     9.34314E-03     113.240E-03    -38.2632E+06     26.6252E+06     42.9767E+06     7.69822E+06    -226.660E-03     451.886E-03    -225.226E-03     64.8317E-03    -227.092E-03     452.152E-03    -224.994E-03     62.6213E-03
             628     10.0606E-03     113.336E-03    -32.4504E+06     37.8663E+06     55.4736E+06     7.56621E+06    -227.359E-03     452.676E-03    -225.316E-03     68.7970E-03    -227.837E-03     453.012E-03    -225.047E-03     66.0892E-03
             629     10.7798E-03     113.435E-03    -26.9282E+06     50.1203E+06     68.2440E+06     5.93920E+06    -227.688E-03     453.117E-03    -225.429E-03     70.5777E-03    -228.196E-03     453.509E-03    -225.121E-03     67.5474E-03
             630     11.4961E-03     113.538E-03    -21.1284E+06     55.1201E+06     79.5392E+06     3.40291E+06    -227.349E-03     452.881E-03    -225.532E-03     72.2475E-03    -227.878E-03     453.300E-03    -225.183E-03     68.8546E-03
             631     12.2148E-03     113.645E-03    -15.5656E+06     59.0780E+06     86.1370E+06     2.73343E+06    -226.911E-03     452.491E-03    -225.579E-03     74.2769E-03    -227.467E-03     452.951E-03    -225.212E-03     70.4054E-03
             632     12.9335E-03     113.754E-03    -9.96354E+06     64.5313E+06     88.9688E+06     2.21972E+06    -226.664E-03     452.246E-03    -225.582E-03     74.6487E-03    -227.217E-03     452.735E-03    -225.216E-03     70.5174E-03
             633     13.6524E-03     113.861E-03    -4.60544E+06     71.4928E+06     89.7080E+06     507.487E+03    -226.773E-03     452.341E-03    -225.568E-03     72.7459E-03    -227.276E-03     452.822E-03    -225.217E-03     68.8582E-03
             634     719.314E-06     114.108E-03    -105.330E+06    -214.085E+06    -103.870E+06     572.915E+03    -224.797E-03     449.938E-03    -225.141E-03     6.17603E-03    -224.765E-03     449.235E-03    -225.197E-03     6.17195E-03
             635     1.43708E-03     114.117E-03    -103.121E+06    -208.029E+06    -98.5217E+06     1.16373E+06    -224.816E-03     449.718E-03    -224.902E-03     9.77468E-03    -224.870E-03     448.957E-03    -224.944E-03     9.86564E-03
             636     2.15642E-03     114.137E-03    -100.076E+06    -197.134E+06    -90.4311E+06     2.39185E+06    -224.663E-03     449.516E-03    -224.853E-03     15.3056E-03    -224.734E-03     448.795E-03    -224.874E-03     15.4050E-03
             637     2.87512E-03     114.162E-03    -96.5763E+06    -183.580E+06    -79.7475E+06     3.50687E+06    -224.688E-03     449.502E-03    -224.814E-03     21.5107E-03    -224.784E-03     448.836E-03    -224.807E-03     21.5467E-03
             638     3.59489E-03     114.197E-03    -91.7370E+06    -167.720E+06    -66.2426E+06     3.81351E+06    -224.896E-03     449.714E-03    -224.818E-03     27.4491E-03    -225.018E-03     449.108E-03    -224.773E-03     27.3178E-03
             639     4.31293E-03     114.238E-03    -85.7957E+06    -149.240E+06    -51.4072E+06     4.28271E+06    -225.169E-03     450.030E-03    -224.860E-03     32.2986E-03    -225.316E-03     449.491E-03    -224.777E-03     32.0747E-03
             640     5.03183E-03     114.287E-03    -79.6743E+06    -129.409E+06    -37.1947E+06     4.93342E+06    -224.987E-03     449.878E-03    -224.891E-03     36.9213E-03    -225.157E-03     449.414E-03    -224.774E-03     36.6299E-03
             641     5.75013E-03     114.345E-03    -73.4109E+06    -108.450E+06    -23.8002E+06     5.11662E+06    -224.655E-03     449.526E-03    -224.872E-03     40.9836E-03    -224.853E-03     449.148E-03    -224.727E-03     40.5161E-03
             642     6.47084E-03     114.408E-03    -66.6323E+06    -83.5675E+06    -10.0783E+06     6.56349E+06    -225.326E-03     450.186E-03    -224.860E-03     46.4203E-03    -225.562E-03     449.918E-03    -224.693E-03     45.7139E-03
             643     7.18902E-03     114.479E-03    -59.3098E+06    -53.7116E+06     4.40182E+06     8.21885E+06    -226.200E-03     451.113E-03    -224.912E-03     51.9425E-03    -226.480E-03     450.978E-03    -224.726E-03     51.0073E-03
             644     7.90737E-03     114.558E-03    -51.6371E+06    -17.9205E+06     19.6858E+06     8.32938E+06    -226.025E-03     451.001E-03    -224.977E-03     55.4211E-03    -226.364E-03     451.037E-03    -224.777E-03     54.0809E-03
             645     8.62570E-03     114.641E-03    -45.0409E+06     14.4237E+06     33.1929E+06     8.36861E+06    -226.082E-03     451.101E-03    -225.019E-03     58.4617E-03    -226.482E-03     451.296E-03    -224.809E-03     56.6701E-03
             646     9.34460E-03     114.729E-03    -40.0328E+06     27.5331E+06     42.7141E+06     8.36657E+06    -226.808E-03     451.895E-03    -225.087E-03     63.2282E-03    -227.247E-03     452.166E-03    -224.855E-03     61.0321E-03
             647     10.0631E-03     114.825E-03    -33.5777E+06     38.1177E+06     53.4818E+06     7.47343E+06    -227.486E-03     452.680E-03    -225.194E-03     67.9372E-03    -227.960E-03     453.015E-03    -224.933E-03     65.2975E-03
             648     10.7786E-03     114.926E-03    -26.5626E+06     52.2499E+06     67.7915E+06     5.97688E+06    -228.038E-03     453.371E-03    -225.333E-03     70.7667E-03    -228.550E-03     453.778E-03    -225.031E-03     67.6896E-03
             649     11.4966E-03     115.028E-03    -20.7955E+06     57.6903E+06     80.5668E+06     4.56521E+06    -227.868E-03     453.343E-03    -225.475E-03     72.6703E-03    -228.408E-03     453.780E-03    -225.126E-03     69.2052E-03
             650     12.2143E-03     115.133E-03    -15.2009E+06     60.9395E+06      87.865E+06     3.61580E+06    -227.075E-03     452.625E-03    -225.549E-03     75.1635E-03    -227.635E-03     453.092E-03    -225.176E-03     71.3273E-03
             651     12.9326E-03     115.242E-03    -9.02639E+06     67.5470E+06     91.1845E+06     2.10056E+06    -226.409E-03     451.957E-03    -225.549E-03     75.4941E-03    -226.964E-03     452.456E-03    -225.178E-03     71.3951E-03
             652     13.6519E-03     115.347E-03    -3.79230E+06     74.0693E+06     91.5660E+06     1.10844E+06    -226.267E-03     451.781E-03    -225.514E-03     73.6781E-03    -226.776E-03     452.274E-03    -225.158E-03     69.7856E-03
             653     717.570E-06     115.593E-03    -106.725E+06    -216.563E+06    -104.842E+06     922.954E+03    -224.657E-03     449.633E-03    -224.977E-03     5.31515E-03    -224.637E-03     448.921E-03    -225.032E-03     5.38457E-03
             654     1.43783E-03     115.603E-03    -104.467E+06    -210.405E+06    -98.7121E+06     1.12946E+06    -224.063E-03     448.703E-03    -224.640E-03     10.3345E-03    -224.121E-03     447.934E-03    -224.677E-03     10.3969E-03
             655     2.15675E-03     115.621E-03    -101.293E+06    -200.562E+06    -90.2140E+06     1.57675E+06    -224.369E-03     448.855E-03    -224.486E-03     15.7101E-03    -224.444E-03     448.122E-03    -224.500E-03     15.7423E-03
             656     2.87673E-03     115.646E-03    -97.0446E+06    -187.040E+06    -79.4028E+06     2.56658E+06    -224.552E-03     449.040E-03    -224.488E-03     20.5659E-03    -224.647E-03     448.357E-03    -224.473E-03     20.5743E-03
             657     3.59539E-03     115.682E-03    -91.8167E+06    -170.415E+06    -65.9800E+06     3.31595E+06    -224.559E-03     449.075E-03    -224.516E-03     25.9079E-03    -224.679E-03     448.455E-03    -224.466E-03     25.8080E-03
             658     4.31499E-03     115.724E-03    -86.1624E+06    -151.912E+06    -51.4313E+06     4.03697E+06    -224.907E-03     449.468E-03    -224.561E-03     31.5995E-03    -225.052E-03     448.918E-03    -224.473E-03     31.3739E-03
             659     5.03275E-03     115.774E-03    -79.6349E+06    -131.594E+06    -36.5125E+06     4.37666E+06    -225.227E-03     449.862E-03    -224.635E-03     36.7856E-03    -225.397E-03     449.389E-03    -224.512E-03     36.4304E-03
             660     5.75230E-03     115.829E-03    -73.2079E+06    -110.050E+06    -22.3124E+06     4.65698E+06    -225.324E-03     450.032E-03    -224.708E-03     40.9577E-03    -225.524E-03     449.646E-03    -224.554E-03     40.4323E-03
             661     6.47086E-03     115.892E-03    -66.6594E+06    -86.3894E+06    -8.80175E+06     5.25482E+06    -225.614E-03     450.387E-03    -224.773E-03     45.8243E-03    -225.847E-03     450.102E-03    -224.595E-03     45.1169E-03
             662     7.18968E-03     115.968E-03    -59.3851E+06    -57.5713E+06     4.89899E+06     5.97494E+06    -225.878E-03     450.714E-03    -224.836E-03     50.7460E-03    -226.153E-03     450.560E-03    -224.642E-03     49.7688E-03
             663     7.90734E-03     116.044E-03    -52.8660E+06    -23.5694E+06     18.3980E+06     7.91257E+06    -226.089E-03     450.983E-03    -224.894E-03     54.9138E-03    -226.426E-03     450.995E-03    -224.691E-03     53.5364E-03
             664     8.62618E-03     116.128E-03    -46.9968E+06     11.3110E+06     31.1104E+06     10.0094E+06    -226.498E-03     451.454E-03    -224.956E-03     59.0386E-03    -226.902E-03     451.641E-03    -224.749E-03     57.2750E-03
             665     9.34393E-03     116.217E-03    -40.6502E+06     29.8072E+06     42.4955E+06     9.21180E+06    -227.031E-03     452.084E-03    -225.052E-03     63.3990E-03    -227.477E-03     452.368E-03    -224.824E-03     61.2111E-03
             666     10.0614E-03     116.314E-03    -34.7814E+06     40.0150E+06     53.3392E+06     6.77498E+06    -227.084E-03     452.241E-03    -225.158E-03     67.5390E-03    -227.557E-03     452.579E-03    -224.898E-03     65.0311E-03
             667     10.7817E-03     116.416E-03    -28.5426E+06     53.4309E+06     67.1185E+06     5.52806E+06    -226.929E-03     452.178E-03    -225.249E-03     71.2424E-03    -227.453E-03     452.596E-03    -224.950E-03     68.1954E-03
             668     11.4988E-03     116.520E-03    -22.1607E+06     59.5106E+06     80.4973E+06     5.19847E+06    -227.210E-03     452.550E-03    -225.340E-03     73.8457E-03    -227.770E-03     453.010E-03    -224.992E-03     70.2887E-03
             669     12.2166E-03     116.621E-03    -16.0235E+06     63.8066E+06     89.1040E+06     3.69191E+06    -227.192E-03     452.600E-03    -225.408E-03     76.2520E-03    -227.766E-03     453.084E-03    -225.031E-03     72.4136E-03
             670     12.9357E-03     116.730E-03    -10.6188E+06     69.6627E+06     92.5131E+06     2.24656E+06    -226.864E-03     452.295E-03    -225.430E-03     76.8264E-03    -227.439E-03     452.810E-03    -225.053E-03     72.6958E-03
             671     13.6539E-03     116.835E-03    -5.54278E+06     75.7201E+06     92.3985E+06     1.59671E+06    -226.536E-03     451.953E-03    -225.418E-03     74.4894E-03    -227.061E-03     452.459E-03    -225.057E-03     70.5731E-03
             672     719.462E-06     117.075E-03    -107.275E+06    -220.100E+06    -105.741E+06     1.11376E+06    -224.034E-03     448.045E-03    -224.011E-03     4.26634E-03    -224.013E-03     447.319E-03    -224.065E-03     4.43103E-03
             673     1.43880E-03     117.087E-03    -105.241E+06    -212.777E+06    -99.6461E+06     1.34869E+06    -224.229E-03     448.265E-03    -224.036E-03     10.6928E-03    -224.289E-03     447.490E-03    -224.073E-03     10.7154E-03
             674     2.15865E-03     117.104E-03    -101.977E+06    -202.388E+06    -89.9199E+06     1.60738E+06    -224.598E-03     448.770E-03    -224.172E-03     15.5743E-03    -224.675E-03     448.029E-03    -224.180E-03     15.5658E-03
             675     2.87608E-03     117.133E-03    -97.5279E+06    -189.401E+06    -78.0980E+06     1.92137E+06    -224.853E-03     449.183E-03    -224.330E-03     20.5123E-03    -224.949E-03     448.488E-03    -224.304E-03     20.4719E-03
             676     3.59525E-03     117.165E-03    -92.6110E+06    -173.502E+06    -65.8380E+06     2.70193E+06    -224.680E-03     449.115E-03    -224.435E-03     25.4250E-03    -224.799E-03     448.480E-03    -224.378E-03     25.3325E-03
             677     4.31450E-03     117.209E-03    -87.0473E+06    -154.449E+06    -51.9102E+06     3.78335E+06    -224.460E-03     448.930E-03    -224.470E-03     30.8632E-03    -224.604E-03     448.368E-03    -224.380E-03     30.6711E-03
             678     5.03497E-03     117.259E-03    -80.6491E+06    -133.792E+06    -36.7136E+06     4.16091E+06    -224.931E-03     449.439E-03    -224.508E-03     35.6168E-03    -225.101E-03     448.954E-03    -224.381E-03     35.3061E-03
             679     5.75288E-03     117.316E-03    -73.9438E+06    -111.884E+06    -22.2195E+06     4.28323E+06    -225.898E-03     450.513E-03    -224.615E-03     40.5149E-03    -226.098E-03     450.118E-03    -224.456E-03     40.0120E-03
             680     6.46993E-03     117.380E-03    -67.3919E+06    -88.4666E+06    -8.73868E+06     4.58994E+06    -226.032E-03     450.779E-03    -224.747E-03     46.0222E-03    -226.268E-03     450.488E-03    -224.565E-03     45.2462E-03
             681     7.18854E-03     117.451E-03    -61.1142E+06    -61.7200E+06     3.87272E+06     5.64330E+06    -225.455E-03     450.268E-03    -224.813E-03     51.2641E-03    -225.735E-03     450.101E-03    -224.616E-03     50.2317E-03
             682     7.90902E-03     117.532E-03    -54.6026E+06    -30.7044E+06     16.4651E+06     7.63309E+06    -225.690E-03     450.523E-03    -224.833E-03     55.5110E-03    -226.016E-03     450.499E-03    -224.627E-03     54.2603E-03
             683     8.62679E-03     117.615E-03    -47.4004E+06     7.18561E+06     30.2268E+06     9.50460E+06    -226.526E-03     451.406E-03    -224.879E-03     60.0800E-03    -226.920E-03     451.569E-03    -224.670E-03     58.4305E-03
             684     9.34483E-03     117.707E-03    -40.7482E+06     31.2016E+06     42.4135E+06     9.65509E+06    -227.101E-03     452.076E-03    -224.975E-03     65.0031E-03    -227.549E-03     452.367E-03    -224.749E-03     62.8877E-03
             685     10.0630E-03     117.802E-03    -34.8467E+06     43.9652E+06     54.0341E+06     8.02934E+06    -227.032E-03     452.114E-03    -225.082E-03     68.4928E-03    -227.512E-03     452.469E-03    -224.825E-03     66.0454E-03
             686     10.7800E-03     117.902E-03    -29.3396E+06     55.6504E+06     67.3291E+06     5.92586E+06    -226.316E-03     451.473E-03    -225.157E-03     71.1120E-03    -226.842E-03     451.898E-03    -224.858E-03     68.1550E-03
             687     11.5011E-03     118.006E-03    -23.0882E+06     60.5792E+06     80.5526E+06     4.46666E+06    -226.217E-03     451.423E-03    -225.206E-03     73.4869E-03    -226.779E-03     451.884E-03    -224.857E-03     69.9828E-03
             688     12.2198E-03     118.112E-03    -16.6393E+06     66.0175E+06     90.0983E+06     4.01940E+06    -226.842E-03     452.088E-03    -225.246E-03     75.0690E-03    -227.417E-03     452.576E-03    -224.867E-03     71.2659E-03
             689     12.9371E-03     118.217E-03    -10.7629E+06     71.6028E+06     93.9973E+06     3.05228E+06    -227.194E-03     452.476E-03    -225.282E-03     76.2266E-03    -227.774E-03     452.999E-03    -224.900E-03     72.0862E-03
             690     13.6553E-03     118.326E-03    -5.11476E+06     78.2559E+06     94.2146E+06     1.42268E+06    -226.750E-03     452.043E-03    -225.294E-03     73.8655E-03    -227.278E-03     452.559E-03    -224.929E-03     69.9207E-03
             691     721.059E-06     118.559E-03    -107.815E+06    -223.188E+06    -106.771E+06     676.488E+03    -223.826E-03     446.829E-03    -223.004E-03     4.89920E-03    -223.796E-03     446.091E-03    -223.058E-03     5.00389E-03
             692     1.43936E-03     118.570E-03    -105.826E+06    -215.493E+06    -100.716E+06     1.57496E+06    -224.866E-03     448.539E-03    -223.672E-03     10.1877E-03    -224.924E-03     447.752E-03    -223.710E-03     10.2433E-03
             693     2.15718E-03     118.589E-03    -102.760E+06    -204.680E+06    -90.9391E+06     2.27546E+06    -224.670E-03     448.755E-03    -224.086E-03     15.0584E-03    -224.746E-03     448.005E-03    -224.094E-03     15.1132E-03
             694     2.87768E-03     118.616E-03    -98.5362E+06    -191.316E+06      -78.38E+06     2.50085E+06    -224.522E-03     448.766E-03    -224.244E-03     20.5123E-03    -224.620E-03     448.063E-03    -224.215E-03     20.4978E-03
             695     3.59595E-03     118.651E-03    -93.3882E+06    -176.065E+06    -64.7647E+06     2.79473E+06    -224.911E-03     449.268E-03    -224.357E-03     25.7826E-03    -225.031E-03     448.620E-03    -224.290E-03     25.6952E-03
             696     4.31458E-03     118.692E-03    -87.3951E+06    -156.669E+06    -51.2002E+06     3.46956E+06    -225.024E-03     449.493E-03    -224.469E-03     30.7051E-03    -225.167E-03     448.918E-03    -224.371E-03     30.5228E-03
             697     5.03299E-03     118.743E-03    -81.4251E+06    -135.877E+06    -37.4356E+06     4.07717E+06    -224.963E-03     449.510E-03    -224.547E-03     35.6844E-03    -225.133E-03     449.018E-03    -224.419E-03     35.3834E-03
             698     5.75222E-03     118.802E-03    -75.5832E+06    -114.783E+06    -23.5615E+06     4.54611E+06    -225.198E-03     449.806E-03    -224.608E-03     41.0363E-03    -225.400E-03     449.400E-03    -224.450E-03     40.5629E-03
             699     6.47179E-03     118.867E-03    -69.3734E+06    -91.5543E+06    -10.0340E+06     4.87944E+06    -225.536E-03     450.209E-03    -224.673E-03     46.3191E-03    -225.774E-03     449.905E-03    -224.490E-03     45.6039E-03
             700     7.19044E-03     118.938E-03    -62.5743E+06    -65.0714E+06     3.34063E+06     5.34429E+06    -225.707E-03     450.442E-03    -224.735E-03     51.3750E-03    -225.987E-03     450.260E-03    -224.533E-03     50.3551E-03
             701     7.90822E-03     119.016E-03    -55.6463E+06    -34.9099E+06     16.3051E+06     6.40415E+06    -225.735E-03     450.513E-03    -224.778E-03     55.9159E-03    -226.061E-03     450.470E-03    -224.565E-03     54.6520E-03
             702     8.62792E-03     119.103E-03    -48.6280E+06     2.19344E+06     29.4848E+06     7.86117E+06    -226.053E-03     450.862E-03    -224.809E-03     60.2619E-03    -226.440E-03     450.999E-03    -224.594E-03     58.6980E-03
             703     9.34643E-03     119.194E-03    -41.1987E+06     29.6256E+06     41.9858E+06     9.04031E+06    -226.513E-03     451.378E-03    -224.865E-03     64.8926E-03    -226.955E-03     451.657E-03    -224.638E-03     62.8738E-03
             704     10.0644E-03     119.292E-03    -34.4646E+06     46.5584E+06     53.6088E+06     8.71939E+06    -226.673E-03     451.611E-03    -224.938E-03     68.5096E-03    -227.155E-03     451.980E-03    -224.688E-03     66.0603E-03
             705     10.7836E-03     119.390E-03    -28.2207E+06     59.2915E+06     67.6513E+06     7.10724E+06    -226.635E-03     451.656E-03    -225.021E-03     71.3192E-03    -227.158E-03     452.093E-03    -224.728E-03     68.4116E-03
             706     11.5006E-03     119.492E-03    -22.5412E+06     62.9888E+06     81.6080E+06     5.33335E+06    -226.415E-03     451.514E-03    -225.099E-03     73.7311E-03    -226.972E-03     451.978E-03    -224.749E-03     70.3265E-03
             707     12.2199E-03     119.600E-03    -16.5964E+06     67.2516E+06     90.8569E+06     3.84190E+06    -226.334E-03     451.471E-03    -225.137E-03     75.1445E-03    -226.907E-03     451.961E-03    -224.756E-03     71.3853E-03
             708     12.9392E-03     119.706E-03    -10.2340E+06     73.7239E+06     95.1811E+06     2.97388E+06    -226.757E-03     451.910E-03    -225.152E-03     76.6646E-03    -227.340E-03     452.441E-03    -224.768E-03     72.5366E-03
             709     13.6572E-03     119.814E-03    -4.90614E+06     81.0466E+06     95.2056E+06     1.75724E+06    -226.491E-03     451.642E-03    -225.151E-03     73.6156E-03    -227.022E-03     452.167E-03    -224.785E-03     69.7009E-03
             710     719.635E-06     120.040E-03    -109.938E+06    -226.310E+06    -108.305E+06     957.092E+03    -224.222E-03     447.461E-03    -223.240E-03     6.21680E-03    -224.201E-03     446.716E-03    -223.294E-03     6.21306E-03
             711     1.43890E-03     120.054E-03    -107.904E+06    -218.775E+06    -102.156E+06     1.59419E+06    -224.418E-03     448.260E-03    -223.841E-03     10.3932E-03    -224.480E-03     447.462E-03    -223.878E-03     10.4516E-03
             712     2.15821E-03     120.074E-03    -104.387E+06    -207.668E+06    -92.4468E+06     2.32860E+06    -224.501E-03     448.574E-03    -224.073E-03     15.2429E-03    -224.580E-03     447.814E-03    -224.083E-03     15.3235E-03
             713     2.87632E-03     120.099E-03    -99.9720E+06    -193.403E+06    -80.0250E+06     3.06033E+06    -224.492E-03     448.697E-03    -224.204E-03     20.4029E-03    -224.593E-03     447.989E-03    -224.179E-03     20.4476E-03
             714     3.59659E-03     120.136E-03    -94.6522E+06    -177.857E+06    -65.6337E+06     3.26757E+06    -224.838E-03     449.157E-03    -224.319E-03     25.7762E-03    -224.961E-03     448.503E-03    -224.252E-03     25.7451E-03
             715     4.31481E-03     120.179E-03    -88.7712E+06    -159.491E+06    -51.5178E+06     3.35472E+06    -225.194E-03     449.642E-03    -224.448E-03     30.7203E-03    -225.339E-03     449.055E-03    -224.345E-03     30.6215E-03
             716     5.03337E-03     120.228E-03    -82.6151E+06    -138.791E+06    -37.8347E+06     4.15276E+06    -224.978E-03     449.519E-03    -224.541E-03     36.5415E-03    -225.149E-03     449.014E-03    -224.409E-03     36.2886E-03
             717     5.75269E-03     120.286E-03    -76.1003E+06    -116.932E+06    -23.4667E+06     5.11410E+06    -224.876E-03     449.458E-03    -224.583E-03     41.7342E-03    -225.077E-03     449.042E-03    -224.420E-03     41.3107E-03
             718     6.47176E-03     120.352E-03    -69.6517E+06    -93.4533E+06    -9.59466E+06     5.40065E+06    -225.297E-03     449.916E-03    -224.619E-03     46.0096E-03    -225.530E-03     449.598E-03    -224.431E-03     45.4076E-03
             719     7.19041E-03     120.424E-03    -63.4481E+06    -67.5080E+06     3.40064E+06     5.67836E+06    -225.741E-03     450.418E-03    -224.677E-03     50.6489E-03    -226.016E-03     450.219E-03    -224.470E-03     49.7547E-03
             720     7.90948E-03     120.503E-03    -57.1725E+06    -37.6262E+06     16.2685E+06     6.31246E+06    -225.862E-03     450.597E-03    -224.735E-03     55.7346E-03    -226.191E-03     450.542E-03    -224.516E-03     54.5030E-03
             721     8.62755E-03     120.588E-03    -50.5338E+06    -1.20808E+06     29.3807E+06     6.75089E+06    -225.849E-03     450.618E-03    -224.769E-03     60.4576E-03    -226.238E-03     450.738E-03    -224.547E-03     58.9363E-03
             722     9.34649E-03     120.681E-03    -43.9707E+06     26.9087E+06     40.4415E+06     7.19911E+06    -225.962E-03     450.754E-03    -224.792E-03     64.6707E-03    -226.405E-03     451.019E-03    -224.565E-03     62.7391E-03
             723     10.0658E-03     120.778E-03    -37.1058E+06     46.7377E+06     51.4343E+06     7.47858E+06    -226.120E-03     450.946E-03    -224.826E-03     67.6971E-03    -226.608E-03     451.319E-03    -224.583E-03     65.2791E-03
             724     10.7843E-03     120.877E-03    -30.3923E+06     60.7841E+06     65.7746E+06     7.16200E+06    -226.436E-03     451.328E-03    -224.892E-03     70.4893E-03    -226.963E-03     451.772E-03    -224.607E-03     67.6375E-03
             725     11.5034E-03     120.981E-03    -23.7651E+06     65.6175E+06     80.9403E+06     6.06591E+06    -226.409E-03     451.386E-03    -224.977E-03     73.2153E-03    -226.968E-03     451.858E-03    -224.633E-03     69.9051E-03
             726     12.2216E-03     121.085E-03    -17.5651E+06     69.8828E+06     91.2645E+06     4.39149E+06    -226.050E-03     451.069E-03    -225.018E-03     75.7574E-03    -226.634E-03     451.574E-03    -224.638E-03     72.0196E-03
             727     12.9407E-03     121.194E-03    -11.8628E+06     75.2804E+06     95.5438E+06     2.57380E+06    -226.049E-03     451.062E-03    -225.014E-03     77.4958E-03    -226.646E-03     451.608E-03    -224.628E-03     73.3398E-03
             728     13.6598E-03     121.302E-03    -5.61911E+06     83.7914E+06     95.9519E+06     1.05853E+06    -226.204E-03     451.195E-03    -224.991E-03     73.5350E-03    -226.741E-03     451.731E-03    -224.625E-03     69.6284E-03
             729     718.826E-06     121.525E-03    -111.908E+06    -228.910E+06    -110.518E+06     446.286E+03    -223.697E-03     448.197E-03    -224.501E-03     6.92102E-03    -223.685E-03     447.448E-03    -224.559E-03     6.86205E-03
             730     1.43853E-03     121.535E-03    -109.171E+06    -221.802E+06    -103.733E+06     1.13558E+06    -223.975E-03     448.023E-03    -224.048E-03     10.9469E-03    -224.037E-03     447.215E-03    -224.087E-03     10.9888E-03
             731     2.15814E-03     121.558E-03    -105.575E+06    -211.158E+06    -93.8447E+06     2.11425E+06    -224.219E-03     448.290E-03    -224.071E-03     15.2267E-03    -224.297E-03     447.517E-03    -224.081E-03     15.3372E-03
             732     2.87768E-03     121.583E-03    -100.965E+06    -196.774E+06    -81.4623E+06     3.11688E+06    -224.710E-03     448.893E-03    -224.183E-03     20.7423E-03    -224.808E-03     448.171E-03    -224.159E-03     20.8398E-03
             733     3.59528E-03     121.620E-03    -95.7194E+06    -179.704E+06    -67.2670E+06     3.72633E+06    -224.747E-03     449.061E-03    -224.313E-03     26.2411E-03    -224.870E-03     448.400E-03    -224.250E-03     26.2717E-03
             734     4.31492E-03     121.663E-03    -90.1020E+06    -161.501E+06    -52.0351E+06     3.78168E+06    -224.622E-03     449.016E-03    -224.395E-03     31.1091E-03    -224.769E-03     448.421E-03    -224.290E-03     31.0398E-03
             735     5.03430E-03     121.713E-03    -83.7263E+06    -141.497E+06    -37.3088E+06     3.99647E+06    -224.963E-03     449.419E-03    -224.456E-03     36.4444E-03    -225.135E-03     448.900E-03    -224.316E-03     36.2437E-03
             736     5.75313E-03     121.771E-03    -76.6642E+06    -119.462E+06    -23.3483E+06     4.53749E+06    -225.251E-03     449.778E-03    -224.527E-03     41.7023E-03    -225.449E-03     449.347E-03    -224.359E-03     41.3523E-03
             737     6.47167E-03     121.838E-03    -69.6314E+06    -96.1710E+06    -9.57531E+06     5.36254E+06    -225.277E-03     449.865E-03    -224.589E-03     46.5271E-03    -225.506E-03     449.533E-03    -224.396E-03     45.9711E-03
             738     7.19063E-03     121.909E-03    -62.9423E+06    -69.8096E+06     4.00477E+06     6.45751E+06    -225.470E-03     450.105E-03    -224.634E-03     51.4302E-03    -225.739E-03     449.890E-03    -224.422E-03     50.6354E-03
             739     7.90917E-03     121.990E-03    -56.2364E+06    -39.8216E+06     17.3918E+06     7.14156E+06    -225.799E-03     450.479E-03    -224.679E-03     56.1644E-03    -226.117E-03     450.405E-03    -224.453E-03     55.0462E-03
             740     8.62844E-03     122.074E-03    -50.1615E+06    -3.46710E+06     30.2069E+06     7.54829E+06    -225.773E-03     450.483E-03    -224.710E-03     60.8218E-03    -226.157E-03     450.589E-03    -224.481E-03     59.3262E-03
             741     9.34741E-03     122.167E-03    -43.8533E+06     27.5944E+06     41.8660E+06     6.90705E+06    -225.742E-03     450.466E-03    -224.724E-03     65.3542E-03    -226.189E-03     450.734E-03    -224.491E-03     63.4030E-03
             742     10.0660E-03     122.264E-03    -37.0462E+06     45.3311E+06     53.0623E+06     6.12641E+06    -225.942E-03     450.693E-03    -224.751E-03     68.4498E-03    -226.433E-03     451.060E-03    -224.497E-03     65.9917E-03
             743     10.7848E-03     122.365E-03    -30.4248E+06     59.0775E+06     66.5892E+06     6.83533E+06    -226.018E-03     450.815E-03    -224.797E-03     71.3411E-03    -226.551E-03     451.256E-03    -224.506E-03     68.4433E-03
             744     11.5036E-03     122.467E-03    -24.2287E+06     68.0803E+06     80.6972E+06     6.53889E+06    -226.007E-03     450.857E-03    -224.850E-03     73.1900E-03    -226.571E-03     451.343E-03    -224.511E-03     69.9038E-03
             745     12.2235E-03     122.572E-03    -17.9262E+06     72.7329E+06     91.2165E+06     4.73281E+06    -225.754E-03     450.634E-03    -224.880E-03     75.2177E-03    -226.341E-03     451.152E-03    -224.504E-03     71.5023E-03
             746     12.9426E-03     122.680E-03    -10.9619E+06     79.9448E+06     97.6086E+06     2.27928E+06    -225.589E-03     450.458E-03    -224.869E-03     77.7399E-03    -226.199E-03     451.030E-03    -224.481E-03     73.5036E-03
             747     13.6624E-03     122.787E-03    -5.41374E+06     86.3979E+06     97.2713E+06     284.401E+03    -226.142E-03     450.983E-03    -224.841E-03     74.1686E-03    -226.690E-03     451.536E-03    -224.472E-03     70.1854E-03
             748     719.742E-06     123.003E-03    -112.802E+06    -230.498E+06    -111.027E+06      186.78E+03    -223.045E-03     448.024E-03    -224.979E-03     6.15957E-03    -223.033E-03     447.270E-03    -225.036E-03     6.17001E-03
             749     1.43864E-03     123.023E-03    -111.081E+06    -224.772E+06    -105.544E+06     991.776E+03    -224.050E-03     448.037E-03    -223.987E-03     11.7813E-03    -224.116E-03     447.222E-03    -224.028E-03     11.7866E-03
             750     2.15770E-03     123.037E-03    -107.703E+06    -214.170E+06    -95.8695E+06     1.67078E+06    -224.366E-03     448.432E-03    -224.066E-03     15.7666E-03    -224.448E-03     447.651E-03    -224.079E-03     15.8731E-03
             751     2.87686E-03     123.070E-03    -103.002E+06    -200.477E+06    -83.2176E+06     2.48891E+06    -224.549E-03     448.733E-03    -224.184E-03     21.0648E-03    -224.650E-03     447.999E-03    -224.160E-03     21.1628E-03
             752     3.59650E-03     123.104E-03    -97.0915E+06    -182.437E+06    -68.3219E+06     3.41672E+06    -224.483E-03     448.756E-03    -224.273E-03     25.9259E-03    -224.606E-03     448.085E-03    -224.210E-03     26.0069E-03
             753     4.31561E-03     123.147E-03    -90.3536E+06    -162.476E+06    -52.5018E+06     3.46011E+06    -224.528E-03     448.857E-03    -224.329E-03     31.1745E-03    -224.674E-03     448.258E-03    -224.225E-03     31.1365E-03
             754     5.03463E-03     123.197E-03    -83.3291E+06    -143.082E+06    -37.2115E+06     3.17082E+06    -224.987E-03     449.382E-03    -224.396E-03     36.5751E-03    -225.154E-03     448.854E-03    -224.254E-03     36.4106E-03
             755     5.75299E-03     123.258E-03    -76.1103E+06    -121.988E+06    -22.9908E+06     3.53906E+06    -225.162E-03     449.634E-03    -224.472E-03     41.7362E-03    -225.353E-03     449.189E-03    -224.300E-03     41.4227E-03
             756     6.47233E-03     123.322E-03    -68.8807E+06    -99.1508E+06    -9.28488E+06     4.53642E+06    -225.073E-03     449.596E-03    -224.523E-03     46.7902E-03    -225.294E-03     449.248E-03    -224.326E-03     46.2388E-03
             757     7.19170E-03     123.396E-03    -61.5532E+06    -73.2150E+06     4.34735E+06     5.71470E+06    -225.220E-03     449.770E-03    -224.551E-03     51.9697E-03    -225.477E-03     449.536E-03    -224.333E-03     51.1746E-03
             758     7.91078E-03     123.475E-03    -54.4124E+06    -43.6900E+06     17.6861E+06     6.83810E+06    -225.559E-03     450.136E-03    -224.577E-03     56.9396E-03    -225.864E-03     450.041E-03    -224.347E-03     55.8263E-03
             759     8.62905E-03     123.561E-03    -47.2750E+06    -5.85962E+06     31.7056E+06     8.04997E+06    -225.740E-03     450.344E-03    -224.604E-03     61.2161E-03    -226.110E-03     450.433E-03    -224.368E-03     59.7114E-03
             760     9.34834E-03     123.652E-03    -40.6940E+06     29.6085E+06     44.9747E+06     8.05851E+06    -225.511E-03     450.127E-03    -224.616E-03     65.7453E-03    -225.953E-03     450.399E-03    -224.375E-03     63.7733E-03
             761     10.0677E-03     123.752E-03    -34.9820E+06     44.1277E+06     55.8058E+06     7.28596E+06    -225.268E-03     449.889E-03    -224.621E-03     69.5394E-03    -225.754E-03     450.245E-03    -224.355E-03     67.0946E-03
             762     10.7871E-03     123.849E-03    -29.4548E+06     56.9222E+06     67.3107E+06     7.20235E+06    -225.511E-03     450.136E-03    -224.625E-03     73.1715E-03    -226.047E-03     450.574E-03    -224.328E-03     70.2108E-03
             763     11.5064E-03     123.955E-03    -22.6995E+06     70.6495E+06     81.0070E+06     6.49564E+06    -225.897E-03     450.551E-03    -224.654E-03     75.4160E-03    -226.475E-03     451.064E-03    -224.318E-03     71.9887E-03
             764     12.2244E-03     124.057E-03    -15.4948E+06     76.2449E+06     92.6710E+06     4.52681E+06    -226.131E-03     450.831E-03    -224.700E-03     76.4885E-03    -226.725E-03     451.372E-03    -224.325E-03     72.6736E-03
             765     12.9449E-03     124.164E-03    -9.50734E+06     84.4422E+06     99.3210E+06     2.60251E+06    -226.204E-03     450.930E-03    -224.726E-03     77.6734E-03    -226.815E-03     451.519E-03    -224.338E-03     73.4313E-03
             766     13.6636E-03     124.275E-03    -4.36179E+06     89.0646E+06     99.3538E+06     1.17436E+06    -226.039E-03     450.763E-03    -224.725E-03     73.9744E-03    -226.589E-03     451.327E-03    -224.351E-03     69.9831E-03
             767     718.928E-06     124.489E-03    -111.490E+06    -233.002E+06    -109.581E+06     1.25482E+06    -223.769E-03     448.310E-03    -224.542E-03     4.76478E-03    -223.743E-03     447.543E-03    -224.590E-03     4.88241E-03
             768     1.43938E-03     124.502E-03    -108.756E+06    -226.128E+06    -102.351E+06     855.212E+03    -223.945E-03     448.034E-03    -224.089E-03     11.0846E-03    -224.002E-03     447.204E-03    -224.116E-03     11.1259E-03
             769     2.15844E-03     124.525E-03    -104.601E+06    -216.659E+06    -92.2673E+06     1.16865E+06    -224.451E-03     448.578E-03    -224.126E-03     15.9363E-03    -224.519E-03     447.774E-03    -224.122E-03     16.0377E-03
             770     2.87689E-03     124.551E-03    -99.9154E+06    -204.198E+06    -80.0180E+06     2.24953E+06    -224.457E-03     448.689E-03    -224.232E-03     20.8036E-03    -224.541E-03     447.926E-03    -224.191E-03     20.9150E-03
             771     3.59610E-03     124.589E-03    -94.5824E+06    -184.369E+06    -67.3496E+06     2.53201E+06    -224.317E-03     448.591E-03    -224.274E-03     25.6417E-03    -224.426E-03     447.905E-03    -224.206E-03     25.7162E-03
             772     4.31537E-03     124.630E-03    -88.4200E+06    -162.826E+06    -53.4750E+06     2.29040E+06    -224.676E-03     448.990E-03    -224.314E-03     31.0029E-03    -224.810E-03     448.386E-03    -224.217E-03     31.0025E-03
             773     5.03432E-03     124.683E-03    -81.9465E+06    -144.429E+06    -37.8989E+06     2.52028E+06    -224.787E-03     449.169E-03    -224.382E-03     36.4940E-03    -224.944E-03     448.632E-03    -224.244E-03     36.3554E-03
             774     5.75400E-03     124.741E-03    -75.6347E+06    -124.368E+06    -23.0492E+06     3.04427E+06    -224.757E-03     449.185E-03    -224.428E-03     41.4038E-03    -224.940E-03     448.725E-03    -224.254E-03     41.1203E-03
             775     6.47295E-03     124.807E-03    -69.0118E+06    -102.155E+06    -9.51324E+06     3.71451E+06    -224.892E-03     449.344E-03    -224.452E-03     46.5823E-03    -225.106E-03     448.978E-03    -224.251E-03     46.0938E-03
             776     7.19178E-03     124.879E-03    -62.1328E+06    -76.3950E+06     3.45687E+06     4.46483E+06    -225.075E-03     449.543E-03    -224.468E-03     51.8600E-03    -225.328E-03     449.294E-03    -224.250E-03     51.0687E-03
             777     7.91134E-03     124.960E-03    -55.1883E+06    -47.4282E+06     16.7149E+06     5.60851E+06    -225.210E-03     449.692E-03    -224.481E-03     56.6270E-03    -225.511E-03     449.579E-03    -224.249E-03     55.5202E-03
             778     8.63104E-03     125.047E-03    -48.3157E+06    -10.6407E+06     30.4650E+06     7.26642E+06    -225.327E-03     449.812E-03    -224.485E-03     61.0359E-03    -225.691E-03     449.879E-03    -224.248E-03     59.5692E-03
             779     9.34941E-03     125.138E-03    -42.0645E+06     27.8454E+06     43.8152E+06     9.04493E+06    -225.200E-03     449.677E-03    -224.476E-03     65.3253E-03    -225.641E-03     449.940E-03    -224.237E-03     63.4191E-03
             780     10.0697E-03     125.234E-03    -36.2302E+06     44.9422E+06     54.3732E+06     9.17165E+06    -224.953E-03     449.418E-03    -224.465E-03     68.4687E-03    -225.435E-03     449.773E-03    -224.206E-03     66.1578E-03
             781     10.7901E-03     125.335E-03    -29.8637E+06     57.6286E+06     66.0175E+06     7.56646E+06    -225.056E-03     449.513E-03    -224.457E-03     71.5104E-03    -225.578E-03     449.942E-03    -224.167E-03     68.7070E-03
             782     11.5096E-03     125.440E-03    -23.5717E+06     73.4939E+06     80.2580E+06     5.54367E+06    -225.420E-03     449.892E-03    -224.473E-03     73.4267E-03    -225.988E-03     450.405E-03    -224.144E-03     70.1324E-03
             783     12.2301E-03     125.544E-03    -17.2816E+06     79.2995E+06     92.5384E+06     3.82677E+06    -226.421E-03     450.953E-03    -224.532E-03     75.3868E-03    -227.016E-03     451.500E-03    -224.159E-03     71.6605E-03
             784     12.9456E-03     125.653E-03    -11.0821E+06     86.4622E+06     100.641E+06     3.07928E+06    -226.998E-03     451.606E-03    -224.609E-03     76.8332E-03    -227.612E-03     452.197E-03    -224.215E-03     72.6469E-03
             785     13.6644E-03     125.759E-03    -5.18031E+06     91.7903E+06     100.996E+06     2.14056E+06    -225.699E-03     450.327E-03    -224.628E-03     73.2564E-03    -226.259E-03     450.902E-03    -224.249E-03     69.2630E-03
             786     718.965E-06     125.973E-03    -107.756E+06    -235.844E+06    -107.522E+06     548.283E+03    -225.116E-03     449.203E-03    -224.087E-03     3.98002E-03    -225.063E-03     448.418E-03    -224.127E-03     4.13724E-03
             787     1.43729E-03     125.985E-03    -106.193E+06    -226.384E+06    -101.661E+06      578.16E+03    -224.231E-03     448.720E-03    -224.490E-03     10.5514E-03    -224.275E-03     447.883E-03    -224.516E-03     10.6442E-03
             788     2.15734E-03     126.008E-03    -103.452E+06    -219.792E+06    -91.8358E+06     1.23261E+06    -223.980E-03     448.360E-03    -224.380E-03     15.6529E-03    -224.038E-03     447.538E-03    -224.370E-03     15.7770E-03
             789     2.87674E-03     126.037E-03    -98.9916E+06    -206.590E+06    -80.8097E+06     1.77976E+06    -224.023E-03     448.317E-03    -224.294E-03     20.4423E-03    -224.097E-03     447.542E-03    -224.255E-03     20.5883E-03
             790     3.59624E-03     126.070E-03    -93.6847E+06    -184.708E+06    -68.5075E+06     1.82460E+06    -224.317E-03     448.584E-03    -224.267E-03     26.3250E-03    -224.420E-03     447.898E-03    -224.206E-03     26.3680E-03
             791     4.31525E-03     126.116E-03    -88.6740E+06    -164.444E+06    -54.4772E+06     2.40739E+06    -224.609E-03     448.911E-03    -224.302E-03     31.8051E-03    -224.740E-03     448.302E-03    -224.208E-03     31.7857E-03
             792     5.03436E-03     126.166E-03    -83.4127E+06    -146.261E+06    -39.5035E+06     2.99026E+06    -224.727E-03     449.087E-03    -224.360E-03     36.7986E-03    -224.886E-03     448.545E-03    -224.225E-03     36.6666E-03
             793     5.75340E-03     126.226E-03    -77.3133E+06    -125.898E+06    -24.3580E+06     3.28069E+06    -224.725E-03     449.129E-03    -224.404E-03     41.2936E-03    -224.913E-03     448.666E-03    -224.231E-03     41.0244E-03
             794     6.47311E-03     126.290E-03    -70.8556E+06    -104.471E+06    -10.2246E+06     3.58257E+06    -224.797E-03     449.226E-03    -224.429E-03     46.0345E-03    -225.014E-03     448.850E-03    -224.226E-03     45.6189E-03
             795     7.19289E-03     126.365E-03    -64.3706E+06    -78.7974E+06     2.55889E+06     4.07774E+06    -224.994E-03     449.435E-03    -224.441E-03     51.2934E-03    -225.250E-03     449.175E-03    -224.220E-03     50.5698E-03
             796     7.91150E-03     126.444E-03    -57.9132E+06    -50.6371E+06     14.9580E+06     4.88758E+06    -225.006E-03     449.451E-03    -224.444E-03     55.8946E-03    -225.309E-03     449.324E-03    -224.212E-03     54.8494E-03
             797     8.63075E-03     126.531E-03    -51.3886E+06    -16.9773E+06     27.5162E+06     6.74975E+06    -224.799E-03     449.223E-03    -224.424E-03     60.0349E-03    -225.159E-03     449.260E-03    -224.187E-03     58.6630E-03
             798     9.35159E-03     126.622E-03    -44.4473E+06     23.1548E+06     41.0119E+06     8.89377E+06    -224.922E-03     449.311E-03    -224.389E-03     63.9691E-03    -225.355E-03     449.549E-03    -224.153E-03     62.1871E-03
             799     10.0700E-03     126.719E-03    -37.5280E+06     46.2441E+06     52.7617E+06     9.14311E+06    -225.268E-03     449.651E-03    -224.384E-03     67.2384E-03    -225.746E-03     450.008E-03    -224.133E-03     65.0377E-03
             800     10.7886E-03     126.818E-03    -31.2570E+06     60.5112E+06     65.2263E+06     7.56284E+06    -225.159E-03     449.560E-03    -224.401E-03     70.2981E-03    -225.681E-03     449.997E-03    -224.117E-03     67.5939E-03
             801     11.5087E-03     126.924E-03    -24.8772E+06     76.4539E+06     81.5334E+06     5.87534E+06    -225.121E-03     449.548E-03    -224.427E-03     72.7026E-03    -225.697E-03     450.071E-03    -224.094E-03     69.4608E-03
             802     12.2268E-03     127.029E-03    -18.6969E+06     81.9516E+06     94.1293E+06     4.45871E+06    -225.748E-03     450.212E-03    -224.465E-03     75.6420E-03    -226.357E-03     450.773E-03    -224.086E-03     71.9382E-03
             803     12.9481E-03     127.142E-03    -12.2725E+06     88.4015E+06     101.690E+06     2.86626E+06    -225.975E-03     450.470E-03    -224.496E-03     77.1806E-03    -226.600E-03     451.071E-03    -224.098E-03     73.0217E-03
             804     13.6658E-03     127.246E-03    -5.66825E+06     94.4164E+06     101.752E+06     1.41052E+06    -225.185E-03     449.663E-03    -224.477E-03     73.3392E-03    -225.750E-03     450.247E-03    -224.097E-03     69.3740E-03
             805     718.727E-06     127.458E-03    -112.178E+06    -239.013E+06    -111.173E+06     1.18036E+06    -224.929E-03     449.073E-03    -224.143E-03     5.16618E-03    -224.880E-03     448.286E-03    -224.190E-03     5.22660E-03
             806     1.43798E-03     127.470E-03    -111.899E+06    -228.884E+06    -106.545E+06     2.13964E+06    -224.893E-03     449.454E-03    -224.561E-03     11.0020E-03    -224.953E-03     448.618E-03    -224.600E-03     11.0932E-03
             807     2.15623E-03     127.491E-03    -109.499E+06    -221.226E+06    -97.2942E+06     2.00769E+06    -223.742E-03     448.273E-03    -224.530E-03     15.6880E-03    -223.820E-03     447.460E-03    -224.537E-03     15.8268E-03
             808     2.87701E-03     127.518E-03    -105.368E+06    -205.986E+06    -86.0630E+06     731.534E+03    -223.643E-03     447.971E-03    -224.327E-03     21.0915E-03    -223.743E-03     447.216E-03    -224.306E-03     21.2104E-03
             809     3.59632E-03     127.556E-03    -99.9477E+06    -186.644E+06    -72.1022E+06     906.917E+03    -224.177E-03     448.426E-03    -224.249E-03     26.3431E-03    -224.302E-03     447.743E-03    -224.194E-03     26.4238E-03
             810     4.31584E-03     127.598E-03    -93.4953E+06    -168.061E+06    -55.8006E+06     2.38820E+06    -224.418E-03     448.692E-03    -224.274E-03     31.7939E-03    -224.566E-03     448.073E-03    -224.173E-03     31.8040E-03
             811     5.03506E-03     127.652E-03    -86.5941E+06    -147.352E+06    -40.1834E+06     2.91136E+06    -224.775E-03     449.099E-03    -224.324E-03     36.8311E-03    -224.946E-03     448.556E-03    -224.185E-03     36.7393E-03
             812     5.75408E-03     127.709E-03    -79.5193E+06    -126.955E+06    -25.5259E+06     2.94103E+06    -224.978E-03     449.366E-03    -224.388E-03     41.1673E-03    -225.172E-03     448.901E-03    -224.216E-03     40.9471E-03
             813     6.47277E-03     127.776E-03    -72.5028E+06    -106.460E+06    -11.3689E+06     3.50532E+06    -225.003E-03     449.445E-03    -224.442E-03     45.9726E-03    -225.223E-03     449.063E-03    -224.239E-03     45.5779E-03
             814     7.19152E-03     127.848E-03    -65.7252E+06    -81.1374E+06     2.03846E+06     4.21649E+06    -224.927E-03     449.391E-03    -224.464E-03     50.9957E-03    -225.184E-03     449.120E-03    -224.241E-03     50.3291E-03
             815     7.91156E-03     127.930E-03    -59.0550E+06    -53.8582E+06     14.4590E+06     5.11436E+06    -224.659E-03     449.109E-03    -224.450E-03     55.4370E-03    -224.959E-03     448.966E-03    -224.214E-03     54.4439E-03
             816     8.63126E-03     128.014E-03    -52.3780E+06    -22.2285E+06     26.6667E+06     6.36202E+06    -224.633E-03     449.041E-03    -224.408E-03     60.1120E-03    -224.990E-03     449.056E-03    -224.167E-03     58.7409E-03
             817     9.34989E-03     128.107E-03    -45.4890E+06     18.9164E+06     40.3547E+06     7.43761E+06    -224.800E-03     449.163E-03    -224.362E-03     64.3485E-03    -225.231E-03     449.382E-03    -224.122E-03     62.5553E-03
             818     10.0705E-03     128.203E-03    -38.6095E+06     45.4176E+06     52.3678E+06     8.28324E+06    -224.942E-03     449.281E-03    -224.339E-03     67.8651E-03    -225.426E-03     449.638E-03    -224.087E-03     65.6379E-03
             819     10.7902E-03     128.304E-03    -31.7705E+06     63.2238E+06     65.6822E+06     7.88721E+06    -224.987E-03     449.325E-03    -224.338E-03     71.3947E-03    -225.522E-03     449.781E-03    -224.055E-03     68.6523E-03
             820     11.5096E-03     128.406E-03    -25.2749E+06     79.0330E+06     82.3903E+06     6.34738E+06    -224.936E-03     449.290E-03    -224.354E-03     74.8359E-03    -225.533E-03     449.839E-03    -224.020E-03     71.5076E-03
             821     12.2307E-03     128.516E-03    -18.6220E+06     84.2473E+06     95.3709E+06     4.94300E+06    -225.071E-03     449.438E-03    -224.367E-03     78.0140E-03    -225.702E-03     450.026E-03    -223.985E-03     74.1949E-03
             822     12.9486E-03     128.625E-03    -11.8618E+06     92.3728E+06     103.361E+06     2.57321E+06    -224.756E-03     449.104E-03    -224.348E-03     77.6747E-03    -225.395E-03     449.729E-03    -223.948E-03     73.4770E-03
             823     13.6712E-03     128.731E-03    -5.97822E+06     96.9743E+06     102.971E+06     447.064E+03    -225.080E-03     449.383E-03    -224.303E-03     73.0742E-03    -225.656E-03     449.983E-03    -223.920E-03     69.0715E-03
             824     721.043E-06     128.944E-03    -120.789E+06    -244.343E+06    -119.265E+06     1.45763E+06    -224.520E-03     448.396E-03    -223.875E-03     7.46302E-03    -224.482E-03     447.609E-03    -223.942E-03     7.37506E-03
             825     1.43736E-03     128.957E-03    -117.410E+06    -232.860E+06    -110.191E+06     2.64205E+06    -224.651E-03     448.903E-03    -224.252E-03     10.6806E-03    -224.726E-03     448.059E-03    -224.295E-03     10.7979E-03
             826     2.15755E-03     128.973E-03    -112.113E+06    -219.381E+06    -97.6163E+06     1.50371E+06    -224.266E-03     448.630E-03    -224.364E-03     15.5722E-03    -224.359E-03     447.831E-03    -224.371E-03     15.7217E-03
             827     2.87656E-03     129.001E-03    -106.112E+06    -204.447E+06    -82.8907E+06     355.274E+03    -224.233E-03     448.599E-03    -224.365E-03     21.2227E-03    -224.343E-03     447.847E-03    -224.329E-03     21.3229E-03
             828     3.59611E-03     129.039E-03    -100.050E+06    -189.698E+06    -68.4074E+06     656.365E+03    -224.217E-03     448.580E-03    -224.364E-03     25.6233E-03    -224.341E-03     447.875E-03    -224.285E-03     25.7666E-03
             829     4.31539E-03     129.082E-03    -93.4641E+06    -170.887E+06    -54.6048E+06     1.39966E+06    -224.264E-03     448.618E-03    -224.354E-03     30.9674E-03    -224.409E-03     447.983E-03    -224.244E-03     31.0336E-03
             830     5.03473E-03     129.136E-03    -86.4356E+06    -148.667E+06    -40.2966E+06     2.07011E+06    -224.512E-03     448.869E-03    -224.357E-03     36.5256E-03    -224.678E-03     448.317E-03    -224.218E-03     36.4583E-03
             831     5.75360E-03     129.194E-03    -79.8706E+06    -129.340E+06    -25.9362E+06     2.98203E+06    -224.791E-03     449.180E-03    -224.389E-03     41.0367E-03    -224.980E-03     448.702E-03    -224.216E-03     40.8718E-03
             832     6.47290E-03     129.260E-03    -73.6208E+06    -108.166E+06    -12.1785E+06     3.66442E+06    -224.880E-03     449.303E-03    -224.423E-03     46.5632E-03    -225.102E-03     448.915E-03    -224.220E-03     46.1563E-03
             833     7.19221E-03     129.333E-03    -66.8551E+06    -83.1921E+06     1.55698E+06     3.98263E+06    -224.830E-03     449.265E-03    -224.435E-03     51.9588E-03    -225.091E-03     448.989E-03    -224.210E-03     51.2449E-03
             834     7.91122E-03     129.412E-03    -59.7487E+06    -56.9872E+06     14.6325E+06     4.75049E+06    -224.591E-03     449.009E-03    -224.418E-03     55.9637E-03    -224.892E-03     448.853E-03    -224.175E-03     54.9575E-03
             835     8.63149E-03     129.497E-03    -52.6639E+06    -25.4755E+06     27.3878E+06     5.65524E+06    -224.443E-03     448.812E-03    -224.369E-03     60.7224E-03    -224.801E-03     448.813E-03    -224.119E-03     59.3126E-03
             836     9.35205E-03     129.591E-03    -45.9213E+06     14.6651E+06     40.6109E+06     7.08453E+06    -224.447E-03     448.750E-03    -224.303E-03     65.2712E-03    -224.878E-03     448.952E-03    -224.055E-03     63.4347E-03
             837     10.0709E-03     129.686E-03    -39.2979E+06     44.4023E+06     51.8137E+06     7.71006E+06    -224.364E-03     448.604E-03    -224.240E-03     68.8036E-03    -224.855E-03     448.963E-03    -223.988E-03     66.5366E-03
             838     10.7914E-03     129.788E-03    -32.2506E+06     64.8863E+06     63.6557E+06     6.71867E+06    -224.583E-03     448.782E-03    -224.199E-03     72.1331E-03    -225.124E-03     449.254E-03    -223.928E-03     69.3641E-03
             839     11.5117E-03     129.891E-03    -24.8852E+06     80.4455E+06     79.1107E+06     5.79910E+06    -224.789E-03     448.986E-03    -224.197E-03     74.6421E-03    -225.376E-03     449.542E-03    -223.882E-03     71.3725E-03
             840     12.2307E-03     129.998E-03    -17.7159E+06     87.7957E+06     94.1895E+06     4.04741E+06    -224.481E-03     448.685E-03    -224.204E-03     77.7081E-03    -225.112E-03     449.292E-03    -223.835E-03     73.8876E-03
             841     12.9526E-03     130.110E-03    -10.9200E+06     96.0588E+06     104.732E+06     2.21711E+06    -224.677E-03     448.864E-03    -224.187E-03     77.5979E-03    -225.323E-03     449.509E-03    -223.787E-03     73.3306E-03
             842     13.6706E-03     130.211E-03    -4.74539E+06     99.0573E+06     105.157E+06     1.31078E+06    -225.493E-03     449.659E-03    -224.165E-03     73.8217E-03    -226.081E-03     450.276E-03    -223.776E-03     69.7225E-03
             843     717.351E-06     130.427E-03    -117.003E+06    -248.235E+06    -115.760E+06    -182.307E+03    -224.884E-03     448.238E-03    -223.354E-03     7.08166E-03    -224.816E-03     447.424E-03    -223.403E-03     7.02532E-03
             844     1.44001E-03     130.439E-03    -113.915E+06    -235.378E+06    -109.800E+06     530.469E+03    -223.920E-03     447.941E-03    -224.021E-03     10.4531E-03    -223.973E-03     447.078E-03    -224.064E-03     10.5569E-03
             845     2.15801E-03     130.458E-03    -110.679E+06    -218.383E+06    -99.0765E+06     866.166E+03    -224.900E-03     449.032E-03    -224.132E-03     15.7255E-03    -224.985E-03     448.238E-03    -224.150E-03     15.8577E-03
             846     2.87619E-03     130.486E-03    -106.867E+06    -205.452E+06    -84.0340E+06     1.55246E+06    -225.010E-03     449.387E-03    -224.378E-03     21.0694E-03    -225.119E-03     448.633E-03    -224.345E-03     21.2030E-03
             847     3.59500E-03     130.522E-03    -101.895E+06    -190.684E+06    -69.0152E+06     1.70175E+06    -224.510E-03     449.003E-03    -224.492E-03     25.7236E-03    -224.641E-03     448.295E-03    -224.413E-03     25.9052E-03
             848     4.31438E-03     130.566E-03    -95.8903E+06    -171.235E+06    -55.2498E+06     931.406E+03    -224.218E-03     448.703E-03    -224.485E-03     31.0177E-03    -224.372E-03     448.069E-03    -224.374E-03     31.1178E-03
             849     5.03404E-03     130.619E-03    -89.3053E+06    -151.702E+06    -41.6416E+06     1.49323E+06    -224.134E-03     448.577E-03    -224.442E-03     36.7776E-03    -224.309E-03     448.016E-03    -224.301E-03     36.7038E-03
             850     5.75405E-03     130.679E-03    -82.2535E+06    -132.063E+06    -27.0208E+06     2.82627E+06    -224.243E-03     448.650E-03    -224.407E-03     41.1522E-03    -224.439E-03     448.163E-03    -224.231E-03     40.9847E-03
             851     6.47341E-03     130.744E-03    -74.4316E+06    -108.773E+06    -12.1842E+06     2.95125E+06    -224.326E-03     448.703E-03    -224.378E-03     46.3862E-03    -224.551E-03     448.314E-03    -224.173E-03     45.9817E-03
             852     7.19319E-03     130.817E-03    -66.6808E+06    -85.0285E+06     1.51055E+06     3.01931E+06    -224.520E-03     448.871E-03    -224.351E-03     51.9220E-03    -224.777E-03     448.585E-03    -224.124E-03     51.1965E-03
             853     7.91303E-03     130.897E-03    -59.3286E+06    -59.9634E+06     14.3304E+06     3.73229E+06    -224.740E-03     449.074E-03    -224.334E-03     55.7748E-03    -225.032E-03     448.900E-03    -224.089E-03     54.7986E-03
             854     8.63201E-03     130.981E-03    -52.1398E+06    -28.7528E+06     27.1921E+06     4.88814E+06    -224.411E-03     448.709E-03    -224.298E-03     60.2550E-03    -224.755E-03     448.688E-03    -224.045E-03     58.9149E-03
             855     9.35187E-03     131.073E-03    -44.8376E+06     9.97891E+06     40.6440E+06     6.42938E+06    -224.005E-03     448.228E-03    -224.223E-03     64.8155E-03    -224.419E-03     448.401E-03    -223.969E-03     63.0551E-03
             856     10.0734E-03     131.170E-03    -37.1328E+06     45.3420E+06     52.6031E+06     6.50091E+06    -224.140E-03     448.277E-03    -224.137E-03     67.9675E-03    -224.614E-03     448.628E-03    -223.886E-03     65.7914E-03
             857     10.7934E-03     131.270E-03    -29.9164E+06     65.8976E+06     64.0485E+06     5.52890E+06    -224.370E-03     448.457E-03    -224.087E-03     71.4388E-03    -224.895E-03     448.924E-03    -223.819E-03     68.7216E-03
             858     11.5128E-03     131.376E-03    -23.3017E+06     80.1591E+06     78.9174E+06     5.10469E+06    -224.367E-03     448.441E-03    -224.074E-03     74.1508E-03    -224.944E-03     448.991E-03    -223.762E-03     70.8884E-03
             859     12.2336E-03     131.481E-03    -16.8306E+06     92.0476E+06     95.2618E+06     4.10667E+06    -224.263E-03     448.334E-03    -224.071E-03     76.8324E-03    -224.887E-03     448.950E-03    -223.704E-03     73.0951E-03
             860     12.9536E-03     131.591E-03    -11.0773E+06     97.9722E+06     105.922E+06     3.11426E+06    -224.697E-03     448.759E-03    -224.062E-03     77.9927E-03    -225.347E-03     449.410E-03    -223.659E-03     73.7794E-03
             861     13.6736E-03     131.702E-03    -5.48506E+06     100.813E+06     104.818E+06     1.92263E+06    -225.171E-03     449.202E-03    -224.031E-03     74.5059E-03    -225.770E-03     449.836E-03    -223.645E-03     70.3749E-03
             862     720.478E-06     131.909E-03    -118.343E+06    -246.909E+06    -116.854E+06    -504.937E+03    -224.286E-03     447.763E-03    -223.477E-03     6.53707E-03    -224.219E-03     446.967E-03    -223.531E-03     6.57973E-03
             863     1.43815E-03     131.920E-03    -116.643E+06    -236.469E+06    -112.270E+06    -867.785E+03    -224.486E-03     448.427E-03    -223.942E-03     10.6702E-03    -224.547E-03     447.566E-03    -223.991E-03     10.7714E-03
             864     2.15815E-03     131.944E-03    -113.917E+06    -222.326E+06    -103.428E+06     1.14483E+06    -224.886E-03     449.081E-03    -224.195E-03     15.7021E-03    -224.975E-03     448.278E-03    -224.225E-03     15.8508E-03
             865     2.87661E-03     131.971E-03    -109.410E+06    -207.344E+06     -89.045E+06     2.45591E+06    -225.049E-03     449.468E-03    -224.419E-03     20.3436E-03    -225.161E-03     448.715E-03    -224.405E-03     20.5585E-03
             866     3.59534E-03     132.007E-03    -102.843E+06    -188.853E+06    -71.4689E+06     1.35954E+06    -224.642E-03     449.187E-03    -224.545E-03     25.3932E-03    -224.777E-03     448.494E-03    -224.479E-03     25.6103E-03
             867     4.31438E-03     132.050E-03    -95.2521E+06    -171.049E+06    -53.4223E+06     678.971E+03    -224.307E-03     448.874E-03    -224.568E-03     31.0452E-03    -224.459E-03     448.237E-03    -224.449E-03     31.1624E-03
             868     5.03389E-03     132.102E-03    -87.7409E+06    -155.112E+06    -37.9703E+06     1.40821E+06    -224.161E-03     448.697E-03    -224.536E-03     36.5576E-03    -224.327E-03     448.111E-03    -224.373E-03     36.5135E-03
             869     5.75332E-03     132.162E-03    -80.1422E+06    -133.255E+06    -24.8798E+06     1.67044E+06    -223.955E-03     448.419E-03    -224.465E-03     40.6180E-03    -224.140E-03     447.919E-03    -224.279E-03     40.4882E-03
             870     6.47352E-03     132.227E-03    -72.7439E+06    -108.848E+06    -11.9779E+06     1.47635E+06    -223.970E-03     448.355E-03    -224.385E-03     45.5369E-03    -224.184E-03     447.959E-03    -224.182E-03     45.1986E-03
             871     7.19337E-03     132.300E-03    -65.5308E+06    -87.1194E+06     1.24286E+06     1.90750E+06    -224.066E-03     448.386E-03    -224.320E-03     51.1423E-03    -224.310E-03     448.085E-03    -224.093E-03     50.4818E-03
             872     7.91280E-03     132.381E-03    -58.2900E+06    -62.1669E+06     14.2575E+06     2.58715E+06    -224.315E-03     448.582E-03    -224.267E-03     55.6842E-03    -224.596E-03     448.394E-03    -224.021E-03     54.7379E-03
             873     8.63272E-03     132.464E-03    -50.9927E+06    -32.7213E+06     27.0290E+06     3.66938E+06    -224.454E-03     448.677E-03    -224.223E-03     59.6826E-03    -224.782E-03     448.629E-03    -223.966E-03     58.4206E-03
             874     9.35326E-03     132.554E-03    -43.8177E+06     5.66930E+06     40.9221E+06     5.28228E+06    -224.139E-03     448.303E-03    -224.163E-03     64.3305E-03    -224.538E-03     448.447E-03    -223.903E-03     62.6258E-03
             875     10.0725E-03     132.653E-03    -37.7255E+06     45.7766E+06     54.0667E+06     6.08393E+06    -224.035E-03     448.121E-03    -224.085E-03     67.9664E-03    -224.515E-03     448.472E-03    -223.826E-03     65.7988E-03
             876     10.7926E-03     132.753E-03    -32.0645E+06     66.9857E+06     65.3503E+06     5.43999E+06    -224.100E-03     448.128E-03    -224.028E-03     71.1521E-03    -224.637E-03     448.600E-03    -223.752E-03     68.4610E-03
             877     11.5141E-03     132.857E-03    -25.7898E+06     80.0120E+06     79.3698E+06      4.6573E+06    -224.107E-03     448.110E-03    -224.003E-03     73.3750E-03    -224.689E-03     448.655E-03    -223.685E-03     70.1686E-03
             878     12.2345E-03     132.963E-03    -19.4196E+06     93.5500E+06     94.8355E+06     4.29047E+06    -224.354E-03     448.351E-03    -223.997E-03     75.4025E-03    -224.978E-03     448.963E-03    -223.630E-03     71.7925E-03
             879     12.9542E-03     133.075E-03    -12.6209E+06     100.437E+06     105.415E+06     3.08596E+06    -224.163E-03     448.144E-03    -223.980E-03     77.2759E-03    -224.821E-03     448.807E-03    -223.581E-03     73.0851E-03
             880     13.6749E-03     133.183E-03    -6.16756E+06     103.800E+06     105.867E+06     1.56931E+06    -224.102E-03     448.021E-03    -223.919E-03     74.5375E-03    -224.716E-03     448.675E-03    -223.531E-03     70.3713E-03
             881     720.333E-06     133.393E-03    -119.427E+06    -244.128E+06    -117.449E+06    -528.556E+03    -224.807E-03     448.407E-03    -223.599E-03     6.18519E-03    -224.744E-03     447.635E-03    -223.660E-03     6.25142E-03
             882     1.43882E-03     133.405E-03    -116.457E+06    -237.058E+06    -108.784E+06    -487.758E+03    -224.888E-03     449.191E-03    -224.303E-03     10.2247E-03    -224.953E-03     448.322E-03    -224.335E-03     10.3901E-03
             883     2.15654E-03     133.427E-03    -111.990E+06    -227.554E+06    -97.6173E+06     752.188E+03    -224.750E-03     449.266E-03    -224.516E-03     15.8498E-03    -224.830E-03     448.426E-03    -224.512E-03     16.0179E-03
             884     2.87578E-03     133.457E-03    -106.427E+06    -208.148E+06    -85.9717E+06     1.30260E+06    -224.482E-03     449.039E-03    -224.558E-03     20.2590E-03    -224.581E-03     448.272E-03    -224.531E-03     20.5030E-03
             885     3.59459E-03     133.491E-03    -100.859E+06    -186.477E+06    -71.2127E+06     815.174E+03    -224.508E-03     449.070E-03    -224.562E-03     25.4257E-03    -224.636E-03     448.385E-03    -224.502E-03     25.6515E-03
             886     4.31423E-03     133.533E-03    -95.0244E+06    -171.676E+06    -54.2838E+06     516.942E+03    -224.597E-03     449.189E-03    -224.592E-03     31.0109E-03    -224.747E-03     448.550E-03    -224.477E-03     31.1369E-03
             887     5.03322E-03     133.586E-03    -87.8807E+06    -156.080E+06    -38.8064E+06     254.676E+03    -224.212E-03     448.795E-03    -224.583E-03     36.1843E-03    -224.376E-03     448.206E-03    -224.423E-03     36.1723E-03
             888     5.75303E-03     133.644E-03    -80.2004E+06    -133.875E+06    -24.8584E+06     265.333E+03    -223.952E-03     448.465E-03    -224.513E-03     40.9259E-03    -224.138E-03     447.962E-03    -224.327E-03     40.7818E-03
             889     6.47275E-03     133.710E-03    -72.9945E+06    -109.724E+06    -11.7431E+06     821.625E+03    -224.048E-03     448.481E-03    -224.433E-03     45.6130E-03    -224.261E-03     448.079E-03    -224.226E-03     45.2972E-03
             890     7.19267E-03     133.783E-03    -66.1671E+06    -88.6272E+06     1.14210E+06     1.21019E+06    -223.751E-03     448.105E-03    -224.354E-03     50.3308E-03    -223.992E-03     447.793E-03    -224.124E-03     49.7617E-03
             891     7.91391E-03     133.862E-03    -59.4718E+06    -64.1894E+06     14.0658E+06     1.87601E+06    -223.633E-03     447.889E-03    -224.256E-03     55.3631E-03    -223.916E-03     447.692E-03    -224.006E-03     54.4655E-03
             892     8.63391E-03     133.949E-03    -52.8131E+06    -35.2448E+06     26.8406E+06     2.47278E+06    -224.015E-03     448.184E-03    -224.168E-03     59.2928E-03    -224.345E-03     448.123E-03    -223.907E-03     58.0683E-03
             893     9.35283E-03     134.037E-03    -45.7191E+06     577.507E+03     39.8874E+06     3.78171E+06    -224.133E-03     448.230E-03    -224.097E-03     64.1801E-03    -224.531E-03     448.352E-03    -223.832E-03     62.4860E-03
             894     10.0742E-03     134.135E-03    -38.2989E+06     41.8083E+06     53.1975E+06     6.47258E+06    -223.983E-03     448.001E-03    -224.018E-03     68.5479E-03    -224.461E-03     448.337E-03    -223.757E-03     66.3735E-03
             895     10.7949E-03     134.235E-03    -32.0588E+06     68.8689E+06     65.4439E+06     7.31686E+06    -224.057E-03     448.013E-03    -223.957E-03     71.3028E-03    -224.594E-03     448.492E-03    -223.683E-03     68.6865E-03
             896     11.5142E-03     134.340E-03    -26.7200E+06     82.1393E+06     78.6580E+06     5.66998E+06    -224.204E-03     448.137E-03    -223.933E-03     73.8305E-03    -224.790E-03     448.692E-03    -223.620E-03     70.6956E-03
             897     12.2339E-03     134.446E-03    -20.1351E+06     94.7780E+06     93.4119E+06     3.97353E+06    -224.071E-03     447.991E-03    -223.920E-03     76.5541E-03    -224.703E-03     448.617E-03    -223.562E-03     72.9333E-03
             898     12.9548E-03     134.556E-03    -12.9689E+06     103.857E+06     105.085E+06     2.18628E+06    -223.814E-03     447.703E-03    -223.889E-03     78.1299E-03    -224.484E-03     448.392E-03    -223.496E-03     73.9058E-03
             899     13.6760E-03     134.663E-03    -6.29953E+06     106.271E+06     107.203E+06     430.045E+03    -224.035E-03     447.864E-03    -223.829E-03     75.2899E-03    -224.666E-03     448.540E-03    -223.438E-03     71.0322E-03
             900     716.836E-06     134.876E-03    -121.783E+06    -242.545E+06    -119.830E+06    -417.240E+03    -225.272E-03     449.905E-03    -224.633E-03     5.66749E-03    -225.216E-03     449.153E-03    -224.704E-03     5.74964E-03
             901     1.43718E-03     134.890E-03    -119.114E+06    -237.423E+06    -111.753E+06    -283.705E+03    -224.679E-03     449.537E-03    -224.858E-03     10.7810E-03    -224.752E-03     448.673E-03    -224.900E-03     10.9189E-03
             902     2.15661E-03     134.913E-03    -114.551E+06    -229.116E+06    -100.346E+06    -394.678E+03    -224.319E-03     449.087E-03    -224.768E-03     15.5140E-03    -224.406E-03     448.247E-03    -224.772E-03     15.7141E-03
             903     2.87569E-03     134.940E-03    -109.097E+06    -210.017E+06    -87.4531E+06     438.382E+03    -223.924E-03     448.549E-03    -224.625E-03     20.4896E-03    -224.032E-03     447.779E-03    -224.600E-03     20.7346E-03
             904     3.59606E-03     134.975E-03    -103.573E+06    -187.428E+06    -73.6611E+06     1.75455E+06    -224.321E-03     448.851E-03    -224.529E-03     26.0883E-03    -224.459E-03     448.169E-03    -224.476E-03     26.3062E-03
             905     4.31402E-03     135.020E-03    -97.9801E+06    -170.790E+06    -58.0645E+06     1.64290E+06    -224.613E-03     449.152E-03    -224.538E-03     31.3896E-03    -224.774E-03     448.527E-03    -224.439E-03     31.5339E-03
             906     5.03336E-03     135.069E-03    -92.2010E+06    -154.066E+06    -41.9337E+06     307.426E+03    -224.217E-03     448.759E-03    -224.541E-03     36.1251E-03    -224.400E-03     448.189E-03    -224.394E-03     36.1639E-03
             907     5.75350E-03     135.127E-03    -85.4300E+06    -133.215E+06    -26.4027E+06    -927.347E+03    -224.029E-03     448.521E-03    -224.492E-03     41.4612E-03    -224.240E-03     448.033E-03    -224.307E-03     41.3039E-03
             908     6.47290E-03     135.194E-03    -77.3908E+06    -111.468E+06    -12.3566E+06    -1.00842E+06    -224.017E-03     448.441E-03    -224.425E-03     46.2100E-03    -224.250E-03     448.040E-03    -224.213E-03     45.8578E-03
             909     7.19262E-03     135.265E-03    -69.2629E+06    -90.4464E+06     628.924E+03     92.9811E+03    -223.841E-03     448.189E-03    -224.348E-03     50.7440E-03    -224.094E-03     447.874E-03    -224.114E-03     50.1660E-03
             910     7.91229E-03     135.343E-03    -61.4371E+06    -65.4848E+06     13.5129E+06     632.675E+03    -223.556E-03     447.805E-03    -224.249E-03     55.6790E-03    -223.845E-03     447.605E-03    -223.997E-03     54.7740E-03
             911     8.63339E-03     135.430E-03    -53.6447E+06    -37.4819E+06     26.2519E+06     1.33199E+06    -223.562E-03     447.702E-03    -224.140E-03     59.5107E-03    -223.892E-03     447.632E-03    -223.877E-03     58.2904E-03
             912     9.35509E-03     135.520E-03    -46.5111E+06    -3.75246E+06     38.8477E+06     2.64037E+06    -223.876E-03     447.920E-03    -224.044E-03     63.3819E-03    -224.262E-03     448.015E-03    -223.777E-03     61.7952E-03
             913     10.0744E-03     135.616E-03    -39.3736E+06     35.3241E+06     51.5397E+06     4.32615E+06    -223.739E-03     447.692E-03    -223.953E-03     67.5940E-03    -224.200E-03     447.989E-03    -223.690E-03     65.5440E-03
             914     10.7944E-03     135.717E-03    -31.5844E+06     65.9310E+06     64.5153E+06     7.09761E+06    -223.607E-03     447.477E-03    -223.870E-03     71.6053E-03    -224.132E-03     447.937E-03    -223.597E-03     69.0611E-03
             915     11.5156E-03     135.822E-03    -24.5718E+06     86.2075E+06     80.1645E+06     7.48122E+06    -223.873E-03     447.697E-03    -223.824E-03     74.8260E-03    -224.460E-03     448.271E-03    -223.513E-03     71.7053E-03
             916     12.2371E-03     135.928E-03    -18.7536E+06     99.4963E+06     94.9062E+06     4.33696E+06    -224.211E-03     448.021E-03    -223.810E-03     76.6294E-03    -224.854E-03     448.676E-03    -223.453E-03     72.9013E-03
             917     12.9579E-03     136.037E-03    -12.1556E+06     108.183E+06     106.658E+06     1.25121E+06    -224.217E-03     448.022E-03    -223.805E-03     76.7863E-03    -224.894E-03     448.730E-03    -223.411E-03     72.4759E-03
             918     13.6775E-03     136.147E-03    -5.52775E+06     108.254E+06     106.840E+06    -129.471E+03    -224.114E-03     447.874E-03    -223.759E-03     74.8329E-03    -224.745E-03     448.559E-03    -223.374E-03     70.5491E-03
             919     720.424E-06     136.362E-03    -125.571E+06    -243.225E+06    -123.076E+06     917.376E+03    -224.370E-03     449.729E-03    -225.359E-03     7.31708E-03    -224.345E-03     448.984E-03    -225.440E-03     7.29485E-03
             920     1.43681E-03     136.377E-03    -123.566E+06    -237.084E+06    -116.319E+06     744.180E+03    -224.937E-03     449.774E-03    -224.838E-03     11.6489E-03    -225.028E-03     448.929E-03    -224.896E-03     11.7365E-03
             921     2.15570E-03     136.396E-03    -120.168E+06    -227.916E+06    -104.893E+06    -162.369E+03    -224.036E-03     448.806E-03    -224.770E-03     15.6448E-03    -224.147E-03     447.987E-03    -224.790E-03     15.8485E-03
             922     2.87614E-03     136.423E-03    -114.540E+06    -210.972E+06    -91.1247E+06    -980.525E+03    -224.087E-03     448.699E-03    -224.612E-03     20.6071E-03    -224.218E-03     447.939E-03    -224.595E-03     20.8312E-03
             923     3.59467E-03     136.459E-03    -106.798E+06    -190.815E+06    -75.3037E+06    -215.615E+03    -224.166E-03     448.702E-03    -224.536E-03     25.7672E-03    -224.313E-03     448.011E-03    -224.481E-03     25.9945E-03
             924     4.31513E-03     136.504E-03    -98.3973E+06    -170.710E+06    -57.2959E+06     1.01185E+06    -224.015E-03     448.503E-03    -224.489E-03     30.8897E-03    -224.177E-03     447.876E-03    -224.385E-03     31.0899E-03
             925     5.03444E-03     136.553E-03    -89.8290E+06    -150.641E+06    -38.9804E+06     274.459E+03    -224.138E-03     448.588E-03    -224.451E-03     35.8942E-03    -224.316E-03     448.027E-03    -224.297E-03     35.9947E-03
             926     5.75325E-03     136.610E-03    -81.6354E+06    -130.940E+06    -22.6789E+06    -1.15013E+06    -223.995E-03     448.404E-03    -224.409E-03     41.6812E-03    -224.196E-03     447.916E-03    -224.214E-03     41.5554E-03
             927     6.47358E-03     136.676E-03    -74.5102E+06    -112.378E+06    -9.49664E+06    -1.39719E+06    -223.763E-03     448.098E-03    -224.336E-03     46.6185E-03    -223.984E-03     447.684E-03    -224.112E-03     46.2767E-03
             928     7.19401E-03     136.747E-03    -67.1858E+06    -91.2857E+06     2.23151E+06    -1.55452E+06    -223.833E-03     448.080E-03    -224.247E-03     51.3228E-03    -224.078E-03     447.757E-03    -224.006E-03     50.7241E-03
             929     7.91414E-03     136.827E-03    -59.0339E+06    -65.6782E+06     14.1853E+06    -1.73228E+06    -223.821E-03     447.981E-03    -224.160E-03     56.2980E-03    -224.100E-03     447.776E-03    -223.908E-03     55.3650E-03
             930     8.63431E-03     136.910E-03    -51.0863E+06    -41.1959E+06     26.1539E+06    -670.834E+03    -223.864E-03     447.942E-03    -224.079E-03     60.5228E-03    -224.177E-03     447.853E-03    -223.814E-03     59.2631E-03
             931     9.35339E-03     137.003E-03    -43.4153E+06    -7.72722E+06     39.2460E+06     1.48221E+06    -223.717E-03     447.709E-03    -223.992E-03     63.8492E-03    -224.082E-03     447.778E-03    -223.721E-03     62.2721E-03
             932     10.0747E-03     137.097E-03    -36.9278E+06     28.5585E+06     52.8935E+06     4.59364E+06    -223.416E-03     447.311E-03    -223.895E-03     67.9130E-03    -223.858E-03     447.570E-03    -223.618E-03     65.8733E-03
             933     10.7968E-03     137.198E-03    -31.6895E+06     60.8231E+06     63.3437E+06     6.73492E+06    -223.326E-03     447.109E-03    -223.783E-03     71.5260E-03    -223.844E-03     447.547E-03    -223.509E-03     68.9540E-03
             934     11.5179E-03     137.302E-03    -24.8971E+06     89.3354E+06     77.1238E+06     6.12391E+06    -223.667E-03     447.375E-03    -223.708E-03     74.2807E-03    -224.255E-03     447.968E-03    -223.416E-03     71.1519E-03
             935     12.2371E-03     137.412E-03    -16.7353E+06     104.323E+06     94.4627E+06     4.66930E+06    -224.416E-03     448.123E-03    -223.708E-03     76.5579E-03    -225.053E-03     448.798E-03    -223.362E-03     72.8611E-03
             936     12.9554E-03     137.520E-03    -10.2248E+06     113.123E+06     107.816E+06     2.43761E+06    -224.334E-03     448.057E-03    -223.723E-03     77.1959E-03    -225.005E-03     448.781E-03    -223.333E-03     72.9631E-03
             937     13.6764E-03     137.627E-03    -4.81681E+06     110.385E+06     108.909E+06     285.135E+03    -223.609E-03     447.288E-03    -223.679E-03     76.1183E-03    -224.238E-03     447.977E-03    -223.288E-03     71.9634E-03
             938     718.491E-06     137.848E-03    -126.270E+06    -246.772E+06    -124.530E+06     1.24735E+06    -224.423E-03     448.943E-03    -224.519E-03     8.40062E-03    -224.420E-03     448.170E-03    -224.601E-03     8.28505E-03
             939     1.43806E-03     137.864E-03    -122.448E+06    -236.648E+06    -114.023E+06     1.06810E+06    -224.737E-03     449.241E-03    -224.504E-03     10.7383E-03    -224.830E-03     448.395E-03    -224.554E-03     10.8965E-03
             940     2.15764E-03     137.878E-03    -116.426E+06    -224.663E+06    -99.7259E+06    -384.151E+03    -224.518E-03     449.111E-03    -224.593E-03     15.1465E-03    -224.622E-03     448.295E-03    -224.597E-03     15.4088E-03
             941     2.87572E-03     137.909E-03    -109.964E+06    -208.381E+06    -84.9902E+06    -2.06264E+06    -224.384E-03     448.975E-03    -224.591E-03     20.9362E-03    -224.505E-03     448.213E-03    -224.555E-03     21.1632E-03
             942     3.59510E-03     137.942E-03    -103.390E+06    -192.726E+06    -70.2426E+06    -2.40544E+06    -224.132E-03     448.686E-03    -224.554E-03     25.8583E-03    -224.267E-03     447.973E-03    -224.476E-03     26.0874E-03
             943     4.31430E-03     137.986E-03    -95.8445E+06    -171.950E+06    -55.6688E+06    -1.88224E+06    -223.727E-03     448.190E-03    -224.464E-03     30.6533E-03    -223.877E-03     447.551E-03    -224.354E-03     30.8648E-03
             944     5.03462E-03     138.036E-03    -88.2058E+06    -148.828E+06    -40.4510E+06    -1.50133E+06    -223.575E-03     447.927E-03    -224.351E-03     35.7444E-03    -223.746E-03     447.373E-03    -224.210E-03     35.8778E-03
             945     5.75492E-03     138.094E-03    -81.3669E+06    -130.773E+06    -24.3524E+06    -827.072E+03    -223.642E-03     447.907E-03    -224.265E-03     41.2900E-03    -223.836E-03     447.419E-03    -224.079E-03     41.2562E-03
             946     6.47487E-03     138.157E-03    -74.3588E+06    -111.068E+06    -9.67299E+06    -1.01268E+06    -223.711E-03     447.901E-03    -224.189E-03     46.5001E-03    -223.931E-03     447.490E-03    -223.969E-03     46.2418E-03
             947     7.19453E-03     138.231E-03    -67.2122E+06    -88.6513E+06     2.78100E+06    -2.50642E+06    -223.642E-03     447.748E-03    -224.106E-03     50.8787E-03    -223.887E-03     447.433E-03    -223.866E-03     50.3794E-03
             948     7.91508E-03     138.306E-03    -60.7524E+06    -66.2124E+06     13.4135E+06    -2.95600E+06    -223.700E-03     447.719E-03    -224.019E-03     56.1198E-03    -223.982E-03     447.511E-03    -223.768E-03     55.2670E-03
             949     8.63493E-03     138.395E-03    -54.4335E+06    -43.8025E+06     24.1278E+06    -2.24905E+06    -223.837E-03     447.778E-03    -223.941E-03     61.2354E-03    -224.161E-03     447.683E-03    -223.678E-03     59.9724E-03
             950     9.35617E-03     138.483E-03    -47.8711E+06    -13.1048E+06     35.9215E+06    -616.129E+03    -223.657E-03     447.516E-03    -223.859E-03     64.5699E-03    -224.034E-03     447.572E-03    -223.591E-03     62.9551E-03
             951     10.0769E-03     138.578E-03    -40.0052E+06     19.8077E+06     48.8049E+06     2.72623E+06    -223.629E-03     447.404E-03    -223.774E-03     68.2447E-03    -224.066E-03     447.627E-03    -223.501E-03     66.2023E-03
             952     10.7962E-03     138.679E-03    -30.9821E+06     57.6301E+06     61.8991E+06     5.41498E+06    -223.652E-03     447.339E-03    -223.687E-03     71.5593E-03    -224.155E-03     447.757E-03    -223.416E-03     69.0478E-03
             953     11.5167E-03     138.783E-03    -23.7884E+06     92.9235E+06     75.2427E+06     4.68544E+06    -223.483E-03     447.090E-03    -223.607E-03     75.1635E-03    -224.064E-03     447.698E-03    -223.331E-03     72.1141E-03
             954     12.2386E-03     138.894E-03    -17.6239E+06     106.512E+06     90.8278E+06     2.61926E+06    -223.501E-03     447.071E-03    -223.571E-03     78.4466E-03    -224.135E-03     447.758E-03    -223.245E-03     74.8736E-03
             955     12.9609E-03     139.003E-03    -10.6748E+06     115.535E+06     107.849E+06     2.54505E+06    -223.721E-03     447.282E-03    -223.562E-03     78.6901E-03    -224.399E-03     448.020E-03    -223.174E-03     74.5277E-03
             956     13.6813E-03     139.108E-03    -5.40806E+06     113.282E+06     110.726E+06     2.48681E+06    -223.845E-03     447.366E-03    -223.521E-03     76.7140E-03    -224.493E-03     448.076E-03    -223.124E-03     72.5048E-03
             957     719.327E-06     139.334E-03    -123.334E+06    -248.853E+06    -121.873E+06    -332.275E+03    -223.681E-03     449.033E-03    -225.351E-03     6.02601E-03    -223.679E-03     448.221E-03    -225.421E-03     6.10930E-03
             958     1.43865E-03     139.345E-03    -120.823E+06    -236.102E+06    -115.943E+06    -365.759E+03    -224.142E-03     448.547E-03    -224.405E-03     10.4527E-03    -224.226E-03     447.705E-03    -224.467E-03     10.6522E-03
             959     2.15633E-03     139.366E-03    -117.562E+06    -220.564E+06    -104.503E+06    -1.28884E+06    -224.557E-03     448.944E-03    -224.387E-03     15.0421E-03    -224.666E-03     448.157E-03    -224.419E-03     15.3384E-03
             960     2.87609E-03     139.391E-03    -112.644E+06    -205.774E+06    -88.4440E+06    -1.83863E+06    -224.177E-03     448.604E-03    -224.427E-03     21.0656E-03    -224.310E-03     447.863E-03    -224.407E-03     21.3276E-03
             961     3.59568E-03     139.428E-03    -106.275E+06    -190.244E+06    -72.4578E+06    -2.92575E+06    -223.899E-03     448.282E-03    -224.383E-03     26.4281E-03    -224.048E-03     447.588E-03    -224.315E-03     26.6627E-03
             962     4.31510E-03     139.469E-03    -99.3460E+06    -172.075E+06    -58.2876E+06    -3.65156E+06    -223.729E-03     448.030E-03    -224.301E-03     31.3423E-03    -223.893E-03     447.399E-03    -224.199E-03     31.5460E-03
             963     5.03492E-03     139.518E-03    -92.4607E+06    -150.830E+06    -44.4683E+06    -2.28592E+06    -223.557E-03     447.763E-03    -224.206E-03     36.3359E-03    -223.740E-03     447.211E-03    -224.076E-03     36.4895E-03
             964     5.75534E-03     139.575E-03    -84.6869E+06    -130.047E+06    -28.8806E+06    -2.08632E+06    -223.533E-03     447.655E-03    -224.123E-03     40.8040E-03    -223.734E-03     447.179E-03    -223.956E-03     40.8625E-03
             965     6.47536E-03     139.641E-03    -75.9143E+06    -108.163E+06    -12.5965E+06    -3.41473E+06    -223.348E-03     447.387E-03    -224.040E-03     46.0068E-03    -223.571E-03     446.994E-03    -223.836E-03     45.8287E-03
             966     7.19590E-03     139.712E-03    -67.4438E+06    -87.6094E+06     2.45799E+06    -3.31491E+06    -223.306E-03     447.255E-03    -223.949E-03     51.1334E-03    -223.552E-03     446.943E-03    -223.712E-03     50.6903E-03
             967     7.91611E-03     139.789E-03    -59.9170E+06    -66.7997E+06     14.9146E+06    -2.53518E+06    -223.373E-03     447.226E-03    -223.853E-03     56.6887E-03    -223.651E-03     447.011E-03    -223.595E-03     55.8860E-03
             968     8.63724E-03     139.875E-03    -53.0856E+06    -44.6767E+06     25.3544E+06    -2.09549E+06    -223.315E-03     447.066E-03    -223.751E-03     61.6249E-03    -223.630E-03     446.960E-03    -223.482E-03     60.4312E-03
             969     9.35735E-03     139.964E-03    -46.5437E+06    -17.9798E+06     35.5621E+06    -617.521E+03    -223.582E-03     447.236E-03    -223.655E-03     65.2905E-03    -223.941E-03     447.263E-03    -223.383E-03     63.7555E-03
             970     10.0771E-03     140.060E-03    -40.6423E+06     14.5131E+06     46.3202E+06     799.212E+03    -223.823E-03     447.400E-03    -223.576E-03     69.5958E-03    -224.249E-03     447.598E-03    -223.307E-03     67.6137E-03
             971     10.7990E-03     140.160E-03    -34.2815E+06     56.2994E+06     58.8594E+06     686.959E+03    -223.669E-03     447.168E-03    -223.498E-03     73.4444E-03    -224.181E-03     447.587E-03    -223.236E-03     70.9563E-03
             972     11.5200E-03     140.265E-03    -26.0254E+06     92.7407E+06     75.4064E+06     1.62237E+06    -223.479E-03     446.916E-03    -223.438E-03     76.6931E-03    -224.073E-03     447.530E-03    -223.158E-03     73.6240E-03
             973     12.2410E-03     140.371E-03    -18.8206E+06     107.034E+06     90.8478E+06     2.98159E+06    -223.504E-03     446.910E-03    -223.406E-03     78.6959E-03    -224.151E-03     447.607E-03    -223.080E-03     75.0645E-03
             974     12.9615E-03     140.484E-03    -13.4150E+06     114.640E+06     103.677E+06     2.75405E+06    -223.686E-03     447.077E-03    -223.391E-03     77.3764E-03    -224.368E-03     447.817E-03    -223.019E-03     73.2096E-03
             975     13.6820E-03     140.590E-03    -6.40510E+06     114.903E+06     107.056E+06     2.38864E+06    -223.765E-03     447.122E-03    -223.357E-03     75.0996E-03    -224.412E-03     447.844E-03    -222.979E-03     70.8697E-03
             976     717.583E-06     140.814E-03    -127.335E+06    -246.794E+06    -125.824E+06    -1.00223E+06    -223.573E-03     448.830E-03    -225.257E-03     5.81183E-03    -223.607E-03     448.026E-03    -225.344E-03     5.95634E-03
             977     1.43785E-03     140.830E-03    -125.544E+06    -235.674E+06    -120.856E+06    -972.177E+03    -223.656E-03     447.889E-03    -224.233E-03     11.3211E-03    -223.760E-03     447.065E-03    -224.313E-03     11.4778E-03
             978     2.15847E-03     140.849E-03    -122.307E+06    -217.931E+06    -110.228E+06    -873.248E+03    -223.749E-03     447.795E-03    -224.047E-03     16.2044E-03    -223.878E-03     447.038E-03    -224.104E-03     16.4669E-03
             979     2.87713E-03     140.875E-03    -117.007E+06    -201.604E+06    -94.5968E+06    -2.71959E+06    -223.992E-03     448.017E-03    -224.025E-03     21.6877E-03    -224.144E-03     447.313E-03    -224.036E-03     21.9499E-03
             980     3.59671E-03     140.910E-03    -109.909E+06    -185.958E+06    -76.6071E+06    -4.42937E+06    -223.662E-03     447.687E-03    -224.025E-03     26.7568E-03    -223.829E-03     447.026E-03    -223.979E-03     27.0166E-03
             981     4.31703E-03     140.951E-03    -101.965E+06    -171.345E+06    -58.3077E+06    -4.66855E+06    -223.571E-03     447.564E-03    -223.992E-03     31.6483E-03    -223.748E-03     446.939E-03    -223.888E-03     31.8945E-03
             982     5.03677E-03     141.001E-03    -92.9501E+06    -151.001E+06    -42.9262E+06    -5.18631E+06    -223.822E-03     447.775E-03    -223.953E-03     37.1312E-03    -224.010E-03     447.221E-03    -223.814E-03     37.2717E-03
             983     5.75564E-03     141.058E-03    -83.3461E+06    -126.852E+06    -28.7306E+06    -6.12245E+06    -223.638E-03     447.547E-03    -223.909E-03     41.8665E-03    -223.839E-03     447.085E-03    -223.748E-03     41.8880E-03
             984     6.47621E-03     141.121E-03    -74.8816E+06    -107.164E+06    -13.8390E+06    -6.00909E+06    -223.105E-03     446.941E-03    -223.836E-03     46.5307E-03    -223.321E-03     446.551E-03    -223.641E-03     46.3813E-03
             985     7.19744E-03     141.192E-03    -67.4799E+06    -89.3961E+06     366.055E+03    -4.85182E+06    -222.925E-03     446.657E-03    -223.733E-03     51.6743E-03    -223.163E-03     446.337E-03    -223.503E-03     51.2786E-03
             986     7.91823E-03     141.270E-03    -60.0390E+06    -67.3668E+06     13.4092E+06    -3.89594E+06    -223.095E-03     446.720E-03    -223.625E-03     56.7304E-03    -223.365E-03     446.499E-03    -223.373E-03     56.0293E-03
             987     8.63887E-03     141.354E-03    -52.5691E+06    -46.0818E+06     24.7398E+06    -2.92777E+06    -223.026E-03     446.547E-03    -223.521E-03     61.3295E-03    -223.327E-03     446.426E-03    -223.255E-03     60.2863E-03
             988     9.36050E-03     141.446E-03    -45.3413E+06    -21.2723E+06     34.9951E+06    -1.85304E+06    -223.054E-03     446.465E-03    -223.412E-03     65.7144E-03    -223.395E-03     446.469E-03    -223.140E-03     64.2820E-03
             989     10.0822E-03     141.540E-03    -37.5841E+06     11.6773E+06     46.5791E+06    -253.247E+03    -223.471E-03     446.788E-03    -223.317E-03     69.9411E-03    -223.873E-03     446.962E-03    -223.046E-03     68.0394E-03
             990     10.8017E-03     141.641E-03    -30.9481E+06     57.3505E+06     59.0964E+06     846.060E+03    -223.665E-03     446.901E-03    -223.236E-03     73.2676E-03    -224.157E-03     447.315E-03    -222.978E-03     70.8511E-03
             991     11.5226E-03     141.744E-03    -26.0989E+06     89.2216E+06     72.9636E+06     1.07685E+06    -223.878E-03     447.079E-03    -223.201E-03     76.5411E-03    -224.459E-03     447.672E-03    -222.927E-03     73.5295E-03
             992     12.2428E-03     141.855E-03    -20.0648E+06     102.346E+06     88.2260E+06     3.21588E+06    -224.275E-03     447.493E-03    -223.218E-03     79.2500E-03    -224.913E-03     448.167E-03    -222.896E-03     75.6983E-03
             993     12.9628E-03     141.964E-03    -12.9049E+06     116.682E+06     101.122E+06     3.71753E+06    -224.275E-03     447.510E-03    -223.235E-03     78.7098E-03    -224.951E-03     448.261E-03    -222.880E-03     74.6195E-03
             994     13.6836E-03     142.071E-03    -5.71021E+06     117.677E+06     104.901E+06     429.524E+03    -223.766E-03     446.987E-03    -223.222E-03     75.3440E-03    -224.405E-03     447.720E-03    -222.859E-03     71.1682E-03
             995     720.932E-06     142.302E-03    -131.207E+06    -242.194E+06    -129.367E+06    -1.24722E+06    -223.882E-03     447.075E-03    -223.193E-03     6.51418E-03    -223.957E-03     446.299E-03    -223.298E-03     6.62110E-03
             996     1.43881E-03     142.311E-03    -127.805E+06    -234.685E+06    -119.782E+06    -1.86253E+06    -223.528E-03     447.068E-03    -223.540E-03     11.2236E-03    -223.650E-03     446.254E-03    -223.614E-03     11.4029E-03
             997     2.15892E-03     142.330E-03    -122.415E+06    -215.711E+06    -108.914E+06    -2.27057E+06    -223.195E-03     446.692E-03    -223.497E-03     17.0614E-03    -223.331E-03     445.945E-03    -223.551E-03     17.2850E-03
             998     2.87923E-03     142.359E-03    -116.657E+06    -194.870E+06    -94.0288E+06    -3.72301E+06    -223.613E-03     447.096E-03    -223.483E-03     21.9926E-03    -223.773E-03     446.424E-03    -223.502E-03     22.2836E-03
             999     3.59850E-03     142.391E-03    -110.617E+06    -182.488E+06    -76.0186E+06    -5.12489E+06    -223.633E-03     447.187E-03    -223.555E-03     26.7254E-03    -223.809E-03     446.544E-03    -223.510E-03     27.0587E-03
            1000     4.31822E-03     142.433E-03    -103.313E+06    -167.657E+06    -59.8111E+06    -6.52944E+06    -223.448E-03     447.028E-03    -223.580E-03     32.1038E-03    -223.634E-03     446.425E-03    -223.486E-03     32.3934E-03
            1001     5.03808E-03     142.483E-03    -95.5437E+06    -146.465E+06    -44.6611E+06    -8.23239E+06    -223.243E-03     446.792E-03    -223.549E-03     37.8729E-03    -223.446E-03     446.266E-03    -223.422E-03     38.0266E-03
            1002     5.75905E-03     142.540E-03    -88.5672E+06    -125.100E+06    -30.9097E+06    -8.56497E+06    -223.238E-03     446.734E-03    -223.496E-03     43.1014E-03    -223.463E-03     446.291E-03    -223.341E-03     43.1222E-03
            1003     6.47891E-03     142.602E-03    -81.4682E+06    -107.352E+06    -18.3003E+06    -7.91010E+06    -223.366E-03     446.817E-03    -223.451E-03     47.6963E-03    -223.607E-03     446.441E-03    -223.269E-03     47.5873E-03
            1004     7.19897E-03     142.672E-03    -73.3554E+06    -89.5318E+06    -5.44127E+06    -7.70785E+06    -223.174E-03     446.575E-03    -223.401E-03     52.5409E-03    -223.429E-03     446.268E-03    -223.192E-03     52.2096E-03
            1005     7.92022E-03     142.750E-03    -64.9836E+06    -68.5061E+06     7.44198E+06    -7.08715E+06    -223.014E-03     446.342E-03    -223.328E-03     57.3886E-03    -223.294E-03     446.126E-03    -223.097E-03     56.7642E-03
            1006     8.64094E-03     142.835E-03    -57.0422E+06    -48.1796E+06     19.3624E+06    -5.83748E+06    -223.037E-03     446.284E-03    -223.247E-03     61.4190E-03    -223.342E-03     446.160E-03    -222.998E-03     60.4752E-03
            1007     9.36198E-03     142.923E-03    -49.3614E+06    -22.8151E+06     31.1683E+06    -4.75697E+06    -223.002E-03     446.165E-03    -223.162E-03     65.3944E-03    -223.348E-03     446.164E-03    -222.902E-03     64.0554E-03
            1008     10.0828E-03     143.021E-03    -42.0976E+06     8.66626E+06     42.9688E+06    -4.13105E+06    -223.043E-03     446.117E-03    -223.073E-03     69.3495E-03    -223.448E-03     446.278E-03    -222.810E-03     67.5382E-03
            1009     10.8047E-03     143.120E-03    -33.7810E+06     52.9945E+06     56.1800E+06    -1.94654E+06    -223.387E-03     446.375E-03    -222.988E-03     73.1559E-03    -223.872E-03     446.765E-03    -222.735E-03     70.8460E-03
            1010     11.5250E-03     143.226E-03    -25.3333E+06     85.7499E+06     69.1501E+06     1.25295E+06    -223.973E-03     446.922E-03    -222.949E-03     77.2210E-03    -224.530E-03     447.493E-03    -222.691E-03     74.3560E-03
            1011     12.2457E-03     143.335E-03    -18.5022E+06     100.612E+06     84.2401E+06     1.45861E+06    -224.288E-03     447.262E-03    -222.974E-03     80.0731E-03    -224.899E-03     447.920E-03    -222.672E-03     76.6546E-03
            1012     12.9665E-03     143.447E-03    -11.4436E+06     119.471E+06     101.497E+06     816.529E+03    -224.501E-03     447.522E-03    -223.021E-03     80.0993E-03    -225.184E-03     448.294E-03    -222.670E-03     75.9161E-03
            1013     13.6859E-03     143.553E-03    -5.54264E+06     120.220E+06     106.046E+06     665.562E+03    -224.638E-03     447.688E-03    -223.051E-03     75.9887E-03    -225.286E-03     448.437E-03    -222.687E-03     71.7960E-03
            1014     720.100E-06     143.784E-03    -133.702E+06    -237.588E+06    -130.887E+06    -1.29482E+06    -222.183E-03     444.859E-03    -222.676E-03     6.73384E-03    -222.274E-03     444.111E-03    -222.792E-03     6.82686E-03
            1015     1.44089E-03     143.791E-03    -130.593E+06    -231.099E+06    -122.910E+06    -2.22070E+06    -223.088E-03     445.649E-03    -222.562E-03     11.1354E-03    -223.224E-03     444.861E-03    -222.652E-03     11.3667E-03
            1016     2.16064E-03     143.810E-03    -127.154E+06    -212.837E+06    -112.134E+06    -2.91342E+06    -223.183E-03     445.957E-03    -222.774E-03     17.4689E-03    -223.342E-03     445.236E-03    -222.842E-03     17.7086E-03
            1017     2.88040E-03     143.839E-03    -122.510E+06    -190.864E+06    -98.0002E+06    -3.09946E+06    -222.960E-03     445.831E-03    -222.871E-03     22.5162E-03    -223.149E-03     445.193E-03    -222.907E-03     22.8574E-03
            1018     3.60080E-03     143.873E-03    -116.311E+06    -176.124E+06    -80.9436E+06    -4.96740E+06    -223.143E-03     446.084E-03    -222.941E-03     27.3290E-03    -223.348E-03     445.486E-03    -222.922E-03     27.7334E-03
            1019     4.32043E-03     143.915E-03    -109.106E+06    -160.979E+06    -63.9822E+06    -7.70722E+06    -222.975E-03     445.964E-03    -222.990E-03     33.0092E-03    -223.191E-03     445.407E-03    -222.918E-03     33.3444E-03
            1020     5.04125E-03     143.962E-03    -101.321E+06    -141.364E+06    -47.9449E+06    -9.25097E+06    -222.644E-03     445.616E-03    -222.972E-03     38.8300E-03    -222.877E-03     445.127E-03    -222.860E-03     39.0325E-03
            1021     5.76184E-03     144.020E-03    -92.5754E+06    -122.559E+06    -33.0490E+06    -10.1720E+06    -222.789E-03     445.718E-03    -222.930E-03     44.0389E-03    -223.032E-03     445.294E-03    -222.783E-03     44.1094E-03
            1022     6.48268E-03     144.083E-03    -83.4697E+06    -105.918E+06    -20.1402E+06    -10.6979E+06    -223.259E-03     446.171E-03    -222.912E-03     48.7354E-03    -223.506E-03     445.804E-03    -222.738E-03     48.6649E-03
            1023     7.20287E-03     144.153E-03    -75.1316E+06    -87.8367E+06    -7.93142E+06    -10.6682E+06    -223.509E-03     446.428E-03    -222.918E-03     53.7336E-03    -223.770E-03     446.133E-03    -222.722E-03     53.4296E-03
            1024     7.92282E-03     144.229E-03    -67.3161E+06    -69.1143E+06     4.47671E+06    -10.2787E+06    -223.344E-03     446.259E-03    -222.916E-03     58.7416E-03    -223.628E-03     446.046E-03    -222.696E-03     58.1281E-03
            1025     8.64425E-03     144.314E-03    -58.9404E+06    -48.2424E+06     16.9399E+06    -10.1313E+06    -223.287E-03     446.177E-03    -222.890E-03     62.8124E-03    -223.596E-03     446.056E-03    -222.649E-03     61.8731E-03
            1026     9.36452E-03     144.404E-03    -49.7396E+06    -24.6695E+06     29.0830E+06    -9.53443E+06    -223.310E-03     446.160E-03    -222.850E-03     66.9285E-03    -223.650E-03     446.151E-03    -222.597E-03     65.5928E-03
            1027     10.0858E-03     144.499E-03    -40.8674E+06     6.00735E+06     42.0766E+06    -7.45768E+06    -223.121E-03     445.916E-03    -222.795E-03     71.0042E-03    -223.511E-03     446.061E-03    -222.534E-03     69.2268E-03
            1028     10.8069E-03     144.599E-03    -33.9346E+06     47.3751E+06     55.3145E+06    -5.30877E+06    -223.363E-03     446.093E-03    -222.730E-03     74.5966E-03    -223.836E-03     446.453E-03    -222.473E-03     72.3284E-03
            1029     11.5285E-03     144.706E-03    -27.2702E+06     80.1158E+06     65.4201E+06    -2.96246E+06    -223.917E-03     446.606E-03    -222.689E-03     77.7936E-03    -224.467E-03     447.154E-03    -222.438E-03     74.9176E-03
            1030     12.2488E-03     144.816E-03    -19.6839E+06     100.539E+06     80.0575E+06    -527.551E+03    -224.221E-03     446.933E-03    -222.712E-03     80.1152E-03    -224.830E-03     447.597E-03    -222.429E-03     76.6902E-03
            1031     12.9692E-03     144.927E-03    -12.8375E+06     119.568E+06     100.208E+06    -233.437E+03    -224.712E-03     447.503E-03    -222.791E-03     80.5750E-03    -225.403E-03     448.282E-03    -222.444E-03     76.3727E-03
            1032     13.6897E-03     145.037E-03    -6.33351E+06     120.454E+06     106.773E+06    -146.310E+03    -225.636E-03     448.508E-03    -222.872E-03     75.7755E-03    -226.287E-03     449.255E-03    -222.504E-03     71.5924E-03
            1033     721.038E-06     145.254E-03    -139.229E+06    -232.798E+06    -137.425E+06    -1.32121E+06    -222.080E-03     443.348E-03    -221.268E-03     6.49661E-03    -222.187E-03     442.646E-03    -221.416E-03     6.63563E-03
            1034     1.44261E-03     145.272E-03    -135.771E+06    -225.741E+06    -127.942E+06    -2.83074E+06    -221.946E-03     443.670E-03    -221.724E-03     12.1659E-03    -222.106E-03     442.923E-03    -221.840E-03     12.3859E-03
            1035     2.16183E-03     145.290E-03    -129.779E+06    -209.925E+06    -114.719E+06    -3.64764E+06    -222.557E-03     444.467E-03    -221.910E-03     17.8233E-03    -222.728E-03     443.766E-03    -221.991E-03     18.1238E-03
            1036     2.88277E-03     145.318E-03    -122.870E+06    -188.859E+06    -99.4899E+06    -3.76258E+06    -222.336E-03     444.404E-03    -222.068E-03     23.5820E-03    -222.527E-03     443.777E-03    -222.114E-03     23.9511E-03
            1037     3.60313E-03     145.353E-03    -116.032E+06    -169.544E+06    -81.6116E+06    -4.41757E+06    -222.227E-03     444.366E-03    -222.139E-03     28.7352E-03    -222.438E-03     443.800E-03    -222.133E-03     29.1686E-03
            1038     4.32436E-03     145.393E-03    -109.506E+06    -153.456E+06    -62.8134E+06    -6.30274E+06    -222.335E-03     444.529E-03    -222.194E-03     33.8027E-03    -222.564E-03     444.007E-03    -222.126E-03     34.2254E-03
            1039     5.04500E-03     145.441E-03    -102.497E+06    -133.943E+06    -46.3994E+06    -9.39164E+06    -222.463E-03     444.693E-03    -222.231E-03     39.6280E-03    -222.712E-03     444.238E-03    -222.120E-03     39.9200E-03
            1040     5.76582E-03     145.498E-03    -94.8127E+06    -116.189E+06    -32.9935E+06    -12.4454E+06    -222.499E-03     444.745E-03    -222.246E-03     45.0463E-03    -222.759E-03     444.352E-03    -222.106E-03     45.1769E-03
            1041     6.48650E-03     145.562E-03    -86.8754E+06    -103.521E+06    -20.8409E+06    -13.4735E+06    -222.702E-03     444.961E-03    -222.259E-03     50.2665E-03    -222.967E-03     444.611E-03    -222.087E-03     50.2043E-03
            1042     7.20731E-03     145.633E-03    -79.0236E+06    -86.1482E+06    -8.83005E+06    -13.1143E+06    -223.278E-03     445.565E-03    -222.287E-03     55.3463E-03    -223.558E-03     445.284E-03    -222.091E-03     55.0471E-03
            1043     7.92800E-03     145.709E-03    -70.8192E+06    -65.7323E+06     3.54547E+06    -13.9155E+06    -223.667E-03     446.005E-03    -222.338E-03     60.2482E-03    -223.969E-03     445.812E-03    -222.122E-03     59.6434E-03
            1044     8.64774E-03     145.793E-03    -62.2416E+06    -45.6834E+06     15.7007E+06    -15.1931E+06    -223.631E-03     446.013E-03    -222.382E-03     64.6193E-03    -223.956E-03     445.909E-03    -222.147E-03     63.6663E-03
            1045     9.36924E-03     145.883E-03    -53.7253E+06    -23.8351E+06     26.9983E+06    -16.0407E+06    -223.520E-03     445.918E-03    -222.398E-03     68.2211E-03    -223.874E-03     445.918E-03    -222.150E-03     66.8811E-03
            1046     10.0901E-03     145.978E-03    -44.4351E+06     590.340E+03     38.4836E+06    -14.6766E+06    -223.693E-03     446.093E-03    -222.400E-03     72.0684E-03    -224.085E-03     446.218E-03    -222.144E-03     70.2511E-03
            1047     10.8109E-03     146.079E-03    -34.4015E+06     40.1193E+06     53.5464E+06    -9.58299E+06    -224.062E-03     446.468E-03    -222.406E-03     76.0383E-03    -224.530E-03     446.801E-03    -222.147E-03     73.6645E-03
            1048     11.5307E-03     146.187E-03    -26.0737E+06     73.9569E+06     67.3065E+06    -5.01588E+06    -224.494E-03     446.930E-03    -222.435E-03     78.7636E-03    -225.042E-03     447.452E-03    -222.168E-03     75.7578E-03
            1049     12.2517E-03     146.295E-03    -19.4957E+06     96.5185E+06     80.1047E+06    -2.80888E+06    -224.931E-03     447.432E-03    -222.500E-03     79.9215E-03    -225.537E-03     448.079E-03    -222.211E-03     76.4067E-03
            1050     12.9721E-03     146.409E-03    -12.6443E+06     119.949E+06     96.4812E+06    -1.59275E+06    -225.380E-03     447.984E-03    -222.605E-03     79.9983E-03    -226.060E-03     448.766E-03    -222.278E-03     75.7944E-03
            1051     13.6907E-03     146.520E-03    -5.69176E+06     119.087E+06     102.994E+06    -1.04392E+06    -226.119E-03     448.846E-03    -222.727E-03     75.8741E-03    -226.759E-03     449.590E-03    -222.376E-03     71.6718E-03
            1052     721.181E-06     146.733E-03    -135.539E+06    -226.681E+06    -134.257E+06    -2.02012E+06    -222.108E-03     441.653E-03    -219.545E-03     6.63103E-03    -222.204E-03     440.978E-03    -219.691E-03     6.74320E-03
            1053     1.44224E-03     146.744E-03    -132.877E+06    -218.781E+06    -125.871E+06    -3.65065E+06    -221.106E-03     441.973E-03    -220.868E-03     12.8319E-03    -221.263E-03     441.254E-03    -220.987E-03     13.0426E-03
            1054     2.16541E-03     146.768E-03    -128.774E+06    -204.753E+06    -114.417E+06    -5.52547E+06    -220.978E-03     441.924E-03    -220.945E-03     18.5615E-03    -221.151E-03     441.246E-03    -221.034E-03     18.8652E-03
            1055     2.88557E-03     146.794E-03    -123.131E+06    -187.736E+06    -99.1742E+06    -5.53260E+06    -221.185E-03     442.181E-03    -220.996E-03     24.3472E-03    -221.379E-03     441.559E-03    -221.041E-03     24.7411E-03
            1056     3.60753E-03     146.829E-03    -116.240E+06    -167.244E+06    -81.1860E+06    -4.43389E+06    -221.241E-03     442.301E-03    -221.060E-03     30.4006E-03    -221.456E-03     441.746E-03    -221.055E-03     30.8335E-03
            1057     4.32841E-03     146.870E-03    -108.336E+06    -145.528E+06    -62.0632E+06    -5.68655E+06    -221.792E-03     442.942E-03    -221.150E-03     35.8128E-03    -222.026E-03     442.455E-03    -221.092E-03     36.2474E-03
            1058     5.04941E-03     146.919E-03    -100.029E+06    -124.123E+06    -43.1871E+06    -8.84470E+06    -222.282E-03     443.565E-03    -221.284E-03     41.4334E-03    -222.535E-03     443.148E-03    -221.175E-03     41.7717E-03
            1059     5.77027E-03     146.976E-03    -92.2516E+06    -107.873E+06    -27.4679E+06    -11.6749E+06    -222.304E-03     443.707E-03    -221.403E-03     46.4306E-03    -222.568E-03     443.341E-03    -221.250E-03     46.6409E-03
            1060     6.49194E-03     147.038E-03    -84.8789E+06    -99.3674E+06    -16.1295E+06    -13.5455E+06    -222.489E-03     443.975E-03    -221.486E-03     51.7107E-03    -222.754E-03     443.633E-03    -221.300E-03     51.7062E-03
            1061     7.21316E-03     147.111E-03    -76.8696E+06    -81.4391E+06    -5.56085E+06    -15.3394E+06    -223.061E-03     444.619E-03    -221.558E-03     56.6116E-03    -223.338E-03     444.350E-03    -221.356E-03     56.3577E-03
            1062     7.93347E-03     147.188E-03    -68.3461E+06    -59.1824E+06     5.77098E+06    -17.4207E+06    -223.605E-03     445.255E-03    -221.650E-03     60.9680E-03    -223.903E-03     445.083E-03    -221.436E-03     60.4235E-03
            1063     8.65448E-03     147.273E-03    -60.1196E+06    -41.9409E+06     16.8748E+06    -18.5539E+06    -223.848E-03     445.601E-03    -221.754E-03     65.3268E-03    -224.165E-03     445.507E-03    -221.521E-03     64.4103E-03
            1064     9.37408E-03     147.361E-03    -52.9168E+06    -20.4710E+06     27.7741E+06    -18.5297E+06    -224.171E-03     446.018E-03    -221.847E-03     69.3021E-03    -224.526E-03     446.032E-03    -221.602E-03     67.9504E-03
            1065     10.0946E-03     147.457E-03    -46.4563E+06     1.60947E+06     37.7916E+06    -19.6718E+06    -224.691E-03     446.635E-03    -221.944E-03     72.9698E-03    -225.095E-03     446.770E-03    -221.690E-03     71.0808E-03
            1066     10.8145E-03     147.559E-03    -38.1935E+06     29.3051E+06     48.6075E+06    -18.6540E+06    -224.867E-03     446.904E-03    -222.037E-03     76.4144E-03    -225.328E-03     447.193E-03    -221.781E-03     73.9549E-03
            1067     11.5354E-03     147.667E-03    -28.0179E+06     59.8331E+06     61.6135E+06    -10.6601E+06    -225.228E-03     447.361E-03    -222.133E-03     79.8218E-03    -225.755E-03     447.822E-03    -221.871E-03     76.7790E-03
            1068     12.2537E-03     147.778E-03    -19.5393E+06     94.1756E+06     77.8999E+06    -4.70006E+06    -226.082E-03     448.344E-03    -222.262E-03     81.6069E-03    -226.685E-03     448.986E-03    -221.981E-03     78.0651E-03
            1069     12.9720E-03     147.891E-03    -12.7014E+06     119.045E+06     92.7494E+06    -4.25353E+06    -226.319E-03     448.741E-03    -222.422E-03     81.7095E-03    -226.999E-03     449.529E-03    -222.112E-03     77.4668E-03
            1070     13.6917E-03     148.004E-03    -5.64908E+06     114.946E+06     97.6027E+06    -2.76387E+06    -226.608E-03     449.189E-03    -222.581E-03     78.1771E-03    -227.245E-03     449.931E-03    -222.251E-03     73.8857E-03
            1071     723.976E-06     148.208E-03    -137.047E+06    -220.824E+06    -133.440E+06    -1.02050E+06    -219.405E-03     439.330E-03    -219.925E-03     7.92887E-03    -219.513E-03     438.688E-03    -220.074E-03     7.95517E-03
            1072     1.44463E-03     148.218E-03    -133.791E+06    -210.550E+06    -124.808E+06    -3.23245E+06    -220.103E-03     439.843E-03    -219.740E-03     13.0256E-03    -220.278E-03     439.163E-03    -219.865E-03     13.2591E-03
            1073     2.16598E-03     148.238E-03    -128.724E+06    -197.643E+06    -110.127E+06    -5.24770E+06    -219.573E-03     439.397E-03    -219.824E-03     19.0967E-03    -219.762E-03     438.748E-03    -219.901E-03     19.4250E-03
            1074     2.89012E-03     148.267E-03    -122.105E+06    -186.267E+06    -93.4276E+06    -5.99941E+06    -219.391E-03     439.167E-03    -219.776E-03     24.8748E-03    -219.589E-03     438.541E-03    -219.796E-03     25.3044E-03
            1075     3.61202E-03     148.301E-03    -113.858E+06    -164.566E+06    -77.4820E+06    -6.56645E+06    -220.054E-03     439.819E-03    -219.765E-03     31.8065E-03    -220.265E-03     439.267E-03    -219.749E-03     32.2232E-03
            1076     4.33475E-03     148.344E-03    -104.631E+06    -138.165E+06    -59.7241E+06    -8.09235E+06    -221.066E-03     440.953E-03    -219.887E-03     37.9173E-03    -221.295E-03     440.494E-03    -219.834E-03     38.3148E-03
            1077     5.05584E-03     148.395E-03    -95.7601E+06    -117.252E+06    -40.2938E+06    -9.31046E+06    -221.879E-03     441.992E-03    -220.113E-03     43.1156E-03    -222.123E-03     441.597E-03    -220.006E-03     43.4849E-03
            1078     5.77707E-03     148.451E-03    -87.4796E+06    -100.486E+06    -22.9784E+06    -10.5405E+06    -222.364E-03     442.720E-03    -220.356E-03     47.8444E-03    -222.620E-03     442.375E-03    -220.198E-03     48.1306E-03
            1079     6.49759E-03     148.515E-03    -79.3444E+06    -90.9983E+06    -10.3646E+06    -13.3613E+06    -222.776E-03     443.348E-03    -220.572E-03     53.0719E-03    -223.031E-03     443.028E-03    -220.377E-03     53.1377E-03
            1080     7.21824E-03     148.588E-03    -71.4820E+06    -72.4647E+06     -10.844E+03    -16.8834E+06    -223.085E-03     443.829E-03    -220.744E-03     58.0992E-03    -223.353E-03     443.587E-03    -220.536E-03     57.8722E-03
            1081     7.93928E-03     148.666E-03    -63.8498E+06    -51.6835E+06     9.83794E+06    -19.6046E+06    -223.566E-03     444.466E-03    -220.900E-03     62.4051E-03    -223.856E-03     444.317E-03    -220.684E-03     61.8620E-03
            1082     8.65931E-03     148.751E-03    -56.2087E+06    -37.5671E+06     19.3995E+06    -20.9942E+06    -224.226E-03     445.299E-03    -221.073E-03     66.1078E-03    -224.530E-03     445.214E-03    -220.840E-03     65.2246E-03
            1083     9.38059E-03     148.841E-03    -48.2007E+06    -19.4884E+06     29.4533E+06    -20.5818E+06    -224.867E-03     446.122E-03    -221.254E-03     70.0236E-03    -225.198E-03     446.126E-03    -221.009E-03     68.7278E-03
            1084     10.0996E-03     148.938E-03    -40.3339E+06     8.71037E+06     42.0118E+06    -20.6581E+06    -225.508E-03     446.952E-03    -221.444E-03     74.1933E-03    -225.893E-03     447.103E-03    -221.188E-03     72.3832E-03
            1085     10.8186E-03     149.040E-03    -34.5832E+06     25.7571E+06     50.9091E+06    -20.8767E+06    -225.920E-03     447.556E-03    -221.636E-03     77.4265E-03    -226.354E-03     447.811E-03    -221.369E-03     75.0551E-03
            1086     11.5377E-03     149.147E-03    -29.3695E+06     42.6672E+06     57.7294E+06    -16.9397E+06    -226.195E-03     448.005E-03    -221.810E-03     80.9455E-03    -226.692E-03     448.383E-03    -221.541E-03     77.9230E-03
            1087     12.2584E-03     149.262E-03    -20.9306E+06     87.8834E+06     74.8524E+06    -10.8502E+06    -226.754E-03     448.744E-03    -221.990E-03     82.9262E-03    -227.347E-03     449.358E-03    -221.713E-03     79.3741E-03
            1088     12.9772E-03     149.376E-03    -11.9533E+06     117.389E+06     91.6560E+06    -7.29865E+06    -227.317E-03     449.524E-03    -222.207E-03     81.9610E-03    -227.985E-03     450.301E-03    -221.902E-03     77.6986E-03
            1089     13.6955E-03     149.486E-03    -6.25061E+06     108.891E+06     92.7384E+06    -4.45929E+06    -227.900E-03     450.325E-03    -222.425E-03     78.6497E-03    -228.529E-03     451.049E-03    -222.110E-03     74.2730E-03
            1090     721.455E-06     149.672E-03    -136.343E+06    -217.674E+06    -133.314E+06    -186.052E+03    -217.740E-03     436.741E-03    -219.001E-03     8.23050E-03    -217.844E-03     436.113E-03    -219.155E-03     8.31649E-03
            1091     1.44704E-03     149.689E-03    -132.192E+06    -203.124E+06    -120.476E+06    -1.96024E+06    -218.016E-03     436.309E-03    -218.293E-03     14.3867E-03    -218.200E-03     435.657E-03    -218.409E-03     14.6108E-03
            1092     2.17017E-03     149.708E-03    -126.167E+06    -190.536E+06    -104.200E+06    -4.26627E+06    -218.259E-03     436.527E-03    -218.268E-03     20.1690E-03    -218.455E-03     435.902E-03    -218.330E-03     20.5297E-03
            1093     2.89310E-03     149.733E-03    -118.503E+06    -180.502E+06    -87.4775E+06    -6.53498E+06    -218.225E-03     436.525E-03    -218.300E-03     26.4580E-03    -218.421E-03     435.914E-03    -218.304E-03     26.8750E-03
            1094     3.61795E-03     149.770E-03    -110.450E+06    -158.642E+06    -72.0586E+06    -8.51171E+06    -219.039E-03     437.400E-03    -218.361E-03     33.3808E-03    -219.249E-03     436.864E-03    -218.331E-03     33.7786E-03
            1095     4.33995E-03     149.815E-03    -102.903E+06    -132.637E+06    -56.9416E+06    -9.59605E+06    -220.161E-03     438.703E-03    -218.542E-03     39.2634E-03    -220.392E-03     438.263E-03    -218.486E-03     39.6787E-03
            1096     5.06241E-03     149.867E-03    -95.1956E+06    -113.421E+06    -40.6444E+06    -9.96720E+06    -221.026E-03     439.844E-03    -218.818E-03     44.3889E-03    -221.270E-03     439.465E-03    -218.719E-03     44.8063E-03
            1097     5.78361E-03     149.926E-03    -87.2485E+06    -94.1544E+06    -24.2042E+06    -10.8544E+06    -222.002E-03     441.131E-03    -219.130E-03     49.9608E-03    -222.262E-03     440.818E-03    -218.988E-03     50.2614E-03
            1098     6.50466E-03     149.990E-03    -79.4715E+06    -79.7241E+06    -9.05962E+06    -13.7169E+06    -222.952E-03     442.419E-03    -219.467E-03     55.5017E-03    -223.224E-03     442.152E-03    -219.282E-03     55.5767E-03
            1099     7.22553E-03     150.063E-03    -71.7546E+06    -61.4653E+06     4.00270E+06    -17.6910E+06    -223.342E-03     443.120E-03    -219.778E-03     60.1714E-03    -223.631E-03     442.924E-03    -219.565E-03     59.9717E-03
            1100     7.94627E-03     150.142E-03    -64.3216E+06    -44.2019E+06     14.0447E+06    -20.3344E+06    -223.945E-03     443.996E-03    -220.050E-03     64.6571E-03    -224.253E-03     443.877E-03    -219.823E-03     64.1391E-03
            1101     8.66685E-03     150.230E-03    -57.4736E+06    -30.2429E+06     22.6295E+06    -22.6180E+06    -224.963E-03     445.294E-03    -220.330E-03     67.9920E-03    -225.285E-03     445.238E-03    -220.090E-03     67.1756E-03
            1102     9.38495E-03     150.320E-03    -50.3210E+06    -16.5201E+06     30.8988E+06    -24.8000E+06    -225.540E-03     446.156E-03    -220.617E-03     71.4564E-03    -225.879E-03     446.169E-03    -220.365E-03     70.2460E-03
            1103     10.1053E-03     150.418E-03    -43.0718E+06     9.55922E+06     41.8078E+06    -23.5608E+06    -226.010E-03     446.894E-03    -220.884E-03     75.7236E-03    -226.401E-03     447.045E-03    -220.627E-03     74.0247E-03
            1104     10.8248E-03     150.522E-03    -36.1720E+06     25.4746E+06     51.7251E+06    -20.5889E+06    -226.986E-03     448.151E-03    -221.165E-03     78.6621E-03    -227.421E-03     448.398E-03    -220.891E-03     76.4188E-03
            1105     11.5431E-03     150.629E-03    -29.2260E+06     37.4889E+06     59.5977E+06    -19.4373E+06    -227.627E-03     449.079E-03    -221.452E-03     81.8250E-03    -228.114E-03     449.422E-03    -221.166E-03     78.8416E-03
            1106     12.2600E-03     150.744E-03    -21.7649E+06     81.9488E+06     72.7155E+06    -18.7728E+06    -227.751E-03     449.454E-03    -221.703E-03     84.1886E-03    -228.337E-03     450.043E-03    -221.427E-03     80.5513E-03
            1107     12.9783E-03     150.861E-03    -12.8578E+06     107.693E+06     81.6565E+06    -14.2022E+06    -228.558E-03     450.517E-03    -221.959E-03     83.2806E-03    -229.202E-03     451.261E-03    -221.688E-03     78.9591E-03
            1108     13.6944E-03     150.974E-03    -4.79908E+06     96.8413E+06     84.2739E+06    -5.94424E+06    -229.024E-03     451.275E-03    -222.252E-03     79.6222E-03    -229.609E-03     451.944E-03    -221.964E-03     75.3140E-03
            1109     725.406E-06     151.137E-03    -132.907E+06    -214.321E+06    -132.638E+06    -1.71044E+06    -216.055E-03     432.872E-03    -216.817E-03     5.97716E-03    -216.139E-03     432.260E-03    -216.976E-03     6.21128E-03
            1110     1.44938E-03     151.150E-03    -129.837E+06    -197.860E+06    -123.734E+06    -2.49943E+06    -215.882E-03     432.163E-03    -216.281E-03     15.8373E-03    -216.057E-03     431.537E-03    -216.425E-03     16.0091E-03
            1111     2.17501E-03     151.172E-03    -124.927E+06    -184.086E+06    -106.914E+06    -3.46269E+06    -216.720E-03     433.003E-03    -216.283E-03     21.2678E-03    -216.914E-03     432.411E-03    -216.370E-03     21.6459E-03
            1112     2.89976E-03     151.197E-03    -118.690E+06    -170.823E+06    -88.0345E+06    -6.27207E+06    -217.755E-03     434.302E-03    -216.548E-03     27.4015E-03    -217.962E-03     433.738E-03    -216.568E-03     27.8642E-03
            1113     3.62229E-03     151.236E-03    -111.012E+06    -151.229E+06    -70.0566E+06    -9.10708E+06    -218.206E-03     435.053E-03    -216.848E-03     34.9197E-03    -218.431E-03     434.551E-03    -216.818E-03     35.3290E-03
            1114     4.34647E-03     151.283E-03    -102.207E+06    -127.942E+06    -53.3881E+06    -10.2963E+06    -218.918E-03     436.034E-03    -217.116E-03     41.5968E-03    -219.156E-03     435.610E-03    -217.049E-03     41.9805E-03
            1115     5.06899E-03     151.337E-03    -92.9127E+06    -108.726E+06    -37.2872E+06    -11.3878E+06    -220.066E-03     437.492E-03    -217.426E-03     46.8270E-03    -220.308E-03     437.126E-03    -217.320E-03     47.2154E-03
            1116     5.79217E-03     151.396E-03    -83.3790E+06    -88.7444E+06    -20.9956E+06    -12.4954E+06    -221.310E-03     439.102E-03    -217.793E-03     52.3737E-03    -221.561E-03     438.803E-03    -217.648E-03     52.6722E-03
            1117     6.51353E-03     151.465E-03    -74.1689E+06    -69.6478E+06    -4.40246E+06    -14.1798E+06    -222.596E-03     440.803E-03    -218.207E-03     57.7510E-03    -222.860E-03     440.569E-03    -218.021E-03     57.8825E-03
            1118     7.23371E-03     151.538E-03    -66.3488E+06    -51.3627E+06     10.2427E+06    -16.5301E+06    -223.808E-03     442.453E-03    -218.645E-03     62.2501E-03    -224.088E-03     442.285E-03    -218.423E-03     62.1708E-03
            1119     7.95401E-03     151.619E-03    -59.9470E+06    -36.8791E+06     20.6136E+06    -18.5473E+06    -224.792E-03     443.869E-03    -219.077E-03     66.8461E-03    -225.093E-03     443.767E-03    -218.834E-03     66.4592E-03
            1120     8.67310E-03     151.708E-03    -54.0741E+06    -19.7276E+06     29.2622E+06    -21.1104E+06    -225.502E-03     444.987E-03    -219.485E-03     70.2385E-03    -225.826E-03     444.965E-03    -219.232E-03     69.5434E-03
            1121     9.39348E-03     151.800E-03    -48.8575E+06    -8.17622E+06     35.9965E+06    -24.1645E+06    -226.250E-03     446.125E-03    -219.875E-03     73.5310E-03    -226.597E-03     446.165E-03    -219.612E-03     72.4311E-03
            1122     10.1115E-03     151.898E-03    -43.1215E+06     8.94317E+06     42.7422E+06    -25.2978E+06    -227.148E-03     447.395E-03    -220.248E-03     77.8754E-03    -227.536E-03     447.539E-03    -219.984E-03     76.2331E-03
            1123     10.8297E-03     152.005E-03    -35.5933E+06     24.2963E+06     49.9205E+06    -24.2828E+06    -227.987E-03     448.606E-03    -220.619E-03     80.6737E-03    -228.408E-03     448.842E-03    -220.353E-03     78.5138E-03
            1124     11.5470E-03     152.114E-03    -26.7633E+06     41.1121E+06     58.1610E+06    -24.4101E+06    -228.542E-03     449.525E-03    -220.983E-03     83.6177E-03    -229.008E-03     449.873E-03    -220.713E-03     80.7552E-03
            1125     12.2656E-03     152.228E-03     -18.471E+06     77.9729E+06     70.5535E+06    -22.8410E+06    -229.058E-03     450.380E-03    -221.321E-03     87.0311E-03    -229.614E-03     450.943E-03    -221.055E-03     83.4706E-03
            1126     12.9826E-03     152.347E-03    -12.5013E+06     93.5748E+06     75.8409E+06    -17.3236E+06    -229.836E-03     451.492E-03    -221.656E-03     87.1770E-03    -230.458E-03     452.182E-03    -221.395E-03     82.8526E-03
            1127     13.6998E-03     152.463E-03    -6.71721E+06     80.4063E+06      78.448E+06    -10.2501E+06    -230.490E-03     452.522E-03    -222.032E-03     81.5952E-03    -231.059E-03     453.125E-03    -221.746E-03     77.2319E-03
            1128     725.862E-06     152.594E-03    -129.254E+06    -205.409E+06    -128.369E+06    -3.38925E+06    -213.621E-03     427.700E-03    -214.079E-03     6.46609E-03    -213.690E-03     427.130E-03    -214.236E-03     6.66845E-03
            1129     1.45332E-03     152.608E-03    -126.951E+06    -192.494E+06    -121.886E+06    -4.82795E+06    -214.416E-03     428.324E-03    -213.908E-03     16.3397E-03    -214.584E-03     427.717E-03    -214.055E-03     16.4890E-03
            1130     2.17947E-03     152.629E-03    -121.692E+06    -180.197E+06    -106.973E+06    -4.99128E+06    -215.437E-03     429.679E-03    -214.242E-03     23.1074E-03    -215.619E-03     429.101E-03    -214.339E-03     23.4079E-03
            1131     2.90352E-03     152.661E-03    -114.466E+06    -161.413E+06    -85.9502E+06    -6.04898E+06    -216.612E-03     431.318E-03    -214.706E-03     29.0288E-03    -216.813E-03     430.790E-03    -214.736E-03     29.4892E-03
            1132     3.62877E-03     152.696E-03    -106.090E+06    -140.978E+06    -64.1420E+06    -9.52872E+06    -217.113E-03     432.273E-03    -215.160E-03     36.6504E-03    -217.335E-03     431.804E-03    -215.122E-03     37.0714E-03
            1133     4.35325E-03     152.747E-03    -96.4202E+06    -121.162E+06    -45.8595E+06    -12.7377E+06    -217.784E-03     433.312E-03    -215.528E-03     44.0015E-03    -218.013E-03     432.902E-03    -215.442E-03     44.3419E-03
            1134     5.07787E-03     152.802E-03    -86.3613E+06    -102.542E+06    -29.9087E+06    -14.2844E+06    -219.180E-03     435.089E-03    -215.909E-03     49.3323E-03    -219.407E-03     434.732E-03    -215.784E-03     49.6905E-03
            1135     5.79953E-03     152.865E-03    -76.8043E+06    -83.6054E+06    -14.5950E+06    -15.2321E+06    -220.754E-03     437.113E-03    -216.359E-03     54.9372E-03    -220.985E-03     436.817E-03    -216.200E-03     55.2402E-03
            1136     6.52191E-03     152.934E-03    -68.0222E+06    -64.0977E+06     350.115E+03    -15.4691E+06    -222.297E-03     439.161E-03    -216.864E-03     60.0711E-03    -222.539E-03     438.933E-03    -216.671E-03     60.2791E-03
            1137     7.24372E-03     153.013E-03    -60.0784E+06    -45.6176E+06     14.6143E+06    -15.2551E+06    -223.857E-03     441.265E-03    -217.408E-03     64.4088E-03    -224.113E-03     441.104E-03    -217.182E-03     64.4868E-03
            1138     7.96265E-03     153.095E-03    -52.6544E+06    -28.6749E+06     26.9142E+06    -16.4947E+06    -225.138E-03     443.101E-03    -217.962E-03     69.4642E-03    -225.417E-03     443.012E-03    -217.710E-03     69.2372E-03
            1139     8.68253E-03     153.185E-03    -45.8814E+06    -10.9835E+06     36.5350E+06    -18.3957E+06    -226.013E-03     444.501E-03    -218.488E-03     73.1416E-03    -226.314E-03     444.493E-03    -218.222E-03     72.6069E-03
            1140     9.40074E-03     153.279E-03    -39.8735E+06     1.71287E+06     43.6903E+06    -20.4589E+06    -227.112E-03     446.104E-03    -218.992E-03     76.4778E-03    -227.432E-03     446.162E-03    -218.718E-03     75.5662E-03
            1141     10.1194E-03     153.380E-03    -34.3953E+06     16.1611E+06     50.3368E+06    -23.6627E+06    -228.399E-03     447.890E-03    -219.492E-03     80.9131E-03    -228.758E-03     448.039E-03    -219.214E-03     79.4409E-03
            1142     10.8367E-03     153.488E-03    -28.7777E+06     28.4807E+06     56.0014E+06    -26.7132E+06    -229.093E-03     449.071E-03    -219.979E-03     83.5182E-03    -229.485E-03     449.300E-03    -219.698E-03     81.4966E-03
            1143     11.5549E-03     153.597E-03    -22.9767E+06     46.6272E+06     62.9627E+06    -28.3861E+06    -229.652E-03     450.089E-03    -220.436E-03     85.7682E-03    -230.104E-03     450.442E-03    -220.156E-03     83.0318E-03
            1144     12.2712E-03     153.714E-03    -16.4860E+06     71.5786E+06     73.9433E+06    -26.8453E+06    -230.558E-03     451.446E-03    -220.889E-03     88.3484E-03    -231.095E-03     451.964E-03    -220.599E-03     84.8327E-03
            1145     12.9877E-03     153.835E-03    -8.69578E+06     80.2185E+06     77.0444E+06    -20.0513E+06    -231.292E-03     452.613E-03    -221.321E-03     87.8086E-03    -231.878E-03     453.230E-03    -221.040E-03     83.4347E-03
            1146     13.7028E-03     153.952E-03    -3.21194E+06     62.4535E+06     78.6315E+06    -11.0194E+06    -232.542E-03     454.345E-03    -221.803E-03     82.6256E-03    -233.070E-03     454.856E-03    -221.496E-03     78.2123E-03
            1147     729.972E-06     154.046E-03    -118.626E+06    -193.326E+06    -115.902E+06    -3.55121E+06    -212.622E-03     422.769E-03    -210.147E-03     9.42693E-03    -212.658E-03     422.234E-03    -210.275E-03     9.51234E-03
            1148     1.45670E-03     154.057E-03    -114.781E+06    -184.264E+06    -105.019E+06    -5.56882E+06    -213.443E-03     425.206E-03    -211.763E-03     16.1278E-03    -213.584E-03     424.596E-03    -211.854E-03     16.3456E-03
            1149     2.18328E-03     154.085E-03    -108.950E+06    -174.848E+06    -92.0220E+06    -7.52766E+06    -213.652E-03     426.050E-03    -212.398E-03     24.0933E-03    -213.800E-03     425.458E-03    -212.447E-03     24.3866E-03
            1150     2.91065E-03     154.116E-03    -101.235E+06    -154.660E+06    -77.1072E+06    -8.65710E+06    -214.508E-03     427.311E-03    -212.803E-03     31.0029E-03    -214.664E-03     426.783E-03    -212.818E-03     31.4235E-03
            1151     3.63589E-03     154.156E-03    -93.0839E+06    -130.435E+06    -57.7755E+06    -9.94868E+06    -215.757E-03     429.008E-03    -213.251E-03     38.6300E-03    -215.936E-03     428.561E-03    -213.216E-03     39.0830E-03
            1152     4.36107E-03     154.204E-03    -86.1976E+06    -112.833E+06    -37.8600E+06    -11.7939E+06    -217.028E-03     430.784E-03    -213.756E-03     46.5617E-03    -217.226E-03     430.386E-03    -213.657E-03     46.9504E-03
            1153     5.08497E-03     154.265E-03    -79.9246E+06    -94.7286E+06    -22.2604E+06    -13.9352E+06    -218.274E-03     432.536E-03    -214.262E-03     52.2658E-03    -218.488E-03     432.195E-03    -214.120E-03     52.6625E-03
            1154     5.80986E-03     154.329E-03    -72.9630E+06    -77.1828E+06    -8.83652E+06    -15.7821E+06    -220.012E-03     434.809E-03    -214.797E-03     58.3610E-03    -220.240E-03     434.529E-03    -214.624E-03     58.6864E-03
            1155     6.53164E-03     154.405E-03    -65.1693E+06    -60.3683E+06     4.15590E+06    -16.6217E+06    -222.064E-03     437.463E-03    -215.399E-03     63.9214E-03    -222.299E-03     437.241E-03    -215.196E-03     64.1520E-03
            1156     7.25162E-03     154.483E-03    -56.2585E+06    -41.9995E+06     17.4278E+06    -17.0294E+06    -223.492E-03     439.528E-03    -216.036E-03     68.1134E-03    -223.733E-03     439.370E-03    -215.807E-03     68.2487E-03
            1157     7.97350E-03     154.570E-03    -47.4441E+06    -23.1445E+06     30.8140E+06    -17.0591E+06    -224.937E-03     441.608E-03    -216.671E-03     73.2619E-03    -225.195E-03     441.526E-03    -216.415E-03     73.1497E-03
            1158     8.69242E-03     154.662E-03    -39.9082E+06    -5.10996E+06     42.4346E+06    -17.4420E+06    -226.645E-03     443.956E-03    -217.311E-03     76.5080E-03    -226.922E-03     443.950E-03    -217.034E-03     76.1797E-03
            1159     9.41164E-03     154.758E-03    -33.0423E+06     10.6548E+06     51.5895E+06    -19.2451E+06    -228.172E-03     446.130E-03    -217.958E-03     79.9381E-03    -228.472E-03     446.201E-03    -217.667E-03     79.2392E-03
            1160     10.1287E-03     154.862E-03    -26.7123E+06     25.8879E+06     59.5413E+06    -21.5180E+06    -229.381E-03     447.975E-03    -218.593E-03     83.8539E-03    -229.718E-03     448.136E-03    -218.295E-03     82.6169E-03
            1161     10.8459E-03     154.971E-03    -21.8466E+06     37.4132E+06     65.5020E+06    -23.7884E+06    -230.448E-03     449.657E-03    -219.209E-03     85.9403E-03    -230.823E-03     449.897E-03    -218.904E-03     84.1400E-03
            1162     11.5612E-03     155.083E-03    -18.7938E+06     52.5355E+06     70.2207E+06    -25.3714E+06    -231.527E-03     451.329E-03    -219.802E-03     88.1118E-03    -231.967E-03     451.685E-03    -219.499E-03     85.5774E-03
            1163     12.2770E-03     155.202E-03    -16.3396E+06     69.3498E+06     77.6477E+06    -24.8909E+06    -232.409E-03     452.798E-03    -220.390E-03     90.9253E-03    -232.940E-03     453.293E-03    -220.078E-03     87.5776E-03
            1164     12.9914E-03     155.324E-03    -13.0079E+06     69.4202E+06     74.2374E+06    -23.1204E+06    -233.451E-03     454.388E-03    -220.937E-03     90.6825E-03    -234.037E-03     454.958E-03    -220.647E-03     86.3628E-03
            1165     13.7062E-03     155.443E-03    -6.28493E+06     39.4186E+06     74.8301E+06    -15.0101E+06    -235.235E-03     456.800E-03    -221.565E-03     85.7708E-03    -235.746E-03     457.213E-03    -221.239E-03     81.3042E-03
            1166     731.144E-06     155.490E-03    -107.184E+06    -185.478E+06    -104.171E+06    -1.55066E+06    -211.512E-03     419.603E-03    -208.091E-03     11.3721E-03    -211.515E-03     419.081E-03    -208.188E-03     11.4178E-03
            1167     1.45798E-03     155.508E-03    -105.580E+06    -175.827E+06    -95.2285E+06    -2.70163E+06    -211.335E-03     421.392E-03    -210.057E-03     16.7071E-03    -211.456E-03     420.795E-03    -210.125E-03     17.0000E-03
            1168     2.18688E-03     155.529E-03    -101.900E+06    -162.893E+06    -83.0618E+06    -6.73315E+06    -211.665E-03     422.222E-03    -210.557E-03     25.2528E-03    -211.807E-03     421.666E-03    -210.589E-03     25.5874E-03
            1169     2.91529E-03     155.567E-03    -96.2381E+06    -145.853E+06    -70.3567E+06    -11.0396E+06    -212.392E-03     423.295E-03    -210.903E-03     32.2987E-03    -212.546E-03     422.794E-03    -210.904E-03     32.7418E-03
            1170     3.64356E-03     155.607E-03    -89.1943E+06    -126.605E+06    -55.1626E+06    -11.2153E+06    -214.006E-03     425.326E-03    -211.320E-03     40.2837E-03    -214.172E-03     424.886E-03    -211.283E-03     40.7971E-03
            1171     4.36974E-03     155.662E-03    -81.3021E+06    -106.939E+06    -34.5686E+06    -10.0630E+06    -215.807E-03     427.689E-03    -211.882E-03     48.4703E-03    -215.989E-03     427.303E-03    -211.782E-03     48.9883E-03
            1172     5.09534E-03     155.722E-03    -72.7711E+06    -85.0554E+06    -14.0909E+06    -11.7204E+06    -217.294E-03     429.793E-03    -212.499E-03     54.5648E-03    -217.492E-03     429.472E-03    -212.341E-03     55.1091E-03
            1173     5.81888E-03     155.790E-03    -64.3071E+06    -69.3671E+06     996.328E+03    -14.4085E+06    -219.031E-03     432.156E-03    -213.126E-03     61.5879E-03    -219.235E-03     431.883E-03    -212.927E-03     62.0188E-03
            1174     6.54239E-03     155.870E-03    -56.1303E+06    -53.5722E+06     12.9093E+06    -16.7138E+06    -220.930E-03     434.704E-03    -213.773E-03     67.7725E-03    -221.137E-03     434.484E-03    -213.550E-03     68.0829E-03
            1175     7.26524E-03     155.952E-03    -48.4269E+06    -36.3691E+06     24.2039E+06    -18.6192E+06    -223.006E-03     437.470E-03    -214.464E-03     72.2866E-03    -223.218E-03     437.310E-03    -214.220E-03     72.5145E-03
            1176     7.98495E-03     156.040E-03    -40.4587E+06    -20.9918E+06     35.5795E+06    -18.9711E+06    -225.209E-03     440.413E-03    -215.204E-03     77.3487E-03    -225.431E-03     440.314E-03    -214.937E-03     77.3877E-03
            1177     8.70505E-03     156.139E-03    -31.9636E+06    -1.02894E+06     47.9931E+06    -18.4185E+06    -227.093E-03     443.067E-03    -215.974E-03     80.2146E-03    -227.330E-03     443.048E-03    -215.686E-03     80.1064E-03
            1178     9.42198E-03     156.237E-03    -24.9480E+06     15.6953E+06     58.3214E+06    -17.8060E+06    -228.873E-03     445.623E-03    -216.751E-03     84.0037E-03    -229.138E-03     445.687E-03    -216.445E-03     83.5273E-03
            1179     10.1394E-03     156.345E-03    -20.4640E+06     31.8903E+06     66.1661E+06    -17.4914E+06    -230.584E-03     448.104E-03    -217.520E-03     87.9517E-03    -230.896E-03     448.265E-03    -217.205E-03     86.9691E-03
            1180     10.8555E-03     156.454E-03    -17.0746E+06     45.0554E+06     71.9542E+06    -18.1969E+06    -232.151E-03     450.434E-03    -218.282E-03     89.8218E-03    -232.509E-03     450.683E-03    -217.963E-03     88.3269E-03
            1181     11.5711E-03     156.573E-03    -13.1687E+06     59.8399E+06     76.8301E+06    -20.0287E+06    -233.612E-03     452.645E-03    -219.033E-03     91.5877E-03    -234.028E-03     453.004E-03    -218.716E-03     89.3946E-03
            1182     12.2852E-03     156.689E-03    -8.47817E+06     69.7899E+06     83.2235E+06    -20.3742E+06    -235.023E-03     454.813E-03    -219.790E-03     93.1588E-03    -235.504E-03     455.270E-03    -219.462E-03     90.1496E-03
            1183     12.9999E-03     156.817E-03    -4.66372E+06     68.3992E+06     80.8265E+06    -18.6876E+06    -236.591E-03     457.115E-03    -220.523E-03     91.9776E-03    -237.127E-03     457.642E-03    -220.212E-03     87.9175E-03
            1184     13.7105E-03     156.939E-03    -4.73347E+06     20.3267E+06     75.2831E+06    -14.9662E+06    -238.498E-03     459.836E-03    -221.338E-03     87.1612E-03    -238.972E-03     460.147E-03    -220.984E-03     82.7386E-03
            1185     728.399E-06     156.930E-03    -108.972E+06    -182.199E+06    -106.907E+06    -1.10043E+06    -208.614E-03     417.434E-03    -208.821E-03     10.4426E-03    -208.624E-03     416.941E-03    -208.933E-03     10.5670E-03
            1186     1.46256E-03     156.946E-03    -103.841E+06    -168.860E+06    -95.8666E+06    -2.37728E+06    -208.282E-03     416.853E-03    -208.571E-03     17.7279E-03    -208.404E-03     416.290E-03    -208.655E-03     18.0281E-03
            1187     2.19204E-03     156.975E-03    -97.2627E+06    -149.526E+06    -78.7824E+06    -5.61426E+06    -209.614E-03     418.269E-03    -208.656E-03     26.1824E-03    -209.757E-03     417.766E-03    -208.692E-03     26.5783E-03
            1188     2.92112E-03     157.009E-03    -90.5287E+06    -133.287E+06    -58.9147E+06    -9.56490E+06    -210.684E-03     419.712E-03    -209.028E-03     34.0103E-03    -210.843E-03     419.248E-03    -208.998E-03     34.5043E-03
            1189     3.64980E-03     157.055E-03    -82.7645E+06    -123.102E+06    -42.3893E+06    -12.2100E+06    -212.371E-03     421.868E-03    -209.497E-03     42.9290E-03    -212.527E-03     421.416E-03    -209.410E-03     43.4336E-03
            1190     4.37741E-03     157.112E-03    -73.1186E+06    -103.211E+06    -27.5176E+06    -12.9078E+06    -214.226E-03     424.280E-03    -210.055E-03     50.3457E-03    -214.379E-03     423.888E-03    -209.936E-03     50.9385E-03
            1191     5.10381E-03     157.176E-03    -63.3000E+06    -78.6666E+06    -9.92867E+06    -12.6472E+06    -215.866E-03     426.548E-03    -210.682E-03     56.8023E-03    -216.026E-03     426.233E-03    -210.526E-03     57.4955E-03
            1192     5.82969E-03     157.249E-03    -55.3480E+06    -62.7339E+06     7.30465E+06    -12.7165E+06    -217.735E-03     429.091E-03    -211.355E-03     64.5623E-03    -217.904E-03     428.819E-03    -211.148E-03     65.1887E-03
            1193     6.55416E-03     157.330E-03    -49.2818E+06    -45.0441E+06     20.8458E+06    -14.0945E+06    -219.731E-03     431.781E-03    -212.050E-03     70.4964E-03    -219.915E-03     431.570E-03    -211.809E-03     71.0868E-03
            1194     7.27706E-03     157.417E-03    -44.0270E+06    -28.5964E+06     31.3010E+06    -16.1449E+06    -222.235E-03     435.030E-03    -212.795E-03     75.2587E-03    -222.431E-03     434.878E-03    -212.534E-03     75.8094E-03
            1195     7.99838E-03     157.512E-03    -38.7315E+06    -14.9118E+06     40.5099E+06    -18.6381E+06    -224.881E-03     438.494E-03    -213.613E-03     80.9095E-03    -225.093E-03     438.398E-03    -213.333E-03     81.2575E-03
            1196     8.71684E-03     157.612E-03    -33.4235E+06    -1.04987E+06     49.2398E+06    -18.5705E+06    -227.064E-03     441.538E-03    -214.474E-03     84.6861E-03    -227.293E-03     441.501E-03    -214.177E-03     84.8617E-03
            1197     9.43653E-03     157.715E-03    -29.1105E+06     13.1181E+06      57.515E+06    -14.6286E+06    -229.566E-03     444.930E-03    -215.364E-03     88.4790E-03    -229.826E-03     444.967E-03    -215.053E-03     88.3863E-03
            1198     10.1533E-03     157.826E-03    -25.2895E+06     36.8528E+06     66.8782E+06    -12.9007E+06    -232.164E-03     448.452E-03    -216.288E-03     91.2441E-03    -232.479E-03     448.615E-03    -215.971E-03     90.7779E-03
            1199     10.8680E-03     157.942E-03    -20.5285E+06     53.2864E+06     73.3976E+06    -15.6512E+06    -234.150E-03     451.382E-03    -217.232E-03     92.0385E-03    -234.506E-03     451.642E-03    -216.912E-03     91.0717E-03
            1200     11.5816E-03     158.059E-03    -14.9718E+06     67.1494E+06     77.7316E+06    -18.3940E+06    -236.151E-03     454.322E-03    -218.171E-03     93.4025E-03    -236.558E-03     454.690E-03    -217.858E-03     91.6591E-03
            1201     12.2936E-03     158.185E-03    -9.79281E+06     73.6159E+06     83.0622E+06    -20.5263E+06    -238.349E-03     457.485E-03    -219.136E-03     94.6169E-03    -238.819E-03     457.941E-03    -218.813E-03     91.9110E-03
            1202     13.0021E-03     158.312E-03    -4.09595E+06     61.9753E+06     78.8481E+06    -18.8909E+06    -240.079E-03     460.164E-03    -220.084E-03     94.1089E-03    -240.585E-03     460.646E-03    -219.774E-03     90.2604E-03
            1203     13.7121E-03     158.442E-03     3.02794E+06     963.735E+03     73.3220E+06    -9.09501E+06    -241.790E-03     462.883E-03    -221.093E-03     89.9910E-03    -242.191E-03     463.085E-03    -220.732E-03     85.7512E-03
            1204     731.985E-06     158.364E-03    -97.8283E+06    -173.117E+06    -96.4284E+06    -3.88299E+06    -205.910E-03     414.543E-03    -208.633E-03     9.05193E-03    -205.899E-03     414.061E-03    -208.722E-03     9.23995E-03
            1205     1.46222E-03     158.381E-03    -93.8592E+06    -159.900E+06    -89.2388E+06    -6.99635E+06    -206.727E-03     413.818E-03    -207.091E-03     18.2002E-03    -206.823E-03     413.276E-03    -207.169E-03     18.4886E-03
            1206     2.19528E-03     158.411E-03    -87.9247E+06    -140.405E+06    -74.2701E+06    -8.37434E+06    -207.324E-03     414.347E-03    -207.023E-03     26.3118E-03    -207.438E-03     413.867E-03    -207.063E-03     26.7864E-03
            1207     2.92700E-03     158.448E-03    -80.7954E+06    -125.698E+06    -53.6078E+06    -8.31525E+06    -208.947E-03     416.226E-03    -207.278E-03     34.5386E-03    -209.072E-03     415.774E-03    -207.247E-03     35.1800E-03
            1208     3.65701E-03     158.497E-03    -74.6674E+06    -113.748E+06    -35.1887E+06    -9.66298E+06    -210.689E-03     418.440E-03    -207.751E-03     44.1174E-03    -210.823E-03     418.008E-03    -207.654E-03     44.7900E-03
            1209     4.38566E-03     158.558E-03    -69.5745E+06    -96.4942E+06    -21.8490E+06    -12.4752E+06    -212.134E-03     420.414E-03    -208.280E-03     52.1572E-03    -212.281E-03     420.035E-03    -208.148E-03     52.9166E-03
            1210     5.11367E-03     158.624E-03    -64.3708E+06    -77.5503E+06    -10.1702E+06    -12.4004E+06    -213.940E-03     422.784E-03    -208.844E-03     59.5604E-03    -214.097E-03     422.466E-03    -208.689E-03     60.4484E-03
            1211     5.84044E-03     158.700E-03    -58.4480E+06    -60.4290E+06     5.23530E+06    -10.4868E+06    -216.182E-03     425.684E-03    -209.502E-03     67.5694E-03    -216.352E-03     425.416E-03    -209.303E-03     68.4971E-03
            1212     6.56562E-03     158.787E-03    -52.3059E+06    -38.8499E+06     21.7577E+06    -9.90189E+06    -218.572E-03     428.810E-03    -210.238E-03     74.1931E-03    -218.763E-03     428.614E-03    -209.997E-03     75.1388E-03
            1213     7.28917E-03     158.878E-03    -46.7519E+06    -21.3155E+06     34.5885E+06    -10.9195E+06    -221.098E-03     432.132E-03    -211.034E-03     80.2428E-03    -221.305E-03     431.997E-03    -210.763E-03     81.1213E-03
            1214     8.01149E-03     158.978E-03    -42.5434E+06    -5.01058E+06     44.3445E+06    -13.1028E+06    -223.995E-03     435.888E-03    -211.894E-03     85.8924E-03    -224.225E-03     435.821E-03    -211.603E-03     86.6134E-03
            1215     8.73330E-03     159.083E-03    -39.3931E+06    -2.55755E+06     48.3437E+06    -13.4726E+06    -227.386E-03     440.228E-03    -212.842E-03     88.7402E-03    -227.614E-03     440.168E-03    -212.540E-03     89.3826E-03
            1216     9.45035E-03     159.191E-03    -34.9791E+06     8.69401E+06     53.9569E+06    -11.3276E+06    -230.781E-03     444.663E-03    -213.882E-03     91.9400E-03    -231.027E-03     444.661E-03    -213.575E-03     92.3632E-03
            1217     10.1653E-03     159.311E-03    -28.3237E+06     44.5017E+06     65.8288E+06    -11.9593E+06    -233.600E-03     448.574E-03    -214.974E-03     94.7275E-03    -233.908E-03     448.749E-03    -214.668E-03     94.7383E-03
            1218     10.8790E-03     159.428E-03    -21.8271E+06     61.6200E+06     72.5677E+06    -14.5025E+06    -236.403E-03     452.503E-03    -216.100E-03     95.9830E-03    -236.752E-03     452.784E-03    -215.795E-03     95.3983E-03
            1219     11.5909E-03     159.553E-03    -16.9156E+06     74.2380E+06     76.3960E+06    -16.6175E+06    -239.370E-03     456.625E-03    -217.255E-03     97.5702E-03    -239.778E-03     457.016E-03    -216.956E-03     96.1326E-03
            1220     12.3008E-03     159.681E-03    -13.2387E+06     79.2921E+06     80.7549E+06    -18.1682E+06    -241.908E-03     460.357E-03    -218.449E-03     97.9663E-03    -242.384E-03     460.834E-03    -218.141E-03     95.5375E-03
            1221     13.0113E-03     159.815E-03    -11.9139E+06     56.5400E+06     72.1216E+06    -17.4877E+06    -243.859E-03     463.481E-03    -219.622E-03     95.8458E-03    -244.370E-03     463.942E-03    -219.326E-03     92.2431E-03
            1222     13.7183E-03     159.944E-03    -12.1857E+06    -20.7363E+06     60.8573E+06    -12.6154E+06    -245.509E-03     466.356E-03    -220.847E-03     90.7208E-03    -245.929E-03     466.483E-03    -220.495E-03     86.5065E-03
            1223     732.813E-06     159.798E-03    -85.1345E+06    -160.682E+06    -83.1451E+06    -3.03109E+06    -205.832E-03     411.547E-03    -205.714E-03     8.93720E-03    -205.817E-03     411.079E-03    -205.774E-03     9.15883E-03
            1224     1.46587E-03     159.813E-03    -86.1104E+06    -150.722E+06    -79.4810E+06    -4.34120E+06    -205.822E-03     411.547E-03    -205.725E-03     16.9498E-03    -205.908E-03     411.027E-03    -205.779E-03     17.4578E-03
            1225     2.19819E-03     159.841E-03    -87.3268E+06    -132.784E+06    -73.7843E+06    -5.87548E+06    -205.739E-03     411.438E-03    -205.699E-03     26.6179E-03    -205.862E-03     410.994E-03    -205.749E-03     27.2674E-03
            1226     2.93057E-03     159.882E-03    -85.4344E+06    -121.133E+06    -61.9697E+06    -7.63519E+06    -207.106E-03     412.925E-03    -205.820E-03     35.5956E-03    -207.245E-03     412.511E-03    -205.830E-03     36.4065E-03
            1227     3.66140E-03     159.935E-03    -79.7919E+06    -109.595E+06    -43.5921E+06    -6.88257E+06    -208.391E-03     414.552E-03    -206.161E-03     44.6912E-03    -208.537E-03     414.152E-03    -206.104E-03     45.6631E-03
            1228     4.39288E-03     159.996E-03    -74.3165E+06    -89.4438E+06    -22.8415E+06    -5.90950E+06    -209.703E-03     416.282E-03    -206.579E-03     53.3059E-03    -209.871E-03     415.935E-03    -206.456E-03     54.4441E-03
            1229     5.12321E-03     160.067E-03    -69.4309E+06    -74.4808E+06    -6.87884E+06    -7.29249E+06    -211.902E-03     418.984E-03    -207.081E-03     61.2502E-03    -212.080E-03     418.670E-03    -206.907E-03     62.5139E-03
            1230     5.85150E-03     160.147E-03    -63.6429E+06    -60.8139E+06     5.04229E+06    -7.31965E+06    -214.344E-03     422.038E-03    -207.694E-03     69.4432E-03    -214.522E-03     421.759E-03    -207.488E-03     70.7721E-03
            1231     6.57863E-03     160.238E-03    -57.4360E+06    -36.9922E+06     19.0790E+06    -5.89595E+06    -216.756E-03     425.152E-03    -208.397E-03     76.6578E-03    -216.950E-03     424.956E-03    -208.164E-03     78.0410E-03
            1232     7.30443E-03     160.334E-03    -51.1703E+06    -14.9036E+06     33.5391E+06    -6.47884E+06    -219.799E-03     429.000E-03    -209.201E-03     83.0620E-03    -220.011E-03     428.880E-03    -208.937E-03     84.4143E-03
            1233     8.02780E-03     160.440E-03    -44.7002E+06     907.686E+03     44.1654E+06    -7.64462E+06    -223.521E-03     433.644E-03    -210.123E-03     88.9010E-03    -223.743E-03     433.583E-03    -209.839E-03     90.1339E-03
            1234     8.74678E-03     160.552E-03    -38.3431E+06    -893.579E+03     47.1179E+06    -8.13862E+06    -227.732E-03     438.913E-03    -211.181E-03     92.7990E-03    -227.931E-03     438.836E-03    -210.888E-03     93.8840E-03
            1235     9.46401E-03     160.669E-03    -31.7951E+06     12.2604E+06     53.1140E+06    -10.3477E+06    -231.632E-03     443.990E-03    -212.358E-03     96.5204E-03    -231.844E-03     443.979E-03    -212.064E-03     97.2825E-03
            1236     10.1804E-03     160.790E-03    -25.1077E+06     51.3925E+06     65.7237E+06    -12.4815E+06    -234.976E-03     448.580E-03    -213.604E-03     99.2400E-03    -235.256E-03     448.763E-03    -213.313E-03     99.5654E-03
            1237     10.8938E-03     160.918E-03    -18.7497E+06     66.5631E+06     72.1857E+06    -13.5049E+06    -238.990E-03     453.913E-03    -214.923E-03     100.323E-03    -239.310E-03     454.194E-03    -214.631E-03     100.070E-03
            1238     11.6037E-03     161.048E-03    -13.0801E+06     79.8740E+06     77.1209E+06    -14.2766E+06    -242.892E-03     459.208E-03    -216.316E-03     100.438E-03    -243.267E-03     459.597E-03    -216.027E-03     99.3853E-03
            1239     12.3111E-03     161.184E-03    -8.07299E+06     83.4278E+06     82.4971E+06    -14.6044E+06    -245.857E-03     463.624E-03    -217.768E-03     99.8736E-03    -246.295E-03     464.092E-03    -217.464E-03     97.7800E-03
            1240     13.0141E-03     161.320E-03    -3.80706E+06     56.6761E+06     74.8899E+06    -14.0775E+06    -248.243E-03     467.440E-03    -219.197E-03     97.4152E-03    -248.700E-03     467.868E-03    -218.900E-03     94.0751E-03
            1241     13.7169E-03     161.457E-03     1.52825E+06    -36.7669E+06     61.4089E+06    -9.94305E+06    -249.245E-03     469.892E-03    -220.646E-03     92.1578E-03    -249.568E-03     469.911E-03    -220.288E-03     88.0622E-03
            1242     733.783E-06     161.229E-03    -96.1413E+06    -158.510E+06    -93.1061E+06     504.476E+03    -204.742E-03     408.488E-03    -203.746E-03     8.83254E-03    -204.789E-03     408.055E-03    -203.842E-03     9.20161E-03
            1243     1.46599E-03     161.241E-03    -93.9055E+06    -149.926E+06    -83.6450E+06     2.72494E+06    -204.650E-03     408.951E-03    -204.301E-03     17.0843E-03    -204.771E-03     408.453E-03    -204.365E-03     17.8098E-03
            1244     2.20063E-03     161.269E-03    -91.5937E+06    -129.978E+06    -71.3985E+06     3.70068E+06    -205.156E-03     409.634E-03    -204.478E-03     26.9487E-03    -205.304E-03     409.204E-03    -204.514E-03     27.9069E-03
            1245     2.93394E-03     161.312E-03    -90.7188E+06    -112.665E+06    -57.6228E+06     1.17844E+06    -205.446E-03     410.102E-03    -204.656E-03     35.7488E-03    -205.625E-03     409.727E-03    -204.649E-03     36.9242E-03
            1246     3.66784E-03     161.365E-03    -88.6365E+06    -107.782E+06    -43.4636E+06    -2.45013E+06    -206.261E-03     411.117E-03    -204.856E-03     44.3516E-03    -206.447E-03     410.731E-03    -204.789E-03     45.7216E-03
            1247     4.40015E-03     161.429E-03    -82.4866E+06    -90.6445E+06    -27.2284E+06    -1.49094E+06    -207.992E-03     413.145E-03    -205.153E-03     52.9559E-03    -208.182E-03     412.799E-03    -205.038E-03     54.5531E-03
            1248     5.13116E-03     161.505E-03    -75.4838E+06    -68.0129E+06    -9.48442E+06    -955.985E+03    -210.141E-03     415.746E-03    -205.605E-03     60.6371E-03    -210.339E-03     415.462E-03    -205.444E-03     62.4264E-03
            1249     5.86096E-03     161.589E-03    -69.1132E+06    -57.8049E+06     3.38308E+06    -3.56687E+06    -212.390E-03     418.568E-03    -206.178E-03     68.2999E-03    -212.577E-03     418.295E-03    -205.977E-03     70.1860E-03
            1250     6.58943E-03     161.683E-03    -61.5853E+06    -37.8211E+06     15.3330E+06    -4.13100E+06    -215.211E-03     422.056E-03    -206.845E-03     75.7129E-03    -215.395E-03     421.843E-03    -206.624E-03     77.6679E-03
            1251     7.31566E-03     161.785E-03    -53.6619E+06    -9.88035E+06     29.4743E+06    -4.15833E+06    -218.651E-03     426.301E-03    -207.650E-03     82.1699E-03    -218.848E-03     426.187E-03    -207.411E-03     84.1520E-03
            1252     8.03911E-03     161.898E-03    -46.2862E+06     4.61693E+06     39.7667E+06    -5.54407E+06    -222.413E-03     431.012E-03    -208.599E-03     89.0566E-03    -222.611E-03     430.947E-03    -208.339E-03     90.8679E-03
            1253     8.76150E-03     162.018E-03    -38.6343E+06     6.42443E+06     45.0324E+06    -8.90801E+06    -226.831E-03     436.516E-03    -209.685E-03     94.9383E-03    -227.012E-03     436.452E-03    -209.413E-03     96.4449E-03
            1254     9.48007E-03     162.143E-03    -30.3321E+06     20.2971E+06     53.2689E+06    -12.6614E+06    -231.945E-03     442.882E-03    -210.937E-03     98.6948E-03    -232.132E-03     442.880E-03    -210.656E-03     99.8707E-03
            1255     10.1937E-03     162.272E-03    -22.4152E+06     53.1032E+06     65.7116E+06    -13.0921E+06    -237.090E-03     449.443E-03    -212.353E-03     100.466E-03    -237.327E-03     449.599E-03    -212.069E-03     101.298E-03
            1256     10.9049E-03     162.407E-03    -16.8129E+06     68.3930E+06     72.3272E+06    -11.6484E+06    -241.752E-03     455.649E-03    -213.897E-03     101.279E-03    -242.029E-03     455.901E-03    -213.610E-03     101.586E-03
            1257     11.6120E-03     162.549E-03    -13.0209E+06     84.2885E+06     77.1889E+06    -11.7489E+06    -245.681E-03     461.188E-03    -215.507E-03     101.454E-03    -246.026E-03     461.564E-03    -215.225E-03     100.927E-03
            1258     12.3169E-03     162.688E-03    -8.57652E+06     87.2616E+06     81.6565E+06    -13.8239E+06    -248.819E-03     465.972E-03    -217.153E-03     101.853E-03    -249.234E-03     466.431E-03    -216.859E-03     100.200E-03
            1259     13.0217E-03     162.835E-03    -5.23904E+06     52.2384E+06     72.2100E+06    -12.9649E+06    -251.239E-03     470.004E-03    -218.765E-03     100.982E-03    -251.676E-03     470.399E-03    -218.472E-03     97.9608E-03
            1260     13.7235E-03     162.972E-03    -2.45402E+06    -51.5262E+06     55.1749E+06    -8.15887E+06    -252.823E-03     473.213E-03    -220.390E-03     94.3683E-03    -253.122E-03     473.161E-03    -220.036E-03     90.4845E-03
            1261     734.461E-06     162.648E-03    -125.171E+06    -164.322E+06    -121.653E+06     2.50891E+06    -202.952E-03     405.280E-03    -202.328E-03     8.05560E-03    -203.097E-03     404.899E-03    -202.517E-03     8.65722E-03
            1262     1.47169E-03     162.666E-03    -120.851E+06    -156.462E+06    -109.136E+06     3.63513E+06    -203.873E-03     406.744E-03    -202.872E-03     18.0251E-03    -204.079E-03     406.288E-03    -203.015E-03     18.8467E-03
            1263     2.20298E-03     162.697E-03    -113.283E+06    -137.390E+06    -89.7407E+06     6.63758E+06    -204.987E-03     408.384E-03    -203.397E-03     26.0243E-03    -205.201E-03     407.971E-03    -203.483E-03     27.2740E-03
            1264     2.93656E-03     162.738E-03    -104.792E+06    -111.479E+06    -66.3044E+06     9.23612E+06    -204.977E-03     408.790E-03    -203.813E-03     33.4908E-03    -205.210E-03     408.448E-03    -203.831E-03     35.1474E-03
            1265     3.67029E-03     162.792E-03    -97.7167E+06    -98.0387E+06    -45.2749E+06     5.92208E+06    -205.509E-03     409.606E-03    -204.096E-03     41.1254E-03    -205.743E-03     409.276E-03    -204.039E-03     43.0882E-03
            1266     4.40359E-03     162.859E-03    -90.4592E+06    -89.9875E+06    -31.5301E+06     261.428E+03    -206.829E-03     411.211E-03    -204.381E-03     49.7025E-03    -207.042E-03     410.874E-03    -204.277E-03     51.8437E-03
            1267     5.13543E-03     162.938E-03    -80.9543E+06    -68.1668E+06    -17.2186E+06    -67.6856E+03    -208.599E-03     413.345E-03    -204.746E-03     57.7645E-03    -208.800E-03     413.066E-03    -204.616E-03     60.0902E-03
            1268     5.86644E-03     163.024E-03    -71.9135E+06    -51.0396E+06    -2.35492E+06    -192.573E+03    -211.078E-03     416.328E-03    -205.250E-03     65.4459E-03    -211.263E-03     416.084E-03    -205.084E-03     67.9301E-03
            1269     6.59585E-03     163.124E-03    -64.5493E+06    -34.2993E+06     10.8697E+06    -3.62043E+06    -214.165E-03     420.070E-03    -205.905E-03     73.1910E-03    -214.343E-03     419.866E-03    -205.707E-03     75.6985E-03
            1270     7.32260E-03     163.234E-03    -56.1608E+06    -7.91117E+06     24.5267E+06    -5.25386E+06    -217.461E-03     424.157E-03    -206.696E-03     79.9937E-03    -217.645E-03     424.042E-03    -206.480E-03     82.4886E-03
            1271     8.04823E-03     163.350E-03    -46.4603E+06     10.8558E+06     36.9956E+06    -6.92823E+06    -221.263E-03     428.892E-03    -207.629E-03     86.7445E-03    -221.442E-03     428.838E-03    -207.392E-03     89.0876E-03
            1272     8.77044E-03     163.479E-03    -37.1433E+06     19.3381E+06     46.5960E+06    -12.0467E+06    -226.207E-03     434.940E-03    -208.733E-03     92.3332E-03    -226.372E-03     434.908E-03    -208.474E-03     94.3899E-03
            1273     9.48901E-03     163.614E-03    -28.9666E+06     25.9447E+06     54.3456E+06    -15.9259E+06    -232.260E-03     442.316E-03    -210.056E-03     95.7387E-03    -232.418E-03     442.307E-03    -209.780E-03     97.4956E-03
            1274     10.2036E-03     163.756E-03    -22.3455E+06     48.0870E+06     64.1908E+06    -13.7874E+06    -238.215E-03     449.806E-03    -211.591E-03     97.8779E-03    -238.408E-03     449.905E-03    -211.307E-03     99.3147E-03
            1275     10.9121E-03     163.901E-03    -16.6462E+06     64.7719E+06     71.3518E+06    -9.11655E+06    -243.000E-03     456.264E-03    -213.263E-03     99.6598E-03    -243.235E-03     456.463E-03    -212.976E-03     100.598E-03
            1276     11.6200E-03     164.048E-03    -11.5880E+06     89.7537E+06     79.1241E+06    -8.06316E+06    -247.017E-03     462.004E-03    -214.987E-03     101.059E-03    -247.329E-03     462.365E-03    -214.705E-03     101.160E-03
            1277     12.3247E-03     164.199E-03    -8.69569E+06     94.3682E+06     83.1205E+06    -10.5640E+06    -250.539E-03     467.283E-03    -216.745E-03     100.624E-03    -250.923E-03     467.732E-03    -216.453E-03     99.6067E-03
            1278     13.0259E-03     164.345E-03    -3.78434E+06     49.8933E+06     72.5048E+06    -11.5565E+06    -252.916E-03     471.393E-03    -218.478E-03     98.6346E-03    -253.305E-03     471.737E-03    -218.182E-03     96.0594E-03
            1279     13.7264E-03     164.494E-03    -390.137E+03    -65.3631E+06     44.8698E+06    -7.56042E+06    -255.079E-03     475.261E-03    -220.182E-03     93.1681E-03    -255.307E-03     475.126E-03    -219.862E-03     89.5544E-03
            1280     736.676E-06     164.064E-03    -178.666E+06    -164.781E+06    -176.456E+06    -1.15938E+06    -203.381E-03     404.691E-03    -201.310E-03     6.79878E-03    -203.708E-03     404.456E-03    -201.695E-03     7.46687E-03
            1281     1.46895E-03     164.090E-03    -170.479E+06    -157.257E+06    -158.644E+06     -3.0421E+06    -203.970E-03     406.645E-03    -202.676E-03     15.6371E-03    -204.349E-03     406.327E-03    -202.994E-03     16.5860E-03
            1282     2.20449E-03     164.121E-03    -157.270E+06    -141.531E+06    -134.921E+06    -4.28548E+06    -204.417E-03     407.658E-03    -203.242E-03     22.5671E-03    -204.780E-03     407.353E-03    -203.483E-03     23.9639E-03
            1283     2.93727E-03     164.165E-03    -138.966E+06    -115.795E+06    -107.951E+06    -4.26107E+06    -205.376E-03     409.050E-03    -203.674E-03     30.0539E-03    -205.714E-03     408.797E-03    -203.845E-03     31.8631E-03
            1284     3.66976E-03     164.218E-03    -118.560E+06    -92.9735E+06    -77.6547E+06    -3.18206E+06    -206.170E-03     410.282E-03    -204.112E-03     37.3649E-03    -206.468E-03     410.054E-03    -204.194E-03     39.5836E-03
            1285     4.40241E-03     164.287E-03    -101.225E+06    -80.6199E+06    -49.5197E+06    -5.60869E+06    -206.757E-03     411.270E-03    -204.512E-03     44.5844E-03    -207.011E-03     411.021E-03    -204.496E-03     47.1064E-03
            1286     5.13588E-03     164.366E-03    -86.5937E+06    -70.9462E+06    -28.5497E+06    -8.33429E+06    -208.076E-03     412.962E-03    -204.886E-03     51.6085E-03    -208.284E-03     412.693E-03    -204.800E-03     54.3672E-03
            1287     5.86747E-03     164.459E-03    -71.6543E+06    -51.7926E+06    -10.5064E+06    -6.54526E+06    -210.547E-03     415.890E-03    -205.343E-03     58.6650E-03    -210.717E-03     415.652E-03    -205.217E-03     61.6378E-03
            1288     6.59627E-03     164.563E-03    -57.7669E+06    -26.9627E+06     8.55400E+06    -6.44151E+06    -213.476E-03     419.440E-03    -205.964E-03     65.7741E-03    -213.626E-03     419.264E-03    -205.798E-03     68.8286E-03
            1289     7.32462E-03     164.677E-03    -45.7497E+06    -4.32036E+06     25.7460E+06    -9.41863E+06    -216.898E-03     423.641E-03    -206.743E-03     71.7880E-03    -217.035E-03     423.526E-03    -206.542E-03     74.8364E-03
            1290     8.04934E-03     164.801E-03    -34.8444E+06     14.6915E+06     39.9461E+06    -10.6066E+06    -221.107E-03     428.797E-03    -207.690E-03     77.5606E-03    -221.232E-03     428.734E-03    -207.461E-03     80.5368E-03
            1291     8.77131E-03     164.938E-03    -26.8399E+06     29.5383E+06     52.4327E+06    -11.2054E+06    -226.136E-03     434.969E-03    -208.833E-03     83.8165E-03    -226.260E-03     434.951E-03    -208.575E-03     86.5645E-03
            1292     9.48899E-03     165.084E-03    -21.6489E+06     34.5936E+06     60.4508E+06    -14.2191E+06    -231.734E-03     441.910E-03    -210.175E-03     88.6532E-03    -231.859E-03     441.906E-03    -209.892E-03     91.0521E-03
            1293     10.2019E-03     165.237E-03    -15.3978E+06     40.1518E+06     65.9080E+06    -14.3587E+06    -236.984E-03     448.660E-03    -211.676E-03     91.6829E-03    -237.111E-03     448.684E-03    -211.382E-03     93.7124E-03
            1294     10.9139E-03     165.391E-03    -6.82861E+06     56.1339E+06     73.7367E+06    -9.53836E+06    -241.917E-03     455.209E-03    -213.292E-03     94.2466E-03    -242.064E-03     455.318E-03    -212.995E-03     95.8009E-03
            1295     11.6200E-03     165.548E-03     370.529E+03     91.9793E+06     85.3287E+06    -6.38408E+06    -246.584E-03     461.568E-03    -214.984E-03     96.9147E-03    -246.810E-03     461.875E-03    -214.691E-03     97.6802E-03
            1296     12.3236E-03     165.707E-03     5.64415E+06     96.7149E+06     90.5410E+06    -3.30816E+06    -250.559E-03     467.299E-03    -216.740E-03     98.0262E-03    -250.846E-03     467.688E-03    -216.436E-03     97.6623E-03
            1297     13.0246E-03     165.863E-03     3.88357E+06     50.4548E+06     77.1913E+06    -877.229E+03    -253.440E-03     471.928E-03    -218.488E-03     97.2627E-03    -253.751E-03     472.209E-03    -218.181E-03     95.4354E-03
            1298     13.7245E-03     166.011E-03     198.222E+03    -70.4385E+06     46.6403E+06    -1.81879E+06    -254.726E-03     474.923E-03    -220.197E-03     93.6643E-03    -254.915E-03     474.728E-03    -219.862E-03     90.5880E-03
            1299     734.134E-06     165.495E-03    -205.218E+06    -147.533E+06    -203.467E+06    -8.57845E+06    -205.427E-03     409.720E-03    -204.293E-03     5.87410E-03    -205.892E-03     409.637E-03    -204.799E-03     6.34403E-03
            1300     1.46706E-03     165.512E-03    -197.458E+06    -141.253E+06    -188.434E+06    -14.4741E+06    -205.050E-03     409.976E-03    -204.925E-03     11.2546E-03    -205.551E-03     409.824E-03    -205.376E-03     12.1344E-03
            1301     2.19991E-03     165.546E-03    -185.102E+06    -125.544E+06    -168.168E+06    -21.8766E+06    -205.136E-03     410.173E-03    -205.036E-03     17.3180E-03    -205.621E-03     410.043E-03    -205.427E-03     18.5445E-03
            1302     2.93365E-03     165.591E-03    -169.751E+06    -105.591E+06    -143.572E+06    -28.3224E+06    -206.419E-03     411.683E-03    -205.264E-03     23.4819E-03    -206.884E-03     411.586E-03    -205.583E-03     25.0761E-03
            1303     3.66569E-03     165.648E-03    -151.523E+06    -90.8846E+06    -115.849E+06    -30.2933E+06    -207.866E-03     413.570E-03    -205.704E-03     28.4445E-03    -208.293E-03     413.471E-03    -205.932E-03     30.4985E-03
            1304     4.39681E-03     165.716E-03    -130.457E+06    -72.9794E+06    -84.3308E+06    -29.2770E+06    -208.642E-03     414.851E-03    -206.209E-03     33.2085E-03    -209.024E-03     414.755E-03    -206.336E-03     35.7245E-03
            1305     5.12706E-03     165.797E-03    -107.929E+06    -63.6171E+06    -53.2965E+06    -30.9385E+06    -209.642E-03     416.351E-03    -206.710E-03     38.7771E-03    -209.958E-03     416.213E-03    -206.727E-03     41.6303E-03
            1306     5.85681E-03     165.893E-03    -84.6720E+06    -55.8096E+06    -27.4414E+06    -32.3824E+06    -211.213E-03     418.435E-03    -207.222E-03     44.2424E-03    -211.449E-03     418.251E-03    -207.155E-03     47.3445E-03
            1307     6.58652E-03     166.001E-03    -61.2097E+06    -30.1680E+06    -3.54026E+06    -28.7561E+06    -213.629E-03     421.427E-03    -207.798E-03     49.9319E-03    -213.806E-03     421.290E-03    -207.683E-03     53.2681E-03
            1308     7.31225E-03     166.121E-03    -40.8618E+06    -3.53118E+06     20.8865E+06    -24.6573E+06    -217.114E-03     425.657E-03    -208.543E-03     55.4543E-03    -217.250E-03     425.575E-03    -208.374E-03     58.9542E-03
            1309     8.03609E-03     166.252E-03    -25.1998E+06     9.03446E+06     41.2326E+06    -20.4867E+06    -221.179E-03     430.666E-03    -209.487E-03     60.8432E-03    -221.274E-03     430.585E-03    -209.257E-03     64.3996E-03
            1310     8.75691E-03     166.396E-03    -12.1999E+06     24.2822E+06     58.2444E+06    -13.8576E+06    -225.245E-03     435.824E-03    -210.579E-03     67.3357E-03    -225.313E-03     435.766E-03    -210.305E-03     70.8053E-03
            1311     9.47531E-03     166.552E-03    -2.26257E+06     41.7239E+06     71.2978E+06    -10.4651E+06    -228.874E-03     440.630E-03    -211.756E-03     73.3751E-03    -228.935E-03     440.625E-03    -211.457E-03     76.5834E-03
            1312     10.1919E-03     166.714E-03     3.12234E+06     38.6022E+06     74.7064E+06    -9.97439E+06    -232.940E-03     445.939E-03    -212.999E-03     79.0196E-03    -232.980E-03     445.912E-03    -212.686E-03     81.7879E-03
            1313     10.9031E-03     166.877E-03     2.88903E+06     41.4927E+06     76.9567E+06    -4.20023E+06    -237.857E-03     452.192E-03    -214.336E-03     84.6999E-03    -237.921E-03     452.192E-03    -214.015E-03     86.9553E-03
            1314     11.6128E-03     167.045E-03    -9.38175E+03     91.2624E+06     90.5004E+06     1.73269E+06    -242.457E-03     458.223E-03    -215.766E-03     90.2080E-03    -242.659E-03     458.488E-03    -215.446E-03     91.7613E-03
            1315     12.3191E-03     167.212E-03    -1.64309E+06     92.5938E+06     91.1008E+06     2.57291E+06    -246.624E-03     463.891E-03    -217.268E-03     94.5145E-03    -246.901E-03     464.229E-03    -216.944E-03     94.9055E-03
            1316     13.0233E-03     167.377E-03     2.20973E+06     44.5973E+06     78.1204E+06     6.26861E+06    -250.451E-03     469.258E-03    -218.807E-03     96.0913E-03    -250.723E-03     469.471E-03    -218.484E-03     94.9473E-03
            1317     13.7238E-03     167.532E-03     4.03825E+06    -61.9388E+06     55.8382E+06     8.21417E+06    -251.650E-03     472.011E-03    -220.362E-03     92.4150E-03    -251.818E-03     471.813E-03    -219.998E-03     89.8016E-03
            1318     727.405E-06     166.921E-03    -172.255E+06    -112.016E+06    -169.912E+06    -12.2950E+06    -209.111E-03     420.819E-03    -211.708E-03     2.91146E-03    -209.530E-03     420.815E-03    -212.145E-03     3.28893E-03
            1319     1.45978E-03     166.948E-03    -167.079E+06    -107.312E+06    -159.090E+06    -22.0502E+06    -210.245E-03     420.686E-03    -210.440E-03     4.13438E-03    -210.701E-03     420.625E-03    -210.838E-03     4.72111E-03
            1320     2.19050E-03     166.976E-03    -159.859E+06    -92.7057E+06    -142.739E+06    -31.2981E+06    -210.294E-03     420.803E-03    -210.509E-03     4.48486E-03    -210.756E-03     420.777E-03    -210.856E-03     5.45767E-03
            1321     2.92068E-03     167.025E-03    -150.814E+06    -77.6332E+06    -121.037E+06    -39.3487E+06    -210.849E-03     421.558E-03    -210.709E-03     7.00652E-03    -211.320E-03     421.563E-03    -210.983E-03     8.26797E-03
            1322     3.64915E-03     167.085E-03    -138.942E+06    -71.9083E+06    -98.6532E+06    -46.2962E+06    -211.827E-03     422.897E-03    -211.069E-03     7.23295E-03    -212.286E-03     422.888E-03    -211.257E-03     8.91959E-03
            1323     4.37696E-03     167.153E-03    -124.216E+06    -59.9854E+06    -78.3623E+06    -51.2527E+06    -212.452E-03     423.943E-03    -211.491E-03     8.52729E-03    -212.886E-03     423.945E-03    -211.616E-03     10.6238E-03
            1324     5.10426E-03     167.237E-03    -108.499E+06    -49.2150E+06    -56.7315E+06    -53.5119E+06    -212.834E-03     424.756E-03    -211.922E-03     11.8384E-03    -213.238E-03     424.760E-03    -211.977E-03     14.3108E-03
            1325     5.83108E-03     167.333E-03    -94.4785E+06    -47.2268E+06    -36.1077E+06    -55.2114E+06    -213.340E-03     425.695E-03    -212.356E-03     15.3075E-03    -213.705E-03     425.659E-03    -212.331E-03     18.1318E-03
            1326     6.55616E-03     167.443E-03    -80.9756E+06    -33.9914E+06    -17.4795E+06    -55.4816E+06    -214.289E-03     427.075E-03    -212.786E-03     19.8782E-03    -214.627E-03     427.053E-03    -212.706E-03     23.0100E-03
            1327     7.28153E-03     167.569E-03    -65.3627E+06    -12.4303E+06     3.90655E+06    -50.6952E+06    -216.161E-03     429.449E-03    -213.288E-03     25.8699E-03    -216.471E-03     429.471E-03    -213.156E-03     29.3325E-03
            1328     8.00360E-03     167.706E-03    -49.4980E+06    -4.06938E+06     23.6002E+06    -42.2680E+06    -219.039E-03     432.966E-03    -213.926E-03     32.5969E-03    -219.295E-03     432.964E-03    -213.731E-03     36.3381E-03
            1329     8.72320E-03     167.855E-03    -34.6567E+06     7.09604E+06     42.6801E+06    -33.7637E+06    -221.573E-03     436.238E-03    -214.665E-03     40.4843E-03    -221.777E-03     436.222E-03    -214.411E-03     44.3229E-03
            1330     9.44178E-03     168.015E-03    -21.1518E+06     28.0713E+06     62.0916E+06    -23.2794E+06    -223.308E-03     438.726E-03    -215.419E-03     48.0810E-03    -223.483E-03     438.748E-03    -215.118E-03     51.9245E-03
            1331     10.1604E-03     168.180E-03    -10.7762E+06     29.6054E+06     73.4702E+06    -12.2121E+06    -225.916E-03     442.094E-03    -216.178E-03     55.9928E-03    -226.044E-03     442.078E-03    -215.838E-03     59.6120E-03
            1332     10.8785E-03     168.357E-03    -1.60964E+06     23.6787E+06     80.5365E+06    -4.08669E+06    -229.822E-03     446.826E-03    -217.004E-03     63.8676E-03    -229.901E-03     446.752E-03    -216.633E-03     66.9699E-03
            1333     11.5922E-03     168.530E-03     7.81115E+06     65.9110E+06     95.2335E+06     10.4190E+06    -233.498E-03     451.390E-03    -217.892E-03     70.7141E-03    -233.623E-03     451.502E-03    -217.522E-03     73.1842E-03
            1334     12.3043E-03     168.709E-03     6.72251E+06     86.3789E+06     94.5811E+06     27.3470E+06    -237.208E-03     456.029E-03    -218.820E-03     78.1321E-03    -237.406E-03     456.285E-03    -218.483E-03     79.6289E-03
            1335     13.0123E-03     168.880E-03    -7.21434E+06     62.1605E+06     89.9561E+06     21.8607E+06    -240.220E-03     460.075E-03    -219.855E-03     84.5941E-03    -240.523E-03     460.314E-03    -219.485E-03     84.5484E-03
            1336     13.7187E-03     169.047E-03    -10.4986E+06    -45.1818E+06     63.1863E+06     6.05840E+06    -241.113E-03     461.969E-03    -220.856E-03     86.1610E-03    -241.330E-03     461.807E-03    -220.459E-03     84.3579E-03
            1337     726.429E-06     168.380E-03    -107.133E+06    -67.7616E+06    -102.185E+06    -11.0195E+06    -221.145E-03     443.027E-03    -221.882E-03    -2.51714E-03    -221.332E-03     443.051E-03    -222.140E-03    -2.41814E-03
            1338     1.44497E-03     168.401E-03    -102.513E+06    -65.1949E+06    -90.9335E+06    -22.1239E+06    -222.665E-03     444.574E-03    -221.910E-03    -9.90904E-03    -222.970E-03     444.534E-03    -222.121E-03    -9.71351E-03
            1339     2.16604E-03     168.433E-03    -95.9339E+06    -55.5873E+06    -75.3130E+06    -31.0251E+06    -222.782E-03     445.304E-03    -222.522E-03    -17.3566E-03    -223.095E-03     445.273E-03    -222.679E-03    -16.9046E-03
            1340     2.88690E-03     168.479E-03    -87.9830E+06    -44.7935E+06    -58.3212E+06    -37.7555E+06    -221.550E-03     444.441E-03    -222.891E-03    -23.0087E-03    -221.878E-03     444.444E-03    -222.990E-03    -22.2902E-03
            1341     3.60878E-03     168.541E-03    -81.0360E+06    -40.0565E+06    -42.5294E+06    -44.3878E+06    -220.081E-03     443.106E-03    -223.024E-03    -28.0836E-03    -220.416E-03     443.115E-03    -223.061E-03    -27.1136E-03
            1342     4.32999E-03     168.609E-03    -76.1635E+06    -35.9219E+06    -29.9895E+06    -50.3052E+06    -219.449E-03     442.533E-03    -223.084E-03    -32.1482E-03    -219.798E-03     442.554E-03    -223.072E-03    -30.9188E-03
            1343     5.05107E-03     168.692E-03    -73.1855E+06    -34.0690E+06    -20.4455E+06    -52.0571E+06    -218.570E-03     441.735E-03    -223.165E-03    -34.3310E-03    -218.936E-03     441.764E-03    -223.112E-03    -32.7727E-03
            1344     5.77207E-03     168.787E-03    -70.4096E+06    -30.1176E+06    -10.2896E+06    -52.7751E+06    -217.204E-03     440.434E-03    -223.230E-03    -35.3213E-03    -217.593E-03     440.483E-03    -223.136E-03    -33.3941E-03
            1345     6.49393E-03     168.898E-03    -67.4158E+06    -22.0184E+06     1.06049E+06    -54.9651E+06    -215.612E-03     438.858E-03    -223.246E-03    -34.3597E-03    -216.031E-03     438.945E-03    -223.111E-03    -32.0834E-03
            1346     7.21538E-03     169.021E-03    -65.5193E+06    -15.3564E+06     10.3992E+06    -54.2042E+06    -214.126E-03     437.333E-03    -223.207E-03    -30.9297E-03    -214.568E-03     437.450E-03    -223.038E-03    -28.2708E-03
            1347     7.93810E-03     169.162E-03    -63.3993E+06    -12.1863E+06     17.9288E+06    -49.6650E+06    -212.879E-03     436.001E-03    -223.122E-03    -25.3756E-03    -213.327E-03     436.125E-03    -222.923E-03    -22.3184E-03
            1348     8.66039E-03     169.313E-03    -60.1361E+06    -4.03292E+06     29.9038E+06    -43.8814E+06    -211.803E-03     434.798E-03    -222.995E-03    -17.4436E-03    -212.256E-03     434.939E-03    -222.753E-03    -14.0505E-03
            1349     9.38322E-03     169.474E-03    -55.1326E+06     6.81394E+06     42.5733E+06    -35.8063E+06    -211.436E-03     434.252E-03    -222.816E-03    -6.99498E-03    -211.877E-03     434.404E-03    -222.534E-03    -3.34816E-03
            1350     10.1046E-03     169.643E-03    -47.4862E+06     8.96058E+06     52.7103E+06    -25.6660E+06    -212.148E-03     434.770E-03    -222.622E-03     5.96755E-03    -212.535E-03     434.876E-03    -222.303E-03     9.70817E-03
            1351     10.8241E-03     169.821E-03    -37.0996E+06     12.1701E+06     65.1464E+06    -19.7769E+06    -213.545E-03     435.994E-03    -222.449E-03     21.1078E-03    -213.861E-03     436.043E-03    -222.087E-03     24.6652E-03
            1352     11.5437E-03     170.005E-03    -26.0906E+06     16.1334E+06     74.9729E+06    -8.24716E+06    -215.536E-03     437.815E-03    -222.279E-03     37.0928E-03    -215.778E-03     437.815E-03    -221.890E-03     40.3016E-03
            1353     12.2628E-03     170.183E-03    -9.34733E+06     26.2604E+06     82.1186E+06     23.7886E+06    -218.159E-03     440.266E-03    -222.106E-03     55.8255E-03    -218.315E-03     440.252E-03    -221.720E-03     58.5450E-03
            1354     12.9822E-03     170.369E-03     7.64263E+06     93.3820E+06     111.438E+06     40.6904E+06    -219.966E-03     441.948E-03    -221.982E-03     72.0277E-03    -220.193E-03     442.216E-03    -221.571E-03     73.6514E-03
            1355     13.7050E-03     170.527E-03     13.4125E+06     5.06574E+06     77.1911E+06     17.7016E+06    -219.572E-03     441.319E-03    -221.746E-03     81.1042E-03    -219.669E-03     441.260E-03    -221.387E-03     80.8332E-03
            1356     705.399E-06     169.881E-03    -32.6832E+06    -28.6353E+06    -29.3196E+06    -8.12161E+06    -243.977E-03     487.660E-03    -243.684E-03    -15.9792E-03    -243.970E-03     487.752E-03    -243.741E-03    -16.0974E-03
            1357     1.41652E-03     169.902E-03    -31.1581E+06    -27.0206E+06    -20.5304E+06    -15.4657E+06    -243.712E-03     487.942E-03    -244.230E-03    -34.1062E-03    -243.837E-03     487.866E-03    -244.248E-03    -34.2033E-03
            1358     2.12168E-03     169.940E-03    -30.1119E+06    -23.5327E+06    -10.9521E+06    -21.6506E+06    -242.361E-03     486.845E-03    -244.484E-03    -48.4640E-03    -242.492E-03     486.764E-03    -244.461E-03    -48.5856E-03
            1359     2.82659E-03     169.981E-03    -30.2013E+06    -18.4487E+06    -1.48431E+06    -25.6452E+06    -239.747E-03     484.182E-03    -244.434E-03    -62.6764E-03    -239.908E-03     484.120E-03    -244.371E-03    -62.7133E-03
            1360     3.53501E-03     170.035E-03    -31.3210E+06    -14.0527E+06     9.77508E+06    -28.4521E+06    -236.015E-03     480.123E-03    -244.108E-03    -75.1591E-03    -236.209E-03     480.072E-03    -243.994E-03    -75.1221E-03
            1361     4.24509E-03     170.104E-03    -33.0588E+06    -14.4215E+06     20.7271E+06    -30.1194E+06    -232.790E-03     476.439E-03    -243.649E-03    -87.2735E-03    -233.022E-03     476.392E-03    -243.476E-03    -87.0564E-03
            1362     4.95467E-03     170.182E-03    -34.4184E+06    -18.3435E+06     27.5878E+06    -31.3329E+06    -229.543E-03     472.708E-03    -243.166E-03    -97.7141E-03    -229.802E-03     472.655E-03    -242.951E-03    -97.2991E-03
            1363     5.66524E-03     170.273E-03    -35.3985E+06    -14.1576E+06     32.6774E+06    -33.1200E+06    -225.363E-03     467.981E-03    -242.618E-03    -106.056E-03    -225.660E-03     467.966E-03    -242.383E-03    -105.437E-03
            1364     6.37702E-03     170.376E-03    -37.1454E+06    -8.22543E+06     37.9782E+06    -33.2935E+06    -220.770E-03     462.756E-03    -241.986E-03    -112.265E-03    -221.111E-03     462.788E-03    -241.731E-03    -111.418E-03
            1365     7.09112E-03     170.494E-03    -40.2328E+06    -8.12908E+06     41.7674E+06    -31.5504E+06    -215.107E-03     456.340E-03    -241.233E-03    -116.640E-03    -215.491E-03     456.398E-03    -240.954E-03    -115.527E-03
            1366     7.80725E-03     170.625E-03    -43.2503E+06    -8.43683E+06     44.6643E+06    -30.1906E+06    -207.918E-03     448.170E-03    -240.252E-03    -118.264E-03    -208.339E-03     448.252E-03    -239.954E-03    -116.894E-03
            1367     8.52932E-03     170.768E-03    -45.4609E+06    -7.06265E+06     47.2317E+06    -27.5694E+06    -200.645E-03     439.642E-03    -238.998E-03    -116.984E-03    -201.098E-03     439.753E-03    -238.685E-03    -115.332E-03
            1368     9.25491E-03     170.923E-03    -46.8220E+06     137.025E+03     49.5803E+06    -25.0229E+06    -194.048E-03     431.552E-03    -237.504E-03    -111.583E-03    -194.525E-03     431.711E-03    -237.188E-03    -109.676E-03
            1369     9.98482E-03     171.089E-03    -48.2847E+06    -1.76519E+06     47.6947E+06    -21.4267E+06    -188.276E-03     424.091E-03    -235.814E-03    -100.147E-03    -188.734E-03     424.234E-03    -235.503E-03    -98.0754E-03
            1370     10.7192E-03     171.264E-03    -50.4015E+06     7.09384E+06     49.6160E+06    -17.8754E+06    -182.847E-03     416.786E-03    -233.939E-03    -83.6106E-03    -183.297E-03     416.950E-03    -233.628E-03    -81.4053E-03
            1371     11.4585E-03     171.445E-03    -51.0740E+06    -4.79173E+06     51.2252E+06    -14.6181E+06    -178.745E-03     410.647E-03    -231.902E-03    -62.0040E-03    -179.132E-03     410.708E-03    -231.565E-03    -59.8097E-03
            1372     12.2003E-03     171.631E-03    -40.4655E+06    -35.0426E+06     53.6321E+06    -8.65521E+06    -175.850E-03     405.558E-03    -229.708E-03    -34.2589E-03    -176.086E-03     405.401E-03    -229.330E-03    -32.2943E-03
            1373     12.9445E-03     171.813E-03    -10.7937E+06     57.3110E+06     89.3655E+06     5.21079E+06    -172.805E-03     400.073E-03    -227.268E-03     83.8079E-06    -173.050E-03     400.264E-03    -226.889E-03     1.33151E-03
            1374     13.6856E-03     171.987E-03     12.0943E+06     39.1842E+06     65.5711E+06     21.1552E+06    -168.596E-03     393.024E-03    -224.428E-03     33.3105E-03    -168.684E-03     393.138E-03    -224.175E-03     33.4830E-03
            1375     13.6349E-03     85.5511E-03    -3.47044E+06     45.6409E+06     71.0319E+06    -846.527E+03    -227.856E-03     454.471E-03    -226.615E-03     71.5015E-03    -228.264E-03     454.823E-03    -226.321E-03     67.7921E-03
            1376     12.9218E-03     85.4408E-03    -14.0292E+06     36.3573E+06     64.9652E+06    -339.039E+03    -227.936E-03     454.546E-03    -226.610E-03     73.0438E-03    -228.406E-03     454.906E-03    -226.317E-03     69.0638E-03
            1377     12.2029E-03     85.3273E-03    -15.4517E+06     35.4651E+06     65.3116E+06    -2.00389E+06    -226.970E-03     453.609E-03    -226.639E-03     73.6105E-03    -227.436E-03     453.956E-03    -226.341E-03     69.8886E-03
            1378     11.4818E-03     85.2257E-03    -19.0761E+06     31.6112E+06     62.0355E+06    -4.47566E+06    -226.059E-03     452.782E-03    -226.723E-03     73.9434E-03    -226.514E-03     453.101E-03    -226.431E-03     70.5353E-03
            1379     10.7623E-03     85.1178E-03    -26.7605E+06     25.4793E+06     55.0958E+06    -7.70594E+06    -226.328E-03     453.151E-03    -226.823E-03     70.0573E-03    -226.794E-03     453.452E-03    -226.546E-03     66.5943E-03
            1380     10.0442E-03     85.0218E-03    -30.7901E+06     22.7975E+06     49.1096E+06    -5.23638E+06    -226.780E-03     453.673E-03    -226.893E-03     65.4795E-03    -227.220E-03     453.942E-03    -226.636E-03     62.3790E-03
            1381     9.32615E-03     84.9267E-03    -34.0366E+06     16.0264E+06     42.2621E+06    -2.32860E+06    -226.821E-03     453.770E-03    -226.949E-03     62.7973E-03    -227.214E-03     453.976E-03    -226.712E-03     60.3851E-03
            1382     8.60864E-03     84.8406E-03    -36.8428E+06     9.96504E+06     38.9835E+06     1.22400E+06    -227.733E-03     454.720E-03    -226.987E-03     59.3335E-03    -228.086E-03     454.865E-03    -226.753E-03     57.5949E-03
            1383     7.89279E-03     84.7497E-03    -45.2143E+06     2.82860E+06     25.8350E+06     4.87230E+06    -227.917E-03     454.847E-03    -226.930E-03     54.2395E-03    -228.249E-03     454.954E-03    -226.739E-03     53.0336E-03
            1384     7.17481E-03     84.6737E-03    -53.4044E+06    -9.18706E+06     4.87140E+06     2.81463E+06    -227.080E-03     453.934E-03    -226.854E-03     48.8656E-03    -227.391E-03     454.009E-03    -226.739E-03     47.7936E-03
            1385     6.45621E-03     84.6021E-03    -52.6696E+06    -27.9087E+06    -4.72166E+06    -55.4921E+03    -226.645E-03     453.529E-03    -226.885E-03     44.0256E-03    -226.891E-03     453.504E-03    -226.791E-03     43.2798E-03
            1386     5.73778E-03     84.5339E-03    -61.3661E+06    -58.4458E+06    -17.8720E+06    -4.21483E+06    -226.796E-03     453.739E-03    -226.942E-03     39.2370E-03    -227.014E-03     453.582E-03    -226.858E-03     38.5438E-03
            1387     5.02073E-03     84.4794E-03    -72.9797E+06    -82.8676E+06    -32.5041E+06    -1.71823E+06    -227.189E-03     454.137E-03    -226.948E-03     34.6834E-03    -227.401E-03     453.890E-03    -226.885E-03     34.1431E-03
            1388     4.30330E-03     84.4299E-03    -75.5806E+06    -101.019E+06    -40.7396E+06     4.45913E+06    -227.189E-03     454.113E-03    -226.924E-03     29.3986E-03    -227.363E-03     453.779E-03    -226.872E-03     29.3012E-03
            1389     3.58712E-03     84.3884E-03    -78.5949E+06    -122.567E+06    -54.2666E+06     5.01917E+06    -227.027E-03     453.904E-03    -226.877E-03     24.7779E-03    -227.157E-03     453.477E-03    -226.856E-03     24.7736E-03
            1390     2.86892E-03     84.3516E-03    -82.7387E+06    -140.090E+06    -67.3303E+06     2.10123E+06    -226.966E-03     453.799E-03    -226.832E-03     20.0008E-03    -227.062E-03     453.300E-03    -226.846E-03     19.9767E-03
            1391     2.15239E-03     84.3264E-03    -87.7977E+06    -152.111E+06    -77.7536E+06     1.56542E+06    -226.846E-03     453.647E-03    -226.801E-03     14.4684E-03    -226.920E-03     453.098E-03    -226.842E-03     14.5379E-03
            1392     1.43418E-03     84.3047E-03    -92.2787E+06    -162.086E+06    -88.2948E+06     1.11263E+06    -226.784E-03     453.574E-03    -226.789E-03     9.62984E-03    -226.832E-03     452.982E-03    -226.862E-03     9.68013E-03
            1393     717.502E-06     84.2948E-03    -94.3634E+06    -174.161E+06    -94.4770E+06    -482.623E+03    -227.005E-03     453.735E-03    -226.730E-03     4.04137E-03    -226.957E-03     453.135E-03    -226.813E-03     4.14882E-03
            1394     13.6417E-03     84.0602E-03    -6.35638E+06     46.7972E+06     72.8631E+06     356.065E+03    -228.147E-03     454.670E-03    -226.524E-03     75.0596E-03    -228.577E-03     455.033E-03    -226.218E-03     71.4553E-03
            1395     12.9197E-03     83.9491E-03    -9.05780E+06     41.6304E+06     69.9361E+06     3.11854E+06    -226.673E-03     453.224E-03    -226.551E-03     76.6393E-03    -227.139E-03     453.602E-03    -226.248E-03     72.7953E-03
            1396     12.1998E-03     83.8428E-03    -6.77134E+06     43.3224E+06     73.7919E+06    -520.441E+03    -226.176E-03     452.830E-03    -226.654E-03     75.0224E-03    -226.633E-03     453.202E-03    -226.338E-03     71.2605E-03
            1397     11.4813E-03     83.7349E-03    -11.3189E+06     39.1662E+06     70.0568E+06    -519.006E+03    -226.322E-03     453.074E-03    -226.752E-03     72.5277E-03    -226.774E-03     453.421E-03    -226.442E-03     68.9450E-03
            1398     10.7639E-03     83.6286E-03    -23.7658E+06     28.0936E+06     55.4149E+06    -2.51940E+06    -226.298E-03     453.118E-03    -226.820E-03     70.0558E-03    -226.743E-03     453.417E-03    -226.549E-03     66.8272E-03
            1399     10.0458E-03     83.5296E-03    -40.2683E+06     13.0230E+06     36.4778E+06    -9.61173E+06    -226.765E-03     453.629E-03    -226.864E-03     65.7577E-03    -227.215E-03     453.877E-03    -226.642E-03     62.6632E-03
            1400     9.32630E-03     83.4404E-03    -45.2327E+06     5.15879E+06     31.0415E+06    -6.26206E+06    -227.673E-03     454.569E-03    -226.896E-03     62.2227E-03    -228.094E-03     454.758E-03    -226.683E-03     59.6652E-03
            1401     8.60880E-03     83.3421E-03    -41.9687E+06     5.20969E+06     31.8344E+06    -1.15058E+06    -228.047E-03     454.929E-03    -226.882E-03     58.8625E-03    -228.410E-03     455.069E-03    -226.669E-03     57.0536E-03
            1402     7.89178E-03     83.2593E-03    -49.5667E+06    -2.11022E+06     17.8243E+06    -1.60087E+06    -227.712E-03     454.517E-03    -226.805E-03     53.8477E-03    -228.057E-03     454.627E-03    -226.641E-03     52.3414E-03
            1403     7.17411E-03     83.1813E-03    -54.8957E+06    -9.17143E+06     5.17706E+06    -364.345E+03    -227.613E-03     454.341E-03    -226.729E-03     48.9673E-03    -227.933E-03     454.419E-03    -226.610E-03     47.8209E-03
            1404     6.45860E-03     83.1092E-03    -57.8758E+06    -23.4699E+06    -4.73139E+06     3.10812E+06    -227.254E-03     453.929E-03    -226.675E-03     43.6125E-03    -227.537E-03     453.937E-03    -226.580E-03     42.7847E-03
            1405     5.74058E-03     83.0466E-03    -68.4046E+06    -58.8119E+06    -23.7047E+06     861.264E+03    -226.419E-03     453.088E-03    -226.669E-03     38.4173E-03    -226.664E-03     452.950E-03    -226.603E-03     37.7534E-03
            1406     5.02144E-03     82.9859E-03    -75.3344E+06    -86.9054E+06    -39.8591E+06    -2.75245E+06    -226.341E-03     453.054E-03    -226.714E-03     33.5379E-03    -226.546E-03     452.799E-03    -226.678E-03     33.0498E-03
            1407     4.30504E-03     82.9378E-03    -76.8033E+06    -103.730E+06    -45.2468E+06    -2.34833E+06    -226.760E-03     453.527E-03    -226.767E-03     29.0913E-03    -226.931E-03     453.189E-03    -226.731E-03     28.7873E-03
            1408     3.58687E-03     82.8960E-03    -79.3208E+06    -121.868E+06    -51.1133E+06     431.471E+03    -226.946E-03     453.717E-03    -226.770E-03     25.0410E-03    -227.087E-03     453.292E-03    -226.734E-03     24.8825E-03
            1409     2.87005E-03     82.8612E-03    -82.9038E+06    -135.388E+06    -62.0399E+06     2.19772E+06    -226.884E-03     453.600E-03    -226.716E-03     20.0879E-03    -226.998E-03     453.120E-03    -226.710E-03     20.0243E-03
            1410     2.15227E-03     82.8328E-03    -93.3663E+06    -152.745E+06    -78.5458E+06     2.02346E+06    -226.782E-03     453.423E-03    -226.641E-03     14.6832E-03    -226.881E-03     452.879E-03    -226.677E-03     14.7099E-03
            1411     1.43576E-03     82.8160E-03    -95.1663E+06    -159.928E+06    -85.8632E+06     2.72479E+06    -226.543E-03     453.175E-03    -226.631E-03     10.0754E-03    -226.603E-03     452.587E-03    -226.691E-03     10.1776E-03
            1412     717.163E-06     82.8013E-03    -91.6260E+06    -167.131E+06    -88.2709E+06     3.42428E+06    -226.538E-03     453.445E-03    -226.907E-03     5.85204E-03    -226.491E-03     452.855E-03    -226.973E-03     5.92877E-03
            1413     13.6350E-03     82.5690E-03    -2.68161E+06     48.9257E+06     74.0340E+06     3.96469E+06    -227.907E-03     454.521E-03    -226.613E-03     76.2873E-03    -228.326E-03     454.889E-03    -226.310E-03     72.7281E-03
            1414     12.9190E-03     82.4617E-03    -4.29215E+06     47.5258E+06     75.2510E+06     2.27045E+06    -227.681E-03     454.319E-03    -226.638E-03     76.4432E-03    -228.156E-03     454.729E-03    -226.324E-03     72.3422E-03
            1415     12.2011E-03     82.3523E-03    -7.74667E+06     42.9850E+06     74.3710E+06    -1.14738E+06    -227.275E-03     453.948E-03    -226.673E-03     74.1990E-03    -227.758E-03     454.341E-03    -226.353E-03     70.1098E-03
            1416     11.4839E-03     82.2436E-03    -16.8483E+06     35.2232E+06     67.2750E+06    -1.35564E+06    -226.189E-03     452.924E-03    -226.735E-03     72.5408E-03    -226.664E-03     453.270E-03    -226.426E-03     68.8803E-03
            1417     10.7631E-03     82.1427E-03    -25.6669E+06     28.3880E+06     57.2825E+06     466.801E+03    -226.004E-03     452.833E-03    -226.829E-03     71.1373E-03    -226.461E-03     453.133E-03    -226.546E-03     68.0220E-03
            1418     10.0426E-03     82.0381E-03    -32.2205E+06     20.8100E+06     43.2642E+06    -813.179E+03    -227.838E-03     454.686E-03    -226.848E-03     66.7584E-03    -228.263E-03     454.945E-03    -226.615E-03     63.9393E-03
            1419     9.32842E-03     81.9447E-03    -39.4491E+06     8.24277E+06     29.0463E+06    -4.41360E+06    -229.056E-03     455.808E-03    -226.752E-03     61.5114E-03    -229.450E-03     456.007E-03    -226.562E-03     58.9107E-03
            1420     8.61202E-03     81.8524E-03    -52.2558E+06    -7.92396E+06     15.0611E+06    -7.71864E+06    -227.881E-03     454.529E-03    -226.648E-03     57.3235E-03    -228.260E-03     454.650E-03    -226.485E-03     55.2047E-03
            1421     7.89330E-03     81.7674E-03    -54.0420E+06    -8.25458E+06     10.9330E+06    -5.63564E+06    -227.136E-03     453.748E-03    -226.612E-03     52.7802E-03    -227.485E-03     453.844E-03    -226.467E-03     51.1722E-03
            1422     7.17692E-03     81.6881E-03    -52.2693E+06    -6.87570E+06     10.1335E+06    -1.46324E+06    -227.344E-03     453.937E-03    -226.593E-03     48.6139E-03    -227.663E-03     454.016E-03    -226.457E-03     47.4186E-03
            1423     6.45831E-03     81.6174E-03    -64.6190E+06    -27.5991E+06    -6.66341E+06    -2.26447E+06    -227.259E-03     453.781E-03    -226.522E-03     43.9666E-03    -227.572E-03     453.786E-03    -226.422E-03     42.9382E-03
            1424     5.74189E-03     81.5546E-03    -70.6813E+06    -58.3709E+06    -22.0715E+06     508.247E+03    -226.880E-03     453.349E-03    -226.469E-03     39.3256E-03    -227.143E-03     453.218E-03    -226.392E-03     38.5814E-03
            1425     5.02495E-03     81.4983E-03    -69.3075E+06    -79.7211E+06    -32.3936E+06     2.98968E+06    -226.175E-03     452.652E-03    -226.477E-03     34.5192E-03    -226.370E-03     452.411E-03    -226.422E-03     34.1677E-03
            1426     4.30442E-03     81.4469E-03    -78.2714E+06    -104.092E+06    -51.2769E+06    -1.49223E+06    -226.038E-03     452.562E-03    -226.524E-03     29.3455E-03    -226.206E-03     452.232E-03    -226.516E-03     29.0985E-03
            1427     3.58750E-03     81.4045E-03    -87.4756E+06    -129.198E+06    -62.1038E+06    -3.44623E+06    -226.431E-03     453.032E-03    -226.602E-03     24.9539E-03    -226.586E-03     452.599E-03    -226.598E-03     24.7609E-03
            1428     2.86995E-03     81.3689E-03    -90.9371E+06    -142.015E+06    -68.9828E+06    -344.913E+03    -226.475E-03     453.119E-03    -226.644E-03     20.3017E-03    -226.611E-03     452.630E-03    -226.651E-03     20.2374E-03
            1429     2.15262E-03     81.3432E-03    -92.2524E+06    -150.632E+06     -80.022E+06     525.199E+03    -226.344E-03     453.041E-03    -226.698E-03     15.4487E-03    -226.441E-03     452.512E-03    -226.745E-03     15.4529E-03
            1430     1.43422E-03     81.3234E-03    -92.8672E+06    -158.261E+06    -87.1701E+06    -478.357E+03    -226.746E-03     453.509E-03    -226.764E-03     11.0414E-03    -226.798E-03     452.932E-03    -226.835E-03     11.0501E-03
            1431     717.360E-06     81.3130E-03    -91.8758E+06    -164.735E+06    -89.7649E+06    -471.356E+03    -226.544E-03     453.698E-03    -227.154E-03     5.51642E-03    -226.504E-03     453.124E-03    -227.230E-03     5.54673E-03
            1432     13.6357E-03     81.0767E-03    -2.22801E+06     51.4379E+06     76.4820E+06     1.08544E+06    -227.839E-03     454.504E-03    -226.664E-03     71.4365E-03    -228.245E-03     454.862E-03    -226.353E-03     67.8905E-03
            1433     12.9175E-03     80.9683E-03    -2.19030E+06     50.4030E+06     79.5320E+06    -781.234E+03    -227.292E-03     453.994E-03    -226.702E-03     75.4134E-03    -227.754E-03     454.397E-03    -226.374E-03     71.3821E-03
            1434     12.2017E-03     80.8587E-03    -11.7386E+06     40.8937E+06     73.9546E+06     273.600E+03    -227.405E-03     454.147E-03    -226.742E-03     76.1708E-03    -227.911E-03     454.541E-03    -226.414E-03     72.0889E-03
            1435     11.4810E-03     80.7592E-03    -19.7648E+06     34.0744E+06     67.7688E+06     1.70604E+06    -227.765E-03     454.522E-03    -226.756E-03     72.6157E-03    -228.267E-03     454.878E-03    -226.438E-03     68.7979E-03
            1436     10.7626E-03     80.6511E-03    -26.1837E+06     27.0128E+06     57.3856E+06     2.04589E+06    -228.076E-03     454.792E-03    -226.717E-03     67.9951E-03    -228.528E-03     455.082E-03    -226.431E-03     64.8231E-03
            1437     10.0471E-03     80.5480E-03    -26.0388E+06     26.1042E+06     50.7457E+06     4.22348E+06    -227.999E-03     454.656E-03    -226.657E-03     63.9596E-03    -228.394E-03     454.904E-03    -226.404E-03     61.4012E-03
            1438     9.32913E-03     80.4453E-03    -32.8067E+06     13.6502E+06     34.0830E+06     124.944E+03    -227.959E-03     454.523E-03    -226.564E-03     60.3538E-03    -228.328E-03     454.725E-03    -226.366E-03     57.8989E-03
            1439     8.61317E-03     80.3635E-03    -44.7655E+06    -2.50296E+06     16.4064E+06    -5.76242E+06    -227.938E-03     454.403E-03    -226.465E-03     57.6189E-03    -228.295E-03     454.545E-03    -226.315E-03     55.3996E-03
            1440     7.89603E-03     80.2758E-03    -52.4214E+06    -8.18220E+06     12.1767E+06    -4.86845E+06    -227.229E-03     453.656E-03    -226.427E-03     53.7217E-03    -227.571E-03     453.748E-03    -226.278E-03     52.1468E-03
            1441     7.17679E-03     80.1983E-03    -58.9101E+06    -15.3095E+06     3.51407E+06    -3.44132E+06    -226.414E-03     452.835E-03    -226.421E-03     49.0369E-03    -226.744E-03     452.892E-03    -226.296E-03     47.8236E-03
            1442     6.45980E-03     80.1257E-03    -63.2312E+06    -33.2911E+06    -9.34246E+06    -2.73471E+06    -226.383E-03     452.823E-03    -226.440E-03     44.7346E-03    -226.674E-03     452.799E-03    -226.347E-03     43.8129E-03
            1443     5.74142E-03     80.0637E-03    -68.0610E+06    -56.8961E+06    -18.0650E+06    -810.641E+03    -226.650E-03     453.123E-03    -226.472E-03     40.2453E-03    -226.906E-03     452.987E-03    -226.381E-03     39.5556E-03
            1444     5.02311E-03     80.0071E-03    -75.8848E+06    -80.2909E+06    -31.1009E+06     2.21301E+06    -226.679E-03     453.139E-03    -226.460E-03     35.8798E-03    -226.908E-03     452.905E-03    -226.390E-03     35.4922E-03
            1445     4.30766E-03     79.9584E-03    -79.7174E+06    -101.483E+06    -48.1389E+06     3.49693E+06    -226.450E-03     452.876E-03    -226.425E-03     30.6437E-03    -226.632E-03     452.554E-03    -226.403E-03     30.5617E-03
            1446     3.58819E-03     79.9142E-03    -84.7512E+06    -125.881E+06    -66.3072E+06     458.809E+03    -226.132E-03     452.568E-03    -226.436E-03     25.3067E-03    -226.271E-03     452.152E-03    -226.463E-03     25.2403E-03
            1447     2.86991E-03     79.8789E-03    -90.4132E+06    -145.938E+06    -77.5665E+06    -3.61750E+06    -225.963E-03     452.511E-03    -226.549E-03     19.9801E-03    -226.077E-03     452.013E-03    -226.594E-03     19.8873E-03
            1448     2.15149E-03     79.8523E-03    -91.0041E+06    -151.074E+06    -81.0154E+06    -3.68976E+06    -226.299E-03     453.000E-03    -226.701E-03     15.0667E-03    -226.393E-03     452.473E-03    -226.755E-03     14.9956E-03
            1449     1.43404E-03     79.8327E-03    -93.3100E+06    -157.493E+06    -87.4385E+06    -2.70096E+06    -226.871E-03     453.609E-03    -226.737E-03     10.5186E-03    -226.940E-03     453.048E-03    -226.811E-03     10.4046E-03
            1450     717.830E-06     79.8161E-03    -97.5944E+06    -169.701E+06    -95.5785E+06    -2.70762E+06    -226.965E-03     453.521E-03    -226.556E-03     4.86584E-03    -226.948E-03     452.950E-03    -226.647E-03     4.81962E-03
            1451     13.6391E-03     79.5884E-03    -4.35124E+06     49.4798E+06     74.3643E+06    -3.69515E+06    -227.865E-03     454.521E-03    -226.656E-03     72.6608E-03    -228.284E-03     454.885E-03    -226.350E-03     68.9688E-03
            1452     12.9189E-03     79.4801E-03    -8.98619E+06     44.9504E+06     72.4864E+06    -1.58639E+06    -227.112E-03     453.798E-03    -226.685E-03     74.9839E-03    -227.594E-03     454.196E-03    -226.375E-03     70.8769E-03
            1453     12.1954E-03     79.3712E-03    -17.2757E+06     35.1172E+06     67.1551E+06     2.82834E+06    -227.918E-03     454.625E-03    -226.707E-03     72.4089E-03    -228.410E-03     454.985E-03    -226.397E-03     68.5048E-03
            1454     11.4820E-03     79.2595E-03    -21.3886E+06     32.5165E+06     66.9712E+06     4.29901E+06    -229.796E-03     456.443E-03    -226.646E-03     69.5559E-03    -230.280E-03     456.771E-03    -226.328E-03     65.9107E-03
            1455     10.7698E-03     79.1593E-03    -20.3341E+06     34.7861E+06     68.2111E+06     2.15332E+06    -229.760E-03     456.262E-03    -226.502E-03     66.7153E-03    -230.210E-03     456.565E-03    -226.182E-03     63.4625E-03
            1456     10.0521E-03     79.0547E-03    -25.2073E+06     27.8428E+06     56.7056E+06     5.38839E+06    -227.592E-03     453.964E-03    -226.372E-03     64.1343E-03    -227.987E-03     454.203E-03    -226.092E-03     61.7337E-03
            1457     9.33260E-03     78.9618E-03    -32.1609E+06     15.0871E+06     39.7009E+06     3.20184E+06    -226.253E-03     452.591E-03    -226.338E-03     60.1130E-03    -226.616E-03     452.778E-03    -226.115E-03     57.9543E-03
            1458     8.61228E-03     78.8668E-03    -37.7030E+06     4.73991E+06     26.6739E+06     2.89985E+06    -226.527E-03     452.881E-03    -226.354E-03     57.0657E-03    -226.864E-03     453.023E-03    -226.173E-03     55.1620E-03
            1459     7.89621E-03     78.7860E-03    -45.2342E+06    -3.33586E+06     14.5360E+06     1.66123E+06    -226.672E-03     453.029E-03    -226.357E-03     54.2584E-03    -226.991E-03     453.133E-03    -226.213E-03     52.7405E-03
            1460     7.17910E-03     78.7088E-03    -57.2016E+06    -20.1995E+06    -1.46723E+06    -3.39694E+06    -226.223E-03     452.596E-03    -226.373E-03     50.6421E-03    -226.529E-03     452.632E-03    -226.268E-03     49.5034E-03
            1461     6.45890E-03     78.6375E-03    -65.3979E+06    -38.1384E+06    -11.8619E+06    -879.156E+03    -226.066E-03     452.510E-03    -226.444E-03     45.6528E-03    -226.351E-03     452.462E-03    -226.353E-03     44.9224E-03
            1462     5.74058E-03     78.5725E-03    -70.5694E+06    -59.6105E+06    -21.1669E+06    -45.9127E+03    -226.325E-03     452.839E-03    -226.514E-03     40.1519E-03    -226.580E-03     452.694E-03    -226.431E-03     39.6015E-03
            1463     5.02353E-03     78.5168E-03    -74.1162E+06    -81.9603E+06    -30.8700E+06    -2.59495E+06    -226.718E-03     453.256E-03    -226.538E-03     35.5817E-03    -226.935E-03     453.009E-03    -226.466E-03     35.1690E-03
            1464     4.30420E-03     78.4658E-03    -77.4554E+06    -100.815E+06    -42.0456E+06    -297.784E+03    -226.923E-03     453.418E-03    -226.495E-03     30.8757E-03    -227.105E-03     453.090E-03    -226.447E-03     30.6737E-03
            1465     3.58866E-03     78.4248E-03    -81.4817E+06    -120.440E+06    -57.7736E+06     1.32140E+06    -226.696E-03     453.108E-03    -226.413E-03     25.2898E-03    -226.839E-03     452.703E-03    -226.409E-03     25.2252E-03
            1466     2.87062E-03     78.3895E-03    -84.8291E+06    -138.954E+06    -71.3970E+06    -546.702E+03    -226.410E-03     452.775E-03    -226.366E-03     19.5834E-03    -226.514E-03     452.294E-03    -226.398E-03     19.5423E-03
            1467     2.15285E-03     78.3621E-03    -92.9487E+06    -155.557E+06    -84.3339E+06    -2.70466E+06    -226.450E-03     452.782E-03    -226.333E-03     14.6454E-03    -226.542E-03     452.240E-03    -226.394E-03     14.5492E-03
            1468     1.43624E-03     78.3387E-03    -96.9025E+06    -162.358E+06    -91.9499E+06    -2.51261E+06    -226.243E-03     452.581E-03    -226.339E-03     10.2378E-03    -226.313E-03     452.007E-03    -226.422E-03     10.1359E-03
            1469     716.979E-06     78.3301E-03    -97.2128E+06    -174.246E+06    -95.4167E+06    -1.45439E+06    -226.299E-03     452.878E-03    -226.578E-03     5.45498E-03    -226.275E-03     452.276E-03    -226.662E-03     5.46221E-03
            1470     13.6320E-03     78.0996E-03    -7.93764E+06     46.0072E+06     68.8800E+06    -2.79431E+06    -227.972E-03     454.660E-03    -226.689E-03     72.2443E-03    -228.400E-03     455.024E-03    -226.399E-03     68.5287E-03
            1471     12.9174E-03     77.9835E-03    -11.1343E+06     42.8180E+06     69.2864E+06     10.7349E+03    -229.932E-03     456.575E-03    -226.644E-03     74.9337E-03    -230.423E-03     456.978E-03    -226.343E-03     70.7372E-03
            1472     12.2071E-03     77.8828E-03    -15.1303E+06     37.0689E+06     67.8507E+06    -663.458E+03    -229.831E-03     456.363E-03    -226.531E-03     72.1327E-03    -230.318E-03     456.730E-03    -226.224E-03     68.1217E-03
            1473     11.4868E-03     77.7645E-03    -19.1933E+06     32.6569E+06     63.3876E+06     758.310E+03    -228.603E-03     455.029E-03    -226.426E-03     71.4704E-03    -229.065E-03     455.354E-03    -226.128E-03     67.9582E-03
            1474     10.7681E-03     77.6630E-03    -21.7135E+06     31.6916E+06     63.1164E+06    -1.35199E+06    -228.243E-03     454.614E-03    -226.371E-03     69.6775E-03    -228.698E-03     454.921E-03    -226.070E-03     66.3426E-03
            1475     10.0517E-03     77.5663E-03    -29.0082E+06     25.8375E+06     57.1358E+06     1.38347E+06    -227.895E-03     454.209E-03    -226.313E-03     67.3372E-03    -228.329E-03     454.465E-03    -226.023E-03     64.6402E-03
            1476     9.33474E-03     77.4710E-03    -31.7043E+06     17.0248E+06     47.6575E+06     6.36222E+06    -226.864E-03     453.138E-03    -226.275E-03     63.3080E-03    -227.246E-03     453.330E-03    -226.015E-03     61.1785E-03
            1477     8.61715E-03     77.3823E-03    -34.1457E+06     6.40075E+06     34.1504E+06     6.83690E+06    -225.781E-03     452.074E-03    -226.293E-03     58.8368E-03    -226.109E-03     452.205E-03    -226.082E-03     57.1275E-03
            1478     7.89478E-03     77.2954E-03    -42.9771E+06    -2.81499E+06     16.1350E+06     4.90048E+06    -225.769E-03     452.113E-03    -226.343E-03     54.2499E-03    -226.074E-03     452.207E-03    -226.196E-03     52.9372E-03
            1479     7.17538E-03     77.2191E-03    -48.6581E+06    -11.9578E+06     7.86153E+06     4.39068E+06    -226.461E-03     452.868E-03    -226.407E-03     49.3516E-03    -226.748E-03     452.917E-03    -226.280E-03     48.3566E-03
            1480     6.45925E-03     77.1470E-03    -56.0928E+06    -31.0418E+06    -3.24321E+06     3.52847E+06    -226.523E-03     452.956E-03    -226.433E-03     44.4217E-03    -226.785E-03     452.918E-03    -226.323E-03     43.7214E-03
            1481     5.74140E-03     77.0830E-03    -63.3933E+06    -57.8446E+06    -18.5837E+06    -1.24861E+06    -226.473E-03     452.915E-03    -226.442E-03     39.1794E-03    -226.698E-03     452.764E-03    -226.359E-03     38.6394E-03
            1482     5.02269E-03     77.0252E-03    -70.0771E+06    -83.7112E+06    -30.7266E+06    -4.09467E+06    -226.568E-03     453.021E-03    -226.453E-03     34.2810E-03    -226.762E-03     452.759E-03    -226.384E-03     33.8641E-03
            1483     4.30677E-03     76.9754E-03    -76.3345E+06    -104.898E+06    -41.5793E+06    -3.15560E+06    -226.649E-03     453.089E-03    -226.439E-03     29.6178E-03    -226.821E-03     452.738E-03    -226.385E-03     29.3152E-03
            1484     3.58787E-03     76.9321E-03    -79.8829E+06    -121.955E+06    -51.6841E+06    -243.137E+03    -226.798E-03     453.176E-03    -226.378E-03     24.4643E-03    -226.937E-03     452.748E-03    -226.344E-03     24.4110E-03
            1485     2.87138E-03     76.8996E-03    -84.3408E+06    -137.554E+06    -64.4094E+06     2.25037E+06    -226.714E-03     452.974E-03    -226.259E-03     20.0822E-03    -226.826E-03     452.486E-03    -226.260E-03     20.0929E-03
            1486     2.15465E-03     76.8703E-03    -89.2614E+06    -153.542E+06    -80.1776E+06     1.97277E+06    -226.343E-03     452.484E-03    -226.141E-03     16.0235E-03    -226.417E-03     451.933E-03    -226.190E-03     15.9893E-03
            1487     1.43506E-03     76.8532E-03    -94.1978E+06    -164.633E+06    -92.5633E+06    -152.628E+03    -226.163E-03     452.256E-03    -226.093E-03     10.8138E-03    -226.193E-03     451.647E-03    -226.180E-03     10.8472E-03
            1488     718.020E-06     76.8364E-03    -97.8676E+06    -179.354E+06     -97.652E+06    -279.618E+03    -225.613E-03     452.359E-03    -226.746E-03     6.17030E-03    -225.567E-03     451.709E-03    -226.832E-03     6.22405E-03
            1489     13.6374E-03     76.6034E-03    -5.29827E+06     46.8348E+06     69.8283E+06    -880.952E+03    -227.959E-03     454.531E-03    -226.572E-03     68.7692E-03    -228.361E-03     454.878E-03    -226.283E-03     65.1856E-03
            1490     12.9193E-03     76.4917E-03    -12.2283E+06     41.4817E+06     67.7773E+06    -2.40862E+06    -228.969E-03     455.508E-03    -226.539E-03     73.9839E-03    -229.440E-03     455.886E-03    -226.243E-03     70.0140E-03
            1491     12.2009E-03     76.3777E-03    -14.5791E+06     38.4197E+06     69.9065E+06    -4.93162E+06    -229.375E-03     455.853E-03    -226.478E-03     74.8610E-03    -229.872E-03     456.232E-03    -226.163E-03     70.8019E-03
            1492     11.4876E-03     76.2828E-03    -16.0591E+06     35.5037E+06     67.7503E+06    -2.20694E+06    -228.299E-03     454.705E-03    -226.405E-03     73.5615E-03    -228.780E-03     455.058E-03    -226.095E-03     69.7893E-03
            1493     10.7674E-03     76.1700E-03    -23.7008E+06     25.7544E+06     51.7048E+06     912.619E+03    -226.843E-03     453.195E-03    -226.352E-03     69.9304E-03    -227.283E-03     453.492E-03    -226.096E-03     66.6760E-03
            1494     10.0493E-03     76.0754E-03    -30.5390E+06     16.5162E+06     43.6857E+06    -4.09756E+06    -226.565E-03     452.954E-03    -226.389E-03     67.4726E-03    -226.985E-03     453.198E-03    -226.150E-03     64.5195E-03
            1495     9.33124E-03     75.9783E-03    -32.8014E+06     12.0518E+06     45.1566E+06     645.100E+03    -226.912E-03     453.373E-03    -226.461E-03     66.1887E-03    -227.296E-03     453.552E-03    -226.205E-03     63.9345E-03
            1496     8.61277E-03     75.8936E-03    -34.6529E+06     8.14892E+06     39.3190E+06     5.34235E+06    -227.743E-03     454.190E-03    -226.447E-03     61.5471E-03    -228.088E-03     454.327E-03    -226.212E-03     59.8118E-03
            1497     7.89686E-03     75.8081E-03    -40.2802E+06     1.87208E+06     27.4792E+06     7.76984E+06    -227.660E-03     454.020E-03    -226.360E-03     54.4157E-03    -227.971E-03     454.115E-03    -226.167E-03     53.1798E-03
            1498     7.17967E-03     75.7278E-03    -46.5280E+06    -5.01387E+06     15.3458E+06     4.79611E+06    -226.820E-03     453.107E-03    -226.287E-03     47.9018E-03    -227.118E-03     453.178E-03    -226.135E-03     46.8249E-03
            1499     6.46039E-03     75.6569E-03    -52.0026E+06    -23.8493E+06     3.00787E+06     3.04605E+06    -226.501E-03     452.765E-03    -226.263E-03     43.1688E-03    -226.764E-03     452.749E-03    -226.138E-03     42.3968E-03
            1500     5.74250E-03     75.5924E-03    -58.4330E+06    -53.2800E+06    -11.8099E+06     3.49302E+06    -226.466E-03     452.718E-03    -226.252E-03     38.5849E-03    -226.683E-03     452.573E-03    -226.149E-03     38.0953E-03
            1501     5.02574E-03     75.5352E-03    -67.5450E+06    -83.1882E+06    -30.8897E+06     107.433E+03    -226.390E-03     452.611E-03    -226.221E-03     34.0379E-03    -226.573E-03     452.349E-03    -226.157E-03     33.6269E-03
            1502     4.30621E-03     75.4851E-03    -72.4417E+06    -108.311E+06    -41.8615E+06    -1.92223E+06    -226.202E-03     452.431E-03    -226.229E-03     29.4950E-03    -226.348E-03     452.058E-03    -226.176E-03     29.2267E-03
            1503     3.58934E-03     75.4424E-03    -75.9209E+06    -125.843E+06    -50.6924E+06    -76.8302E+03    -226.018E-03     452.283E-03    -226.265E-03     24.6211E-03    -226.133E-03     451.829E-03    -226.226E-03     24.5304E-03
            1504     2.87093E-03     75.4079E-03    -83.2797E+06    -141.703E+06    -65.8837E+06     1.20452E+06    -226.139E-03     452.425E-03    -226.286E-03     20.2510E-03    -226.235E-03     451.915E-03    -226.289E-03     20.2819E-03
            1505     2.15180E-03     75.3828E-03    -88.3255E+06    -151.714E+06    -74.2191E+06     1.69091E+06    -226.513E-03     452.775E-03    -226.262E-03     15.8474E-03    -226.584E-03     452.215E-03    -226.285E-03     15.8712E-03
            1506     1.43618E-03     75.3598E-03    -91.1517E+06    -158.348E+06    -80.5694E+06     3.25444E+06    -226.582E-03     452.693E-03    -226.112E-03     10.5093E-03    -226.605E-03     452.077E-03    -226.153E-03     10.5415E-03
            1507     718.166E-06     75.3506E-03    -97.8914E+06    -176.505E+06    -93.4363E+06     3.41432E+06    -225.901E-03     452.098E-03    -226.196E-03     5.82170E-03    -225.855E-03     451.441E-03    -226.265E-03     5.87629E-03
            1508     13.6407E-03     75.1104E-03    -1.48209E+06     50.5164E+06     75.0350E+06     2.49274E+06    -228.411E-03     454.843E-03    -226.432E-03     72.8820E-03    -228.811E-03     455.200E-03    -226.128E-03     69.4159E-03
            1509     12.9232E-03     75.0040E-03    -10.6285E+06     40.0253E+06     65.8420E+06    -523.965E+03    -227.606E-03     454.006E-03    -226.400E-03     74.1960E-03    -228.057E-03     454.371E-03    -226.114E-03     70.3698E-03
            1510     12.2032E-03     74.8900E-03    -16.8744E+06     34.5948E+06     61.2647E+06    -4.22290E+06    -226.855E-03     453.276E-03    -226.421E-03     73.3761E-03    -227.333E-03     453.640E-03    -226.141E-03     69.4651E-03
            1511     11.4839E-03     74.7820E-03    -20.1262E+06     32.3342E+06     64.0227E+06    -7.96322E+06    -227.491E-03     453.962E-03    -226.471E-03     72.4783E-03    -227.978E-03     454.307E-03    -226.169E-03     68.6371E-03
            1512     10.7698E-03     74.6862E-03    -20.5070E+06     30.1052E+06     61.5290E+06    -832.554E+03    -226.908E-03     453.400E-03    -226.492E-03     70.8180E-03    -227.352E-03     453.699E-03    -226.198E-03     67.5724E-03
            1513     10.0489E-03     74.5850E-03    -25.9744E+06     18.8622E+06     43.5254E+06     784.826E+03    -226.121E-03     452.625E-03    -226.504E-03     67.3657E-03    -226.514E-03     452.866E-03    -226.276E-03     64.5966E-03
            1514     9.32776E-03     74.4939E-03    -39.1910E+06     3.41257E+06     28.6889E+06    -1.55801E+06    -227.310E-03     453.843E-03    -226.533E-03     63.3686E-03    -227.678E-03     454.001E-03    -226.338E-03     61.2315E-03
            1515     8.61059E-03     74.3950E-03    -46.1820E+06    -1.45892E+06     27.9320E+06    -246.659E+03    -228.844E-03     455.332E-03    -226.488E-03     58.3974E-03    -229.211E-03     455.449E-03    -226.279E-03     56.5607E-03
            1516     7.89636E-03     74.3132E-03    -43.9963E+06     12.7193E+03     29.3616E+06     1.43035E+06    -228.727E-03     455.067E-03    -226.340E-03     53.0539E-03    -229.069E-03     455.167E-03    -226.129E-03     51.4160E-03
            1517     7.17953E-03     74.2383E-03    -45.9260E+06    -4.18362E+06     19.1582E+06     2.03639E+06    -227.437E-03     453.612E-03    -226.175E-03     48.9898E-03    -227.746E-03     453.687E-03    -226.006E-03     47.7254E-03
            1518     6.46246E-03     74.1677E-03    -53.4784E+06    -21.3779E+06     3.08743E+06     3.18639E+06    -226.491E-03     452.581E-03    -226.090E-03     44.3007E-03    -226.767E-03     452.583E-03    -225.966E-03     43.5012E-03
            1519     5.74439E-03     74.1023E-03    -59.2048E+06    -48.5931E+06    -10.9205E+06     5.10267E+06    -226.155E-03     452.237E-03    -226.082E-03     39.7776E-03    -226.383E-03     452.114E-03    -225.980E-03     39.3432E-03
            1520     5.02520E-03     74.0459E-03    -63.4960E+06    -76.4500E+06    -25.0850E+06     3.23059E+06    -226.209E-03     452.290E-03    -226.081E-03     35.0396E-03    -226.389E-03     452.046E-03    -226.003E-03     34.7487E-03
            1521     4.30862E-03     73.9956E-03    -70.2891E+06    -106.550E+06    -41.3757E+06     813.990E+03    -225.967E-03     452.053E-03    -226.086E-03     29.9101E-03    -226.106E-03     451.684E-03    -226.037E-03     29.7140E-03
            1522     3.58922E-03     73.9538E-03    -77.1811E+06    -129.165E+06    -52.9573E+06    -621.351E+03    -225.887E-03     452.018E-03    -226.131E-03     24.9353E-03    -226.000E-03     451.553E-03    -226.097E-03     24.7506E-03
            1523     2.87030E-03     73.9200E-03    -82.8888E+06    -140.526E+06    -61.5846E+06     977.188E+03    -226.307E-03     452.438E-03    -226.131E-03     19.1697E-03    -226.406E-03     451.925E-03    -226.115E-03     19.1369E-03
            1524     2.15432E-03     73.8895E-03    -86.3750E+06    -150.218E+06    -72.1705E+06     1.88974E+06    -226.247E-03     452.301E-03    -226.055E-03     14.0744E-03    -226.309E-03     451.738E-03    -226.072E-03     14.1091E-03
            1525     1.43531E-03     73.8717E-03    -91.3594E+06    -159.133E+06    -81.4103E+06     280.513E+03    -226.086E-03     452.084E-03    -225.998E-03     9.94696E-03    -226.105E-03     451.463E-03    -226.042E-03     9.88279E-03
            1526     717.829E-06     73.8591E-03    -94.2630E+06    -169.030E+06    -88.9358E+06     478.512E+03    -226.557E-03     452.076E-03    -225.519E-03     5.64560E-03    -226.506E-03     451.446E-03    -225.582E-03     5.62042E-03
            1527     13.6379E-03     73.6206E-03    -2.74920E+06      50.292E+06     75.4111E+06     1.80901E+06    -228.408E-03     454.843E-03    -226.435E-03     74.5227E-03    -228.823E-03     455.208E-03    -226.127E-03     71.0011E-03
            1528     12.9219E-03     73.5065E-03    -3.23403E+06     48.5384E+06     74.8183E+06     2.16260E+06    -227.959E-03     454.374E-03    -226.415E-03     75.6680E-03    -228.407E-03     454.766E-03    -226.107E-03     71.8413E-03
            1529     12.2058E-03     73.4073E-03    -10.5482E+06     40.5095E+06     66.6650E+06     1.48626E+06    -226.481E-03     452.912E-03    -226.431E-03     75.7863E-03    -226.959E-03     453.303E-03    -226.141E-03     71.8849E-03
            1530     11.4848E-03     73.2931E-03    -20.9294E+06     28.1133E+06     52.6642E+06    -1.91914E+06    -225.758E-03     452.256E-03    -226.497E-03     73.5706E-03    -226.214E-03     452.584E-03    -226.244E-03     70.0655E-03
            1531     10.7627E-03     73.1934E-03    -29.2935E+06     20.3776E+06     48.2092E+06    -6.51637E+06    -227.131E-03     453.713E-03    -226.582E-03     69.9747E-03    -227.583E-03     453.994E-03    -226.328E-03     66.6283E-03
            1532     10.0464E-03     73.0972E-03    -31.4356E+06     21.2959E+06     49.8349E+06    -968.871E+03    -228.930E-03     455.491E-03    -226.561E-03     65.8229E-03    -229.369E-03     455.749E-03    -226.297E-03     62.8616E-03
            1533     9.33238E-03     72.9989E-03    -35.2894E+06     12.8717E+06     40.2627E+06     4.40153E+06    -229.135E-03     455.541E-03    -226.407E-03     60.9344E-03    -229.515E-03     455.725E-03    -226.173E-03     58.7716E-03
            1534     8.61671E-03     72.9043E-03    -42.3522E+06     18.7514E+03     27.4295E+06    -1.30417E+06    -227.606E-03     453.877E-03    -226.271E-03     56.6027E-03    -227.955E-03     453.997E-03    -226.073E-03     54.7123E-03
            1535     7.89677E-03     72.8207E-03    -49.7815E+06    -7.78622E+06     16.7789E+06    -6.30305E+06    -226.837E-03     453.047E-03    -226.210E-03     52.5479E-03    -227.182E-03     453.139E-03    -226.043E-03     50.7156E-03
            1536     7.17965E-03     72.7466E-03    -55.6269E+06    -13.7764E+06     9.34306E+06    -3.20075E+06    -227.110E-03     453.273E-03    -226.163E-03     49.1104E-03    -227.443E-03     453.332E-03    -226.015E-03     47.7053E-03
            1537     6.46204E-03     72.6768E-03    -56.3148E+06    -22.3072E+06     2.14769E+06     26.4771E+03    -226.774E-03     452.875E-03    -226.101E-03     45.2600E-03    -227.065E-03     452.881E-03    -225.976E-03     44.3509E-03
            1538     5.74343E-03     72.6152E-03    -59.2332E+06    -44.3592E+06    -10.0217E+06     2.78494E+06    -226.441E-03     452.499E-03    -226.058E-03     40.6651E-03    -226.679E-03     452.398E-03    -225.958E-03     40.1781E-03
            1539     5.02614E-03     72.5548E-03    -65.3354E+06    -74.9510E+06    -24.3866E+06     2.52837E+06    -226.226E-03     452.266E-03    -226.040E-03     35.1968E-03    -226.419E-03     452.032E-03    -225.958E-03     34.9023E-03
            1540     4.30703E-03     72.5073E-03    -72.0395E+06    -104.195E+06    -37.8094E+06     1.68377E+06    -226.204E-03     452.229E-03    -226.025E-03     29.6236E-03    -226.360E-03     451.870E-03    -225.958E-03     29.4047E-03
            1541     3.58944E-03     72.4654E-03    -80.7153E+06    -127.454E+06    -52.7788E+06     2.66793E+06    -226.452E-03     452.403E-03    -225.951E-03     24.8560E-03    -226.585E-03     451.951E-03    -225.913E-03     24.7253E-03
            1542     2.87390E-03     72.4267E-03    -84.1169E+06    -140.108E+06    -62.5324E+06     982.678E+03    -226.296E-03     452.128E-03    -225.832E-03     19.7490E-03    -226.401E-03     451.620E-03    -225.819E-03     19.6563E-03
            1543     2.15466E-03     72.4037E-03    -84.4437E+06    -147.648E+06    -71.4385E+06     670.964E+03    -225.809E-03     451.553E-03    -225.744E-03     14.7429E-03    -225.870E-03     451.002E-03    -225.764E-03     14.7097E-03
            1544     1.43636E-03     72.3823E-03    -90.6817E+06    -160.425E+06    -87.3180E+06     207.450E+03    -225.653E-03     451.392E-03    -225.739E-03     10.2180E-03    -225.659E-03     450.775E-03    -225.812E-03     10.2021E-03
            1545     718.049E-06     72.3701E-03    -96.3510E+06    -170.372E+06    -96.2890E+06    -2.95778E+06    -226.006E-03     451.705E-03    -225.699E-03     5.77111E-03    -225.944E-03     451.079E-03    -225.794E-03     5.72470E-03
            1546     13.6404E-03     72.1237E-03    -4.79166E+06     47.6273E+06     71.0025E+06    -1.41498E+06    -227.531E-03     453.992E-03    -226.461E-03     73.5676E-03    -227.947E-03     454.355E-03    -226.169E-03     69.9414E-03
            1547     12.9204E-03     72.0228E-03    -8.01359E+06     44.8248E+06     71.2963E+06    -1.04736E+06    -226.333E-03     452.855E-03    -226.523E-03     76.0823E-03    -226.788E-03     453.234E-03    -226.220E-03     72.3302E-03
            1548     12.2000E-03     71.9091E-03    -11.1450E+06     41.2431E+06     71.8222E+06     3.31934E+06    -227.319E-03     453.919E-03    -226.600E-03     77.0092E-03    -227.805E-03     454.304E-03    -226.285E-03     73.2004E-03
            1549     11.4836E-03     71.8122E-03    -16.3286E+06     34.2815E+06     62.6120E+06     6.42738E+06    -228.238E-03     454.817E-03    -226.580E-03     72.5113E-03    -228.698E-03     455.159E-03    -226.292E-03     68.9845E-03
            1550     10.7657E-03     71.7012E-03    -24.1929E+06     24.9760E+06     50.5703E+06     1.73032E+06    -228.941E-03     455.423E-03    -226.483E-03     66.8514E-03    -229.369E-03     455.708E-03    -226.231E-03     63.6227E-03
            1551     10.0502E-03     71.6003E-03    -34.3992E+06     14.5871E+06     43.4305E+06    -4.81430E+06    -229.657E-03     455.996E-03    -226.339E-03     63.0292E-03    -230.089E-03     456.232E-03    -226.093E-03     59.9335E-03
            1552     9.33466E-03     71.5023E-03    -36.2692E+06     12.1966E+06     43.2840E+06    -3.38449E+06    -228.400E-03     454.600E-03    -226.199E-03     60.9520E-03    -228.807E-03     454.796E-03    -225.948E-03     58.3346E-03
            1553     8.61630E-03     71.4170E-03    -37.3692E+06     8.36620E+06     35.7292E+06    -1.46675E+06    -226.334E-03     452.469E-03    -226.135E-03     57.7666E-03    -226.688E-03     452.616E-03    -225.914E-03     55.8258E-03
            1554     7.89782E-03     71.3332E-03    -45.4141E+06    -3.75540E+06     19.0177E+06    -580.803E+03    -225.694E-03     451.848E-03    -226.153E-03     54.2186E-03    -226.019E-03     451.942E-03    -225.987E-03     52.7199E-03
            1555     7.17857E-03     71.2550E-03    -52.7898E+06    -13.1036E+06     6.33576E+06    -3.62242E+06    -226.360E-03     452.542E-03    -226.182E-03     49.5667E-03    -226.673E-03     452.603E-03    -226.055E-03     48.2298E-03
            1556     6.46046E-03     71.1881E-03    -60.7058E+06    -30.4040E+06    -4.51185E+06    -6.77189E+06    -227.040E-03     453.195E-03    -226.155E-03     44.7250E-03    -227.333E-03     453.177E-03    -226.045E-03     43.6727E-03
            1557     5.74400E-03     71.1222E-03    -65.5460E+06    -52.3614E+06    -13.2354E+06    -2.91874E+06    -226.878E-03     452.970E-03    -226.092E-03     40.2343E-03    -227.135E-03     452.846E-03    -225.987E-03     39.5366E-03
            1558     5.02598E-03     71.0674E-03    -68.6129E+06    -75.7127E+06    -24.5618E+06     2.17258E+06    -226.503E-03     452.526E-03    -226.023E-03     35.1885E-03    -226.713E-03     452.295E-03    -225.936E-03     34.7677E-03
            1559     4.30849E-03     71.0171E-03    -76.6395E+06    -104.481E+06    -39.9529E+06     3.22756E+06    -226.509E-03     452.452E-03    -225.943E-03     29.8674E-03    -226.685E-03     452.101E-03    -225.880E-03     29.6486E-03
            1560     3.59180E-03     70.9739E-03    -80.9048E+06    -122.954E+06    -54.5546E+06     1.42700E+06    -226.045E-03     451.903E-03    -225.859E-03     25.5603E-03    -226.184E-03     451.477E-03    -225.836E-03     25.4228E-03
            1561     2.87139E-03     70.9408E-03    -83.4676E+06    -138.406E+06    -68.4543E+06    -771.165E+03    -225.538E-03     451.399E-03    -225.861E-03     21.3018E-03    -225.638E-03     450.911E-03    -225.882E-03     21.2006E-03
            1562     2.15406E-03     70.9132E-03    -91.2235E+06    -153.229E+06    -78.8417E+06    -395.545E+03    -225.889E-03     451.800E-03    -225.911E-03     16.3673E-03    -225.973E-03     451.250E-03    -225.951E-03     16.3542E-03
            1563     1.43661E-03     70.8952E-03    -92.7815E+06    -156.142E+06    -82.1688E+06     3.26776E+06    -226.112E-03     451.985E-03    -225.873E-03     11.2449E-03    -226.151E-03     451.394E-03    -225.923E-03     11.3614E-03
            1564     717.973E-06     70.8820E-03    -94.4903E+06    -166.874E+06    -92.0800E+06     4.38136E+06    -225.603E-03     451.764E-03    -226.161E-03     6.28804E-03    -225.536E-03     451.148E-03    -226.243E-03     6.44469E-03
            1565     13.6377E-03     70.6354E-03    -3.76383E+06     48.0499E+06     71.1056E+06    -824.305E+03    -226.914E-03     453.453E-03    -226.539E-03     73.4766E-03    -227.320E-03     453.810E-03    -226.248E-03     69.9231E-03
            1566     12.9183E-03     70.5361E-03    -10.7852E+06     42.4153E+06     66.9032E+06     140.873E+03    -227.432E-03     454.007E-03    -226.575E-03     74.4824E-03    -227.890E-03     454.382E-03    -226.286E-03     70.6814E-03
            1567     12.1992E-03     70.4212E-03    -15.1139E+06     37.9081E+06     67.7137E+06     1.00961E+06    -228.749E-03     455.324E-03    -226.575E-03     72.3005E-03    -229.223E-03     455.683E-03    -226.270E-03     68.5363E-03
            1568     11.4831E-03     70.3105E-03    -15.8598E+06     39.0516E+06     73.3917E+06     643.151E+03    -229.960E-03     456.455E-03    -226.495E-03     69.0683E-03    -230.440E-03     456.804E-03    -226.162E-03     65.2951E-03
            1569     10.7714E-03     70.2090E-03     -17.478E+06     35.6616E+06     71.1986E+06     5.52916E+06    -229.751E-03     456.082E-03    -226.331E-03     67.7295E-03    -230.196E-03     456.385E-03    -226.001E-03     64.5218E-03
            1570     10.0543E-03     70.1063E-03    -24.0116E+06     19.2353E+06     51.6894E+06     3.63935E+06    -227.754E-03     453.916E-03    -226.162E-03     65.2459E-03    -228.141E-03     454.137E-03    -225.897E-03     62.5307E-03
            1571     9.33515E-03     70.0148E-03    -35.1996E+06     3.88012E+06     31.7571E+06    -5.27441E+06    -226.466E-03     452.566E-03    -226.100E-03     62.6472E-03    -226.844E-03     452.740E-03    -225.896E-03     59.9837E-03
            1572     8.61620E-03     69.9275E-03    -42.6039E+06     615.418E+03     27.0031E+06    -4.75140E+06    -226.495E-03     452.624E-03    -226.129E-03     58.5469E-03    -226.856E-03     452.758E-03    -225.933E-03     56.4979E-03
            1573     7.89739E-03     69.8455E-03    -43.9840E+06    -751.604E+03     24.4830E+06    -1.61735E+06    -226.467E-03     452.618E-03    -226.151E-03     53.6778E-03    -226.793E-03     452.714E-03    -225.964E-03     52.2203E-03
            1574     7.17863E-03     69.7668E-03    -48.0594E+06    -7.43771E+06     12.6753E+06    -1.05451E+06    -226.344E-03     452.479E-03    -226.135E-03     48.5542E-03    -226.647E-03     452.548E-03    -225.992E-03     47.3306E-03
            1575     6.46157E-03     69.6945E-03    -56.6659E+06    -30.2705E+06    -5.23049E+06    -1.76665E+06    -226.502E-03     452.607E-03    -226.105E-03     43.5344E-03    -226.770E-03     452.582E-03    -226.005E-03     42.6189E-03
            1576     5.74351E-03     69.6337E-03    -66.9305E+06    -60.5766E+06    -20.1944E+06    -4.78787E+06    -226.402E-03     452.490E-03    -226.088E-03     39.7785E-03    -226.642E-03     452.335E-03    -226.004E-03     39.0838E-03
            1577     5.02564E-03     69.5765E-03    -74.5105E+06    -82.8900E+06    -30.2364E+06    -1.28563E+06    -226.301E-03     452.383E-03    -226.082E-03     36.2144E-03    -226.521E-03     452.132E-03    -226.005E-03     35.7517E-03
            1578     4.30857E-03     69.5265E-03    -76.6620E+06    -102.759E+06    -43.1279E+06     1.97533E+06    -226.054E-03     452.122E-03    -226.068E-03     31.7148E-03    -226.226E-03     451.782E-03    -226.023E-03     31.5062E-03
            1579     3.58895E-03     69.4872E-03     -78.978E+06    -121.072E+06    -56.6847E+06    -1.32847E+06    -225.750E-03     451.848E-03    -226.098E-03     26.8373E-03    -225.879E-03     451.431E-03    -226.091E-03     26.7135E-03
            1580     2.87185E-03     69.4522E-03    -84.3603E+06    -137.169E+06    -67.6147E+06    -117.999E+03    -225.872E-03     452.048E-03    -226.176E-03     21.6395E-03    -225.980E-03     451.567E-03    -226.193E-03     21.6025E-03
            1581     2.15249E-03     69.4245E-03    -90.0445E+06    -151.363E+06    -80.2680E+06     1.21020E+06    -226.145E-03     452.363E-03    -226.218E-03     15.9255E-03    -226.226E-03     451.825E-03    -226.270E-03     15.9684E-03
            1582     1.43456E-03     69.4038E-03    -93.1242E+06    -159.083E+06    -85.8703E+06    -1.07927E+06    -226.466E-03     452.643E-03    -226.177E-03     10.6796E-03    -226.506E-03     452.050E-03    -226.241E-03     10.7025E-03
            1583     718.245E-06     69.3930E-03    -91.0590E+06    -160.124E+06    -85.3084E+06     1.15095E+06    -226.415E-03     452.390E-03    -225.976E-03     5.42765E-03    -226.354E-03     451.804E-03    -226.038E-03     5.51712E-03
            1584     13.6349E-03     69.1497E-03    -4.98529E+06     47.8011E+06     71.5090E+06     355.156E+03    -228.481E-03     455.033E-03    -226.552E-03     71.0342E-03    -228.879E-03     455.376E-03    -226.257E-03     67.5781E-03
            1585     12.9193E-03     69.0376E-03    -6.16912E+06     49.1360E+06     75.0752E+06      663.62E+03    -230.655E-03     457.120E-03    -226.465E-03     71.0824E-03    -231.111E-03     457.511E-03    -226.152E-03     67.1209E-03
            1586     12.2078E-03     68.9284E-03    -11.0619E+06      42.681E+06     74.1462E+06     1.04580E+06    -229.729E-03     456.049E-03    -226.320E-03     69.9426E-03    -230.210E-03     456.427E-03    -225.995E-03     65.9403E-03
            1587     11.4902E-03     68.8199E-03    -20.5032E+06     32.4962E+06     65.2701E+06    -1.01067E+06    -227.530E-03     453.754E-03    -226.224E-03     69.7751E-03    -228.009E-03     454.086E-03    -225.915E-03     66.0883E-03
            1588     10.7693E-03     68.7126E-03    -25.6092E+06     27.2560E+06     58.8500E+06    -1.42533E+06    -226.685E-03     452.904E-03    -226.219E-03     69.9871E-03    -227.144E-03     453.198E-03    -225.927E-03     66.7504E-03
            1589     10.0518E-03     68.6192E-03    -26.6841E+06     22.5025E+06     54.7627E+06     1.62545E+06    -226.679E-03     452.929E-03    -226.250E-03     67.6004E-03    -227.091E-03     453.168E-03    -225.971E-03     64.9108E-03
            1590     9.33235E-03     68.5264E-03    -28.8540E+06     12.0552E+06     43.1965E+06     938.358E+03    -227.102E-03     453.338E-03    -226.236E-03     63.5361E-03    -227.469E-03     453.521E-03    -225.996E-03     61.0924E-03
            1591     8.61462E-03     68.4369E-03    -35.7646E+06     2.29514E+06     29.9138E+06    -2.36343E+06    -227.415E-03     453.593E-03    -226.178E-03     58.2164E-03    -227.751E-03     453.723E-03    -225.980E-03     56.1340E-03
            1592     7.89845E-03     68.3540E-03    -45.9107E+06    -4.73468E+06     19.2927E+06    -3.45278E+06    -227.110E-03     453.224E-03    -226.114E-03     53.8205E-03    -227.434E-03     453.313E-03    -225.944E-03     52.2842E-03
            1593     7.18196E-03     68.2774E-03    -55.0033E+06    -13.4497E+06     7.45321E+06     900.643E+03    -226.389E-03     452.465E-03    -226.076E-03     50.0635E-03    -226.705E-03     452.516E-03    -225.940E-03     49.0208E-03
            1594     6.46223E-03     68.2065E-03    -61.2475E+06    -30.0235E+06    -6.57405E+06     2.56992E+06    -225.783E-03     451.874E-03    -226.092E-03     45.0124E-03    -226.067E-03     451.854E-03    -225.992E-03     44.3267E-03
            1595     5.74329E-03     68.1443E-03    -64.2002E+06    -58.7204E+06    -20.9617E+06     552.485E+03    -225.810E-03     451.961E-03    -226.151E-03     40.5046E-03    -226.034E-03     451.809E-03    -226.078E-03     40.0060E-03
            1596     5.02506E-03     68.0871E-03    -67.1406E+06    -84.6955E+06    -34.0814E+06    -3.12546E+06    -225.806E-03     452.030E-03    -226.224E-03     36.3984E-03    -225.981E-03     451.764E-03    -226.174E-03     35.9384E-03
            1597     4.30505E-03     68.0387E-03    -74.1821E+06    -104.966E+06    -45.8088E+06    -5.40643E+06    -225.814E-03     452.130E-03    -226.316E-03     31.0254E-03    -225.969E-03     451.782E-03    -226.286E-03     30.6908E-03
            1598     3.58797E-03     67.9966E-03    -81.1817E+06    -123.285E+06    -56.0603E+06    -1.13782E+06    -226.280E-03     452.663E-03    -226.383E-03     25.6355E-03    -226.418E-03     452.238E-03    -226.367E-03     25.5250E-03
            1599     2.86964E-03     67.9620E-03    -85.8881E+06    -138.047E+06    -66.8538E+06     849.315E+03    -226.687E-03     453.033E-03    -226.346E-03     20.7300E-03    -226.799E-03     452.545E-03    -226.356E-03     20.7132E-03
            1600     2.15384E-03     67.9337E-03    -88.3813E+06    -148.043E+06    -76.9216E+06    -611.123E+03    -226.655E-03     452.873E-03    -226.219E-03     15.1223E-03    -226.735E-03     452.341E-03    -226.260E-03     15.0813E-03
            1601     1.43609E-03     67.9149E-03    -90.9908E+06    -157.679E+06    -88.4810E+06    -1.62779E+06    -226.388E-03     452.443E-03    -226.055E-03     9.86135E-03    -226.421E-03     451.860E-03    -226.137E-03     9.72889E-03
            1602     717.458E-06     67.9007E-03    -94.4856E+06    -166.747E+06    -96.1338E+06    -4.54807E+06    -226.241E-03     452.121E-03    -225.880E-03     4.93745E-03    -226.183E-03     451.536E-03    -225.982E-03     4.77397E-03
            1603     13.6398E-03     67.6513E-03    -3.49597E+06     50.9117E+06     77.4295E+06     721.922E+03    -230.465E-03     456.880E-03    -226.415E-03     70.6818E-03    -230.877E-03     457.236E-03    -226.097E-03     67.1116E-03
            1604     12.9265E-03     67.5419E-03    -8.96672E+06     45.3794E+06     74.5895E+06     215.661E+03    -229.899E-03     456.171E-03    -226.272E-03     72.4488E-03    -230.365E-03     456.550E-03    -225.952E-03     68.5376E-03
            1605     12.2076E-03     67.4329E-03    -13.5958E+06     39.4858E+06     71.8898E+06    -75.0711E+03    -228.055E-03     454.241E-03    -226.186E-03     73.7875E-03    -228.551E-03     454.620E-03    -225.864E-03     69.7985E-03
            1606     11.4901E-03     67.3337E-03    -16.1552E+06     36.1223E+06     68.5375E+06     1.07142E+06    -226.392E-03     452.582E-03    -226.191E-03     73.6769E-03    -226.873E-03     452.935E-03    -225.877E-03     69.9936E-03
            1607     10.7699E-03     67.2295E-03    -23.7916E+06     28.0253E+06     56.9860E+06    -317.668E+03    -225.636E-03     451.883E-03    -226.247E-03     70.5960E-03    -226.083E-03     452.179E-03    -225.968E-03     67.4364E-03
            1608     10.0481E-03     67.1282E-03    -31.0332E+06     21.2003E+06     47.0719E+06    -2.80107E+06    -226.600E-03     452.902E-03    -226.301E-03     65.7799E-03    -227.015E-03     453.145E-03    -226.052E-03     63.0618E-03
            1609     9.33283E-03     67.0338E-03    -35.3539E+06     11.9810E+06     40.1946E+06    -3.33616E+06    -227.536E-03     453.832E-03    -226.296E-03     62.2143E-03    -227.925E-03     454.022E-03    -226.061E-03     59.7487E-03
            1610     8.61660E-03     66.9451E-03    -41.1745E+06    -77.6292E+03     27.9917E+06    -1.32251E+06    -227.065E-03     453.310E-03    -226.245E-03     58.6768E-03    -227.421E-03     453.438E-03    -226.045E-03     56.6182E-03
            1611     7.89736E-03     66.8648E-03    -47.9156E+06    -7.87166E+06     15.0478E+06     1.11836E+06    -226.576E-03     452.791E-03    -226.216E-03     55.5660E-03    -226.900E-03     452.874E-03    -226.060E-03     54.1192E-03
            1612     7.17763E-03     66.7871E-03    -53.5216E+06    -13.3832E+06     6.89378E+06     1.74121E+06    -226.433E-03     452.662E-03    -226.229E-03     51.3929E-03    -226.741E-03     452.713E-03    -226.097E-03     50.3665E-03
            1613     6.46037E-03     66.7186E-03    -56.3756E+06    -27.0817E+06    -2.08764E+06     1.50655E+06    -226.036E-03     452.303E-03    -226.267E-03     45.8756E-03    -226.307E-03     452.284E-03    -226.156E-03     45.1777E-03
            1614     5.74222E-03     66.6547E-03    -60.7469E+06    -54.7800E+06    -17.2013E+06     1.27006E+06    -225.860E-03     452.190E-03    -226.330E-03     41.2931E-03    -226.076E-03     452.046E-03    -226.249E-03     40.8758E-03
            1615     5.02346E-03     66.5987E-03    -67.5434E+06    -81.2013E+06    -32.9607E+06    -58.2144E+03    -226.278E-03     452.662E-03    -226.383E-03     36.2356E-03    -226.460E-03     452.411E-03    -226.332E-03     35.9054E-03
            1616     4.30687E-03     66.5485E-03    -75.7119E+06    -106.170E+06    -46.9932E+06    -1.53852E+06    -226.693E-03     453.073E-03    -226.380E-03     30.0998E-03    -226.852E-03     452.723E-03    -226.351E-03     29.8214E-03
            1617     3.58832E-03     66.5064E-03    -84.8360E+06    -128.015E+06    -60.4027E+06    -2.24402E+06    -226.788E-03     453.097E-03    -226.309E-03     24.5383E-03    -226.931E-03     452.661E-03    -226.302E-03     24.3060E-03
            1618     2.87168E-03     66.4705E-03    -89.0515E+06    -140.147E+06    -70.7124E+06    -2.37600E+06    -226.549E-03     452.757E-03    -226.208E-03     19.6501E-03    -226.664E-03     452.266E-03    -226.230E-03     19.4774E-03
            1619     2.15303E-03     66.4429E-03    -91.8380E+06    -150.377E+06    -79.5963E+06    -1.89963E+06    -226.196E-03     452.347E-03    -226.151E-03     15.2224E-03    -226.281E-03     451.806E-03    -226.198E-03     15.1359E-03
            1620     1.43616E-03     66.4247E-03    -97.1806E+06    -158.260E+06    -88.2240E+06     4.07859E+03    -226.088E-03     452.251E-03    -226.163E-03     11.0730E-03    -226.149E-03     451.671E-03    -226.234E-03     11.0460E-03
            1621     718.644E-06     66.4139E-03    -103.162E+06    -169.981E+06    -99.2153E+06     2.59019E+06    -225.668E-03     452.470E-03    -226.802E-03     6.16186E-03    -225.652E-03     451.888E-03    -226.902E-03     6.20675E-03
            1622     13.6433E-03     66.1570E-03    -4.31850E+06     50.0039E+06     77.6345E+06     395.943E+03    -229.030E-03     455.311E-03    -226.281E-03     72.6794E-03    -229.462E-03     455.680E-03    -225.959E-03     68.9870E-03
            1623     12.9236E-03     66.0496E-03    -6.67726E+06     44.9187E+06     74.2532E+06     527.208E+03    -226.961E-03     453.213E-03    -226.252E-03     75.0152E-03    -227.421E-03     453.593E-03    -225.936E-03     71.1691E-03
            1624     12.2052E-03     65.9471E-03    -12.1477E+06     39.1015E+06     70.0677E+06    -497.259E+03    -226.517E-03     452.814E-03    -226.297E-03     74.9661E-03    -226.992E-03     453.181E-03    -225.986E-03     71.1784E-03
            1625     11.4850E-03     65.8413E-03    -19.1341E+06     33.8599E+06     66.1005E+06    -1.38555E+06    -227.090E-03     453.431E-03    -226.341E-03     73.5009E-03    -227.585E-03     453.786E-03    -226.032E-03     69.6750E-03
            1626     10.7689E-03     65.7409E-03    -21.2456E+06     32.3787E+06     64.5617E+06     942.585E+03    -227.221E-03     453.584E-03    -226.363E-03     71.3143E-03    -227.675E-03     453.891E-03    -226.057E-03     68.1294E-03
            1627     10.0534E-03     65.6394E-03    -24.8381E+06     26.3478E+06     53.8326E+06     2.45056E+06    -227.014E-03     453.364E-03    -226.351E-03     68.2644E-03    -227.408E-03     453.608E-03    -226.084E-03     65.8119E-03
            1628     9.33278E-03     65.5426E-03    -36.4337E+06     8.75662E+06     32.8612E+06    -110.031E+03    -226.610E-03     452.942E-03    -226.332E-03     63.5239E-03    -226.984E-03     453.122E-03    -226.127E-03     61.2337E-03
            1629     8.61266E-03     65.4566E-03    -45.8678E+06    -4.10758E+06     20.5403E+06    -2.00390E+06    -226.316E-03     452.682E-03    -226.366E-03     59.2283E-03    -226.675E-03     452.804E-03    -226.190E-03     57.2455E-03
            1630     7.89459E-03     65.3750E-03    -48.7069E+06    -7.41125E+06     16.2773E+06    -1.73356E+06    -226.466E-03     452.885E-03    -226.420E-03     55.3349E-03    -226.796E-03     452.970E-03    -226.257E-03     53.8560E-03
            1631     7.17788E-03     65.2969E-03    -53.0554E+06    -13.7886E+06     5.92315E+06    -758.140E+03    -226.510E-03     452.950E-03    -226.440E-03     50.7718E-03    -226.816E-03     453.001E-03    -226.313E-03     49.6475E-03
            1632     6.45944E-03     65.2277E-03    -55.5876E+06    -28.1152E+06    -2.66605E+06    -425.144E+03    -226.670E-03     453.131E-03    -226.461E-03     45.3435E-03    -226.938E-03     453.109E-03    -226.353E-03     44.4974E-03
            1633     5.74070E-03     65.1666E-03    -64.7842E+06    -53.9962E+06    -15.2156E+06     455.969E+03    -226.828E-03     453.286E-03    -226.458E-03     40.1263E-03    -227.072E-03     453.153E-03    -226.362E-03     39.5583E-03
            1634     5.02330E-03     65.1067E-03    -77.0570E+06    -81.5916E+06    -34.0533E+06     2.92288E+06    -226.728E-03     453.139E-03    -226.411E-03     35.0200E-03    -226.956E-03     452.902E-03    -226.351E-03     34.7228E-03
            1635     4.30563E-03     65.0568E-03    -80.4384E+06    -103.906E+06    -47.2252E+06     2.79194E+06    -226.654E-03     453.019E-03    -226.365E-03     30.2410E-03    -226.837E-03     452.685E-03    -226.334E-03     30.0754E-03
            1636     3.58986E-03     65.0154E-03    -84.3869E+06    -124.633E+06    -60.6673E+06     121.504E+03    -226.551E-03     452.864E-03    -226.313E-03     26.3115E-03    -226.692E-03     452.440E-03    -226.314E-03     26.1902E-03
            1637     2.87176E-03     64.9805E-03    -91.1778E+06    -142.172E+06    -74.2055E+06    -1.09134E+06    -226.217E-03     452.513E-03    -226.296E-03     21.6278E-03    -226.330E-03     452.014E-03    -226.328E-03     21.5734E-03
            1638     2.15390E-03     64.9558E-03    -94.3941E+06    -152.290E+06    -82.5960E+06    -366.319E+03    -226.018E-03     452.388E-03    -226.369E-03     16.3551E-03    -226.102E-03     451.839E-03    -226.425E-03     16.3664E-03
            1639     1.43386E-03     64.9343E-03    -97.8116E+06    -160.573E+06    -91.3299E+06    -712.314E+03    -226.159E-03     452.689E-03    -226.530E-03     10.6596E-03    -226.204E-03     452.092E-03    -226.612E-03     10.7399E-03
            1640     716.039E-06     64.9229E-03    -105.598E+06    -171.128E+06    -101.504E+06    -1.16207E+06    -226.416E-03     453.374E-03    -226.959E-03     6.12083E-03    -226.406E-03     452.778E-03    -227.065E-03     6.17280E-03
            1641     13.6416E-03     64.6684E-03    -2.58550E+06     47.9655E+06     72.7223E+06     487.259E+03    -226.534E-03     452.838E-03    -226.303E-03     74.2371E-03    -226.964E-03     453.217E-03    -226.005E-03     70.4279E-03
            1642     12.9227E-03     64.5626E-03    -3.86947E+06     47.3448E+06     75.4350E+06     1.01560E+06    -226.036E-03     452.434E-03    -226.397E-03     76.1706E-03    -226.489E-03     452.821E-03    -226.083E-03     72.3726E-03
            1643     12.2027E-03     64.4575E-03    -9.99541E+06     42.0204E+06     74.4365E+06     2.73570E+06    -226.973E-03     453.457E-03    -226.483E-03     75.4230E-03    -227.435E-03     453.816E-03    -226.158E-03     71.8682E-03
            1644     11.4865E-03     64.3507E-03    -18.4125E+06     34.0337E+06     67.4342E+06     1.93625E+06    -227.505E-03     454.010E-03    -226.505E-03     73.4136E-03    -227.981E-03     454.346E-03    -226.190E-03     69.8566E-03
            1645     10.7670E-03     64.2499E-03    -22.2010E+06     30.1159E+06     59.6402E+06    -1.89566E+06    -227.314E-03     453.811E-03    -226.497E-03     71.6574E-03    -227.762E-03     454.114E-03    -226.211E-03     68.4455E-03
            1646     10.0466E-03     64.1479E-03    -26.8078E+06     23.9113E+06     50.0318E+06    -713.100E+03    -227.236E-03     453.731E-03    -226.495E-03     69.7735E-03    -227.639E-03     453.978E-03    -226.241E-03     67.2227E-03
            1647     9.33045E-03     64.0539E-03    -32.8486E+06     13.7248E+06     40.8606E+06     3.10596E+06    -227.107E-03     453.610E-03    -226.502E-03     63.4403E-03    -227.489E-03     453.805E-03    -226.270E-03     61.0841E-03
            1648     8.61281E-03     63.9679E-03    -39.1795E+06     3.28793E+06     28.9670E+06     789.790E+03    -226.670E-03     453.175E-03    -226.504E-03     57.8525E-03    -227.025E-03     453.318E-03    -226.307E-03     55.7581E-03
            1649     7.89482E-03     63.8828E-03    -47.1562E+06    -8.64899E+06     13.1296E+06    -1.91842E+06    -226.440E-03     452.953E-03    -226.513E-03     54.3050E-03    -226.757E-03     453.033E-03    -226.366E-03     52.7949E-03
            1650     7.17542E-03     63.8084E-03    -55.9598E+06    -18.6474E+06     1.79100E+06    -1.83300E+06    -226.507E-03     453.056E-03    -226.549E-03     49.9508E-03    -226.811E-03     453.090E-03    -226.431E-03     48.8412E-03
            1651     6.45736E-03     63.7359E-03    -66.5857E+06    -33.5173E+06    -7.62987E+06    -1.59360E+06    -226.922E-03     453.494E-03    -226.572E-03     45.2498E-03    -227.229E-03     453.467E-03    -226.465E-03     44.3926E-03
            1652     5.74226E-03     63.6733E-03    -73.5385E+06    -60.2542E+06    -19.2527E+06     1.38494E+06    -227.331E-03     453.866E-03    -226.535E-03     40.7871E-03    -227.606E-03     453.722E-03    -226.437E-03     40.1785E-03
            1653     5.02537E-03     63.6167E-03    -72.6436E+06    -79.6048E+06    -28.8542E+06     3.28257E+06    -226.744E-03     453.224E-03    -226.481E-03     36.2199E-03    -226.961E-03     452.985E-03    -226.404E-03     35.8956E-03
            1654     4.30679E-03     63.5680E-03    -74.9494E+06    -99.0446E+06    -43.6861E+06     2.06847E+06    -226.024E-03     452.516E-03    -226.493E-03     31.3888E-03    -226.189E-03     452.191E-03    -226.459E-03     31.2735E-03
            1655     3.58648E-03     63.5244E-03    -80.8196E+06    -122.195E+06    -58.5882E+06     458.984E+03    -225.957E-03     452.554E-03    -226.597E-03     26.5562E-03    -226.086E-03     452.133E-03    -226.596E-03     26.4903E-03
            1656     2.86848E-03     63.4916E-03    -88.6567E+06    -141.588E+06    -72.1477E+06     37.9140E+03    -226.385E-03     453.087E-03    -226.702E-03     21.4260E-03    -226.491E-03     452.587E-03    -226.729E-03     21.4003E-03
            1657     2.15090E-03     63.4633E-03    -95.8795E+06    -154.780E+06    -83.3423E+06    -309.630E+03    -226.956E-03     453.655E-03    -226.699E-03     16.0795E-03    -227.046E-03     453.100E-03    -226.752E-03     16.1073E-03
            1658     1.43619E-03     63.4445E-03    -99.2395E+06    -160.712E+06    -90.3936E+06     796.288E+03    -227.043E-03     453.579E-03    -226.536E-03     10.1024E-03    -227.100E-03     452.986E-03    -226.611E-03     10.2039E-03
            1659     718.316E-06     63.4317E-03    -101.481E+06    -170.663E+06    -99.2041E+06     794.081E+03    -226.740E-03     452.932E-03    -226.192E-03     5.79156E-03    -226.723E-03     452.333E-03    -226.293E-03     5.82851E-03
            1660     13.6384E-03     63.1806E-03    -2.44716E+06     48.4200E+06     73.9181E+06    -21.6571E+03    -226.604E-03     453.087E-03    -226.483E-03     74.9156E-03    -227.037E-03     453.468E-03    -226.180E-03     71.0894E-03
            1661     12.9184E-03     63.0743E-03    -9.06484E+06     44.4566E+06     71.7199E+06     1.24471E+06    -227.162E-03     453.702E-03    -226.539E-03     75.2830E-03    -227.634E-03     454.091E-03    -226.232E-03     71.3928E-03
            1662     12.2012E-03     62.9658E-03    -11.4903E+06     41.3872E+06     71.8116E+06     612.541E+03    -227.020E-03     453.613E-03    -226.593E-03     74.5524E-03    -227.488E-03     453.980E-03    -226.278E-03     70.8833E-03
            1663     11.4818E-03     62.8591E-03    -12.7541E+06     38.9478E+06     72.0502E+06     829.096E+03    -227.470E-03     454.108E-03    -226.638E-03     73.1708E-03    -227.922E-03     454.445E-03    -226.316E-03     69.7253E-03
            1664     10.7651E-03     62.7594E-03    -22.6042E+06     28.7322E+06     59.9229E+06    -584.622E+03    -227.990E-03     454.600E-03    -226.610E-03     69.6270E-03    -228.446E-03     454.903E-03    -226.319E-03     66.2486E-03
            1665     10.0486E-03     62.6592E-03    -29.6595E+06     21.0904E+06     49.0376E+06     330.902E+03    -227.363E-03     453.937E-03    -226.574E-03     66.2240E-03    -227.783E-03     454.184E-03    -226.316E-03     63.4508E-03
            1666     9.32938E-03     62.5597E-03    -33.0497E+06     13.4647E+06     40.3412E+06     2.36094E+06    -226.955E-03     453.527E-03    -226.572E-03     61.9545E-03    -227.335E-03     453.721E-03    -226.342E-03     59.5543E-03
            1667     8.61296E-03     62.4768E-03    -40.2011E+06     1.88943E+06     26.6492E+06    -20.0345E+03    -226.933E-03     453.498E-03    -226.565E-03     57.8303E-03    -227.293E-03     453.644E-03    -226.376E-03     55.6189E-03
            1668     7.89372E-03     62.3954E-03    -45.3613E+06    -6.70303E+06     17.4902E+06     3.50954E+06    -226.650E-03     453.233E-03    -226.583E-03     54.4814E-03    -226.965E-03     453.312E-03    -226.420E-03     53.0901E-03
            1669     7.17664E-03     62.3158E-03    -51.7489E+06    -15.1098E+06     6.39372E+06     3.43972E+06    -226.627E-03     453.232E-03    -226.605E-03     49.6986E-03    -226.915E-03     453.264E-03    -226.476E-03     48.7868E-03
            1670     6.45921E-03     62.2467E-03    -60.1378E+06    -32.8380E+06    -7.81109E+06    -1.63098E+06    -226.458E-03     453.093E-03    -226.635E-03     45.4834E-03    -226.728E-03     453.056E-03    -226.539E-03     44.7266E-03
            1671     5.73890E-03     62.1803E-03    -64.7540E+06    -59.1998E+06    -17.9646E+06    -747.637E+03    -226.375E-03     453.084E-03    -226.710E-03     41.5870E-03    -226.605E-03     452.926E-03    -226.620E-03     41.0887E-03
            1672     5.02112E-03     62.1260E-03    -68.3097E+06     -79.844E+06    -25.8233E+06    -1.34270E+06    -226.768E-03     453.537E-03    -226.770E-03     36.9325E-03    -226.965E-03     453.284E-03    -226.684E-03     36.5721E-03
            1673     4.30380E-03     62.0773E-03    -74.0291E+06    -98.6144E+06    -38.4256E+06     1.29365E+06    -226.801E-03     453.576E-03    -226.774E-03     31.4169E-03    -226.972E-03     453.246E-03    -226.716E-03     31.2064E-03
            1674     3.58754E-03     62.0357E-03    -81.6704E+06    -122.184E+06    -55.8343E+06     4.50571E+06    -226.639E-03     453.409E-03    -226.770E-03     25.4695E-03    -226.778E-03     452.986E-03    -226.753E-03     25.4417E-03
            1675     2.86954E-03     61.9994E-03    -86.4385E+06    -139.594E+06    -68.9107E+06     2.86201E+06    -226.833E-03     453.595E-03    -226.762E-03     19.9140E-03    -226.941E-03     453.101E-03    -226.779E-03     19.9215E-03
            1676     2.15281E-03     61.9710E-03    -91.6599E+06    -152.527E+06    -80.8992E+06     1.06579E+06    -226.866E-03     453.579E-03    -226.713E-03     14.7298E-03    -226.952E-03     453.035E-03    -226.763E-03     14.7498E-03
            1677     1.43383E-03     61.9515E-03    -96.7731E+06    -163.079E+06    -89.9753E+06     132.078E+03    -227.003E-03     453.588E-03    -226.584E-03     10.5659E-03    -227.065E-03     452.997E-03    -226.657E-03     10.5742E-03
            1678     718.314E-06     61.9408E-03    -93.2713E+06    -165.946E+06    -90.1709E+06     956.826E+03    -226.731E-03     453.096E-03    -226.365E-03     5.59442E-03    -226.712E-03     452.516E-03    -226.440E-03     5.68611E-03
            1679     13.6349E-03     61.6873E-03    -3.20628E+06     49.5828E+06     76.6683E+06    -765.423E+03    -227.795E-03     454.403E-03    -226.608E-03     72.5724E-03    -228.229E-03     454.779E-03    -226.292E-03     68.7531E-03
            1680     12.9207E-03     61.5820E-03    -10.1902E+06     43.8043E+06     71.2706E+06     60.6323E+03    -227.770E-03     454.370E-03    -226.601E-03     73.5028E-03    -228.263E-03     454.776E-03    -226.293E-03     69.2762E-03
            1681     12.2020E-03     61.4769E-03    -10.8532E+06     42.1048E+06     70.9285E+06    -818.089E+03    -227.585E-03     454.195E-03    -226.610E-03     73.4067E-03    -228.065E-03     454.580E-03    -226.301E-03     69.4695E-03
            1682     11.4830E-03     61.3712E-03    -16.1656E+06     35.6416E+06     66.0182E+06    -1.57259E+06    -227.946E-03     454.548E-03    -226.603E-03     70.8928E-03    -228.405E-03     454.885E-03    -226.301E-03     67.2970E-03
            1683     10.7658E-03     61.2616E-03    -28.9335E+06     22.7793E+06     54.2430E+06    -1.60449E+06    -227.972E-03     454.531E-03    -226.559E-03     67.6146E-03    -228.445E-03     454.824E-03    -226.279E-03     64.1060E-03
            1684     10.0493E-03     61.1693E-03    -30.0210E+06     21.0109E+06     51.1454E+06     1.43468E+06    -226.735E-03     453.294E-03    -226.559E-03     65.4978E-03    -227.164E-03     453.543E-03    -226.290E-03     62.6313E-03
            1685     9.33079E-03     61.0725E-03    -30.7211E+06     14.8669E+06     41.4161E+06     3.85509E+06    -225.576E-03     452.202E-03    -226.626E-03     63.4905E-03    -225.933E-03     452.382E-03    -226.395E-03     61.4719E-03
            1686     8.60999E-03     60.9850E-03    -38.2979E+06     2.98975E+06     28.5873E+06     4.40963E+06    -226.777E-03     453.478E-03    -226.700E-03     59.4940E-03    -227.115E-03     453.607E-03    -226.506E-03     57.6942E-03
            1687     7.89420E-03     60.9037E-03    -47.7200E+06    -6.60209E+06     19.9118E+06     4.59049E+06    -227.557E-03     454.266E-03    -226.709E-03     54.8020E-03    -227.890E-03     454.348E-03    -226.530E-03     53.3647E-03
            1688     7.17526E-03     60.8260E-03    -47.1384E+06    -8.17766E+06     11.8778E+06     4.37310E+06    -226.746E-03     453.435E-03    -226.689E-03     50.3482E-03    -227.028E-03     453.486E-03    -226.549E-03     49.4855E-03
            1689     6.45670E-03     60.7549E-03    -49.8620E+06    -25.8006E+06    -2.28794E+06     649.220E+03    -226.562E-03     453.272E-03    -226.710E-03     45.3420E-03    -226.798E-03     453.247E-03    -226.612E-03     44.6256E-03
            1690     5.73974E-03     60.6932E-03    -60.9675E+06    -60.9165E+06    -18.9053E+06    -3.27849E+06    -226.484E-03     453.253E-03    -226.769E-03     39.5416E-03    -226.693E-03     453.084E-03    -226.687E-03     38.9380E-03
            1691     5.02075E-03     60.6329E-03    -69.5818E+06    -85.3315E+06    -31.8395E+06    -3.75450E+06    -226.549E-03     453.376E-03    -226.827E-03     34.1834E-03    -226.737E-03     453.107E-03    -226.762E-03     33.7409E-03
            1692     4.30421E-03     60.5846E-03    -78.5570E+06    -105.842E+06    -41.6062E+06    -3.45575E+06    -227.148E-03     453.988E-03    -226.840E-03     29.3902E-03    -227.330E-03     453.636E-03    -226.781E-03     28.9712E-03
            1693     3.58648E-03     60.5431E-03    -82.4924E+06    -122.439E+06    -49.9151E+06     2.47312E+06    -227.376E-03     454.131E-03    -226.755E-03     24.8685E-03    -227.529E-03     453.702E-03    -226.707E-03     24.7513E-03
            1694     2.87038E-03     60.5075E-03    -81.1569E+06    -132.946E+06    -60.3362E+06     5.53621E+06    -226.937E-03     453.566E-03    -226.628E-03     20.1137E-03    -227.042E-03     453.086E-03    -226.620E-03     20.2050E-03
            1695     2.15239E-03     60.4803E-03    -84.9726E+06    -146.946E+06    -74.2916E+06     2.96854E+06    -226.463E-03     453.045E-03    -226.582E-03     14.9756E-03    -226.539E-03     452.516E-03    -226.618E-03     15.0144E-03
            1696     1.43545E-03     60.4621E-03    -89.0359E+06    -158.829E+06    -85.6209E+06     665.018E+03    -226.371E-03     453.043E-03    -226.672E-03     10.4113E-03    -226.412E-03     452.462E-03    -226.741E-03     10.4004E-03
            1697     716.231E-06     60.4464E-03    -92.3193E+06    -168.250E+06    -92.9744E+06    -1.70924E+06    -226.762E-03     453.624E-03    -226.863E-03     4.44364E-03    -226.732E-03     453.032E-03    -226.950E-03     4.52111E-03
            1698     13.6392E-03     60.1943E-03    -2.80213E+06     48.0487E+06     72.9562E+06    -1.20748E+06    -227.674E-03     454.232E-03    -226.559E-03     69.9456E-03    -228.101E-03     454.609E-03    -226.260E-03     66.0010E-03
            1699     12.9178E-03     60.0926E-03    -9.66579E+06     42.9549E+06     69.0976E+06    -1.26816E+06    -227.021E-03     453.598E-03    -226.577E-03     73.0807E-03    -227.509E-03     454.003E-03    -226.279E-03     68.8251E-03
            1700     12.2003E-03     59.9846E-03    -12.9120E+06     42.1134E+06     71.3468E+06     1.21534E+03    -228.278E-03     454.880E-03    -226.602E-03     74.2858E-03    -228.767E-03     455.266E-03    -226.288E-03     70.4158E-03
            1701     11.4865E-03     59.8754E-03    -17.4986E+06     36.1291E+06     68.0739E+06     2.00420E+06    -227.918E-03     454.503E-03    -226.585E-03     72.8721E-03    -228.388E-03     454.842E-03    -226.271E-03     69.3751E-03
            1702     10.7682E-03     59.7765E-03    -24.0532E+06     25.5948E+06     55.6285E+06     4.97907E+06    -226.517E-03     453.102E-03    -226.585E-03     70.7352E-03    -226.956E-03     453.385E-03    -226.309E-03     67.6557E-03
            1703     10.0477E-03     59.6755E-03    -29.5240E+06     18.3516E+06     43.8075E+06    -334.126E+03    -226.274E-03     452.912E-03    -226.638E-03     67.4180E-03    -226.681E-03     453.152E-03    -226.403E-03     64.6463E-03
            1704     9.32765E-03     59.5897E-03    -35.7855E+06     10.4285E+06     38.9351E+06    -808.442E+03    -226.677E-03     453.401E-03    -226.724E-03     63.3633E-03    -227.050E-03     453.571E-03    -226.493E-03     61.2781E-03
            1705     8.60909E-03     59.4921E-03    -43.2207E+06    -947.737E+03     30.1583E+06     4.05105E+06    -226.761E-03     453.541E-03    -226.780E-03     58.3416E-03    -227.107E-03     453.643E-03    -226.565E-03     56.7642E-03
            1706     7.89136E-03     59.4090E-03    -45.7966E+06    -5.10465E+06     18.7389E+06    -921.077E+03    -227.131E-03     453.909E-03    -226.778E-03     53.4980E-03    -227.457E-03     454.000E-03    -226.611E-03     51.8938E-03
            1707     7.17534E-03     59.3369E-03    -45.9443E+06    -6.13038E+06     16.5137E+06     573.266E+03    -227.515E-03     454.284E-03    -226.769E-03     49.4133E-03    -227.811E-03     454.348E-03    -226.611E-03     48.2527E-03
            1708     6.45738E-03     59.2632E-03    -54.6892E+06    -22.3851E+06     3.61098E+06     3.91901E+06    -227.426E-03     454.136E-03    -226.711E-03     43.8669E-03    -227.701E-03     454.128E-03    -226.581E-03     43.1334E-03
            1709     5.74038E-03     59.1995E-03    -67.3712E+06    -60.0164E+06    -20.1975E+06    -377.834E+03    -227.159E-03     453.788E-03    -226.629E-03     38.4721E-03    -227.401E-03     453.637E-03    -226.545E-03     37.7990E-03
            1710     5.02414E-03     59.1448E-03    -69.0628E+06    -83.2654E+06    -31.7785E+06    -646.766E+03    -226.649E-03     453.252E-03    -226.604E-03     34.0908E-03    -226.838E-03     452.993E-03    -226.542E-03     33.6582E-03
            1711     4.30448E-03     59.0922E-03    -74.6568E+06    -107.093E+06    -46.4692E+06    -3.47655E+06    -226.618E-03     453.215E-03    -226.597E-03     29.2085E-03    -226.768E-03     452.856E-03    -226.566E-03     28.8863E-03
            1712     3.58831E-03     59.0506E-03    -81.5020E+06    -128.971E+06    -56.1319E+06    -7.41924E+06    -226.847E-03     453.432E-03    -226.585E-03     24.4785E-03    -226.978E-03     452.979E-03    -226.561E-03     24.1179E-03
            1713     2.87015E-03     59.0162E-03    -85.1234E+06    -135.306E+06    -62.2658E+06    -2.81474E+06    -226.553E-03     453.109E-03    -226.556E-03     19.8162E-03    -226.675E-03     452.630E-03    -226.548E-03     19.6580E-03
            1714     2.15265E-03     58.9905E-03    -87.8229E+06    -145.585E+06    -71.8847E+06     1.29521E+06    -226.481E-03     453.028E-03    -226.546E-03     15.1910E-03    -226.574E-03     452.504E-03    -226.567E-03     15.1948E-03
            1715     1.43469E-03     58.9695E-03    -92.0005E+06    -155.470E+06    -81.2381E+06     2.39627E+06    -226.546E-03     453.091E-03    -226.545E-03     10.2483E-03    -226.599E-03     452.513E-03    -226.593E-03     10.2996E-03
            1716     717.983E-06     58.9591E-03    -96.9352E+06    -166.215E+06    -92.5286E+06     3.56676E+06    -226.595E-03     453.158E-03    -226.563E-03     5.17110E-03    -226.577E-03     452.556E-03    -226.644E-03     5.29883E-03
            1717     13.6384E-03     58.7093E-03    -442.952E+03     49.8821E+06     74.1766E+06    -830.067E+03    -227.121E-03     453.675E-03    -226.554E-03     70.8634E-03    -227.543E-03     454.058E-03    -226.255E-03     66.9576E-03
            1718     12.9204E-03     58.6037E-03    -8.75962E+06     43.5652E+06     69.2244E+06     867.807E+03    -227.135E-03     453.723E-03    -226.588E-03     75.3426E-03    -227.607E-03     454.118E-03    -226.292E-03     71.3759E-03
            1719     12.2030E-03     58.4904E-03    -12.1080E+06     41.0782E+06     68.7812E+06     617.153E+03    -227.013E-03     453.661E-03    -226.647E-03     76.0334E-03    -227.477E-03     454.028E-03    -226.345E-03     72.4360E-03
            1720     11.4813E-03     58.3868E-03    -18.1436E+06     34.4525E+06     64.9110E+06     2.22582E+06    -226.789E-03     453.505E-03    -226.716E-03     74.4592E-03    -227.249E-03     453.835E-03    -226.415E-03     71.0970E-03
            1721     10.7620E-03     58.2847E-03    -21.3296E+06     29.8180E+06     61.5632E+06     4.28585E+06    -227.029E-03     453.808E-03    -226.780E-03     70.4835E-03    -227.471E-03     454.102E-03    -226.484E-03     67.3149E-03
            1722     10.0436E-03     58.1902E-03    -28.4170E+06     21.4539E+06     50.6729E+06     3.07643E+06    -227.666E-03     454.446E-03    -226.780E-03     65.7199E-03    -228.080E-03     454.689E-03    -226.517E-03     62.9436E-03
            1723     9.32854E-03     58.0908E-03    -39.2580E+06     9.01041E+06     34.6178E+06     1.31806E+06    -228.170E-03     454.884E-03    -226.714E-03     61.4978E-03    -228.558E-03     455.064E-03    -226.497E-03     59.2437E-03
            1724     8.61369E-03     58.0052E-03    -41.1298E+06     2.98818E+06     27.5112E+06    -1.63304E+06    -227.240E-03     453.914E-03    -226.674E-03     57.2502E-03    -227.581E-03     454.040E-03    -226.481E-03     55.4717E-03
            1725     7.89278E-03     57.9205E-03    -48.1230E+06     -6.0076E+06     17.6002E+06    -5.48914E+06    -226.867E-03     453.539E-03    -226.672E-03     52.4406E-03    -227.194E-03     453.623E-03    -226.506E-03     50.8908E-03
            1726     7.17428E-03     57.8403E-03    -58.4447E+06    -17.7227E+06     7.11980E+06    -3.18638E+06    -227.553E-03     454.198E-03    -226.645E-03     47.6919E-03    -227.886E-03     454.240E-03    -226.499E-03     46.3342E-03
            1727     6.45951E-03     57.7717E-03    -62.8194E+06    -29.4147E+06    -761.630E+03     2.67105E+06    -227.270E-03     453.853E-03    -226.583E-03     43.3943E-03    -227.575E-03     453.833E-03    -226.453E-03     42.5248E-03
            1728     5.74146E-03     57.7085E-03    -62.4196E+06    -48.0375E+06    -10.6971E+06     2.50733E+06    -226.912E-03     453.444E-03    -226.532E-03     39.3008E-03    -227.162E-03     453.333E-03    -226.425E-03     38.6362E-03
            1729     5.02299E-03     57.6526E-03    -69.8263E+06    -77.5526E+06    -28.4021E+06     539.041E+03    -226.986E-03     453.454E-03    -226.468E-03     34.8560E-03    -227.195E-03     453.223E-03    -226.396E-03     34.3480E-03
            1730     4.30733E-03     57.6031E-03    -75.0411E+06    -104.176E+06    -44.0320E+06     1.96464E+06    -226.392E-03     452.824E-03    -226.432E-03     30.0330E-03    -226.550E-03     452.474E-03    -226.392E-03     29.8356E-03
            1731     3.58777E-03     57.5595E-03    -80.7919E+06    -128.147E+06    -60.6404E+06    -1.88001E+06    -226.014E-03     452.484E-03    -226.470E-03     25.4096E-03    -226.135E-03     452.039E-03    -226.470E-03     25.2411E-03
            1732     2.87048E-03     57.5265E-03    -90.9089E+06    -145.235E+06    -75.1185E+06    -6.16786E+06    -226.472E-03     452.985E-03    -226.513E-03     20.4737E-03    -226.590E-03     452.485E-03    -226.547E-03     20.2918E-03
            1733     2.15256E-03     57.4992E-03    -94.4007E+06    -152.544E+06    -79.7708E+06    -3.30134E+06    -226.698E-03     453.194E-03    -226.496E-03     15.3358E-03    -226.792E-03     452.648E-03    -226.537E-03     15.2773E-03
            1734     1.43550E-03     57.4789E-03    -94.8808E+06    -156.184E+06    -84.6633E+06    -506.967E+03    -226.608E-03     453.028E-03    -226.420E-03     10.2618E-03    -226.654E-03     452.440E-03    -226.479E-03     10.2521E-03
            1735     717.644E-06     57.4673E-03    -97.7553E+06    -162.373E+06    -93.4022E+06    -1.74811E+06    -226.472E-03     452.843E-03    -226.371E-03     6.18485E-03    -226.450E-03     452.238E-03    -226.461E-03     6.11334E-03
            1736     13.6346E-03     57.2175E-03    -124.842E+03     49.4791E+06     74.5236E+06     735.656E+03    -226.316E-03     452.946E-03    -226.630E-03     71.4535E-03    -226.731E-03     453.321E-03    -226.329E-03     67.7133E-03
            1737     12.9180E-03     57.1094E-03    -9.00469E+06     42.3945E+06     68.8875E+06     529.170E+03    -227.313E-03     454.000E-03    -226.686E-03     76.3108E-03    -227.789E-03     454.394E-03    -226.390E-03     72.3194E-03
            1738     12.1979E-03     57.0053E-03    -13.9200E+06     37.6697E+06     65.3810E+06     2.40904E+06    -227.051E-03     453.786E-03    -226.735E-03     75.2556E-03    -227.515E-03     454.145E-03    -226.443E-03     71.6462E-03
            1739     11.4801E-03     56.8958E-03    -19.0017E+06     33.3818E+06     63.1052E+06     2.35179E+06    -227.164E-03     453.957E-03    -226.793E-03     71.2476E-03    -227.621E-03     454.282E-03    -226.498E-03     67.8240E-03
            1740     10.7635E-03     56.7936E-03    -24.2260E+06     29.3762E+06     61.0321E+06    -2.74033E+06    -228.046E-03     454.858E-03    -226.812E-03     67.6830E-03    -228.506E-03     455.159E-03    -226.514E-03     64.2500E-03
            1741     10.0483E-03     56.6947E-03    -32.5666E+06     20.7589E+06     51.3230E+06    -1.06548E+06    -228.498E-03     455.245E-03    -226.747E-03     64.6808E-03    -228.942E-03     455.498E-03    -226.473E-03     61.6806E-03
            1742     9.32996E-03     56.6003E-03    -36.3182E+06     15.9943E+06     39.1576E+06     1.75322E+06    -227.803E-03     454.457E-03    -226.655E-03     61.3519E-03    -228.195E-03     454.664E-03    -226.429E-03     59.0447E-03
            1743     8.60949E-03     56.5122E-03    -38.0871E+06     10.4345E+06     32.0347E+06     1.25471E+06    -227.968E-03     454.558E-03    -226.591E-03     57.5149E-03    -228.315E-03     454.715E-03    -226.391E-03     55.6815E-03
            1744     7.89593E-03     56.4290E-03    -47.3883E+06    -4.45412E+06     19.2137E+06     1.87513E+06    -227.807E-03     454.310E-03    -226.503E-03     52.9025E-03    -228.137E-03     454.400E-03    -226.332E-03     51.4088E-03
            1745     7.17918E-03     56.3504E-03    -60.9322E+06    -21.1314E+06    -1.95209E+06    -3.69159E+06    -226.511E-03     452.940E-03    -226.429E-03     48.3995E-03    -226.835E-03     452.979E-03    -226.320E-03     47.1417E-03
            1746     6.45860E-03     56.2802E-03    -65.5852E+06    -37.4883E+06    -8.90978E+06    -5.64122E+06    -226.221E-03     452.702E-03    -226.481E-03     44.3012E-03    -226.518E-03     452.659E-03    -226.376E-03     43.3234E-03
            1747     5.74092E-03     56.2185E-03    -60.9920E+06    -50.6237E+06    -8.11735E+06     128.342E+03    -226.626E-03     453.172E-03    -226.546E-03     40.3120E-03    -226.868E-03     453.041E-03    -226.425E-03     39.7103E-03
            1748     5.02440E-03     56.1600E-03    -69.5788E+06    -75.7756E+06    -27.0534E+06     1.53802E+06    -226.676E-03     453.195E-03    -226.519E-03     35.8199E-03    -226.888E-03     452.970E-03    -226.443E-03     35.3503E-03
            1749     4.30556E-03     56.1129E-03    -77.7537E+06    -104.170E+06    -42.6065E+06     2.93640E+06    -226.475E-03     452.992E-03    -226.517E-03     30.9839E-03    -226.653E-03     452.648E-03    -226.466E-03     30.7080E-03
            1750     3.58813E-03     56.0719E-03    -80.6330E+06    -123.295E+06    -54.0933E+06     5.22832E+06    -226.335E-03     452.876E-03    -226.541E-03     25.8463E-03    -226.472E-03     452.446E-03    -226.516E-03     25.8264E-03
            1751     2.86925E-03     56.0344E-03    -86.8913E+06    -141.697E+06    -72.6934E+06     1.22204E+06    -226.465E-03     453.003E-03    -226.538E-03     20.5091E-03    -226.568E-03     452.507E-03    -226.570E-03     20.4530E-03
            1752     2.15305E-03     56.0077E-03    -92.4154E+06    -155.286E+06    -84.8667E+06    -2.74368E+06    -226.607E-03     453.139E-03    -226.532E-03     15.5339E-03    -226.671E-03     452.575E-03    -226.597E-03     15.4885E-03
            1753     1.43510E-03     55.9892E-03    -96.8016E+06    -160.113E+06    -91.9851E+06    -3.31306E+06    -226.493E-03     453.049E-03    -226.556E-03     10.9675E-03    -226.527E-03     452.450E-03    -226.644E-03     10.9504E-03
            1754     717.457E-06     55.9764E-03    -99.9621E+06    -166.373E+06    -98.8384E+06    -3.22277E+06    -226.793E-03     453.310E-03    -226.517E-03     6.52418E-03    -226.767E-03     452.690E-03    -226.625E-03     6.39472E-03
            1755     13.6369E-03     55.7262E-03     318.080E+03     48.9404E+06     73.4051E+06     4.39810E+06    -226.632E-03     453.319E-03    -226.687E-03     72.8313E-03    -227.036E-03     453.686E-03    -226.392E-03     69.2900E-03
            1756     12.9160E-03     55.6222E-03    -8.63840E+06     41.8006E+06     67.6014E+06    -974.132E+03    -227.966E-03     454.683E-03    -226.717E-03     73.5577E-03    -228.435E-03     455.074E-03    -226.427E-03     69.4534E-03
            1757     12.1999E-03     55.5104E-03    -18.1266E+06     35.1444E+06     65.6341E+06    -1.36631E+06    -228.266E-03     454.984E-03    -226.719E-03     72.0766E-03    -228.758E-03     455.346E-03    -226.415E-03     68.1492E-03
            1758     11.4839E-03     55.4056E-03    -20.2225E+06     33.1893E+06     66.2822E+06     1.60384E+06    -227.847E-03     454.560E-03    -226.713E-03     69.9413E-03    -228.320E-03     454.886E-03    -226.400E-03     66.3977E-03
            1759     10.7644E-03     55.3021E-03    -25.0624E+06     27.3235E+06     57.7566E+06    -392.198E+03    -227.874E-03     454.552E-03    -226.677E-03     68.3540E-03    -228.324E-03     454.841E-03    -226.392E-03     65.1317E-03
            1760     10.0460E-03     55.1994E-03    -32.4696E+06     19.3993E+06     46.0130E+06    -4.01185E+06    -227.886E-03     454.507E-03    -226.621E-03     64.4012E-03    -228.325E-03     454.766E-03    -226.372E-03     61.2565E-03
            1761     9.32924E-03     55.1119E-03    -35.8500E+06     17.0998E+06     41.8935E+06    -1.43836E+06    -227.643E-03     454.227E-03    -226.584E-03     60.7143E-03    -228.047E-03     454.443E-03    -226.347E-03     58.1968E-03
            1762     8.61433E-03     55.0185E-03    -40.5008E+06     8.34805E+06     32.1076E+06     1.85630E+06    -227.614E-03     454.143E-03    -226.529E-03     57.9961E-03    -227.971E-03     454.293E-03    -226.322E-03     56.1831E-03
            1763     7.89537E-03     54.9348E-03    -41.7793E+06     467.800E+03     23.9595E+06     1.67101E+06    -226.991E-03     453.485E-03    -226.494E-03     54.0869E-03    -227.316E-03     453.593E-03    -226.314E-03     52.4560E-03
            1764     7.17675E-03     54.8625E-03    -48.0499E+06    -9.26481E+06     10.2615E+06     2.32380E+06    -226.243E-03     452.740E-03    -226.497E-03     50.5744E-03    -226.537E-03     452.801E-03    -226.362E-03     49.4772E-03
            1765     6.45925E-03     54.7918E-03    -58.3375E+06    -32.9466E+06    -8.46503E+06    -536.179E+03    -226.250E-03     452.789E-03    -226.539E-03     46.2642E-03    -226.513E-03     452.752E-03    -226.449E-03     45.5426E-03
            1766     5.74100E-03     54.7263E-03    -67.3270E+06    -59.8554E+06    -19.6314E+06    -2.87438E+06    -226.446E-03     453.058E-03    -226.612E-03     41.1581E-03    -226.687E-03     452.905E-03    -226.526E-03     40.6016E-03
            1767     5.02180E-03     54.6708E-03    -75.0569E+06    -81.9844E+06    -32.3371E+06    -1.06438E+06    -226.464E-03     453.119E-03    -226.655E-03     35.8420E-03    -226.687E-03     452.878E-03    -226.589E-03     35.3692E-03
            1768     4.30440E-03     54.6219E-03    -81.4682E+06    -105.141E+06    -46.0359E+06     678.437E+03    -226.714E-03     453.383E-03    -226.668E-03     30.6075E-03    -226.906E-03     453.046E-03    -226.628E-03     30.2719E-03
            1769     3.58748E-03     54.5789E-03    -84.4474E+06    -123.419E+06    -55.0911E+06     3.03995E+06    -226.780E-03     453.440E-03    -226.661E-03     25.9755E-03    -226.933E-03     453.017E-03    -226.635E-03     25.9007E-03
            1770     2.87139E-03     54.5454E-03    -84.3729E+06    -134.549E+06    -64.2196E+06     4.24596E+06    -226.395E-03     453.070E-03    -226.675E-03     21.3266E-03    -226.505E-03     452.590E-03    -226.678E-03     21.3443E-03
            1771     2.15155E-03     54.5167E-03    -89.7468E+06    -148.701E+06    -79.4175E+06     2.22530E+06    -226.355E-03     453.109E-03    -226.755E-03     16.0291E-03    -226.425E-03     452.567E-03    -226.806E-03     16.0817E-03
            1772     1.43439E-03     54.4981E-03    -97.6506E+06    -161.744E+06    -92.8837E+06    -773.022E+03    -226.679E-03     453.551E-03    -226.872E-03     10.8956E-03    -226.721E-03     452.952E-03    -226.961E-03     10.9457E-03
            1773     716.808E-06     54.4853E-03    -101.711E+06    -171.981E+06     -99.716E+06     255.069E+03    -227.052E-03     454.007E-03    -226.955E-03     7.25642E-03    -227.033E-03     453.375E-03    -227.057E-03     7.23080E-03
            1774     13.6329E-03     54.2352E-03    -5.19364E+06     46.4647E+06     72.5794E+06     3.64458E+06    -228.826E-03     455.559E-03    -226.733E-03     73.8247E-03    -229.255E-03     455.923E-03    -226.430E-03     70.3010E-03
            1775     12.9193E-03     54.1274E-03    -3.96015E+06     48.1823E+06     78.0110E+06     2.90027E+06    -229.341E-03     456.036E-03    -226.695E-03     73.4471E-03    -229.827E-03     456.452E-03    -226.369E-03     69.1849E-03
            1776     12.2024E-03     54.0185E-03    -12.8693E+06     39.1995E+06     71.7898E+06     336.515E+03    -228.257E-03     454.891E-03    -226.634E-03     72.3703E-03    -228.752E-03     455.271E-03    -226.313E-03     68.2877E-03
            1777     11.4827E-03     53.9153E-03    -20.4520E+06     31.0872E+06     63.7406E+06    -975.191E+03    -227.972E-03     454.566E-03    -226.594E-03     71.1269E-03    -228.440E-03     454.887E-03    -226.291E-03     67.5775E-03
            1778     10.7671E-03     53.8095E-03    -23.7164E+06     27.1172E+06     58.4675E+06    -652.442E+03    -227.755E-03     454.321E-03    -226.566E-03     68.5108E-03    -228.196E-03     454.605E-03    -226.278E-03     65.3050E-03
            1779     10.0498E-03     53.7107E-03    -27.8023E+06     22.7038E+06     50.6228E+06    -319.827E+03    -227.109E-03     453.655E-03    -226.546E-03     64.6611E-03    -227.528E-03     453.909E-03    -226.285E-03     61.7213E-03
            1780     9.33177E-03     53.6177E-03    -33.6753E+06     14.7390E+06     39.9994E+06    -247.842E+03    -227.122E-03     453.658E-03    -226.536E-03     62.1603E-03    -227.507E-03     453.860E-03    -226.308E-03     59.7278E-03
            1781     8.61219E-03     53.5285E-03    -41.4553E+06     3.03535E+06     26.9950E+06    -1.34494E+06    -226.448E-03     452.997E-03    -226.550E-03     59.8575E-03    -226.800E-03     453.135E-03    -226.359E-03     57.9895E-03
            1782     7.89375E-03     53.4465E-03    -44.5620E+06    -2.70079E+06     20.3846E+06    -2.85149E+06    -225.980E-03     452.611E-03    -226.630E-03     55.1181E-03    -226.306E-03     452.710E-03    -226.460E-03     53.5175E-03
            1783     7.17507E-03     53.3719E-03    -46.0858E+06    -5.64393E+06     16.3601E+06     1.09104E+06    -226.560E-03     453.273E-03    -226.713E-03     50.5911E-03    -226.862E-03     453.344E-03    -226.556E-03     49.3958E-03
            1784     6.45702E-03     53.2997E-03    -53.5444E+06    -22.9308E+06    -152.299E+03     5.43314E+06    -226.721E-03     453.450E-03    -226.729E-03     46.2454E-03    -226.988E-03     453.446E-03    -226.619E-03     45.5542E-03
            1785     5.73924E-03     53.2370E-03    -67.6790E+06    -60.7054E+06    -23.3174E+06     444.223E+03    -226.551E-03     453.304E-03    -226.753E-03     41.3722E-03    -226.789E-03     453.154E-03    -226.683E-03     40.7954E-03
            1786     5.02254E-03     53.1790E-03    -74.5849E+06    -86.7193E+06    -33.3671E+06    -683.738E+03    -226.653E-03     453.470E-03    -226.817E-03     36.2536E-03    -226.863E-03     453.204E-03    -226.750E-03     35.8008E-03
            1787     4.30518E-03     53.1304E-03    -77.0249E+06    -103.187E+06    -43.8018E+06     760.142E+03    -226.609E-03     453.468E-03    -226.859E-03     31.3884E-03    -226.779E-03     453.126E-03    -226.817E-03     31.1349E-03
            1788     3.58688E-03     53.0882E-03    -81.9957E+06    -123.627E+06    -57.3893E+06    -701.565E+03    -226.564E-03     453.479E-03    -226.915E-03     26.9832E-03    -226.700E-03     453.052E-03    -226.904E-03     26.8692E-03
            1789     2.86770E-03     53.0538E-03    -87.6459E+06    -137.670E+06    -66.5562E+06     1.01933E+06    -226.836E-03     453.813E-03    -226.977E-03     21.8694E-03    -226.955E-03     453.326E-03    -226.983E-03     21.8807E-03
            1790     2.15207E-03     53.0262E-03    -90.6070E+06    -145.517E+06    -74.1560E+06     2.26879E+06    -226.983E-03     453.976E-03    -226.992E-03     16.0817E-03    -227.077E-03     453.450E-03    -227.021E-03     16.1243E-03
            1791     1.43408E-03     53.0057E-03     -92.275E+06    -153.988E+06    -82.3466E+06     2.84716E+06    -227.156E-03     454.088E-03    -226.932E-03     10.4612E-03    -227.209E-03     453.515E-03    -226.987E-03     10.5216E-03
            1792     717.421E-06     52.9926E-03    -97.4217E+06    -170.158E+06    -95.7529E+06     1.59404E+06    -226.747E-03     453.835E-03    -227.087E-03     5.97631E-03    -226.726E-03     453.217E-03    -227.178E-03     6.06309E-03
            1793     13.6363E-03     52.7425E-03    -10.5984E+06     43.0452E+06     70.2316E+06    -1.21493E+06    -228.744E-03     455.370E-03    -226.626E-03     69.4289E-03    -229.174E-03     455.712E-03    -226.322E-03     65.9177E-03
            1794     12.9188E-03     52.6286E-03    -6.27432E+06     46.9292E+06     76.7665E+06     693.190E+03    -227.948E-03     454.562E-03    -226.613E-03     72.7447E-03    -228.447E-03     454.982E-03    -226.288E-03     68.3751E-03
            1795     12.2013E-03     52.5316E-03    -9.68699E+06     42.0935E+06     75.1210E+06     2.76513E+06    -228.122E-03     454.721E-03    -226.599E-03     72.6509E-03    -228.617E-03     455.114E-03    -226.271E-03     68.5018E-03
            1796     11.4852E-03     52.4206E-03    -14.2117E+06     37.0901E+06     71.7891E+06     2.39727E+06    -227.925E-03     454.505E-03    -226.580E-03     72.0153E-03    -228.378E-03     454.831E-03    -226.254E-03     68.6053E-03
            1797     10.7670E-03     52.3185E-03    -19.1010E+06     31.9636E+06     66.0545E+06     2.99242E+06    -226.991E-03     453.575E-03    -226.584E-03     69.8649E-03    -227.425E-03     453.863E-03    -226.272E-03     66.7885E-03
            1798     10.0477E-03     52.2214E-03    -27.7843E+06     22.3809E+06     50.8266E+06     2.29529E+06    -226.360E-03     452.965E-03    -226.605E-03     67.5719E-03    -226.767E-03     453.205E-03    -226.343E-03     64.9686E-03
            1799     9.32892E-03     52.1270E-03    -34.0724E+06     11.3162E+06     35.4275E+06    -1.66638E+06    -226.392E-03     453.042E-03    -226.650E-03     64.6863E-03    -226.762E-03     453.228E-03    -226.440E-03     62.4244E-03
            1800     8.61131E-03     52.0402E-03    -40.1821E+06     1.48407E+06     25.3088E+06    -1.63976E+06    -226.422E-03     453.143E-03    -226.721E-03     60.0853E-03    -226.767E-03     453.278E-03    -226.538E-03     58.1320E-03
            1801     7.89184E-03     51.9569E-03    -45.5130E+06    -3.95410E+06     18.5937E+06     307.828E+03    -226.565E-03     453.359E-03    -226.795E-03     55.2018E-03    -226.887E-03     453.452E-03    -226.630E-03     53.7229E-03
            1802     7.17449E-03     51.8794E-03    -54.5196E+06    -13.5405E+06     8.22793E+06    -716.272E+03    -226.772E-03     453.615E-03    -226.843E-03     50.4564E-03    -227.094E-03     453.672E-03    -226.703E-03     49.1939E-03
            1803     6.45699E-03     51.8093E-03    -61.7812E+06    -28.3371E+06    -3.68351E+06     1.52575E+06    -226.570E-03     453.458E-03    -226.888E-03     45.9650E-03    -226.869E-03     453.448E-03    -226.776E-03     45.0993E-03
            1804     5.73903E-03     51.7452E-03    -65.8674E+06    -55.8252E+06    -21.0442E+06     3.56007E+06    -226.410E-03     453.358E-03    -226.947E-03     41.6972E-03    -226.647E-03     453.224E-03    -226.876E-03     41.1774E-03
            1805     5.02037E-03     51.6879E-03    -67.7779E+06    -83.0096E+06    -32.6905E+06     99.2319E+03    -226.416E-03     453.475E-03    -227.060E-03     37.3832E-03    -226.596E-03     453.215E-03    -227.004E-03     36.9974E-03
            1806     4.30208E-03     51.6388E-03    -71.2566E+06    -102.430E+06    -39.5862E+06    -839.087E+03    -226.834E-03     454.009E-03    -227.175E-03     32.1539E-03    -226.979E-03     453.653E-03    -227.121E-03     31.8952E-03
            1807     3.58460E-03     51.5975E-03    -78.3187E+06    -120.296E+06    -51.8113E+06     291.945E+03    -227.269E-03     454.472E-03    -227.204E-03     26.3751E-03    -227.400E-03     454.049E-03    -227.175E-03     26.1935E-03
            1808     2.86878E-03     51.5603E-03    -84.1215E+06    -134.869E+06    -65.7789E+06     107.558E+03    -227.362E-03     454.516E-03    -227.154E-03     20.7957E-03    -227.474E-03     454.042E-03    -227.165E-03     20.7051E-03
            1809     2.15092E-03     51.5330E-03    -88.6512E+06    -146.673E+06    -76.2347E+06    -323.928E+03    -227.425E-03     454.482E-03    -227.058E-03     15.5498E-03    -227.509E-03     453.956E-03    -227.098E-03     15.4847E-03
            1810     1.43498E-03     51.5132E-03    -93.3830E+06    -155.523E+06    -83.1595E+06     646.576E+03    -227.418E-03     454.282E-03    -226.863E-03     10.8501E-03    -227.480E-03     453.710E-03    -226.918E-03     10.8254E-03
            1811     718.051E-06     51.4999E-03    -91.1857E+06    -162.812E+06    -90.6681E+06     1.73025E+06    -226.581E-03     453.539E-03    -226.957E-03     5.37961E-03    -226.554E-03     452.953E-03    -227.042E-03     5.44665E-03
            1812     13.6419E-03     51.2512E-03    -6.61392E+06     45.1270E+06     68.2705E+06    -569.714E+03    -227.823E-03     454.301E-03    -226.477E-03     70.4145E-03    -228.381E-03     454.797E-03    -226.192E-03     67.0709E-03
            1813     12.9204E-03     51.1461E-03    -8.16857E+06     43.6170E+06     69.0384E+06    -691.732E+03    -226.606E-03     453.115E-03    -226.509E-03     73.9667E-03    -227.084E-03     453.519E-03    -226.216E-03     70.0205E-03
            1814     12.2019E-03     51.0329E-03    -13.2704E+06       39.52E+06     70.7842E+06    -2.64469E+06    -227.463E-03     454.035E-03    -226.572E-03     73.2917E-03    -227.956E-03     454.417E-03    -226.257E-03     69.2159E-03
            1815     11.4843E-03     50.9327E-03    -18.6323E+06     33.3414E+06     69.7984E+06    -579.453E+03    -226.919E-03     453.538E-03    -226.619E-03     72.1006E-03    -227.400E-03     453.869E-03    -226.291E-03     68.4539E-03
            1816     10.7646E-03     50.8285E-03    -20.0802E+06     31.9335E+06     67.5208E+06     2.98598E+06    -225.879E-03     452.582E-03    -226.702E-03     70.3056E-03    -226.322E-03     452.870E-03    -226.382E-03     67.2498E-03
            1817     10.0461E-03     50.7329E-03    -22.2772E+06     27.6649E+06     59.0010E+06     3.70562E+06    -226.216E-03     453.008E-03    -226.792E-03     67.3673E-03    -226.613E-03     453.253E-03    -226.505E-03     64.8034E-03
            1818     9.32691E-03     50.6376E-03    -31.2730E+06     13.8129E+06     39.7505E+06     1.46078E+06    -226.634E-03     453.467E-03    -226.832E-03     63.5026E-03    -226.998E-03     453.653E-03    -226.608E-03     61.2625E-03
            1819     8.60819E-03     50.5476E-03    -38.3082E+06     3.09131E+06     25.3114E+06     1.11816E+06    -226.685E-03     453.559E-03    -226.873E-03     59.0018E-03    -227.025E-03     453.699E-03    -226.696E-03     57.0137E-03
            1820     7.89188E-03     50.4667E-03    -49.1331E+06    -8.02940E+06     13.5856E+06     3.33649E+06    -226.582E-03     453.520E-03    -226.939E-03     55.6510E-03    -226.911E-03     453.607E-03    -226.788E-03     54.2009E-03
            1821     7.17360E-03     50.3868E-03    -55.5051E+06    -18.6544E+06     4.27223E+06     2.31740E+06    -226.465E-03     453.491E-03    -227.026E-03     51.8690E-03    -226.774E-03     453.525E-03    -226.897E-03     50.7599E-03
            1822     6.45524E-03     50.3197E-03    -56.0055E+06    -30.6302E+06    -2.34003E+06     1.13170E+06    -226.676E-03     453.800E-03    -227.125E-03     47.5403E-03    -226.944E-03     453.768E-03    -227.011E-03     46.6851E-03
            1823     5.73690E-03     50.2529E-03    -59.5040E+06    -49.5925E+06    -13.9967E+06     2.24966E+06    -226.809E-03     454.011E-03    -227.203E-03     42.0380E-03    -227.033E-03     453.889E-03    -227.115E-03     41.5029E-03
            1824     5.01905E-03     50.1988E-03    -68.3669E+06    -77.9440E+06    -32.4015E+06     1.07805E+06    -226.887E-03     454.150E-03    -227.263E-03     36.2346E-03    -227.078E-03     453.916E-03    -227.212E-03     35.8306E-03
            1825     4.30147E-03     50.1447E-03    -77.1348E+06    -107.116E+06    -45.8661E+06    -1.12942E+06    -227.338E-03     454.651E-03    -227.312E-03     30.9340E-03    -227.499E-03     454.290E-03    -227.274E-03     30.6281E-03
            1826     3.58587E-03     50.1028E-03    -79.1873E+06    -120.750E+06    -52.1991E+06    -1.29979E+06    -227.647E-03     454.940E-03    -227.293E-03     25.6817E-03    -227.782E-03     454.517E-03    -227.264E-03     25.4300E-03
            1827     2.86836E-03     50.0675E-03    -81.9190E+06    -131.471E+06    -62.5781E+06    -597.630E+03    -227.373E-03     454.600E-03    -227.227E-03     21.0800E-03    -227.484E-03     454.136E-03    -227.230E-03     20.9451E-03
            1828     2.15189E-03     50.0405E-03    -88.0884E+06    -146.935E+06    -76.8791E+06     392.494E+03    -227.181E-03     454.374E-03    -227.193E-03     16.3492E-03    -227.258E-03     453.845E-03    -227.237E-03     16.2897E-03
            1829     1.43409E-03     50.0199E-03    -93.1890E+06    -157.745E+06    -87.7939E+06    -844.575E+03    -227.206E-03     454.402E-03    -227.197E-03     11.5568E-03    -227.250E-03     453.819E-03    -227.272E-03     11.4921E-03
            1830     716.907E-06     50.0090E-03    -93.6613E+06    -164.170E+06    -91.4925E+06    -2.22166E+06    -227.104E-03     454.542E-03    -227.438E-03     5.87280E-03    -227.079E-03     453.948E-03    -227.521E-03     5.75329E-03
            1831     13.6360E-03     49.7617E-03    -6.90843E+06     44.8911E+06     68.7755E+06    -3.47311E+06    -228.029E-03     454.599E-03    -226.570E-03     72.8848E-03    -228.614E-03     455.119E-03    -226.281E-03     69.2509E-03
            1832     12.9209E-03     49.6549E-03    -4.91411E+06     48.0463E+06     75.6952E+06     2.37661E+06    -227.647E-03     454.245E-03    -226.599E-03     76.5432E-03    -228.116E-03     454.648E-03    -226.283E-03     72.8327E-03
            1833     12.2020E-03     49.5453E-03    -11.1187E+06     39.5304E+06     70.7023E+06     1.26134E+06    -226.335E-03     452.991E-03    -226.656E-03     76.4928E-03    -226.813E-03     453.364E-03    -226.343E-03     72.6650E-03
            1834     11.4828E-03     49.4406E-03    -18.2254E+06     30.9462E+06     63.5046E+06    -4.22981E+06    -226.235E-03     452.984E-03    -226.748E-03     74.0856E-03    -226.720E-03     453.329E-03    -226.449E-03     70.2281E-03
            1835     10.7643E-03     49.3434E-03    -23.4742E+06     26.6924E+06     58.1829E+06    -990.189E+03    -226.619E-03     453.457E-03    -226.838E-03     71.5902E-03    -227.068E-03     453.748E-03    -226.552E-03     68.3864E-03
            1836     10.0441E-03     49.2406E-03    -27.2953E+06     23.1593E+06     54.4914E+06     3.87577E+06    -226.932E-03     453.848E-03    -226.915E-03     67.7770E-03    -227.342E-03     454.085E-03    -226.637E-03     65.2138E-03
            1837     9.32766E-03     49.1467E-03    -30.3429E+06     16.2970E+06     47.3332E+06     3.87293E+06    -226.794E-03     453.768E-03    -226.975E-03     63.5149E-03    -227.170E-03     453.957E-03    -226.718E-03     61.2665E-03
            1838     8.60967E-03     49.0582E-03    -37.1475E+06     4.60378E+06     30.9668E+06     4.97552E+06    -226.246E-03     453.275E-03    -227.029E-03     59.5528E-03    -226.588E-03     453.413E-03    -226.827E-03     57.6482E-03
            1839     7.88938E-03     48.9749E-03    -44.0678E+06    -4.27155E+06     14.3546E+06     4.58079E+06    -226.118E-03     453.236E-03    -227.118E-03     56.1215E-03    -226.427E-03     453.332E-03    -226.976E-03     54.7169E-03
            1840     7.17035E-03     48.8983E-03    -49.2789E+06    -14.4480E+06     5.97693E+06     1.37897E+06    -226.528E-03     453.777E-03    -227.249E-03     51.6881E-03    -226.814E-03     453.819E-03    -227.127E-03     50.6100E-03
            1841     6.45223E-03     48.8252E-03    -53.0765E+06    -28.3879E+06     318.122E+03    -606.123E+03    -227.083E-03     454.440E-03    -227.357E-03     46.5812E-03    -227.345E-03     454.412E-03    -227.238E-03     45.6474E-03
            1842     5.73587E-03     48.7613E-03    -58.6933E+06    -48.0091E+06    -9.16332E+06     994.549E+03    -227.586E-03     454.984E-03    -227.398E-03     41.2254E-03    -227.818E-03     454.865E-03    -227.290E-03     40.5576E-03
            1843     5.01947E-03     48.7035E-03    -68.9946E+06    -77.1768E+06    -26.2043E+06     3.39822E+06    -227.790E-03     455.158E-03    -227.368E-03     36.0204E-03    -227.996E-03     454.920E-03    -227.287E-03     35.6026E-03
            1844     4.30324E-03     48.6533E-03    -75.2342E+06    -104.132E+06    -46.3461E+06     1.86521E+06    -227.252E-03     454.578E-03    -227.327E-03     31.3631E-03    -227.407E-03     454.232E-03    -227.298E-03     31.1091E-03
            1845     3.58437E-03     48.6088E-03    -80.2204E+06    -124.781E+06    -60.5420E+06    -2.54777E+06    -226.821E-03     454.214E-03    -227.393E-03     26.8397E-03    -226.939E-03     453.781E-03    -227.399E-03     26.6342E-03
            1846     2.86786E-03     48.5750E-03    -86.5145E+06    -140.700E+06    -69.0713E+06    -2.75991E+06    -227.066E-03     454.597E-03    -227.531E-03     22.2448E-03    -227.170E-03     454.096E-03    -227.547E-03     22.1291E-03
            1847     2.14990E-03     48.5475E-03    -88.2316E+06    -147.370E+06    -74.1393E+06    -215.587E+03    -227.219E-03     454.900E-03    -227.681E-03     17.3924E-03    -227.292E-03     454.357E-03    -227.710E-03     17.4272E-03
            1848     1.43322E-03     48.5270E-03    -88.3625E+06    -152.546E+06    -80.0647E+06     979.578E+03    -227.395E-03     455.292E-03    -227.897E-03     12.0140E-03    -227.423E-03     454.708E-03    -227.948E-03     12.0699E-03
            1849     716.005E-06     48.5152E-03    -96.1834E+06    -168.126E+06    -90.7275E+06    -475.769E+03    -228.192E-03     456.169E-03    -227.977E-03     6.48815E-03    -228.163E-03     455.548E-03    -228.048E-03     6.44669E-03
            1850     13.6341E-03     48.2602E-03    -5.19058E+06     45.0094E+06     69.4099E+06    -2.73551E+06    -226.263E-03     452.963E-03    -226.700E-03     72.4649E-03    -226.826E-03     453.466E-03    -226.411E-03     68.5810E-03
            1851     12.9170E-03     48.1656E-03    -11.4138E+06     40.3944E+06     67.6220E+06    -6.18954E+06    -226.962E-03     453.742E-03    -226.780E-03     76.1262E-03    -227.463E-03     454.150E-03    -226.484E-03     71.9040E-03
            1852     12.1979E-03     48.0555E-03    -11.2340E+06     38.2934E+06     70.3347E+06    -313.490E+03    -226.135E-03     453.029E-03    -226.894E-03     77.7876E-03    -226.623E-03     453.409E-03    -226.581E-03     73.8563E-03
            1853     11.4777E-03     47.9538E-03    -14.6185E+06     34.4827E+06     65.8935E+06     3.05961E+06    -226.692E-03     453.691E-03    -226.999E-03     75.3447E-03    -227.165E-03     454.043E-03    -226.698E-03     71.6710E-03
            1854     10.7596E-03     47.8476E-03    -22.0034E+06     26.9381E+06     56.0670E+06     1.22669E+06    -227.798E-03     454.838E-03    -227.039E-03     72.1251E-03    -228.244E-03     455.139E-03    -226.766E-03     68.8480E-03
            1855     10.0447E-03     47.7519E-03    -32.1689E+06     17.8480E+06     44.5372E+06     1.61168E+06    -227.295E-03     454.353E-03    -227.058E-03     68.8023E-03    -227.717E-03     454.595E-03    -226.815E-03     66.0840E-03
            1856     9.32453E-03     47.6538E-03    -33.9179E+06     12.6978E+06     40.9605E+06    -24.2846E+03    -226.557E-03     453.702E-03    -227.145E-03     65.2667E-03    -226.943E-03     453.893E-03    -226.909E-03     62.9144E-03
            1857     8.60577E-03     47.5689E-03    -33.1946E+06     8.67247E+06     38.3496E+06     811.421E+03    -226.703E-03     453.960E-03    -227.257E-03     60.5761E-03    -227.042E-03     454.101E-03    -227.030E-03     58.6379E-03
            1858     7.88805E-03     47.4848E-03    -38.5167E+06     2.22301E+06     26.3262E+06     4.25362E+06    -227.044E-03     454.363E-03    -227.319E-03     55.6237E-03    -227.354E-03     454.467E-03    -227.134E-03     54.1778E-03
            1859     7.17077E-03     47.4054E-03    -48.9014E+06    -10.7655E+06     9.41697E+06     4.19724E+06    -227.257E-03     454.605E-03    -227.347E-03     50.4768E-03    -227.554E-03     454.662E-03    -227.214E-03     49.3618E-03
            1860     6.45396E-03     47.3328E-03    -59.2091E+06    -29.1683E+06    -4.37155E+06     1.94744E+06    -227.286E-03     454.669E-03    -227.383E-03     45.4777E-03    -227.571E-03     454.653E-03    -227.277E-03     44.5548E-03
            1861     5.73560E-03     47.2675E-03    -65.4814E+06    -51.9130E+06    -17.6928E+06     989.072E+03    -227.230E-03     454.653E-03    -227.422E-03     40.9073E-03    -227.478E-03     454.535E-03    -227.340E-03     40.2498E-03
            1862     5.01861E-03     47.2086E-03    -66.7669E+06    -79.3894E+06    -27.1522E+06     616.651E+03    -227.100E-03     454.599E-03    -227.499E-03     36.7624E-03    -227.288E-03     454.347E-03    -227.423E-03     36.3235E-03
            1863     4.30114E-03     47.1604E-03    -70.5582E+06    -98.4963E+06    -38.6310E+06     1.85274E+06    -226.867E-03     454.472E-03    -227.605E-03     32.6756E-03    -227.016E-03     454.133E-03    -227.553E-03     32.4188E-03
            1864     3.58418E-03     47.1184E-03    -79.9346E+06    -120.581E+06    -59.5342E+06     2.66157E+06    -226.888E-03     454.620E-03    -227.733E-03     27.8914E-03    -227.006E-03     454.201E-03    -227.739E-03     27.8426E-03
            1865     2.86513E-03     47.0812E-03    -83.5818E+06    -142.291E+06    -72.4011E+06    -739.774E+03    -227.317E-03     455.221E-03    -227.905E-03     22.1437E-03    -227.393E-03     454.707E-03    -227.939E-03     22.1636E-03
            1866     2.14907E-03     47.0531E-03    -86.4200E+06    -150.837E+06    -78.7495E+06    -3.19302E+06    -227.796E-03     455.839E-03    -228.043E-03     16.3365E-03    -227.851E-03     455.284E-03    -228.093E-03     16.3443E-03
            1867     1.43180E-03     47.0326E-03    -90.2363E+06    -156.247E+06    -82.5664E+06    -2.17682E+06    -228.052E-03     456.187E-03    -228.135E-03     10.9682E-03    -228.089E-03     455.599E-03    -228.191E-03     10.9714E-03
            1868     716.082E-06     47.0172E-03    -95.7400E+06    -168.075E+06    -89.4577E+06     802.555E+03    -228.223E-03     456.437E-03    -228.214E-03     6.13423E-03    -228.197E-03     455.823E-03    -228.279E-03     6.18567E-03
            1869     13.6358E-03     46.7804E-03     2.13201E+06     49.8297E+06     73.1797E+06     3.51753E+06    -224.520E-03     451.241E-03    -226.721E-03     71.6239E-03    -225.060E-03     451.754E-03    -226.431E-03     67.7906E-03
            1870     12.9132E-03     46.6708E-03    -7.76766E+06     39.2248E+06     62.6407E+06    -3.15439E+06    -224.926E-03     451.800E-03    -226.874E-03     74.0015E-03    -225.403E-03     452.208E-03    -226.607E-03     69.7119E-03
            1871     12.1947E-03     46.5700E-03    -15.5595E+06     33.9655E+06     61.7031E+06    -5.13765E+06    -226.642E-03     453.669E-03    -227.027E-03     74.2058E-03    -227.118E-03     454.032E-03    -226.745E-03     70.2560E-03
            1872     11.4769E-03     46.4599E-03    -21.0289E+06     30.3536E+06     62.5780E+06    -1.95304E+06    -227.100E-03     454.233E-03    -227.133E-03     72.8781E-03    -227.584E-03     454.568E-03    -226.833E-03     69.1696E-03
            1873     10.7599E-03     46.3563E-03    -23.7400E+06     27.0938E+06     59.6425E+06    -486.519E+03    -226.860E-03     454.075E-03    -227.215E-03     70.4496E-03    -227.313E-03     454.367E-03    -226.922E-03     67.1924E-03
            1874     10.0396E-03     46.2574E-03    -27.7997E+06     21.3588E+06     48.7510E+06    -526.540E+03    -226.836E-03     454.115E-03    -227.279E-03     68.1262E-03    -227.252E-03     454.367E-03    -227.026E-03     65.2704E-03
            1875     9.32262E-03     46.1669E-03    -31.0064E+06     13.3298E+06     37.0262E+06    -650.554E+03    -227.043E-03     454.386E-03    -227.343E-03     64.5380E-03    -227.415E-03     454.587E-03    -227.132E-03     62.0563E-03
            1876     8.60438E-03     46.0740E-03    -38.1146E+06     3.76795E+06     29.9688E+06    -1.77092E+06    -227.662E-03     455.070E-03    -227.408E-03     60.0054E-03    -228.003E-03     455.202E-03    -227.208E-03     58.0769E-03
            1877     7.88811E-03     45.9916E-03    -49.6751E+06    -6.98886E+06     20.6844E+06     823.325E+03    -228.193E-03     455.608E-03    -227.414E-03     55.3967E-03    -228.538E-03     455.691E-03    -227.229E-03     53.8888E-03
            1878     7.17090E-03     45.9120E-03    -51.1077E+06    -11.0412E+06     12.1440E+06     5.85983E+06    -227.755E-03     455.141E-03    -227.385E-03     50.7852E-03    -228.066E-03     455.196E-03    -227.234E-03     49.6902E-03
            1879     6.45295E-03     45.8402E-03    -55.3170E+06    -25.0321E+06    -2.59085E+06     4.24188E+06    -227.018E-03     454.413E-03    -227.395E-03     46.2053E-03    -227.293E-03     454.410E-03    -227.292E-03     45.2986E-03
            1880     5.73641E-03     45.7747E-03    -60.3799E+06    -48.8144E+06    -16.5390E+06     1.64657E+06    -226.325E-03     453.839E-03    -227.514E-03     42.0106E-03    -226.555E-03     453.730E-03    -227.439E-03     41.3615E-03
            1881     5.01745E-03     45.7180E-03    -64.0989E+06    -77.3126E+06    -26.9438E+06     3.60187E+06    -226.278E-03     454.015E-03    -227.737E-03     37.4776E-03    -226.453E-03     453.766E-03    -227.666E-03     37.1921E-03
            1882     4.29864E-03     45.6674E-03    -70.9912E+06    -100.444E+06    -39.2432E+06     1.88679E+06    -227.219E-03     455.144E-03    -227.924E-03     32.2669E-03    -227.364E-03     454.795E-03    -227.872E-03     32.0529E-03
            1883     3.58118E-03     45.6235E-03    -77.7867E+06    -114.571E+06    -52.4046E+06     1.52512E+06    -228.005E-03     455.984E-03    -227.979E-03     26.4999E-03    -228.133E-03     455.582E-03    -227.962E-03     26.3516E-03
            1884     2.86639E-03     45.5870E-03    -83.6692E+06    -133.569E+06    -67.2349E+06     2.69486E+06    -228.131E-03     456.074E-03    -227.942E-03     20.6357E-03    -228.230E-03     455.597E-03    -227.964E-03     20.6243E-03
            1885     2.14910E-03     45.5572E-03    -89.5144E+06    -151.010E+06    -81.9762E+06     155.938E+03    -228.161E-03     456.016E-03    -227.854E-03     15.0813E-03    -228.235E-03     455.476E-03    -227.916E-03     15.0361E-03
            1886     1.43408E-03     45.5363E-03    -94.6345E+06    -161.229E+06    -91.0352E+06    -1.83787E+06    -228.143E-03     455.846E-03    -227.703E-03     10.2527E-03    -228.198E-03     455.265E-03    -227.787E-03     10.1899E-03
            1887     717.093E-06     45.5232E-03    -96.8192E+06    -170.259E+06    -95.5031E+06    -1.82497E+06    -227.738E-03     455.332E-03    -227.594E-03     5.59862E-03    -227.721E-03     454.736E-03    -227.685E-03     5.56023E-03
            1888     13.6362E-03     45.2980E-03    -3.06263E+06     46.5309E+06     71.9367E+06     163.757E+03    -226.040E-03     452.775E-03    -226.735E-03     71.2319E-03    -226.475E-03     453.156E-03    -226.438E-03     67.3010E-03
            1889     12.9157E-03     45.1853E-03    -1.83995E+06     46.7131E+06     73.6308E+06     7.66092E+06    -225.905E-03     452.754E-03    -226.849E-03     72.4678E-03    -226.352E-03     453.147E-03    -226.546E-03     68.4975E-03
            1890     12.1961E-03     45.0779E-03    -7.61577E+06     42.5160E+06     70.7522E+06     3.22272E+06    -226.210E-03     453.175E-03    -226.964E-03     70.9559E-03    -226.649E-03     453.532E-03    -226.661E-03     67.3197E-03
            1891     11.4788E-03     44.9674E-03    -17.6174E+06     32.6200E+06     63.2583E+06    -3.13672E+06    -225.716E-03     452.806E-03    -227.089E-03     71.0601E-03    -226.178E-03     453.137E-03    -226.795E-03     67.4093E-03
            1892     10.7581E-03     44.8695E-03    -28.6648E+06     21.5896E+06     51.4352E+06    -3.85442E+06    -225.516E-03     452.752E-03    -227.235E-03     69.9854E-03    -225.970E-03     453.032E-03    -226.968E-03     66.7384E-03
            1893     10.0396E-03     44.7662E-03    -30.1086E+06     19.7438E+06     48.1241E+06    -4.50476E+06    -226.405E-03     453.796E-03    -227.391E-03     67.0288E-03    -226.824E-03     454.039E-03    -227.135E-03     64.1757E-03
            1894     9.32116E-03     44.6727E-03    -31.1891E+06     14.2966E+06     42.0440E+06     785.269E+03    -227.383E-03     454.866E-03    -227.483E-03     63.6015E-03    -227.760E-03     455.060E-03    -227.248E-03     61.2042E-03
            1895     8.60431E-03     44.5820E-03    -41.0580E+06     639.964E+03     24.0476E+06     4.44545E+06    -228.042E-03     455.524E-03    -227.481E-03     60.2154E-03    -228.381E-03     455.649E-03    -227.303E-03     58.4550E-03
            1896     7.88652E-03     44.4959E-03    -51.2897E+06    -9.97373E+06     11.2837E+06    -696.128E+03    -227.920E-03     455.396E-03    -227.476E-03     55.7720E-03    -228.256E-03     455.482E-03    -227.331E-03     54.1952E-03
            1897     7.17033E-03     44.4186E-03    -55.0477E+06    -15.1057E+06     6.14128E+06    -981.116E+03    -227.406E-03     454.919E-03    -227.513E-03     51.9727E-03    -227.721E-03     454.967E-03    -227.381E-03     50.8035E-03
            1898     6.45332E-03     44.3479E-03    -59.1044E+06    -25.7534E+06    -5.17312E+06    -1.40072E+06    -226.831E-03     454.416E-03    -227.585E-03     47.7447E-03    -227.120E-03     454.420E-03    -227.488E-03     46.7537E-03
            1899     5.73342E-03     44.2840E-03    -64.1345E+06    -46.7195E+06    -16.0132E+06     2.02180E+06    -226.810E-03     454.531E-03    -227.721E-03     42.4116E-03    -227.064E-03     454.438E-03    -227.640E-03     41.7220E-03
            1900     5.01519E-03     44.2265E-03    -72.0848E+06    -76.4088E+06    -29.3427E+06     5.91972E+06    -227.544E-03     455.373E-03    -227.829E-03     36.1662E-03    -227.757E-03     455.144E-03    -227.760E-03     35.8889E-03
            1901     4.29917E-03     44.1716E-03    -77.2141E+06    -98.9277E+06    -42.5412E+06     3.04947E+06    -228.066E-03     455.901E-03    -227.835E-03     29.9568E-03    -228.244E-03     455.577E-03    -227.792E-03     29.6873E-03
            1902     3.58396E-03     44.1277E-03    -79.7061E+06    -112.998E+06    -51.6089E+06     975.691E+03    -228.183E-03     455.957E-03    -227.773E-03     24.7210E-03    -228.331E-03     455.570E-03    -227.752E-03     24.4386E-03
            1903     2.86667E-03     44.0906E-03    -87.1448E+06    -130.975E+06    -63.8552E+06     2.29657E+06    -228.184E-03     455.839E-03    -227.655E-03     20.0587E-03    -228.313E-03     455.380E-03    -227.658E-03     19.9016E-03
            1904     2.15142E-03     44.0631E-03    -91.9614E+06    -145.699E+06    -76.0736E+06     3.78450E+06    -227.951E-03     455.439E-03    -227.488E-03     15.2284E-03    -228.057E-03     454.924E-03    -227.524E-03     15.1658E-03
            1905     1.43331E-03     44.0417E-03    -95.4855E+06    -158.103E+06    -88.5809E+06     2.56398E+06    -227.645E-03     454.948E-03    -227.303E-03     10.3365E-03    -227.719E-03     454.386E-03    -227.378E-03     10.3040E-03
            1906     717.210E-06     44.0298E-03    -97.4406E+06    -172.309E+06    -96.4034E+06     553.133E+03    -227.525E-03     454.540E-03    -227.015E-03     5.89590E-03    -227.519E-03     453.947E-03    -227.106E-03     5.82100E-03
            1907     13.6326E-03     43.7992E-03    -8.42768E+06     42.5493E+06     68.3750E+06    -5.60215E+06    -227.483E-03     454.264E-03    -226.782E-03     72.2159E-03    -227.935E-03     454.640E-03    -226.489E-03     68.1840E-03
            1908     12.9189E-03     43.6982E-03    -14.9004E+06     37.3901E+06     68.4949E+06     498.759E+03    -227.432E-03     454.263E-03    -226.831E-03     75.3669E-03    -227.945E-03     454.656E-03    -226.521E-03     71.1053E-03
            1909     12.2011E-03     43.5866E-03    -7.44922E+06     44.7672E+06     77.1099E+06     7.01143E+06    -225.710E-03     452.656E-03    -226.947E-03     75.4381E-03    -226.172E-03     453.028E-03    -226.615E-03     71.8724E-03
            1910     11.4785E-03     43.4849E-03    -10.4137E+06     39.6959E+06     71.0627E+06     6.86942E+06    -225.615E-03     452.705E-03    -227.089E-03     72.9287E-03    -226.050E-03     453.038E-03    -226.777E-03     69.6528E-03
            1911     10.7586E-03     43.3784E-03    -25.8621E+06     23.1266E+06     52.3922E+06     3.86161E+06    -226.324E-03     453.519E-03    -227.194E-03     69.3258E-03    -226.763E-03     453.796E-03    -226.928E-03     66.2046E-03
            1912     10.0399E-03     43.2764E-03    -30.0932E+06     19.2058E+06     45.5610E+06    -1.85817E+06    -226.437E-03     453.740E-03    -227.303E-03     65.2537E-03    -226.850E-03     453.983E-03    -227.060E-03     62.4032E-03
            1913     9.32102E-03     43.1813E-03    -35.2950E+06     10.8702E+06     38.1369E+06    -1.33531E+06    -226.671E-03     454.084E-03    -227.413E-03     61.7860E-03    -227.047E-03     454.262E-03    -227.187E-03     59.5116E-03
            1914     8.60325E-03     43.0864E-03    -43.0469E+06    -974.532E+03     24.5316E+06     1.63960E+06    -227.026E-03     454.515E-03    -227.489E-03     59.1189E-03    -227.375E-03     454.636E-03    -227.303E-03     57.2659E-03
            1915     7.88671E-03     43.0039E-03    -45.8493E+06    -5.48866E+06     14.3880E+06    -321.043E+03    -226.848E-03     454.416E-03    -227.568E-03     55.1685E-03    -227.176E-03     454.520E-03    -227.422E-03     53.4026E-03
            1916     7.16706E-03     42.9259E-03    -54.7627E+06    -15.6651E+06     2.41098E+06    -2.91513E+06    -226.694E-03     454.375E-03    -227.681E-03     51.2596E-03    -227.009E-03     454.433E-03    -227.566E-03     49.8929E-03
            1917     6.44844E-03     42.8547E-03    -62.9494E+06    -28.2919E+06    -6.42957E+06    -3.00573E+06    -227.509E-03     455.296E-03    -227.787E-03     46.6138E-03    -227.813E-03     455.295E-03    -227.687E-03     45.5471E-03
            1918     5.73301E-03     42.7909E-03    -68.9694E+06    -46.3456E+06    -14.9884E+06     227.152E+03    -228.844E-03     456.615E-03    -227.771E-03     40.7520E-03    -229.125E-03     456.530E-03    -227.679E-03     39.9680E-03
            1919     5.01857E-03     42.7284E-03    -75.5096E+06    -73.1859E+06    -29.1831E+06     311.827E+03    -228.975E-03     456.591E-03    -227.616E-03     34.6504E-03    -229.216E-03     456.388E-03    -227.546E-03     34.0962E-03
            1920     4.30273E-03     42.6780E-03    -80.3646E+06    -97.3651E+06    -41.8527E+06    -79.0302E+03    -228.033E-03     455.505E-03    -227.472E-03     29.6862E-03    -228.235E-03     455.197E-03    -227.423E-03     29.2674E-03
            1921     3.58449E-03     42.6330E-03    -82.0610E+06    -114.313E+06     -51.742E+06     2.06275E+06    -227.496E-03     454.907E-03    -227.411E-03     25.3301E-03    -227.655E-03     454.520E-03    -227.384E-03     25.1148E-03
            1922     2.86835E-03     42.5971E-03    -84.3555E+06    -131.121E+06    -63.5950E+06     1.39896E+06    -227.449E-03     454.826E-03    -227.377E-03     20.5514E-03    -227.565E-03     454.363E-03    -227.383E-03     20.4224E-03
            1923     2.15041E-03     42.5683E-03    -88.4430E+06    -143.354E+06    -74.5850E+06     1.34154E+06    -227.402E-03     454.746E-03    -227.344E-03     15.8323E-03    -227.494E-03     454.233E-03    -227.381E-03     15.7677E-03
            1924     1.43504E-03     42.5493E-03    -92.6028E+06    -153.402E+06    -83.9052E+06     1.81744E+06    -227.297E-03     454.635E-03    -227.337E-03     10.9913E-03    -227.370E-03     454.083E-03    -227.400E-03     10.9605E-03
            1925     716.862E-06     42.5370E-03    -95.8924E+06    -169.116E+06    -92.4029E+06     1.65448E+06    -227.336E-03     454.780E-03    -227.444E-03     6.52400E-03    -227.339E-03     454.197E-03    -227.522E-03     6.48064E-03
            1926     13.6345E-03     42.3104E-03    -1.44293E+06     47.4561E+06     71.5919E+06     1.32687E+06    -225.034E-03     451.842E-03    -226.809E-03     71.6355E-03    -225.448E-03     452.213E-03    -226.517E-03     67.9060E-03
            1927     12.9134E-03     42.2016E-03    -19.2492E+06     30.9491E+06     57.0748E+06    -4.35348E+06    -225.633E-03     452.573E-03    -226.940E-03     77.0641E-03    -226.147E-03     452.963E-03    -226.672E-03     72.7585E-03
            1928     12.1930E-03     42.1037E-03    -17.2901E+06     34.7475E+06     65.0899E+06    -1.92798E+06    -227.112E-03     454.201E-03    -227.089E-03     77.6476E-03    -227.611E-03     454.573E-03    -226.789E-03     73.7653E-03
            1929     11.4763E-03     41.9898E-03    -15.7298E+06     36.4477E+06     70.2454E+06     4.29842E+06    -228.070E-03     455.234E-03    -227.164E-03     73.9564E-03    -228.531E-03     455.565E-03    -226.843E-03     70.5763E-03
            1930     10.7612E-03     41.8883E-03    -20.2332E+06     31.1584E+06     63.3446E+06     5.90582E+06    -227.690E-03     454.865E-03    -227.175E-03     69.8135E-03    -228.139E-03     455.169E-03    -226.874E-03     66.5650E-03
            1931     10.0430E-03     41.7861E-03    -27.5552E+06     22.0004E+06     49.2284E+06     5.02669E+06    -227.050E-03     454.239E-03    -227.189E-03     66.5913E-03    -227.471E-03     454.497E-03    -226.935E-03     63.7240E-03
            1932     9.32534E-03     41.6902E-03    -36.9040E+06     8.27292E+06     35.6712E+06     3.13845E+06    -226.691E-03     453.943E-03    -227.252E-03     62.4098E-03    -227.070E-03     454.117E-03    -227.032E-03     60.1733E-03
            1933     8.60568E-03     41.5979E-03    -41.4267E+06     577.458E+03     27.8055E+06    -1.06590E+06    -226.098E-03     453.470E-03    -227.372E-03     58.2821E-03    -226.446E-03     453.592E-03    -227.174E-03     56.3640E-03
            1934     7.88509E-03     41.5108E-03    -46.1006E+06    -5.23720E+06     17.2673E+06    -3.46018E+06    -226.176E-03     453.684E-03    -227.508E-03     53.3207E-03    -226.510E-03     453.786E-03    -227.347E-03     51.4549E-03
            1935     7.16841E-03     41.4353E-03    -51.0395E+06    -11.1195E+06     9.57683E+06    -2.79369E+06    -226.990E-03     454.617E-03    -227.628E-03     48.5009E-03    -227.310E-03     454.690E-03    -227.490E-03     46.9295E-03
            1936     6.45113E-03     41.3608E-03    -59.4595E+06    -25.6221E+06    -1.23114E+06    -6.21277E+03    -228.135E-03     455.791E-03    -227.655E-03     44.3405E-03    -228.432E-03     455.789E-03    -227.538E-03     43.3575E-03
            1937     5.73529E-03     41.2905E-03    -68.3503E+06    -52.0964E+06    -15.7861E+06    -2.87720E+06    -228.738E-03     456.310E-03    -227.572E-03     40.0773E-03    -229.006E-03     456.196E-03    -227.476E-03     39.2590E-03
            1938     5.01952E-03     41.2334E-03    -69.9397E+06    -74.5970E+06    -25.7882E+06    -4.73387E+06    -228.220E-03     455.683E-03    -227.463E-03     36.0865E-03    -228.441E-03     455.466E-03    -227.382E-03     35.3203E-03
            1939     4.30221E-03     41.1846E-03    -73.4175E+06    -95.6744E+06    -39.0315E+06    -2.74476E+06    -227.778E-03     455.155E-03    -227.376E-03     32.0188E-03    -227.953E-03     454.842E-03    -227.326E-03     31.5287E-03
            1940     3.58613E-03     41.1407E-03    -80.0330E+06    -117.919E+06    -53.3717E+06    -1.43539E+06    -227.501E-03     454.826E-03    -227.325E-03     27.0137E-03    -227.642E-03     454.420E-03    -227.305E-03     26.8029E-03
            1941     2.86789E-03     41.1039E-03    -81.4869E+06    -130.927E+06    -62.9615E+06    -541.283E+03    -227.061E-03     454.402E-03    -227.341E-03     21.4952E-03    -227.167E-03     453.938E-03    -227.348E-03     21.3725E-03
            1942     2.15125E-03     41.0762E-03    -85.5315E+06    -143.049E+06    -75.0936E+06    -572.694E+03    -226.945E-03     454.393E-03    -227.448E-03     16.4816E-03    -227.021E-03     453.879E-03    -227.492E-03     16.3780E-03
            1943     1.43226E-03     41.0555E-03    -91.7462E+06    -154.687E+06    -85.5913E+06    -918.389E+03    -227.369E-03     454.962E-03    -227.592E-03     11.3564E-03    -227.425E-03     454.398E-03    -227.663E-03     11.3029E-03
            1944     716.542E-06     41.0435E-03    -94.3935E+06    -166.432E+06    -92.4815E+06     163.812E+03    -227.846E-03     455.413E-03    -227.567E-03     6.17618E-03    -227.840E-03     454.829E-03    -227.651E-03     6.20694E-03
            1945     13.6346E-03     40.8264E-03     912.329E+03     48.6546E+06     72.1304E+06     8.57738E+06    -224.554E-03     451.366E-03    -226.813E-03     72.2543E-03    -224.945E-03     451.725E-03    -226.524E-03     68.7949E-03
            1946     12.9110E-03     40.7209E-03    -5.33420E+06     42.8146E+06     66.2437E+06    -1.22274E+06    -225.824E-03     452.783E-03    -226.959E-03     72.5984E-03    -226.275E-03     453.175E-03    -226.682E-03     68.4515E-03
            1947     12.1937E-03     40.6040E-03    -19.2153E+06     31.0912E+06     58.4964E+06    -6.18073E+06    -227.236E-03     454.285E-03    -227.050E-03     71.5875E-03    -227.732E-03     454.654E-03    -226.774E-03     67.3711E-03
            1948     11.4783E-03     40.4987E-03    -24.4459E+06     27.5341E+06     59.1451E+06    -3.74314E+06    -227.438E-03     454.556E-03    -227.118E-03     71.8663E-03    -227.931E-03     454.888E-03    -226.827E-03     68.0683E-03
            1949     10.7589E-03     40.3931E-03    -20.2676E+06     32.2046E+06     64.6016E+06    -2.20796E+06    -227.531E-03     454.714E-03    -227.184E-03     70.5416E-03    -227.992E-03     455.031E-03    -226.878E-03     67.0830E-03
            1950     10.0415E-03     40.2963E-03    -28.4251E+06     23.0300E+06     53.8495E+06     3.38065E+06    -227.575E-03     454.779E-03    -227.204E-03     67.9711E-03    -228.014E-03     455.043E-03    -226.927E-03     65.0270E-03
            1951     9.32337E-03     40.1964E-03    -39.0329E+06     7.05144E+06     36.9998E+06     2.47705E+06    -227.342E-03     454.557E-03    -227.214E-03     64.3616E-03    -227.747E-03     454.741E-03    -226.983E-03     61.8866E-03
            1952     8.60685E-03     40.1089E-03    -39.3437E+06     2.68964E+06     31.7086E+06     897.097E+03    -227.021E-03     454.291E-03    -227.270E-03     59.4296E-03    -227.377E-03     454.426E-03    -227.059E-03     57.3792E-03
            1953     7.88961E-03     40.0208E-03    -39.8144E+06     1.93998E+06     28.5685E+06     2.34295E+06    -226.924E-03     454.272E-03    -227.348E-03     54.1173E-03    -227.248E-03     454.378E-03    -227.150E-03     52.4851E-03
            1954     7.17061E-03     39.9415E-03    -48.1950E+06    -7.13244E+06     16.6372E+06     28.6963E+03    -227.659E-03     455.030E-03    -227.371E-03     49.2852E-03    -227.974E-03     455.100E-03    -227.207E-03     47.9420E-03
            1955     6.45452E-03     39.8656E-03    -54.7521E+06    -22.9882E+06     1.08733E+06     1.99627E+06    -227.506E-03     454.857E-03    -227.350E-03     45.3887E-03    -227.782E-03     454.853E-03    -227.232E-03     44.5715E-03
            1956     5.73681E-03     39.7979E-03    -60.3687E+06    -53.9562E+06    -18.4231E+06    -1.44622E+06    -226.503E-03     453.906E-03    -227.402E-03     41.4776E-03    -226.720E-03     453.770E-03    -227.329E-03     40.8026E-03
            1957     5.01760E-03     39.7409E-03    -67.8965E+06    -82.4719E+06    -32.1998E+06    -6.25182E+06    -226.786E-03     454.330E-03    -227.544E-03     37.5526E-03    -226.973E-03     454.077E-03    -227.487E-03     36.8518E-03
            1958     4.30070E-03     39.6897E-03    -72.6544E+06    -100.092E+06    -40.9158E+06    -3.29431E+06    -227.691E-03     455.315E-03    -227.625E-03     33.1155E-03    -227.849E-03     454.980E-03    -227.579E-03     32.6213E-03
            1959     3.58373E-03     39.6465E-03    -76.5194E+06    -119.445E+06    -52.1457E+06    -2.23391E+06    -227.804E-03     455.420E-03    -227.615E-03     27.9497E-03    -227.926E-03     454.997E-03    -227.592E-03     27.6212E-03
            1960     2.86786E-03     39.6116E-03    -83.4813E+06    -135.068E+06    -64.2729E+06    -1.91037E+06    -227.519E-03     455.129E-03    -227.610E-03     22.4905E-03    -227.627E-03     454.648E-03    -227.615E-03     22.2998E-03
            1961     2.14959E-03     39.5835E-03    -89.2726E+06    -145.371E+06    -74.7064E+06    -150.999E+03    -227.563E-03     455.191E-03    -227.627E-03     16.7973E-03    -227.653E-03     454.667E-03    -227.661E-03     16.7162E-03
            1962     1.43407E-03     39.5617E-03    -91.3445E+06    -153.031E+06    -83.3539E+06     703.853E+03    -227.770E-03     455.362E-03    -227.592E-03     10.9776E-03    -227.817E-03     454.792E-03    -227.655E-03     10.9387E-03
            1963     716.846E-06     39.5472E-03    -94.0512E+06    -166.895E+06    -93.8068E+06     215.327E+03    -227.878E-03     455.200E-03    -227.322E-03     5.61626E-03    -227.858E-03     454.600E-03    -227.413E-03     5.60782E-03
            1964     13.6315E-03     39.3382E-03    -3.46089E+06      47.231E+06     73.8424E+06     1.18906E+06    -227.634E-03     454.418E-03    -226.784E-03     70.6630E-03    -228.051E-03     454.776E-03    -226.478E-03     66.9279E-03
            1965     12.9200E-03     39.2254E-03    -375.431E+03     50.0620E+06     78.0771E+06     6.25790E+06    -227.790E-03     454.599E-03    -226.809E-03     72.4783E-03    -228.244E-03     455.003E-03    -226.490E-03     68.3836E-03
            1966     12.2017E-03     39.1188E-03    -11.5546E+06     37.6429E+06     67.0969E+06     4.51883E+06    -226.373E-03     453.213E-03    -226.840E-03     72.0783E-03    -226.847E-03     453.585E-03    -226.543E-03     68.1243E-03
            1967     11.4780E-03     39.0092E-03    -20.2673E+06     30.2409E+06     59.0695E+06    -2.14818E+06    -225.769E-03     452.711E-03    -226.942E-03     70.7662E-03    -226.242E-03     453.048E-03    -226.661E-03     67.0098E-03
            1968     10.7596E-03     38.9032E-03    -25.5039E+06     25.2806E+06     56.5571E+06    -5.47445E+06    -226.289E-03     453.364E-03    -227.075E-03     68.4712E-03    -226.746E-03     453.656E-03    -226.792E-03     65.0355E-03
            1969     10.0420E-03     38.8013E-03    -30.6804E+06     19.5009E+06     51.4634E+06    -4.24819E+06    -226.786E-03     453.959E-03    -227.173E-03     66.0768E-03    -227.227E-03     454.211E-03    -226.899E-03     62.9666E-03
            1970     9.32439E-03     38.7077E-03    -37.5082E+06     8.93682E+06     38.4122E+06    -2.71018E+06    -226.899E-03     454.127E-03    -227.228E-03     64.0923E-03    -227.307E-03     454.323E-03    -226.995E-03     61.4510E-03
            1971     8.60596E-03     38.6124E-03    -42.2662E+06     341.105E+03     29.8637E+06    -1.43093E+06    -227.343E-03     454.630E-03    -227.287E-03     61.1003E-03    -227.709E-03     454.761E-03    -227.077E-03     59.0459E-03
            1972     7.88863E-03     38.5307E-03    -42.8046E+06    -151.389E+03     28.1872E+06     3.55870E+06    -227.838E-03     455.164E-03    -227.326E-03     57.3157E-03    -228.169E-03     455.261E-03    -227.123E-03     55.8727E-03
            1973     7.17270E-03     38.4460E-03    -47.9088E+06    -7.50252E+06     15.2229E+06     4.96142E+06    -227.571E-03     454.882E-03    -227.311E-03     53.2793E-03    -227.876E-03     454.947E-03    -227.155E-03     52.2385E-03
            1974     6.45505E-03     38.3739E-03    -50.2779E+06    -20.2885E+06     2.76575E+06     2.85222E+06    -226.696E-03     454.055E-03    -227.359E-03     48.3133E-03    -226.961E-03     454.062E-03    -227.243E-03     47.4278E-03
            1975     5.73535E-03     38.3093E-03    -55.1986E+06    -45.0723E+06    -12.4341E+06     2.56183E+06    -226.100E-03     453.610E-03    -227.510E-03     43.2105E-03    -226.315E-03     453.505E-03    -227.427E-03     42.5490E-03
            1976     5.01709E-03     38.2487E-03    -67.5872E+06    -78.9136E+06    -35.1370E+06    -53.6341E+03    -226.534E-03     454.224E-03    -227.690E-03     38.2573E-03    -226.715E-03     453.987E-03    -227.653E-03     37.7960E-03
            1977     4.29941E-03     38.1950E-03    -76.9040E+06    -105.641E+06    -48.6913E+06    -2.42763E+06    -227.255E-03     455.110E-03    -227.856E-03     32.8477E-03    -227.412E-03     454.762E-03    -227.835E-03     32.4320E-03
            1978     3.58273E-03     38.1521E-03    -81.2565E+06    -123.968E+06    -56.1269E+06    -3.26171E+06    -227.664E-03     455.633E-03    -227.970E-03     27.4137E-03    -227.796E-03     455.201E-03    -227.953E-03     26.9650E-03
            1979     2.86509E-03     38.1168E-03    -86.7960E+06    -138.745E+06    -67.9440E+06    -2.31749E+06    -228.101E-03     456.086E-03    -227.985E-03     22.4557E-03    -228.210E-03     455.593E-03    -227.998E-03     22.1798E-03
            1980     2.15044E-03     38.0881E-03    -91.0876E+06    -147.980E+06    -77.7960E+06    -625.304E+03    -228.366E-03     456.256E-03    -227.889E-03     17.2985E-03    -228.450E-03     455.720E-03    -227.932E-03     17.2524E-03
            1981     1.43353E-03     38.0667E-03    -91.7685E+06    -152.753E+06    -81.9788E+06    -165.353E+03    -228.075E-03     455.820E-03    -227.745E-03     11.9382E-03    -228.125E-03     455.248E-03    -227.800E-03     11.8989E-03
            1982     717.197E-06     38.0550E-03    -95.2453E+06    -165.155E+06    -90.5613E+06     439.341E+03    -227.725E-03     455.425E-03    -227.700E-03     6.34477E-03    -227.713E-03     454.834E-03    -227.775E-03     6.32616E-03
            1983     13.6391E-03     37.8419E-03    -7.55066E+06     42.8676E+06     68.0297E+06    -2.82971E+06    -227.071E-03     453.682E-03    -226.611E-03     69.5094E-03    -227.491E-03     454.031E-03    -226.322E-03     65.7025E-03
            1984     12.9169E-03     37.7356E-03    -10.4029E+06     40.5108E+06     69.7837E+06     1.95360E+06    -226.333E-03     453.022E-03    -226.690E-03     74.7347E-03    -226.811E-03     453.405E-03    -226.384E-03     70.6872E-03
            1985     12.1978E-03     37.6281E-03    -10.1404E+06     39.9719E+06     72.6309E+06      3.7678E+06    -226.632E-03     453.426E-03    -226.794E-03     75.7323E-03    -227.117E-03     453.806E-03    -226.474E-03     71.8312E-03
            1986     11.4838E-03     37.5215E-03    -13.4013E+06     37.9891E+06     70.3106E+06     3.19096E+06    -226.361E-03     453.251E-03    -226.890E-03     73.9923E-03    -226.835E-03     453.608E-03    -226.574E-03     70.3343E-03
            1987     10.7640E-03     37.4147E-03    -17.8601E+06     31.6135E+06     62.5468E+06     2.21924E+06    -225.778E-03     452.783E-03    -227.005E-03     72.1088E-03    -226.210E-03     453.083E-03    -226.712E-03     68.9720E-03
            1988     10.0433E-03     37.3127E-03    -27.9189E+06     20.0558E+06     49.1892E+06    -1.72358E+06    -226.192E-03     453.318E-03    -227.125E-03     68.6619E-03    -226.608E-03     453.563E-03    -226.868E-03     65.8188E-03
            1989     9.32399E-03     37.2153E-03    -36.7490E+06     9.34527E+06     38.0939E+06    -2.11883E+06    -226.386E-03     453.629E-03    -227.243E-03     64.6997E-03    -226.785E-03     453.819E-03    -227.012E-03     62.1888E-03
            1990     8.60490E-03     37.1244E-03    -42.8651E+06    -735.595E+03     25.1613E+06    -1.52603E+06    -226.460E-03     453.809E-03    -227.349E-03     61.9017E-03    -226.817E-03     453.938E-03    -227.159E-03     59.9715E-03
            1991     7.88718E-03     37.0329E-03    -48.2407E+06    -7.56685E+06     14.9214E+06    -2.47730E+06    -227.008E-03     454.460E-03    -227.452E-03     58.7288E-03    -227.338E-03     454.549E-03    -227.296E-03     57.2207E-03
            1992     7.16908E-03     36.9559E-03    -51.0424E+06    -11.3490E+06     11.4870E+06    -783.490E+03    -226.921E-03     454.494E-03    -227.572E-03     54.7275E-03    -227.240E-03     454.557E-03    -227.424E-03     53.4665E-03
            1993     6.45011E-03     36.8807E-03    -58.2096E+06    -23.6258E+06     515.978E+03     1.36689E+06    -226.910E-03     454.598E-03    -227.688E-03     49.6672E-03    -227.214E-03     454.611E-03    -227.567E-03     48.6002E-03
            1994     5.73417E-03     36.8173E-03    -65.6364E+06    -47.0337E+06    -13.6846E+06     2.54852E+06    -227.403E-03     455.189E-03    -227.785E-03     44.0259E-03    -227.675E-03     455.100E-03    -227.690E-03     43.2075E-03
            1995     5.01689E-03     36.7556E-03    -67.8596E+06    -69.9626E+06    -26.8754E+06     5.21972E+06    -227.180E-03     455.060E-03    -227.879E-03     38.7923E-03    -227.392E-03     454.860E-03    -227.814E-03     38.3590E-03
            1996     4.29926E-03     36.7023E-03    -73.7915E+06    -97.3074E+06    -46.0934E+06     4.02549E+06    -226.977E-03     454.992E-03    -228.015E-03     33.1769E-03    -227.134E-03     454.677E-03    -227.998E-03     32.9269E-03
            1997     3.58149E-03     36.6570E-03    -83.6093E+06    -125.928E+06    -63.6307E+06    -1.87437E+06    -227.562E-03     455.737E-03    -228.174E-03     27.5950E-03    -227.691E-03     455.307E-03    -228.189E-03     27.2882E-03
            1998     2.86575E-03     36.6215E-03    -88.2664E+06    -140.064E+06    -72.4135E+06    -3.35909E+06    -228.137E-03     456.409E-03    -228.272E-03     22.5410E-03    -228.243E-03     455.916E-03    -228.303E-03     22.2730E-03
            1999     2.14813E-03     36.5909E-03    -88.9637E+06    -147.274E+06    -79.4323E+06    -2.40157E+06    -228.195E-03     456.516E-03    -228.321E-03     17.4497E-03    -228.269E-03     455.985E-03    -228.376E-03     17.3240E-03
            2000     1.43243E-03     36.5726E-03    -93.8583E+06    -157.558E+06    -88.9194E+06    -2.88203E+06    -228.174E-03     456.593E-03    -228.419E-03     12.2762E-03    -228.227E-03     456.018E-03    -228.499E-03     12.1843E-03
            2001     715.639E-06     36.5588E-03    -98.5672E+06    -168.481E+06    -93.4181E+06    -2.07818E+06    -228.521E-03     457.117E-03    -228.597E-03     7.24477E-03    -228.514E-03     456.526E-03    -228.676E-03     7.24977E-03
            2002     13.6378E-03     36.3544E-03    -4.60011E+06     45.2286E+06     69.3038E+06    -428.854E+03    -225.000E-03     451.554E-03    -226.553E-03     73.3564E-03    -225.419E-03     451.916E-03    -226.266E-03     69.6600E-03
            2003     12.9189E-03     36.2526E-03    -8.77391E+06     41.2978E+06     68.8466E+06    -3.16851E+06    -225.280E-03     451.998E-03    -226.718E-03     76.9886E-03    -225.748E-03     452.382E-03    -226.421E-03     73.0087E-03
            2004     12.1993E-03     36.1350E-03    -17.2265E+06     33.7750E+06     65.6615E+06    -3.19361E+06    -225.988E-03     452.862E-03    -226.874E-03     77.4999E-03    -226.493E-03     453.235E-03    -226.569E-03     73.5454E-03
            2005     11.4776E-03     36.0312E-03    -18.5385E+06     33.2604E+06     67.2941E+06     20.4580E+03    -226.439E-03     453.452E-03    -227.013E-03     76.0643E-03    -226.937E-03     453.807E-03    -226.698E-03     72.3184E-03
            2006     10.7585E-03     35.9263E-03    -19.5718E+06     30.8331E+06     63.3508E+06     3.91118E+06    -226.476E-03     453.600E-03    -227.124E-03     73.8126E-03    -226.923E-03     453.904E-03    -226.824E-03     70.6589E-03
            2007     10.0410E-03     35.8217E-03    -24.4675E+06     24.2375E+06     52.4717E+06     4.59417E+06    -226.152E-03     453.387E-03    -227.235E-03     70.3576E-03    -226.558E-03     453.640E-03    -226.972E-03     67.7169E-03
            2008     9.32335E-03     35.7245E-03    -30.8772E+06     14.6663E+06     40.8474E+06     1.85313E+06    -226.422E-03     453.783E-03    -227.361E-03     66.6222E-03    -226.806E-03     453.991E-03    -227.133E-03     64.1784E-03
            2009     8.60545E-03     35.6339E-03    -38.3934E+06     3.77191E+06     27.8165E+06     1.10922E+06    -226.363E-03     453.854E-03    -227.490E-03     63.3823E-03    -226.719E-03     454.006E-03    -227.301E-03     61.3351E-03
            2010     7.88528E-03     35.5434E-03    -44.0685E+06    -3.68244E+06     17.3378E+06    -391.252E+03    -226.044E-03     453.705E-03    -227.662E-03     59.4364E-03    -226.364E-03     453.805E-03    -227.506E-03     57.9390E-03
            2011     7.16666E-03     35.4621E-03    -53.0321E+06    -17.3867E+06     7.75761E+06    -3.19658E+06    -226.507E-03     454.372E-03    -227.865E-03     54.1218E-03    -226.824E-03     454.416E-03    -227.724E-03     52.7080E-03
            2012     6.44973E-03     35.3893E-03    -62.7572E+06    -30.4779E+06    -3.22081E+06    -642.034E+03    -227.371E-03     455.382E-03    -228.012E-03     49.5707E-03    -227.684E-03     455.373E-03    -227.892E-03     48.4376E-03
            2013     5.73160E-03     35.3196E-03    -67.6346E+06    -47.8793E+06    -15.1495E+06     769.958E+03    -227.959E-03     456.043E-03    -228.084E-03     44.3038E-03    -228.237E-03     455.955E-03    -227.992E-03     43.4148E-03
            2014     5.01574E-03     35.2623E-03    -72.1580E+06    -72.2584E+06    -27.3623E+06     1.55632E+06    -227.730E-03     455.881E-03    -228.151E-03     39.2634E-03    -227.965E-03     455.683E-03    -228.078E-03     38.6410E-03
            2015     4.29824E-03     35.2087E-03    -73.8623E+06    -91.5113E+06    -39.4575E+06     4.90351E+06    -227.349E-03     455.622E-03    -228.273E-03     34.3610E-03    -227.527E-03     455.328E-03    -228.230E-03     34.1320E-03
            2016     3.58124E-03     35.1627E-03    -77.9375E+06    -116.372E+06    -56.8157E+06     4.53911E+06    -227.649E-03     456.075E-03    -228.427E-03     28.7186E-03    -227.773E-03     455.675E-03    -228.429E-03     28.6168E-03
            2017     2.86393E-03     35.1242E-03    -86.1199E+06    -139.045E+06    -72.7824E+06     14.1235E+03    -228.076E-03     456.650E-03    -228.574E-03     23.1599E-03    -228.177E-03     456.164E-03    -228.611E-03     22.9780E-03
            2018     2.14835E-03     35.0967E-03    -90.7434E+06    -149.304E+06    -81.1454E+06    -2.05414E+06    -228.271E-03     457.000E-03    -228.728E-03     17.3047E-03    -228.358E-03     456.472E-03    -228.786E-03     17.1468E-03
            2019     1.43086E-03     35.0745E-03    -96.6192E+06    -158.560E+06    -90.6850E+06    -357.323E+03    -228.697E-03     457.549E-03    -228.852E-03     11.5130E-03    -228.765E-03     456.982E-03    -228.935E-03     11.4732E-03
            2020     715.418E-06     35.0620E-03    -101.063E+06    -173.242E+06    -100.304E+06    -418.852E+03    -229.005E-03     457.920E-03    -228.915E-03     6.21406E-03    -228.985E-03     457.316E-03    -229.019E-03     6.22071E-03
            2021     13.6354E-03     34.8716E-03    -5.67286E+06     45.1710E+06     71.2031E+06    -1.04991E+06    -224.212E-03     450.882E-03    -226.670E-03     75.1544E-03    -224.634E-03     451.238E-03    -226.371E-03     71.6054E-03
            2022     12.9151E-03     34.7586E-03    -4.55074E+06     45.7559E+06     73.8672E+06     2.62532E+06    -225.748E-03     452.604E-03    -226.857E-03     78.7130E-03    -226.207E-03     452.996E-03    -226.547E-03     74.8925E-03
            2023     12.1959E-03     34.6514E-03    -12.0184E+06     37.7190E+06     68.2478E+06     2.13488E+06    -225.628E-03     452.637E-03    -227.009E-03     77.8527E-03    -226.116E-03     453.018E-03    -226.705E-03     73.9783E-03
            2024     11.4772E-03     34.5406E-03    -23.6606E+06     27.3955E+06     60.0195E+06    -1.34142E+06    -226.295E-03     453.450E-03    -227.154E-03     76.2883E-03    -226.795E-03     453.788E-03    -226.860E-03     72.6065E-03
            2025     10.7607E-03     34.4333E-03    -26.1745E+06     24.9841E+06     58.0284E+06    -2.31105E+06    -226.921E-03     454.196E-03    -227.275E-03     73.0943E-03    -227.404E-03     454.506E-03    -226.983E-03     69.5757E-03
            2026     10.0408E-03     34.3347E-03    -26.4228E+06     23.2828E+06     52.5471E+06     60.9842E+03    -226.085E-03     453.477E-03    -227.392E-03     70.2892E-03    -226.522E-03     453.750E-03    -227.125E-03     67.2728E-03
            2027     9.31975E-03     34.2326E-03    -30.4482E+06     14.9385E+06     40.9365E+06     1.28690E+06    -226.052E-03     453.593E-03    -227.541E-03     67.4321E-03    -226.436E-03     453.804E-03    -227.314E-03     64.9764E-03
            2028     8.60145E-03     34.1411E-03    -35.7160E+06     6.98275E+06     32.5987E+06     1.02136E+06    -226.485E-03     454.198E-03    -227.713E-03     63.3362E-03    -226.844E-03     454.360E-03    -227.508E-03     61.1802E-03
            2029     7.88432E-03     34.0539E-03    -45.0977E+06    -3.54608E+06     20.0370E+06     3.71807E+06    -226.336E-03     454.219E-03    -227.882E-03     59.6974E-03    -226.670E-03     454.322E-03    -227.712E-03     58.1793E-03
            2030     7.16537E-03     33.9694E-03    -53.3409E+06    -18.4084E+06     3.97775E+06     3.18259E+06    -226.547E-03     454.607E-03    -228.060E-03     54.6812E-03    -226.855E-03     454.649E-03    -227.936E-03     53.4223E-03
            2031     6.44701E-03     33.8947E-03    -58.3360E+06    -32.0533E+06    -5.19020E+06    -1.57026E+06    -227.158E-03     455.409E-03    -228.250E-03     50.3322E-03    -227.441E-03     455.385E-03    -228.145E-03     49.2476E-03
            2032     5.73087E-03     33.8245E-03    -63.7167E+06    -48.8089E+06    -13.8278E+06    -2.78543E+06    -227.646E-03     456.058E-03    -228.412E-03     45.3074E-03    -227.904E-03     455.957E-03    -228.318E-03     44.3719E-03
            2033     5.01297E-03     33.7669E-03    -68.9468E+06    -70.7538E+06    -27.0541E+06    -937.866E+03    -228.012E-03     456.535E-03    -228.523E-03     39.6660E-03    -228.238E-03     456.343E-03    -228.455E-03     38.8601E-03
            2034     4.29664E-03     33.7136E-03    -75.4072E+06    -93.9996E+06    -39.8387E+06     1.10034E+06    -228.109E-03     456.736E-03    -228.628E-03     34.9895E-03    -228.295E-03     456.437E-03    -228.581E-03     34.6006E-03
            2035     3.57978E-03     33.6671E-03    -77.6213E+06    -111.887E+06    -49.4971E+06     4.92122E+06    -228.120E-03     456.876E-03    -228.756E-03     29.3246E-03    -228.265E-03     456.492E-03    -228.729E-03     29.1861E-03
            2036     2.86342E-03     33.6283E-03    -82.7594E+06    -132.257E+06    -66.4601E+06     5.20134E+06    -228.399E-03     457.265E-03    -228.866E-03     23.0720E-03    -228.509E-03     456.805E-03    -228.886E-03     22.9519E-03
            2037     2.14656E-03     33.5983E-03    -92.3367E+06    -151.187E+06    -81.9326E+06     1.13199E+06    -228.887E-03     457.812E-03    -228.925E-03     17.0332E-03    -228.982E-03     457.283E-03    -228.981E-03     16.8972E-03
            2038     1.43212E-03     33.5773E-03    -95.4575E+06    -158.165E+06    -85.5842E+06     1.55653E+06    -229.194E-03     458.068E-03    -228.875E-03     11.6097E-03    -229.261E-03     457.494E-03    -228.935E-03     11.5876E-03
            2039     716.875E-06     33.5612E-03    -97.7114E+06    -168.845E+06    -93.2285E+06     2.07989E+06    -229.017E-03     457.703E-03    -228.687E-03     5.94847E-03    -228.987E-03     457.092E-03    -228.766E-03     5.95556E-03
            2040     13.6336E-03     33.3840E-03    -6.52993E+06     43.0920E+06     68.4832E+06     2.88662E+06    -225.099E-03     451.824E-03    -226.725E-03     74.4977E-03    -225.505E-03     452.162E-03    -226.436E-03     71.1237E-03
            2041     12.9146E-03     33.2704E-03    -9.42085E+06     40.2656E+06     68.5576E+06    -1.44595E+06    -225.452E-03     452.343E-03    -226.892E-03     75.4931E-03    -225.919E-03     452.721E-03    -226.593E-03     71.4813E-03
            2042     12.1952E-03     33.1615E-03    -11.0582E+06     39.7987E+06     70.9365E+06    -1.72902E+06    -225.831E-03     452.889E-03    -227.058E-03     75.3495E-03    -226.331E-03     453.286E-03    -226.745E-03     71.1857E-03
            2043     11.4758E-03     33.0517E-03    -14.2529E+06     36.1352E+06     68.4144E+06    -391.493E+03    -225.619E-03     452.840E-03    -227.220E-03     74.8095E-03    -226.099E-03     453.199E-03    -226.910E-03     71.0498E-03
            2044     10.7550E-03     32.9404E-03    -21.7267E+06     27.2117E+06     59.1410E+06    -1.89917E+06    -225.167E-03     452.573E-03    -227.406E-03     73.4605E-03    -225.629E-03     452.883E-03    -227.118E-03     70.0189E-03
            2045     10.0381E-03     32.8441E-03    -28.5730E+06     21.0872E+06     50.0984E+06    -724.344E+03    -226.286E-03     453.875E-03    -227.589E-03     72.0558E-03    -226.732E-03     454.149E-03    -227.327E-03     68.9959E-03
            2046     9.32065E-03     32.7441E-03    -33.7268E+06     12.3363E+06     40.6149E+06    -752.788E+03    -226.618E-03     454.359E-03    -227.741E-03     68.3874E-03    -227.023E-03     454.570E-03    -227.507E-03     65.8014E-03
            2047     8.60123E-03     32.6486E-03    -40.7413E+06     1.22800E+06     27.0710E+06     357.715E+03    -226.318E-03     454.213E-03    -227.895E-03     63.4934E-03    -226.690E-03     454.365E-03    -227.702E-03     61.2806E-03
            2048     7.88195E-03     32.5617E-03    -46.5643E+06    -5.76195E+06     17.1821E+06     3.23254E+06    -226.878E-03     454.944E-03    -228.066E-03     59.9487E-03    -227.219E-03     455.050E-03    -227.905E-03     58.2832E-03
            2049     7.16440E-03     32.4769E-03    -50.4516E+06    -11.3702E+06     9.66989E+06     4.03524E+06    -227.104E-03     455.336E-03    -228.231E-03     54.7442E-03    -227.423E-03     455.407E-03    -228.093E-03     53.3789E-03
            2050     6.44664E-03     32.4012E-03    -55.4627E+06    -28.0835E+06    -4.87635E+06     1.09310E+06    -226.768E-03     455.175E-03    -228.407E-03     49.4029E-03    -227.047E-03     455.172E-03    -228.310E-03     48.2238E-03
            2051     5.72735E-03     32.3299E-03    -62.2818E+06    -54.0054E+06    -19.4255E+06    -2.66179E+06    -226.910E-03     455.555E-03    -228.646E-03     44.9820E-03    -227.148E-03     455.437E-03    -228.574E-03     43.9849E-03
            2052     5.01135E-03     32.2696E-03    -67.3833E+06    -74.1083E+06    -27.4110E+06    -2.83350E+06    -227.989E-03     456.859E-03    -228.870E-03     39.9379E-03    -228.204E-03     456.652E-03    -228.802E-03     39.0315E-03
            2053     4.29485E-03     32.2169E-03    -72.2016E+06    -93.5235E+06    -37.9695E+06    -105.490E+03    -228.792E-03     457.769E-03    -228.977E-03     34.8061E-03    -228.972E-03     457.472E-03    -228.927E-03     34.2059E-03
            2054     3.57896E-03     32.1698E-03    -81.0653E+06    -115.798E+06    -52.0532E+06     2.48994E+06    -228.837E-03     457.862E-03    -229.025E-03     29.2838E-03    -228.995E-03     457.472E-03    -229.000E-03     28.9944E-03
            2055     2.86299E-03     32.1306E-03    -84.4270E+06    -129.400E+06    -61.7067E+06     4.87950E+06    -228.848E-03     457.926E-03    -229.078E-03     23.3668E-03    -228.976E-03     457.475E-03    -229.077E-03     23.2381E-03
            2056     2.14784E-03     32.1005E-03    -87.5709E+06    -143.152E+06    -75.2033E+06     4.88187E+06    -229.056E-03     458.154E-03    -229.098E-03     17.7841E-03    -229.144E-03     457.645E-03    -229.140E-03     17.7219E-03
            2057     1.43150E-03     32.0773E-03    -91.8559E+06    -156.143E+06    -85.1109E+06     1.12319E+06    -229.129E-03     458.244E-03    -229.114E-03     12.3907E-03    -229.171E-03     457.662E-03    -229.180E-03     12.3241E-03
            2058     714.927E-06     32.0663E-03    -93.3318E+06    -165.995E+06    -91.1003E+06    -1.07150E+06    -229.174E-03     458.386E-03    -229.213E-03     6.83940E-03    -229.128E-03     457.773E-03    -229.292E-03     6.78714E-03
            2059     13.6370E-03     31.8918E-03    -4.95007E+06     44.3118E+06     72.1288E+06    -130.035E+03    -226.154E-03     452.895E-03    -226.740E-03     74.4867E-03    -226.575E-03     453.246E-03    -226.437E-03     70.8578E-03
            2060     12.9174E-03     31.7865E-03    -5.20354E+06     44.2237E+06     74.0730E+06     1.36880E+06    -225.824E-03     452.695E-03    -226.870E-03     76.7880E-03    -226.288E-03     453.082E-03    -226.557E-03     72.8207E-03
            2061     12.1969E-03     31.6716E-03    -10.7296E+06     38.9940E+06     71.5132E+06    -2.29861E+06    -225.708E-03     452.728E-03    -227.020E-03     76.4190E-03    -226.213E-03     453.126E-03    -226.703E-03     72.2023E-03
            2062     11.4792E-03     31.5615E-03    -14.0758E+06     34.7588E+06     67.6296E+06    -2.07804E+06    -224.324E-03     451.544E-03    -227.219E-03     74.3348E-03    -224.812E-03     451.909E-03    -226.911E-03     70.3904E-03
            2063     10.7577E-03     31.4610E-03    -21.6888E+06     26.9066E+06     56.9864E+06     1.87760E+06    -224.047E-03     451.523E-03    -227.477E-03     73.2472E-03    -224.491E-03     451.820E-03    -227.199E-03     70.0865E-03
            2064     10.0335E-03     31.3491E-03    -29.9285E+06     19.1296E+06     45.2847E+06     1.88248E+06    -225.496E-03     453.221E-03    -227.725E-03     71.1871E-03    -225.923E-03     453.478E-03    -227.483E-03     68.3718E-03
            2065     9.31658E-03     31.2497E-03    -36.1235E+06     8.98917E+06     35.1598E+06    -73.4579E+03    -226.525E-03     454.446E-03    -227.921E-03     68.1060E-03    -226.939E-03     454.662E-03    -227.705E-03     65.3566E-03
            2066     8.59868E-03     31.1598E-03    -39.7303E+06     2.26846E+06     28.3658E+06     506.564E+03    -227.048E-03     455.134E-03    -228.085E-03     64.4797E-03    -227.427E-03     455.297E-03    -227.889E-03     62.1508E-03
            2067     7.88085E-03     31.0668E-03    -44.9925E+06    -3.63239E+06     19.7685E+06     277.192E+03    -227.145E-03     455.380E-03    -228.235E-03     60.1722E-03    -227.494E-03     455.499E-03    -228.066E-03     58.3148E-03
            2068     7.16375E-03     30.9826E-03    -47.8241E+06    -7.86799E+06     13.4398E+06    -32.6663E+03    -227.146E-03     455.552E-03    -228.406E-03     55.9924E-03    -227.469E-03     455.638E-03    -228.258E-03     54.4699E-03
            2069     6.44656E-03     30.9068E-03    -53.0607E+06    -20.2596E+06     1.83098E+06     3.47814E+06    -227.244E-03     455.827E-03    -228.582E-03     50.6345E-03    -227.539E-03     455.856E-03    -228.467E-03     49.3377E-03
            2070     5.72921E-03     30.8390E-03    -62.6991E+06    -48.0431E+06    -17.8648E+06     3.99148E+06    -227.065E-03     455.849E-03    -228.784E-03     45.2687E-03    -227.320E-03     455.763E-03    -228.713E-03     44.3001E-03
            2071     5.00958E-03     30.7722E-03    -72.9993E+06    -80.0862E+06    -36.0629E+06    -408.071E+03    -227.576E-03     456.601E-03    -229.024E-03     40.1431E-03    -227.794E-03     456.380E-03    -228.983E-03     39.3830E-03
            2072     4.29389E-03     30.7180E-03    -81.0826E+06    -103.563E+06    -47.7366E+06    -1.80779E+06    -228.624E-03     457.839E-03    -229.215E-03     34.9957E-03    -228.820E-03     457.518E-03    -229.186E-03     34.2876E-03
            2073     3.57822E-03     30.6712E-03    -83.7674E+06    -118.377E+06    -55.6614E+06     1.19891E+06    -229.085E-03     458.399E-03    -229.314E-03     29.9805E-03    -229.244E-03     458.003E-03    -229.299E-03     29.5592E-03
            2074     2.86241E-03     30.6327E-03    -86.1659E+06    -131.321E+06    -64.0524E+06     1.20567E+06    -229.138E-03     458.521E-03    -229.383E-03     24.5326E-03    -229.264E-03     458.062E-03    -229.388E-03     24.2828E-03
            2075     2.14588E-03     30.6011E-03    -87.1192E+06    -138.741E+06    -71.4444E+06     2.60511E+06    -229.209E-03     458.670E-03    -229.461E-03     18.6881E-03    -229.301E-03     458.171E-03    -229.490E-03     18.5521E-03
            2076     1.43039E-03     30.5799E-03    -90.7895E+06    -149.784E+06    -83.2903E+06     1.78421E+06    -229.412E-03     458.944E-03    -229.531E-03     12.3033E-03    -229.456E-03     458.383E-03    -229.599E-03     12.2237E-03
            2077     715.610E-06     30.5650E-03    -97.6851E+06    -167.022E+06    -94.6305E+06     191.032E+03    -229.685E-03     459.258E-03    -229.574E-03     6.50591E-03    -229.661E-03     458.660E-03    -229.663E-03     6.48365E-03
            2078     13.6335E-03     30.4079E-03    -7.00893E+06     41.4857E+06     67.8545E+06    -5.90495E+06    -224.844E-03     451.529E-03    -226.685E-03     72.9072E-03    -225.285E-03     451.896E-03    -226.396E-03     68.8978E-03
            2079     12.9136E-03     30.2943E-03    -9.86584E+06     39.2694E+06     69.0533E+06    -558.888E+03    -224.943E-03     451.818E-03    -226.874E-03     78.0059E-03    -225.425E-03     452.204E-03    -226.572E-03     73.9700E-03
            2080     12.1975E-03     30.1817E-03    -9.73702E+06     38.3342E+06     71.5776E+06     1.31088E+06    -224.567E-03     451.668E-03    -227.102E-03     78.9720E-03    -225.076E-03     452.071E-03    -226.785E-03     74.8182E-03
            2081     11.4741E-03     30.0786E-03    -15.2081E+06     34.7858E+06     68.9757E+06     2.30328E+06    -224.591E-03     451.940E-03    -227.350E-03     76.9412E-03    -225.098E-03     452.317E-03    -227.033E-03     73.0129E-03
            2082     10.7541E-03     29.9702E-03    -22.0718E+06     28.5963E+06     60.3800E+06     4.87392E+06    -225.535E-03     453.105E-03    -227.570E-03     75.6299E-03    -226.002E-03     453.420E-03    -227.278E-03     72.3877E-03
            2083     10.0391E-03     29.8620E-03    -28.6881E+06     20.0684E+06     47.0953E+06     2.59998E+06    -225.227E-03     453.005E-03    -227.778E-03     71.7844E-03    -225.662E-03     453.272E-03    -227.530E-03     68.8664E-03
            2084     9.31549E-03     29.7619E-03    -33.7250E+06     10.6810E+06     35.5084E+06     1.36094E+06    -225.449E-03     453.471E-03    -228.022E-03     67.7942E-03    -225.844E-03     453.681E-03    -227.811E-03     65.2353E-03
            2085     8.59740E-03     29.6613E-03    -39.8053E+06     1.63504E+06     26.3143E+06     613.607E+03    -226.862E-03     455.105E-03    -228.243E-03     64.8521E-03    -227.238E-03     455.269E-03    -228.056E-03     62.5338E-03
            2086     7.88106E-03     29.5751E-03    -45.9985E+06    -4.83395E+06     16.2286E+06    -462.961E+03    -227.110E-03     455.525E-03    -228.415E-03     61.1957E-03    -227.471E-03     455.659E-03    -228.260E-03     59.1107E-03
            2087     7.16097E-03     29.4901E-03    -52.9286E+06    -12.7408E+06     6.69288E+06     -178.95E+03    -226.833E-03     455.455E-03    -228.621E-03     57.1479E-03    -227.170E-03     455.539E-03    -228.493E-03     55.5648E-03
            2088     6.44273E-03     29.4101E-03    -58.9819E+06    -24.4383E+06    -84.7728E+03     501.858E+03    -227.403E-03     456.263E-03    -228.860E-03     52.0866E-03    -227.722E-03     456.286E-03    -228.739E-03     50.7128E-03
            2089     5.72654E-03     29.3424E-03    -62.0581E+06    -42.7206E+06    -10.0780E+06     4.12414E+06    -228.031E-03     457.082E-03    -229.052E-03     47.0754E-03    -228.308E-03     457.017E-03    -228.950E-03     45.9848E-03
            2090     5.01130E-03     29.2785E-03    -67.2292E+06    -69.9204E+06    -27.7786E+06     6.65295E+06    -227.916E-03     457.147E-03    -229.231E-03     42.0613E-03    -228.131E-03     456.956E-03    -229.171E-03     41.4476E-03
            2091     4.29269E-03     29.2200E-03    -75.4326E+06    -100.709E+06    -46.3895E+06     1.60773E+06    -228.167E-03     457.623E-03    -229.456E-03     36.3189E-03    -228.334E-03     457.301E-03    -229.433E-03     35.7472E-03
            2092     3.57620E-03     29.1724E-03    -80.8327E+06    -119.799E+06    -56.5828E+06    -3.29465E+06    -228.947E-03     458.620E-03    -229.673E-03     30.6948E-03    -229.083E-03     458.209E-03    -229.665E-03     30.1384E-03
            2093     2.86045E-03     29.1328E-03    -84.7634E+06    -132.035E+06    -66.5391E+06    -2.47097E+06    -229.473E-03     459.278E-03    -229.805E-03     24.9725E-03    -229.585E-03     458.814E-03    -229.824E-03     24.5659E-03
            2094     2.14573E-03     29.1020E-03    -89.3296E+06    -143.167E+06    -76.2161E+06    -1.48693E+06    -229.717E-03     459.604E-03    -229.887E-03     18.9622E-03    -229.804E-03     459.091E-03    -229.931E-03     18.7150E-03
            2095     1.43049E-03     29.0782E-03    -92.5429E+06    -149.108E+06    -80.9347E+06     1.32529E+06    -229.909E-03     459.861E-03    -229.951E-03     12.7854E-03    -229.963E-03     459.301E-03    -230.006E-03     12.7197E-03
            2096     715.035E-06     29.0658E-03    -95.2150E+06    -161.406E+06    -89.0354E+06     2.13413E+06    -230.271E-03     460.046E-03    -229.775E-03     7.28340E-03    -230.245E-03     459.459E-03    -229.848E-03     7.28347E-03
            2097     13.6386E-03     28.9180E-03    -1.98562E+06     45.0618E+06     68.8478E+06    -839.331E+03    -223.786E-03     450.423E-03    -226.637E-03     74.1851E-03    -224.204E-03     450.794E-03    -226.355E-03     70.3584E-03
            2098     12.9181E-03     28.8130E-03    -12.8560E+06     35.4491E+06     60.0751E+06    -6.38371E+06    -223.056E-03     449.938E-03    -226.882E-03     78.3802E-03    -223.547E-03     450.334E-03    -226.614E-03     74.1487E-03
            2099     12.1908E-03     28.6951E-03    -17.6231E+06     32.2654E+06     60.8626E+06    -4.05411E+06    -223.338E-03     450.541E-03    -227.204E-03     78.6621E-03    -223.859E-03     450.938E-03    -226.921E-03     74.4913E-03
            2100     11.4731E-03     28.5908E-03    -17.2922E+06     32.0141E+06     67.1161E+06     498.236E+03    -225.192E-03     452.700E-03    -227.508E-03     76.8791E-03    -225.711E-03     453.076E-03    -227.193E-03     72.8360E-03
            2101     10.7555E-03     28.4769E-03    -20.2044E+06     28.7106E+06     64.8789E+06     1.68994E+06    -225.953E-03     453.680E-03    -227.726E-03     76.4333E-03    -226.441E-03     454.010E-03    -227.414E-03     72.7878E-03
            2102     10.0327E-03     28.3738E-03    -25.5693E+06     24.5469E+06     56.6501E+06     2.41216E+06    -225.756E-03     453.686E-03    -227.929E-03     73.5731E-03    -226.214E-03     453.975E-03    -227.645E-03     70.3675E-03
            2103     9.31701E-03     28.2708E-03    -32.6253E+06     13.3057E+06     43.0681E+06     5.76518E+06    -225.521E-03     453.684E-03    -228.163E-03     70.3638E-03    -225.928E-03     453.896E-03    -227.919E-03     67.8516E-03
            2104     8.59640E-03     28.1721E-03    -40.0053E+06     824.632E+03     24.0494E+06     3.23941E+06    -225.666E-03     454.078E-03    -228.412E-03     67.0834E-03    -226.031E-03     454.233E-03    -228.234E-03     64.9129E-03
            2105     7.87580E-03     28.0789E-03    -45.6866E+06    -5.13815E+06     13.5677E+06    -5.29759E+03    -226.862E-03     455.531E-03    -228.669E-03     62.5221E-03    -227.221E-03     455.671E-03    -228.528E-03     60.3862E-03
            2106     7.16073E-03     27.9965E-03    -52.0758E+06    -12.3031E+06     7.75084E+06     949.416E+03    -227.412E-03     456.316E-03    -228.904E-03     57.6799E-03    -227.758E-03     456.411E-03    -228.772E-03     55.8676E-03
            2107     6.44253E-03     27.9168E-03    -58.1759E+06    -27.3968E+06    -2.64029E+06    -740.594E+03    -227.215E-03     456.358E-03    -229.143E-03     52.8600E-03    -227.527E-03     456.374E-03    -229.032E-03     51.4020E-03
            2108     5.72431E-03     27.8435E-03    -63.9991E+06    -48.7273E+06    -13.3644E+06    -41.5769E+03    -227.814E-03     457.221E-03    -229.407E-03     48.0031E-03    -228.089E-03     457.135E-03    -229.311E-03     46.8111E-03
            2109     5.00701E-03     27.7808E-03    -67.9595E+06    -69.7620E+06    -22.9589E+06     3.15698E+06    -228.538E-03     458.177E-03    -229.639E-03     43.4241E-03    -228.770E-03     457.987E-03    -229.554E-03     42.6060E-03
            2110     4.29188E-03     27.7233E-03    -70.2544E+06    -90.0396E+06    -36.5773E+06     4.01079E+06    -228.741E-03     458.575E-03    -229.835E-03     37.7706E-03    -228.913E-03     458.285E-03    -229.785E-03     37.2617E-03
            2111     3.57532E-03     27.6729E-03    -76.4723E+06    -115.942E+06    -55.6710E+06    -384.744E+03    -229.119E-03     459.145E-03    -230.026E-03     31.4396E-03    -229.242E-03     458.747E-03    -230.025E-03     30.9544E-03
            2112     2.85977E-03     27.6321E-03    -81.7850E+06    -134.213E+06    -67.5065E+06    -3.08419E+06    -229.720E-03     459.924E-03    -230.204E-03     25.3749E-03    -229.816E-03     459.450E-03    -230.228E-03     24.9347E-03
            2113     2.14413E-03     27.6001E-03    -85.4472E+06    -143.339E+06    -76.4664E+06    -1.83188E+06    -230.127E-03     460.444E-03    -230.317E-03     19.2521E-03    -230.194E-03     459.925E-03    -230.367E-03     18.9965E-03
            2114     1.42909E-03     27.5777E-03    -90.0067E+06    -152.718E+06     -84.814E+06    -1.59175E+06    -230.348E-03     460.740E-03    -230.392E-03     13.0685E-03    -230.369E-03     460.159E-03    -230.464E-03     12.9339E-03
            2115     714.531E-06     27.5623E-03    -91.2787E+06    -159.913E+06    -89.2387E+06    -1.34586E+06    -230.650E-03     461.022E-03    -230.372E-03     7.30423E-03    -230.584E-03     460.407E-03    -230.454E-03     7.20683E-03
            2116     13.6342E-03     27.4347E-03    -1.97376E+06     46.2020E+06     70.5916E+06     1.63774E+06    -223.009E-03     449.720E-03    -226.711E-03     76.1167E-03    -223.422E-03     450.086E-03    -226.423E-03     72.5441E-03
            2117     12.9119E-03     27.3266E-03    -2.99211E+06     46.2659E+06     72.3845E+06     639.698E+03    -223.836E-03     450.825E-03    -226.989E-03     79.4864E-03    -224.323E-03     451.256E-03    -226.690E-03     75.2420E-03
            2118     12.1951E-03     27.2151E-03    -11.7231E+06     38.0023E+06      66.577E+06    -415.186E+03    -224.094E-03     451.344E-03    -227.251E-03     77.7512E-03    -224.604E-03     451.755E-03    -226.956E-03     73.5682E-03
            2119     11.4723E-03     27.0966E-03    -24.8494E+06     22.1034E+06     51.6096E+06    -3.92396E+06    -224.088E-03     451.594E-03    -227.506E-03     77.1723E-03    -224.592E-03     451.939E-03    -227.244E-03     73.2854E-03
            2120     10.7512E-03     26.9913E-03    -27.3359E+06     20.0028E+06     51.3030E+06    -4.57518E+06    -225.014E-03     452.819E-03    -227.805E-03     76.5707E-03    -225.506E-03     453.137E-03    -227.538E-03     72.8453E-03
            2121     10.0344E-03     26.8809E-03    -30.5289E+06     19.7705E+06     50.8627E+06    -743.166E+03    -225.479E-03     453.568E-03    -228.089E-03     73.8995E-03    -225.955E-03     453.859E-03    -227.820E-03     70.5435E-03
            2122     9.31270E-03     26.7804E-03    -35.6421E+06     11.1422E+06     41.5276E+06     1.63924E+06    -225.714E-03     454.066E-03    -228.353E-03     70.8718E-03    -226.149E-03     454.294E-03    -228.109E-03     68.0136E-03
            2123     8.59380E-03     26.6822E-03    -36.9560E+06     5.67936E+06     34.5050E+06     3.05691E+06    -225.902E-03     454.541E-03    -228.640E-03     67.4255E-03    -226.279E-03     454.708E-03    -228.422E-03     65.1540E-03
            2124     7.87611E-03     26.5854E-03    -42.5257E+06    -1.86794E+06     20.9229E+06     3.38656E+06    -226.263E-03     455.184E-03    -228.921E-03     62.7232E-03    -226.618E-03     455.321E-03    -228.752E-03     60.7134E-03
            2125     7.15631E-03     26.4990E-03    -49.5983E+06    -11.6645E+06     7.75600E+06    -505.456E+03    -227.013E-03     456.212E-03    -229.199E-03     58.3888E-03    -227.353E-03     456.312E-03    -229.071E-03     56.4640E-03
            2126     6.44006E-03     26.4215E-03    -55.0984E+06    -24.2993E+06     230.143E+03    -142.546E+03    -227.523E-03     457.013E-03    -229.490E-03     54.4467E-03    -227.836E-03     457.044E-03    -229.374E-03     52.8786E-03
            2127     5.72246E-03     26.3487E-03    -62.3817E+06    -47.3722E+06    -11.0336E+06     1.39645E+06    -227.878E-03     457.661E-03    -229.784E-03     49.2454E-03    -228.152E-03     457.577E-03    -229.680E-03     48.1033E-03
            2128     5.00572E-03     26.2810E-03    -69.0900E+06    -73.8832E+06    -27.3271E+06    -1.27309E+06    -228.762E-03     458.792E-03    -230.030E-03     43.6683E-03    -228.989E-03     458.591E-03    -229.960E-03     42.7546E-03
            2129     4.28918E-03     26.2232E-03    -72.8728E+06    -92.8181E+06    -40.0392E+06    -960.569E+03    -229.497E-03     459.710E-03    -230.213E-03     37.8823E-03    -229.682E-03     459.423E-03    -230.173E-03     37.1906E-03
            2130     3.57401E-03     26.1728E-03    -75.5612E+06    -112.042E+06    -51.1308E+06     1.82287E+06    -229.733E-03     460.101E-03    -230.368E-03     31.7921E-03    -229.872E-03     459.723E-03    -230.351E-03     31.3248E-03
            2131     2.85834E-03     26.1308E-03    -81.4002E+06    -133.606E+06    -65.8224E+06     1.01196E+06    -229.996E-03     460.507E-03    -230.510E-03     25.4264E-03    -230.097E-03     460.037E-03    -230.528E-03     25.0605E-03
            2132     2.14366E-03     26.0976E-03    -86.4808E+06    -144.479E+06    -75.6825E+06    -502.072E+03    -230.368E-03     461.005E-03    -230.637E-03     18.9997E-03    -230.441E-03     460.482E-03    -230.680E-03     18.7590E-03
            2133     1.42925E-03     26.0742E-03    -90.5504E+06    -151.717E+06    -84.4271E+06    -431.531E+03    -230.731E-03     461.428E-03    -230.697E-03     12.9114E-03    -230.749E-03     460.847E-03    -230.768E-03     12.7462E-03
            2134     714.602E-06     26.0596E-03    -95.7384E+06    -164.467E+06    -95.5750E+06    -30.0712E+03    -230.797E-03     461.575E-03    -230.778E-03     7.26011E-03    -230.727E-03     460.935E-03    -230.879E-03     7.13426E-03
            2135     13.6343E-03     25.9584E-03    -4.01058E+06     45.0286E+06     70.0355E+06     465.442E+03    -223.579E-03     450.329E-03    -226.750E-03     72.7698E-03    -223.997E-03     450.690E-03    -226.460E-03     69.0848E-03
            2136     12.9135E-03     25.8350E-03    -9.87015E+06     39.7785E+06     69.5301E+06     1.59688E+06    -223.625E-03     450.641E-03    -227.016E-03     78.3116E-03    -224.131E-03     451.052E-03    -226.712E-03     74.0827E-03
            2137     12.1937E-03     25.7244E-03    -12.2353E+06     37.5709E+06     69.9968E+06     82.3868E+03    -224.045E-03     451.345E-03    -227.299E-03     79.1114E-03    -224.578E-03     451.765E-03    -226.986E-03     74.7971E-03
            2138     11.4733E-03     25.6187E-03    -13.7025E+06     34.6381E+06     65.6331E+06     1.69813E+06    -224.248E-03     451.823E-03    -227.575E-03     78.7744E-03    -224.742E-03     452.201E-03    -227.278E-03     74.9544E-03
            2139     10.7523E-03     25.4975E-03    -24.5543E+06     21.6479E+06     48.0480E+06     119.687E+03    -224.298E-03     452.140E-03    -227.842E-03     76.2828E-03    -224.775E-03     452.467E-03    -227.597E-03     72.6915E-03
            2140     10.0303E-03     25.3945E-03    -31.4752E+06     15.8180E+06     40.4119E+06    -2.74029E+06    -224.756E-03     452.916E-03    -228.160E-03     73.8014E-03    -225.227E-03     453.214E-03    -227.935E-03     70.3625E-03
            2141     9.31212E-03     25.2879E-03    -33.7897E+06     12.2791E+06     39.8453E+06    -2.47827E+06    -225.860E-03     454.345E-03    -228.485E-03     71.0425E-03    -226.295E-03     454.588E-03    -228.255E-03     68.0602E-03
            2142     8.59412E-03     25.1893E-03    -40.4780E+06     2.02788E+06     31.5853E+06    -1.00396E+06    -226.290E-03     455.059E-03    -228.768E-03     67.2653E-03    -226.695E-03     455.235E-03    -228.555E-03     64.7206E-03
            2143     7.87440E-03     25.0932E-03    -43.7929E+06    -2.98987E+06     23.0542E+06     671.247E+03    -225.860E-03     454.941E-03    -229.081E-03     63.2578E-03    -226.225E-03     455.073E-03    -228.898E-03     61.2029E-03
            2144     7.15593E-03     25.0066E-03    -47.9006E+06    -9.13165E+06     12.5162E+06     1.30545E+06    -226.226E-03     455.665E-03    -229.439E-03     58.3698E-03    -226.565E-03     455.766E-03    -229.294E-03     56.5563E-03
            2145     6.43638E-03     24.9231E-03    -55.4808E+06    -25.2514E+06    -580.324E+03      120.08E+03    -227.442E-03     457.222E-03    -229.780E-03     53.7026E-03    -227.756E-03     457.251E-03    -229.666E-03     52.1173E-03
            2146     5.72035E-03     24.8507E-03    -60.1577E+06    -48.1505E+06    -11.5564E+06    -103.841E+03    -228.627E-03     458.689E-03    -230.061E-03     48.9780E-03    -228.891E-03     458.601E-03    -229.962E-03     47.7844E-03
            2147     5.00382E-03     24.7817E-03    -64.3775E+06    -70.9160E+06    -24.7442E+06     661.198E+03    -229.295E-03     459.559E-03    -230.264E-03     43.2633E-03    -229.507E-03     459.362E-03    -230.192E-03     42.3955E-03
            2148     4.28856E-03     24.7218E-03    -71.5985E+06    -93.3049E+06    -40.9326E+06    -510.215E+03    -229.760E-03     460.172E-03    -230.412E-03     37.0358E-03    -229.935E-03     459.882E-03    -230.378E-03     36.2956E-03
            2149     3.57317E-03     24.6707E-03    -79.1320E+06    -114.607E+06    -52.1220E+06     298.435E+03    -230.190E-03     460.728E-03    -230.538E-03     31.0087E-03    -230.340E-03     460.342E-03    -230.518E-03     30.4622E-03
            2150     2.85860E-03     24.6285E-03    -85.5702E+06    -131.975E+06    -64.0447E+06     2.10035E+06    -230.320E-03     460.944E-03    -230.625E-03     24.8671E-03    -230.449E-03     460.488E-03    -230.630E-03     24.5024E-03
            2151     2.14345E-03     24.5947E-03    -90.6349E+06    -145.219E+06    -76.7913E+06     1.70386E+06    -230.420E-03     461.126E-03    -230.706E-03     18.8366E-03    -230.511E-03     460.610E-03    -230.748E-03     18.5979E-03
            2152     1.42846E-03     24.5706E-03    -95.1159E+06    -151.816E+06    -83.8021E+06     1.63505E+06    -230.760E-03     461.542E-03    -230.783E-03     12.8567E-03    -230.792E-03     460.958E-03    -230.844E-03     12.7308E-03
            2153     714.391E-06     24.5552E-03    -99.8854E+06    -161.658E+06    -93.6024E+06     2.20110E+06    -230.832E-03     461.724E-03    -230.891E-03     6.83649E-03    -230.791E-03     461.096E-03    -230.980E-03     6.70538E-03
            2154     13.6368E-03     24.4642E-03    -3.42404E+06     44.7293E+06     71.7857E+06     298.308E+03    -223.567E-03     450.307E-03    -226.740E-03     73.5485E-03    -223.989E-03     450.668E-03    -226.441E-03     69.8724E-03
            2155     12.9163E-03     24.3585E-03    -10.0300E+06     38.7209E+06     65.7541E+06    -227.801E+03    -223.105E-03     450.104E-03    -226.999E-03     80.1863E-03    -223.607E-03     450.517E-03    -226.712E-03     75.9887E-03
            2156     12.1897E-03     24.2394E-03    -15.4179E+06     34.4012E+06     63.6697E+06    -1.49824E+06    -223.589E-03     450.899E-03    -227.310E-03     79.2839E-03    -224.113E-03     451.305E-03    -227.019E-03     75.1115E-03
            2157     11.4713E-03     24.1239E-03    -17.7252E+06     31.5512E+06     66.4960E+06    -1.05520E+06    -224.648E-03     452.272E-03    -227.624E-03     78.2705E-03    -225.173E-03     452.653E-03    -227.311E-03     74.2013E-03
            2158     10.7523E-03     24.0153E-03    -19.6188E+06     27.3380E+06     60.8231E+06     1.95092E+06    -224.468E-03     452.373E-03    -227.905E-03     76.5631E-03    -224.957E-03     452.713E-03    -227.612E-03     72.9009E-03
            2159     10.0319E-03     23.9044E-03    -23.4351E+06     21.0974E+06     51.2017E+06     1.72774E+06    -224.625E-03     452.835E-03    -228.210E-03     73.5899E-03    -225.075E-03     453.128E-03    -227.950E-03     70.2774E-03
            2160     9.31126E-03     23.7971E-03    -31.6585E+06     10.4846E+06     39.6610E+06    -365.835E+03    -225.277E-03     453.808E-03    -228.531E-03     71.1696E-03    -225.697E-03     454.038E-03    -228.302E-03     68.2694E-03
            2161     8.59198E-03     23.6949E-03    -39.2541E+06     2.19913E+06     27.8872E+06    -2.44288E+06    -225.851E-03     454.694E-03    -228.843E-03     67.6045E-03    -226.250E-03     454.881E-03    -228.650E-03     64.9779E-03
            2162     7.87370E-03     23.6032E-03    -44.8570E+06    -3.26254E+06     21.3204E+06    -3.40918E+06    -226.385E-03     455.557E-03    -229.172E-03     63.2017E-03    -226.759E-03     455.699E-03    -228.996E-03     60.9891E-03
            2163     7.15463E-03     23.5102E-03    -50.4402E+06    -9.90869E+06     13.2487E+06    -367.664E+03    -226.891E-03     456.384E-03    -229.493E-03     57.9505E-03    -227.238E-03     456.478E-03    -229.339E-03     56.2144E-03
            2164     6.43782E-03     23.4297E-03    -55.5924E+06    -23.1167E+06    -1.14850E+06     2.25715E+06    -227.821E-03     457.584E-03    -229.764E-03     52.1633E-03    -228.127E-03     457.615E-03    -229.655E-03     50.7911E-03
            2165     5.71964E-03     23.3492E-03    -63.5209E+06    -48.9976E+06    -18.4584E+06    -75.7094E+03    -228.864E-03     458.838E-03    -229.973E-03     46.6040E-03    -229.129E-03     458.756E-03    -229.902E-03     45.4404E-03
            2166     5.00482E-03     23.2818E-03    -71.2917E+06    -75.5000E+06    -28.6712E+06    -1.02514E+06    -229.404E-03     459.558E-03    -230.154E-03     41.0279E-03    -229.638E-03     459.354E-03    -230.085E-03     40.0347E-03
            2167     4.28873E-03     23.2202E-03    -76.1635E+06    -96.0646E+06    -38.1613E+06     1.68258E+06    -229.618E-03     459.920E-03    -230.302E-03     35.5914E-03    -229.809E-03     459.611E-03    -230.243E-03     34.8460E-03
            2168     3.57366E-03     23.1688E-03    -79.4207E+06    -113.169E+06    -51.7074E+06     1.83330E+06    -229.930E-03     460.341E-03    -230.410E-03     30.0859E-03    -230.075E-03     459.952E-03    -230.390E-03     29.5278E-03
            2169     2.85855E-03     23.1252E-03    -84.4752E+06    -130.307E+06    -64.0687E+06     910.487E+03    -230.280E-03     460.772E-03    -230.491E-03     24.4046E-03    -230.405E-03     460.319E-03    -230.500E-03     23.9917E-03
            2170     2.14392E-03     23.0929E-03    -91.5143E+06    -145.125E+06    -76.8697E+06     1.20028E+06    -230.550E-03     461.058E-03    -230.508E-03     18.4155E-03    -230.648E-03     460.547E-03    -230.550E-03     18.1336E-03
            2171     1.42934E-03     23.0664E-03    -94.4012E+06    -151.789E+06    -85.6285E+06     774.947E+03    -230.617E-03     461.096E-03    -230.479E-03     12.2079E-03    -230.640E-03     460.511E-03    -230.550E-03     12.0396E-03
            2172     714.561E-06     23.0520E-03    -95.8388E+06    -156.482E+06    -92.3639E+06    -495.495E+03    -230.621E-03     461.060E-03    -230.439E-03     6.22218E-03    -230.573E-03     460.446E-03    -230.535E-03     6.07913E-03
            2173     13.6325E-03     22.9840E-03    -3.97260E+06     44.4141E+06     70.0508E+06     49.2476E+03    -222.401E-03     449.159E-03    -226.758E-03     74.6446E-03    -222.816E-03     449.514E-03    -226.466E-03     71.0972E-03
            2174     12.9102E-03     22.8688E-03    -5.98024E+06     44.0903E+06     70.2626E+06    -1.11861E+06    -224.197E-03     451.233E-03    -227.036E-03     79.8792E-03    -224.707E-03     451.674E-03    -226.740E-03     75.4865E-03
            2175     12.1963E-03     22.7549E-03    -10.6767E+06     38.6282E+06     67.6956E+06     2.58895E+06    -224.109E-03     451.407E-03    -227.298E-03     79.4179E-03    -224.629E-03     451.831E-03    -227.000E-03     75.2073E-03
            2176     11.4725E-03     22.6385E-03    -19.7597E+06     28.7866E+06     59.6106E+06    -785.848E+03    -223.910E-03     451.497E-03    -227.587E-03     79.0577E-03    -224.432E-03     451.878E-03    -227.302E-03     75.0351E-03
            2177     10.7511E-03     22.5253E-03    -25.5379E+06     23.3599E+06     57.0631E+06    -4.05158E+06    -224.955E-03     452.854E-03    -227.898E-03     76.8077E-03    -225.474E-03     453.199E-03    -227.610E-03     72.9162E-03
            2178     10.0321E-03     22.4152E-03    -28.8788E+06     17.2392E+06     52.7856E+06    -1.82928E+06    -225.128E-03     453.320E-03    -228.192E-03     74.0612E-03    -225.601E-03     453.599E-03    -227.912E-03     70.7126E-03
            2179     9.31261E-03     22.3086E-03    -31.1627E+06     10.8854E+06     43.3467E+06    -338.572E+03    -224.818E-03     453.323E-03    -228.505E-03     70.8933E-03    -225.237E-03     453.545E-03    -228.259E-03     68.0427E-03
            2180     8.59173E-03     22.2046E-03    -36.0368E+06     5.02729E+06     31.9949E+06     1.43571E+06    -225.553E-03     454.392E-03    -228.840E-03     67.0777E-03    -225.934E-03     454.571E-03    -228.635E-03     64.6744E-03
            2181     7.87323E-03     22.1063E-03    -44.6678E+06    -4.00631E+06     18.4947E+06    -8.00664E+03    -227.214E-03     456.328E-03    -229.114E-03     62.3318E-03    -227.577E-03     456.465E-03    -228.951E-03     60.2117E-03
            2182     7.15653E-03     22.0175E-03    -53.2961E+06    -13.7776E+06     7.05985E+06    -844.405E+03    -228.344E-03     457.646E-03    -229.302E-03     56.7277E-03    -228.689E-03     457.732E-03    -229.169E-03     54.9785E-03
            2183     6.43897E-03     21.9293E-03    -59.5144E+06    -22.9316E+06    -557.691E+03     102.923E+03    -228.853E-03     458.291E-03    -229.438E-03     51.0055E-03    -229.176E-03     458.323E-03    -229.322E-03     49.6491E-03
            2184     5.72454E-03     21.8528E-03    -64.0414E+06    -43.7182E+06    -12.6614E+06     1.04472E+06    -228.954E-03     458.497E-03    -229.543E-03     45.1655E-03    -229.235E-03     458.433E-03    -229.450E-03     44.0070E-03
            2185     5.00697E-03     21.7809E-03    -70.0354E+06    -75.2442E+06    -30.0308E+06    -276.823E+03    -228.966E-03     458.612E-03    -229.647E-03     39.5327E-03    -229.189E-03     458.407E-03    -229.586E-03     38.5529E-03
            2186     4.29160E-03     21.7213E-03    -76.0870E+06    -99.6832E+06    -41.6686E+06    -2.24383E+06    -229.221E-03     458.991E-03    -229.770E-03     34.1442E-03    -229.400E-03     458.668E-03    -229.724E-03     33.3692E-03
            2187     3.57529E-03     21.6671E-03    -79.3879E+06    -114.091E+06    -50.7986E+06    -1.14628E+06    -229.458E-03     459.330E-03    -229.872E-03     28.4430E-03    -229.602E-03     458.935E-03    -229.846E-03     27.8506E-03
            2188     2.85962E-03     21.6246E-03    -83.4762E+06    -129.015E+06    -63.9024E+06     1.08827E+06    -229.767E-03     459.689E-03    -229.922E-03     22.6316E-03    -229.885E-03     459.238E-03    -229.933E-03     22.2049E-03
            2189     2.14479E-03     21.5883E-03    -88.6537E+06    -143.999E+06    -75.8072E+06     1.05453E+06    -230.009E-03     459.929E-03    -229.920E-03     17.1842E-03    -230.099E-03     459.418E-03    -229.962E-03     16.9160E-03
            2190     1.43044E-03     21.5656E-03    -91.6212E+06    -150.164E+06    -84.3338E+06    -122.561E+03    -229.987E-03     459.876E-03    -229.888E-03     11.8985E-03    -230.015E-03     459.308E-03    -229.960E-03     11.7003E-03
            2191     715.202E-06     21.5494E-03    -93.4215E+06    -156.712E+06    -95.0930E+06    -243.208E+03    -229.801E-03     459.885E-03    -230.084E-03     6.69372E-03    -229.745E-03     459.277E-03    -230.197E-03     6.59070E-03
            2192     13.6357E-03     21.5053E-03    -2.46607E+06     46.1642E+06     72.2553E+06     192.673E+03    -223.734E-03     450.471E-03    -226.737E-03     73.8450E-03    -224.150E-03     450.833E-03    -226.439E-03     70.1990E-03
            2193     12.9162E-03     21.3782E-03    -8.17378E+06     42.2878E+06     70.1762E+06    -526.904E+03    -223.649E-03     450.638E-03    -226.989E-03     78.7449E-03    -224.156E-03     451.062E-03    -226.687E-03     74.4628E-03
            2194     12.1908E-03     21.2694E-03    -13.0974E+06     36.7592E+06     68.3644E+06     259.969E+03    -223.571E-03     450.853E-03    -227.282E-03     79.3645E-03    -224.110E-03     451.277E-03    -226.974E-03     75.0329E-03
            2195     11.4716E-03     21.1530E-03    -15.2437E+06     33.2260E+06     67.0569E+06     4.41818E+06    -224.251E-03     451.842E-03    -227.590E-03     80.1167E-03    -224.771E-03     452.231E-03    -227.281E-03     76.1874E-03
            2196     10.7525E-03     21.0350E-03    -21.8628E+06     25.3690E+06     55.3405E+06    -693.767E+03    -224.770E-03     452.630E-03    -227.860E-03     77.7131E-03    -225.268E-03     452.980E-03    -227.588E-03     73.9595E-03
            2197     10.0326E-03     20.9266E-03    -31.0106E+06     16.4402E+06     43.1270E+06    -4.89296E+06    -225.790E-03     453.902E-03    -228.111E-03     74.9207E-03    -226.268E-03     454.203E-03    -227.875E-03     71.4446E-03
            2198     9.31280E-03     20.8176E-03    -36.8756E+06     8.19478E+06     37.6298E+06    -3.35905E+06    -226.609E-03     454.960E-03    -228.351E-03     70.1468E-03    -227.052E-03     455.192E-03    -228.121E-03     67.1006E-03
            2199     8.59428E-03     20.7155E-03    -40.2252E+06     907.967E+03     29.7649E+06    -369.499E+03    -226.838E-03     455.392E-03    -228.554E-03     64.5961E-03    -227.229E-03     455.557E-03    -228.348E-03     62.1224E-03
            2200     7.87518E-03     20.6111E-03    -44.2657E+06    -4.49422E+06     20.2243E+06     1.43863E+06    -227.667E-03     456.385E-03    -228.718E-03     59.2617E-03    -228.019E-03     456.505E-03    -228.546E-03     57.2815E-03
            2201     7.15884E-03     20.5183E-03    -48.5815E+06    -9.85247E+06     13.4465E+06     1.23876E+06    -228.997E-03     457.801E-03    -228.804E-03     53.7366E-03    -229.330E-03     457.888E-03    -228.652E-03     51.9766E-03
            2202     6.44421E-03     20.4326E-03    -53.6134E+06    -21.7771E+06     3.31967E+06    -18.4473E+03    -229.310E-03     458.107E-03    -228.797E-03     48.4069E-03    -229.613E-03     458.133E-03    -228.671E-03     46.9100E-03
            2203     5.72659E-03     20.3532E-03    -60.3693E+06    -46.6747E+06    -10.0176E+06    -915.438E+03    -228.855E-03     457.645E-03    -228.790E-03     42.7187E-03    -229.117E-03     457.556E-03    -228.685E-03     41.4843E-03
            2204     5.01162E-03     20.2851E-03    -65.8110E+06    -71.4142E+06    -25.2018E+06     1.06677E+06    -228.749E-03     457.545E-03    -228.795E-03     37.3586E-03    -228.961E-03     457.342E-03    -228.722E-03     36.4764E-03
            2205     4.29456E-03     20.2214E-03    -72.4249E+06    -96.9627E+06    -42.9809E+06    -632.770E+03    -228.955E-03     457.729E-03    -228.774E-03     31.6134E-03    -229.121E-03     457.418E-03    -228.743E-03     30.9331E-03
            2206     3.57941E-03     20.1693E-03    -82.2063E+06    -120.938E+06    -58.1319E+06    -2.20629E+06    -229.053E-03     457.777E-03    -228.724E-03     25.8461E-03    -229.196E-03     457.368E-03    -228.720E-03     25.2661E-03
            2207     2.86395E-03     20.1238E-03    -84.6150E+06    -131.174E+06    -66.8113E+06    -1.15926E+06    -228.851E-03     457.510E-03    -228.659E-03     20.3033E-03    -228.965E-03     457.053E-03    -228.680E-03     19.8407E-03
            2208     2.14772E-03     20.0906E-03    -85.5714E+06    -141.016E+06    -74.6941E+06    -970.454E+03    -228.555E-03     457.196E-03    -228.641E-03     14.9885E-03    -228.628E-03     456.686E-03    -228.686E-03     14.6529E-03
            2209     1.43078E-03     20.0644E-03    -92.6204E+06    -151.227E+06    -84.0054E+06    -1.02918E+06    -228.600E-03     457.281E-03    -228.681E-03     10.0710E-03    -228.627E-03     456.704E-03    -228.748E-03     9.84009E-03
            2210     715.347E-06     20.0506E-03    -97.7586E+06    -158.914E+06    -92.7963E+06     152.935E+03    -228.634E-03     457.526E-03    -228.892E-03     5.34495E-03    -228.600E-03     456.907E-03    -228.984E-03     5.19695E-03
            2211     13.6358E-03     20.0087E-03    -4.32190E+06     42.9712E+06     69.9234E+06    -1.46600E+06    -223.199E-03     449.900E-03    -226.701E-03     76.0399E-03    -223.629E-03     450.265E-03    -226.407E-03     72.3399E-03
            2212     12.9149E-03     19.9019E-03    -7.59308E+06     41.3176E+06     70.1208E+06     124.509E+03    -223.643E-03     450.623E-03    -226.980E-03     81.7512E-03    -224.140E-03     451.036E-03    -226.678E-03     77.6933E-03
            2213     12.1945E-03     19.7830E-03    -12.5603E+06     37.4633E+06     70.1987E+06     299.521E+03    -224.700E-03     451.954E-03    -227.254E-03     80.2380E-03    -225.225E-03     452.364E-03    -226.939E-03     76.1057E-03
            2214     11.4739E-03     19.6646E-03    -16.2884E+06     33.4226E+06     68.0857E+06    -1.56386E+06    -224.988E-03     452.487E-03    -227.499E-03     78.1508E-03    -225.527E-03     452.889E-03    -227.183E-03     73.8894E-03
            2215     10.7518E-03     19.5498E-03    -20.7592E+06     27.8298E+06     59.9476E+06     733.223E+03    -225.409E-03     453.126E-03    -227.717E-03     75.5355E-03    -225.900E-03     453.469E-03    -227.428E-03     71.8676E-03
            2216     10.0316E-03     19.4344E-03    -26.3240E+06     21.6407E+06     47.9187E+06     2.59929E+06    -227.316E-03     455.173E-03    -227.857E-03     70.9973E-03    -227.775E-03     455.477E-03    -227.611E-03     67.5860E-03
            2217     9.31560E-03     19.3236E-03    -32.7725E+06     9.47647E+06     35.5052E+06    -1.10208E+06    -228.630E-03     456.520E-03    -227.890E-03     65.0886E-03    -229.056E-03     456.760E-03    -227.679E-03     61.7947E-03
            2218     8.60027E-03     19.2202E-03    -40.0631E+06    -742.764E+03     27.7299E+06    -3.78811E+06    -228.982E-03     456.850E-03    -227.868E-03     60.3009E-03    -229.366E-03     457.009E-03    -227.670E-03     57.6026E-03
            2219     7.88456E-03     19.1197E-03    -44.2875E+06    -3.98016E+06     22.8870E+06    -836.583E+03    -228.706E-03     456.532E-03    -227.826E-03     55.1783E-03    -229.054E-03     456.643E-03    -227.642E-03     53.1774E-03
            2220     7.16666E-03     19.0215E-03    -50.0951E+06    -12.4925E+06     10.8526E+06    -1.31009E+06    -228.516E-03     456.271E-03    -227.755E-03     49.4420E-03    -228.836E-03     456.338E-03    -227.610E-03     47.7662E-03
            2221     6.44997E-03     18.9346E-03    -53.5954E+06    -23.1635E+06     1.08146E+06    -1.67776E+06    -228.711E-03     456.377E-03    -227.666E-03     43.8967E-03    -229.002E-03     456.392E-03    -227.549E-03     42.3416E-03
            2222     5.73517E-03     18.8591E-03    -59.2255E+06    -47.3106E+06    -10.7155E+06     473.802E+03    -228.810E-03     456.348E-03    -227.537E-03     38.3204E-03    -229.059E-03     456.249E-03    -227.437E-03     37.0725E-03
            2223     5.01750E-03     18.7878E-03    -66.6975E+06    -72.1326E+06    -23.8017E+06     478.225E+03    -228.787E-03     456.138E-03    -227.350E-03     32.7563E-03    -229.003E-03     455.929E-03    -227.268E-03     31.8249E-03
            2224     4.30252E-03     18.7260E-03    -71.7891E+06    -92.9945E+06    -37.3459E+06     1.82154E+06    -228.439E-03     455.548E-03    -227.110E-03     27.0060E-03    -228.619E-03     455.252E-03    -227.057E-03     26.2611E-03
            2225     3.58575E-03     18.6724E-03    -78.5238E+06    -117.522E+06    -55.6056E+06     553.759E+03    -227.803E-03     454.658E-03    -226.855E-03     21.8520E-03    -227.943E-03     454.264E-03    -226.849E-03     21.1993E-03
            2226     2.86906E-03     18.6295E-03    -85.0008E+06    -133.657E+06    -67.8706E+06    -2.14972E+06    -227.151E-03     453.819E-03    -226.669E-03     17.3851E-03    -227.263E-03     453.354E-03    -226.691E-03     16.8398E-03
            2227     2.15223E-03     18.5954E-03    -90.8362E+06    -143.376E+06    -76.8300E+06    -1.19539E+06    -226.821E-03     453.362E-03    -226.540E-03     12.9926E-03    -226.895E-03     452.835E-03    -226.585E-03     12.6139E-03
            2228     1.43565E-03     18.5714E-03    -96.2438E+06    -151.280E+06    -87.0840E+06    -332.896E+03    -226.708E-03     453.119E-03    -226.411E-03     8.59214E-03    -226.717E-03     452.517E-03    -226.487E-03     8.38763E-03
            2229     717.847E-06     18.5540E-03    -100.556E+06    -161.193E+06    -95.0243E+06    -2.60154E+06    -226.561E-03     452.813E-03    -226.252E-03     4.41491E-03    -226.524E-03     452.175E-03    -226.347E-03     4.21297E-03
            2230     13.6347E-03     18.5336E-03    -3.89629E+06     43.3451E+06     70.2893E+06    -613.379E+03    -223.334E-03     450.032E-03    -226.698E-03     76.0996E-03    -223.766E-03     450.401E-03    -226.404E-03     72.3535E-03
            2231     12.9108E-03     18.4115E-03    -6.00476E+06     41.8141E+06     70.9598E+06     274.137E+03    -224.867E-03     451.799E-03    -226.932E-03     78.7507E-03    -225.368E-03     452.221E-03    -226.629E-03     74.4403E-03
            2232     12.1935E-03     18.2927E-03    -10.1714E+06     38.8470E+06     69.3518E+06    -957.295E+03    -225.816E-03     452.929E-03    -227.114E-03     78.7546E-03    -226.339E-03     453.353E-03    -226.809E-03     74.4407E-03
            2233     11.4756E-03     18.1766E-03    -18.3611E+06     31.8712E+06     63.5025E+06    -3.00751E+06    -227.148E-03     454.379E-03    -227.232E-03     76.9317E-03    -227.699E-03     454.795E-03    -226.934E-03     72.4574E-03
            2234     10.7580E-03     18.0623E-03    -23.2686E+06     27.5631E+06     59.7751E+06     287.781E+03    -228.817E-03     456.073E-03    -227.256E-03     72.3356E-03    -229.326E-03     456.424E-03    -226.963E-03     68.4236E-03
            2235     10.0429E-03     17.9391E-03    -26.5314E+06     22.6848E+06     52.8920E+06    -1.10609E+06    -229.102E-03     456.283E-03    -227.181E-03     66.8198E-03    -229.561E-03     456.574E-03    -226.911E-03     63.3183E-03
            2236     9.32603E-03     17.8311E-03    -31.1692E+06     11.0223E+06     41.0170E+06       11.06E+03    -229.610E-03     456.646E-03    -227.036E-03     61.6336E-03    -230.020E-03     456.865E-03    -226.801E-03     58.5047E-03
            2237     8.60887E-03     17.7241E-03    -37.0123E+06     1.32904E+06     29.7131E+06     866.783E+03    -230.699E-03     457.489E-03    -226.790E-03     56.3970E-03    -231.061E-03     457.638E-03    -226.590E-03     53.8234E-03
            2238     7.89384E-03     17.6238E-03    -45.1002E+06    -5.45553E+06     17.9948E+06    -2.37626E+06    -230.285E-03     456.739E-03    -226.454E-03     50.3110E-03    -230.627E-03     456.850E-03    -226.291E-03     48.1119E-03
            2239     7.17911E-03     17.5306E-03    -50.6934E+06    -13.0495E+06     8.20938E+06    -1.87627E+06    -228.871E-03     455.009E-03    -226.138E-03     44.4434E-03    -229.183E-03     455.071E-03    -226.004E-03     42.7178E-03
            2240     6.46169E-03     17.4424E-03    -57.4504E+06    -26.8596E+06    -2.81300E+06    -2.28098E+06    -228.234E-03     454.085E-03    -225.851E-03     37.9424E-03    -228.521E-03     454.081E-03    -225.743E-03     36.3954E-03
            2241     5.74411E-03     17.3641E-03    -62.9553E+06    -47.4739E+06    -12.4495E+06    -1.34159E+06    -228.432E-03     453.949E-03    -225.517E-03     32.0798E-03    -228.689E-03     453.849E-03    -225.419E-03     30.7274E-03
            2242     5.03031E-03     17.2948E-03    -69.0200E+06    -73.6453E+06    -26.0951E+06    -937.230E+03    -227.978E-03     453.064E-03    -225.086E-03     27.0044E-03    -228.199E-03     452.854E-03    -225.009E-03     25.8672E-03
            2243     4.31309E-03     17.2338E-03    -74.9332E+06    -97.6808E+06    -38.5460E+06    -627.346E+03    -226.763E-03     451.422E-03    -224.658E-03     22.6319E-03    -226.951E-03     451.108E-03    -224.601E-03     21.7193E-03
            2244     3.59621E-03     17.1832E-03    -77.7879E+06    -112.677E+06    -47.3507E+06     1.13974E+06    -225.645E-03     449.945E-03    -224.300E-03     18.4332E-03    -225.798E-03     449.560E-03    -224.261E-03     17.7362E-03
            2245     2.87743E-03     17.1415E-03    -85.3277E+06    -130.263E+06    -64.0760E+06     2.09859E+06    -224.799E-03     448.789E-03    -223.990E-03     14.4477E-03    -224.921E-03     448.333E-03    -223.998E-03     13.9556E-03
            2246     2.15818E-03     17.1079E-03    -92.0693E+06    -144.884E+06    -77.5567E+06     996.537E+03    -224.287E-03     448.034E-03    -223.747E-03     10.9667E-03    -224.358E-03     447.498E-03    -223.791E-03     10.6581E-03
            2247     1.43876E-03     17.0832E-03    -95.0395E+06    -149.277E+06    -84.8319E+06     625.312E+03    -223.906E-03     447.468E-03    -223.561E-03     7.56195E-03    -223.903E-03     446.859E-03    -223.631E-03     7.39740E-03
            2248     719.748E-06     17.0695E-03    -100.406E+06    -161.787E+06    -97.1281E+06     1.03488E+06    -223.626E-03     447.075E-03    -223.448E-03     4.26480E-03    -223.579E-03     446.429E-03    -223.554E-03     4.17173E-03
            2249     13.6358E-03     17.0434E-03    -1.44676E+06     48.6229E+06     77.0206E+06     1.37577E+06    -227.277E-03     453.910E-03    -226.633E-03     74.8508E-03    -227.732E-03     454.309E-03    -226.316E-03     70.8424E-03
            2250     12.9221E-03     16.9248E-03    -5.32889E+06     43.1408E+06     72.3650E+06    -1.97884E+06    -226.741E-03     453.415E-03    -226.674E-03     76.6154E-03    -227.280E-03     453.878E-03    -226.367E-03     71.7240E-03
            2251     12.1991E-03     16.8085E-03    -12.5621E+06     34.4305E+06     63.9209E+06    -880.134E+03    -226.845E-03     453.566E-03    -226.721E-03     75.2436E-03    -227.367E-03     453.980E-03    -226.433E-03     70.8173E-03
            2252     11.4789E-03     16.6838E-03    -19.6053E+06     29.5344E+06     59.7259E+06     1.12771E+06    -229.586E-03     456.282E-03    -226.695E-03     73.4209E-03    -230.097E-03     456.654E-03    -226.411E-03     69.3664E-03
            2253     10.7666E-03     16.5616E-03    -24.1543E+06     26.7885E+06     56.9756E+06    -2.62352E+06    -231.261E-03     457.772E-03    -226.511E-03     69.8712E-03    -231.771E-03     458.127E-03    -226.230E-03     65.7537E-03
            2254     10.0511E-03     16.4489E-03    -28.4098E+06     21.5803E+06     50.3737E+06    -3.77185E+06    -231.261E-03     457.474E-03    -226.213E-03     65.2457E-03    -231.726E-03     457.769E-03    -225.951E-03     61.6066E-03
            2255     9.33438E-03     16.3374E-03    -35.2888E+06     9.77485E+06     39.0489E+06    -1.03567E+06    -232.035E-03     457.848E-03    -225.813E-03     58.7844E-03    -232.438E-03     458.047E-03    -225.580E-03     55.8947E-03
            2256     8.62225E-03     16.2264E-03    -39.5205E+06     1.08586E+06     29.5207E+06    -2.25263E+06    -232.337E-03     457.619E-03    -225.282E-03     51.0943E-03    -232.705E-03     457.765E-03    -225.078E-03     48.3701E-03
            2257     7.90889E-03     16.1304E-03    -42.5127E+06    -2.34313E+06     21.9667E+06    -3.62510E+06    -231.453E-03     456.114E-03    -224.660E-03     44.1875E-03    -231.799E-03     456.236E-03    -224.485E-03     41.6085E-03
            2258     7.19352E-03     16.0378E-03    -48.2233E+06    -9.88706E+06     13.3161E+06    -247.595E+03    -230.362E-03     454.363E-03    -224.001E-03     38.1676E-03    -230.675E-03     454.432E-03    -223.851E-03     36.1530E-03
            2259     6.47898E-03     15.9542E-03    -57.5960E+06    -26.2863E+06    -976.529E+03     360.422E+03    -228.748E-03     452.071E-03    -223.323E-03     31.6242E-03    -229.036E-03     452.064E-03    -223.206E-03     29.9808E-03
            2260     5.76374E-03     15.8751E-03    -65.7929E+06    -51.0928E+06    -17.9715E+06    -1.02420E+06    -226.924E-03     449.604E-03    -222.680E-03     26.4035E-03    -227.176E-03     449.493E-03    -222.601E-03     25.0464E-03
            2261     5.04483E-03     15.8073E-03    -69.7033E+06    -78.2884E+06    -29.1372E+06    -3.08938E+06    -225.409E-03     447.533E-03    -222.125E-03     22.3365E-03    -225.619E-03     447.303E-03    -222.056E-03     21.0940E-03
            2262     4.32679E-03     15.7511E-03    -73.2650E+06    -100.310E+06    -38.9857E+06    -1.25225E+06    -224.092E-03     445.720E-03    -221.628E-03     18.8875E-03    -224.263E-03     445.388E-03    -221.571E-03     17.9347E-03
            2263     3.60625E-03     15.7006E-03    -78.6306E+06    -114.795E+06    -50.1085E+06     988.978E+03    -223.063E-03     444.226E-03    -221.163E-03     15.3556E-03    -223.204E-03     443.826E-03    -221.133E-03     14.6852E-03
            2264     2.88660E-03     15.6616E-03    -84.8918E+06    -127.906E+06    -62.5024E+06     1.58831E+06    -222.296E-03     442.996E-03    -220.700E-03     11.6743E-03    -222.412E-03     442.538E-03    -220.704E-03     11.1660E-03
            2265     2.16599E-03     15.6291E-03    -87.8795E+06    -140.435E+06    -74.1841E+06     2.03950E+06    -221.329E-03     441.586E-03    -220.257E-03     8.20743E-03    -221.398E-03     441.065E-03    -220.297E-03     7.87519E-03
            2266     1.44431E-03     15.6064E-03    -90.5524E+06    -147.970E+06    -81.8534E+06     556.803E+03    -220.412E-03     440.346E-03    -219.934E-03     4.89223E-03    -220.413E-03     439.754E-03    -219.998E-03     4.62624E-03
            2267     721.556E-06     15.5914E-03    -98.0613E+06    -160.473E+06    -93.5695E+06     1.04840E+06    -220.012E-03     439.721E-03    -219.710E-03     2.51783E-03    -219.963E-03     439.082E-03    -219.803E-03     2.35536E-03
            2268     13.6399E-03     15.5495E-03    -4.15662E+06     45.2829E+06     70.1483E+06    -1.56278E+06    -227.949E-03     454.443E-03    -226.494E-03     76.1947E-03    -228.413E-03     454.850E-03    -226.203E-03     72.0712E-03
            2269     12.9193E-03     15.4339E-03    -11.7838E+06     38.8061E+06     66.9228E+06    -3.37055E+06    -230.104E-03     456.543E-03    -226.439E-03     80.8704E-03    -230.677E-03     457.018E-03    -226.144E-03     75.9164E-03
            2270     12.2062E-03     15.3193E-03    -13.9063E+06     35.3158E+06     69.0723E+06     3.91834E+06    -232.751E-03     458.998E-03    -226.247E-03     76.8701E-03    -233.298E-03     459.421E-03    -225.932E-03     72.3935E-03
            2271     11.4936E-03     15.1891E-03    -10.0130E+06     39.6593E+06     72.6280E+06     4.21345E+06    -233.069E-03     458.977E-03    -225.908E-03     71.2851E-03    -233.551E-03     459.354E-03    -225.588E-03     67.3443E-03
            2272     10.7755E-03     15.0681E-03    -19.4701E+06     29.7751E+06     58.1423E+06    -2.83266E+06    -233.063E-03     458.500E-03    -225.438E-03     63.8400E-03    -233.543E-03     458.849E-03    -225.162E-03     59.6117E-03
            2273     10.0614E-03     14.9530E-03    -30.8016E+06     18.1191E+06     43.3366E+06    -2.64822E+06    -234.352E-03     459.185E-03    -224.833E-03     57.1372E-03    -234.805E-03     459.467E-03    -224.597E-03     53.2792E-03
            2274     9.35252E-03     14.8379E-03    -33.5442E+06     14.0154E+06     37.5981E+06    -1.99490E+06    -234.563E-03     458.647E-03    -224.084E-03     50.7498E-03    -234.958E-03     458.864E-03    -223.868E-03     47.5650E-03
            2275     8.63978E-03     14.7324E-03    -39.9360E+06     3.05859E+06     26.4714E+06    -5.82826E+06    -233.190E-03     456.422E-03    -223.232E-03     43.9764E-03    -233.558E-03     456.583E-03    -223.046E-03     40.9277E-03
            2276     7.92602E-03     14.6368E-03    -46.1764E+06    -5.97456E+06     19.9959E+06    -5.81517E+06    -232.232E-03     454.569E-03    -222.337E-03     38.0008E-03    -232.580E-03     454.674E-03    -222.161E-03     35.2596E-03
            2277     7.21382E-03     14.5474E-03    -51.3501E+06    -13.1203E+06     12.2091E+06    -2.09123E+06    -230.889E-03     452.242E-03    -221.353E-03     32.2359E-03    -231.214E-03     452.303E-03    -221.199E-03     29.9320E-03
            2278     6.49958E-03     14.4659E-03    -56.8849E+06    -27.4505E+06    -1.05161E+06    -598.576E+03    -228.317E-03     448.667E-03    -220.350E-03     27.2700E-03    -228.605E-03     448.659E-03    -220.233E-03     25.4002E-03
            2279     5.78177E-03     14.3958E-03    -61.2703E+06    -48.6279E+06    -15.5477E+06     1.44858E+06    -225.569E-03     445.007E-03    -219.438E-03     22.8102E-03    -225.805E-03     444.898E-03    -219.356E-03     21.4191E-03
            2280     5.06260E-03     14.3309E-03    -62.6186E+06    -75.1530E+06    -27.1208E+06     220.613E+03    -223.238E-03     441.891E-03    -218.653E-03     17.6307E-03    -223.416E-03     441.659E-03    -218.589E-03     16.4075E-03
            2281     4.34120E-03     14.2754E-03    -72.0207E+06    -101.402E+06    -41.7235E+06    -2.03274E+06    -221.563E-03     439.502E-03    -217.940E-03     13.1487E-03    -221.717E-03     439.162E-03    -217.897E-03     12.0654E-03
            2282     3.62052E-03     14.2291E-03    -79.2857E+06    -116.276E+06    -54.9887E+06    -887.774E+03    -220.120E-03     437.371E-03    -217.251E-03     9.65542E-03    -220.250E-03     436.967E-03    -217.243E-03     8.79928E-03
            2283     2.89780E-03     14.1893E-03    -81.4027E+06    -128.156E+06    -62.6916E+06    -1.98335E+06    -218.741E-03     435.363E-03    -216.622E-03     6.92533E-03    -218.834E-03     434.894E-03    -216.632E-03     6.22030E-03
            2284     2.17510E-03     14.1610E-03    -88.0735E+06    -139.617E+06    -72.1582E+06    -1.29518E+06    -217.502E-03     433.547E-03    -216.045E-03     4.99014E-03    -217.580E-03     433.028E-03    -216.076E-03     4.44947E-03
            2285     1.45119E-03     14.1399E-03    -92.0528E+06    -148.810E+06    -82.1152E+06     155.197E+03    -216.386E-03     431.922E-03    -215.537E-03     3.35456E-03    -216.417E-03     431.351E-03    -215.598E-03     3.00044E-03
            2286     726.774E-06     14.1279E-03    -95.3110E+06    -159.554E+06    -91.4029E+06    -444.458E+03    -215.497E-03     430.719E-03    -215.222E-03     2.12581E-03    -215.447E-03     430.103E-03    -215.309E-03     1.93886E-03
            2287     13.6371E-03     14.0661E-03    -3.83063E+06     44.2838E+06     66.9771E+06     671.165E+03    -229.832E-03     456.206E-03    -226.375E-03     76.8550E-03    -230.288E-03     456.612E-03    -226.098E-03     72.7426E-03
            2288     12.9211E-03     13.9373E-03    -9.49896E+06     42.5432E+06     69.0805E+06     1.69907E+06    -234.235E-03     460.394E-03    -226.159E-03     78.5577E-03    -234.783E-03     460.859E-03    -225.862E-03     73.8200E-03
            2289     12.2108E-03     13.8098E-03    -14.6677E+06     37.4646E+06     70.1667E+06    -2.32580E+06    -237.711E-03     463.385E-03    -225.674E-03     74.5986E-03    -238.288E-03     463.840E-03    -225.357E-03     69.5621E-03
            2290     11.5015E-03     13.6921E-03    -18.8115E+06     32.7572E+06     68.5241E+06    -2.10647E+06    -238.673E-03     463.630E-03    -224.957E-03     69.4516E-03    -239.225E-03     464.033E-03    -224.635E-03     64.6956E-03
            2291     10.7939E-03     13.5706E-03    -17.5937E+06     32.9012E+06     66.1078E+06     2.09691E+06    -238.786E-03     462.852E-03    -224.066E-03     60.7338E-03    -239.267E-03     463.197E-03    -223.758E-03     56.4959E-03
            2292     10.0857E-03     13.4537E-03    -21.6886E+06     27.2757E+06     55.2395E+06     1.32244E+06    -238.160E-03     461.170E-03    -223.010E-03     51.8746E-03    -238.586E-03     461.457E-03    -222.742E-03     48.0264E-03
            2293     9.37359E-03     13.3411E-03    -30.4924E+06     16.4859E+06     41.0609E+06    -3.26801E+06    -236.004E-03     457.879E-03    -221.875E-03     44.5365E-03    -236.395E-03     458.102E-03    -221.650E-03     41.0125E-03
            2294     8.66191E-03     13.2419E-03    -37.9686E+06     4.01575E+06     26.5052E+06    -1.79376E+06    -234.059E-03     454.763E-03    -220.704E-03     37.4507E-03    -234.411E-03     454.919E-03    -220.522E-03     34.3098E-03
            2295     7.94974E-03     13.1465E-03    -47.1188E+06    -10.1888E+06     9.87120E+06    -1.86154E+06    -232.406E-03     451.874E-03    -219.468E-03     31.3283E-03    -232.727E-03     451.963E-03    -219.335E-03     28.6132E-03
            2296     7.23580E-03     13.0601E-03    -51.6825E+06    -21.9807E+06     1.71169E+06    -7.45840E+06    -229.842E-03     448.068E-03    -218.227E-03     25.4464E-03    -230.140E-03     448.100E-03    -218.111E-03     22.7915E-03
            2297     6.51879E-03     12.9885E-03    -53.9429E+06    -31.0369E+06    -3.70850E+06    -4.85384E+06    -227.084E-03     444.093E-03    -217.009E-03     20.3475E-03    -227.349E-03     444.068E-03    -216.904E-03     18.0768E-03
            2298     5.80151E-03     12.9190E-03    -55.5489E+06    -45.0489E+06    -9.73591E+06    -1.84063E+06    -224.497E-03     440.320E-03    -215.823E-03     15.6089E-03    -224.718E-03     440.212E-03    -215.726E-03     13.7974E-03
            2299     5.08296E-03     12.8616E-03    -65.0492E+06    -72.9596E+06    -26.4822E+06     2.13837E+06    -221.760E-03     436.423E-03    -214.662E-03     11.2505E-03    -221.953E-03     436.202E-03    -214.595E-03     9.78981E-03
            2300     4.36224E-03     12.8102E-03    -73.5011E+06    -98.6052E+06    -44.4984E+06     1.29698E+06    -219.134E-03     432.701E-03    -213.567E-03     7.92181E-03    -219.294E-03     432.378E-03    -213.540E-03     6.70519E-03
            2301     3.63867E-03     12.7666E-03    -77.8391E+06    -115.106E+06    -53.9587E+06    -1.75303E+06    -216.546E-03     429.158E-03    -212.611E-03     5.23609E-03    -216.675E-03     428.757E-03    -212.601E-03     4.17257E-03
            2302     2.91361E-03     12.7329E-03    -82.0944E+06    -128.532E+06    -63.8432E+06    -160.011E+03    -214.133E-03     425.968E-03    -211.834E-03     3.57096E-03    -214.234E-03     425.506E-03    -211.848E-03     2.77772E-03
            2303     2.18569E-03     12.7053E-03    -85.6808E+06    -141.002E+06    -74.9367E+06    -1.60672E+06    -212.429E-03     423.697E-03    -211.268E-03     2.48120E-03    -212.493E-03     423.176E-03    -211.314E-03     1.85251E-03
            2304     1.45743E-03     12.6878E-03    -93.4500E+06    -151.902E+06    -85.7961E+06    -2.47763E+06    -211.450E-03     422.332E-03    -210.882E-03     1.85870E-03    -211.490E-03     421.761E-03    -210.956E-03     1.41138E-03
            2305     728.098E-06     12.6761E-03    -94.8192E+06    -162.034E+06    -91.8150E+06    -412.483E+03    -210.777E-03     421.577E-03    -210.799E-03     1.21254E-03    -210.722E-03     420.970E-03    -210.886E-03     1.00916E-03
            2306     13.6417E-03     12.5629E-03    -4.16166E+06     47.4114E+06     74.1063E+06     705.109E+03    -237.038E-03     463.207E-03    -226.169E-03     75.3279E-03    -237.531E-03     463.639E-03    -225.861E-03     70.8524E-03
            2307     12.9339E-03     12.4375E-03    -4.35151E+06     48.0358E+06     74.7644E+06     4.43522E+06    -239.140E-03     464.721E-03    -225.580E-03     76.0476E-03    -239.686E-03     465.204E-03    -225.270E-03     71.1391E-03
            2308     12.2219E-03     12.3062E-03    -10.7257E+06     40.2952E+06     67.7085E+06    -2.31932E+06    -240.898E-03     465.676E-03    -224.778E-03     70.3367E-03    -241.450E-03     466.136E-03    -224.482E-03     65.1679E-03
            2309     11.5141E-03     12.1835E-03    -23.0889E+06     28.4138E+06     59.5775E+06    -8.00460E+06    -243.216E-03     466.949E-03    -223.734E-03     63.4460E-03    -243.776E-03     467.356E-03    -223.443E-03     58.1619E-03
            2310     10.8087E-03     12.0619E-03    -27.2007E+06     24.9954E+06     60.2681E+06    -3.52550E+06    -243.626E-03     466.085E-03    -222.459E-03     56.4801E-03    -244.141E-03     466.417E-03    -222.154E-03     51.8418E-03
            2311     10.1035E-03     11.9502E-03    -26.4787E+06     24.5146E+06     57.6438E+06     344.484E+03    -241.672E-03     462.680E-03    -221.008E-03     48.4075E-03    -242.128E-03     462.963E-03    -220.717E-03     44.2474E-03
            2312     9.39720E-03     11.8482E-03    -29.1775E+06     15.7512E+06     45.2144E+06     111.484E+03    -238.962E-03     458.420E-03    -219.458E-03     39.8666E-03    -239.355E-03     458.636E-03    -219.213E-03     36.0454E-03
            2313     8.68707E-03     11.7502E-03    -34.4450E+06     4.98380E+06     32.1462E+06     1.56143E+06    -236.052E-03     453.921E-03    -217.869E-03     31.7210E-03    -236.393E-03     454.065E-03    -217.666E-03     28.4038E-03
            2314     7.97595E-03     11.6608E-03    -37.2819E+06    -1.66862E+06     17.5703E+06     1.94117E+06    -232.478E-03     448.735E-03    -216.257E-03     24.4593E-03    -232.772E-03     448.841E-03    -216.112E-03     21.4892E-03
            2315     7.26119E-03     11.5834E-03    -45.7530E+06    -20.4952E+06    -1.56403E+06    -3.21590E+06    -229.003E-03     443.678E-03    -214.675E-03     17.9916E-03    -229.263E-03     443.708E-03    -214.587E-03     15.1251E-03
            2316     6.54603E-03     11.5133E-03    -54.2015E+06    -35.5022E+06    -9.12309E+06    -4.88100E+06    -225.872E-03     439.037E-03    -213.165E-03     12.8807E-03    -226.117E-03     438.991E-03    -213.081E-03     10.3213E-03
            2317     5.82792E-03     11.4526E-03    -60.3443E+06    -50.7690E+06    -15.9360E+06    -2.38145E+06    -222.434E-03     434.126E-03    -211.693E-03     9.23384E-03    -222.658E-03     434.002E-03    -211.611E-03     7.13500E-03
            2318     5.10584E-03     11.4002E-03    -71.4967E+06    -76.2740E+06    -30.8000E+06     492.083E+03    -219.123E-03     429.396E-03    -210.273E-03     6.37110E-03    -219.335E-03     429.172E-03    -210.213E-03     4.64396E-03
            2319     4.38225E-03     11.3548E-03    -74.2700E+06    -92.7515E+06    -40.8141E+06     3.25375E+06    -215.677E-03     424.645E-03    -208.968E-03     4.33680E-03    -215.853E-03     424.346E-03    -208.930E-03     2.94208E-03
            2320     3.65617E-03     11.3184E-03    -76.2425E+06    -111.556E+06    -54.8427E+06     1.77545E+06    -212.420E-03     420.249E-03    -207.829E-03     2.88783E-03    -212.547E-03     419.868E-03    -207.831E-03     1.72359E-03
            2321     2.92705E-03     11.2890E-03    -81.7671E+06    -130.065E+06    -67.9353E+06     43.7357E+03    -209.855E-03     416.762E-03    -206.907E-03     1.57621E-03    -209.952E-03     416.304E-03    -206.939E-03     652.860E-06
            2322     2.19704E-03     11.2661E-03    -85.0608E+06    -141.630E+06    -76.0091E+06    -565.131E+03    -207.785E-03     413.993E-03    -206.208E-03     349.232E-06    -207.849E-03     413.475E-03    -206.259E-03    -356.926E-06
            2323     1.46493E-03     11.2494E-03    -91.4454E+06    -152.334E+06    -85.8448E+06    -606.204E+03    -206.450E-03     412.162E-03    -205.712E-03    -393.835E-06    -206.485E-03     411.589E-03    -205.787E-03    -901.003E-06
            2324     733.280E-06     11.2386E-03    -97.0451E+06    -167.284E+06    -94.4971E+06    -1.58389E+06    -205.679E-03     411.146E-03    -205.467E-03    -513.528E-06    -205.619E-03     410.538E-03    -205.556E-03    -830.993E-06
            2325     13.6483E-03     11.0568E-03    -6.77499E+06     46.3132E+06     72.6896E+06    -2.11697E+06    -243.088E-03     468.928E-03    -225.840E-03     77.3457E-03    -243.608E-03     469.378E-03    -225.534E-03     72.6425E-03
            2326     12.9397E-03     10.9260E-03    -9.21308E+06     43.8590E+06     70.4093E+06     478.740E+03    -246.201E-03     471.072E-03    -224.871E-03     77.2908E-03    -246.793E-03     471.583E-03    -224.569E-03     71.8705E-03
            2327     12.2370E-03     10.8002E-03    -8.16358E+06     44.5432E+06     72.6586E+06     1.14532E+06    -247.578E-03     471.228E-03    -223.650E-03     67.8986E-03    -248.144E-03     471.714E-03    -223.339E-03     62.4071E-03
            2328     11.5340E-03     10.6698E-03    -13.8329E+06     37.6822E+06     65.8113E+06    -1.99103E+06    -247.166E-03     469.351E-03    -222.186E-03     58.0470E-03    -247.692E-03     469.772E-03    -221.891E-03     52.6973E-03
            2329     10.8310E-03     10.5555E-03    -23.6646E+06     25.9040E+06     54.1094E+06    -5.44756E+06    -245.844E-03     466.388E-03    -220.544E-03     49.4804E-03    -246.337E-03     466.733E-03    -220.277E-03     44.3622E-03
            2330     10.1259E-03     10.4460E-03    -30.2304E+06     18.2558E+06     45.3156E+06    -5.65198E+06    -244.195E-03     462.952E-03    -218.757E-03     41.0889E-03    -244.647E-03     463.231E-03    -218.513E-03     36.3533E-03
            2331     9.42013E-03     10.3495E-03    -34.7590E+06     9.22355E+06     37.0627E+06    -3.20501E+06    -241.919E-03     458.750E-03    -216.832E-03     32.9529E-03    -242.319E-03     458.954E-03    -216.609E-03     28.6856E-03
            2332     8.71473E-03     10.2593E-03    -36.1000E+06     3.07864E+06     30.9157E+06    -1.19403E+06    -237.877E-03     452.715E-03    -214.838E-03     25.3586E-03    -238.226E-03     452.858E-03    -214.635E-03     21.5623E-03
            2333     8.00369E-03     10.1813E-03    -38.6192E+06    -2.24957E+06     22.0427E+06     666.861E+03    -232.841E-03     445.711E-03    -212.871E-03     18.4256E-03    -233.149E-03     445.812E-03    -212.701E-03     15.0966E-03
            2334     7.29029E-03     10.1095E-03    -43.2366E+06    -12.1242E+06     8.05522E+06     6.69782E+06    -228.202E-03     439.176E-03    -210.974E-03     13.1007E-03    -228.469E-03     439.223E-03    -210.854E-03     10.3347E-03
            2335     6.57274E-03     10.0480E-03    -53.0953E+06    -32.3235E+06    -10.1615E+06     5.01559E+06    -223.889E-03     433.054E-03    -209.165E-03     8.99397E-03    -224.128E-03     433.019E-03    -209.092E-03     6.51551E-03
            2336     5.85149E-03     9.99602E-03    -65.8054E+06    -56.8329E+06    -25.1268E+06     857.268E+03    -219.752E-03     427.227E-03    -207.474E-03     5.98067E-03    -219.982E-03     427.094E-03    -207.422E-03     3.77317E-03
            2337     5.12914E-03     9.94931E-03    -68.9409E+06    -74.4283E+06    -31.8332E+06     354.729E+03    -215.515E-03     421.450E-03    -205.935E-03     3.66010E-03    -215.714E-03     421.232E-03    -205.886E-03     1.73896E-03
            2338     4.40264E-03     9.91307E-03    -72.8921E+06    -92.6267E+06    -41.5432E+06     712.131E+03    -211.592E-03     416.160E-03    -204.568E-03     2.18010E-03    -211.759E-03     415.859E-03    -204.536E-03     544.711E-06
            2339     3.67258E-03     9.88265E-03    -78.7355E+06    -109.698E+06    -55.0852E+06     1.25282E+06    -208.432E-03     411.802E-03    -203.370E-03     1.25575E-03    -208.573E-03     411.433E-03    -203.372E-03    -53.3439E-06
            2340     2.94173E-03     9.85740E-03    -82.2024E+06    -128.818E+06    -66.7540E+06     380.785E+03    -205.808E-03     408.156E-03    -202.347E-03     460.591E-06    -205.903E-03     407.696E-03    -202.375E-03    -593.363E-06
            2341     2.20833E-03     9.83961E-03    -88.9553E+06    -144.324E+06    -76.2795E+06     1.26260E+06    -203.670E-03     405.164E-03    -201.495E-03     257.056E-06    -203.738E-03     404.627E-03    -201.538E-03    -515.738E-06
            2342     1.47401E-03     9.82562E-03    -92.5246E+06    -150.163E+06    -82.1337E+06     2.83237E+06    -201.998E-03     402.786E-03    -200.789E-03     147.362E-06    -202.053E-03     402.222E-03    -200.847E-03    -332.535E-06
            2343     737.008E-06     9.81808E-03    -95.4094E+06    -164.379E+06    -90.6677E+06     1.61424E+06    -200.767E-03     401.048E-03    -200.281E-03    -16.8955E-06    -200.702E-03     400.470E-03    -200.358E-03    -282.965E-06
            2344     13.6480E-03     9.53963E-03    -4.54766E+06     48.3500E+06     70.5232E+06    -642.188E+03    -249.547E-03     474.981E-03    -225.434E-03     76.9401E-03    -250.062E-03     475.447E-03    -225.144E-03     72.1048E-03
            2345     12.9498E-03     9.40551E-03    -9.89582E+06     44.7835E+06     71.0615E+06    -4.72237E+06    -253.407E-03     477.488E-03    -224.082E-03     74.2335E-03    -254.027E-03     478.027E-03    -223.777E-03     68.2159E-03
            2346     12.2529E-03     9.27487E-03    -13.1757E+06     41.3736E+06     71.4730E+06    -5.05907E+06    -254.044E-03     476.456E-03    -222.412E-03     65.2600E-03    -254.656E-03     476.962E-03    -222.095E-03     59.1059E-03
            2347     11.5549E-03     9.15870E-03    -12.7350E+06     39.7106E+06     69.7737E+06    -193.042E+03    -252.344E-03     472.861E-03    -220.517E-03     55.2961E-03    -252.886E-03     473.298E-03    -220.208E-03     49.5766E-03
            2348     10.8529E-03     9.04490E-03    -17.0889E+06     32.2712E+06     57.4172E+06    -173.335E+03    -249.767E-03     468.212E-03    -218.445E-03     44.4541E-03    -250.237E-03     468.571E-03    -218.180E-03     39.1223E-03
            2349     10.1516E-03     8.94387E-03    -25.2023E+06     21.5882E+06     42.6258E+06    -2.10168E+06    -246.688E-03     462.940E-03    -216.252E-03     34.1710E-03    -247.102E-03     463.219E-03    -216.033E-03     29.2887E-03
            2350     9.44850E-03     8.85055E-03    -32.9920E+06     6.65872E+06     29.9305E+06    -3.60855E+06    -242.694E-03     456.688E-03    -213.994E-03     25.7797E-03    -243.061E-03     456.875E-03    -213.806E-03     21.3276E-03
            2351     8.74101E-03     8.77183E-03    -39.4885E+06    -4.19112E+06     20.4741E+06    -4.62322E+06    -237.859E-03     449.588E-03    -211.729E-03     19.1626E-03    -238.198E-03     449.713E-03    -211.563E-03     15.0185E-03
            2352     8.03132E-03     8.70419E-03    -46.0024E+06    -9.91895E+06     14.7868E+06    -414.751E+03    -232.360E-03     441.890E-03    -209.530E-03     13.9587E-03    -232.684E-03     441.974E-03    -209.375E-03     10.3913E-03
            2353     7.31635E-03     8.64379E-03    -51.3935E+06    -17.4733E+06     7.53454E+06     6.20099E+06    -226.593E-03     434.040E-03    -207.447E-03     9.90675E-03    -226.894E-03     434.076E-03    -207.309E-03     7.02794E-03
            2354     6.59716E-03     8.59248E-03    -55.8298E+06    -26.8228E+06    -5.00278E+06     8.43507E+06    -221.256E-03     426.753E-03    -205.496E-03     6.66574E-03    -221.528E-03     426.746E-03    -205.402E-03     4.18263E-03
            2355     5.87608E-03     8.54693E-03    -61.9580E+06    -48.1211E+06    -19.7325E+06     4.61346E+06    -216.215E-03     419.949E-03    -203.734E-03     4.81078E-03    -216.452E-03     419.852E-03    -203.673E-03     2.54663E-03
            2356     5.14909E-03     8.51213E-03    -66.9457E+06    -73.0483E+06    -31.2653E+06     1.25802E+06    -211.561E-03     413.765E-03    -202.204E-03     3.91953E-03    -211.757E-03     413.555E-03    -202.157E-03     1.91814E-03
            2357     4.41876E-03     8.48229E-03    -71.9183E+06    -92.2143E+06    -41.7886E+06     380.051E+03    -207.826E-03     408.704E-03    -200.879E-03     3.26193E-03    -207.991E-03     408.409E-03    -200.850E-03     1.61147E-03
            2358     3.68761E-03     8.45742E-03    -79.0850E+06    -110.483E+06    -51.8513E+06     1.09366E+06    -204.604E-03     404.350E-03    -199.746E-03     2.74034E-03    -204.755E-03     403.978E-03    -199.730E-03     1.44218E-03
            2359     2.95243E-03     8.43909E-03    -86.6003E+06    -129.852E+06    -63.9190E+06     2.80497E+06    -201.903E-03     400.706E-03    -198.803E-03     2.47416E-03    -202.022E-03     400.244E-03    -198.809E-03     1.48319E-03
            2360     2.21590E-03     8.42434E-03    -89.1162E+06    -141.851E+06    -74.3412E+06     3.13967E+06    -199.893E-03     397.937E-03    -198.044E-03     2.18282E-03    -199.966E-03     397.406E-03    -198.081E-03     1.47399E-03
            2361     1.47760E-03     8.41463E-03    -90.6259E+06    -146.894E+06    -78.8479E+06     792.209E+03    -198.336E-03     395.831E-03    -197.495E-03     1.85669E-03    -198.402E-03     395.286E-03    -197.545E-03     1.35685E-03
            2362     739.730E-06     8.40870E-03    -93.4339E+06    -159.685E+06    -87.1522E+06     1.11319E+06    -197.525E-03     394.659E-03    -197.134E-03     1.33444E-03    -197.451E-03     394.111E-03    -197.202E-03     1.06343E-03
            2363     13.6615E-03     8.01263E-03    -2.63464E+06     52.9378E+06     74.5468E+06    -104.749E+03    -258.409E-03     483.361E-03    -224.951E-03     77.2164E-03    -258.964E-03     483.878E-03    -224.652E-03     71.8499E-03
            2364     12.9647E-03     7.87503E-03    -7.29168E+06     48.0410E+06     71.4868E+06    -3.76771E+06    -259.190E-03     482.349E-03    -223.159E-03     73.1121E-03    -259.829E-03     482.926E-03    -222.861E-03     66.7211E-03
            2365     12.2676E-03     7.75111E-03    -13.0935E+06     40.7243E+06     67.2557E+06    -4.37533E+06    -259.060E-03     480.170E-03    -221.110E-03     62.3577E-03    -259.659E-03     480.673E-03    -220.814E-03     56.0964E-03
            2366     11.5717E-03     7.63406E-03    -18.4288E+06     34.5606E+06     63.8750E+06    -4.32447E+06    -258.207E-03     477.011E-03    -218.804E-03     50.0598E-03    -258.758E-03     477.435E-03    -218.508E-03     43.9481E-03
            2367     10.8782E-03     7.53237E-03    -24.2125E+06     27.0842E+06     54.9796E+06    -1.18807E+06    -254.781E-03     471.056E-03    -216.275E-03     37.6273E-03    -255.264E-03     471.392E-03    -216.004E-03     31.9804E-03
            2368     10.1793E-03     7.43784E-03    -28.4658E+06     19.7517E+06     42.1573E+06     906.235E+03    -248.837E-03     462.510E-03    -213.673E-03     27.1725E-03    -249.247E-03     462.769E-03    -213.449E-03     22.1868E-03
            2369     9.47564E-03     7.35896E-03    -30.2509E+06     11.0347E+06     31.8406E+06     1.73129E+06    -242.194E-03     453.346E-03    -211.152E-03     19.4233E-03    -242.537E-03     453.530E-03    -210.965E-03     15.0593E-03
            2370     8.76791E-03     7.28987E-03    -38.7096E+06    -2.76745E+06     18.8221E+06     636.194E+03    -235.855E-03     444.605E-03    -208.750E-03     13.6876E-03    -236.171E-03     444.720E-03    -208.596E-03     9.70045E-03
            2371     8.05554E-03     7.23284E-03    -51.0410E+06    -15.4549E+06     8.54159E+06     135.780E+03    -229.772E-03     436.266E-03    -206.494E-03     10.1824E-03    -230.095E-03     436.329E-03    -206.355E-03     6.58855E-03
            2372     7.33943E-03     7.18611E-03    -58.8468E+06    -24.0757E+06     3.40518E+06     894.830E+03    -223.633E-03     428.049E-03    -204.416E-03     8.48818E-03    -223.956E-03     428.068E-03    -204.278E-03     5.45036E-03
            2373     6.61927E-03     7.14370E-03    -58.4007E+06    -26.3532E+06     162.721E+03     3.00529E+06    -217.442E-03     419.997E-03    -202.555E-03     7.72705E-03    -217.736E-03     419.990E-03    -202.431E-03     5.22624E-03
            2374     5.89202E-03     7.11159E-03    -61.2773E+06     -40.456E+06    -11.5956E+06     4.96227E+06    -212.080E-03     413.021E-03    -200.941E-03     7.11246E-03    -212.338E-03     412.951E-03    -200.851E-03     4.99124E-03
            2375     5.16238E-03     7.08394E-03    -70.8869E+06    -70.1064E+06    -28.4724E+06     3.04876E+06    -207.952E-03     407.519E-03    -199.567E-03     6.61227E-03    -208.178E-03     407.327E-03    -199.505E-03     4.81167E-03
            2376     4.43101E-03     7.06058E-03    -75.7704E+06    -90.8774E+06    -39.2704E+06     941.308E+03    -204.380E-03     402.787E-03    -198.407E-03     6.08690E-03    -204.572E-03     402.501E-03    -198.361E-03     4.59332E-03
            2377     3.69495E-03     7.04313E-03    -79.5716E+06    -110.507E+06    -50.6852E+06     515.832E+03    -201.366E-03     398.818E-03    -197.452E-03     5.53009E-03    -201.520E-03     398.445E-03    -197.430E-03     4.34577E-03
            2378     2.95831E-03     7.02876E-03    -84.1821E+06    -129.739E+06    -61.1707E+06    -334.794E+03    -199.151E-03     395.852E-03    -196.702E-03     4.83218E-03    -199.267E-03     395.389E-03    -196.697E-03     3.92406E-03
            2379     2.22005E-03     7.01794E-03    -87.3559E+06    -138.100E+06    -70.0633E+06    -2.41960E+06    -197.431E-03     393.553E-03    -196.123E-03     3.76214E-03    -197.517E-03     393.044E-03    -196.146E-03     3.06395E-03
            2380     1.48081E-03     7.01086E-03    -90.6587E+06    -146.298E+06    -79.0284E+06    -3.11079E+06    -196.266E-03     391.989E-03    -195.723E-03     2.57867E-03    -196.342E-03     391.459E-03    -195.775E-03     2.07889E-03
            2381     739.469E-06     7.00616E-03    -96.4999E+06    -163.896E+06    -90.1624E+06     -2.7465E+06    -195.784E-03     391.276E-03    -195.493E-03     1.62266E-03    -195.699E-03     390.717E-03    -195.566E-03     1.33691E-03
            2382     13.6638E-03     6.46769E-03    -1.11976E+06     55.2761E+06     74.2806E+06    -1.28815E+06    -267.089E-03     491.692E-03    -224.602E-03     81.9385E-03    -267.682E-03     492.261E-03    -224.310E-03     76.1292E-03
            2383     12.9739E-03     6.34324E-03    -7.01881E+06     48.8865E+06     69.1932E+06     196.853E+03    -267.960E-03     490.290E-03    -222.330E-03     73.9899E-03    -268.619E-03     490.898E-03    -222.045E-03     67.3319E-03
            2384     12.2841E-03     6.21566E-03    -11.5050E+06     42.7805E+06     66.4194E+06     2.09680E+06    -267.189E-03     486.948E-03    -219.759E-03     57.1023E-03    -267.758E-03     487.438E-03    -219.473E-03     50.9009E-03
            2385     11.5950E-03     6.10727E-03    -17.2687E+06     34.8214E+06     61.6316E+06    -1.16573E+06    -263.528E-03     480.480E-03    -216.952E-03     40.9224E-03    -264.028E-03     480.866E-03    -216.670E-03     34.9098E-03
            2386     10.9017E-03     6.00956E-03    -25.8512E+06     24.2626E+06     52.4590E+06    -2.66979E+06    -257.168E-03     471.221E-03    -214.053E-03     28.7853E-03    -257.618E-03     471.516E-03    -213.789E-03     23.0970E-03
            2387     10.2054E-03     5.93730E-03    -32.7979E+06     15.7475E+06     41.5713E+06    -495.510E+03    -249.158E-03     460.374E-03    -211.217E-03     20.3584E-03    -249.561E-03     460.600E-03    -210.984E-03     15.3168E-03
            2388     9.50186E-03     5.86967E-03    -37.5497E+06     8.83552E+06     33.2451E+06     2.77081E+06    -240.537E-03     449.117E-03    -208.580E-03     14.6415E-03    -240.893E-03     449.277E-03    -208.373E-03     10.4470E-03
            2389     8.79243E-03     5.81690E-03    -40.9737E+06    -145.915E+03     26.3733E+06     4.52562E+06    -232.282E-03     438.493E-03    -206.211E-03     11.1531E-03    -232.602E-03     438.592E-03    -206.019E-03     7.55482E-03
            2390     8.07675E-03     5.77210E-03    -48.0066E+06    -12.8883E+06     14.6535E+06     1.98676E+06    -225.101E-03     429.200E-03    -204.098E-03     10.0588E-03    -225.406E-03     429.246E-03    -203.937E-03     6.89023E-03
            2391     7.35645E-03     5.73574E-03    -52.8197E+06    -21.5102E+06     7.88471E+06    -1.47167E+06    -218.782E-03     421.043E-03    -202.262E-03     10.2357E-03    -219.078E-03     421.053E-03    -202.114E-03     7.47409E-03
            2392     6.63006E-03     5.70791E-03    -58.6201E+06    -30.7620E+06     2.45697E+06    -1.38816E+06    -213.262E-03     413.952E-03    -200.689E-03     10.3779E-03    -213.548E-03     413.913E-03    -200.548E-03     8.09118E-03
            2393     5.90166E-03     5.68334E-03    -65.1970E+06    -43.6473E+06    -6.92003E+06     766.340E+03    -208.747E-03     408.087E-03    -199.340E-03     9.87520E-03    -209.018E-03     407.992E-03    -199.217E-03     8.01250E-03
            2394     5.17018E-03     5.66262E-03    -68.3812E+06    -62.7681E+06    -19.7567E+06     1.24835E+06    -204.967E-03     403.161E-03    -198.193E-03     9.40115E-03    -205.196E-03     402.982E-03    -198.102E-03     7.90081E-03
            2395     4.43468E-03     5.64698E-03    -73.5092E+06    -89.2335E+06    -35.2344E+06    -1.92485E+06    -201.903E-03     399.154E-03    -197.252E-03     8.76342E-03    -202.081E-03     398.858E-03    -197.192E-03     7.50219E-03
            2396     3.69886E-03     5.63390E-03    -77.9008E+06    -111.366E+06    -47.7642E+06    -3.62019E+06    -199.622E-03     396.117E-03    -196.494E-03     7.76530E-03    -199.759E-03     395.720E-03    -196.459E-03     6.73085E-03
            2397     2.96064E-03     5.62316E-03    -80.7023E+06    -127.172E+06    -58.3198E+06    -4.18632E+06    -197.819E-03     393.705E-03    -195.886E-03     6.44930E-03    -197.922E-03     393.241E-03    -195.876E-03     5.64240E-03
            2398     2.22125E-03     5.61559E-03    -84.3332E+06    -138.851E+06    -69.2803E+06    -5.05151E+06    -196.537E-03     391.941E-03    -195.405E-03     4.88132E-03    -196.604E-03     391.420E-03    -195.427E-03     4.27486E-03
            2399     1.48099E-03     5.61008E-03    -89.3532E+06    -151.394E+06    -79.0715E+06    -4.65297E+06    -195.788E-03     390.772E-03    -194.983E-03     3.25078E-03    -195.844E-03     390.206E-03    -195.030E-03     2.84260E-03
            2400     742.128E-06     5.60612E-03    -94.9774E+06    -173.440E+06    -89.7528E+06    -3.11689E+06    -194.875E-03     389.716E-03    -194.841E-03     1.83182E-03    -194.754E-03     389.116E-03    -194.901E-03     1.58657E-03
            2401     13.6645E-03     4.91866E-03    -2.11324E+06     54.5561E+06     69.5830E+06    -2.11931E+06    -279.214E-03     503.784E-03    -224.570E-03     86.7265E-03    -279.820E-03     504.374E-03    -224.299E-03     80.7639E-03
            2402     12.9817E-03     4.78453E-03    -6.26801E+06     51.6006E+06     70.2295E+06     99.1198E+03    -282.068E-03     503.700E-03    -221.632E-03     70.7365E-03    -282.718E-03     504.308E-03    -221.346E-03     63.7771E-03
            2403     12.3031E-03     4.66894E-03    -13.0753E+06     42.9245E+06     65.2934E+06     2.10874E+06    -277.515E-03     495.841E-03    -218.326E-03     46.9090E-03    -278.048E-03     496.296E-03    -218.043E-03     40.4883E-03
            2404     11.6189E-03     4.57107E-03    -19.9338E+06     32.2053E+06     58.3936E+06     3.16441E+06    -267.119E-03     482.124E-03    -215.005E-03     29.4513E-03    -267.556E-03     482.439E-03    -214.731E-03     23.8858E-03
            2405     10.9275E-03     4.49725E-03    -23.1941E+06     25.8014E+06     54.4302E+06     2.58606E+06    -255.975E-03     467.892E-03    -211.917E-03     19.2694E-03    -256.355E-03     468.126E-03    -211.649E-03     14.3275E-03
            2406     10.2272E-03     4.43510E-03    -29.7598E+06     18.0741E+06     47.9283E+06     1.42548E+06    -245.697E-03     454.819E-03    -209.123E-03     14.4394E-03    -246.056E-03     455.000E-03    -208.866E-03     10.0012E-03
            2407     9.52224E-03     4.39009E-03    -39.1769E+06     6.85983E+06     37.6500E+06     1.25016E+06    -236.082E-03     442.726E-03    -206.643E-03     13.2741E-03    -236.426E-03     442.847E-03    -206.408E-03     9.60883E-03
            2408     8.80820E-03     4.35245E-03    -42.2454E+06    -1.78147E+06     30.1022E+06     2.12171E+06    -227.547E-03     432.053E-03    -204.505E-03     13.1191E-03    -227.859E-03     432.122E-03    -204.291E-03     10.1509E-03
            2409     8.08874E-03     4.32181E-03    -41.2018E+06    -6.79704E+06     23.7807E+06     1.73351E+06    -220.305E-03     422.996E-03    -202.691E-03     12.7551E-03    -220.583E-03     423.035E-03    -202.503E-03     10.3014E-03
            2410     7.36294E-03     4.29793E-03    -47.6921E+06    -17.2953E+06     12.3048E+06    -628.009E+03    -214.539E-03     415.698E-03    -201.159E-03     12.3542E-03    -214.807E-03     415.700E-03    -201.003E-03     10.2476E-03
            2411     6.63559E-03     4.27689E-03    -57.3661E+06    -32.7296E+06     55.5212E+03    -2.32521E+06    -210.117E-03     409.979E-03    -199.863E-03     11.8923E-03    -210.378E-03     409.922E-03    -199.732E-03     10.1053E-03
            2412     5.90465E-03     4.26035E-03    -60.3434E+06    -45.3153E+06    -7.93858E+06    -4.11889E+06    -206.291E-03     405.062E-03    -198.771E-03     11.6063E-03    -206.525E-03     404.945E-03    -198.658E-03     10.1346E-03
            2413     5.17036E-03     4.24720E-03    -60.8307E+06    -60.9717E+06    -18.7671E+06    -4.39437E+06    -203.175E-03     401.032E-03    -197.858E-03     10.8922E-03    -203.360E-03     400.841E-03    -197.775E-03     9.69976E-03
            2414     4.43529E-03     4.23578E-03    -65.2981E+06    -87.7336E+06    -34.5795E+06    -4.51101E+06    -200.911E-03     398.010E-03    -197.099E-03     9.69100E-03    -201.044E-03     397.700E-03    -197.050E-03     8.72033E-03
            2415     3.69775E-03     4.22622E-03    -70.6248E+06    -112.947E+06    -48.3459E+06    -5.01538E+06    -199.127E-03     395.595E-03    -196.469E-03     8.30369E-03    -199.221E-03     395.179E-03    -196.444E-03     7.50215E-03
            2416     2.95970E-03     4.21931E-03    -73.7260E+06    -128.616E+06    -59.1962E+06    -4.99776E+06    -197.673E-03     393.618E-03    -195.945E-03     6.68765E-03    -197.735E-03     393.135E-03    -195.948E-03     6.05509E-03
            2417     2.22069E-03     4.21343E-03    -76.3992E+06    -142.513E+06    -66.5200E+06    -4.30483E+06    -196.610E-03     392.141E-03    -195.531E-03     5.04480E-03    -196.633E-03     391.582E-03    -195.546E-03     4.59136E-03
            2418     1.48156E-03     4.20927E-03    -81.7516E+06    -157.774E+06    -70.7454E+06    -2.74012E+06    -195.828E-03     391.029E-03    -195.201E-03     3.54394E-03    -195.847E-03     390.405E-03    -195.208E-03     3.24869E-03
            2419     740.084E-06     4.20742E-03    -87.9752E+06    -181.825E+06    -82.4710E+06    -809.713E+03    -195.095E-03     390.258E-03    -195.163E-03     1.79851E-03    -194.914E-03     389.621E-03    -195.184E-03     1.61833E-03
            2420     13.6577E-03     3.33850E-03    -4.73489E+06     54.6864E+06     69.5223E+06    -54.6342E+03    -301.302E-03     525.978E-03    -224.676E-03     84.7773E-03    -301.900E-03     526.551E-03    -224.401E-03     78.8243E-03
            2421     12.9925E-03     3.19998E-03    -10.0819E+06     47.5793E+06     64.5285E+06     999.515E+03    -297.611E-03     518.345E-03    -220.734E-03     52.8837E-03    -298.146E-03     518.832E-03    -220.465E-03     46.5401E-03
            2422     12.3233E-03     3.10447E-03    -15.4466E+06     39.2933E+06     60.5357E+06    -467.036E+03    -283.011E-03     499.791E-03    -216.780E-03     28.6494E-03    -283.433E-03     500.128E-03    -216.512E-03     22.9395E-03
            2423     11.6422E-03     3.03921E-03    -20.5852E+06     31.5875E+06     58.7632E+06     2.49897E+06    -266.715E-03     479.947E-03    -213.232E-03     16.9330E-03    -267.069E-03     480.175E-03    -212.954E-03     12.2946E-03
            2424     10.9480E-03     2.98701E-03    -21.6367E+06     27.5722E+06     59.6037E+06     3.96449E+06    -251.369E-03     461.591E-03    -210.222E-03     12.9416E-03    -251.683E-03     461.757E-03    -209.932E-03     9.27019E-03
            2425     10.2452E-03     2.94884E-03    -24.1571E+06     21.8988E+06     53.1900E+06     3.09043E+06    -239.289E-03     446.990E-03    -207.700E-03     12.9562E-03    -239.581E-03     447.121E-03    -207.431E-03     9.93856E-03
            2426     9.53057E-03     2.92086E-03    -30.8648E+06     12.2200E+06     39.1027E+06     1.26971E+06    -230.485E-03     436.040E-03    -205.556E-03     13.0565E-03    -230.762E-03     436.139E-03    -205.333E-03     10.5375E-03
            2427     8.81313E-03     2.89625E-03    -37.3786E+06     91.7720E+03     26.7021E+06    -612.660E+03    -223.205E-03     426.941E-03    -203.735E-03     13.0119E-03    -223.466E-03     426.993E-03    -203.548E-03     10.9224E-03
            2428     8.09020E-03     2.87963E-03    -41.2827E+06    -8.99996E+06     17.6020E+06    -329.078E+03    -217.224E-03     419.419E-03    -202.195E-03     12.5991E-03    -217.467E-03     419.433E-03    -202.034E-03     10.8988E-03
            2429     7.36493E-03     2.86321E-03    -44.6325E+06    -15.6513E+06     4.12514E+06    -125.677E+03    -212.392E-03     413.253E-03    -200.861E-03     11.9379E-03    -212.614E-03     413.249E-03    -200.753E-03     10.5831E-03
            2430     6.63486E-03     2.85106E-03    -48.2224E+06    -26.3639E+06    -11.8381E+06    -3.09046E+06    -208.283E-03     408.012E-03    -199.730E-03     11.1036E-03    -208.476E-03     407.975E-03    -199.681E-03     9.94399E-03
            2431     5.90212E-03     2.84086E-03    -50.9701E+06    -43.2045E+06    -21.8337E+06    -6.78372E+06    -205.092E-03     403.915E-03    -198.823E-03     10.2564E-03    -205.254E-03     403.807E-03    -198.796E-03     9.23680E-03
            2432     5.16844E-03     2.83211E-03    -54.5199E+06    -65.6619E+06    -29.1249E+06    -6.90659E+06    -202.793E-03     400.872E-03    -198.079E-03     9.30616E-03    -202.921E-03     400.658E-03    -198.050E-03     8.46042E-03
            2433     4.43253E-03     2.82446E-03    -57.0045E+06    -89.6840E+06    -38.7690E+06    -4.77806E+06    -200.929E-03     398.355E-03    -197.425E-03     7.93615E-03    -201.015E-03     398.032E-03    -197.407E-03     7.26477E-03
            2434     3.69612E-03     2.81878E-03    -59.2898E+06    -113.562E+06    -49.0803E+06    -4.24942E+06    -199.299E-03     396.166E-03    -196.867E-03     6.53325E-03    -199.341E-03     395.738E-03    -196.862E-03     5.98854E-03
            2435     2.95816E-03     2.81360E-03    -62.1803E+06    -132.559E+06    -55.6785E+06    -4.09738E+06    -198.007E-03     394.427E-03    -196.420E-03     5.29103E-03    -198.015E-03     393.907E-03    -196.416E-03     4.86309E-03
            2436     2.21955E-03     2.81044E-03    -65.5684E+06    -148.035E+06    -59.0532E+06    -2.57764E+06    -196.985E-03     393.069E-03    -196.083E-03     4.09712E-03    -196.967E-03     392.465E-03    -196.069E-03     3.79101E-03
            2437     1.47931E-03     2.80797E-03    -70.9378E+06    -161.775E+06    -59.5181E+06    -1.40503E+06    -196.244E-03     392.102E-03    -195.858E-03     2.69428E-03    -196.228E-03     391.438E-03    -195.818E-03     2.48239E-03
            2438     740.464E-06     2.80681E-03    -77.3880E+06    -186.045E+06    -69.6051E+06    -449.809E+03    -195.855E-03     391.727E-03    -195.872E-03     1.42819E-03    -195.594E-03     391.051E-03    -195.839E-03     1.31637E-03
            2439     13.6633E-03     1.69174E-03    -6.33771E+06     55.9351E+06     73.2663E+06     2.90605E+06    -340.607E-03     565.430E-03    -224.823E-03     64.4620E-03    -341.075E-03     565.878E-03    -224.529E-03     59.7787E-03
            2440     13.0170E-03     1.60122E-03    -9.67713E+06     47.5006E+06     68.1010E+06     277.532E+03    -307.603E-03     527.235E-03    -219.632E-03     22.7008E-03    -307.921E-03     527.504E-03    -219.346E-03     19.0552E-03
            2441     12.3442E-03     1.54573E-03    -12.0468E+06     40.7151E+06     65.6262E+06    -1.33985E+06    -280.186E-03     495.605E-03    -215.420E-03     11.0824E-03    -280.450E-03     495.789E-03    -215.133E-03     7.89015E-03
            2442     11.6578E-03     1.50930E-03    -14.0653E+06     35.6286E+06     64.6072E+06    -340.796E+03    -260.720E-03     472.779E-03    -212.059E-03     8.97935E-03    -260.963E-03     472.916E-03    -211.767E-03     6.34249E-03
            2443     10.9591E-03     1.49259E-03    -19.1895E+06     27.2205E+06     57.7272E+06     789.716E+03    -246.162E-03     455.482E-03    -209.320E-03     9.40160E-03    -246.398E-03     455.581E-03    -209.043E-03     7.39895E-03
            2444     10.2463E-03     1.47458E-03    -24.2259E+06     18.7593E+06     46.0505E+06     1.15529E+06    -235.244E-03     442.295E-03    -207.051E-03     9.57056E-03    -235.468E-03     442.368E-03    -206.813E-03     8.17605E-03
            2445     9.53360E-03     1.45665E-03    -26.8552E+06     13.0130E+06     31.8851E+06     471.663E+03    -227.017E-03     432.156E-03    -205.139E-03     8.24828E-03    -227.224E-03     432.222E-03    -204.959E-03     7.04137E-03
            2446     8.81318E-03     1.44876E-03    -31.8894E+06     2.89492E+06     15.9931E+06     603.529E+03    -220.576E-03     424.096E-03    -203.519E-03     7.83390E-03    -220.765E-03     424.136E-03    -203.397E-03     6.76078E-03
            2447     8.08944E-03     1.43753E-03    -36.7428E+06    -7.78459E+06     2.91761E+06    -1.62285E+06    -215.545E-03     417.690E-03    -202.145E-03     7.93114E-03    -215.716E-03     417.695E-03    -202.066E-03     7.03578E-03
            2448     7.36178E-03     1.43206E-03    -38.3203E+06    -14.4436E+06    -9.48250E+06    -2.14631E+06    -211.382E-03     412.336E-03    -200.953E-03     7.44957E-03    -211.528E-03     412.323E-03    -200.924E-03     6.75915E-03
            2449     6.63205E-03     1.42564E-03    -40.7091E+06    -22.6929E+06    -23.0384E+06    -2.38517E+06    -207.973E-03     407.897E-03    -199.925E-03     6.72384E-03    -208.095E-03     407.862E-03    -199.948E-03     6.15127E-03
            2450     5.90037E-03     1.42155E-03    -45.0482E+06    -40.5952E+06    -34.0558E+06    -4.20308E+06    -205.276E-03     404.338E-03    -199.062E-03     5.79838E-03    -205.376E-03     404.234E-03    -199.108E-03     5.27917E-03
            2451     5.16595E-03     1.41614E-03    -48.2964E+06    -68.9740E+06    -40.1815E+06    -5.30758E+06    -202.999E-03     401.354E-03    -198.355E-03     5.05814E-03    -203.063E-03     401.118E-03    -198.386E-03     4.61219E-03
            2452     4.43109E-03     1.41240E-03    -51.0659E+06    -95.3353E+06    -43.5907E+06    -4.62363E+06    -201.086E-03     398.857E-03    -197.771E-03     4.20298E-03    -201.110E-03     398.488E-03    -197.776E-03     3.82705E-03
            2453     3.69422E-03     1.40944E-03    -53.3892E+06    -116.112E+06    -46.5143E+06    -2.47163E+06    -199.537E-03     396.825E-03    -197.289E-03     3.61025E-03    -199.521E-03     396.344E-03    -197.276E-03     3.33327E-03
            2454     2.95658E-03     1.40750E-03    -56.0720E+06    -135.579E+06    -49.5498E+06    -1.29259E+06    -198.306E-03     395.215E-03    -196.909E-03     2.98507E-03    -198.264E-03     394.637E-03    -196.879E-03     2.78604E-03
            2455     2.21780E-03     1.40567E-03    -59.2528E+06    -151.521E+06    -52.3461E+06    -664.099E+03    -197.428E-03     394.046E-03    -196.618E-03     2.22454E-03    -197.368E-03     393.392E-03    -196.574E-03     2.07705E-03
            2456     1.47964E-03     1.40466E-03    -63.4725E+06    -162.430E+06    -51.5757E+06    -787.114E+03    -196.897E-03     393.281E-03    -196.385E-03     1.43579E-03    -196.825E-03     392.566E-03    -196.315E-03     1.33346E-03
            2457     739.423E-06     1.40393E-03    -70.9472E+06    -189.167E+06    -62.5778E+06    -1.92341E+06    -196.768E-03     392.784E-03    -196.015E-03     716.783E-06    -196.425E-03     392.043E-03    -195.951E-03     646.626E-06


