********************************************************************************
Field Output Report, written Tue May 28 21:40:22 2024

Source 1
---------

   ODB: G:/Abaqus_calc_2019/1740/Vel_10/odb/zeides_2a_24_red_250_cal_10_vel_10_fric_025.odb
   Step: Step-1
   Frame: Increment   6514438: Step Time =   0.8371

Loc 1 : Nodal values from source 1

Output sorted by column "Nodal Label".

Field Output reported at nodes for region: DIE_2A_24_D0_36-1.Region_1
   Computation algorithm: EXTRAPOLATE_COMPUTE_AVERAGE
   Averaged at nodes
   Averaging regions: ODB_REGIONS

      Node Label     COORD.COOR1     COORD.COOR2
                          @Loc 1          @Loc 1
-------------------------------------------------
               1     21.1989E-03     121.982E-03


Field Output reported at nodes for region: DIE_2A_24_D0_36-1.Region_2
   Computation algorithm: EXTRAPOLATE_COMPUTE_AVERAGE
   Averaged at nodes
   Averaging regions: ODB_REGIONS

      Node Label     COORD.COOR1     COORD.COOR2
                          @Loc 1          @Loc 1
-------------------------------------------------
               1     21.1989E-03     121.982E-03


Field Output reported at nodes for part: WIRE-1
   Computation algorithm: EXTRAPOLATE_COMPUTE_AVERAGE
   Averaged at nodes
   Averaging regions: ODB_REGIONS

      Node Label     COORD.COOR1     COORD.COOR2           S.S11           S.S22           S.S33           S.S12         PE.PE11         PE.PE22         PE.PE33         PE.PE12         LE.LE11         LE.LE22         LE.LE33         LE.LE12
                          @Loc 1          @Loc 1          @Loc 1          @Loc 1          @Loc 1          @Loc 1          @Loc 1          @Loc 1          @Loc 1          @Loc 1          @Loc 1          @Loc 1          @Loc 1          @Loc 1
-------------------------------------------------------------------------------------------------------------------------------------------------------------------------------------------------------------------------------------------------
               1    -12.6626E-09     57.4678E-03    -23.0995E+06    -112.316E+06    -23.1269E+06    -10.1205E+03    -26.5330E-03     53.1310E-03    -26.5980E-03     3.40546E-03    -26.4520E-03     52.6367E-03    -26.5173E-03     3.40379E-03
               2     17.5325E-03     58.6536E-03    -2.05147E+06     164.659E+06     99.8260E+06     580.672E+03    -25.1206E-03     51.7401E-03    -26.6195E-03     83.7215E-03    -26.8570E-03     53.7643E-03    -26.3562E-03     85.8171E-03
               3     17.2220E-03     116.927E-03     20.2917E+06    -16.9688E+06     9.77676E+06     10.9363E+06     19.0237E-03     18.2256E-03    -37.2493E-03     1.26819E-03     19.0959E-03     18.0574E-03    -37.2052E-03     1.40929E-03
               4    -422.889E-09     115.197E-03     31.4527E+06     991.129E+03     30.5980E+06    -498.583E+03    -28.7770E-03     57.9758E-03    -29.1988E-03    -1.34386E-03    -28.6672E-03     57.8893E-03    -29.0929E-03    -1.35054E-03
               5     44.6237E-09    -131.839E-18    -10.8785E+06    -91.2337E+06    -10.5913E+06    -189.541E+03    -19.8595E-03     39.6230E-03    -19.7634E-03     151.566E-06    -19.7659E-03     39.1982E-03    -19.6683E-03     149.250E-06
               6     17.4024E-03    -131.839E-18     5.60522E+06     108.719E+06     80.0599E+06     2.90036E+06    -62.1353E-03     93.5481E-03    -31.4128E-03     99.2085E-03    -62.6266E-03     94.2360E-03    -31.1782E-03     98.7209E-03
               7     876.486E-06     57.4711E-03    -22.8820E+06    -111.829E+06    -22.4726E+06    -26.6656E+03    -26.5562E-03     53.1394E-03    -26.5832E-03     5.68963E-03    -26.4760E-03     52.6463E-03    -26.5002E-03     5.68668E-03
               8     1.75295E-03     57.4786E-03    -22.3017E+06    -110.840E+06    -20.6961E+06    -34.5259E+03    -26.5938E-03     53.1666E-03    -26.5728E-03     10.5623E-03    -26.5149E-03     52.6752E-03    -26.4833E-03     10.5568E-03
               9     2.62942E-03     57.4911E-03    -21.3638E+06    -109.252E+06    -17.8379E+06    -35.9865E+03    -26.6216E-03     53.2044E-03    -26.5828E-03     15.7695E-03    -26.5450E-03     52.7159E-03    -26.4826E-03     15.7611E-03
              10     3.50593E-03     57.5086E-03    -20.1089E+06    -107.486E+06    -14.5095E+06    -35.2179E+03    -26.6601E-03     53.2528E-03    -26.5927E-03     20.9959E-03    -26.5856E-03     52.7673E-03    -26.4802E-03     20.9840E-03
              11     4.38240E-03     57.5309E-03    -18.6875E+06    -103.060E+06    -11.0072E+06    -3.49679E+03    -26.7071E-03     53.3050E-03    -26.5980E-03     26.2642E-03    -26.6382E-03     52.8359E-03    -26.4765E-03     26.2485E-03
              12     5.25893E-03     57.5584E-03    -17.1053E+06    -97.3034E+06    -7.01373E+06     48.4502E+03    -26.7643E-03     53.3667E-03    -26.6024E-03     31.5611E-03    -26.7036E-03     52.9202E-03    -26.4716E-03     31.5409E-03
              13     6.13544E-03     57.5909E-03    -15.3981E+06    -93.4045E+06    -3.15269E+06     72.0621E+03    -26.8434E-03     53.4517E-03    -26.6083E-03     36.8003E-03    -26.7882E-03     53.0194E-03    -26.4663E-03     36.7739E-03
              14     7.01198E-03     57.6284E-03    -13.6920E+06    -88.0067E+06    -227.880E+03     77.3624E+03    -26.9319E-03     53.5392E-03    -26.6073E-03     41.9901E-03    -26.8842E-03     53.1312E-03    -26.4610E-03     41.9557E-03
              15     7.88850E-03     57.6707E-03    -12.1120E+06    -80.9392E+06     1.28576E+06     89.9398E+03    -27.0263E-03     53.6230E-03    -26.5967E-03     47.1127E-03    -26.9889E-03     53.2515E-03    -26.4554E-03     47.0684E-03
              16     8.76507E-03     57.7179E-03    -10.7717E+06    -76.0439E+06     2.27551E+06     115.775E+03    -27.1369E-03     53.7237E-03    -26.5869E-03     52.1170E-03    -27.1095E-03     53.3816E-03    -26.4496E-03     52.0607E-03
              17     9.64163E-03     57.7697E-03    -9.60030E+06    -71.2046E+06     1.60670E+06     125.466E+03    -27.2583E-03     53.8275E-03    -26.5692E-03     57.0698E-03    -27.2428E-03     53.5206E-03    -26.4440E-03     56.9984E-03
              18     10.5182E-03     57.8263E-03    -8.77716E+06    -62.6564E+06    -342.312E+03     124.523E+03    -27.3795E-03     53.9201E-03    -26.5406E-03     61.8783E-03    -27.3862E-03     53.6742E-03    -26.4388E-03     61.7888E-03
              19     11.3948E-03     57.8873E-03    -8.09628E+06    -50.6351E+06     99.6576E+03     129.701E+03    -27.4981E-03     54.0166E-03    -26.5185E-03     67.4579E-03    -27.5449E-03     53.8546E-03    -26.4328E-03     67.3467E-03
              20     12.2714E-03     57.9545E-03    -7.68819E+06    -39.3895E+06    -2.41447E+06     157.645E+03    -27.6866E-03     54.1678E-03    -26.4812E-03     75.0485E-03    -27.7874E-03     54.1085E-03    -26.4250E-03     74.9100E-03
              21     13.1481E-03     58.0300E-03    -7.64203E+06    -23.6522E+06    -7.18251E+06     212.800E+03    -27.8972E-03     54.3256E-03    -26.4284E-03     80.6560E-03    -28.0802E-03     54.4184E-03    -26.4189E-03     80.4860E-03
              22     14.0248E-03     58.1084E-03    -7.81624E+06     11.1566E+06    -8.94325E+06     196.054E+03    -28.3987E-03     54.7693E-03    -26.3706E-03     91.9710E-03    -28.7625E-03     55.1709E-03    -26.4201E-03     91.7739E-03
              23     14.9006E-03     58.2047E-03    -7.64522E+06     65.2104E+06    -15.7911E+06    -207.261E+03    -30.1249E-03     56.3871E-03    -26.2622E-03     129.868E-03    -31.1414E-03     57.6538E-03    -26.4247E-03     129.687E-03
              24     15.7769E-03     58.3568E-03    -6.93097E+06     123.873E+06     14.0225E+06    -384.377E+03    -32.6996E-03     59.0180E-03    -26.3184E-03     190.415E-03    -36.1037E-03     62.7965E-03    -26.4179E-03     191.034E-03
              25     16.6521E-03     58.5709E-03    -4.34059E+06     158.240E+06     74.9522E+06     194.406E+03    -29.5451E-03     56.0795E-03    -26.5344E-03     153.415E-03    -33.0464E-03     59.9098E-03    -26.3828E-03     155.158E-03
              26     17.5325E-03     59.6505E-03    -2.36844E+06     165.377E+06     100.205E+06     216.091E+03    -25.8644E-03     52.4589E-03    -26.5945E-03     83.5671E-03    -27.6086E-03     54.4913E-03    -26.3299E-03     85.6410E-03
              27     17.5326E-03     60.6526E-03    -3.25553E+06     165.310E+06     100.024E+06    -231.407E+03    -26.3223E-03     52.9052E-03    -26.5829E-03     82.9104E-03    -28.0621E-03     54.9303E-03    -26.3178E-03     84.9558E-03
              28     17.5324E-03     61.6512E-03    -3.57384E+06     165.116E+06     99.8588E+06    -560.780E+03    -26.2386E-03     52.8296E-03    -26.5910E-03     84.0025E-03    -27.9974E-03     54.8723E-03    -26.3259E-03     86.0690E-03
              29     17.5324E-03     62.6527E-03    -2.26693E+06     165.000E+06     100.271E+06    -16.3174E+03    -25.7924E-03     52.3987E-03    -26.6062E-03     84.4639E-03    -27.5493E-03     54.4424E-03    -26.3408E-03     86.5496E-03
              30     17.5324E-03     63.6512E-03    -2.18392E+06     165.205E+06     99.9892E+06     377.725E+03    -25.4368E-03     52.0476E-03    -26.6108E-03     85.2073E-03    -27.1993E-03     54.0989E-03    -26.3473E-03     87.3088E-03
              31     17.5326E-03     64.6489E-03    -2.88018E+06     165.631E+06     99.8568E+06     393.050E+03    -26.0047E-03     52.5969E-03    -26.5923E-03     83.6852E-03    -27.7467E-03     54.6272E-03    -26.3290E-03     85.7484E-03
              32     17.5324E-03     65.6494E-03    -2.58801E+06     166.792E+06     100.277E+06     402.883E+03    -26.1261E-03     52.7128E-03    -26.5867E-03     83.2228E-03    -27.8656E-03     54.7444E-03    -26.3234E-03     85.2777E-03
              33     17.5328E-03     66.6493E-03    -3.31284E+06     167.205E+06     100.092E+06    -207.734E+03    -26.1280E-03     52.7162E-03    -26.5881E-03     84.3320E-03    -27.8889E-03     54.7685E-03    -26.3253E-03     86.3948E-03
              34     17.5321E-03     67.6496E-03    -1.95898E+06     167.029E+06     101.081E+06     468.917E+03    -26.0063E-03     52.6104E-03    -26.6041E-03     84.2347E-03    -27.7596E-03     54.6566E-03    -26.3381E-03     86.3083E-03
              35     17.5324E-03     68.6485E-03    -1.89901E+06     168.141E+06     101.401E+06     475.546E+03    -25.1641E-03     51.7669E-03    -26.6028E-03     84.8932E-03    -26.9189E-03     53.8178E-03    -26.3369E-03     86.9854E-03
              36     17.5341E-03     69.6461E-03    -3.41683E+06     168.111E+06     100.299E+06     308.189E+03    -25.9772E-03     52.5618E-03    -26.5846E-03     84.6517E-03    -27.7404E-03     54.6188E-03    -26.3219E-03     86.7211E-03
              37     17.5299E-03     70.6494E-03    -1.80041E+06     169.893E+06     101.495E+06     824.819E+03    -25.7197E-03     52.3562E-03    -26.6366E-03     80.7503E-03    -27.4681E-03     54.4072E-03    -26.3728E-03     82.8177E-03
              38     17.5333E-03     71.6389E-03    -1.51054E+06     171.461E+06     101.856E+06     118.197E+03    -24.8291E-03     51.4520E-03    -26.6229E-03     79.7972E-03    -26.5651E-03     53.4963E-03    -26.3600E-03     81.8871E-03
              39     17.5332E-03     72.6431E-03    -2.38974E+06     170.837E+06     101.755E+06     406.764E+03    -27.8407E-03     54.3755E-03    -26.5348E-03     88.0574E-03    -29.6719E-03     56.5102E-03    -26.2703E-03     90.1210E-03
              40     17.5314E-03     73.6641E-03     1.35829E+06     172.974E+06     103.507E+06     811.732E+03    -24.3853E-03     51.0037E-03    -26.6184E-03     95.1450E-03    -26.2825E-03     53.2208E-03    -26.3536E-03     97.3086E-03
              41     17.5359E-03     74.6371E-03     333.332E+03     170.202E+06     101.321E+06    -723.626E+03    -22.5275E-03     49.1727E-03    -26.6452E-03     89.1568E-03    -24.3233E-03     51.2816E-03    -26.3859E-03     91.3308E-03
              42     17.5294E-03     75.6323E-03    -6.38141E+06     163.917E+06     96.9048E+06    -1.10578E+06    -28.8846E-03     55.4318E-03    -26.5471E-03     73.9247E-03    -30.5331E-03     57.3597E-03    -26.2910E-03     75.7701E-03
              43     17.5323E-03     76.6429E-03    -4.92176E+06     167.046E+06     98.8230E+06     581.604E+03    -28.4612E-03     55.0237E-03    -26.5625E-03     73.8430E-03    -30.1260E-03     56.9782E-03    -26.3035E-03     75.7280E-03
              44     17.5328E-03     77.6398E-03     395.857E+03     173.157E+06     102.936E+06     2.04353E+06    -24.5604E-03     51.1761E-03    -26.6157E-03     84.8091E-03    -26.3320E-03     53.2654E-03    -26.3527E-03     86.9488E-03
              45     17.5330E-03     78.6559E-03    -1.50828E+06     171.787E+06     101.165E+06    -551.266E+03    -24.0266E-03     50.6732E-03    -26.6466E-03     94.9176E-03    -25.9833E-03     52.9414E-03    -26.3877E-03     97.1494E-03
              46     17.5313E-03     79.6364E-03    -6.04190E+06     167.000E+06     97.0367E+06    -2.03789E+06    -28.1273E-03     54.6718E-03    -26.5445E-03     90.8372E-03    -30.0518E-03     56.8867E-03    -26.2927E-03     92.9062E-03
              47     17.5336E-03     80.6416E-03    -4.95178E+06     167.056E+06     97.7390E+06    -52.9127E+03    -28.9853E-03     55.4795E-03    -26.4942E-03     80.1655E-03    -30.7022E-03     57.4885E-03    -26.2406E-03     82.1025E-03
              48     17.5321E-03     81.6506E-03     795.037E+03     172.745E+06     102.871E+06     635.459E+03    -22.8783E-03     49.5253E-03    -26.6470E-03     86.1274E-03    -24.6472E-03     51.6123E-03    -26.3842E-03     88.3053E-03
              49     17.5340E-03     82.6371E-03    -991.727E+03     170.569E+06     100.391E+06    -746.432E+03    -23.2000E-03     49.8346E-03    -26.6345E-03     88.3507E-03    -24.9886E-03     51.9345E-03    -26.3785E-03     90.4953E-03
              50     17.5317E-03     83.6334E-03    -5.79923E+06     165.965E+06     96.4911E+06    -826.261E+03    -28.6401E-03     55.1459E-03    -26.5058E-03     80.1553E-03    -30.3373E-03     57.1324E-03    -26.2556E-03     82.0440E-03
              51     17.5328E-03     84.6421E-03    -3.57779E+06     168.081E+06     98.2780E+06     689.133E+03    -28.2470E-03     54.7692E-03    -26.5223E-03     79.9171E-03    -29.9561E-03     56.7776E-03    -26.2694E-03     81.8591E-03
              52     17.5326E-03     85.6417E-03    -1.81974E+06     171.409E+06     100.046E+06     1.21849E+06    -25.2002E-03     51.7875E-03    -26.5873E-03     84.2423E-03    -26.9604E-03     53.8596E-03    -26.3330E-03     86.3565E-03
              53     17.5331E-03     86.6408E-03    -2.87600E+06     174.029E+06     100.515E+06     1.22049E+06    -24.3786E-03     50.9837E-03    -26.6051E-03     84.4458E-03    -26.1455E-03     53.0668E-03    -26.3507E-03     86.5877E-03
              54     17.5325E-03     87.6354E-03    -3.48852E+06     174.501E+06     99.3601E+06    -146.156E+03    -25.4386E-03     52.0013E-03    -26.5626E-03     83.4046E-03    -27.1895E-03     54.0711E-03    -26.3138E-03     85.4715E-03
              55     17.5338E-03     88.6369E-03    -3.52172E+06     174.108E+06     99.4770E+06    -228.707E+03    -26.5185E-03     53.0514E-03    -26.5329E-03     82.1660E-03    -28.2552E-03     55.1052E-03    -26.2829E-03     84.1767E-03
              56     17.5320E-03     89.6385E-03    -2.55953E+06     174.280E+06     100.559E+06    -100.552E+03    -25.9968E-03     52.5499E-03    -26.5531E-03     82.2787E-03    -27.7440E-03     54.6151E-03    -26.2993E-03     84.3147E-03
              57     17.5341E-03     90.6337E-03    -1.48768E+06     174.657E+06     100.603E+06     580.661E+03    -26.0592E-03     52.5737E-03    -26.5144E-03     82.3863E-03    -27.8003E-03     54.6378E-03    -26.2625E-03     84.4436E-03
              58     17.5341E-03     91.6367E-03    -2.39711E+06     174.452E+06     99.8406E+06     4.06637E+03    -26.4339E-03     52.8881E-03    -26.4542E-03     85.8134E-03    -28.2169E-03     54.9925E-03    -26.2045E-03     87.8743E-03
              59     17.5355E-03     92.6439E-03    -2.77941E+06     175.050E+06     100.718E+06    -563.972E+03    -25.5311E-03     51.9880E-03    -26.4570E-03     91.1831E-03    -27.4006E-03     54.1772E-03    -26.2032E-03     93.3000E-03
              60     17.5347E-03     93.6352E-03    -1.94810E+06     174.970E+06     99.8670E+06     250.762E+03    -25.1754E-03     51.5840E-03    -26.4086E-03     88.0675E-03    -26.9855E-03     53.7188E-03    -26.1601E-03     90.1595E-03
              61     17.5384E-03     94.6298E-03    -3.45138E+06     172.582E+06     98.7354E+06     260.090E+03    -26.9536E-03     53.2721E-03    -26.3184E-03     81.3962E-03    -28.6644E-03     55.2970E-03    -26.0700E-03     83.3781E-03
              62     17.5345E-03     95.6361E-03    -3.66751E+06     171.280E+06     99.2914E+06     605.348E+03    -26.7710E-03     53.0847E-03    -26.3137E-03     78.2312E-03    -28.4812E-03     55.1022E-03    -26.0603E-03     80.2145E-03
              63     17.5393E-03     96.6288E-03    -1.43235E+06     172.357E+06     100.361E+06    -30.8747E+03    -26.3437E-03     52.5647E-03    -26.2210E-03     80.7966E-03    -28.0832E-03     54.6207E-03    -25.9671E-03     82.8357E-03
              64     17.5408E-03     97.6321E-03     1.58960E+06     172.165E+06     97.5456E+06    -524.271E+03    -26.8421E-03     52.8524E-03    -26.0102E-03     84.2649E-03    -28.5569E-03     54.9021E-03    -25.7745E-03     86.2664E-03
              65     17.5456E-03     98.6429E-03    -173.628E+03     169.505E+06     99.0234E+06    -560.383E+03    -26.4680E-03     52.4317E-03    -25.9638E-03     89.3262E-03    -28.2874E-03     54.5658E-03    -25.7142E-03     91.3821E-03
              66     17.5395E-03     99.6319E-03    -5.63671E+06     162.779E+06     99.3163E+06    -1.14886E+06    -28.8230E-03     54.7502E-03    -25.9272E-03     79.3463E-03    -30.6028E-03     56.7998E-03    -25.6585E-03     81.2621E-03
              67     17.5459E-03     100.622E-03    -6.01850E+06     159.892E+06     97.1576E+06    -1.14670E+06    -34.6365E-03     60.3076E-03    -25.6711E-03     71.2170E-03    -36.2791E-03     62.2164E-03    -25.4085E-03     72.8481E-03
              68     17.5457E-03     101.651E-03     997.959E+03     163.393E+06     101.023E+06     829.936E+03    -36.7806E-03     62.2749E-03    -25.4943E-03     84.8836E-03    -38.5498E-03     64.3387E-03    -25.2276E-03     86.5741E-03
              69     17.5491E-03     102.677E-03    -1.48248E+06     158.887E+06     99.3699E+06    -3.28365E+06    -33.4568E-03     58.9798E-03    -25.5230E-03     99.5009E-03    -35.4954E-03     61.2912E-03    -25.2544E-03     101.438E-03
              70     17.5473E-03     103.653E-03    -5.48871E+06     149.813E+06     97.2114E+06    -4.39771E+06    -38.2695E-03     63.6391E-03    -25.3696E-03     90.0194E-03    -40.2014E-03     65.8019E-03    -25.0928E-03     91.7383E-03
              71     17.5498E-03     104.674E-03    -5.15809E+06     145.034E+06     95.5658E+06    -1.48186E+06    -44.5426E-03     69.6891E-03    -25.1465E-03     76.6142E-03    -46.2386E-03     71.6053E-03    -24.8715E-03     77.9455E-03
              72     17.5502E-03     105.698E-03    -2.42058E+06     141.675E+06     95.5295E+06    -1.42075E+06    -44.3836E-03     69.4650E-03    -25.0814E-03     85.5948E-03    -46.2001E-03     71.4995E-03    -24.8057E-03     86.9690E-03
              73     17.5522E-03     106.715E-03    -1.66844E+06     138.266E+06     97.2500E+06    -1.44100E+06    -46.4195E-03     71.4025E-03    -24.9830E-03     91.0029E-03    -48.3525E-03     73.5385E-03    -24.6948E-03     92.2972E-03
              74     17.5521E-03     107.734E-03    -185.011E+03     133.046E+06     100.018E+06    -1.91413E+06    -53.3284E-03     78.1176E-03    -24.7893E-03     93.6309E-03    -55.3342E-03     80.3058E-03    -24.4818E-03     94.6034E-03
              75     17.5531E-03     108.769E-03    -4.49269E+06     126.561E+06     100.829E+06    -2.01716E+06    -62.5903E-03     87.1461E-03    -24.5558E-03     99.0677E-03    -64.7390E-03     89.4377E-03    -24.2287E-03     99.6285E-03
              76     17.5531E-03     109.814E-03    -1.54280E+06     122.433E+06     103.152E+06    -421.115E+03    -71.4575E-03     95.7847E-03    -24.3272E-03     113.989E-03    -73.8601E-03     98.3215E-03    -23.9867E-03     114.184E-03
              77     17.5549E-03     110.875E-03    -8.58168E+06     112.324E+06     97.2387E+06    -6.02439E+06    -78.5643E-03     102.687E-03    -24.1228E-03     138.334E-03    -81.4001E-03     105.616E-03    -23.7871E-03     138.045E-03
              78     17.5553E-03     111.943E-03     3.53759E+06     102.539E+06     94.4280E+06    -2.95687E+06    -81.4870E-03     105.501E-03    -24.0143E-03     170.237E-03    -84.8006E-03     108.925E-03    -23.6960E-03     169.619E-03
              79     17.5579E-03     113.009E-03    -10.2458E+06     78.9078E+06     49.0868E+06    -13.0129E+06    -77.4579E-03     101.386E-03    -23.9281E-03     206.049E-03    -81.1887E-03     105.225E-03    -23.7823E-03     205.083E-03
              80     17.5586E-03     114.063E-03     -6.1314E+06     31.2545E+06     8.36552E+06    -24.3626E+06    -56.6817E-03     80.9798E-03    -24.2981E-03     229.973E-03    -59.5934E-03     83.9624E-03    -24.2927E-03     229.243E-03
              81     17.5606E-03     115.054E-03     8.74950E+06     2.17760E+06     9.08862E+06    -9.40682E+06    -14.3048E-03     40.6210E-03    -26.3162E-03     196.906E-03    -15.3701E-03     41.7109E-03    -26.2866E-03     196.842E-03
              82     17.4869E-03     115.974E-03    -4.36513E+06    -9.56445E+06     3.73297E+06     3.00554E+06     15.3072E-03     17.2688E-03    -32.5760E-03     79.5727E-03     15.1898E-03     17.2957E-03    -32.5372E-03     79.6548E-03
              83     16.3657E-03     116.691E-03     914.941E+03     21.5519E+06     41.5060E+06     1.29541E+06     14.2204E-03     23.8454E-03    -38.0658E-03     14.1861E-03     14.1167E-03     23.8755E-03    -37.8908E-03     14.2024E-03
              84     15.4694E-03     116.495E-03    -16.5968E+06       -11.6E+03     60.6952E+06    -4.83990E+06    -8.42898E-03     47.5109E-03    -39.0819E-03     22.5124E-03    -8.60751E-03     47.4453E-03    -38.7543E-03     22.4319E-03
              85     14.6251E-03     116.276E-03    -6.08249E+06    -10.7124E+06     52.4567E+06    -8.06704E+06    -27.3861E-03     66.2998E-03    -38.9137E-03     10.4833E-03    -27.4982E-03     66.1648E-03    -38.6271E-03     10.3479E-03
              86     13.7829E-03     116.093E-03     6.06004E+06     -86.768E+03     56.1656E+06    -8.02631E+06    -31.0080E-03     69.3195E-03    -38.3115E-03    -2.05583E-03    -31.0749E-03     69.2145E-03    -38.0393E-03    -2.18918E-03
              87     12.9331E-03     115.949E-03     11.4883E+06    -5.79441E+06     61.9107E+06    -2.42589E+06    -36.8862E-03     74.5578E-03    -37.6716E-03    -10.3321E-03    -36.9200E-03     74.4117E-03    -37.3703E-03    -10.3998E-03
              88     12.0870E-03     115.823E-03     15.2205E+06     625.007E+03     60.7830E+06    -2.34185E+06    -41.8548E-03     78.5987E-03    -36.7439E-03    -13.8019E-03    -41.8758E-03     78.4816E-03    -36.4630E-03    -13.8734E-03
              89     11.2408E-03     115.716E-03     17.5548E+06    -3.92145E+06     59.0678E+06    -998.087E+03    -43.3158E-03     78.9683E-03    -35.6524E-03    -13.2419E-03    -43.3144E-03     78.8291E-03    -35.3769E-03    -13.2943E-03
              90     10.3916E-03     115.622E-03     18.2389E+06     1.76669E+06     60.1372E+06    -1.08011E+06    -42.2645E-03     76.8106E-03    -34.5461E-03    -11.3419E-03    -42.2683E-03     76.6992E-03    -34.2744E-03    -11.3898E-03
              91     9.53855E-03     115.543E-03     18.8637E+06    -1.19301E+06     58.3716E+06    -1.66256E+06    -40.2389E-03     73.7655E-03    -33.5266E-03    -9.34524E-03    -40.2317E-03     73.6424E-03    -33.2604E-03    -9.39407E-03
              92     8.68140E-03     115.475E-03     20.0226E+06     685.794E+03     55.4152E+06    -2.01979E+06    -38.1501E-03     70.7659E-03    -32.6158E-03    -7.58181E-03    -38.1347E-03     70.6560E-03    -32.3688E-03    -7.62926E-03
              93     7.82094E-03     115.417E-03     21.0841E+06    -1.18173E+06     50.7980E+06    -1.63060E+06    -36.2712E-03     68.0909E-03    -31.8197E-03    -6.13180E-03    -36.2405E-03     67.9777E-03    -31.5946E-03    -6.16969E-03
              94     6.95768E-03     115.368E-03     22.0061E+06     1.00460E+06     48.0687E+06    -1.84294E+06    -34.5900E-03     65.7235E-03    -31.1335E-03    -4.98627E-03    -34.5534E-03     65.6243E-03    -30.9265E-03    -5.02340E-03
              95     6.09213E-03     115.326E-03     23.1369E+06    -1.34924E+06     43.2191E+06    -1.73508E+06    -33.1513E-03     63.6909E-03    -30.5396E-03    -4.09305E-03    -33.0983E-03     63.5858E-03    -30.3551E-03    -4.12612E-03
              96     5.22482E-03     115.291E-03     24.0958E+06     589.334E+03     39.4573E+06    -1.34623E+06    -31.9078E-03     61.9429E-03    -30.0351E-03    -3.35821E-03    -31.8472E-03     61.8518E-03    -29.8736E-03    -3.38411E-03
              97     4.35603E-03     115.262E-03     25.1072E+06    -241.987E+03      36.112E+06    -1.70101E+06    -30.8631E-03     60.4880E-03    -29.6248E-03    -2.71615E-03    -30.7913E-03     60.3963E-03    -29.4803E-03    -2.74484E-03
              98     3.48592E-03     115.238E-03     26.8507E+06       99.08E+03     33.6214E+06    -1.89094E+06    -30.0305E-03     59.3341E-03    -29.3037E-03    -2.19753E-03    -29.9466E-03     59.2454E-03    -29.1746E-03    -2.22713E-03
              99     2.61502E-03     115.221E-03     29.2677E+06    -706.529E+03     31.5202E+06    -1.97133E+06    -29.4069E-03     58.4823E-03    -29.0754E-03    -1.77189E-03    -29.3068E-03     58.3891E-03    -28.9592E-03    -1.80120E-03
             100     1.74337E-03     115.208E-03     31.4030E+06    -684.718E+03     32.6884E+06    -1.46608E+06    -28.9716E-03     57.9434E-03    -28.9717E-03    -1.40344E-03    -28.8625E-03     57.8455E-03    -28.8528E-03    -1.42501E-03
             101     871.318E-06     115.200E-03      31.838E+06    -452.528E+03     32.2572E+06    -739.080E+03    -28.7836E-03     57.8613E-03    -29.0777E-03    -1.28953E-03    -28.6721E-03     57.7645E-03    -28.9619E-03    -1.30020E-03
             102     59.4771E-09     114.192E-03     27.9729E+06    -1.66519E+06     28.0182E+06    -859.070E+03    -26.0260E-03     52.2541E-03    -26.2282E-03    -243.841E-06    -25.9254E-03     52.1637E-03    -26.1262E-03    -255.592E-06
             103    -35.0436E-09     113.198E-03     17.2140E+06    -5.06193E+06     17.5586E+06    -1.35074E+06    -21.4367E-03     42.7615E-03    -21.3248E-03     1.11983E-03    -21.3691E-03     42.6856E-03    -21.2547E-03     1.10139E-03
             104     217.056E-09     112.213E-03     436.788E+03    -11.3267E+06     614.611E+03    -2.05969E+06    -18.2206E-03     36.4251E-03    -18.2045E-03     1.71174E-03    -18.2030E-03     36.3670E-03    -18.1856E-03     1.68435E-03
             105    -367.883E-09     111.232E-03    -15.1075E+06    -18.5610E+06    -14.9240E+06    -2.30838E+06    -16.1494E-03     32.4292E-03    -16.2799E-03     2.17392E-03    -16.1763E-03     32.3802E-03    -16.3057E-03     2.14352E-03
             106     288.271E-09     110.254E-03    -36.4700E+06    -26.3548E+06    -36.1666E+06    -2.57628E+06    -15.1120E-03     30.2322E-03    -15.1202E-03     2.54426E-03    -15.2036E-03     30.2060E-03    -15.2100E-03     2.51060E-03
             107    -222.602E-09     109.277E-03    -60.2515E+06    -34.7363E+06    -60.2423E+06    -2.11819E+06    -14.6929E-03     29.3112E-03    -14.6183E-03     2.91926E-03    -14.8563E-03     29.3125E-03    -14.7818E-03     2.89165E-03
             108     285.221E-09     108.301E-03    -81.7635E+06    -42.1518E+06    -81.5873E+06    -2.26336E+06    -14.7024E-03     29.3611E-03    -14.6587E-03     3.15378E-03    -14.9316E-03     29.3875E-03    -14.8870E-03     3.12440E-03
             109    -273.102E-09     107.324E-03    -93.5664E+06    -47.0401E+06    -94.7744E+06    -460.458E+03    -15.0692E-03     30.1273E-03    -15.0581E-03     3.27303E-03    -15.3312E-03     30.1654E-03    -15.3281E-03     3.26702E-03
             110     261.834E-09     106.347E-03    -74.6602E+06    -40.5259E+06    -76.0201E+06     3.96153E+06    -15.8265E-03     31.6392E-03    -15.8127E-03     3.38243E-03    -16.0306E-03     31.6553E-03    -16.0258E-03     3.43354E-03
             111    -247.158E-09     105.366E-03    -42.6771E+06    -22.0751E+06    -42.9963E+06     6.75505E+06    -16.8580E-03     33.7348E-03    -16.8768E-03     3.50577E-03    -16.9769E-03     33.7489E-03    -16.9979E-03     3.59294E-03
             112     189.849E-09     104.385E-03    -21.6875E+06    -3.46864E+06    -19.7937E+06     4.58239E+06    -18.1162E-03     36.2635E-03    -18.1472E-03     3.61851E-03    -18.1907E-03     36.3064E-03    -18.2097E-03     3.67766E-03
             113    -171.710E-09     103.400E-03    -4.98608E+06     3.90210E+06    -4.00254E+06     11.8396E+03    -19.5149E-03     39.0375E-03    -19.5227E-03     3.69915E-03    -19.5394E-03     39.0703E-03    -19.5411E-03     3.69924E-03
             114     144.943E-09     102.413E-03     2.26162E+06     2.05151E+06     2.09295E+06    -1.36473E+06    -20.8144E-03     41.6426E-03    -20.8282E-03     3.67391E-03    -20.8088E-03     41.6468E-03    -20.8240E-03     3.65608E-03
             115    -150.688E-09     101.423E-03     6.44513E+06    -3.55374E+06     6.77330E+06    -1.85627E+06    -22.0009E-03     44.0107E-03    -22.0098E-03     3.66519E-03    -21.9730E-03     43.9740E-03    -21.9801E-03     3.64084E-03
             116     138.300E-09     100.431E-03     7.62001E+06    -11.0344E+06     7.60149E+06    -2.18775E+06    -23.0321E-03     46.0798E-03    -23.0477E-03     3.66115E-03    -22.9887E-03     46.0028E-03    -23.0047E-03     3.63235E-03
             117    -159.905E-09     99.4367E-03     3.98224E+06    -18.3286E+06     3.70489E+06    -2.06426E+06    -23.8644E-03     47.7489E-03    -23.8844E-03     3.64558E-03    -23.8230E-03     47.6464E-03    -23.8451E-03     3.61818E-03
             118     136.786E-09     98.4417E-03     1.04158E+06    -26.1003E+06     1.04867E+06    -2.50756E+06    -24.5747E-03     49.1439E-03    -24.5691E-03     3.61169E-03    -24.5329E-03     49.0106E-03    -24.5276E-03     3.57834E-03
             119    -110.063E-09     97.4449E-03    -1.27273E+06    -35.4949E+06    -894.636E+03    -3.05140E+06    -25.1524E-03     50.2943E-03    -25.1420E-03     3.53474E-03    -25.1057E-03     50.1203E-03    -25.0931E-03     3.49419E-03
             120     99.9302E-09     96.4476E-03    -1.68007E+06    -45.0322E+06    -2.15061E+06    -2.76512E+06    -25.5773E-03     51.1816E-03    -25.6043E-03     3.52842E-03    -25.5171E-03     50.9623E-03    -25.5473E-03     3.49144E-03
             121    -148.361E-09     95.4491E-03    -6.80028E+06    -53.2857E+06    -7.15766E+06    -1.75631E+06    -25.8929E-03     51.8187E-03    -25.9258E-03     3.51804E-03    -25.8390E-03     51.5729E-03    -25.8745E-03     3.49400E-03
             122     129.011E-09     94.4505E-03    -11.7090E+06    -58.4432E+06    -11.6402E+06    -1.26750E+06    -26.1169E-03     52.2701E-03    -26.1532E-03     3.52681E-03    -26.0736E-03     52.0121E-03    -26.1097E-03     3.50900E-03
             123    -178.582E-09     93.4513E-03    -13.5723E+06    -63.9482E+06    -13.3928E+06    -1.84451E+06    -26.2728E-03     52.5945E-03    -26.3218E-03     3.52127E-03    -26.2283E-03     52.3142E-03    -26.2763E-03     3.49594E-03
             124     138.320E-09     92.4520E-03    -17.6018E+06    -70.5202E+06    -17.8223E+06    -1.97114E+06    -26.4309E-03     52.8112E-03    -26.3803E-03     3.47255E-03    -26.3907E-03     52.5102E-03    -26.3416E-03     3.44554E-03
             125    -17.5392E-09     91.4527E-03    -22.7560E+06    -76.6467E+06    -22.8056E+06    -1.59617E+06    -26.5126E-03     52.9475E-03    -26.4349E-03     3.44944E-03    -26.4821E-03     52.6306E-03    -26.4048E-03     3.42725E-03
             126     26.8338E-09     90.4529E-03    -23.6011E+06    -81.4827E+06    -23.6893E+06    -1.20868E+06    -26.4733E-03     52.9929E-03    -26.5196E-03     3.42546E-03    -26.4387E-03     52.6544E-03    -26.4857E-03     3.40830E-03
             127    -123.802E-09     89.4536E-03    -24.3329E+06    -85.6585E+06    -24.3911E+06    -1.16628E+06    -26.4782E-03     53.0237E-03    -26.5455E-03     3.41530E-03    -26.4402E-03     52.6664E-03    -26.5080E-03     3.39870E-03
             128     96.5111E-09     88.4538E-03    -25.5232E+06    -89.4973E+06    -25.7811E+06    -1.02606E+06    -26.4912E-03     53.0511E-03    -26.5598E-03     3.41041E-03    -26.4516E-03     52.6783E-03    -26.5219E-03     3.39561E-03
             129    -197.885E-09     87.4545E-03    -26.2475E+06    -92.7463E+06    -26.2070E+06    -848.684E+03    -26.4748E-03     53.0551E-03    -26.5804E-03     3.40144E-03    -26.4334E-03     52.6677E-03    -26.5389E-03     3.38898E-03
             130     109.024E-09     86.4547E-03    -27.1283E+06    -96.0926E+06    -26.9656E+06    -1.06799E+06    -26.5917E-03     53.1224E-03    -26.5307E-03     3.40750E-03    -26.5488E-03     52.7207E-03    -26.4869E-03     3.39212E-03
             131     83.0798E-09     85.4552E-03    -27.5791E+06    -99.5168E+06    -27.5713E+06    -913.036E+03    -26.6376E-03     53.1285E-03    -26.4908E-03     3.47698E-03    -26.5911E-03     52.7111E-03    -26.4444E-03     3.46354E-03
             132    -23.5794E-09     84.4554E-03    -27.1926E+06    -102.058E+06    -27.1904E+06    -595.688E+03    -26.5543E-03     53.0809E-03    -26.5266E-03     3.52008E-03    -26.5027E-03     52.6497E-03    -26.4751E-03     3.51078E-03
             133     6.81090E-09     83.4562E-03    -27.3484E+06    -104.450E+06    -27.3256E+06    -634.537E+03    -26.5235E-03     53.0863E-03    -26.5628E-03     3.44781E-03    -26.4690E-03     52.6436E-03    -26.5084E-03     3.43804E-03
             134    -64.5074E-09     82.4564E-03    -26.8444E+06    -106.005E+06    -27.0252E+06    -523.690E+03    -26.5232E-03     53.0951E-03    -26.5719E-03     3.36596E-03    -26.4644E-03     52.6435E-03    -26.5144E-03     3.35760E-03
             135     29.3560E-09     81.4572E-03    -26.9197E+06    -106.927E+06    -27.0332E+06    -293.639E+03    -26.5436E-03     53.1271E-03    -26.5835E-03     3.41740E-03    -26.4837E-03     52.6709E-03    -26.5246E-03     3.41196E-03
             136    -71.1815E-09     80.4572E-03    -27.1495E+06    -107.510E+06    -27.0438E+06    -263.468E+03    -26.5862E-03     53.1555E-03    -26.5693E-03     3.47568E-03    -26.5267E-03     52.6968E-03    -26.5092E-03     3.47068E-03
             137     137.976E-09     79.4579E-03    -26.9451E+06    -108.403E+06    -26.7540E+06    -66.1202E+03    -26.6191E-03     53.1404E-03    -26.5213E-03     3.50229E-03    -26.5577E-03     52.6765E-03    -26.4588E-03     3.49989E-03
             138    -37.1211E-09     78.4581E-03    -26.1385E+06    -109.092E+06    -26.2277E+06    -23.7809E+03    -26.5894E-03     53.1213E-03    -26.5320E-03     3.44052E-03    -26.5237E-03     52.6521E-03    -26.4670E-03     3.43870E-03
             139     30.1089E-09     77.4590E-03    -26.1405E+06    -109.364E+06    -26.2281E+06    -192.939E+03    -26.5442E-03     53.1363E-03    -26.5921E-03     3.38627E-03    -26.4781E-03     52.6658E-03    -26.5268E-03     3.38221E-03
             140    -113.665E-09     76.4590E-03    -26.5084E+06    -109.759E+06    -26.3989E+06    -57.7900E+03    -26.5246E-03     53.1555E-03    -26.6309E-03     3.40870E-03    -26.4595E-03     52.6837E-03    -26.5653E-03     3.40641E-03
             141     6.51651E-09     75.4597E-03    -25.4635E+06    -110.315E+06    -25.5881E+06    -334.958E+03    -26.5488E-03     53.1662E-03    -26.6175E-03     3.42257E-03    -26.4789E-03     52.6890E-03    -26.5485E-03     3.41672E-03
             142    -26.8928E-09     74.4599E-03    -24.9102E+06    -111.329E+06    -24.9668E+06    -197.886E+03    -26.6205E-03     53.1952E-03    -26.5747E-03     3.41619E-03    -26.5472E-03     52.7112E-03    -26.5020E-03     3.41209E-03
             143     121.138E-09     73.4604E-03    -24.8615E+06    -111.914E+06    -24.7360E+06    -133.323E+03    -26.6266E-03     53.1940E-03    -26.5675E-03     3.45395E-03    -26.5526E-03     52.7067E-03    -26.4928E-03     3.45066E-03
             144    -116.107E-09     72.4608E-03    -24.6515E+06    -112.367E+06    -24.8302E+06    -157.644E+03    -26.5966E-03     53.1840E-03    -26.5875E-03     3.45495E-03    -26.5208E-03     52.6942E-03    -26.5129E-03     3.45133E-03
             145     119.308E-09     71.4613E-03    -24.4801E+06    -112.968E+06    -24.4488E+06    -82.0599E+03    -26.5739E-03     53.1878E-03    -26.6139E-03     3.44515E-03    -26.4970E-03     52.6942E-03    -26.5368E-03     3.44251E-03
             146    -197.871E-09     70.4616E-03    -23.6467E+06    -113.189E+06    -23.7730E+06    -13.9212E+03    -26.5169E-03     53.1771E-03    -26.6602E-03     3.40596E-03    -26.4364E-03     52.6802E-03    -26.5807E-03     3.40424E-03
             147     18.1051E-09     69.4623E-03    -23.4003E+06    -112.906E+06    -23.3129E+06    -21.6344E+03    -26.5209E-03     53.1667E-03    -26.6458E-03     3.32166E-03    -26.4402E-03     52.6701E-03    -26.5647E-03     3.31990E-03
             148    -61.5996E-09     68.4625E-03    -23.5158E+06    -112.974E+06    -23.5348E+06    -7.21308E+03    -26.5961E-03     53.1635E-03    -26.5675E-03     3.35460E-03    -26.5156E-03     52.6672E-03    -26.4872E-03     3.35301E-03
             149     149.588E-09     67.4631E-03    -23.6120E+06    -113.004E+06    -23.5263E+06    -53.8220E+03    -26.6094E-03     53.1523E-03    -26.5430E-03     3.44465E-03    -26.5293E-03     52.6559E-03    -26.4625E-03     3.44239E-03
             150    -125.889E-09     66.4633E-03    -23.4559E+06    -113.061E+06    -23.5461E+06     9.74995E+03    -26.5380E-03     53.1490E-03    -26.6110E-03     3.51527E-03    -26.4571E-03     52.6521E-03    -26.5307E-03     3.51376E-03
             151    -32.5283E-09     65.4640E-03    -23.3767E+06    -112.896E+06    -23.3682E+06     52.5294E+03    -26.5280E-03     53.1461E-03    -26.6181E-03     3.42112E-03    -26.4472E-03     52.6497E-03    -26.5374E-03     3.42024E-03
             152     27.4494E-09     64.4643E-03    -23.1925E+06    -112.722E+06    -23.2221E+06     28.4922E+03    -26.5764E-03     53.1213E-03    -26.5449E-03     3.37175E-03    -26.4951E-03     52.6252E-03    -26.4639E-03     3.37060E-03
             153     27.1229E-09     63.4650E-03    -23.2220E+06    -112.650E+06    -23.1748E+06     25.7918E+03    -26.5671E-03     53.1137E-03    -26.5466E-03     3.33816E-03    -26.4862E-03     52.6180E-03    -26.4654E-03     3.33701E-03
             154    -50.4929E-09     62.4654E-03    -23.3751E+06    -112.692E+06    -23.3911E+06    -123.074E+03    -26.5497E-03     53.1194E-03    -26.5697E-03     3.29509E-03    -26.4691E-03     52.6240E-03    -26.4894E-03     3.29202E-03
             155     33.3377E-09     61.4660E-03    -23.0878E+06    -112.523E+06    -23.2109E+06     143.792E+03    -26.5549E-03     53.1311E-03    -26.5763E-03     3.34129E-03    -26.4734E-03     52.6359E-03    -26.4957E-03     3.34165E-03
             156    -60.3911E-09     60.4663E-03    -22.9553E+06    -112.186E+06    -22.7943E+06     22.8931E+03    -26.5584E-03     53.1138E-03    -26.5554E-03     3.33210E-03    -26.4774E-03     52.6195E-03    -26.4734E-03     3.33092E-03
             157     89.1832E-09     59.4670E-03    -22.9365E+06    -112.231E+06    -23.0451E+06    -77.6995E+03    -26.5639E-03     53.1072E-03    -26.5433E-03     3.32726E-03    -26.4823E-03     52.6129E-03    -26.4625E-03     3.32479E-03
             158    -88.3491E-09     58.4674E-03    -23.0020E+06    -112.277E+06    -23.0173E+06     42.4255E+03    -26.5396E-03     53.1332E-03    -26.5936E-03     3.35422E-03    -26.4583E-03     52.6388E-03    -26.5125E-03     3.35328E-03
             159    -6.04263E-09     56.4683E-03    -23.2335E+06    -112.411E+06    -23.2402E+06    -14.9962E+03    -26.5742E-03     53.1410E-03    -26.5668E-03     3.42625E-03    -26.4936E-03     52.6466E-03    -26.4863E-03     3.42451E-03
             160     32.0693E-09     55.4688E-03    -23.2752E+06    -112.411E+06    -23.2385E+06    -28.5226E+03    -26.5956E-03     53.1533E-03    -26.5577E-03     3.38624E-03    -26.5152E-03     52.6590E-03    -26.4771E-03     3.38436E-03
             161     3.38677E-09     54.4692E-03    -23.2784E+06    -112.435E+06    -23.3184E+06     6.35695E+03    -26.5919E-03     53.1534E-03    -26.5615E-03     3.36829E-03    -26.5114E-03     52.6590E-03    -26.4813E-03     3.36687E-03
             162     8.74135E-09     53.4697E-03    -23.3068E+06    -112.403E+06    -23.2521E+06    -61.7086E+03    -26.5612E-03     53.1492E-03    -26.5880E-03     3.36684E-03    -26.4810E-03     52.6549E-03    -26.5074E-03     3.36455E-03
             163    -72.5123E-09     52.4701E-03    -23.2464E+06    -112.386E+06    -23.3536E+06     58.2152E+03    -26.5679E-03     53.1426E-03    -26.5747E-03     3.38596E-03    -26.4872E-03     52.6486E-03    -26.4948E-03     3.38522E-03
             164     117.639E-09     51.4706E-03    -23.2761E+06    -112.247E+06    -23.1964E+06     97.9999E+03    -26.5805E-03     53.1251E-03    -26.5446E-03     3.42700E-03    -26.5004E-03     52.6315E-03    -26.4641E-03     3.42674E-03
             165    -104.644E-09     50.4711E-03    -23.3364E+06    -112.301E+06    -23.2760E+06    -122.275E+03    -26.5431E-03     53.0929E-03    -26.5498E-03     3.42961E-03    -26.4632E-03     52.5993E-03    -26.4695E-03     3.42648E-03
             166     75.1056E-09     49.4716E-03    -23.5215E+06    -112.639E+06    -23.5902E+06    -109.784E+03    -26.5435E-03     53.0761E-03    -26.5326E-03     3.43996E-03    -26.4635E-03     52.5815E-03    -26.4531E-03     3.43697E-03
             167    -32.7896E-09     48.4721E-03    -23.4965E+06    -112.620E+06    -23.5882E+06     187.450E+03    -26.5349E-03     53.0575E-03    -26.5226E-03     3.48789E-03    -26.4548E-03     52.5629E-03    -26.4432E-03     3.48874E-03
             168     5.11088E-09     47.4727E-03    -23.8401E+06    -111.969E+06    -23.7296E+06     197.033E+03    -26.5102E-03     53.0317E-03    -26.5215E-03     3.46492E-03    -26.4326E-03     52.5412E-03    -26.4432E-03     3.46590E-03
             169    -1.67125E-09     46.4733E-03    -23.3745E+06    -111.621E+06    -23.3946E+06    -46.9369E+03    -26.4857E-03     52.9809E-03    -26.4952E-03     3.43564E-03    -26.4067E-03     52.4908E-03    -26.4164E-03     3.43346E-03
             170    -24.2083E-09     45.4739E-03    -23.8794E+06    -111.839E+06    -23.8919E+06    -85.3635E+03    -26.4394E-03     52.9081E-03    -26.4687E-03     3.42508E-03    -26.3619E-03     52.4184E-03    -26.3913E-03     3.42240E-03
             171    -6.93024E-09     44.4747E-03    -24.3109E+06    -112.219E+06    -24.3005E+06    -135.504E+03    -26.4247E-03     52.8530E-03    -26.4283E-03     3.40897E-03    -26.3482E-03     52.3626E-03    -26.3518E-03     3.40566E-03
             172     26.3124E-09     43.4754E-03    -23.2305E+06    -112.445E+06    -23.3169E+06     59.2387E+03    -26.4198E-03     52.8018E-03    -26.3820E-03     3.42575E-03    -26.3391E-03     52.3074E-03    -26.3018E-03     3.42496E-03
             173     14.1764E-09     42.4763E-03    -22.8617E+06    -112.036E+06    -22.8869E+06     224.145E+03    -26.3716E-03     52.7180E-03    -26.3464E-03     3.38968E-03    -26.2902E-03     52.2244E-03    -26.2652E-03     3.39104E-03
             174    -16.2464E-09     41.4773E-03    -23.6110E+06    -111.349E+06    -23.5581E+06     125.952E+03    -26.3089E-03     52.6020E-03    -26.2931E-03     3.32187E-03    -26.2313E-03     52.1140E-03    -26.2152E-03     3.32201E-03
             175     41.3791E-09     40.4783E-03    -23.6857E+06    -111.353E+06    -23.5943E+06    -158.014E+03    -26.2348E-03     52.4804E-03    -26.2456E-03     3.29623E-03    -26.1575E-03     51.9925E-03    -26.1677E-03     3.29270E-03
             176    -89.4673E-09     39.4795E-03    -23.5607E+06    -111.575E+06    -23.6922E+06    -2.34294E+03    -26.1680E-03     52.3488E-03    -26.1807E-03     3.26922E-03    -26.0896E-03     51.8597E-03    -26.1032E-03     3.26774E-03
             177     108.739E-09     38.4808E-03    -23.2920E+06    -111.167E+06    -23.2565E+06     189.519E+03    -26.1256E-03     52.2126E-03    -26.0870E-03     3.29975E-03    -26.0470E-03     51.7245E-03    -26.0083E-03     3.30074E-03
             178    -65.1901E-09     37.4823E-03    -23.2722E+06    -110.848E+06    -23.2454E+06     50.4277E+03    -26.0050E-03     52.0329E-03    -26.0279E-03     3.34186E-03    -25.9268E-03     51.5464E-03    -25.9496E-03     3.34103E-03
             179    -23.5200E-09     36.4839E-03    -23.6255E+06    -111.014E+06    -23.5414E+06    -146.515E+03    -25.8842E-03     51.7941E-03    -25.9099E-03     3.26631E-03    -25.8071E-03     51.3077E-03    -25.8324E-03     3.26297E-03
             180     62.9461E-09     35.4860E-03    -22.8329E+06    -111.337E+06    -22.9579E+06    -38.4400E+03    -25.7706E-03     51.5413E-03    -25.7707E-03     3.24154E-03    -25.6900E-03     51.0513E-03    -25.6909E-03     3.23961E-03
             181    -108.823E-09     34.4881E-03    -23.0718E+06    -111.338E+06    -23.1063E+06     118.577E+03    -25.6277E-03     51.2742E-03    -25.6465E-03     3.18566E-03    -25.5481E-03     50.7847E-03    -25.5671E-03     3.18577E-03
             182     116.628E-09     33.4906E-03    -23.0987E+06    -111.061E+06    -23.0651E+06    -2.63853E+03    -25.4577E-03     50.9304E-03    -25.4727E-03     3.18703E-03    -25.3786E-03     50.4423E-03    -25.3935E-03     3.18559E-03
             183    -155.098E-09     32.4934E-03    -23.1787E+06    -110.989E+06    -23.2924E+06     1.07720E+03    -25.2252E-03     50.5070E-03    -25.2817E-03     3.17373E-03    -25.1463E-03     50.0197E-03    -25.2037E-03     3.17239E-03
             184     88.3206E-09     31.4968E-03    -23.0482E+06    -110.633E+06    -23.1150E+06     220.072E+03    -25.0423E-03     50.0748E-03    -25.0325E-03     3.08324E-03    -24.9635E-03     49.5888E-03    -24.9542E-03     3.08475E-03
             185    -9.67957E-09     30.5005E-03    -22.7516E+06    -109.950E+06    -22.5934E+06     196.093E+03    -24.8113E-03     49.5998E-03    -24.7885E-03     3.04033E-03    -24.7328E-03     49.1160E-03    -24.7090E-03     3.04154E-03
             186    -31.5490E-09     29.5049E-03    -22.8230E+06    -109.773E+06    -22.8063E+06    -102.634E+03    -24.5007E-03     49.0316E-03    -24.5309E-03     2.97845E-03    -24.4225E-03     48.5492E-03    -24.4526E-03     2.97583E-03
             187     15.7976E-09     28.5096E-03    -22.9670E+06    -109.726E+06    -23.1409E+06     179.816E+03    -24.1870E-03     48.3809E-03    -24.1939E-03     2.94733E-03    -24.1091E-03     47.8994E-03    -24.1172E-03     2.94847E-03
             188    -18.2353E-09     27.5153E-03    -22.6345E+06    -109.037E+06    -22.5787E+06     338.786E+03    -23.8574E-03     47.7026E-03    -23.8452E-03     2.84095E-03    -23.7796E-03     47.2233E-03    -23.7672E-03     2.84415E-03
             189     38.7705E-09     26.5215E-03    -22.3552E+06    -108.473E+06    -22.2048E+06    -6.54022E+03    -23.5119E-03     47.0145E-03    -23.5026E-03     2.68361E-03    -23.4341E-03     46.5370E-03    -23.4239E-03     2.68234E-03
             190    -44.6390E-09     25.5286E-03    -21.8699E+06    -107.740E+06    -22.0624E+06     130.289E+03    -23.1437E-03     46.2903E-03    -23.1466E-03     2.57696E-03    -23.0647E-03     45.8155E-03    -23.0689E-03     2.57753E-03
             191     39.9859E-09     24.5361E-03    -21.3498E+06    -106.450E+06    -21.2512E+06     462.546E+03    -22.7426E-03     45.4956E-03    -22.7530E-03     2.56036E-03    -22.6641E-03     45.0254E-03    -22.6739E-03     2.56532E-03
             192    -55.6669E-09     23.5447E-03    -21.0406E+06    -105.631E+06    -20.9147E+06     120.100E+03    -22.3041E-03     44.6089E-03    -22.3048E-03     2.49092E-03    -22.2256E-03     44.1418E-03    -22.2257E-03     2.49154E-03
             193     68.5201E-09     22.5541E-03    -21.4498E+06    -105.591E+06    -21.4934E+06    -28.8561E+03    -21.8739E-03     43.7114E-03    -21.8375E-03     2.37032E-03    -21.7967E-03     43.2460E-03    -21.7607E-03     2.36902E-03
             194    -20.5141E-09     21.5645E-03    -21.0415E+06    -104.551E+06    -21.4014E+06     659.140E+03    -21.3946E-03     42.7798E-03    -21.3852E-03     2.23104E-03    -21.3170E-03     42.3189E-03    -21.3101E-03     2.23869E-03
             195    -17.6942E-09     20.5757E-03    -19.5424E+06    -101.879E+06    -19.5025E+06     1.13592E+06    -20.8787E-03     41.7716E-03    -20.8928E-03     2.07807E-03    -20.8003E-03     41.3190E-03    -20.8143E-03     2.09198E-03
             196     29.3123E-09     19.5882E-03    -19.3179E+06    -100.364E+06    -18.5297E+06    -161.780E+03    -20.3489E-03     40.7020E-03    -20.3531E-03     1.91800E-03    -20.2729E-03     40.2553E-03    -20.2722E-03     1.91521E-03
             197    -41.3636E-09     18.6015E-03    -19.8882E+06    -100.940E+06    -20.6171E+06    -247.394E+03    -19.7548E-03     39.5116E-03    -19.7568E-03     1.75744E-03    -19.6778E-03     39.0659E-03    -19.6847E-03     1.75360E-03
             198     40.0762E-09     17.6161E-03    -19.1543E+06    -98.9496E+06    -19.5357E+06     1.48679E+06    -19.1204E-03     38.1994E-03    -19.0791E-03     1.53509E-03    -19.0442E-03     37.7611E-03    -19.0055E-03     1.55372E-03
             199     28.6469E-09     16.6322E-03    -15.1110E+06    -93.4152E+06    -15.0551E+06     1.63735E+06    -18.4328E-03     36.8112E-03    -18.3784E-03     1.32346E-03    -18.3510E-03     36.3882E-03    -18.2963E-03     1.34410E-03
             200    -1.46725E-09     15.6495E-03    -13.8237E+06    -88.3114E+06    -13.9364E+06     1.24134E+06    -17.6948E-03     35.3323E-03    -17.6375E-03     1.12002E-03    -17.6155E-03     34.9312E-03    -17.5591E-03     1.13561E-03
             201     73.6497E-09     14.6684E-03    -11.8823E+06    -84.1041E+06    -11.8175E+06     1.36850E+06    -16.9135E-03     33.7609E-03    -16.8474E-03     946.513E-06    -16.8337E-03     33.3750E-03    -16.7673E-03     963.804E-06
             202    -28.6274E-09     13.6888E-03    -6.30951E+06    -80.0087E+06    -6.11523E+06     1.12025E+06    -16.0313E-03     32.0398E-03    -16.0085E-03     727.950E-06    -15.9378E-03     31.6580E-03    -15.9139E-03     742.099E-06
             203     25.9479E-09     12.7111E-03    -4.80682E+06    -77.4900E+06    -4.62870E+06     401.700E+03    -15.0404E-03     30.0301E-03    -14.9897E-03     481.023E-06    -14.9453E-03     29.6566E-03    -14.8936E-03     485.933E-06
             204     68.8025E-09     11.7353E-03    -7.93165E+06    -76.9089E+06    -7.94287E+06     77.2909E+03    -13.9685E-03     27.8343E-03    -13.8658E-03     379.141E-06    -13.8850E-03     27.4730E-03    -13.7825E-03     379.836E-06
             205     18.7248E-09     10.7619E-03    -12.3914E+06    -76.9641E+06    -12.1885E+06    -110.103E+03    -12.9470E-03     25.8230E-03    -12.8759E-03     381.819E-06    -12.8796E-03     25.4740E-03    -12.8073E-03     380.070E-06
             206     22.4209E-09     9.79001E-03    -15.6040E+06    -77.5338E+06    -15.5176E+06    -197.309E+03    -12.3119E-03     24.5644E-03    -12.2525E-03     529.110E-06    -12.2549E-03     24.2221E-03    -12.1950E-03     526.223E-06
             207     42.8525E-09     8.81908E-03    -16.9014E+06    -78.5794E+06    -16.5339E+06    -359.141E+03    -12.2681E-03     24.5156E-03    -12.2475E-03     789.283E-06    -12.2146E-03     24.1714E-03    -12.1917E-03     784.331E-06
             208    -67.6582E-09     7.84722E-03    -15.9040E+06    -80.2874E+06    -15.6821E+06    -574.329E+03    -12.8559E-03     25.7038E-03    -12.8479E-03     1.03073E-03    -12.7962E-03     25.3484E-03    -12.7868E-03     1.02305E-03
             209     108.806E-09     6.87390E-03    -13.1222E+06    -82.3240E+06    -13.0819E+06    -651.262E+03    -13.9001E-03     27.8063E-03    -13.9061E-03     1.20894E-03    -13.8273E-03     27.4328E-03    -13.8331E-03     1.20031E-03
             210    -160.322E-09     5.89800E-03    -10.8760E+06    -84.4211E+06    -11.0668E+06    -615.242E+03    -15.1194E-03     30.3298E-03    -15.2103E-03     1.27156E-03    -15.0353E-03     29.9397E-03    -15.1275E-03     1.26343E-03
             211     48.2726E-09     4.91960E-03    -10.7924E+06    -86.4540E+06    -10.8214E+06    -620.814E+03    -16.4158E-03     32.8561E-03    -16.4404E-03     1.18595E-03    -16.3286E-03     32.4554E-03    -16.3535E-03     1.17777E-03
             212     19.4018E-09     3.93898E-03    -11.3286E+06    -88.4366E+06    -11.2904E+06    -637.229E+03    -17.6005E-03     35.1568E-03    -17.5563E-03     1.06481E-03    -17.5125E-03     34.7477E-03    -17.4681E-03     1.05641E-03
             213    -8.67147E-09     2.95606E-03    -11.5194E+06    -90.1168E+06    -11.7714E+06    -405.122E+03    -18.5194E-03     37.0690E-03    -18.5496E-03     862.980E-06    -18.4291E-03     36.6525E-03    -18.4611E-03     857.586E-06
             214    -58.5709E-09     1.97166E-03    -11.3338E+06    -90.9865E+06    -11.5432E+06    -102.058E+03    -19.2144E-03     38.4749E-03    -19.2605E-03     603.111E-06    -19.1221E-03     38.0534E-03    -19.1698E-03     601.730E-06
             215     41.4365E-09     986.073E-06    -11.0079E+06    -91.2246E+06    -10.9177E+06    -57.4607E+03    -19.6867E-03     39.3345E-03    -19.6478E-03     308.936E-06    -19.5933E-03     38.9105E-03    -19.5542E-03     308.271E-06
             216     882.386E-06    -131.839E-18    -10.7698E+06    -91.3115E+06    -10.7393E+06    -69.0289E+03    -19.9173E-03     39.7314E-03    -19.8142E-03     275.021E-06    -19.8229E-03     39.3062E-03    -19.7199E-03     274.188E-06
             217     1.76454E-03    -131.839E-18    -10.6472E+06    -91.5146E+06    -10.9836E+06    -88.8157E+03    -20.1152E-03     40.0294E-03    -19.9142E-03     511.953E-06    -20.0197E-03     39.6032E-03    -19.8210E-03     510.755E-06
             218     2.64658E-03    -131.839E-18    -10.6665E+06    -91.9888E+06    -11.4552E+06    -91.4803E+03    -20.4728E-03     40.5072E-03    -20.0344E-03     772.858E-06    -20.3761E-03     40.0793E-03    -19.9429E-03     771.579E-06
             219     3.52807E-03    -131.839E-18    -10.5208E+06    -92.8688E+06    -12.8362E+06    -520.941E+03    -20.9769E-03     41.1733E-03    -20.1964E-03     1.06171E-03    -20.8762E-03     40.7428E-03    -20.1107E-03     1.05485E-03
             220     4.40921E-03    -131.839E-18    -10.0520E+06    -94.1973E+06    -15.3170E+06    -838.049E+03    -21.6306E-03     42.0310E-03    -20.4004E-03     1.39881E-03    -21.5220E-03     41.5968E-03    -20.3258E-03     1.38780E-03
             221     5.28950E-03    -131.839E-18    -9.15058E+06    -95.8215E+06    -19.0160E+06    -1.63306E+06    -22.4471E-03     43.0942E-03    -20.6471E-03     1.78085E-03    -22.3263E-03     42.6559E-03    -20.5899E-03     1.75951E-03
             222     6.16922E-03    -131.839E-18    -7.37861E+06    -97.3320E+06    -24.4642E+06    -2.56120E+06    -23.4331E-03     44.3675E-03    -20.9344E-03     2.25170E-03    -23.2934E-03     43.9270E-03    -20.9049E-03     2.21829E-03
             223     7.04766E-03    -131.839E-18    -4.92848E+06    -95.5076E+06    -30.8067E+06    -3.35103E+06    -24.5703E-03     45.8331E-03    -21.2628E-03     2.80104E-03    -24.4117E-03     45.4074E-03    -21.2712E-03     2.75729E-03
             224     7.92541E-03    -131.839E-18    -1.91840E+06    -91.5894E+06    -37.0071E+06    -3.98574E+06    -25.8789E-03     47.5191E-03    -21.6402E-03     3.42303E-03    -25.7020E-03     47.1176E-03    -21.6896E-03     3.37084E-03
             225     8.80151E-03    -131.839E-18     1.50053E+06    -84.2895E+06    -43.3728E+06    -4.41995E+06    -27.3698E-03     49.4352E-03    -22.0654E-03     4.26867E-03    -27.1772E-03     49.0745E-03    -22.1622E-03     4.21065E-03
             226     9.67632E-03    -131.839E-18     5.07287E+06    -71.3713E+06    -47.8329E+06    -4.87797E+06    -28.9691E-03     51.5140E-03    -22.5450E-03     5.23273E-03    -28.7709E-03     51.2193E-03    -22.6880E-03     5.16816E-03
             227     10.5497E-03    -131.839E-18     8.91082E+06    -55.6471E+06    -47.3865E+06    -4.88759E+06    -30.7416E-03     53.8384E-03    -23.0969E-03     6.28609E-03    -30.5477E-03     53.6162E-03    -23.2660E-03     6.22034E-03
             228     11.4214E-03    -131.839E-18     12.6174E+06    -36.2770E+06    -43.0232E+06    -4.07819E+06    -32.7655E-03     56.4858E-03    -23.7203E-03     7.95607E-03    -32.5876E-03     56.3487E-03    -23.9012E-03     7.89986E-03
             229     12.2900E-03    -131.839E-18     14.8335E+06    -9.22967E+06    -34.2989E+06    -2.80060E+06    -34.9069E-03     59.3230E-03    -24.4161E-03     10.1809E-03    -34.7699E-03     59.3055E-03    -24.5958E-03     10.1391E-03
             230     13.1579E-03    -131.839E-18     14.0600E+06     26.6974E+06    -26.1974E+06    -520.175E+03    -37.3877E-03     62.5521E-03    -25.1644E-03     12.9849E-03    -37.3189E-03     62.7040E-03    -25.3545E-03     12.9680E-03
             231     14.0216E-03    -131.839E-18     12.4068E+06     57.4268E+06    -10.2671E+06     222.847E+03    -41.2106E-03     67.2751E-03    -26.0644E-03     15.7168E-03    -41.2184E-03     67.5609E-03    -26.2170E-03     15.7008E-03
             232     14.8848E-03    -131.839E-18     10.9078E+06     80.7712E+06     23.6139E+06     640.269E+03    -48.7105E-03     76.0040E-03    -27.2935E-03     26.6705E-03    -48.8086E-03     76.3581E-03    -27.3084E-03     26.6706E-03
             233     15.7223E-03    -131.839E-18     5.62194E+06     95.1584E+06     56.6158E+06     5.04422E+06    -56.4744E-03     85.3320E-03    -28.8576E-03     59.2690E-03    -56.6878E-03     85.7233E-03    -28.7207E-03     59.2916E-03
             234     16.5366E-03    -131.839E-18     3.51725E+06     103.048E+06     74.8045E+06     5.30206E+06    -60.6448E-03     91.2070E-03    -30.5622E-03     90.5914E-03    -61.0290E-03     91.7497E-03    -30.3427E-03     90.3506E-03
             235     17.4641E-03     1.04965E-03    -1.32363E+06     110.923E+06     75.3777E+06     6.86260E+06    -69.6252E-03     99.3750E-03    -29.7499E-03     86.4711E-03    -70.2638E-03     100.200E-03    -29.5319E-03     85.8537E-03
             236     17.5040E-03     2.13405E-03    -3.97981E+06     121.515E+06     75.0110E+06     8.68639E+06    -73.8181E-03     101.183E-03    -27.3653E-03     85.5666E-03    -74.8044E-03     102.374E-03    -27.1607E-03     84.7785E-03
             237     17.5200E-03     3.18241E-03    -2.30194E+06     132.878E+06     82.3862E+06     4.64985E+06    -73.0366E-03     99.3221E-03    -26.2855E-03     92.6000E-03    -74.2969E-03     100.809E-03    -26.0629E-03     91.7203E-03
             238     17.5250E-03     4.23813E-03    -3.67948E+06     138.070E+06     87.6436E+06     2.16925E+06    -74.3888E-03     100.232E-03    -25.8428E-03     88.3381E-03    -75.7913E-03     101.858E-03    -25.5995E-03     87.4720E-03
             239     17.5280E-03     5.28288E-03    -2.16602E+06     140.596E+06     90.7973E+06     1.53108E+06    -72.1486E-03     97.9237E-03    -25.7751E-03     85.5305E-03    -73.6168E-03     99.6195E-03    -25.5218E-03     84.8178E-03
             240     17.5256E-03     6.32681E-03    -1.35862E+06     142.448E+06     91.8043E+06     620.426E+03    -69.4292E-03     95.2636E-03    -25.8344E-03     81.2981E-03    -70.9016E-03     96.9700E-03    -25.5799E-03     80.7537E-03
             241     17.5276E-03     7.36462E-03    -3.16061E+06     142.128E+06     89.9075E+06    -464.273E+03    -66.4790E-03     92.3925E-03    -25.9136E-03     77.4735E-03    -67.9393E-03     94.0847E-03    -25.6655E-03     77.1016E-03
             242     17.5249E-03     8.40249E-03    -1.34173E+06     144.527E+06     91.2054E+06     711.626E+03    -62.1837E-03     88.2216E-03    -26.0379E-03     74.5500E-03    -63.6088E-03     89.8908E-03    -25.7895E-03     74.4175E-03
             243     17.5270E-03     9.43738E-03    -1.97431E+06     144.885E+06     90.2550E+06    -79.2701E+03    -57.4252E-03     83.5686E-03    -26.1435E-03     76.3792E-03    -58.8818E-03     85.2707E-03    -25.8994E-03     76.4780E-03
             244     17.5262E-03     10.4619E-03    -2.53913E+06     146.062E+06     90.7185E+06    -392.411E+03    -54.5120E-03     80.7043E-03    -26.1923E-03     76.5314E-03    -55.9891E-03     82.4281E-03    -25.9468E-03     76.8063E-03
             245     17.5274E-03     11.4957E-03     405.317E+03     149.426E+06     93.4984E+06     1.20732E+06    -50.3027E-03     76.5936E-03    -26.2909E-03     78.7533E-03    -51.7999E-03     78.3523E-03    -26.0407E-03     79.2599E-03
             246     17.5267E-03     12.5145E-03    -1.87968E+06     147.975E+06     91.4552E+06     863.043E+03    -46.1416E-03     72.5385E-03    -26.3969E-03     79.5828E-03    -47.6725E-03     74.3223E-03    -26.1515E-03     80.2955E-03
             247     17.5265E-03     13.5281E-03    -2.25756E+06     148.274E+06     91.5796E+06      34.537E+03    -44.5649E-03     70.9852E-03    -26.4202E-03     75.0103E-03    -46.0697E-03     72.7422E-03    -26.1740E-03     75.8203E-03
             248     17.5285E-03     14.5450E-03    -4.26966E+06     147.508E+06     89.8794E+06     447.517E+03    -43.3520E-03     69.7552E-03    -26.4032E-03     76.2333E-03    -44.8852E-03     71.5369E-03    -26.1615E-03     77.1461E-03
             249     17.5276E-03     15.5718E-03    -3.89189E+06     149.590E+06     91.2395E+06     738.587E+03    -41.6445E-03     68.1089E-03    -26.4644E-03     80.9280E-03    -43.2864E-03     70.0037E-03    -26.2195E-03     82.0073E-03
             250     17.5264E-03     16.5781E-03     228.040E+03     153.584E+06     94.9701E+06      974.34E+03    -38.2089E-03     64.7337E-03    -26.5248E-03     79.1309E-03    -39.8361E-03     66.6308E-03    -26.2730E-03     80.3823E-03
             251     17.5319E-03     17.5847E-03    -2.20381E+06     151.865E+06     92.8298E+06    -1.67444E+06    -37.2123E-03     63.6476E-03    -26.4353E-03     83.4493E-03    -38.8795E-03     65.5777E-03    -26.1882E-03     84.7786E-03
             252     17.5300E-03     18.6129E-03    -1.50874E+06     154.481E+06     95.4062E+06     745.284E+03    -37.6977E-03     64.1307E-03    -26.4330E-03     92.4949E-03    -39.5072E-03     66.2079E-03    -26.1777E-03     93.9224E-03
             253     17.5286E-03     19.6211E-03    -3.27462E+06     155.258E+06     93.7877E+06     2.95179E+06    -32.9002E-03     59.5025E-03    -26.6023E-03     87.7160E-03    -34.6798E-03     61.5497E-03    -26.3537E-03     89.3186E-03
             254     17.5293E-03     20.6019E-03    -5.41400E+06     152.489E+06     90.0112E+06    -1.65220E+06    -33.1216E-03     59.6401E-03    -26.5184E-03     79.8100E-03    -34.7873E-03     61.5674E-03    -26.2816E-03     81.3552E-03
             255     17.5334E-03     21.6236E-03    -1.47235E+06     155.374E+06      95.052E+06    -2.23938E+06    -35.3550E-03     61.7339E-03    -26.3789E-03     80.3893E-03    -36.9912E-03     63.6427E-03    -26.1268E-03     81.8443E-03
             256     17.5311E-03     22.6461E-03     2.54605E+06     158.103E+06     99.5657E+06     247.349E+03    -30.3673E-03     56.8946E-03    -26.5274E-03     93.0921E-03    -32.1854E-03     58.9955E-03    -26.2625E-03     94.8834E-03
             257     17.5318E-03     23.6335E-03    -2.49131E+06     152.526E+06     94.0825E+06     1.00389E+06    -30.5306E-03     57.0753E-03    -26.5447E-03     91.7443E-03    -32.3418E-03     59.1461E-03    -26.2918E-03     93.5689E-03
             258     17.5305E-03     24.6338E-03    -7.60618E+06     149.498E+06     90.0591E+06     591.129E+03    -33.9209E-03     60.3671E-03    -26.4462E-03     76.5105E-03    -35.5355E-03     62.2243E-03    -26.2017E-03     78.0897E-03
             259     17.5318E-03     25.6458E-03    -2.89363E+06     154.678E+06     94.6672E+06     897.303E+03    -31.7594E-03     58.2527E-03    -26.4932E-03     77.3163E-03    -33.3820E-03     60.1398E-03    -26.2400E-03     79.0199E-03
             260     17.5317E-03     26.6518E-03    -2.92582E+06     155.997E+06     95.3217E+06     129.133E+03    -28.9479E-03     55.5060E-03    -26.5581E-03     82.6888E-03    -30.6429E-03     57.4681E-03    -26.3035E-03     84.5522E-03
             261     17.5314E-03     27.6518E-03    -2.85372E+06     157.337E+06     95.9567E+06     745.972E+03    -28.3962E-03     54.9702E-03    -26.5741E-03     82.9256E-03    -30.1016E-03     56.9457E-03    -26.3183E-03     84.8424E-03
             262     17.5320E-03     28.6531E-03    -2.99303E+06     158.279E+06     96.2107E+06     313.181E+03    -28.4788E-03     55.0407E-03    -26.5619E-03     81.7162E-03    -30.1675E-03     57.0016E-03    -26.3060E-03     83.6191E-03
             263     17.5317E-03     29.6562E-03    -2.56618E+06     158.509E+06     96.6848E+06     67.4856E+03    -28.2539E-03     54.8130E-03    -26.5590E-03     82.1775E-03    -29.9522E-03     56.7845E-03    -26.3017E-03     84.0950E-03
             264     17.5324E-03     30.6578E-03    -2.56590E+06     158.253E+06     96.9079E+06    -343.487E+03    -27.9218E-03     54.4815E-03    -26.5597E-03     83.3943E-03    -29.6417E-03     56.4730E-03    -26.3009E-03     85.3413E-03
             265     17.5320E-03     31.6600E-03    -2.83593E+06     157.551E+06     96.7747E+06    -269.983E+03    -27.7317E-03     54.3007E-03    -26.5690E-03     83.6908E-03    -29.4599E-03     56.2975E-03    -26.3095E-03     85.6646E-03
             266     17.5319E-03     32.6608E-03    -2.09074E+06     157.751E+06     97.1818E+06     931.045E+03    -26.8654E-03     53.4528E-03    -26.5873E-03     83.8564E-03    -28.5875E-03     55.4456E-03    -26.3271E-03     85.8678E-03
             267     17.5328E-03     33.6600E-03    -2.58858E+06     158.581E+06     97.2239E+06     502.707E+03    -26.7811E-03     53.3684E-03    -26.5873E-03     83.3347E-03    -28.5072E-03     55.3663E-03    -26.3274E-03     85.3519E-03
             268     17.5311E-03     34.6604E-03    -3.87303E+06     159.841E+06     97.4498E+06     559.264E+03    -27.5904E-03     54.1817E-03    -26.5913E-03     82.2421E-03    -29.3230E-03     56.1854E-03    -26.3302E-03     84.2473E-03
             269     17.5319E-03     35.6626E-03    -1.51852E+06     161.485E+06     98.3828E+06     1.06991E+06    -25.2968E-03     51.9171E-03    -26.6203E-03     82.4128E-03    -27.0062E-03     53.9091E-03    -26.3603E-03     84.4508E-03
             270     17.5341E-03     36.6586E-03    -271.837E+03     162.792E+06     99.6999E+06    -1.20149E+06    -24.8898E-03     51.4862E-03    -26.5964E-03     84.9164E-03    -26.6177E-03     53.5021E-03    -26.3335E-03     86.9649E-03
             271     17.5317E-03     37.6592E-03    -2.20274E+06     161.031E+06     98.5611E+06    -950.076E+03    -27.9255E-03     54.4686E-03    -26.5431E-03     83.3229E-03    -29.6402E-03     56.4615E-03    -26.2806E-03     85.2769E-03
             272     17.5325E-03     38.6624E-03    -2.88669E+06     160.609E+06     97.4474E+06     1.91243E+06    -27.3126E-03     53.8806E-03    -26.5681E-03     82.3181E-03    -29.0250E-03     55.8704E-03    -26.3095E-03     84.3181E-03
             273     17.5323E-03     39.6606E-03    -3.58531E+06     163.221E+06     98.0056E+06     753.591E+03    -26.3210E-03     52.9019E-03    -26.5809E-03     84.6104E-03    -28.0827E-03     54.9461E-03    -26.3223E-03     86.6799E-03
             274     17.5328E-03     40.6628E-03    -3.01552E+06     163.559E+06     98.5349E+06    -957.678E+03    -26.9873E-03     53.5529E-03    -26.5657E-03     84.7804E-03    -28.7507E-03     55.6006E-03    -26.3058E-03     86.8147E-03
             275     17.5319E-03     41.6632E-03    -2.90667E+06     163.576E+06     98.6646E+06     63.3792E+03    -26.0743E-03     52.6717E-03    -26.5974E-03     84.3401E-03    -27.8298E-03     54.7115E-03    -26.3370E-03     86.4192E-03
             276     17.5327E-03     42.6609E-03    -2.45297E+06     164.044E+06     99.0258E+06     581.276E+03    -25.1806E-03     51.7969E-03    -26.6163E-03     84.2948E-03    -26.9273E-03     53.8301E-03    -26.3555E-03     86.4024E-03
             277     17.5324E-03     43.6592E-03    -2.76510E+06     163.707E+06     99.0947E+06    -327.595E+03    -25.8226E-03     52.4198E-03    -26.5972E-03     83.8580E-03    -27.5643E-03     54.4455E-03    -26.3351E-03     85.9183E-03
             278     17.5324E-03     44.6602E-03    -2.52158E+06     163.432E+06     99.2161E+06    -159.436E+03    -26.2932E-03     52.8794E-03    -26.5862E-03     83.8294E-03    -28.0361E-03     54.9058E-03    -26.3234E-03     85.8760E-03
             279     17.5326E-03     45.6592E-03    -1.89197E+06     163.501E+06     99.8359E+06     110.513E+03    -26.2336E-03     52.8206E-03    -26.5870E-03     84.0057E-03    -27.9740E-03     54.8452E-03    -26.3222E-03     86.0585E-03
             280     17.5324E-03     46.6596E-03    -3.00209E+06     163.583E+06     99.4303E+06     3.19312E+03    -25.7300E-03     52.3263E-03    -26.5963E-03     84.0324E-03    -27.4773E-03     54.3554E-03    -26.3320E-03     86.1066E-03
             281     17.5328E-03     47.6589E-03    -2.78782E+06     163.704E+06      99.294E+06     320.883E+03    -25.6929E-03     52.3001E-03    -26.6072E-03     85.3020E-03    -27.4607E-03     54.3512E-03    -26.3441E-03     87.4042E-03
             282     17.5315E-03     48.6585E-03    -1.99918E+06     164.431E+06     99.7041E+06     308.860E+03    -25.9036E-03     52.5130E-03    -26.6095E-03     83.9674E-03    -27.6607E-03     54.5577E-03    -26.3465E-03     86.0434E-03
             283     17.5331E-03     49.6550E-03    -2.67423E+06     164.737E+06     99.6178E+06    -362.597E+03    -26.4729E-03     53.0582E-03    -26.5853E-03     84.0215E-03    -28.2270E-03     55.0987E-03    -26.3222E-03     86.0744E-03
             284     17.5319E-03     50.6598E-03    -2.01940E+06     165.112E+06      99.916E+06     938.077E+03    -25.9346E-03     52.5258E-03    -26.5912E-03     85.9897E-03    -27.6930E-03     54.5736E-03    -26.3281E-03     88.0604E-03
             285     17.5334E-03     51.6602E-03    -1.59977E+06     165.430E+06     100.214E+06     351.873E+03    -24.0503E-03     50.6872E-03    -26.6370E-03     87.1427E-03    -25.8157E-03     52.7440E-03    -26.3735E-03     89.2646E-03
             286     17.5319E-03     52.6488E-03    -2.54923E+06     164.266E+06     99.5507E+06    -769.062E+03    -25.7554E-03     52.3496E-03    -26.5942E-03     80.7533E-03    -27.4411E-03     54.3209E-03    -26.3309E-03     82.7628E-03
             287     17.5329E-03     53.6487E-03    -2.92677E+06     163.513E+06     99.2032E+06    -346.513E+03    -28.0415E-03     54.5788E-03    -26.5373E-03     74.8200E-03    -29.6475E-03     56.4672E-03    -26.2741E-03     76.7007E-03
             288     17.5319E-03     54.6557E-03    -3.38726E+06     163.293E+06     98.8994E+06     106.885E+03    -27.0691E-03     53.6441E-03    -26.5750E-03     79.8965E-03    -28.7485E-03     55.6044E-03    -26.3123E-03     81.8674E-03
             289     17.5323E-03     55.6590E-03    -2.57703E+06     164.544E+06     99.4445E+06     721.691E+03    -25.1603E-03     51.7825E-03    -26.6221E-03     84.9721E-03    -26.9298E-03     53.8387E-03    -26.3598E-03     87.0788E-03
             290     17.5329E-03     56.6514E-03    -2.41262E+06     165.460E+06     100.284E+06    -551.855E+03    -25.6208E-03     52.2209E-03    -26.6000E-03     83.8022E-03    -27.3728E-03     54.2608E-03    -26.3350E-03     85.8873E-03
             291     17.5322E-03     57.6544E-03    -2.82943E+06     164.485E+06     99.8663E+06    -228.859E+03    -25.9891E-03     52.5859E-03    -26.5968E-03     81.4832E-03    -27.6905E-03     54.5716E-03    -26.3319E-03     83.5150E-03
             292     876.465E-06     58.4706E-03    -22.8392E+06    -111.796E+06    -22.4240E+06     22.8310E+03    -26.5540E-03     53.1334E-03    -26.5794E-03     5.68375E-03    -26.4737E-03     52.6403E-03    -26.4963E-03     5.68144E-03
             293     1.75298E-03     58.4782E-03    -22.2794E+06    -110.834E+06    -20.7147E+06    -5.18114E+03    -26.5920E-03     53.1618E-03    -26.5698E-03     10.5767E-03    -26.5131E-03     52.6704E-03    -26.4804E-03     10.5716E-03
             294     2.62945E-03     58.4906E-03    -21.3277E+06    -109.255E+06    -17.8431E+06     10.6924E+03    -26.6289E-03     53.2104E-03    -26.5815E-03     15.7687E-03    -26.5522E-03     52.7218E-03    -26.4813E-03     15.7609E-03
             295     3.50591E-03     58.5081E-03    -20.1070E+06    -107.493E+06    -14.4975E+06     27.4097E+03    -26.6669E-03     53.2605E-03    -26.5936E-03     21.0056E-03    -26.5924E-03     52.7750E-03    -26.4811E-03     20.9945E-03
             296     4.38241E-03     58.5305E-03    -18.6806E+06    -103.102E+06    -11.0168E+06     35.3469E+03    -26.7142E-03     53.3143E-03    -26.6000E-03     26.2789E-03    -26.6453E-03     52.8449E-03    -26.4785E-03     26.2638E-03
             297     5.25890E-03     58.5580E-03    -17.0817E+06    -97.3451E+06    -7.01620E+06     50.0836E+03    -26.7721E-03     53.3775E-03    -26.6053E-03     31.5817E-03    -26.7112E-03     52.9307E-03    -26.4745E-03     31.5615E-03
             298     6.13542E-03     58.5905E-03    -15.3638E+06    -93.4447E+06    -3.10972E+06     72.9485E+03    -26.8481E-03     53.4599E-03    -26.6118E-03     36.8264E-03    -26.7927E-03     53.0272E-03    -26.4696E-03     36.8000E-03
             299     7.01194E-03     58.6279E-03    -13.6619E+06    -88.0564E+06    -172.787E+03     110.799E+03    -26.9342E-03     53.5450E-03    -26.6109E-03     42.0238E-03    -26.8864E-03     53.1366E-03    -26.4642E-03     41.9898E-03
             300     7.88849E-03     58.6703E-03    -12.1178E+06    -80.9689E+06     1.29117E+06     127.390E+03    -27.0348E-03     53.6350E-03    -26.6002E-03     47.1511E-03    -26.9974E-03     53.2634E-03    -26.4587E-03     47.1073E-03
             301     8.76503E-03     58.7174E-03    -10.7048E+06    -76.0551E+06     2.37160E+06     121.011E+03    -27.1486E-03     53.7397E-03    -26.5912E-03     52.1514E-03    -27.1210E-03     53.3973E-03    -26.4535E-03     52.0951E-03
             302     9.64158E-03     58.7693E-03    -9.53436E+06    -71.2325E+06     1.71990E+06     129.828E+03    -27.2744E-03     53.8489E-03    -26.5745E-03     57.1056E-03    -27.2588E-03     53.5415E-03    -26.4488E-03     57.0343E-03
             303     10.5181E-03     58.8259E-03    -8.64875E+06    -62.6384E+06    -231.603E+03     117.786E+03    -27.3966E-03     53.9431E-03    -26.5465E-03     61.9305E-03    -27.4029E-03     53.6971E-03    -26.4443E-03     61.8407E-03
             304     11.3947E-03     58.8869E-03    -7.99856E+06    -50.7091E+06     125.101E+03     155.460E+03    -27.5173E-03     54.0422E-03    -26.5250E-03     67.4839E-03    -27.5635E-03     53.8797E-03    -26.4392E-03     67.3729E-03
             305     12.2713E-03     58.9540E-03    -7.46042E+06    -39.4386E+06    -2.28903E+06     231.991E+03    -27.7891E-03     54.2806E-03    -26.4915E-03     75.2102E-03    -27.8896E-03     54.2212E-03    -26.4349E-03     75.0718E-03
             306     13.1476E-03     59.0298E-03    -7.18398E+06    -23.9364E+06    -7.10224E+06     282.976E+03    -27.9463E-03     54.3886E-03    -26.4423E-03     80.8621E-03    -28.1271E-03     54.4795E-03    -26.4327E-03     80.6926E-03
             307     14.0242E-03     59.1077E-03    -7.25234E+06     11.5129E+06    -8.52266E+06     109.404E+03    -28.2077E-03     54.5865E-03    -26.3788E-03     92.4928E-03    -28.5708E-03     54.9894E-03    -26.4276E-03     92.2967E-03
             308     14.9007E-03     59.2059E-03    -7.67537E+06     65.9161E+06    -15.1526E+06    -328.454E+03    -29.8396E-03     56.0939E-03    -26.2543E-03     131.172E-03    -30.8662E-03     57.3712E-03    -26.4145E-03     130.997E-03
             309     15.7776E-03     59.3555E-03    -7.82803E+06     123.220E+06     13.6379E+06    -261.891E+03    -32.4914E-03     58.7803E-03    -26.2888E-03     192.083E-03    -35.9106E-03     62.5695E-03    -26.3880E-03     192.717E-03
             310     16.6572E-03     59.5718E-03    -4.98827E+06     157.951E+06     74.6713E+06     121.653E+03    -29.8430E-03     56.3446E-03    -26.5016E-03     154.183E-03    -33.3546E-03     60.1827E-03    -26.3500E-03     155.925E-03
             311     876.494E-06     59.4700E-03    -22.7515E+06    -111.809E+06    -22.4447E+06    -26.5092E+03    -26.5751E-03     53.1277E-03    -26.5526E-03     5.68925E-03    -26.4942E-03     52.6344E-03    -26.4697E-03     5.68630E-03
             312     1.75295E-03     59.4777E-03    -22.2068E+06    -110.870E+06    -20.7072E+06     34.7780E+03    -26.5983E-03     53.1668E-03    -26.5685E-03     10.5973E-03    -26.5189E-03     52.6751E-03    -26.4791E-03     10.5927E-03
             313     2.62943E-03     59.4902E-03    -21.2905E+06    -109.300E+06    -17.8512E+06     59.0446E+03    -26.6268E-03     53.2083E-03    -26.5815E-03     15.7682E-03    -26.5498E-03     52.7195E-03    -26.4814E-03     15.7610E-03
             314     3.50593E-03     59.5076E-03    -20.0643E+06    -107.530E+06    -14.4965E+06     93.7183E+03    -26.6676E-03     53.2610E-03    -26.5934E-03     21.0090E-03    -26.5928E-03     52.7753E-03    -26.4808E-03     20.9988E-03
             315     4.38240E-03     59.5300E-03    -18.6542E+06    -103.087E+06    -10.9527E+06     75.4994E+03    -26.7153E-03     53.3155E-03    -26.6002E-03     26.2941E-03    -26.6463E-03     52.8461E-03    -26.4784E-03     26.2795E-03
             316     5.25892E-03     59.5576E-03    -17.0642E+06    -97.3710E+06    -6.94618E+06     49.0889E+03    -26.7726E-03     53.3783E-03    -26.6057E-03     31.6019E-03    -26.7116E-03     52.9313E-03    -26.4745E-03     31.5818E-03
             317     6.13542E-03     59.5900E-03    -15.3612E+06    -93.5070E+06    -3.05546E+06     89.6517E+03    -26.8484E-03     53.4606E-03    -26.6122E-03     36.8468E-03    -26.7930E-03     53.0276E-03    -26.4696E-03     36.8207E-03
             318     7.01196E-03     59.6275E-03    -13.6558E+06    -88.1056E+06    -126.227E+03     130.646E+03    -26.9359E-03     53.5471E-03    -26.6112E-03     42.0437E-03    -26.8880E-03     53.1384E-03    -26.4643E-03     42.0100E-03
             319     7.88849E-03     59.6698E-03    -12.0486E+06    -80.9903E+06     1.38681E+06     142.045E+03    -27.0353E-03     53.6360E-03    -26.6007E-03     47.1787E-03    -26.9976E-03     53.2640E-03    -26.4589E-03     47.1351E-03
             320     8.76503E-03     59.7170E-03    -10.6603E+06    -76.0307E+06     2.46367E+06     119.875E+03    -27.1513E-03     53.7430E-03    -26.5917E-03     52.1875E-03    -27.1237E-03     53.4006E-03    -26.4537E-03     52.1311E-03
             321     9.64157E-03     59.7689E-03    -9.44666E+06    -71.2237E+06     1.83068E+06     62.9287E+03    -27.2790E-03     53.8543E-03    -26.5752E-03     57.1626E-03    -27.2632E-03     53.5467E-03    -26.4491E-03     57.0903E-03
             322     10.5181E-03     59.8255E-03    -8.46264E+06    -62.6733E+06    -117.089E+03     49.2707E+03    -27.3932E-03     53.9403E-03    -26.5471E-03     62.0071E-03    -27.3988E-03     53.6936E-03    -26.4445E-03     61.9165E-03
             323     11.3947E-03     59.8865E-03    -7.72100E+06    -50.8563E+06     254.749E+03     147.541E+03    -27.5083E-03     54.0331E-03    -26.5248E-03     67.5819E-03    -27.5532E-03     53.8694E-03    -26.4386E-03     67.4709E-03
             324     12.2713E-03     59.9536E-03    -7.22825E+06    -39.6475E+06    -2.24232E+06     298.556E+03    -27.7455E-03     54.2341E-03    -26.4886E-03     75.5063E-03    -27.8449E-03     54.1736E-03    -26.4319E-03     75.3691E-03
             325     13.1479E-03     60.0296E-03    -7.11762E+06    -23.7840E+06    -6.92888E+06     267.826E+03    -27.8967E-03     54.3326E-03    -26.4359E-03     81.3080E-03    -28.0783E-03     54.4246E-03    -26.4257E-03     81.1386E-03
             326     14.0243E-03     60.1073E-03    -7.09668E+06     11.7872E+06    -8.22877E+06     200.732E+03    -27.9600E-03     54.3233E-03    -26.3633E-03     92.5914E-03    -28.3231E-03     54.7269E-03    -26.4113E-03     92.3996E-03
             327     14.9024E-03     60.2043E-03    -7.87183E+06     66.0356E+06    -15.1212E+06     232.028E+03    -29.4257E-03     55.6464E-03    -26.2208E-03     130.673E-03    -30.4464E-03     56.9175E-03    -26.3807E-03     130.513E-03
             328     15.7799E-03     60.3558E-03    -7.80039E+06     123.300E+06     14.1452E+06     9.54277E+03    -32.4597E-03     58.7101E-03    -26.2504E-03     190.760E-03    -35.8369E-03     62.4563E-03    -26.3471E-03     191.370E-03
             329     16.6549E-03     60.5699E-03    -5.07212E+06     157.920E+06     75.1160E+06    -218.401E+03    -30.2166E-03     56.6957E-03    -26.4791E-03     152.921E-03    -33.6889E-03     60.4928E-03    -26.3252E-03     154.614E-03
             330     876.503E-06     60.4696E-03    -22.8000E+06    -111.820E+06    -22.2985E+06     22.3708E+03    -26.5695E-03     53.1286E-03    -26.5590E-03     5.69146E-03    -26.4891E-03     52.6351E-03    -26.4753E-03     5.68915E-03
             331     1.75297E-03     60.4772E-03    -22.2540E+06    -110.950E+06    -20.7171E+06     59.0458E+03    -26.5950E-03     53.1632E-03    -26.5682E-03     10.6098E-03    -26.5158E-03     52.6712E-03    -26.4787E-03     10.6055E-03
             332     2.62944E-03     60.4897E-03    -21.3092E+06    -109.378E+06    -17.8578E+06     109.927E+03    -26.6253E-03     53.2057E-03    -26.5804E-03     15.7870E-03    -26.5483E-03     52.7165E-03    -26.4802E-03     15.7804E-03
             333     3.50591E-03     60.5072E-03    -20.0517E+06    -107.577E+06    -14.4904E+06     119.437E+03    -26.6655E-03     53.2575E-03    -26.5920E-03     21.0197E-03    -26.5906E-03     52.7715E-03    -26.4794E-03     21.0098E-03
             334     4.38242E-03     60.5296E-03    -18.6119E+06    -103.089E+06    -10.9328E+06     134.938E+03    -26.7126E-03     53.3112E-03    -26.5986E-03     26.3064E-03    -26.6434E-03     52.8416E-03    -26.4768E-03     26.2925E-03
             335     5.25891E-03     60.5571E-03    -17.0741E+06    -97.3472E+06    -6.85142E+06     102.556E+03    -26.7715E-03     53.3759E-03    -26.6044E-03     31.6096E-03    -26.7107E-03     52.9288E-03    -26.4727E-03     31.5902E-03
             336     6.13545E-03     60.5896E-03    -15.3389E+06    -93.5673E+06    -2.93554E+06     67.8266E+03    -26.8501E-03     53.4614E-03    -26.6114E-03     36.8490E-03    -26.7946E-03     53.0279E-03    -26.4681E-03     36.8227E-03
             337     7.01195E-03     60.6270E-03    -13.5381E+06    -88.1601E+06    -1.77788E+03     104.307E+03    -26.9355E-03     53.5460E-03    -26.6105E-03     42.0500E-03    -26.8871E-03     53.1366E-03    -26.4631E-03     42.0159E-03
             338     7.88850E-03     60.6694E-03    -11.9356E+06    -81.0333E+06     1.49964E+06     146.439E+03    -27.0283E-03     53.6278E-03    -26.5996E-03     47.1912E-03    -26.9902E-03     53.2554E-03    -26.4573E-03     47.1477E-03
             339     8.76506E-03     60.7166E-03    -10.5644E+06    -76.0269E+06     2.60416E+06     177.409E+03    -27.1412E-03     53.7311E-03    -26.5899E-03     52.2080E-03    -27.1133E-03     53.3883E-03    -26.4513E-03     52.1525E-03
             340     9.64162E-03     60.7685E-03    -9.45684E+06    -71.0458E+06     2.00336E+06     38.6684E+03    -27.2667E-03     53.8394E-03    -26.5726E-03     57.1852E-03    -27.2514E-03     53.5325E-03    -26.4459E-03     57.1127E-03
             341     10.5182E-03     60.8250E-03    -8.54335E+06    -62.6485E+06     25.4660E+03    -127.361E+03    -27.3682E-03     53.9116E-03    -26.5434E-03     62.0186E-03    -27.3743E-03     53.6649E-03    -26.4400E-03     61.9259E-03
             342     11.3948E-03     60.8861E-03    -7.57317E+06    -51.0227E+06     408.481E+03    -116.949E+03    -27.4921E-03     54.0120E-03    -26.5198E-03     67.5948E-03    -27.5364E-03     53.8470E-03    -26.4328E-03     67.4803E-03
             343     12.2715E-03     60.9531E-03    -6.83180E+06    -40.0859E+06    -2.04318E+06     211.621E+03    -27.6950E-03     54.1770E-03    -26.4820E-03     75.4000E-03    -27.7920E-03     54.1134E-03    -26.4242E-03     75.2617E-03
             344     13.1482E-03     61.0290E-03    -6.83453E+06    -23.8035E+06    -6.60354E+06     689.293E+03    -27.7205E-03     54.1435E-03    -26.4230E-03     81.0149E-03    -27.9002E-03     54.2336E-03    -26.4116E-03     80.8525E-03
             345     14.0253E-03     61.1069E-03    -7.76553E+06     12.1130E+06    -8.13888E+06     587.972E+03    -28.0638E-03     54.4135E-03    -26.3497E-03     92.0446E-03    -28.4293E-03     54.8181E-03    -26.3967E-03     91.8565E-03
             346     14.9011E-03     61.2032E-03    -8.04795E+06     66.1758E+06    -15.2653E+06     288.111E+03    -29.8092E-03     56.0321E-03    -26.2229E-03     129.877E-03    -30.8293E-03     57.3029E-03    -26.3835E-03     129.709E-03
             347     15.7778E-03     61.3546E-03    -7.21371E+06     123.539E+06     14.6127E+06     209.284E+03    -32.5065E-03     58.7749E-03    -26.2684E-03     190.407E-03    -35.8756E-03     62.5146E-03    -26.3640E-03     191.019E-03
             348     16.6561E-03     61.5707E-03    -5.19316E+06     157.905E+06     75.5137E+06    -205.298E+03    -30.0663E-03     56.5608E-03    -26.4945E-03     153.537E-03    -33.5432E-03     60.3608E-03    -26.3384E-03     155.250E-03
             349     876.445E-06     61.4691E-03    -22.9101E+06    -112.006E+06    -22.4337E+06     181.045E+03    -26.5604E-03     53.1310E-03    -26.5706E-03     5.70971E-03    -26.4801E-03     52.6369E-03    -26.4871E-03     5.70942E-03
             350     1.75297E-03     61.4768E-03    -22.3735E+06    -110.983E+06    -20.5888E+06     157.247E+03    -26.5852E-03     53.1535E-03    -26.5683E-03     10.6278E-03    -26.5067E-03     52.6613E-03    -26.4779E-03     10.6247E-03
             351     2.62944E-03     61.4892E-03    -21.3921E+06    -109.435E+06    -17.8183E+06     99.4930E+03    -26.6222E-03     53.2002E-03    -26.5779E-03     15.7926E-03    -26.5456E-03     52.7108E-03    -26.4773E-03     15.7859E-03
             352     3.50595E-03     61.5067E-03    -20.0852E+06    -107.646E+06    -14.5110E+06     127.033E+03    -26.6659E-03     53.2554E-03    -26.5896E-03     21.0238E-03    -26.5909E-03     52.7692E-03    -26.4769E-03     21.0140E-03
             353     4.38242E-03     61.5291E-03    -18.6219E+06    -103.149E+06    -10.9650E+06     153.820E+03    -26.7137E-03     53.3104E-03    -26.5967E-03     26.3064E-03    -26.6444E-03     52.8406E-03    -26.4749E-03     26.2928E-03
             354     5.25894E-03     61.5567E-03    -17.0361E+06    -97.3684E+06    -6.79508E+06     203.198E+03    -26.7704E-03     53.3735E-03    -26.6031E-03     31.6085E-03    -26.7095E-03     52.9262E-03    -26.4712E-03     31.5904E-03
             355     6.13543E-03     61.5891E-03    -15.3743E+06    -93.4133E+06    -2.78719E+06     79.4631E+03    -26.8471E-03     53.4574E-03    -26.6104E-03     36.8537E-03    -26.7922E-03     53.0245E-03    -26.4666E-03     36.8274E-03
             356     7.01198E-03     61.6266E-03    -13.5714E+06    -88.2525E+06     62.6203E+03    -30.0137E+03    -26.9324E-03     53.5417E-03    -26.6093E-03     42.0527E-03    -26.8842E-03     53.1318E-03    -26.4613E-03     42.0170E-03
             357     7.88852E-03     61.6689E-03    -11.8783E+06    -81.2232E+06     1.56663E+06     156.875E+03    -27.0261E-03     53.6243E-03    -26.5983E-03     47.1840E-03    -26.9875E-03     53.2507E-03    -26.4554E-03     47.1407E-03
             358     8.76508E-03     61.7162E-03    -10.5081E+06    -76.0195E+06     2.74648E+06     246.616E+03    -27.1344E-03     53.7229E-03    -26.5885E-03     52.1900E-03    -27.1065E-03     53.3798E-03    -26.4493E-03     52.1354E-03
             359     9.64166E-03     61.7680E-03    -9.39248E+06    -70.8135E+06     2.19253E+06     144.189E+03    -27.2519E-03     53.8223E-03    -26.5704E-03     57.1478E-03    -27.2369E-03     53.5161E-03    -26.4431E-03     57.0766E-03
             360     10.5182E-03     61.8246E-03    -8.50152E+06    -62.2002E+06     238.308E+03    -278.818E+03    -27.3638E-03     53.9044E-03    -26.5406E-03     61.9432E-03    -27.3707E-03     53.6596E-03    -26.4368E-03     61.8485E-03
             361     11.3949E-03     61.8855E-03    -7.78231E+06    -51.3363E+06     298.152E+03    -379.372E+03    -27.5016E-03     54.0191E-03    -26.5176E-03     67.5177E-03    -27.5463E-03     53.8531E-03    -26.4303E-03     67.3997E-03
             362     12.2714E-03     61.9528E-03    -7.21976E+06    -40.6275E+06    -2.30074E+06     40.9168E+03    -27.7281E-03     54.2097E-03    -26.4816E-03     75.2513E-03    -27.8259E-03     54.1443E-03    -26.4237E-03     75.1107E-03
             363     13.1480E-03     62.0283E-03    -6.54378E+06    -24.5401E+06    -6.75977E+06     527.524E+03    -27.8018E-03     54.2287E-03    -26.4268E-03     80.6136E-03    -27.9783E-03     54.3144E-03    -26.4156E-03     80.4485E-03
             364     14.0247E-03     62.1059E-03    -6.10029E+06     12.0520E+06    -7.52104E+06     1.22997E+06    -28.0772E-03     54.4348E-03    -26.3576E-03     91.9225E-03    -28.4345E-03     54.8351E-03    -26.4038E-03     91.7424E-03
             365     14.9016E-03     62.2039E-03    -7.05140E+06     66.8946E+06    -13.5733E+06     957.013E+03    -29.9646E-03     56.2038E-03    -26.2393E-03     130.383E-03    -30.9897E-03     57.4808E-03    -26.3939E-03     130.221E-03
             366     15.7782E-03     62.3537E-03    -7.26279E+06     123.816E+06     15.9492E+06     55.9583E+03    -32.7163E-03     59.0105E-03    -26.2943E-03     190.412E-03    -36.0966E-03     62.7584E-03    -26.3835E-03     191.022E-03
             367     16.6552E-03     62.5690E-03    -4.38916E+06     158.030E+06       76.09E+06    -104.208E+03    -29.8580E-03     56.3742E-03    -26.5161E-03     153.426E-03    -33.3360E-03     60.1769E-03    -26.3585E-03     155.149E-03
             368     876.519E-06     62.4686E-03    -23.0440E+06    -112.272E+06    -22.7441E+06     16.6308E+03    -26.5600E-03     53.1252E-03    -26.5652E-03     5.69223E-03    -26.4795E-03     52.6305E-03    -26.4827E-03     5.68983E-03
             369     1.75297E-03     62.4763E-03    -22.3162E+06    -111.153E+06    -20.7713E+06     229.983E+03    -26.5841E-03     53.1493E-03    -26.5652E-03     10.6427E-03    -26.5048E-03     52.6565E-03    -26.4755E-03     10.6406E-03
             370     2.62946E-03     62.4888E-03    -21.4521E+06    -109.421E+06    -17.7240E+06     230.845E+03    -26.6198E-03     53.1961E-03    -26.5763E-03     15.8048E-03    -26.5437E-03     52.7067E-03    -26.4751E-03     15.7998E-03
             371     3.50593E-03     62.5062E-03    -20.2509E+06    -107.674E+06    -14.4372E+06     133.199E+03    -26.6689E-03     53.2576E-03    -26.5887E-03     21.0251E-03    -26.5948E-03     52.7713E-03    -26.4754E-03     21.0154E-03
             372     4.38244E-03     62.5287E-03    -18.7243E+06    -103.218E+06    -10.9511E+06     131.962E+03    -26.7150E-03     53.3114E-03    -26.5964E-03     26.3021E-03    -26.6462E-03     52.8414E-03    -26.4743E-03     26.2882E-03
             373     5.25891E-03     62.5562E-03    -16.9870E+06    -97.4443E+06    -6.77725E+06     145.464E+03    -26.7668E-03     53.3695E-03    -26.6026E-03     31.6081E-03    -26.7056E-03     52.9217E-03    -26.4706E-03     31.5893E-03
             374     6.13548E-03     62.5887E-03    -15.1198E+06    -93.2153E+06    -2.52099E+06     115.370E+03    -26.8440E-03     53.4540E-03    -26.6100E-03     36.8522E-03    -26.7886E-03     53.0213E-03    -26.4655E-03     36.8264E-03
             375     7.01198E-03     62.6261E-03    -13.5287E+06    -88.2962E+06     422.200E+03     84.4510E+03    -26.9353E-03     53.5455E-03    -26.6101E-03     42.0350E-03    -26.8874E-03     53.1348E-03    -26.4604E-03     42.0007E-03
             376     7.88853E-03     62.6685E-03    -12.0836E+06    -81.4626E+06     1.61671E+06     138.043E+03    -27.0313E-03     53.6301E-03    -26.5989E-03     47.1632E-03    -26.9935E-03     53.2555E-03    -26.4551E-03     47.1196E-03
             377     8.76508E-03     62.7157E-03    -10.5290E+06    -75.9834E+06     2.84314E+06     169.885E+03    -27.1372E-03     53.7264E-03    -26.5892E-03     52.1611E-03    -27.1096E-03     53.3834E-03    -26.4495E-03     52.1054E-03
             378     9.64164E-03     62.7676E-03    -8.97457E+06    -70.5092E+06     2.45517E+06    -83.2764E+03    -27.2563E-03     53.8275E-03    -26.5713E-03     57.1041E-03    -27.2400E-03     53.5220E-03    -26.4437E-03     57.0300E-03
             379     10.5182E-03     62.8241E-03    -7.94859E+06    -61.9486E+06     776.309E+03    -133.209E+03    -27.3799E-03     53.9234E-03    -26.5435E-03     61.8995E-03    -27.3853E-03     53.6784E-03    -26.4382E-03     61.8065E-03
             380     11.3947E-03     62.8851E-03    -7.68660E+06    -51.4465E+06     686.328E+03    -75.1122E+03    -27.5047E-03     54.0263E-03    -26.5216E-03     67.4778E-03    -27.5493E-03     53.8590E-03    -26.4324E-03     67.3638E-03
             381     12.2714E-03     62.9522E-03    -7.19567E+06    -40.7619E+06    -2.43638E+06    -282.581E+03    -27.7398E-03     54.2233E-03    -26.4835E-03     75.2944E-03    -27.8370E-03     54.1573E-03    -26.4262E-03     75.1496E-03
             382     13.1480E-03     63.0280E-03    -6.44093E+06    -24.9915E+06    -7.05647E+06    -348.245E+03    -27.8934E-03     54.3245E-03    -26.4311E-03     80.8255E-03    -28.0688E-03     54.4088E-03    -26.4208E-03     80.6483E-03
             383     14.0243E-03     63.1056E-03    -5.15459E+06     10.6183E+06    -7.91291E+06     340.305E+03    -28.1149E-03     54.4795E-03    -26.3646E-03     92.0716E-03    -28.4658E-03     54.8728E-03    -26.4121E-03     91.8798E-03
             384     14.9016E-03     63.2024E-03    -4.44788E+06     66.9132E+06    -12.9481E+06     1.79343E+06    -29.8527E-03     56.0961E-03    -26.2433E-03     130.495E-03    -30.8648E-03     57.3674E-03    -26.3986E-03     130.347E-03
             385     15.7781E-03     63.3550E-03    -5.08508E+06     125.275E+06     18.3867E+06     1.79247E+06    -32.8259E-03     59.1305E-03    -26.3046E-03     190.429E-03    -36.2034E-03     62.8814E-03    -26.3870E-03     191.054E-03
             386     16.6539E-03     63.5678E-03    -3.80146E+06     158.512E+06     77.5791E+06     687.648E+03    -29.8688E-03     56.3972E-03    -26.5284E-03     153.701E-03    -33.3536E-03     60.2063E-03    -26.3648E-03     155.429E-03
             387     876.447E-06     63.4681E-03    -23.0879E+06    -112.308E+06    -22.6825E+06    -38.5193E+03    -26.5749E-03     53.1296E-03    -26.5547E-03     5.70940E-03    -26.4946E-03     52.6347E-03    -26.4718E-03     5.70628E-03
             388     1.75297E-03     63.4758E-03    -22.4694E+06    -111.432E+06    -21.1944E+06     17.3178E+03    -26.5901E-03     53.1567E-03    -26.5666E-03     10.6263E-03    -26.5105E-03     52.6632E-03    -26.4784E-03     10.6214E-03
             389     2.62946E-03     63.4883E-03    -21.3381E+06    -109.611E+06    -18.0442E+06     271.649E+03    -26.6178E-03     53.1951E-03    -26.5774E-03     15.7961E-03    -26.5403E-03     52.7051E-03    -26.4777E-03     15.7917E-03
             390     3.50595E-03     63.5058E-03    -20.1183E+06    -107.597E+06    -14.2593E+06     312.679E+03    -26.6666E-03     53.2571E-03    -26.5905E-03     21.0241E-03    -26.5923E-03     52.7707E-03    -26.4766E-03     21.0167E-03
             391     4.38241E-03     63.5282E-03    -18.7981E+06    -103.216E+06    -10.8444E+06     170.407E+03    -26.7136E-03     53.3112E-03    -26.5976E-03     26.2947E-03    -26.6453E-03     52.8412E-03    -26.4749E-03     26.2813E-03
             392     5.25895E-03     63.5558E-03    -17.1330E+06    -97.3065E+06    -6.84385E+06    -20.5974E+03    -26.7666E-03     53.3694E-03    -26.6028E-03     31.6038E-03    -26.7062E-03     52.9226E-03    -26.4710E-03     31.5828E-03
             393     6.13543E-03     63.5882E-03    -15.3284E+06    -93.4610E+06    -2.73582E+06     77.2870E+03    -26.8456E-03     53.4557E-03    -26.6101E-03     36.8469E-03    -26.7905E-03     53.0224E-03    -26.4661E-03     36.8206E-03
             394     7.01199E-03     63.6257E-03    -13.6290E+06    -88.4098E+06     445.342E+03     389.998E+03    -26.9367E-03     53.5481E-03    -26.6113E-03     42.0250E-03    -26.8891E-03     53.1369E-03    -26.4611E-03     41.9946E-03
             395     7.88850E-03     63.6680E-03    -12.1797E+06     -81.337E+06     1.57313E+06      268.59E+03    -27.0323E-03     53.6318E-03    -26.5995E-03     47.1581E-03    -26.9952E-03     53.2581E-03    -26.4560E-03     47.1161E-03
             396     8.76506E-03     63.7153E-03    -10.7180E+06    -75.7292E+06     2.32857E+06    -146.416E+03    -27.1386E-03     53.7260E-03    -26.5875E-03     52.1742E-03    -27.1115E-03     53.3853E-03    -26.4505E-03     52.1144E-03
             397     9.64161E-03     63.7671E-03    -9.37392E+06    -70.1969E+06     1.94813E+06    -401.014E+03    -27.2663E-03     53.8366E-03    -26.5703E-03     57.1351E-03    -27.2518E-03     53.5339E-03    -26.4452E-03     57.0569E-03
             398     10.5181E-03     63.8237E-03    -8.41434E+06    -62.5072E+06     290.372E+03    -113.362E+03    -27.3777E-03     53.9219E-03    -26.5442E-03     61.9327E-03    -27.3838E-03     53.6754E-03    -26.4399E-03     61.8401E-03
             399     11.3948E-03     63.8846E-03    -7.43838E+06    -51.1360E+06     723.717E+03     42.0965E+03    -27.5028E-03     54.0251E-03    -26.5223E-03     67.5049E-03    -27.5467E-03     53.8590E-03    -26.4337E-03     67.3924E-03
             400     12.2714E-03     63.9518E-03    -6.93478E+06    -40.2603E+06    -2.31466E+06    -413.618E+03    -27.7159E-03     54.1991E-03    -26.4832E-03     75.3270E-03    -27.8126E-03     54.1350E-03    -26.4264E-03     75.1807E-03
             401     13.1480E-03     64.0276E-03    -7.03538E+06    -24.9973E+06    -7.35648E+06    -692.394E+03    -27.8207E-03     54.2481E-03    -26.4275E-03     80.8519E-03    -27.9984E-03     54.3335E-03    -26.4178E-03     80.6710E-03
             402     14.0251E-03     64.1050E-03    -7.35317E+06     9.94258E+06    -8.96552E+06    -823.580E+03    -28.2359E-03     54.5982E-03    -26.3623E-03     92.1599E-03    -28.5967E-03     54.9941E-03    -26.4109E-03     91.9514E-03
             403     14.9008E-03     64.2025E-03    -7.20194E+06     64.1619E+06    -17.3931E+06     582.289E+03    -29.8485E-03     56.0798E-03    -26.2313E-03     130.734E-03    -30.8646E-03     57.3486E-03    -26.4008E-03     130.571E-03
             404     15.7781E-03     64.3537E-03    -6.22975E+06     125.538E+06     10.1634E+06     2.71890E+06    -32.4508E-03     58.7054E-03    -26.2546E-03     191.040E-03    -35.8317E-03     62.4804E-03    -26.3768E-03     191.699E-03
             405     16.6563E-03     64.5689E-03    -4.26899E+06     160.831E+06     72.8026E+06     1.85035E+06    -29.9422E-03     56.4239E-03    -26.4817E-03     153.394E-03    -33.4235E-03     60.2498E-03    -26.3447E-03     155.137E-03
             406     876.530E-06     64.4677E-03    -23.0231E+06    -112.325E+06    -22.5662E+06     85.6369E+03    -26.5842E-03     53.1414E-03    -26.5572E-03     5.72708E-03    -26.5038E-03     52.6461E-03    -26.4738E-03     5.72554E-03
             407     1.75293E-03     64.4753E-03    -22.5980E+06    -111.450E+06    -21.0162E+06     24.9714E+03    -26.5988E-03     53.1728E-03    -26.5740E-03     10.6298E-03    -26.5201E-03     52.6792E-03    -26.4847E-03     10.6250E-03
             408     2.62941E-03     64.4878E-03    -21.6557E+06    -109.880E+06    -18.4946E+06    -8.67077E+03    -26.6170E-03     53.1991E-03    -26.5821E-03     15.8086E-03    -26.5401E-03     52.7088E-03    -26.4838E-03     15.8006E-03
             409     3.50592E-03     64.5053E-03    -20.1111E+06    -107.802E+06    -14.7709E+06     252.034E+03    -26.6581E-03     53.2496E-03    -26.5916E-03     21.0369E-03    -26.5827E-03     52.7630E-03    -26.4799E-03     21.0287E-03
             410     4.38243E-03     64.5278E-03    -18.4605E+06    -102.992E+06    -10.6703E+06     225.407E+03    -26.7127E-03     53.3118E-03    -26.5990E-03     26.2947E-03    -26.6433E-03     52.8421E-03    -26.4763E-03     26.2820E-03
             411     5.25890E-03     64.5553E-03    -17.0400E+06    -97.2822E+06    -6.82390E+06     154.218E+03    -26.7710E-03     53.3750E-03    -26.6040E-03     31.6022E-03    -26.7102E-03     52.9281E-03    -26.4723E-03     31.5834E-03
             412     6.13546E-03     64.5878E-03    -15.7173E+06    -93.7863E+06    -3.24053E+06     309.371E+03    -26.8457E-03     53.4558E-03    -26.6101E-03     36.8497E-03    -26.7914E-03     53.0221E-03    -26.4675E-03     36.8265E-03
             413     7.01195E-03     64.6253E-03    -13.9687E+06    -88.4577E+06    -236.445E+03     238.927E+03    -26.9302E-03     53.5396E-03    -26.6094E-03     42.0403E-03    -26.8833E-03     53.1298E-03    -26.4621E-03     42.0080E-03
             414     7.88852E-03     64.6677E-03    -11.8859E+06    -81.1002E+06     1.37659E+06     94.1767E+03    -27.0243E-03     53.6220E-03    -26.5977E-03     47.1731E-03    -26.9857E-03     53.2493E-03    -26.4560E-03     47.1289E-03
             415     8.76507E-03     64.7148E-03    -10.4139E+06    -75.2697E+06     2.26229E+06    -125.981E+03    -27.1381E-03     53.7234E-03    -26.5854E-03     52.1975E-03    -27.1100E-03     53.3847E-03    -26.4498E-03     52.1380E-03
             416     9.64164E-03     64.7667E-03    -9.61630E+06    -70.2076E+06     1.73214E+06    -208.656E+03    -27.2600E-03     53.8286E-03    -26.5686E-03     57.1623E-03    -27.2463E-03     53.5265E-03    -26.4442E-03     57.0867E-03
             417     10.5182E-03     64.8232E-03    -8.92190E+06    -62.7344E+06        -28.7188    -239.391E+03    -27.3755E-03     53.9181E-03    -26.5426E-03     61.9458E-03    -27.3834E-03     53.6716E-03    -26.4387E-03     61.8515E-03
             418     11.3948E-03     64.8841E-03    -8.30297E+06    -51.2219E+06     170.650E+03    -136.947E+03    -27.5064E-03     54.0264E-03    -26.5200E-03     67.5258E-03    -27.5537E-03     53.8619E-03    -26.4328E-03     67.4109E-03
             419     12.2714E-03     64.9514E-03    -7.99339E+06    -39.6242E+06    -2.47040E+06    -170.235E+03    -27.7099E-03     54.1925E-03    -26.4826E-03     75.2600E-03    -27.8126E-03     54.1333E-03    -26.4259E-03     75.1169E-03
             420     13.1482E-03     65.0269E-03    -8.03780E+06    -24.7196E+06    -7.57796E+06    -591.622E+03    -27.8291E-03     54.2567E-03    -26.4276E-03     80.7744E-03    -28.0121E-03     54.3453E-03    -26.4180E-03     80.5945E-03
             421     14.0243E-03     65.1048E-03    -8.80831E+06     9.40803E+06    -9.61216E+06    -127.036E+03    -28.1293E-03     54.4887E-03    -26.3594E-03     92.2470E-03    -28.4955E-03     54.8849E-03    -26.4083E-03     92.0488E-03
             422     14.9018E-03     65.2022E-03    -10.6901E+06     62.2856E+06    -19.7995E+06     543.353E+03    -29.7366E-03     55.9558E-03    -26.2192E-03     130.478E-03    -30.7607E-03     57.2204E-03    -26.3930E-03     130.316E-03
             423     15.7787E-03     65.3526E-03    -10.7604E+06     124.283E+06     3.19235E+06     458.291E+03    -32.4311E-03     58.6500E-03    -26.2189E-03     190.709E-03    -35.8188E-03     62.4314E-03    -26.3676E-03     191.340E-03
             424     16.6552E-03     65.5681E-03    -6.11623E+06     162.052E+06     68.1219E+06     369.437E+03    -29.9772E-03     56.4293E-03    -26.4521E-03     153.173E-03    -33.4599E-03     60.2681E-03    -26.3376E-03     154.893E-03
             425     876.423E-06     65.4671E-03    -23.1362E+06    -112.503E+06    -22.7587E+06     79.7715E+03    -26.5549E-03     53.1509E-03    -26.5959E-03     5.74410E-03    -26.4745E-03     52.6551E-03    -26.5130E-03     5.74247E-03
             426     1.75297E-03     65.4749E-03    -22.5033E+06    -111.462E+06    -20.9756E+06     166.248E+03    -26.5932E-03     53.1701E-03    -26.5769E-03     10.6352E-03    -26.5141E-03     52.6762E-03    -26.4875E-03     10.6323E-03
             427     2.62943E-03     65.4874E-03    -21.7914E+06    -109.848E+06    -18.3930E+06     104.310E+03    -26.6201E-03     53.2039E-03    -26.5837E-03     15.8249E-03    -26.5441E-03     52.7138E-03    -26.4848E-03     15.8182E-03
             428     3.50592E-03     65.5049E-03    -20.6299E+06    -107.885E+06    -15.2626E+06    -147.029E+03    -26.6574E-03     53.2488E-03    -26.5914E-03     21.0641E-03    -26.5838E-03     52.7633E-03    -26.4814E-03     21.0508E-03
             429     4.38240E-03     65.5273E-03    -18.9395E+06    -103.176E+06    -11.2565E+06     68.9165E+03    -26.7092E-03     53.3072E-03    -26.5981E-03     26.3220E-03    -26.6410E-03     52.8382E-03    -26.4773E-03     26.3073E-03
             430     5.25894E-03     65.5549E-03    -17.3124E+06    -97.5963E+06    -6.94767E+06     500.540E+03    -26.7727E-03     53.3777E-03    -26.6050E-03     31.6039E-03    -26.7126E-03     52.9298E-03    -26.4731E-03     31.5897E-03
             431     6.13542E-03     65.5873E-03    -15.4360E+06    -93.5669E+06    -3.10537E+06     310.345E+03    -26.8450E-03     53.4558E-03    -26.6108E-03     36.8547E-03    -26.7898E-03     53.0226E-03    -26.4682E-03     36.8314E-03
             432     7.01198E-03     65.6248E-03    -13.3893E+06    -88.2263E+06    -68.3672E+03    -89.8674E+03    -26.9271E-03     53.5364E-03    -26.6093E-03     42.0455E-03    -26.8779E-03     53.1266E-03    -26.4623E-03     42.0089E-03
             433     7.88852E-03     65.6672E-03    -11.7371E+06    -81.0762E+06     1.72063E+06    -186.912E+03    -27.0229E-03     53.6219E-03    -26.5990E-03     47.1661E-03    -26.9841E-03     53.2486E-03    -26.4558E-03     47.1183E-03
             434     8.76510E-03     65.7144E-03    -10.2998E+06    -75.2663E+06     2.87988E+06     7.60149E+03    -27.1357E-03     53.7237E-03    -26.5880E-03     52.1772E-03    -27.1080E-03     53.3839E-03    -26.4495E-03     52.1194E-03
             435     9.64163E-03     65.7662E-03    -9.18756E+06    -70.2561E+06     2.51632E+06     155.014E+03    -27.2583E-03     53.8299E-03    -26.5715E-03     57.1117E-03    -27.2436E-03     53.5258E-03    -26.4438E-03     57.0406E-03
             436     10.5182E-03     65.8228E-03    -8.62397E+06    -62.5421E+06     1.00314E+06     95.3313E+03    -27.3753E-03     53.9218E-03    -26.5465E-03     61.8991E-03    -27.3835E-03     53.6745E-03    -26.4383E-03     61.8090E-03
             437     11.3948E-03     65.8838E-03    -8.04364E+06    -51.2312E+06     778.036E+03    -140.995E+03    -27.4985E-03     54.0206E-03    -26.5221E-03     67.4916E-03    -27.5453E-03     53.8548E-03    -26.4323E-03     67.3766E-03
             438     12.2714E-03     65.9508E-03    -7.30296E+06    -39.6736E+06    -2.18546E+06    -43.2923E+03    -27.7216E-03     54.2041E-03    -26.4826E-03     75.2585E-03    -27.8212E-03     54.1433E-03    -26.4254E-03     75.1169E-03
             439     13.1478E-03     66.0266E-03    -7.25293E+06    -24.2941E+06    -6.98279E+06    -21.9936E+03    -27.8222E-03     54.2504E-03    -26.4282E-03     80.8559E-03    -28.0028E-03     54.3393E-03    -26.4174E-03     80.6835E-03
             440     14.0250E-03     66.1041E-03    -7.57325E+06     7.59294E+06     -9.5718E+06     778.026E+03    -28.0773E-03     54.4349E-03    -26.3577E-03     92.2178E-03    -28.4341E-03     54.8196E-03    -26.4056E-03     92.0320E-03
             441     14.9014E-03     66.2014E-03    -7.59258E+06     62.4768E+06    -17.4081E+06     1.64987E+06    -29.7543E-03     55.9768E-03    -26.2225E-03     130.256E-03    -30.7664E-03     57.2343E-03    -26.3891E-03     130.108E-03
             442     15.7780E-03     66.3522E-03    -7.08286E+06     125.775E+06     13.1018E+06     252.334E+03    -32.5180E-03     58.7780E-03    -26.2600E-03     190.682E-03    -35.8987E-03     62.5421E-03    -26.3666E-03     191.302E-03
             443     16.6557E-03     66.5672E-03    -4.94553E+06     161.346E+06     75.2247E+06     -576.04E+03    -30.0208E-03     56.5094E-03    -26.4886E-03     153.833E-03    -33.5102E-03     60.3359E-03    -26.3392E-03     155.542E-03
             444     876.509E-06     66.4668E-03    -23.2572E+06    -112.612E+06    -22.9311E+06     15.5703E+03    -26.5588E-03     53.1511E-03    -26.5923E-03     5.78656E-03    -26.4786E-03     52.6553E-03    -26.5100E-03     5.78407E-03
             445     1.75292E-03     66.4743E-03    -22.6284E+06    -111.610E+06    -21.2318E+06     43.3627E+03    -26.5912E-03     53.1672E-03    -26.5760E-03     10.6355E-03    -26.5122E-03     52.6732E-03    -26.4875E-03     10.6310E-03
             446     2.62944E-03     66.4869E-03    -21.3919E+06    -109.776E+06    -18.2171E+06     69.4558E+03    -26.6220E-03     53.2055E-03    -26.5836E-03     15.8191E-03    -26.5443E-03     52.7150E-03    -26.4844E-03     15.8120E-03
             447     3.50591E-03     66.5044E-03    -20.1096E+06    -107.512E+06    -14.6542E+06    -99.2443E+03    -26.6633E-03     53.2568E-03    -26.5934E-03     21.0527E-03    -26.5885E-03     52.7714E-03    -26.4817E-03     21.0400E-03
             448     4.38243E-03     66.5269E-03    -18.9021E+06    -103.878E+06    -10.9863E+06     51.1689E+03    -26.7108E-03     53.3120E-03    -26.6012E-03     26.3288E-03    -26.6418E-03     52.8390E-03    -26.4781E-03     26.3139E-03
             449     5.25890E-03     66.5544E-03    -17.1298E+06    -97.9213E+06    -6.52637E+06     425.037E+03    -26.7715E-03     53.3794E-03    -26.6079E-03     31.6093E-03    -26.7107E-03     52.9291E-03    -26.4737E-03     31.5940E-03
             450     6.13545E-03     66.5869E-03    -15.2385E+06    -92.9096E+06    -2.52469E+06     136.646E+03    -26.8466E-03     53.4596E-03    -26.6130E-03     36.8467E-03    -26.7922E-03     53.0286E-03    -26.4688E-03     36.8211E-03
             451     7.01195E-03     66.6244E-03    -13.5822E+06    -88.0916E+06     313.666E+03    -162.710E+03    -26.9317E-03     53.5440E-03    -26.6123E-03     42.0290E-03    -26.8841E-03     53.1346E-03    -26.4633E-03     41.9914E-03
             452     7.88852E-03     66.6667E-03    -12.0951E+06    -81.1718E+06     1.83313E+06    -48.3567E+03    -27.0276E-03     53.6294E-03    -26.6019E-03     47.1481E-03    -26.9906E-03     53.2560E-03    -26.4575E-03     47.1020E-03
             453     8.76503E-03     66.7139E-03    -10.8780E+06    -75.4708E+06     2.68668E+06     45.6354E+03    -27.1338E-03     53.7239E-03    -26.5901E-03     52.1567E-03    -27.1085E-03     53.3842E-03    -26.4514E-03     52.0994E-03
             454     9.64165E-03     66.7658E-03    -9.81631E+06    -70.5185E+06     2.08307E+06     303.302E+03    -27.2593E-03     53.8319E-03    -26.5726E-03     57.1027E-03    -27.2467E-03     53.5280E-03    -26.4457E-03     57.0335E-03
             455     10.5181E-03     66.8224E-03    -8.65875E+06    -61.9909E+06     773.325E+03     64.5634E+03    -27.3659E-03     53.9121E-03    -26.5462E-03     61.8853E-03    -27.3747E-03     53.6679E-03    -26.4399E-03     61.7948E-03
             456     11.3948E-03     66.8832E-03    -7.51587E+06    -51.0467E+06     788.974E+03    -373.388E+03    -27.4823E-03     54.0040E-03    -26.5216E-03     67.4738E-03    -27.5268E-03     53.8382E-03    -26.4328E-03     67.3559E-03
             457     12.2714E-03     66.9505E-03    -6.90968E+06    -40.1496E+06    -2.35171E+06    -179.948E+03    -27.7038E-03     54.1847E-03    -26.4809E-03     75.2617E-03    -27.8004E-03     54.1211E-03    -26.4244E-03     75.1185E-03
             458     13.1483E-03     67.0260E-03    -6.66760E+06    -24.2204E+06    -5.98764E+06     269.066E+03    -27.8293E-03     54.2603E-03    -26.4310E-03     80.7340E-03    -28.0085E-03     54.3472E-03    -26.4161E-03     80.5651E-03
             459     14.0246E-03     67.1036E-03    -6.09965E+06     6.68856E+06    -8.05402E+06     240.005E+03    -28.1720E-03     54.5386E-03    -26.3666E-03     92.0050E-03    -28.5226E-03     54.9147E-03    -26.4077E-03     91.8111E-03
             460     14.9015E-03     67.2010E-03    -4.87253E+06     61.8365E+06    -17.1436E+06     468.439E+03    -29.8215E-03     56.0494E-03    -26.2279E-03     130.033E-03    -30.8204E-03     57.3002E-03    -26.3962E-03     129.868E-03
             461     15.7788E-03     67.3516E-03    -3.95241E+06     126.981E+06     12.8426E+06     1.48892E+06    -32.5566E-03     58.8198E-03    -26.2632E-03     190.133E-03    -35.9161E-03     62.5789E-03    -26.3774E-03     190.761E-03
             462     16.6556E-03     67.5667E-03    -2.89875E+06     162.204E+06     75.6508E+06     1.21305E+06    -30.0039E-03     56.5031E-03    -26.4992E-03     153.371E-03    -33.4764E-03     60.3217E-03    -26.3519E-03     155.096E-03
             463     876.439E-06     67.4662E-03    -23.3566E+06    -112.610E+06    -22.8986E+06    -38.1612E+03    -26.5948E-03     53.1541E-03    -26.5593E-03     5.74683E-03    -26.5151E-03     52.6584E-03    -26.4767E-03     5.74369E-03
             464     1.75298E-03     67.4739E-03    -22.6723E+06    -111.564E+06    -21.1224E+06    -89.9436E+03    -26.5949E-03     53.1736E-03    -26.5787E-03     10.6336E-03    -26.5163E-03     52.6797E-03    -26.4896E-03     10.6273E-03
             465     2.62941E-03     67.4864E-03    -21.6400E+06    -109.654E+06    -18.0508E+06    -244.287E+03    -26.6251E-03     53.2126E-03    -26.5875E-03     15.8248E-03    -26.5490E-03     52.7228E-03    -26.4874E-03     15.8136E-03
             466     3.50592E-03     67.5040E-03    -20.2381E+06    -107.673E+06    -14.4241E+06     12.5886E+03    -26.6661E-03     53.2644E-03    -26.5983E-03     21.0402E-03    -26.5921E-03     52.7781E-03    -26.4850E-03     21.0289E-03
             467     4.38238E-03     67.5264E-03    -18.6818E+06    -104.097E+06    -10.8328E+06     186.301E+03    -26.7144E-03     53.3196E-03    -26.6053E-03     26.3103E-03    -26.6442E-03     52.8450E-03    -26.4814E-03     26.2971E-03
             468     5.25893E-03     67.5540E-03    -16.8797E+06    -98.0398E+06    -6.71608E+06     28.1665E+03    -26.7718E-03     53.3814E-03    -26.6096E-03     31.6074E-03    -26.7093E-03     52.9304E-03    -26.4766E-03     31.5870E-03
             469     6.13541E-03     67.5865E-03    -14.8970E+06    -92.7044E+06    -2.14256E+06     167.664E+03    -26.8527E-03     53.4695E-03    -26.6168E-03     36.8280E-03    -26.7974E-03     53.0385E-03    -26.4715E-03     36.8029E-03
             470     7.01195E-03     67.6239E-03    -13.3569E+06    -88.0796E+06     842.754E+03     259.414E+03    -26.9405E-03     53.5584E-03    -26.6179E-03     41.9995E-03    -26.8926E-03     53.1480E-03    -26.4666E-03     41.9673E-03
             471     7.88846E-03     67.6663E-03    -12.0413E+06    -81.1305E+06     1.74832E+06     109.713E+03    -27.0327E-03     53.6377E-03    -26.6050E-03     47.1328E-03    -26.9954E-03     53.2646E-03    -26.4612E-03     47.0887E-03
             472     8.76506E-03     67.7135E-03    -10.7149E+06    -75.8096E+06      2.5517E+06     277.093E+03    -27.1389E-03     53.7323E-03    -26.5935E-03     52.1260E-03    -27.1120E-03     53.3909E-03    -26.4552E-03     52.0716E-03
             473     9.64156E-03     67.7653E-03    -9.37501E+06    -70.3832E+06     2.01744E+06     140.269E+03    -27.2546E-03     53.8294E-03    -26.5749E-03     57.0883E-03    -27.2399E-03     53.5257E-03    -26.4491E-03     57.0170E-03
             474     10.5182E-03     67.8219E-03    -8.25457E+06    -61.4507E+06     761.396E+03    -245.565E+03    -27.3700E-03     53.9179E-03    -26.5478E-03     61.8463E-03    -27.3776E-03     53.6758E-03    -26.4430E-03     61.7518E-03
             475     11.3947E-03     67.8828E-03    -7.74009E+06    -50.8724E+06     745.353E+03    -386.052E+03    -27.4794E-03     54.0039E-03    -26.5245E-03     67.3757E-03    -27.5252E-03     53.8394E-03    -26.4358E-03     67.2575E-03
             476     12.2715E-03     67.9499E-03    -6.99124E+06    -40.2548E+06    -2.70236E+06    -635.974E+03    -27.7121E-03     54.1948E-03    -26.4827E-03     75.1771E-03    -27.8084E-03     54.1312E-03    -26.4277E-03     75.0279E-03
             477     13.1478E-03     68.0256E-03    -6.03678E+06    -24.9000E+06    -6.23771E+06    -372.828E+03    -27.8813E-03     54.3162E-03    -26.4349E-03     80.6832E-03    -28.0563E-03     54.3994E-03    -26.4212E-03     80.5055E-03
             478     14.0246E-03     68.1033E-03    -6.00991E+06     7.25421E+06    -8.04463E+06    -149.690E+03    -28.2159E-03     54.5893E-03    -26.3734E-03     92.0361E-03    -28.5669E-03     54.9680E-03    -26.4154E-03     91.8367E-03
             479     14.9011E-03     68.2004E-03    -7.60153E+06     60.3946E+06    -19.2004E+06     214.651E+03    -29.9488E-03     56.1849E-03    -26.2361E-03     130.026E-03    -30.9561E-03     57.4353E-03    -26.4086E-03     129.856E-03
             480     15.7774E-03     68.3509E-03    -8.85314E+06     125.649E+06     7.11086E+06     1.16894E+06    -32.6706E-03     58.9333E-03    -26.2627E-03     190.209E-03    -36.0544E-03     62.7111E-03    -26.3965E-03     190.832E-03
             481     16.6541E-03     68.5662E-03    -5.35618E+06     163.557E+06     72.0462E+06     1.05862E+06    -29.5839E-03     56.0771E-03    -26.4932E-03     153.828E-03    -33.0750E-03     59.9209E-03    -26.3623E-03     155.563E-03
             482     876.486E-06     68.4658E-03    -23.2656E+06    -112.502E+06    -22.7930E+06    -64.9508E+03    -26.5923E-03     53.1674E-03    -26.5752E-03     5.71525E-03    -26.5124E-03     52.6720E-03    -26.4923E-03     5.71178E-03
             483     1.75291E-03     68.4734E-03    -22.6015E+06    -111.433E+06    -20.8856E+06    -118.661E+03    -26.6013E-03     53.1873E-03    -26.5860E-03     10.6348E-03    -26.5228E-03     52.6936E-03    -26.4961E-03     10.6281E-03
             484     2.62943E-03     68.4860E-03    -21.7541E+06    -109.627E+06    -17.7653E+06    -4.16532E+03    -26.6277E-03     53.2229E-03    -26.5952E-03     15.8134E-03    -26.5527E-03     52.7330E-03    -26.4935E-03     15.8053E-03
             485     3.50587E-03     68.5035E-03    -20.7074E+06    -108.054E+06    -14.6666E+06     102.765E+03    -26.6701E-03     53.2741E-03    -26.6040E-03     21.0391E-03    -26.5975E-03     52.7869E-03    -26.4906E-03     21.0289E-03
             486     4.38239E-03     68.5260E-03    -19.2495E+06    -103.979E+06    -11.7312E+06     90.1164E+03    -26.7200E-03     53.3272E-03    -26.6072E-03     26.3026E-03    -26.6515E-03     52.8553E-03    -26.4872E-03     26.2881E-03
             487     5.25884E-03     68.5535E-03    -17.6179E+06    -97.7293E+06    -7.79342E+06    -174.497E+03    -26.7734E-03     53.3841E-03    -26.6107E-03     31.6030E-03    -26.7135E-03     52.9373E-03    -26.4824E-03     31.5799E-03
             488     6.13540E-03     68.5861E-03    -15.8167E+06    -93.2746E+06    -3.57497E+06    -59.3234E+03    -26.8509E-03     53.4681E-03    -26.6171E-03     36.8350E-03    -26.7974E-03     53.0376E-03    -26.4768E-03     36.8069E-03
             489     7.01188E-03     68.6235E-03    -13.6758E+06    -88.0470E+06     152.885E+03     258.652E+03    -26.9450E-03     53.5648E-03    -26.6198E-03     41.9917E-03    -26.8977E-03     53.1560E-03    -26.4716E-03     41.9594E-03
             490     7.88846E-03     68.6658E-03    -11.8902E+06    -81.1163E+06     1.54785E+06     289.495E+03    -27.0395E-03     53.6483E-03    -26.6088E-03     47.1169E-03    -27.0011E-03     53.2753E-03    -26.4662E-03     47.0750E-03
             491     8.76493E-03     68.7131E-03    -10.4071E+06    -75.8725E+06     2.16352E+06     130.638E+03    -27.1429E-03     53.7390E-03    -26.5961E-03     52.1160E-03    -27.1139E-03     53.3974E-03    -26.4602E-03     52.0597E-03
             492     9.64157E-03     68.7648E-03    -8.89563E+06    -69.7943E+06     1.77178E+06    -278.100E+03    -27.2627E-03     53.8396E-03    -26.5770E-03     57.0781E-03    -27.2461E-03     53.5386E-03    -26.4540E-03     57.0013E-03
             493     10.5180E-03     68.8215E-03    -7.86078E+06    -61.6025E+06     614.345E+03    -264.109E+03    -27.3883E-03     53.9405E-03    -26.5522E-03     61.8350E-03    -27.3935E-03     53.6973E-03    -26.4484E-03     61.7401E-03
             494     11.3947E-03     68.8823E-03    -7.11235E+06    -50.5327E+06     701.235E+03    -234.536E+03    -27.5164E-03     54.0464E-03    -26.5299E-03     67.2855E-03    -27.5597E-03     53.8829E-03    -26.4428E-03     67.1690E-03
             495     12.2712E-03     68.9494E-03    -6.87955E+06    -39.6063E+06    -2.57408E+06    -780.622E+03    -27.7153E-03     54.2056E-03    -26.4903E-03     75.1604E-03    -27.8123E-03     54.1451E-03    -26.4358E-03     75.0092E-03
             496     13.1480E-03     69.0253E-03    -7.08032E+06    -25.6280E+06    -6.45654E+06    -851.263E+03    -27.8726E-03     54.3164E-03    -26.4438E-03     80.7915E-03    -28.0514E-03     54.3978E-03    -26.4286E-03     80.6078E-03
             497     14.0245E-03     69.1027E-03    -7.12740E+06     6.67673E+06    -8.47978E+06    -5.84324E+03    -28.1220E-03     54.4996E-03    -26.3776E-03     92.0356E-03    -28.4772E-03     54.8778E-03    -26.4194E-03     91.8385E-03
             498     14.9013E-03     69.2003E-03    -7.36609E+06     58.9832E+06    -19.4676E+06     1.44052E+06    -29.8214E-03     56.0535E-03    -26.2321E-03     130.702E-03    -30.8260E-03     57.2978E-03    -26.4043E-03     130.550E-03
             499     15.7780E-03     69.3510E-03    -6.71118E+06     125.707E+06     8.54143E+06     1.53363E+06    -32.4400E-03     58.6887E-03    -26.2487E-03     191.096E-03    -35.8211E-03     62.4675E-03    -26.3785E-03     191.743E-03
             500     16.6557E-03     69.5653E-03    -4.62437E+06     165.078E+06     73.2227E+06     504.649E+03    -29.7813E-03     56.2566E-03    -26.4753E-03     153.874E-03    -33.2790E-03     60.1116E-03    -26.3418E-03     155.609E-03
             501     876.442E-06     69.4653E-03    -23.2374E+06    -112.466E+06    -22.7262E+06     28.2838E+03    -26.5608E-03     53.1773E-03    -26.6166E-03     5.70994E-03    -26.4810E-03     52.6819E-03    -26.5334E-03     5.70767E-03
             502     1.75294E-03     69.4731E-03    -22.8177E+06    -111.468E+06    -21.0119E+06     117.167E+03    -26.6098E-03     53.2013E-03    -26.5915E-03     10.6453E-03    -26.5322E-03     52.7079E-03    -26.5018E-03     10.6417E-03
             503     2.62935E-03     69.4855E-03    -21.9319E+06    -109.867E+06    -18.2905E+06     229.387E+03    -26.6333E-03     53.2329E-03    -26.5996E-03     15.8176E-03    -26.5580E-03     52.7428E-03    -26.4999E-03     15.8125E-03
             504     3.50589E-03     69.5031E-03    -20.6273E+06    -108.095E+06    -15.0563E+06     287.068E+03    -26.6764E-03     53.2846E-03    -26.6081E-03     21.0460E-03    -26.6028E-03     52.7976E-03    -26.4968E-03     21.0382E-03
             505     4.38231E-03     69.5255E-03    -19.2869E+06    -103.805E+06    -11.6811E+06     99.9845E+03    -26.7262E-03     53.3396E-03    -26.6134E-03     26.3074E-03    -26.6583E-03     52.8686E-03    -26.4933E-03     26.2930E-03
             506     5.25886E-03     69.5531E-03    -17.9849E+06    -97.5390E+06    -8.22717E+06     37.5718E+03    -26.7764E-03     53.3912E-03    -26.6148E-03     31.6091E-03    -26.7180E-03     52.9465E-03    -26.4884E-03     31.5888E-03
             507     6.13532E-03     69.5856E-03    -16.6413E+06    -93.4228E+06    -4.83545E+06    -83.2836E+03    -26.8493E-03     53.4671E-03    -26.6177E-03     36.8492E-03    -26.7979E-03     53.0389E-03    -26.4823E-03     36.8208E-03
             508     7.01190E-03     69.6231E-03    -14.9082E+06    -88.0447E+06    -1.55713E+06    -298.837E+03    -26.9413E-03     53.5591E-03    -26.6178E-03     42.0238E-03    -26.8977E-03     53.1546E-03    -26.4763E-03     41.9845E-03
             509     7.88835E-03     69.6655E-03    -12.6981E+06    -81.3259E+06     415.738E+03    -189.083E+03    -27.0400E-03     53.6490E-03    -26.6090E-03     47.1313E-03    -27.0038E-03     53.2778E-03    -26.4705E-03     47.0833E-03
             510     8.76500E-03     69.7126E-03    -10.6349E+06    -75.3364E+06     1.51855E+06    -384.330E+03    -27.1514E-03     53.7483E-03    -26.5969E-03     52.1390E-03    -27.1234E-03     53.4107E-03    -26.4647E-03     52.0760E-03
             511     9.64145E-03     69.7645E-03    -9.27167E+06    -69.5883E+06     1.16871E+06    -599.618E+03    -27.2802E-03     53.8597E-03    -26.5795E-03     57.0857E-03    -27.2650E-03     53.5611E-03    -26.4593E-03     57.0047E-03
             512     10.5181E-03     69.8210E-03    -8.32621E+06    -62.0272E+06     169.757E+03    -369.664E+03    -27.4020E-03     53.9595E-03    -26.5575E-03     61.8536E-03    -27.4083E-03     53.7155E-03    -26.4546E-03     61.7573E-03
             513     11.3945E-03     69.8821E-03    -7.83298E+06    -50.4431E+06     356.938E+03    -100.827E+03    -27.5546E-03     54.0915E-03    -26.5370E-03     67.3138E-03    -27.6012E-03     53.9302E-03    -26.4507E-03     67.1988E-03
             514     12.2712E-03     69.9489E-03    -8.08779E+06    -39.1512E+06    -2.51309E+06     1.36655E+03    -27.7336E-03     54.2351E-03    -26.5016E-03     75.0202E-03    -27.8377E-03     54.1788E-03    -26.4456E-03     74.8786E-03
             515     13.1478E-03     70.0247E-03    -8.57105E+06    -25.0242E+06    -6.04431E+06    -559.464E+03    -27.8098E-03     54.2654E-03    -26.4556E-03     80.8050E-03    -27.9974E-03     54.3512E-03    -26.4371E-03     80.6254E-03
             516     14.0244E-03     70.1027E-03    -8.45446E+06     4.88603E+06    -9.26871E+06    -418.548E+03    -28.0283E-03     54.4104E-03    -26.3821E-03     91.7409E-03    -28.3866E-03     54.7829E-03    -26.4233E-03     91.5390E-03
             517     14.9016E-03     70.1987E-03    -7.47913E+06     57.8945E+06    -19.5671E+06     148.440E+03    -29.4245E-03     55.6487E-03    -26.2241E-03     130.257E-03    -30.4232E-03     56.8830E-03    -26.3951E-03     130.094E-03
             518     15.7791E-03     70.3512E-03    -6.71901E+06     125.845E+06     7.67601E+06     775.128E+03    -32.8628E-03     59.1017E-03    -26.2389E-03     190.197E-03    -36.2425E-03     62.8820E-03    -26.3732E-03     190.806E-03
             519     16.6565E-03     70.5633E-03    -4.21049E+06     165.610E+06     72.0246E+06     1.17469E+06    -30.4234E-03     56.9214E-03    -26.4980E-03     151.035E-03    -33.9176E-03     60.7798E-03    -26.3719E-03     152.739E-03
             520     876.479E-06     70.4650E-03    -23.5119E+06    -112.698E+06    -23.1847E+06     106.769E+03    -26.5596E-03     53.1850E-03    -26.6254E-03     5.74308E-03    -26.4802E-03     52.6895E-03    -26.5438E-03     5.74179E-03
             521     1.75289E-03     70.4726E-03    -23.0004E+06    -111.728E+06    -21.6260E+06     308.159E+03    -26.6121E-03     53.2053E-03    -26.5933E-03     10.6386E-03    -26.5341E-03     52.7118E-03    -26.5060E-03     10.6374E-03
             522     2.62942E-03     70.4852E-03    -22.1542E+06    -109.948E+06    -18.9207E+06     288.320E+03    -26.6412E-03     53.2423E-03    -26.6011E-03     15.8247E-03    -26.5661E-03     52.7531E-03    -26.5042E-03     15.8204E-03
             523     3.50581E-03     70.5026E-03    -20.9064E+06    -108.146E+06    -15.5258E+06     183.700E+03    -26.6820E-03     53.2932E-03    -26.6112E-03     21.0562E-03    -26.6090E-03     52.8071E-03    -26.5018E-03     21.0471E-03
             524     4.38235E-03     70.5252E-03    -19.3968E+06    -103.731E+06    -11.6915E+06     247.000E+03    -26.7261E-03     53.3442E-03    -26.6181E-03     26.3176E-03    -26.6588E-03     52.8737E-03    -26.4980E-03     26.3051E-03
             525     5.25878E-03     70.5526E-03    -17.7991E+06    -97.5492E+06    -7.91828E+06     198.854E+03    -26.7816E-03     53.4020E-03    -26.6204E-03     31.6097E-03    -26.7227E-03     52.9565E-03    -26.4927E-03     31.5914E-03
             526     6.13536E-03     70.5852E-03    -15.9659E+06    -92.9992E+06    -4.57304E+06    -64.6353E+03    -26.8533E-03     53.4749E-03    -26.6216E-03     36.8568E-03    -26.7995E-03     53.0475E-03    -26.4864E-03     36.8287E-03
             527     7.01180E-03     70.6227E-03    -14.3140E+06    -87.8006E+06    -1.69644E+06    -388.665E+03    -26.9398E-03     53.5591E-03    -26.6194E-03     42.0447E-03    -26.8934E-03     53.1552E-03    -26.4798E-03     42.0042E-03
             528     7.88844E-03     70.6650E-03    -12.8312E+06    -81.1913E+06     264.912E+03    -755.257E+03    -27.0444E-03     53.6556E-03    -26.6112E-03     47.1451E-03    -27.0088E-03     53.2855E-03    -26.4736E-03     47.0897E-03
             529     8.76485E-03     70.7122E-03    -11.2636E+06    -74.9994E+06     1.31840E+06    -927.173E+03    -27.1652E-03     53.7653E-03    -26.6001E-03     52.1558E-03    -27.1405E-03     53.4306E-03    -26.4684E-03     52.0858E-03
             530     9.64149E-03     70.7641E-03    -9.97485E+06    -69.8423E+06     981.408E+03    -663.008E+03    -27.2915E-03     53.8763E-03    -26.5848E-03     57.0930E-03    -27.2791E-03     53.5777E-03    -26.4642E-03     57.0112E-03
             531     10.5179E-03     70.8207E-03    -9.27833E+06    -62.3514E+06    -115.454E+03    -323.174E+03    -27.4013E-03     53.9644E-03    -26.5631E-03     61.8690E-03    -27.4115E-03     53.7206E-03    -26.4598E-03     61.7734E-03
             532     11.3946E-03     70.8816E-03    -8.44137E+06    -50.6019E+06    -153.707E+03    -148.870E+03    -27.5563E-03     54.0966E-03    -26.5404E-03     67.4250E-03    -27.6049E-03     53.9361E-03    -26.4555E-03     67.3095E-03
             533     12.2710E-03     70.9487E-03    -7.52142E+06    -39.7037E+06    -2.99042E+06     450.900E+03    -27.7993E-03     54.3050E-03    -26.5058E-03     75.0398E-03    -27.8994E-03     54.2462E-03    -26.4522E-03     74.9034E-03
             534     13.1475E-03     71.0240E-03    -7.56946E+06    -24.0854E+06    -5.97003E+06     433.532E+03    -27.7576E-03     54.2172E-03    -26.4597E-03     80.7463E-03    -27.9412E-03     54.3058E-03    -26.4436E-03     80.5802E-03
             535     14.0246E-03     71.1021E-03    -7.66973E+06     5.11314E+06    -9.65459E+06    -800.130E+03    -27.9888E-03     54.3704E-03    -26.3816E-03     91.8508E-03    -28.3416E-03     54.7421E-03    -26.4261E-03     91.6452E-03
             536     14.9007E-03     71.1982E-03    -8.59421E+06     57.7589E+06    -20.6562E+06    -1.15962E+06    -29.8742E-03     56.1107E-03    -26.2365E-03     129.532E-03    -30.8827E-03     57.3537E-03    -26.4111E-03     129.343E-03
             537     15.7787E-03     71.3484E-03    -9.98339E+06     125.138E+06     6.69713E+06     129.791E+03    -33.0994E-03     59.3704E-03    -26.2710E-03     191.627E-03    -36.4888E-03     63.1491E-03    -26.4045E-03     192.222E-03
             538     16.6497E-03     71.5699E-03    -5.87518E+06     164.448E+06     71.4340E+06     600.172E+03    -29.8383E-03     56.3469E-03    -26.5086E-03     152.810E-03    -33.3204E-03     60.1849E-03    -26.3814E-03     154.526E-03
             539     876.428E-06     71.4645E-03    -24.1483E+06    -112.767E+06    -23.9541E+06    -82.2878E+03    -26.5894E-03     53.1934E-03    -26.6039E-03     5.75085E-03    -26.5120E-03     52.6995E-03    -26.5252E-03     5.74712E-03
             540     1.75293E-03     71.4722E-03    -23.3346E+06    -112.038E+06    -22.2647E+06     5.64501E+03    -26.6156E-03     53.2127E-03    -26.5971E-03     10.6332E-03    -26.5380E-03     52.7190E-03    -26.5121E-03     10.6282E-03
             541     2.62933E-03     71.4847E-03    -22.2030E+06    -110.036E+06    -19.1628E+06     180.696E+03    -26.6413E-03     53.2461E-03    -26.6048E-03     15.8312E-03    -26.5659E-03     52.7569E-03    -26.5089E-03     15.8255E-03
             542     3.50586E-03     71.5023E-03    -20.9758E+06    -108.116E+06    -15.4892E+06     198.889E+03    -26.6821E-03     53.2971E-03    -26.6150E-03     21.0597E-03    -26.6095E-03     52.8112E-03    -26.5053E-03     21.0507E-03
             543     4.38227E-03     71.5247E-03    -19.4904E+06    -103.853E+06    -11.8819E+06     120.101E+03    -26.7281E-03     53.3486E-03    -26.6204E-03     26.3289E-03    -26.6609E-03     52.8779E-03    -26.5010E-03     26.3148E-03
             544     5.25884E-03     71.5523E-03    -17.5684E+06    -97.2465E+06    -7.90699E+06    -67.2401E+03    -26.7828E-03     53.4052E-03    -26.6224E-03     31.6251E-03    -26.7232E-03     52.9609E-03    -26.4954E-03     31.6034E-03
             545     6.13526E-03     71.5847E-03    -15.7119E+06    -92.7666E+06    -4.35880E+06    -283.576E+03    -26.8564E-03     53.4808E-03    -26.6244E-03     36.8645E-03    -26.8019E-03     53.0539E-03    -26.4889E-03     36.8335E-03
             546     7.01188E-03     71.6223E-03    -13.9673E+06    -87.4872E+06    -1.43521E+06    -377.597E+03    -26.9422E-03     53.5644E-03    -26.6221E-03     42.0548E-03    -26.8950E-03     53.1611E-03    -26.4822E-03     42.0145E-03
             547     7.88829E-03     71.6646E-03    -12.4676E+06    -80.5971E+06     447.153E+03    -687.832E+03    -27.0473E-03     53.6603E-03    -26.6131E-03     47.1712E-03    -27.0110E-03     53.2924E-03    -26.4759E-03     47.1168E-03
             548     8.76495E-03     71.7118E-03    -11.4129E+06    -74.9272E+06     1.17681E+06    -894.229E+03    -27.1641E-03     53.7657E-03    -26.6016E-03     52.1956E-03    -27.1401E-03     53.4317E-03    -26.4705E-03     52.1261E-03
             549     9.64133E-03     71.7637E-03    -10.5502E+06    -70.3120E+06     286.617E+03    -630.559E+03    -27.2910E-03     53.8756E-03    -26.5846E-03     57.1528E-03    -27.2799E-03     53.5766E-03    -26.4659E-03     57.0715E-03
             550     10.5180E-03     71.8202E-03    -9.39407E+06    -62.3059E+06    -888.878E+03    -541.174E+03    -27.4026E-03     53.9635E-03    -26.5608E-03     61.9218E-03    -27.4123E-03     53.7212E-03    -26.4613E-03     61.8234E-03
             551     11.3944E-03     71.8812E-03    -8.23816E+06    -50.7105E+06    -707.913E+03    -661.400E+03    -27.5473E-03     54.0856E-03    -26.5383E-03     67.5302E-03    -27.5938E-03     53.9249E-03    -26.4564E-03     67.4084E-03
             552     12.2712E-03     71.9484E-03    -7.18332E+06    -40.7592E+06    -3.71759E+06    -230.712E+03    -27.8202E-03     54.3240E-03    -26.5039E-03     75.1147E-03    -27.9159E-03     54.2604E-03    -26.4530E-03     74.9697E-03
             553     13.1476E-03     72.0237E-03    -6.41729E+06    -24.2779E+06    -5.96900E+06     702.107E+03    -27.9231E-03     54.3882E-03    -26.4651E-03     80.3951E-03    -28.1014E-03     54.4748E-03    -26.4504E-03     80.2308E-03
             554     14.0244E-03     72.1009E-03    -6.80124E+06     8.13938E+06    -7.59896E+06    -554.183E+03    -28.3294E-03     54.7389E-03    -26.4095E-03     91.2352E-03    -28.6856E-03     55.1220E-03    -26.4495E-03     91.0292E-03
             555     14.9019E-03     72.1983E-03    -7.18528E+06     56.8816E+06    -21.1866E+06    -1.16103E+06    -30.5823E-03     56.8696E-03    -26.2873E-03     129.146E-03    -31.5938E-03     58.1190E-03    -26.4653E-03     128.943E-03
             556     15.7748E-03     72.3499E-03    -5.58990E+06     122.986E+06     3.22122E+06     697.413E+03    -31.0445E-03     57.3143E-03    -26.2698E-03     189.779E-03    -34.3051E-03     60.9824E-03    -26.4239E-03     190.459E-03
             557     16.6619E-03     72.5650E-03    -3.25035E+06     165.619E+06     70.2369E+06     902.945E+03    -28.7845E-03     55.2192E-03    -26.4346E-03     155.200E-03    -32.1886E-03     58.9962E-03    -26.3189E-03     156.994E-03
             558     876.464E-06     72.4641E-03    -24.5017E+06    -112.390E+06    -24.0982E+06    -278.700E+03    -26.6044E-03     53.1973E-03    -26.5929E-03     5.76266E-03    -26.5290E-03     52.7060E-03    -26.5149E-03     5.75638E-03
             559     1.75287E-03     72.4717E-03    -23.8440E+06    -112.019E+06    -22.3015E+06    -389.139E+03    -26.6220E-03     53.2240E-03    -26.6020E-03     10.6463E-03    -26.5468E-03     52.7313E-03    -26.5166E-03     10.6362E-03
             560     2.62938E-03     72.4843E-03    -22.6161E+06    -110.302E+06    -19.5313E+06    -218.315E+03    -26.6425E-03     53.2515E-03    -26.6090E-03     15.8345E-03    -26.5682E-03     52.7621E-03    -26.5140E-03     15.8236E-03
             561     3.50580E-03     72.5018E-03     -20.953E+06    -108.166E+06    -15.7336E+06    -9.52012E+03    -26.6779E-03     53.2953E-03    -26.6174E-03     21.0602E-03    -26.6048E-03     52.8094E-03    -26.5089E-03     21.0486E-03
             562     4.38233E-03     72.5244E-03    -19.0955E+06    -103.525E+06    -11.8036E+06    -232.988E+03    -26.7256E-03     53.3474E-03    -26.6217E-03     26.3380E-03    -26.6570E-03     52.8776E-03    -26.5030E-03     26.3193E-03
             563     5.25876E-03     72.5518E-03    -17.3686E+06    -97.1547E+06    -8.16717E+06    -375.691E+03    -26.7800E-03     53.4016E-03    -26.6216E-03     31.6401E-03    -26.7191E-03     52.9578E-03    -26.4963E-03     31.6144E-03
             564     6.13535E-03     72.5844E-03    -15.6945E+06    -92.5419E+06    -4.32880E+06    -360.509E+03    -26.8555E-03     53.4801E-03    -26.6247E-03     36.8813E-03    -26.8013E-03     53.0542E-03    -26.4894E-03     36.8493E-03
             565     7.01175E-03     72.6218E-03    -13.9951E+06    -87.2486E+06    -1.55483E+06    -591.453E+03    -26.9403E-03     53.5617E-03    -26.6214E-03     42.0843E-03    -26.8934E-03     53.1599E-03    -26.4824E-03     42.0413E-03
             566     7.88843E-03     72.6643E-03    -12.2391E+06    -80.0948E+06     135.420E+03    -798.927E+03    -27.0359E-03     53.6456E-03    -26.6097E-03     47.2299E-03    -26.9987E-03     53.2803E-03    -26.4752E-03     47.1742E-03
             567     8.76482E-03     72.7114E-03    -10.7482E+06    -75.1855E+06     1.18609E+06    -646.172E+03    -27.1509E-03     53.7497E-03    -26.5988E-03     52.2403E-03    -27.1232E-03     53.4135E-03    -26.4683E-03     52.1741E-03
             568     9.64154E-03     72.7633E-03    -9.56638E+06    -70.1990E+06     553.327E+03    -631.287E+03    -27.2818E-03     53.8625E-03    -26.5808E-03     57.2184E-03    -27.2662E-03     53.5622E-03    -26.4623E-03     57.1373E-03
             569     10.5179E-03     72.8199E-03    -8.59072E+06    -61.9953E+06    -800.796E+03    -963.045E+03    -27.4206E-03     53.9768E-03    -26.5562E-03     61.9855E-03    -27.4269E-03     53.7348E-03    -26.4579E-03     61.8817E-03
             570     11.3946E-03     72.8808E-03    -8.03709E+06    -51.0302E+06    -642.527E+03    -729.601E+03    -27.5587E-03     54.0951E-03    -26.5364E-03     67.5702E-03    -27.6038E-03     53.9325E-03    -26.4540E-03     67.4475E-03
             571     12.2710E-03     72.9480E-03    -7.90841E+06    -41.1229E+06    -3.86926E+06    -546.051E+03    -27.8614E-03     54.3656E-03    -26.5042E-03     75.2249E-03    -27.9598E-03     54.3012E-03    -26.4524E-03     75.0759E-03
             572     13.1475E-03     73.0234E-03    -7.52264E+06    -25.3346E+06    -7.33943E+06    -162.919E+03    -28.1673E-03     54.6373E-03    -26.4700E-03     80.5346E-03    -28.3485E-03     54.7232E-03    -26.4591E-03     80.3572E-03
             573     14.0233E-03     73.1011E-03    -7.88117E+06     10.0276E+06    -6.38277E+06     974.706E+03    -29.0523E-03     55.5036E-03    -26.4513E-03     92.1089E-03    -29.4263E-03     55.9037E-03    -26.4863E-03     91.9136E-03
             574     14.8977E-03     73.1985E-03    -10.2813E+06     57.8364E+06    -18.8324E+06    -352.557E+03    -30.4906E-03     56.8454E-03    -26.3548E-03     129.717E-03    -31.5133E-03     58.0916E-03    -26.5179E-03     129.532E-03
             575     15.7767E-03     73.3504E-03    -10.1634E+06     119.712E+06    -460.031E+03    -2.19888E+06    -31.4094E-03     57.7467E-03    -26.3373E-03     183.687E-03    -34.6316E-03     61.3593E-03    -26.4985E-03     184.285E-03
             576     16.6552E-03     73.5494E-03    -3.54504E+06     164.733E+06     67.1421E+06    -652.400E+03    -28.0436E-03     54.5567E-03    -26.5131E-03     152.891E-03    -31.4475E-03     58.3388E-03    -26.4111E-03     154.654E-03
             577     876.443E-06     73.4636E-03    -24.6000E+06    -111.836E+06    -24.0281E+06    -254.710E+03    -26.6185E-03     53.2028E-03    -26.5843E-03     5.76108E-03    -26.5445E-03     52.7144E-03    -26.5067E-03     5.75512E-03
             578     1.75292E-03     73.4714E-03    -23.9946E+06    -111.737E+06    -22.2098E+06    -384.557E+03    -26.6230E-03     53.2286E-03    -26.6057E-03     10.6432E-03    -26.5491E-03     52.7374E-03    -26.5199E-03     10.6331E-03
             579     2.62931E-03     73.4838E-03    -23.1140E+06    -110.327E+06    -19.9350E+06    -443.634E+03    -26.6423E-03     53.2530E-03    -26.6107E-03     15.8338E-03    -26.5700E-03     52.7647E-03    -26.5169E-03     15.8201E-03
             580     3.50582E-03     73.5014E-03    -21.6545E+06    -107.905E+06    -16.9194E+06    -714.722E+03    -26.6692E-03     53.2830E-03    -26.6138E-03     21.0843E-03    -26.5983E-03     52.8012E-03    -26.5105E-03     21.0636E-03
             581     4.38227E-03     73.5238E-03    -19.8455E+06    -103.375E+06    -12.6519E+06    -687.220E+03    -26.7143E-03     53.3324E-03    -26.6181E-03     26.3669E-03    -26.6484E-03     52.8658E-03    -26.5027E-03     26.3424E-03
             582     5.25884E-03     73.5515E-03    -18.0615E+06    -97.1214E+06    -8.48441E+06    -545.600E+03    -26.7709E-03     53.3904E-03    -26.6194E-03     31.6568E-03    -26.7131E-03     52.9482E-03    -26.4948E-03     31.6290E-03
             583     6.13526E-03     73.5839E-03    -16.1098E+06    -92.2577E+06    -4.95573E+06    -734.324E+03    -26.8402E-03     53.4592E-03    -26.6190E-03     36.9123E-03    -26.7876E-03     53.0363E-03    -26.4866E-03     36.8756E-03
             584     7.01192E-03     73.6215E-03    -13.9768E+06    -86.7632E+06    -1.78433E+06    -1.02244E+06    -26.9256E-03     53.5409E-03    -26.6153E-03     42.1251E-03    -26.8789E-03     53.1418E-03    -26.4781E-03     42.0766E-03
             585     7.88832E-03     73.6637E-03    -12.1563E+06    -80.0150E+06    -70.9137E+03    -1.14226E+06    -27.0169E-03     53.6196E-03    -26.6027E-03     47.2761E-03    -26.9791E-03     53.2548E-03    -26.4694E-03     47.2161E-03
             586     8.76505E-03     73.7111E-03    -10.4204E+06    -75.3294E+06     1.17759E+06    -1.06475E+06    -27.1317E-03     53.7229E-03    -26.5912E-03     52.3024E-03    -27.1021E-03     53.3854E-03    -26.4610E-03     52.2309E-03
             587     9.64143E-03     73.7628E-03    -8.81728E+06    -70.1056E+06     887.073E+03    -944.092E+03    -27.2663E-03     53.8389E-03    -26.5726E-03     57.2865E-03    -27.2475E-03     53.5374E-03    -26.4537E-03     57.2014E-03
             588     10.5182E-03     73.8196E-03    -7.89295E+06    -61.5417E+06    -194.419E+03    -941.640E+03    -27.4132E-03     53.9614E-03    -26.5482E-03     62.1215E-03    -27.4175E-03     53.7197E-03    -26.4485E-03     62.0181E-03
             589     11.3945E-03     73.8804E-03    -7.16273E+06     -51.775E+06    -446.864E+03    -730.312E+03    -27.5760E-03     54.1043E-03    -26.5283E-03     67.6852E-03    -27.6160E-03     53.9364E-03    -26.4451E-03     67.5624E-03
             590     12.2713E-03     73.9476E-03    -6.51465E+06    -41.0493E+06    -3.09176E+06    -284.999E+03    -27.8184E-03     54.3142E-03    -26.4958E-03     75.6115E-03    -27.9109E-03     54.2468E-03    -26.4422E-03     75.4665E-03
             591     13.1474E-03     74.0236E-03    -6.57024E+06    -25.7279E+06    -7.29039E+06    -77.2181E+03    -28.1454E-03     54.6010E-03    -26.4556E-03     81.4516E-03    -28.3216E-03     54.6837E-03    -26.4452E-03     81.2759E-03
             592     14.0241E-03     74.1011E-03    -6.36497E+06     6.79647E+06    -7.64398E+06     1.82537E+06    -28.7431E-03     55.1621E-03    -26.4190E-03     94.4300E-03    -29.1063E-03     55.5490E-03    -26.4578E-03     94.2490E-03
             593     14.8998E-03     74.2020E-03    -7.13982E+06     61.5696E+06    -14.8166E+06     2.54688E+06    -29.6616E-03     55.9591E-03    -26.2975E-03     131.536E-03    -30.6521E-03     57.1858E-03    -26.4505E-03     131.408E-03
             594     15.7760E-03     74.3448E-03    -8.25423E+06     123.534E+06     9.45171E+06    -2.01745E+06    -33.3307E-03     59.6531E-03    -26.3224E-03     190.796E-03    -36.7713E-03     63.4751E-03    -26.4423E-03     191.353E-03
             595     16.6442E-03     74.5599E-03    -3.88295E+06     161.875E+06     71.9021E+06    -3.11236E+06    -29.5214E-03     56.0696E-03    -26.5482E-03     156.967E-03    -33.1186E-03     60.0196E-03    -26.4178E-03     158.654E-03
             596     876.428E-06     74.4633E-03    -24.7411E+06    -111.312E+06    -24.3988E+06    -254.487E+03    -26.6147E-03     53.2019E-03    -26.5871E-03     5.75759E-03    -26.5417E-03     52.7168E-03    -26.5119E-03     5.75165E-03
             597     1.75286E-03     74.4709E-03    -24.1264E+06    -111.513E+06    -22.5573E+06    -306.045E+03    -26.6175E-03     53.2212E-03    -26.6037E-03     10.6571E-03    -26.5441E-03     52.7317E-03    -26.5198E-03     10.6481E-03
             598     2.62936E-03     74.4835E-03    -22.9792E+06    -109.767E+06    -19.7631E+06    -622.454E+03    -26.6339E-03     53.2422E-03    -26.6082E-03     15.8387E-03    -26.5619E-03     52.7562E-03    -26.5146E-03     15.8227E-03
             599     3.50582E-03     74.5009E-03    -21.7651E+06    -107.365E+06    -16.5704E+06    -954.392E+03    -26.6644E-03     53.2761E-03    -26.6117E-03     21.0944E-03    -26.5953E-03     52.7966E-03    -26.5073E-03     21.0707E-03
             600     4.38235E-03     74.5235E-03    -20.4951E+06    -103.538E+06    -12.9836E+06    -902.642E+03    -26.7065E-03     53.3207E-03    -26.6142E-03     26.3816E-03    -26.6431E-03     52.8546E-03    -26.4993E-03     26.3543E-03
             601     5.25879E-03     74.5509E-03    -18.6695E+06    -96.7538E+06    -9.00461E+06    -981.792E+03    -26.7541E-03     53.3669E-03    -26.6127E-03     31.6748E-03    -26.6991E-03     52.9282E-03    -26.4904E-03     31.6414E-03
             602     6.13541E-03     74.5835E-03    -16.4704E+06    -91.6925E+06    -5.17369E+06    -1.39804E+06    -26.8221E-03     53.4337E-03    -26.6116E-03     36.9284E-03    -26.7718E-03     53.0144E-03    -26.4807E-03     36.8832E-03
             603     7.01185E-03     74.6209E-03    -14.3463E+06    -86.3998E+06    -2.07795E+06    -1.66912E+06    -26.9015E-03     53.5077E-03    -26.6062E-03     42.1455E-03    -26.8567E-03     53.1113E-03    -26.4705E-03     42.0887E-03
             604     7.88856E-03     74.6634E-03    -12.2926E+06    -79.8868E+06    -168.014E+03    -1.68526E+06    -26.9956E-03     53.5887E-03    -26.5931E-03     47.2890E-03    -26.9585E-03     53.2248E-03    -26.4602E-03     47.2220E-03
             605     8.76499E-03     74.7104E-03    -10.5064E+06    -75.2446E+06     1.11621E+06    -1.69330E+06    -27.1063E-03     53.6866E-03    -26.5803E-03     52.3307E-03    -27.0771E-03     53.3497E-03    -26.4504E-03     52.2513E-03
             606     9.64177E-03     74.7625E-03    -8.97850E+06    -70.2529E+06     689.426E+03    -1.56566E+06    -27.2364E-03     53.7962E-03    -26.5599E-03     57.3274E-03    -27.2178E-03     53.4945E-03    -26.4415E-03     57.2345E-03
             607     10.5181E-03     74.8189E-03    -7.66681E+06    -61.7198E+06     -43.466E+03    -1.15872E+06    -27.3558E-03     53.8898E-03    -26.5340E-03     62.2017E-03    -27.3588E-03     53.6465E-03    -26.4336E-03     62.0959E-03
             608     11.3950E-03     74.8802E-03    -6.68394E+06    -51.7926E+06     175.345E+03    -1.03819E+06    -27.5241E-03     54.0364E-03    -26.5124E-03     67.8368E-03    -27.5627E-03     53.8669E-03    -26.4267E-03     67.7103E-03
             609     12.2712E-03     74.9471E-03    -5.79441E+06    -41.8380E+06    -3.00816E+06    -825.497E+03    -27.6083E-03     54.0779E-03    -26.4696E-03     75.6416E-03    -27.6957E-03     54.0049E-03    -26.4156E-03     75.4908E-03
             610     13.1486E-03     75.0231E-03    -4.56750E+06    -26.1157E+06    -5.73734E+06    -123.862E+03    -27.8717E-03     54.2901E-03    -26.4185E-03     82.2296E-03    -28.0407E-03     54.3669E-03    -26.4027E-03     82.0550E-03
             611     14.0245E-03     75.1017E-03    -3.52606E+06     3.90675E+06    -7.26398E+06     301.252E+03    -27.8224E-03     54.1662E-03    -26.3437E-03     93.8206E-03    -28.1631E-03     54.5292E-03    -26.3806E-03     93.6297E-03
             612     14.9037E-03     75.1991E-03    -912.347E+03     60.7462E+06    -13.3302E+06     2.02411E+06    -28.2421E-03     54.4001E-03    -26.1580E-03     129.908E-03    -29.1813E-03     55.5903E-03    -26.3114E-03     129.788E-03
             613     15.7830E-03     75.3463E-03    -228.284E+03     130.787E+06     19.1323E+06     1.97141E+06    -32.1655E-03     58.3056E-03    -26.1401E-03     193.472E-03    -35.6676E-03     62.2151E-03    -26.2338E-03     194.150E-03
             614     16.6678E-03     75.5663E-03    -4.15430E+06     163.765E+06     76.3816E+06    -401.545E+03    -32.1014E-03     58.5013E-03    -26.4000E-03     152.211E-03    -35.7181E-03     62.4632E-03    -26.2495E-03     153.836E-03
             615     876.472E-06     75.4628E-03    -25.1870E+06    -110.754E+06    -24.7718E+06    -353.282E+03    -26.5753E-03     53.1792E-03    -26.6038E-03     5.76580E-03    -26.5048E-03     52.6981E-03    -26.5305E-03     5.75858E-03
             616     1.75292E-03     75.4706E-03    -24.2778E+06    -111.065E+06    -22.5554E+06    -589.052E+03    -26.6088E-03     53.2034E-03    -26.5946E-03     10.6643E-03    -26.5368E-03     52.7163E-03    -26.5111E-03     10.6516E-03
             617     2.62935E-03     75.4830E-03    -22.9832E+06    -109.036E+06    -19.2025E+06    -880.333E+03    -26.6292E-03     53.2316E-03    -26.6024E-03     15.8443E-03    -26.5591E-03     52.7485E-03    -26.5070E-03     15.8249E-03
             618     3.50586E-03     75.5006E-03    -21.5569E+06    -107.221E+06    -15.5278E+06    -805.989E+03    -26.6662E-03     53.2768E-03    -26.6106E-03     21.0857E-03    -26.5978E-03     52.7963E-03    -26.5015E-03     21.0638E-03
             619     4.38230E-03     75.5230E-03    -20.0428E+06    -103.216E+06    -12.4985E+06    -879.380E+03    -26.7013E-03     53.3120E-03    -26.6107E-03     26.3662E-03    -26.6368E-03     52.8462E-03    -26.4945E-03     26.3392E-03
             620     5.25889E-03     75.5506E-03    -18.3985E+06    -96.0064E+06    -9.18158E+06    -1.41104E+06    -26.7413E-03     53.3461E-03    -26.6048E-03     31.6701E-03    -26.6857E-03     52.9110E-03    -26.4848E-03     31.6312E-03
             621     6.13536E-03     75.5830E-03    -16.6236E+06    -90.9946E+06    -5.24297E+06    -1.85308E+06    -26.8068E-03     53.4106E-03    -26.6038E-03     36.9165E-03    -26.7581E-03     52.9951E-03    -26.4740E-03     36.8654E-03
             622     7.01202E-03     75.6206E-03    -14.7837E+06    -85.9478E+06    -2.31383E+06    -2.15333E+06    -26.8861E-03     53.4836E-03    -26.5975E-03     42.1229E-03    -26.8438E-03     53.0905E-03    -26.4631E-03     42.0598E-03
             623     7.88849E-03     75.6628E-03    -12.9983E+06    -79.6496E+06    -669.566E+03    -2.32393E+06    -26.9777E-03     53.5608E-03    -26.5832E-03     47.2597E-03    -26.9437E-03     53.1999E-03    -26.4522E-03     47.1844E-03
             624     8.76523E-03     75.7101E-03    -11.1973E+06    -75.0656E+06     621.535E+03    -2.32811E+06    -27.0893E-03     53.6593E-03    -26.5700E-03     52.2816E-03    -27.0631E-03     53.3250E-03    -26.4418E-03     52.1939E-03
             625     9.64169E-03     75.7618E-03    -9.57422E+06    -70.3242E+06     80.8480E+03    -2.26102E+06    -27.1985E-03     53.7465E-03    -26.5479E-03     57.2577E-03    -27.1820E-03     53.4461E-03    -26.4317E-03     57.1559E-03
             626     10.5185E-03     75.8187E-03    -8.22827E+06    -62.3432E+06    -896.715E+03    -1.82957E+06    -27.3124E-03     53.8318E-03    -26.5193E-03     62.1098E-03    -27.3161E-03     53.5876E-03    -26.4215E-03     61.9953E-03
             627     11.3950E-03     75.8794E-03    -7.11085E+06    -51.5079E+06    -268.525E+03    -1.53031E+06    -27.4216E-03     53.9157E-03    -26.4941E-03     67.6937E-03    -27.4619E-03     53.7487E-03    -26.4105E-03     67.5612E-03
             628     12.2720E-03     75.9470E-03    -6.23864E+06    -42.0441E+06    -3.88328E+06    -1.60184E+06    -27.5674E-03     54.0145E-03    -26.4470E-03     75.0348E-03    -27.6558E-03     53.9427E-03    -26.3965E-03     74.8734E-03
             629     13.1487E-03     76.0211E-03    -5.86822E+06    -27.4086E+06    -7.10238E+06    -1.32660E+06    -27.5985E-03     53.9875E-03    -26.3890E-03     81.7698E-03    -27.7703E-03     54.0618E-03    -26.3763E-03     81.5813E-03
             630     14.0261E-03     76.1029E-03    -4.86150E+06     4.66045E+06    -7.16436E+06    -1.15863E+06    -27.5767E-03     53.8847E-03    -26.3080E-03     91.9288E-03    -27.9189E-03     54.2470E-03    -26.3435E-03     91.7229E-03
             631     14.9026E-03     76.1944E-03    -5.25464E+06     57.9733E+06    -17.6162E+06    -1.06278E+06    -28.6564E-03     54.7845E-03    -26.1281E-03     125.802E-03    -29.6173E-03     55.9836E-03    -26.2926E-03     125.631E-03
             632     15.7825E-03     76.3431E-03    -6.28299E+06     128.396E+06     10.2939E+06     2.16251E+06    -32.3723E-03     58.4959E-03    -26.1235E-03     189.428E-03    -35.7511E-03     62.2780E-03    -26.2491E-03     190.054E-03
             633     16.6501E-03     76.5654E-03    -5.37526E+06     166.646E+06     73.3016E+06     2.87898E+06    -31.7601E-03     58.1625E-03    -26.4024E-03     150.283E-03    -35.2375E-03     61.9999E-03    -26.2697E-03     151.916E-03
             634     876.438E-06     76.4625E-03    -26.0137E+06    -109.886E+06    -25.3496E+06    -438.728E+03    -26.5506E-03     53.1558E-03    -26.6053E-03     5.75547E-03    -26.4845E-03     52.6811E-03    -26.5350E-03     5.74714E-03
             635     1.75292E-03     76.4700E-03    -25.0614E+06    -110.405E+06    -22.7920E+06    -784.380E+03    -26.5950E-03     53.1804E-03    -26.5854E-03     10.6526E-03    -26.5276E-03     52.6982E-03    -26.5029E-03     10.6374E-03
             636     2.62941E-03     76.4827E-03    -23.9976E+06    -108.577E+06    -19.8530E+06    -835.948E+03    -26.6252E-03     53.2181E-03    -26.5929E-03     15.8328E-03    -26.5599E-03     52.7397E-03    -26.4999E-03     15.8140E-03
             637     3.50586E-03     76.5001E-03    -22.4966E+06    -107.009E+06    -16.4523E+06    -992.304E+03    -26.6594E-03     53.2610E-03    -26.6016E-03     21.0747E-03    -26.5946E-03     52.7842E-03    -26.4961E-03     21.0505E-03
             638     4.38238E-03     76.5226E-03    -20.5923E+06    -102.675E+06    -12.8810E+06    -1.17020E+06    -26.6951E-03     53.2990E-03    -26.6039E-03     26.3502E-03    -26.6336E-03     52.8372E-03    -26.4895E-03     26.3195E-03
             639     5.25885E-03     76.5500E-03    -18.7509E+06    -94.9769E+06    -9.61500E+06    -1.61961E+06    -26.7344E-03     53.3314E-03    -26.5970E-03     31.6512E-03    -26.6815E-03     52.9026E-03    -26.4801E-03     31.6096E-03
             640     6.13547E-03     76.5826E-03    -17.0293E+06    -90.3697E+06    -5.97641E+06    -2.08718E+06    -26.8011E-03     53.3964E-03    -26.5953E-03     36.8887E-03    -26.7543E-03     52.9857E-03    -26.4695E-03     36.8346E-03
             641     7.01196E-03     76.6199E-03    -15.3820E+06    -85.3013E+06    -2.96174E+06    -2.34253E+06    -26.8837E-03     53.4739E-03    -26.5902E-03     42.0774E-03    -26.8444E-03     53.0858E-03    -26.4590E-03     42.0119E-03
             642     7.88863E-03     76.6624E-03    -13.8643E+06    -79.1672E+06    -1.65482E+06    -2.63385E+06    -26.9794E-03     53.5550E-03    -26.5756E-03     47.2054E-03    -26.9491E-03     53.1992E-03    -26.4490E-03     47.1261E-03
             643     8.76512E-03     76.7094E-03    -12.3550E+06    -74.5850E+06    -724.755E+03    -2.98225E+06    -27.0862E-03     53.6481E-03    -26.5619E-03     52.2115E-03    -27.0645E-03     53.3199E-03    -26.4395E-03     52.1153E-03
             644     9.64185E-03     76.7616E-03    -10.8075E+06    -70.3485E+06    -1.38872E+06    -3.02785E+06    -27.2046E-03     53.7457E-03    -26.5411E-03     57.1301E-03    -27.1921E-03     53.4491E-03    -26.4304E-03     57.0182E-03
             645     10.5184E-03     76.8177E-03    -9.49639E+06    -62.9130E+06    -2.66763E+06    -2.61501E+06    -27.3318E-03     53.8455E-03    -26.5137E-03     61.9536E-03    -27.3385E-03     53.6029E-03    -26.4221E-03     61.8288E-03
             646     11.3951E-03     76.8793E-03    -8.22092E+06    -51.2803E+06    -1.88435E+06    -2.41353E+06    -27.4457E-03     53.9362E-03    -26.4905E-03     67.3154E-03    -27.4894E-03     53.7741E-03    -26.4136E-03     67.1714E-03
             647     12.2717E-03     76.9456E-03    -7.22310E+06    -41.9898E+06    -4.97963E+06    -2.27701E+06    -27.7882E-03     54.2439E-03    -26.4557E-03     74.6335E-03    -27.8807E-03     54.1761E-03    -26.4092E-03     74.4618E-03
             648     13.1480E-03     77.0218E-03    -7.41463E+06    -28.4085E+06    -8.96892E+06    -1.47294E+06    -27.7272E-03     54.1368E-03    -26.4097E-03     80.4562E-03    -27.9009E-03     54.2094E-03    -26.4026E-03     80.2653E-03
             649     14.0254E-03     77.0994E-03    -8.78358E+06     4.78409E+06    -10.3905E+06    -1.04284E+06    -27.7678E-03     54.1037E-03    -26.3359E-03     90.5595E-03    -28.1171E-03     54.4689E-03    -26.3821E-03     90.3555E-03
             650     14.9027E-03     77.1964E-03    -10.0390E+06     58.4546E+06    -21.8931E+06    -1.14445E+06    -31.1579E-03     57.3880E-03    -26.2300E-03     125.502E-03    -32.1661E-03     58.6315E-03    -26.4097E-03     125.284E-03
             651     15.7745E-03     77.3408E-03    -9.78825E+06     123.613E+06     1.16031E+06     545.783E+03    -33.2244E-03     59.5256E-03    -26.3012E-03     186.863E-03    -36.4846E-03     63.1865E-03    -26.4604E-03     187.418E-03
             652     16.6603E-03     77.5679E-03    -4.41418E+06     165.173E+06     68.6952E+06      2.1074E+06    -28.4266E-03     54.9482E-03    -26.5216E-03     153.349E-03    -31.7993E-03     58.6925E-03    -26.4112E-03     155.086E-03
             653     876.467E-06     77.4619E-03    -26.1311E+06    -109.016E+06    -25.5980E+06    -320.314E+03    -26.5614E-03     53.1428E-03    -26.5814E-03     5.74846E-03    -26.4969E-03     52.6730E-03    -26.5134E-03     5.74167E-03
             654     1.75294E-03     77.4697E-03    -25.6447E+06    -109.821E+06    -23.3901E+06    -558.403E+03    -26.5953E-03     53.1747E-03    -26.5794E-03     10.6508E-03    -26.5308E-03     52.6971E-03    -26.4999E-03     10.6385E-03
             655     2.62938E-03     77.4821E-03    -24.4087E+06    -108.033E+06    -20.5579E+06    -850.437E+03    -26.6183E-03     53.2055E-03    -26.5872E-03     15.8147E-03    -26.5549E-03     52.7315E-03    -26.4979E-03     15.7957E-03
             656     3.50589E-03     77.4997E-03    -22.8386E+06    -106.301E+06    -17.0585E+06    -1.27693E+06    -26.6504E-03     53.2455E-03    -26.5951E-03     21.0524E-03    -26.5875E-03     52.7736E-03    -26.4931E-03     21.0245E-03
             657     4.38235E-03     77.5220E-03    -21.0839E+06    -102.143E+06    -13.4435E+06    -1.63935E+06    -26.6898E-03     53.2875E-03    -26.5976E-03     26.3303E-03    -26.6307E-03     52.8299E-03    -26.4862E-03     26.2936E-03
             658     5.25893E-03     77.5497E-03    -19.2093E+06    -94.0258E+06    -10.2497E+06    -1.94808E+06    -26.7354E-03     53.3258E-03    -26.5904E-03     31.6287E-03    -26.6852E-03     52.9034E-03    -26.4775E-03     31.5828E-03
             659     6.13541E-03     77.5820E-03    -17.4370E+06    -89.7038E+06    -6.77847E+06    -2.29831E+06    -26.8071E-03     53.3966E-03    -26.5895E-03     36.8644E-03    -26.7622E-03     52.9910E-03    -26.4680E-03     36.8075E-03
             660     7.01203E-03     77.6196E-03    -15.6667E+06    -84.6814E+06    -3.83008E+06    -2.56865E+06    -26.8924E-03     53.4777E-03    -26.5853E-03     42.0490E-03    -26.8542E-03     53.0944E-03    -26.4589E-03     41.9805E-03
             661     7.88853E-03     77.6617E-03    -13.9067E+06    -78.4146E+06    -2.28439E+06    -2.90372E+06    -26.9940E-03     53.5668E-03    -26.5729E-03     47.1803E-03    -26.9640E-03     53.2158E-03    -26.4504E-03     47.0975E-03
             662     8.76517E-03     77.7092E-03    -12.4877E+06    -73.8612E+06    -1.38112E+06    -3.27411E+06    -27.1056E-03     53.6665E-03    -26.5609E-03     52.1655E-03    -27.0847E-03     53.3431E-03    -26.4426E-03     52.0655E-03
             663     9.64169E-03     77.7607E-03    -11.5202E+06    -70.2222E+06    -2.16815E+06    -3.39464E+06    -27.2533E-03     53.7975E-03    -26.5442E-03     57.1021E-03    -27.2435E-03     53.5038E-03    -26.4365E-03     56.9853E-03
             664     10.5183E-03     77.8177E-03    -10.4932E+06    -62.9347E+06    -3.75841E+06    -3.42295E+06    -27.3922E-03     53.9124E-03    -26.5202E-03     61.9112E-03    -27.4022E-03     53.6727E-03    -26.4326E-03     61.7758E-03
             665     11.3948E-03     77.8783E-03    -9.45350E+06    -51.3686E+06    -3.14837E+06    -3.14733E+06    -27.5692E-03     54.0723E-03    -26.5031E-03     67.3265E-03    -27.6170E-03     53.9134E-03    -26.4307E-03     67.1727E-03
             666     12.2712E-03     77.9459E-03    -9.14998E+06    -42.6024E+06    -6.32955E+06    -2.47716E+06    -27.9207E-03     54.3982E-03    -26.4774E-03     74.9986E-03    -28.0198E-03     54.3319E-03    -26.4340E-03     74.8243E-03
             667     13.1475E-03     78.0211E-03    -9.03947E+06    -29.4440E+06    -10.3655E+06    -1.32923E+06    -28.0736E-03     54.5188E-03    -26.4452E-03     80.4653E-03    -28.2508E-03     54.5894E-03    -26.4413E-03     80.2746E-03
             668     14.0235E-03     78.0988E-03    -9.59061E+06     4.08682E+06    -11.9194E+06     -83.964E+03    -28.6110E-03     55.0138E-03    -26.4028E-03     91.0248E-03    -28.9655E-03     55.3833E-03    -26.4544E-03     90.8227E-03
             669     14.9000E-03     78.1951E-03    -10.5127E+06     58.7824E+06    -22.0510E+06     237.260E+03    -31.0986E-03     57.4084E-03    -26.3099E-03     130.428E-03    -32.1119E-03     58.6570E-03    -26.4901E-03     130.232E-03
             670     15.7715E-03     78.3522E-03    -9.78355E+06     123.704E+06     -634.58E+03    -434.007E+03    -32.7479E-03     59.0904E-03    -26.3425E-03     188.686E-03    -36.0424E-03     62.7913E-03    -26.5109E-03     189.290E-03
             671     16.6468E-03     78.5443E-03    -5.19547E+06     164.338E+06     65.3121E+06    -770.296E+03    -28.2710E-03     54.8135E-03    -26.5424E-03     156.059E-03    -31.7713E-03     58.6895E-03    -26.4466E-03     157.871E-03
             672     876.477E-06     78.4616E-03    -25.9806E+06    -108.587E+06    -25.6208E+06    -113.910E+03    -26.5920E-03     53.1428E-03    -26.5508E-03     5.75939E-03    -26.5273E-03     52.6749E-03    -26.4837E-03     5.75529E-03
             673     1.75291E-03     78.4691E-03    -25.2933E+06    -109.078E+06    -23.4214E+06    -499.511E+03    -26.5991E-03     53.1777E-03    -26.5786E-03     10.6363E-03    -26.5339E-03     52.7034E-03    -26.5008E-03     10.6247E-03
             674     2.62940E-03     78.4818E-03    -24.1137E+06    -107.181E+06    -20.5076E+06    -1.02935E+06    -26.6118E-03     53.1980E-03    -26.5861E-03     15.8119E-03    -26.5482E-03     52.7277E-03    -26.4983E-03     15.7906E-03
             675     3.50587E-03     78.4991E-03    -22.6838E+06    -105.433E+06    -17.0432E+06    -1.45735E+06    -26.6463E-03     53.2389E-03    -26.5926E-03     21.0462E-03    -26.5839E-03     52.7712E-03    -26.4920E-03     21.0159E-03
             676     4.38239E-03     78.5217E-03    -21.0707E+06    -101.262E+06    -13.7595E+06    -1.94908E+06    -26.6902E-03     53.2838E-03    -26.5936E-03     26.3202E-03    -26.6319E-03     52.8311E-03    -26.4850E-03     26.2794E-03
             677     5.25888E-03     78.5490E-03    -19.3330E+06    -93.2661E+06    -10.8295E+06    -2.38062E+06    -26.7394E-03     53.3256E-03    -26.5861E-03     31.6188E-03    -26.6902E-03     52.9080E-03    -26.4770E-03     31.5673E-03
             678     6.13545E-03     78.5817E-03    -17.4297E+06    -88.9024E+06    -7.15009E+06    -2.70698E+06    -26.8122E-03     53.3991E-03    -26.5869E-03     36.8578E-03    -26.7678E-03     52.9980E-03    -26.4685E-03     36.7957E-03
             679     7.01196E-03     78.6189E-03    -15.4646E+06    -84.0460E+06    -4.10459E+06    -3.03542E+06    -26.9019E-03     53.4859E-03    -26.5840E-03     42.0616E-03    -26.8632E-03     53.1059E-03    -26.4602E-03     41.9871E-03
             680     7.88856E-03     78.6615E-03    -13.7019E+06    -77.6231E+06    -2.34301E+06    -3.31085E+06    -27.0010E-03     53.5741E-03    -26.5731E-03     47.2005E-03    -26.9711E-03     53.2268E-03    -26.4524E-03     47.1125E-03
             681     8.76508E-03     78.7084E-03    -12.2684E+06    -73.3818E+06    -1.24424E+06    -3.40477E+06    -27.1270E-03     53.6907E-03    -26.5637E-03     52.2095E-03    -27.1059E-03     53.3691E-03    -26.4457E-03     52.1078E-03
             682     9.64165E-03     78.7606E-03    -10.9983E+06    -69.6618E+06    -1.81499E+06    -3.54926E+06    -27.2778E-03     53.8269E-03    -26.5491E-03     57.2117E-03    -27.2666E-03     53.5346E-03    -26.4412E-03     57.0930E-03
             683     10.5181E-03     78.8169E-03    -10.1176E+06    -62.5673E+06    -3.63404E+06    -3.75749E+06    -27.4059E-03     53.9312E-03    -26.5252E-03     62.0739E-03    -27.4147E-03     53.6924E-03    -26.4380E-03     61.9344E-03
             684     11.3947E-03     78.8783E-03    -9.63706E+06    -51.9998E+06    -3.48082E+06    -3.32712E+06    -27.5828E-03     54.0906E-03    -26.5078E-03     67.7525E-03    -27.6300E-03     53.9291E-03    -26.4359E-03     67.5967E-03
             685     12.2712E-03     78.9452E-03    -9.06276E+06    -43.3593E+06    -6.62427E+06    -2.45840E+06    -27.8208E-03     54.2982E-03    -26.4774E-03     75.5408E-03    -27.9174E-03     54.2279E-03    -26.4345E-03     75.3679E-03
             686     13.1477E-03     79.0213E-03    -8.63447E+06    -30.6586E+06    -11.3467E+06    -1.62809E+06    -27.9822E-03     54.4155E-03    -26.4333E-03     81.4112E-03    -28.1535E-03     54.4801E-03    -26.4330E-03     81.2178E-03
             687     14.0242E-03     79.0987E-03    -7.62990E+06     2.77765E+06    -12.5864E+06    -19.8044E+03    -28.9970E-03     55.3902E-03    -26.3932E-03     94.1232E-03    -29.3537E-03     55.7662E-03    -26.4491E-03     93.9151E-03
             688     14.8980E-03     79.1979E-03    -8.26929E+06     58.1915E+06    -21.4412E+06     875.254E+03    -28.7018E-03     54.9446E-03    -26.2428E-03     131.286E-03    -29.6685E-03     56.1507E-03    -26.4224E-03     131.151E-03
             689     15.7847E-03     79.3452E-03    -8.53254E+06     126.520E+06     4.21864E+06    -1.38148E+06    -31.0497E-03     57.2196E-03    -26.1698E-03     192.483E-03    -34.4214E-03     60.9979E-03    -26.3198E-03     193.130E-03
             690     16.6598E-03     79.5606E-03    -6.64053E+06     164.805E+06     67.6002E+06    -2.68631E+06    -31.3938E-03     57.7792E-03    -26.3854E-03     159.321E-03    -35.0071E-03     61.7581E-03    -26.2767E-03     161.031E-03
             691     876.453E-06     79.4610E-03    -26.5493E+06    -108.116E+06    -26.0515E+06    -227.486E+03    -26.6015E-03     53.1489E-03    -26.5474E-03     5.78232E-03    -26.5397E-03     52.6849E-03    -26.4824E-03     5.77673E-03
             692     1.75292E-03     79.4688E-03    -25.6485E+06    -108.186E+06    -23.9984E+06    -682.897E+03    -26.5888E-03     53.1665E-03    -26.5777E-03     10.6230E-03    -26.5258E-03     52.6980E-03    -26.5037E-03     10.6091E-03
             693     2.62939E-03     79.4812E-03    -24.4926E+06    -106.164E+06    -21.2978E+06    -1.21628E+06    -26.6042E-03     53.1848E-03    -26.5806E-03     15.8103E-03    -26.5428E-03     52.7213E-03    -26.4976E-03     15.7866E-03
             694     3.50589E-03     79.4988E-03    -23.0404E+06    -104.490E+06    -17.8778E+06    -1.72609E+06    -26.6440E-03     53.2303E-03    -26.5862E-03     21.0465E-03    -26.5836E-03     52.7689E-03    -26.4907E-03     21.0127E-03
             695     4.38237E-03     79.5211E-03    -21.3319E+06    -100.096E+06    -14.3097E+06    -2.29477E+06    -26.6910E-03     53.2797E-03    -26.5887E-03     26.3253E-03    -26.6348E-03     52.8340E-03    -26.4842E-03     26.2800E-03
             696     5.25890E-03     79.5487E-03    -19.5064E+06    -92.3435E+06    -11.0595E+06    -2.85659E+06    -26.7384E-03     53.3220E-03    -26.5835E-03     31.6285E-03    -26.6910E-03     52.9096E-03    -26.4767E-03     31.5709E-03
             697     6.13542E-03     79.5810E-03    -17.5635E+06    -87.9830E+06    -7.34273E+06    -3.33044E+06    -26.8103E-03     53.3948E-03    -26.5845E-03     36.8765E-03    -26.7677E-03     52.9988E-03    -26.4682E-03     36.8063E-03
             698     7.01199E-03     79.6187E-03    -15.5395E+06    -83.2744E+06    -4.15271E+06    -3.66954E+06    -26.8958E-03     53.4779E-03    -26.5822E-03     42.0920E-03    -26.8585E-03     53.1019E-03    -26.4597E-03     42.0094E-03
             699     7.88853E-03     79.6608E-03    -13.7010E+06    -77.1084E+06    -2.44252E+06    -3.73646E+06    -26.9913E-03     53.5619E-03    -26.5705E-03     47.2453E-03    -26.9620E-03     53.2172E-03    -26.4511E-03     47.1519E-03
             700     8.76513E-03     79.7082E-03    -12.0765E+06    -72.9116E+06    -1.28133E+06    -3.77756E+06    -27.1139E-03     53.6739E-03    -26.5600E-03     52.3095E-03    -27.0924E-03     53.3544E-03    -26.4432E-03     52.2032E-03
             701     9.64168E-03     79.7599E-03    -10.7145E+06    -69.0545E+06    -1.86433E+06    -3.95091E+06    -27.2416E-03     53.7843E-03    -26.5427E-03     57.3422E-03    -27.2297E-03     53.4947E-03    -26.4364E-03     57.2186E-03
             702     10.5183E-03     79.8168E-03    -9.83463E+06    -62.4199E+06    -3.53669E+06    -3.80115E+06    -27.3409E-03     53.8569E-03    -26.5160E-03     62.2267E-03    -27.3485E-03     53.6183E-03    -26.4289E-03     62.0870E-03
             703     11.3950E-03     79.8775E-03    -9.03389E+06    -52.4057E+06    -3.30022E+06    -3.49466E+06    -27.4921E-03     53.9855E-03    -26.4934E-03     68.0227E-03    -27.5361E-03     53.8210E-03    -26.4208E-03     67.8652E-03
             704     12.2715E-03     79.9454E-03    -8.14635E+06    -43.9398E+06    -6.47647E+06    -3.13097E+06    -27.6450E-03     54.0986E-03    -26.4536E-03     75.5895E-03    -27.7357E-03     54.0232E-03    -26.4104E-03     75.4091E-03
             705     13.1484E-03     80.0200E-03    -7.30519E+06    -31.5286E+06    -11.1076E+06    -2.41361E+06    -27.8432E-03     54.2435E-03    -26.4003E-03     81.4766E-03    -28.0092E-03     54.3039E-03    -26.3995E-03     81.2725E-03
             706     14.0255E-03     80.0989E-03    -6.33875E+06       643.5E+03    -12.6563E+06    -1.68928E+06    -28.0569E-03     54.3859E-03    -26.3290E-03     94.3350E-03    -28.4024E-03     54.7479E-03    -26.3840E-03     94.1165E-03
             707     14.9037E-03     80.1992E-03    -4.17453E+06     58.8392E+06    -19.8016E+06    -1.17803E+06    -28.4103E-03     54.5664E-03    -26.1561E-03     126.315E-03    -29.3413E-03     55.7490E-03    -26.3343E-03     126.151E-03
             708     15.7791E-03     80.3332E-03    -1.88858E+06     127.918E+06     12.6563E+06    -355.500E+03    -31.2275E-03     57.3585E-03    -26.1310E-03     188.098E-03    -34.5275E-03     61.0691E-03    -26.2505E-03     188.696E-03
             709     16.6613E-03     80.5663E-03    -3.10169E+06     163.940E+06     74.6276E+06     93.5606E+03    -31.3679E-03     57.7307E-03    -26.3628E-03     154.587E-03    -34.8318E-03     61.5491E-03    -26.2229E-03     156.207E-03
             710     876.447E-06     80.4608E-03    -26.8893E+06    -107.394E+06    -26.4683E+06    -409.105E+03    -26.5744E-03     53.1444E-03    -26.5701E-03     5.76717E-03    -26.5147E-03     52.6851E-03    -26.5077E-03     5.75921E-03
             711     1.75292E-03     80.4683E-03    -26.1216E+06    -107.118E+06    -24.6994E+06    -884.742E+03    -26.5769E-03     53.1486E-03    -26.5717E-03     10.6267E-03    -26.5168E-03     52.6871E-03    -26.5020E-03     10.6102E-03
             712     2.62940E-03     80.4809E-03    -24.9814E+06    -104.966E+06    -22.0502E+06    -1.54197E+06    -26.6035E-03     53.1766E-03    -26.5731E-03     15.8154E-03    -26.5451E-03     52.7209E-03    -26.4949E-03     15.7875E-03
             713     3.50589E-03     80.4982E-03    -23.4479E+06    -103.294E+06    -18.5315E+06    -2.20562E+06    -26.6413E-03     53.2215E-03    -26.5802E-03     21.0521E-03    -26.5836E-03     52.7677E-03    -26.4891E-03     21.0122E-03
             714     4.38238E-03     80.5208E-03    -21.6355E+06    -98.8439E+06    -14.7824E+06    -2.82800E+06    -26.6822E-03     53.2653E-03    -26.5831E-03     26.3342E-03    -26.6287E-03     52.8270E-03    -26.4824E-03     26.2821E-03
             715     5.25891E-03     80.5481E-03    -19.7553E+06    -91.1758E+06    -11.1783E+06    -3.38101E+06    -26.7296E-03     53.3086E-03    -26.5790E-03     31.6461E-03    -26.6849E-03     52.9026E-03    -26.4741E-03     31.5818E-03
             716     6.13545E-03     80.5807E-03    -17.8362E+06    -86.8507E+06    -7.49642E+06    -3.93406E+06    -26.8006E-03     53.3799E-03    -26.5793E-03     36.9027E-03    -26.7608E-03     52.9902E-03    -26.4650E-03     36.8248E-03
             717     7.01200E-03     80.6180E-03    -15.8707E+06    -82.4305E+06    -4.50041E+06    -4.33816E+06    -26.8792E-03     53.4548E-03    -26.5756E-03     42.1198E-03    -26.8443E-03     53.0839E-03    -26.4555E-03     42.0286E-03
             718     7.88860E-03     80.6605E-03    -13.8304E+06    -76.6633E+06    -2.89936E+06    -4.49539E+06    -26.9688E-03     53.5309E-03    -26.5621E-03     47.2820E-03    -26.9400E-03     53.1893E-03    -26.4454E-03     47.1789E-03
             719     8.76520E-03     80.7075E-03    -11.9080E+06    -72.4698E+06    -1.60256E+06    -4.44620E+06    -27.0760E-03     53.6253E-03    -26.5493E-03     52.3589E-03    -27.0538E-03     53.3082E-03    -26.4350E-03     52.2441E-03
             720     9.64182E-03     80.7597E-03    -10.5925E+06    -68.7302E+06    -2.06565E+06    -4.23553E+06    -27.1829E-03     53.7120E-03    -26.5291E-03     57.3477E-03    -27.1705E-03     53.4240E-03    -26.4244E-03     57.2206E-03
             721     10.5185E-03     80.8159E-03    -9.50677E+06    -62.1447E+06    -3.78464E+06    -4.25346E+06    -27.3028E-03     53.8016E-03    -26.4988E-03     62.1985E-03    -27.3088E-03     53.5643E-03    -26.4139E-03     62.0530E-03
             722     11.3951E-03     80.8773E-03    -8.32165E+06    -52.3624E+06    -3.59187E+06    -4.26191E+06    -27.4106E-03     53.8830E-03    -26.4724E-03     67.9149E-03    -27.4506E-03     53.7180E-03    -26.4024E-03     67.7477E-03
             723     12.2719E-03     80.9444E-03    -7.40951E+06    -44.2131E+06    -6.66553E+06    -3.85911E+06    -27.6176E-03     54.0488E-03    -26.4312E-03     75.2685E-03    -27.7037E-03     53.9709E-03    -26.3897E-03     75.0790E-03
             724     13.1487E-03     81.0195E-03    -6.60910E+06    -31.8939E+06    -11.5724E+06    -3.69034E+06    -27.9072E-03     54.2866E-03    -26.3794E-03     81.4733E-03    -28.0709E-03     54.3472E-03    -26.3815E-03     81.2518E-03
             725     14.0243E-03     81.0990E-03    -5.77015E+06    -139.907E+03    -13.2112E+06    -3.68706E+06    -27.7098E-03     54.0136E-03    -26.3038E-03     92.4716E-03    -28.0383E-03     54.3594E-03    -26.3613E-03     92.2338E-03
             726     14.9030E-03     81.1940E-03    -5.16938E+06     58.1612E+06    -20.5439E+06    -2.73732E+06    -30.1276E-03     56.3036E-03    -26.1760E-03     125.133E-03    -31.0753E-03     57.4991E-03    -26.3556E-03     124.911E-03
             727     15.7787E-03     81.3398E-03    -5.85944E+06     123.925E+06     5.52575E+06     58.2868E+03    -34.2535E-03     60.5220E-03    -26.2685E-03     185.555E-03    -37.5730E-03     64.2446E-03    -26.4121E-03     186.041E-03
             728     16.6509E-03     81.5558E-03    -2.96113E+06     163.101E+06     70.7365E+06     1.32254E+06    -29.2612E-03     55.8027E-03    -26.5415E-03     154.129E-03    -32.7374E-03     59.6423E-03    -26.4200E-03     155.807E-03
             729     876.449E-06     81.4601E-03    -26.6656E+06    -106.363E+06    -26.4955E+06    -615.167E+03    -26.5537E-03     53.1253E-03    -26.5716E-03     5.75139E-03    -26.4944E-03     52.6708E-03    -26.5112E-03     5.74075E-03
             730     1.75294E-03     81.4679E-03    -25.9884E+06    -105.870E+06    -24.6260E+06    -1.16343E+06    -26.5790E-03     53.1430E-03    -26.5640E-03     10.6323E-03    -26.5201E-03     52.6874E-03    -26.4959E-03     10.6122E-03
             731     2.62942E-03     81.4803E-03    -24.8837E+06    -103.439E+06    -21.8559E+06    -1.89087E+06    -26.6019E-03     53.1705E-03    -26.5686E-03     15.8104E-03    -26.5455E-03     52.7220E-03    -26.4918E-03     15.7780E-03
             732     3.50588E-03     81.4979E-03    -23.3943E+06    -101.772E+06    -18.3722E+06    -2.74584E+06    -26.6333E-03     53.2091E-03    -26.5758E-03     21.0594E-03    -26.5778E-03     52.7626E-03    -26.4862E-03     21.0125E-03
             733     4.38241E-03     81.5202E-03    -21.6364E+06    -97.5401E+06    -14.7835E+06    -3.36845E+06    -26.6726E-03     53.2502E-03    -26.5776E-03     26.3431E-03    -26.6210E-03     52.8184E-03    -26.4787E-03     26.2840E-03
             734     5.25893E-03     81.5478E-03    -19.7719E+06    -89.8299E+06    -11.4175E+06    -3.94380E+06    -26.7161E-03     53.2873E-03    -26.5713E-03     31.6538E-03    -26.6731E-03     52.8884E-03    -26.4694E-03     31.5823E-03
             735     6.13550E-03     81.5801E-03    -17.8599E+06    -85.6166E+06    -7.72669E+06    -4.47298E+06    -26.7824E-03     53.3528E-03    -26.5704E-03     36.9115E-03    -26.7441E-03     52.9695E-03    -26.4590E-03     36.8267E-03
             736     7.01206E-03     81.6177E-03    -15.9639E+06    -81.3804E+06    -4.83783E+06    -4.95348E+06    -26.8607E-03     53.4258E-03    -26.5651E-03     42.1279E-03    -26.8272E-03     53.0608E-03    -26.4481E-03     42.0288E-03
             737     7.88867E-03     81.6598E-03    -14.1325E+06    -75.8701E+06    -3.39947E+06    -5.35253E+06    -26.9506E-03     53.5011E-03    -26.5504E-03     47.2921E-03    -26.9238E-03     53.1646E-03    -26.4369E-03     47.1780E-03
             738     8.76528E-03     81.7072E-03    -12.2705E+06    -72.1694E+06    -2.29844E+06    -5.40944E+06    -27.0476E-03     53.5838E-03    -26.5362E-03     52.3375E-03    -27.0266E-03     53.2698E-03    -26.4253E-03     52.2103E-03
             739     9.64196E-03     81.7588E-03    -10.1360E+06    -68.5189E+06    -2.50756E+06    -5.21290E+06    -27.1637E-03     53.6788E-03    -26.5150E-03     57.2893E-03    -27.1487E-03     53.3918E-03    -26.4135E-03     57.1496E-03
             740     10.5186E-03     81.8156E-03    -8.45260E+06    -61.7121E+06    -3.86087E+06    -5.04835E+06    -27.3095E-03     53.7951E-03    -26.4856E-03     62.1631E-03    -27.3109E-03     53.5586E-03    -26.4032E-03     62.0073E-03
             741     11.3952E-03     81.8765E-03    -7.63405E+06    -52.0979E+06    -3.67447E+06    -4.91498E+06    -27.3946E-03     53.8551E-03    -26.4605E-03     67.6905E-03    -27.4311E-03     53.6902E-03    -26.3923E-03     67.5151E-03
             742     12.2720E-03     81.9438E-03    -6.68078E+06    -44.1660E+06    -6.61984E+06    -4.83626E+06    -27.6561E-03     54.0777E-03    -26.4216E-03     75.3285E-03    -27.7388E-03     53.9990E-03    -26.3810E-03     75.1262E-03
             743     13.1483E-03     82.0192E-03    -6.09856E+06    -32.1571E+06    -11.7457E+06    -4.61103E+06    -27.8101E-03     54.1779E-03    -26.3678E-03     81.5540E-03    -27.9683E-03     54.2343E-03    -26.3711E-03     81.3230E-03
             744     14.0262E-03     82.0981E-03    -6.77081E+06     451.909E+03    -13.4194E+06    -3.98756E+06    -28.1959E-03     54.5013E-03    -26.3054E-03     92.1729E-03    -28.5278E-03     54.8497E-03    -26.3633E-03     91.9255E-03
             745     14.9014E-03     82.1934E-03    -8.76796E+06     53.7178E+06    -23.6258E+06    -1.83268E+06    -30.6327E-03     56.8278E-03    -26.1951E-03     129.283E-03    -31.6102E-03     58.0333E-03    -26.3784E-03     129.069E-03
             746     15.7735E-03     82.3449E-03    -9.67407E+06     122.037E+06    -3.14944E+06    -221.018E+03    -34.1141E-03     60.3587E-03    -26.2446E-03     191.904E-03    -37.5735E-03     64.2259E-03    -26.4233E-03     192.473E-03
             747     16.6492E-03     82.5555E-03    -5.10834E+06     165.297E+06     63.8921E+06    -557.620E+03    -29.4216E-03     55.9232E-03    -26.5016E-03     157.337E-03    -33.0248E-03     59.9099E-03    -26.4144E-03     159.068E-03
             748     876.499E-06     82.4598E-03    -26.8018E+06    -104.908E+06    -26.6211E+06    -866.009E+03    -26.5458E-03     53.1063E-03    -26.5605E-03     5.73031E-03    -26.4892E-03     52.6595E-03    -26.5026E-03     5.71645E-03
             749     1.75293E-03     82.4674E-03    -26.1109E+06    -104.373E+06    -24.6386E+06    -1.53735E+06    -26.5788E-03     53.1358E-03    -26.5570E-03     10.6367E-03    -26.5227E-03     52.6879E-03    -26.4909E-03     10.6117E-03
             750     2.62939E-03     82.4799E-03    -24.7891E+06    -101.656E+06    -21.7838E+06    -2.30874E+06    -26.5935E-03     53.1562E-03    -26.5627E-03     15.8124E-03    -26.5394E-03     52.7164E-03    -26.4883E-03     15.7747E-03
             751     3.50594E-03     82.4973E-03    -23.2792E+06    -99.9773E+06    -18.2467E+06    -3.18280E+06    -26.6247E-03     53.1942E-03    -26.5695E-03     21.0550E-03    -26.5715E-03     52.7563E-03    -26.4820E-03     21.0025E-03
             752     4.38241E-03     82.5198E-03    -21.5966E+06    -96.1712E+06    -14.8440E+06    -3.86511E+06    -26.6628E-03     53.2333E-03    -26.5705E-03     26.3373E-03    -26.6129E-03     52.8083E-03    -26.4739E-03     26.2718E-03
             753     5.25898E-03     82.5472E-03    -19.8031E+06    -88.2214E+06    -11.8106E+06    -4.51611E+06    -26.7013E-03     53.2627E-03    -26.5613E-03     31.6504E-03    -26.6603E-03     52.8724E-03    -26.4637E-03     31.5714E-03
             754     6.13552E-03     82.5797E-03    -17.8717E+06    -84.3947E+06    -8.12284E+06    -5.11279E+06    -26.7643E-03     53.3241E-03    -26.5597E-03     36.9018E-03    -26.7273E-03     52.9475E-03    -26.4521E-03     36.8087E-03
             755     7.01214E-03     82.6170E-03    -15.8792E+06    -80.0613E+06    -5.06575E+06    -5.57479E+06    -26.8433E-03     53.3971E-03    -26.5538E-03     42.1134E-03    -26.8110E-03     53.0390E-03    -26.4401E-03     42.0064E-03
             756     7.88873E-03     82.6594E-03    -13.9998E+06    -74.7767E+06    -3.67268E+06    -6.06404E+06    -26.9366E-03     53.4751E-03    -26.5385E-03     47.2799E-03    -26.9103E-03     53.1443E-03    -26.4281E-03     47.1566E-03
             757     8.76537E-03     82.7064E-03    -12.1073E+06    -71.3346E+06    -2.80544E+06    -6.52757E+06    -27.0385E-03     53.5618E-03    -26.5233E-03     52.3154E-03    -27.0172E-03     53.2524E-03    -26.4163E-03     52.1738E-03
             758     9.64199E-03     82.7584E-03    -10.2784E+06    -68.1864E+06    -3.20745E+06    -6.74990E+06    -27.1673E-03     53.6702E-03    -26.5028E-03     57.3096E-03    -27.1525E-03     53.3861E-03    -26.4051E-03     57.1501E-03
             759     10.5187E-03     82.8148E-03    -8.60286E+06    -61.8445E+06    -4.34783E+06    -6.21718E+06    -27.2926E-03     53.7679E-03    -26.4753E-03     62.2031E-03    -27.2937E-03     53.5316E-03    -26.3949E-03     62.0324E-03
             760     11.3953E-03     82.8762E-03    -7.10593E+06    -51.8935E+06    -3.58563E+06    -5.61783E+06    -27.3968E-03     53.8483E-03    -26.4516E-03     67.6611E-03    -27.4310E-03     53.6836E-03    -26.3840E-03     67.4766E-03
             761     12.2720E-03     82.9427E-03    -6.48192E+06    -43.8698E+06    -6.60776E+06    -5.54702E+06    -27.5646E-03     53.9744E-03    -26.4098E-03     75.5220E-03    -27.6466E-03     53.8969E-03    -26.3699E-03     75.3112E-03
             762     13.1491E-03     83.0191E-03    -6.24462E+06    -32.2473E+06    -11.6009E+06    -5.22161E+06    -27.7655E-03     54.1191E-03    -26.3535E-03     81.6376E-03    -27.9233E-03     54.1739E-03    -26.3557E-03     81.3990E-03
             763     14.0249E-03     83.0966E-03    -6.52316E+06    -1.18138E+06    -13.4241E+06    -3.27666E+06    -28.1893E-03     54.4795E-03    -26.2902E-03     92.8179E-03    -28.5232E-03     54.8251E-03    -26.3462E-03     92.5784E-03
             764     14.9020E-03     83.1952E-03    -7.73626E+06     50.3292E+06    -24.4103E+06    -1.07713E+06    -29.1040E-03     55.2351E-03    -26.1311E-03     130.554E-03    -30.0695E-03     56.4225E-03    -26.3149E-03     130.382E-03
             765     15.7842E-03     83.3430E-03    -6.81378E+06     123.465E+06     631.858E+03    -1.10689E+06    -31.8338E-03     57.9195E-03    -26.0857E-03     193.328E-03    -35.2752E-03     61.7729E-03    -26.2517E-03     193.992E-03
             766     16.6638E-03     83.5610E-03    -5.49912E+06     166.486E+06     66.2667E+06    -1.27819E+06    -31.3120E-03     57.6457E-03    -26.3338E-03     154.179E-03    -34.8669E-03     61.5801E-03    -26.2359E-03     155.845E-03
             767     876.449E-06     83.4592E-03    -27.0355E+06    -103.072E+06    -26.7299E+06    -999.806E+03    -26.5410E-03     53.0941E-03    -26.5532E-03     5.76940E-03    -26.4879E-03     52.6570E-03    -26.4982E-03     5.75381E-03
             768     1.75295E-03     83.4670E-03    -26.3242E+06    -102.450E+06    -24.8239E+06    -1.85384E+06    -26.5701E-03     53.1203E-03    -26.5502E-03     10.6360E-03    -26.5175E-03     52.6826E-03    -26.4876E-03     10.6069E-03
             769     2.62946E-03     83.4794E-03    -25.1927E+06    -99.6528E+06    -22.4369E+06    -2.83751E+06    -26.5879E-03     53.1416E-03    -26.5537E-03     15.8021E-03    -26.5378E-03     52.7134E-03    -26.4849E-03     15.7575E-03
             770     3.50590E-03     83.4969E-03    -23.6259E+06    -98.0897E+06    -18.7402E+06    -3.68516E+06    -26.6169E-03     53.1785E-03    -26.5616E-03     21.0371E-03    -26.5674E-03     52.7513E-03    -26.4788E-03     20.9780E-03
             771     4.38246E-03     83.5192E-03    -21.7578E+06    -94.4749E+06    -14.9309E+06    -4.46996E+06    -26.6500E-03     53.2140E-03    -26.5640E-03     26.3170E-03    -26.6032E-03     52.7979E-03    -26.4701E-03     26.2437E-03
             772     5.25899E-03     83.5468E-03    -19.7767E+06    -86.5447E+06    -12.0237E+06    -5.18337E+06    -26.6868E-03     53.2396E-03    -26.5528E-03     31.6277E-03    -26.6477E-03     52.8580E-03    -26.4588E-03     31.5401E-03
             773     6.13559E-03     83.5791E-03    -17.7857E+06    -82.8607E+06    -8.35324E+06    -5.84216E+06    -26.7522E-03     53.3026E-03    -26.5504E-03     36.8788E-03    -26.7166E-03     52.9339E-03    -26.4462E-03     36.7763E-03
             774     7.01216E-03     83.6166E-03    -15.6225E+06    -78.6532E+06    -5.24697E+06    -6.48128E+06    -26.8317E-03     53.3758E-03    -26.5441E-03     42.0916E-03    -26.7999E-03     53.0246E-03    -26.4337E-03     41.9728E-03
             775     7.88881E-03     83.6587E-03    -13.3532E+06    -73.3973E+06    -3.53414E+06    -7.04125E+06    -26.9209E-03     53.4500E-03    -26.5292E-03     47.2499E-03    -26.8935E-03     53.1250E-03    -26.4210E-03     47.1139E-03
             776     8.76543E-03     83.7060E-03    -11.4495E+06    -70.1572E+06    -2.54419E+06    -7.48730E+06    -27.0293E-03     53.5435E-03    -26.5142E-03     52.2869E-03    -27.0068E-03     53.2387E-03    -26.4086E-03     52.1329E-03
             777     9.64212E-03     83.7576E-03    -10.0771E+06    -67.5270E+06    -3.14803E+06    -7.63116E+06    -27.1545E-03     53.6485E-03    -26.4939E-03     57.3109E-03    -27.1398E-03     53.3674E-03    -26.3971E-03     57.1400E-03
             778     10.5187E-03     83.8145E-03    -8.71644E+06    -61.8323E+06    -4.75084E+06    -7.63326E+06    -27.2568E-03     53.7210E-03    -26.4642E-03     62.1942E-03    -27.2579E-03     53.4854E-03    -26.3857E-03     62.0053E-03
             779     11.3955E-03     83.8752E-03    -7.19815E+06    -52.3957E+06    -4.19588E+06    -6.93628E+06    -27.3543E-03     53.7922E-03    -26.4379E-03     67.6578E-03    -27.3874E-03     53.6260E-03    -26.3725E-03     67.4564E-03
             780     12.2723E-03     83.9424E-03    -6.14143E+06    -43.7487E+06    -6.63008E+06    -5.93025E+06    -27.5747E-03     53.9721E-03    -26.3974E-03     75.3348E-03    -27.6556E-03     53.8951E-03    -26.3582E-03     75.1185E-03
             781     13.1491E-03     84.0175E-03    -5.82784E+06    -32.0946E+06    -11.5689E+06    -5.74659E+06    -27.7134E-03     54.0544E-03    -26.3410E-03     81.5350E-03    -27.8702E-03     54.1101E-03    -26.3439E-03     81.2895E-03
             782     14.0263E-03     84.0975E-03    -5.26720E+06    -4.94477E+06    -14.2238E+06    -4.10989E+06    -27.6856E-03     53.9476E-03    -26.2620E-03     92.5600E-03    -28.0051E-03     54.2721E-03    -26.3183E-03     92.3161E-03
             783     14.9038E-03     84.1921E-03    -4.20765E+06     50.2206E+06    -23.0365E+06    -1.74694E+06    -28.8799E-03     54.9702E-03    -26.0903E-03     127.996E-03    -29.8255E-03     56.1459E-03    -26.2722E-03     127.818E-03
             784     15.7800E-03     84.3389E-03    -4.20507E+06     123.354E+06     7.87383E+06    -999.419E+03    -32.3359E-03     58.4339E-03    -26.0980E-03     189.400E-03    -35.6945E-03     62.1925E-03    -26.2314E-03     189.990E-03
             785     16.6547E-03     84.5599E-03    -4.15632E+06     164.004E+06     72.3009E+06    -84.8255E+03    -31.4189E-03     57.7925E-03    -26.3736E-03     152.334E-03    -34.9029E-03     61.6343E-03    -26.2439E-03     153.959E-03
             786     876.502E-06     84.4589E-03    -27.0340E+06    -100.861E+06    -26.7968E+06    -1.09701E+06    -26.5573E-03     53.0912E-03    -26.5339E-03     5.79008E-03    -26.5074E-03     52.6652E-03    -26.4825E-03     5.77324E-03
             787     1.75296E-03     84.4664E-03    -26.3303E+06    -100.189E+06    -24.9556E+06    -2.13403E+06    -26.5678E-03     53.1157E-03    -26.5480E-03     10.6118E-03    -26.5184E-03     52.6896E-03    -26.4893E-03     10.5791E-03
             788     2.62940E-03     84.4790E-03    -25.2151E+06    -97.2665E+06    -22.4459E+06    -3.27212E+06    -26.5770E-03     53.1275E-03    -26.5505E-03     15.7845E-03    -26.5304E-03     52.7112E-03    -26.4851E-03     15.7342E-03
             789     3.50596E-03     84.4963E-03    -23.7310E+06    -96.0845E+06    -18.8414E+06    -4.26319E+06    -26.6062E-03     53.1628E-03    -26.5567E-03     21.0261E-03    -26.5600E-03     52.7459E-03    -26.4771E-03     20.9596E-03
             790     4.38243E-03     84.5188E-03    -21.8920E+06    -92.3723E+06    -15.0260E+06    -5.15319E+06    -26.6438E-03     53.2021E-03    -26.5583E-03     26.3031E-03    -26.6006E-03     52.7969E-03    -26.4677E-03     26.2209E-03
             791     5.25902E-03     84.5461E-03    -19.8112E+06    -84.6549E+06    -12.0076E+06    -6.08794E+06    -26.6809E-03     53.2288E-03    -26.5479E-03     31.5963E-03    -26.6448E-03     52.8566E-03    -26.4565E-03     31.4970E-03
             792     6.13558E-03     84.5787E-03    -17.5206E+06    -81.1392E+06    -8.41425E+06    -6.81113E+06    -26.7440E-03     53.2887E-03    -26.5446E-03     36.8445E-03    -26.7096E-03     52.9284E-03    -26.4436E-03     36.7294E-03
             793     7.01222E-03     84.6159E-03    -15.2903E+06    -76.9054E+06    -5.21469E+06    -7.52503E+06    -26.8230E-03     53.3612E-03    -26.5382E-03     42.0550E-03    -26.7921E-03     53.0182E-03    -26.4306E-03     41.9227E-03
             794     7.88881E-03     84.6583E-03    -13.2876E+06    -71.9294E+06    -3.44612E+06    -8.14115E+06    -26.9118E-03     53.4357E-03    -26.5240E-03     47.2002E-03    -26.8864E-03     53.1178E-03    -26.4176E-03     47.0500E-03
             795     8.76550E-03     84.7052E-03    -11.4336E+06    -69.0733E+06    -2.49862E+06    -8.39533E+06    -27.0194E-03     53.5286E-03    -26.5092E-03     52.2292E-03    -26.9985E-03     53.2292E-03    -26.4050E-03     52.0634E-03
             796     9.64211E-03     84.7572E-03    -9.71345E+06    -66.6592E+06    -3.13587E+06    -8.50375E+06    -27.1415E-03     53.6296E-03    -26.4881E-03     57.2276E-03    -27.1263E-03     53.3523E-03    -26.3930E-03     57.0454E-03
             797     10.5189E-03     84.8136E-03    -8.47694E+06    -61.1186E+06    -4.69182E+06    -8.57971E+06    -27.2331E-03     53.6913E-03    -26.4582E-03     62.0463E-03    -27.2341E-03     53.4588E-03    -26.3807E-03     61.8451E-03
             798     11.3956E-03     84.8748E-03    -7.60397E+06    -53.1230E+06    -4.69976E+06    -8.12608E+06    -27.3588E-03     53.7909E-03    -26.4321E-03     67.4743E-03    -27.3923E-03     53.6225E-03    -26.3676E-03     67.2574E-03
             799     12.2724E-03     84.9414E-03    -6.38087E+06    -44.2542E+06    -7.38147E+06    -7.13780E+06    -27.6885E-03     54.0832E-03    -26.3947E-03     75.2294E-03    -27.7695E-03     54.0058E-03    -26.3582E-03     74.9965E-03
             800     13.1487E-03     85.0176E-03    -5.72955E+06    -32.0267E+06    -11.0211E+06    -6.25815E+06    -27.6749E-03     54.0220E-03    -26.3471E-03     80.9992E-03    -27.8313E-03     54.0763E-03    -26.3474E-03     80.7476E-03
             801     14.0258E-03     85.0950E-03    -5.10014E+06    -6.98673E+06    -13.8479E+06    -5.86981E+06    -27.5769E-03     53.8449E-03    -26.2679E-03     91.2178E-03    -27.8872E-03     54.1524E-03    -26.3196E-03     90.9532E-03
             802     14.9034E-03     85.1913E-03    -4.08826E+06     47.3880E+06    -24.6237E+06    -3.90832E+06    -30.0560E-03     56.1750E-03    -26.1190E-03     127.995E-03    -31.0088E-03     57.3529E-03    -26.3049E-03     127.765E-03
             803     15.7790E-03     85.3403E-03    -3.92901E+06     120.547E+06     3.72632E+06     450.066E+03    -33.8031E-03     59.9854E-03    -26.1823E-03     190.144E-03    -37.1554E-03     63.7409E-03    -26.3328E-03     190.688E-03
             804     16.6566E-03     85.5598E-03    -2.90500E+06     163.945E+06     70.3244E+06     2.03952E+06    -30.2111E-03     56.6734E-03    -26.4623E-03     154.419E-03    -33.6985E-03     60.5286E-03    -26.3442E-03     156.116E-03
             805     876.445E-06     85.4583E-03    -27.2066E+06    -98.3075E+06    -26.9919E+06    -1.39591E+06    -26.5882E-03     53.1090E-03    -26.5208E-03     5.76002E-03    -26.5426E-03     52.6963E-03    -26.4738E-03     5.73929E-03
             806     1.75291E-03     85.4661E-03    -26.3301E+06    -97.5220E+06    -24.8918E+06    -2.53284E+06    -26.5477E-03     53.0996E-03    -26.5519E-03     10.6066E-03    -26.5023E-03     52.6867E-03    -26.4967E-03     10.5688E-03
             807     2.62945E-03     85.4784E-03    -25.0735E+06    -94.7072E+06    -22.0699E+06    -3.66141E+06    -26.5663E-03     53.1151E-03    -26.5488E-03     15.7874E-03    -26.5233E-03     52.7108E-03    -26.4855E-03     15.7321E-03
             808     3.50592E-03     85.4960E-03    -23.5012E+06    -93.6103E+06    -18.4652E+06    -4.81162E+06    -26.6028E-03     53.1566E-03    -26.5538E-03     21.0123E-03    -26.5596E-03     52.7512E-03    -26.4763E-03     20.9387E-03
             809     4.38248E-03     85.5182E-03    -21.5990E+06    -90.0835E+06    -15.0054E+06     -5.8952E+06    -26.6417E-03     53.1957E-03    -26.5540E-03     26.2844E-03    -26.6004E-03     52.8014E-03    -26.4671E-03     26.1926E-03
             810     5.25899E-03     85.5457E-03    -19.6609E+06    -82.3146E+06    -11.8980E+06    -6.88088E+06    -26.6820E-03     53.2266E-03    -26.5446E-03     31.5778E-03    -26.6487E-03     52.8658E-03    -26.4563E-03     31.4682E-03
             811     6.13559E-03     85.5780E-03    -17.6634E+06    -79.1060E+06    -8.44347E+06    -7.92001E+06    -26.7444E-03     53.2866E-03    -26.5422E-03     36.8199E-03    -26.7136E-03     52.9367E-03    -26.4441E-03     36.6905E-03
             812     7.01217E-03     85.6155E-03    -15.4468E+06    -75.1180E+06    -5.48048E+06    -8.57167E+06    -26.8189E-03     53.3542E-03    -26.5353E-03     42.0244E-03    -26.7911E-03     53.0207E-03    -26.4313E-03     41.8785E-03
             813     7.88883E-03     85.6576E-03    -13.4541E+06    -70.3674E+06    -3.70989E+06    -9.00481E+06    -26.9138E-03     53.4354E-03    -26.5216E-03     47.1564E-03    -26.8912E-03     53.1260E-03    -26.4186E-03     46.9949E-03
             814     8.76543E-03     85.7048E-03    -11.7656E+06    -67.9252E+06    -2.91248E+06    -9.35312E+06    -27.0217E-03     53.5292E-03    -26.5075E-03     52.1744E-03    -27.0035E-03     53.2366E-03    -26.4065E-03     51.9962E-03
             815     9.64215E-03     85.7564E-03    -10.2048E+06    -65.5203E+06    -3.73517E+06    -9.62880E+06    -27.1459E-03     53.6322E-03    -26.4863E-03     57.1659E-03    -27.1339E-03     53.3622E-03    -26.3952E-03     56.9691E-03
             816     10.5187E-03     85.8131E-03    -8.97310E+06    -60.8114E+06    -5.39735E+06    -9.33683E+06    -27.2511E-03     53.7094E-03    -26.4583E-03     61.9053E-03    -27.2540E-03     53.4803E-03    -26.3841E-03     61.6943E-03
             817     11.3955E-03     85.8738E-03    -7.97644E+06    -52.9170E+06    -5.37894E+06    -8.93296E+06    -27.4112E-03     53.8463E-03    -26.4352E-03     67.4339E-03    -27.4459E-03     53.6805E-03    -26.3738E-03     67.2063E-03
             818     12.2720E-03     85.9412E-03    -7.23256E+06    -44.8933E+06    -8.94169E+06    -8.50593E+06    -27.6873E-03     54.0840E-03    -26.3967E-03     75.3117E-03    -27.7690E-03     54.0066E-03    -26.3659E-03     75.0615E-03
             819     13.1489E-03     86.0167E-03    -6.42967E+06    -32.8701E+06    -11.7557E+06    -7.16521E+06    -27.7521E-03     54.1076E-03    -26.3555E-03     80.7634E-03    -27.9086E-03     54.1587E-03    -26.3573E-03     80.5000E-03
             820     14.0256E-03     86.0943E-03    -6.18923E+06    -6.54678E+06    -14.3897E+06    -6.71705E+06    -28.1954E-03     54.4927E-03    -26.2973E-03     91.0669E-03    -28.5125E-03     54.8063E-03    -26.3508E-03     90.7842E-03
             821     14.9022E-03     86.1897E-03    -7.59159E+06     42.5428E+06    -28.4686E+06    -5.00821E+06    -30.5645E-03     56.7367E-03    -26.1722E-03     129.288E-03    -31.5283E-03     57.9072E-03    -26.3652E-03     129.035E-03
             822     15.7773E-03     86.3435E-03    -8.25675E+06     115.204E+06    -8.15927E+06    -526.178E+03    -33.5046E-03     59.7027E-03    -26.1981E-03     190.379E-03    -36.8514E-03     63.4529E-03    -26.3940E-03     190.936E-03
             823     16.6520E-03     86.5561E-03    -5.38468E+06     165.055E+06     61.4946E+06     1.53014E+06    -29.4916E-03     55.9465E-03    -26.4549E-03     153.561E-03    -32.9727E-03     59.8161E-03    -26.3790E-03     155.292E-03
             824     876.404E-06     86.4581E-03    -26.8913E+06    -95.2772E+06    -26.4667E+06    -1.62228E+06    -26.5628E-03     53.1025E-03    -26.5396E-03     5.72739E-03    -26.5208E-03     52.7037E-03    -26.4948E-03     5.70374E-03
             825     1.75296E-03     86.4655E-03    -26.1716E+06    -94.6047E+06    -24.5627E+06    -2.79971E+06    -26.5427E-03     53.0912E-03    -26.5486E-03     10.6074E-03    -26.5011E-03     52.6922E-03    -26.4962E-03     10.5661E-03
             826     2.62941E-03     86.4781E-03    -25.0089E+06    -91.8664E+06    -22.0104E+06    -4.12929E+06    -26.5635E-03     53.1080E-03    -26.5445E-03     15.7810E-03    -26.5244E-03     52.7178E-03    -26.4851E-03     15.7197E-03
             827     3.50595E-03     86.4954E-03    -23.3821E+06    -90.7526E+06    -18.3929E+06    -5.41508E+06    -26.6028E-03     53.1530E-03    -26.5502E-03     21.0038E-03    -26.5633E-03     52.7616E-03    -26.4766E-03     20.9224E-03
             828     4.38242E-03     86.5178E-03    -21.4540E+06    -87.3614E+06    -14.8586E+06    -6.70966E+06    -26.6406E-03     53.1921E-03    -26.5515E-03     26.2714E-03    -26.6027E-03     52.8111E-03    -26.4680E-03     26.1691E-03
             829     5.25903E-03     86.5451E-03    -19.3319E+06    -79.9917E+06    -11.8731E+06    -7.70141E+06    -26.6789E-03     53.2207E-03    -26.5419E-03     31.5640E-03    -26.6473E-03     52.8710E-03    -26.4572E-03     31.4438E-03
             830     6.13556E-03     86.5776E-03    -17.4281E+06    -76.5911E+06    -8.22261E+06    -8.57540E+06    -26.7452E-03     53.2856E-03    -26.5404E-03     36.8096E-03    -26.7172E-03     52.9476E-03    -26.4451E-03     36.6716E-03
             831     7.01218E-03     86.6148E-03    -15.6597E+06    -73.2176E+06    -5.78942E+06    -9.53511E+06    -26.8243E-03     53.3573E-03    -26.5330E-03     42.0241E-03    -26.7999E-03     53.0341E-03    -26.4330E-03     41.8657E-03
             832     7.88877E-03     86.6572E-03    -13.6982E+06    -68.8847E+06    -4.30046E+06    -9.93851E+06    -26.9156E-03     53.4347E-03    -26.5191E-03     47.1672E-03    -26.8954E-03     53.1338E-03    -26.4209E-03     46.9937E-03
             833     8.76543E-03     86.7041E-03    -11.9008E+06    -66.4811E+06    -3.22375E+06    -10.2115E+06    -27.0283E-03     53.5350E-03    -26.5067E-03     52.1848E-03    -27.0124E-03     53.2502E-03    -26.4092E-03     51.9955E-03
             834     9.64202E-03     86.7560E-03    -10.6438E+06    -64.4339E+06    -4.24688E+06    -10.3658E+06    -27.1518E-03     53.6379E-03    -26.4861E-03     57.1926E-03    -27.1429E-03     53.3747E-03    -26.3984E-03     56.9863E-03
             835     10.5187E-03     86.8124E-03    -9.64993E+06    -60.4946E+06    -6.08639E+06    -10.2187E+06    -27.2878E-03     53.7481E-03    -26.4603E-03     61.9513E-03    -27.2936E-03     53.5225E-03    -26.3890E-03     61.7288E-03
             836     11.3953E-03     86.8733E-03    -8.41407E+06    -52.2919E+06    -6.15803E+06    -10.0808E+06    -27.4440E-03     53.8821E-03    -26.4382E-03     67.5422E-03    -27.4807E-03     53.7213E-03    -26.3809E-03     67.2997E-03
             837     12.2721E-03     86.9404E-03    -7.18191E+06    -45.1226E+06    -9.73121E+06    -9.62132E+06    -27.7036E-03     54.1050E-03    -26.4014E-03     75.3240E-03    -27.7831E-03     54.0270E-03    -26.3742E-03     75.0597E-03
             838     13.1486E-03     87.0161E-03    -6.59954E+06    -34.4728E+06    -13.1313E+06    -8.38701E+06    -27.8718E-03     54.2353E-03    -26.3635E-03     80.5797E-03    -28.0245E-03     54.2803E-03    -26.3696E-03     80.2995E-03
             839     14.0254E-03     87.0936E-03    -7.41242E+06    -6.84826E+06    -15.4142E+06    -6.28921E+06    -28.5477E-03     54.8673E-03    -26.3196E-03     91.8441E-03    -28.8736E-03     55.1873E-03    -26.3760E-03     91.5617E-03
             840     14.9004E-03     87.1912E-03    -9.34749E+06     39.3478E+06    -29.4174E+06    -4.03964E+06    -30.3588E-03     56.5584E-03    -26.1995E-03     130.806E-03    -31.3333E-03     57.7246E-03    -26.3901E-03     130.573E-03
             841     15.7777E-03     87.3422E-03    -9.89849E+06     111.132E+06    -8.93529E+06    -2.03993E+06    -32.6277E-03     58.8177E-03    -26.1900E-03     192.097E-03    -36.0051E-03     62.5804E-03    -26.3815E-03     192.701E-03
             842     16.6567E-03     87.5580E-03    -6.41170E+06     164.655E+06     61.0008E+06    -590.706E+03    -29.6049E-03     56.0206E-03    -26.4158E-03     154.130E-03    -33.1068E-03     59.9074E-03    -26.3402E-03     155.860E-03
             843     876.542E-06     87.4575E-03    -26.1339E+06    -92.0997E+06    -25.7170E+06    -1.52993E+06    -26.5132E-03     53.0697E-03    -26.5565E-03     5.71359E-03    -26.4731E-03     52.6847E-03    -26.5136E-03     5.69117E-03
             844     1.75291E-03     87.4652E-03    -25.5737E+06    -91.4768E+06    -24.0448E+06    -2.90875E+06    -26.5580E-03     53.0958E-03    -26.5378E-03     10.5956E-03    -26.5188E-03     52.7108E-03    -26.4883E-03     10.5529E-03
             845     2.62944E-03     87.4775E-03    -24.5716E+06    -88.5202E+06    -21.6643E+06    -4.41568E+06    -26.5672E-03     53.1076E-03    -26.5404E-03     15.7802E-03    -26.5312E-03     52.7330E-03    -26.4847E-03     15.7152E-03
             846     3.50591E-03     87.4950E-03    -23.1540E+06    -87.5612E+06    -18.1618E+06    -6.01516E+06    -26.5976E-03     53.1446E-03    -26.5470E-03     21.0015E-03    -26.5619E-03     52.7685E-03    -26.4773E-03     20.9124E-03
             847     4.38247E-03     87.5173E-03    -21.2868E+06    -84.2053E+06    -14.6624E+06    -7.46099E+06    -26.6350E-03     53.1829E-03    -26.5479E-03     26.2697E-03    -26.6012E-03     52.8171E-03    -26.4683E-03     26.1577E-03
             848     5.25896E-03     87.5447E-03    -19.3610E+06    -77.5434E+06    -11.9382E+06    -8.63662E+06    -26.6706E-03     53.2083E-03    -26.5377E-03     31.5700E-03    -26.6426E-03     52.8710E-03    -26.4569E-03     31.4377E-03
             849     6.13560E-03     87.5770E-03    -17.2351E+06    -74.2740E+06    -8.42266E+06    -9.34714E+06    -26.7348E-03     53.2693E-03    -26.5345E-03     36.8290E-03    -26.7089E-03     52.9430E-03    -26.4440E-03     36.6811E-03
             850     7.01216E-03     87.6144E-03    -15.3180E+06    -70.8201E+06    -5.51801E+06    -10.0748E+06    -26.8155E-03     53.3438E-03    -26.5283E-03     42.0506E-03    -26.7931E-03     53.0317E-03    -26.4310E-03     41.8853E-03
             851     7.88880E-03     87.6564E-03    -13.7470E+06    -67.3234E+06    -4.52789E+06    -10.8195E+06    -26.9016E-03     53.4145E-03    -26.5129E-03     47.2282E-03    -26.8837E-03     53.1218E-03    -26.4180E-03     47.0434E-03
             852     8.76542E-03     87.7037E-03    -12.1667E+06    -65.0424E+06    -3.69174E+06    -11.0420E+06    -27.0183E-03     53.5172E-03    -26.4989E-03     52.2953E-03    -27.0052E-03     53.2407E-03    -26.4054E-03     52.0953E-03
             853     9.64210E-03     87.7552E-03    -10.7636E+06    -63.5749E+06    -4.37095E+06    -10.9688E+06    -27.1473E-03     53.6275E-03    -26.4802E-03     57.2866E-03    -27.1400E-03     53.3690E-03    -26.3943E-03     57.0726E-03
             854     10.5187E-03     87.8119E-03    -9.55538E+06    -59.3475E+06    -6.08112E+06    -11.0899E+06    -27.2934E-03     53.7479E-03    -26.4545E-03     62.1503E-03    -27.3004E-03     53.5280E-03    -26.3850E-03     61.9166E-03
             855     11.3954E-03     87.8727E-03    -8.39343E+06    -51.3855E+06    -6.59935E+06    -11.4320E+06    -27.4894E-03     53.9218E-03    -26.4324E-03     67.7374E-03    -27.5269E-03     53.7662E-03    -26.3787E-03     67.4772E-03
             856     12.2719E-03     87.9399E-03    -7.42345E+06    -45.5549E+06    -10.1709E+06    -10.8649E+06    -27.7646E-03     54.1660E-03    -26.4014E-03     75.5446E-03    -27.8445E-03     54.0873E-03    -26.3755E-03     75.2636E-03
             857     13.1485E-03     88.0157E-03    -6.90729E+06    -35.9788E+06    -13.7407E+06    -9.15509E+06    -27.9681E-03     54.3367E-03    -26.3686E-03     81.0156E-03    -28.1207E-03     54.3769E-03    -26.3751E-03     80.7241E-03
             858     14.0247E-03     88.0931E-03    -6.26616E+06    -9.55071E+06    -15.9204E+06    -6.61969E+06    -28.1770E-03     54.4912E-03    -26.3142E-03     92.7329E-03    -28.4951E-03     54.7993E-03    -26.3709E-03     92.4502E-03
             859     14.9024E-03     88.1914E-03    -5.41639E+06     36.7775E+06    -28.6155E+06    -3.85532E+06    -29.7007E-03     55.8645E-03    -26.1638E-03     131.405E-03    -30.6545E-03     57.0125E-03    -26.3523E-03     131.190E-03
             860     15.7794E-03     88.3406E-03    -4.78605E+06     109.438E+06    -3.02031E+06    -1.92756E+06    -32.4134E-03     58.5669E-03    -26.1535E-03     191.600E-03    -35.7542E-03     62.2880E-03    -26.3203E-03     192.210E-03
             861     16.6563E-03     88.5566E-03    -4.03404E+06     163.806E+06     66.4083E+06    -733.800E+03    -30.1477E-03     56.5405E-03    -26.3927E-03     153.059E-03    -33.6201E-03     60.3875E-03    -26.2923E-03     154.755E-03
             862     876.419E-06     88.4572E-03    -25.3215E+06    -88.8658E+06    -25.1996E+06    -1.66576E+06    -26.5130E-03     53.0553E-03    -26.5423E-03     5.71976E-03    -26.4742E-03     52.6845E-03    -26.5027E-03     5.69557E-03
             863     1.75300E-03     88.4647E-03    -24.6398E+06    -88.0786E+06    -23.2499E+06    -3.08176E+06    -26.5505E-03     53.0808E-03    -26.5303E-03     10.5956E-03    -26.5126E-03     52.7102E-03    -26.4831E-03     10.5507E-03
             864     2.62941E-03     88.4772E-03    -23.5679E+06    -85.0151E+06    -20.7011E+06    -4.62337E+06    -26.5697E-03     53.1043E-03    -26.5346E-03     15.7807E-03    -26.5352E-03     52.7444E-03    -26.4807E-03     15.7130E-03
             865     3.50595E-03     88.4945E-03    -22.2704E+06    -83.8474E+06    -17.2569E+06    -6.32860E+06    -26.5909E-03     53.1329E-03    -26.5419E-03     21.0088E-03    -26.5575E-03     52.7727E-03    -26.4743E-03     20.9156E-03
             866     4.38242E-03     88.5169E-03    -20.6709E+06    -80.7585E+06    -14.0645E+06    -8.09435E+06    -26.6160E-03     53.1567E-03    -26.5407E-03     26.2833E-03    -26.5849E-03     52.8063E-03    -26.4640E-03     26.1632E-03
             867     5.25906E-03     88.5441E-03    -18.7772E+06    -74.6814E+06    -11.4063E+06    -9.39801E+06    -26.6517E-03     53.1807E-03    -26.5290E-03     31.5995E-03    -26.6257E-03     52.8560E-03    -26.4505E-03     31.4575E-03
             868     6.13558E-03     88.5765E-03    -16.9852E+06    -72.1207E+06    -8.42843E+06    -10.2075E+06    -26.7080E-03     53.2304E-03    -26.5225E-03     36.8866E-03    -26.6838E-03     52.9144E-03    -26.4354E-03     36.7277E-03
             869     7.01225E-03     88.6137E-03    -15.1057E+06    -68.5488E+06    -5.61694E+06    -10.7235E+06    -26.7749E-03     53.2875E-03    -26.5126E-03     42.1358E-03    -26.7546E-03     52.9865E-03    -26.4194E-03     41.9624E-03
             870     7.88888E-03     88.6560E-03    -13.5078E+06    -65.3380E+06    -4.31707E+06    -11.2359E+06    -26.8638E-03     53.3598E-03    -26.4960E-03     47.3272E-03    -26.8478E-03     53.0764E-03    -26.4033E-03     47.1373E-03
             871     8.76560E-03     88.7029E-03    -12.2407E+06    -63.5681E+06    -4.04169E+06    -11.7340E+06    -26.9742E-03     53.4519E-03    -26.4777E-03     52.4643E-03    -26.9630E-03     53.1833E-03    -26.3880E-03     52.2558E-03
             872     9.64222E-03     88.7548E-03    -10.6473E+06    -62.3429E+06    -4.81675E+06    -12.0595E+06    -27.1195E-03     53.5760E-03    -26.4565E-03     57.4944E-03    -27.1126E-03     53.3240E-03    -26.3748E-03     57.2666E-03
             873     10.5189E-03     88.8111E-03    -9.01391E+06    -58.1178E+06    -6.35984E+06    -12.2451E+06    -27.2646E-03     53.6943E-03    -26.4296E-03     62.4304E-03    -27.2703E-03     53.4801E-03    -26.3641E-03     62.1821E-03
             874     11.3956E-03     88.8724E-03    -8.13255E+06    -50.2667E+06    -6.81938E+06    -12.1247E+06    -27.4682E-03     53.8753E-03    -26.4072E-03     68.1594E-03    -27.5057E-03     53.7254E-03    -26.3566E-03     67.8907E-03
             875     12.2722E-03     88.9393E-03    -7.74640E+06    -45.8936E+06    -10.8880E+06    -11.7874E+06    -27.7534E-03     54.1293E-03    -26.3759E-03     75.9934E-03    -27.8339E-03     54.0510E-03    -26.3526E-03     75.7006E-03
             876     13.1489E-03     89.0152E-03    -6.71247E+06    -37.5032E+06    -15.1895E+06    -10.5984E+06    -27.8981E-03     54.2358E-03    -26.3377E-03     81.6837E-03    -28.0461E-03     54.2710E-03    -26.3496E-03     81.3747E-03
             877     14.0256E-03     89.0929E-03    -5.23175E+06    -11.9974E+06    -17.3192E+06    -8.82640E+06    -28.0366E-03     54.3146E-03    -26.2780E-03     92.4919E-03    -28.3439E-03     54.6109E-03    -26.3396E-03     92.1831E-03
             878     14.9029E-03     89.1889E-03    -4.41453E+06     32.9886E+06    -28.2406E+06    -5.73662E+06    -29.5889E-03     55.7230E-03    -26.1340E-03     130.584E-03    -30.5271E-03     56.8444E-03    -26.3167E-03     130.346E-03
             879     15.7799E-03     89.3416E-03    -4.98633E+06     106.665E+06    -6.03060E+06    -1.45769E+06    -32.9605E-03     59.0837E-03    -26.1232E-03     190.944E-03    -36.2890E-03     62.7906E-03    -26.3007E-03     191.523E-03
             880     16.6564E-03     89.5553E-03    -4.09333E+06     163.545E+06     62.9963E+06     200.371E+03    -30.4563E-03     56.8394E-03    -26.3832E-03     152.589E-03    -33.9307E-03     60.6973E-03    -26.2994E-03     154.271E-03
             881     876.526E-06     89.4567E-03    -24.1777E+06    -85.2574E+06    -23.9029E+06    -1.85881E+06    -26.5062E-03     53.0369E-03    -26.5308E-03     5.74093E-03    -26.4688E-03     52.6806E-03    -26.4916E-03     5.71426E-03
             882     1.75292E-03     89.4643E-03    -23.5176E+06    -84.4079E+06    -22.2638E+06    -3.43013E+06    -26.5421E-03     53.0623E-03    -26.5202E-03     10.6191E-03    -26.5054E-03     52.7070E-03    -26.4750E-03     10.5697E-03
             883     2.62948E-03     89.4767E-03    -22.3201E+06    -81.4354E+06    -19.8932E+06    -5.04762E+06    -26.5503E-03     53.0724E-03    -26.5221E-03     15.7870E-03    -26.5159E-03     52.7273E-03    -26.4711E-03     15.7138E-03
             884     3.50595E-03     89.4941E-03    -20.9896E+06    -80.1779E+06    -16.4047E+06    -6.50182E+06    -26.5650E-03     53.0911E-03    -26.5262E-03     21.0296E-03    -26.5316E-03     52.7463E-03    -26.4615E-03     20.9342E-03
             885     4.38254E-03     89.5163E-03    -19.6340E+06    -76.6225E+06    -13.1353E+06    -8.37092E+06    -26.5847E-03     53.1067E-03    -26.5220E-03     26.3276E-03    -26.5558E-03     52.7741E-03    -26.4481E-03     26.2040E-03
             886     5.25907E-03     89.5437E-03    -18.1864E+06    -71.7699E+06    -10.8918E+06    -9.96664E+06    -26.6081E-03     53.1154E-03    -26.5073E-03     31.6594E-03    -26.5841E-03     52.8037E-03    -26.4313E-03     31.5102E-03
             887     6.13577E-03     89.5759E-03    -16.6481E+06    -69.8052E+06    -8.27687E+06    -10.6435E+06    -26.6495E-03     53.1453E-03    -26.4958E-03     36.9722E-03    -26.6272E-03     52.8401E-03    -26.4118E-03     36.8080E-03
             888     7.01240E-03     89.6132E-03    -15.1274E+06    -66.1661E+06    -5.85348E+06    -11.4308E+06    -26.7078E-03     53.1874E-03    -26.4796E-03     42.2677E-03    -26.6907E-03     52.8986E-03    -26.3910E-03     42.0855E-03
             889     7.88917E-03     89.6553E-03    -13.1571E+06    -63.4001E+06    -4.28319E+06    -12.0710E+06    -26.7963E-03     53.2562E-03    -26.4599E-03     47.4978E-03    -26.7812E-03     52.9818E-03    -26.3704E-03     47.2976E-03
             890     8.76584E-03     89.7023E-03    -11.2040E+06    -61.7296E+06    -3.78186E+06    -12.4538E+06    -26.8982E-03     53.3357E-03    -26.4375E-03     52.6643E-03    -26.8847E-03     53.0742E-03    -26.3507E-03     52.4471E-03
             891     9.64271E-03     89.7540E-03    -9.75221E+06    -60.3712E+06    -4.61626E+06    -13.1964E+06    -27.0493E-03     53.4613E-03    -26.4120E-03     57.8050E-03    -27.0410E-03     53.2174E-03    -26.3334E-03     57.5633E-03
             892     10.5193E-03     89.8106E-03    -8.56028E+06    -57.2068E+06    -6.54545E+06    -13.4597E+06    -27.2118E-03     53.5946E-03    -26.3827E-03     62.7333E-03    -27.2161E-03     53.3844E-03    -26.3201E-03     62.4700E-03
             893     11.3962E-03     89.8714E-03    -7.43040E+06    -49.8811E+06    -6.78382E+06    -12.8229E+06    -27.3693E-03     53.7277E-03    -26.3584E-03     68.5410E-03    -27.4037E-03     53.5783E-03    -26.3092E-03     68.2644E-03
             894     12.2729E-03     89.9391E-03    -6.82890E+06    -45.3286E+06    -10.6029E+06    -12.2403E+06    -27.7050E-03     54.0297E-03    -26.3247E-03     76.3529E-03    -27.7822E-03     53.9524E-03    -26.3021E-03     76.0551E-03
             895     13.1495E-03     90.0143E-03    -6.78653E+06    -37.9707E+06    -15.9939E+06    -12.1656E+06    -27.9164E-03     54.2019E-03    -26.2854E-03     81.8222E-03    -28.0625E-03     54.2354E-03    -26.3005E-03     81.4939E-03
             896     14.0263E-03     90.0925E-03    -6.33704E+06    -14.2085E+06    -17.8599E+06    -10.6619E+06    -28.3480E-03     54.5920E-03    -26.2441E-03     92.4333E-03    -28.6573E-03     54.8802E-03    -26.3036E-03     92.0981E-03
             897     14.9021E-03     90.1884E-03    -7.03712E+06     27.9551E+06    -30.4280E+06    -6.75361E+06    -30.0417E-03     56.1652E-03    -26.1235E-03     130.310E-03    -30.9823E-03     57.2683E-03    -26.3060E-03     130.050E-03
             898     15.7796E-03     90.3397E-03    -7.21402E+06     102.569E+06    -10.7385E+06    -2.55280E+06    -32.8119E-03     58.9153E-03    -26.1034E-03     192.394E-03    -36.1355E-03     62.6085E-03    -26.2953E-03     192.976E-03
             899     16.6546E-03     90.5582E-03    -3.93223E+06     162.862E+06     60.4769E+06    -60.3038E+03    -30.2031E-03     56.5488E-03    -26.3457E-03     154.250E-03    -33.6694E-03     60.4040E-03    -26.2738E-03     155.958E-03
             900     876.479E-06     90.4563E-03    -23.3213E+06    -81.2634E+06    -23.1383E+06    -2.06144E+06    -26.4924E-03     53.0013E-03    -26.5089E-03     5.75388E-03    -26.4576E-03     52.6626E-03    -26.4730E-03     5.72461E-03
             901     1.75303E-03     90.4639E-03    -22.6252E+06    -80.2915E+06    -21.7298E+06    -3.84991E+06    -26.5115E-03     53.0094E-03    -26.4979E-03     10.6385E-03    -26.4770E-03     52.6727E-03    -26.4574E-03     10.5837E-03
             902     2.62947E-03     90.4763E-03    -21.6051E+06    -77.5265E+06    -19.6618E+06    -5.66228E+06    -26.5059E-03     52.9990E-03    -26.4931E-03     15.8179E-03    -26.4739E-03     52.6721E-03    -26.4477E-03     15.7369E-03
             903     3.50609E-03     90.4936E-03    -19.9237E+06    -76.6393E+06    -16.0886E+06    -7.23077E+06    -26.5138E-03     53.0055E-03    -26.4918E-03     21.0743E-03    -26.4807E-03     52.6763E-03    -26.4322E-03     20.9697E-03
             904     4.38263E-03     90.5158E-03    -17.9457E+06    -72.4151E+06    -12.2291E+06    -8.79121E+06    -26.5266E-03     53.0099E-03    -26.4834E-03     26.3929E-03    -26.4966E-03     52.6947E-03    -26.4135E-03     26.2641E-03
             905     5.25934E-03     90.5430E-03    -16.4429E+06    -68.8345E+06    -9.06145E+06    -10.0433E+06    -26.5424E-03     53.0125E-03    -26.4701E-03     31.7278E-03    -26.5166E-03     52.7102E-03    -26.3918E-03     31.5778E-03
             906     6.13598E-03     90.5752E-03    -15.0970E+06    -67.2586E+06    -6.73147E+06    -10.9595E+06    -26.5695E-03     53.0223E-03    -26.4528E-03     37.0672E-03    -26.5453E-03     52.7253E-03    -26.3671E-03     36.8992E-03
             907     7.01280E-03     90.6124E-03    -13.2077E+06    -63.0509E+06    -4.60600E+06    -12.1878E+06    -26.6144E-03     53.0423E-03    -26.4279E-03     42.4136E-03    -26.5938E-03     52.7644E-03    -26.3404E-03     42.2222E-03
             908     7.88956E-03     90.6545E-03    -11.4094E+06    -61.5697E+06    -3.25766E+06    -13.0661E+06    -26.6924E-03     53.0955E-03    -26.4031E-03     47.6986E-03    -26.6726E-03     52.8260E-03    -26.3135E-03     47.4862E-03
             909     8.76646E-03     90.7015E-03    -9.70955E+06    -59.6119E+06    -2.75467E+06    -13.5387E+06    -26.8028E-03     53.1782E-03    -26.3753E-03     52.9091E-03    -26.7862E-03     52.9234E-03    -26.2886E-03     52.6786E-03
             910     9.64324E-03     90.7532E-03    -8.16151E+06    -58.3377E+06    -3.24745E+06    -14.0246E+06    -26.9490E-03     53.2962E-03    -26.3472E-03     58.1124E-03    -26.9373E-03     53.0579E-03    -26.2671E-03     57.8609E-03
             911     10.5202E-03     90.8098E-03    -7.15398E+06    -55.9453E+06    -5.35113E+06    -14.2668E+06    -27.1374E-03     53.4530E-03    -26.3156E-03     63.0771E-03    -27.1379E-03     53.2451E-03    -26.2509E-03     62.8043E-03
             912     11.3969E-03     90.8707E-03    -6.25505E+06    -49.8624E+06    -6.03988E+06    -13.9684E+06    -27.3401E-03     53.6314E-03    -26.2913E-03     68.8025E-03    -27.3696E-03     53.4792E-03    -26.2402E-03     68.5117E-03
             913     12.2738E-03     90.9381E-03    -5.20338E+06    -45.0789E+06    -9.33005E+06    -13.0176E+06    -27.6718E-03     53.9326E-03    -26.2608E-03     76.6980E-03    -27.7424E-03     53.8517E-03    -26.2346E-03     76.3914E-03
             914     13.1503E-03     91.0142E-03    -5.41464E+06    -37.5249E+06    -14.6067E+06    -11.9557E+06    -27.9395E-03     54.1645E-03    -26.2250E-03     82.1986E-03    -28.0807E-03     54.1956E-03    -26.2358E-03     81.8737E-03
             915     14.0266E-03     91.0916E-03     -6.3789E+06    -15.8961E+06    -17.7601E+06    -11.0369E+06    -28.5823E-03     54.7743E-03    -26.1919E-03     93.4194E-03    -28.8898E-03     55.0542E-03    -26.2484E-03     93.0784E-03
             916     14.9035E-03     91.1890E-03    -6.66167E+06     23.3037E+06    -31.6566E+06    -7.95061E+06    -30.7930E-03     56.8913E-03    -26.0983E-03     130.712E-03    -31.7365E-03     57.9858E-03    -26.2808E-03     130.425E-03
             917     15.7789E-03     91.3386E-03    -6.80394E+06     97.7774E+06    -15.0652E+06    -3.40239E+06    -32.3699E-03     58.4470E-03    -26.0771E-03     190.588E-03    -35.6160E-03     62.0597E-03    -26.2843E-03     191.178E-03
             918     16.6608E-03     91.5563E-03    -4.57698E+06     161.368E+06     56.8976E+06    -736.628E+03    -29.3916E-03     55.6838E-03    -26.2922E-03     154.609E-03    -32.7980E-03     59.4819E-03    -26.2351E-03     156.343E-03
             919     876.506E-06     91.4558E-03    -22.4148E+06    -76.5797E+06    -22.3413E+06    -2.52413E+06    -26.4856E-03     52.9354E-03    -26.4497E-03     5.78047E-03    -26.4543E-03     52.6176E-03    -26.4179E-03     5.74523E-03
             920     1.75301E-03     91.4634E-03    -21.3909E+06    -75.4977E+06    -20.7921E+06    -4.65047E+06    -26.4488E-03     52.9072E-03    -26.4584E-03     10.6570E-03    -26.4165E-03     52.5912E-03    -26.4219E-03     10.5919E-03
             921     2.62967E-03     91.4757E-03    -19.8824E+06    -73.2421E+06    -18.4047E+06    -6.61794E+06    -26.4376E-03     52.8826E-03    -26.4450E-03     15.8467E-03    -26.4050E-03     52.5728E-03    -26.4020E-03     15.7535E-03
             922     3.50621E-03     91.4930E-03    -18.1605E+06    -72.5544E+06    -15.0327E+06    -8.40992E+06    -26.4400E-03     52.8761E-03    -26.4361E-03     21.1371E-03    -26.4055E-03     52.5632E-03    -26.3797E-03     21.0174E-03
             923     4.38293E-03     91.5152E-03    -16.2150E+06    -68.8430E+06    -11.3302E+06    -9.79202E+06    -26.4365E-03     52.8579E-03    -26.4214E-03     26.4734E-03    -26.4043E-03     52.5566E-03    -26.3547E-03     26.3320E-03
             924     5.25962E-03     91.5424E-03    -14.2217E+06    -66.2410E+06    -7.21347E+06    -10.3607E+06    -26.4446E-03     52.8515E-03    -26.4069E-03     31.8151E-03    -26.4140E-03     52.5562E-03    -26.3263E-03     31.6614E-03
             925     6.13645E-03     91.5744E-03    -12.2267E+06    -63.7883E+06    -4.32072E+06    -11.5388E+06    -26.4613E-03     52.8452E-03    -26.3839E-03     37.1937E-03    -26.4312E-03     52.5577E-03    -26.2952E-03     37.0187E-03
             926     7.01327E-03     91.6116E-03    -10.6959E+06    -60.1301E+06    -2.92141E+06    -12.7849E+06    -26.4886E-03     52.8385E-03    -26.3499E-03     42.5976E-03    -26.4620E-03     52.5690E-03    -26.2618E-03     42.3991E-03
             927     7.89027E-03     91.6536E-03    -9.49604E+06    -59.2249E+06    -1.55744E+06    -13.5047E+06    -26.5583E-03     52.8783E-03    -26.3201E-03     47.9212E-03    -26.5345E-03     52.6151E-03    -26.2282E-03     47.7040E-03
             928     8.76719E-03     91.7005E-03    -8.27216E+06    -57.1964E+06    -1.41297E+06    -14.4190E+06    -26.6743E-03     52.9598E-03    -26.2855E-03     53.2185E-03    -26.6556E-03     52.7128E-03    -26.1976E-03     52.9777E-03
             929     9.64421E-03     91.7523E-03    -7.03658E+06    -56.5722E+06    -2.22149E+06    -14.9110E+06    -26.8371E-03     53.0906E-03    -26.2535E-03     58.4665E-03    -26.8235E-03     52.8577E-03    -26.1724E-03     58.2046E-03
             930     10.5211E-03     91.8088E-03    -5.92224E+06    -54.5756E+06    -4.19141E+06    -14.9536E+06    -27.0449E-03     53.2660E-03    -26.2211E-03     63.5255E-03    -27.0425E-03     53.0611E-03    -26.1544E-03     63.2450E-03
             931     11.3980E-03     91.8700E-03    -5.09055E+06    -49.0078E+06    -4.89037E+06    -14.8911E+06    -27.3421E-03     53.5421E-03    -26.2000E-03     69.3019E-03    -27.3685E-03     53.3906E-03    -26.1460E-03     68.9999E-03
             932     12.2746E-03     91.9372E-03    -4.54631E+06    -45.7353E+06    -8.96362E+06    -14.1282E+06    -27.6970E-03     53.8716E-03    -26.1747E-03     77.1811E-03    -27.7636E-03     53.7858E-03    -26.1466E-03     76.8607E-03
             933     13.1515E-03     92.0135E-03    -3.68604E+06    -38.1997E+06    -13.6403E+06    -12.4321E+06    -28.0069E-03     54.1547E-03    -26.1477E-03     82.5458E-03    -28.1401E-03     54.1787E-03    -26.1552E-03     82.2147E-03
             934     14.0286E-03     92.0911E-03    -4.56334E+06    -15.7034E+06    -15.2139E+06    -11.0134E+06    -28.7684E-03     54.9010E-03    -26.1326E-03     93.8337E-03    -29.0722E-03     55.1770E-03    -26.1792E-03     93.4913E-03
             935     14.9038E-03     92.1898E-03    -5.57439E+06     18.5122E+06    -29.2931E+06    -8.77929E+06    -30.8191E-03     56.8725E-03    -26.0534E-03     131.917E-03    -31.7603E-03     57.9446E-03    -26.2186E-03     131.622E-03
             936     15.7786E-03     92.3402E-03    -4.83336E+06     91.7392E+06    -18.5626E+06    -3.62593E+06    -32.9674E-03     58.9920E-03    -26.0246E-03     189.797E-03    -36.2212E-03     62.6081E-03    -26.2434E-03     190.360E-03
             937     16.6546E-03     92.5474E-03    -3.75161E+06     160.252E+06     52.6515E+06    -435.053E+03    -29.6112E-03     55.8722E-03    -26.2610E-03     155.632E-03    -33.0728E-03     59.7368E-03    -26.2247E-03     157.373E-03
             938     876.564E-06     92.4553E-03    -17.4845E+06    -71.0594E+06    -17.5018E+06    -2.95276E+06    -26.4171E-03     52.8077E-03    -26.3906E-03     5.79571E-03    -26.3761E-03     52.5034E-03    -26.3497E-03     5.75497E-03
             939     1.75318E-03     92.4628E-03    -17.3187E+06    -69.9989E+06    -17.1511E+06    -5.19987E+06    -26.3826E-03     52.7721E-03    -26.3895E-03     10.6858E-03    -26.3432E-03     52.4724E-03    -26.3486E-03     10.6137E-03
             940     2.62977E-03     92.4751E-03    -16.9534E+06    -68.5017E+06    -16.1102E+06    -7.40870E+06    -26.3504E-03     52.7199E-03    -26.3694E-03     15.8919E-03    -26.3134E-03     52.4262E-03    -26.3261E-03     15.7886E-03
             941     3.50656E-03     92.4923E-03    -16.0483E+06    -67.9584E+06    -13.4017E+06    -9.25088E+06    -26.3292E-03     52.6813E-03    -26.3521E-03     21.1975E-03    -26.2931E-03     52.3859E-03    -26.2973E-03     21.0672E-03
             942     4.38326E-03     92.5144E-03    -14.6388E+06    -65.2252E+06    -10.4999E+06    -10.8241E+06    -26.3092E-03     52.6370E-03    -26.3278E-03     26.5696E-03    -26.2755E-03     52.3502E-03    -26.2645E-03     26.4153E-03
             943     5.26017E-03     92.5414E-03    -12.4333E+06    -63.7056E+06    -6.92584E+06    -11.7568E+06    -26.3021E-03     52.6058E-03    -26.3037E-03     31.9597E-03    -26.2666E-03     52.3201E-03    -26.2279E-03     31.7886E-03
             944     6.13705E-03     92.5735E-03    -10.1987E+06    -60.3004E+06    -3.01457E+06    -12.4244E+06    -26.3068E-03     52.5826E-03    -26.2758E-03     37.3692E-03    -26.2733E-03     52.3076E-03    -26.1887E-03     37.1835E-03
             945     7.01413E-03     92.6104E-03    -8.51781E+06    -57.6856E+06    -698.444E+03    -13.0715E+06    -26.3306E-03     52.5712E-03    -26.2406E-03     42.7986E-03    -26.2997E-03     52.3073E-03    -26.1481E-03     42.5972E-03
             946     7.89115E-03     92.6524E-03    -7.11147E+06    -56.3773E+06     173.039E+03    -13.8825E+06    -26.3969E-03     52.5981E-03    -26.2011E-03     48.2124E-03    -26.3676E-03     52.3429E-03    -26.1082E-03     47.9913E-03
             947     8.76832E-03     92.6993E-03    -5.96266E+06    -54.6064E+06     234.305E+03    -14.7999E+06    -26.5126E-03     52.6737E-03    -26.1611E-03     53.5816E-03    -26.4881E-03     52.4335E-03    -26.0721E-03     53.3371E-03
             948     9.64541E-03     92.7510E-03    -5.31353E+06    -54.8978E+06    -1.00909E+06    -15.2246E+06    -26.6989E-03     52.8242E-03    -26.1253E-03     58.9267E-03    -26.6805E-03     52.5950E-03    -26.0431E-03     58.6621E-03
             949     10.5225E-03     92.8077E-03    -4.94121E+06    -52.8750E+06    -3.44587E+06    -15.5479E+06    -26.9421E-03     53.0328E-03    -26.0907E-03     64.0861E-03    -26.9380E-03     52.8335E-03    -26.0241E-03     63.7992E-03
             950     11.3994E-03     92.8689E-03    -4.47698E+06    -48.2189E+06    -4.33489E+06    -15.4368E+06    -27.2593E-03     53.3309E-03    -26.0716E-03     70.0089E-03    -27.2842E-03     53.1813E-03    -26.0169E-03     69.7013E-03
             951     12.2763E-03     92.9367E-03    -4.17476E+06    -45.4798E+06    -8.50742E+06    -14.8799E+06    -27.7836E-03     53.8377E-03    -26.0541E-03     77.9116E-03    -27.8499E-03     53.7524E-03    -26.0246E-03     77.5817E-03
             952     13.1527E-03     93.0125E-03    -4.09059E+06    -39.7394E+06    -14.3857E+06    -13.7855E+06    -28.2667E-03     54.3089E-03    -26.0422E-03     83.4621E-03    -28.4004E-03     54.3287E-03    -26.0505E-03     83.1121E-03
             953     14.0282E-03     93.0915E-03    -3.65062E+06    -16.7587E+06    -13.9795E+06    -11.5620E+06    -28.8563E-03     54.9052E-03    -26.0489E-03     95.0507E-03    -29.1610E-03     55.1780E-03    -26.0892E-03     94.7005E-03
             954     14.9052E-03     93.1894E-03    -4.41881E+06     15.2278E+06    -26.7750E+06    -8.33203E+06    -30.2337E-03     56.2013E-03    -25.9676E-03     132.281E-03    -31.1492E-03     57.2328E-03    -26.1171E-03     132.006E-03
             955     15.7843E-03     93.3397E-03    -6.41999E+06     85.9070E+06    -21.1428E+06    -4.65045E+06    -33.4484E-03     59.3681E-03    -25.9197E-03     190.938E-03    -36.7741E-03     63.0373E-03    -26.1406E-03     191.482E-03
             956     16.6590E-03     93.5527E-03    -4.55565E+06     158.156E+06     49.4621E+06    -1.30794E+06    -30.4517E-03     56.6350E-03    -26.1833E-03     155.462E-03    -33.9818E-03     60.5670E-03    -26.1587E-03     157.155E-03
             957     876.693E-06     93.4546E-03    -13.3965E+06    -64.8224E+06    -13.3179E+06    -3.17277E+06    -26.2791E-03     52.5843E-03    -26.3053E-03     5.81318E-03    -26.2328E-03     52.2992E-03    -26.2584E-03     5.76967E-03
             958     1.75336E-03     93.4620E-03    -12.8555E+06    -64.2060E+06    -13.0494E+06    -5.61654E+06    -26.2697E-03     52.5468E-03    -26.2771E-03     10.7010E-03    -26.2223E-03     52.2637E-03    -26.2306E-03     10.6237E-03
             959     2.63015E-03     93.4743E-03    -12.4564E+06    -63.6460E+06    -11.8906E+06    -7.48238E+06    -26.2344E-03     52.4916E-03    -26.2572E-03     15.9403E-03    -26.1880E-03     52.2095E-03    -26.2063E-03     15.8362E-03
             960     3.50689E-03     93.4913E-03    -12.1896E+06    -63.0049E+06    -10.3122E+06    -9.42719E+06    -26.1876E-03     52.4184E-03    -26.2308E-03     21.2763E-03    -26.1439E-03     52.1377E-03    -26.1733E-03     21.1441E-03
             961     4.38388E-03     93.5133E-03    -11.3373E+06    -60.7725E+06    -8.54739E+06    -11.5515E+06    -26.1417E-03     52.3363E-03    -26.1946E-03     26.6839E-03    -26.1007E-03     52.0641E-03    -26.1328E-03     26.5206E-03
             962     5.26085E-03     93.5403E-03    -10.1688E+06    -60.5881E+06    -5.76702E+06    -12.9543E+06    -26.1164E-03     52.2776E-03    -26.1612E-03     32.1211E-03    -26.0757E-03     52.0023E-03    -26.0874E-03     31.9352E-03
             963     6.13801E-03     93.5722E-03    -8.56558E+06    -57.6857E+06    -2.45618E+06    -13.4557E+06    -26.1056E-03     52.2289E-03    -26.1233E-03     37.5919E-03    -26.0684E-03     51.9637E-03    -26.0395E-03     37.3938E-03
             964     7.01513E-03     93.6091E-03    -6.52401E+06    -55.0129E+06     593.077E+03    -13.9831E+06    -26.1245E-03     52.2077E-03    -26.0832E-03     43.0808E-03    -26.0891E-03     51.9521E-03    -25.9910E-03     42.8687E-03
             965     7.89247E-03     93.6509E-03    -4.73848E+06    -53.9167E+06     1.52139E+06    -14.4971E+06    -26.1892E-03     52.2260E-03    -26.0368E-03     48.5972E-03    -26.1531E-03     51.9773E-03    -25.9441E-03     48.3695E-03
             966     8.76974E-03     93.6978E-03    -3.81619E+06    -52.1989E+06     1.53028E+06    -14.8053E+06    -26.3197E-03     52.3112E-03    -25.9915E-03     54.0699E-03    -26.2894E-03     52.0776E-03    -25.9026E-03     53.8268E-03
             967     9.64707E-03     93.7495E-03    -3.19460E+06    -53.0311E+06     593.283E+03    -15.3243E+06    -26.5239E-03     52.4788E-03    -25.9548E-03     59.5142E-03    -26.4994E-03     52.2529E-03    -25.8703E-03     59.2501E-03
             968     10.5243E-03     93.8064E-03    -3.01059E+06    -51.3428E+06    -2.06126E+06    -15.2872E+06    -26.8153E-03     52.7348E-03    -25.9194E-03     64.8202E-03    -26.8052E-03     52.5377E-03    -25.8509E-03     64.5386E-03
             969     11.4013E-03     93.8677E-03    -3.41010E+06    -46.8361E+06    -3.14682E+06    -15.5024E+06    -27.1906E-03     53.0949E-03    -25.9043E-03     70.7616E-03    -27.2136E-03     52.9486E-03    -25.8472E-03     70.4547E-03
             970     12.2783E-03     93.9356E-03    -3.24719E+06    -45.0744E+06    -7.26407E+06    -15.4468E+06    -27.7332E-03     53.6271E-03    -25.8940E-03     78.9279E-03    -27.7967E-03     53.5402E-03    -25.8602E-03     78.5925E-03
             971     13.1546E-03     94.0126E-03    -3.81691E+06    -40.6714E+06    -13.8575E+06    -13.9931E+06    -28.3322E-03     54.2215E-03    -25.8892E-03     84.8706E-03    -28.4651E-03     54.2366E-03    -25.8940E-03     84.5190E-03
             972     14.0318E-03     94.0908E-03    -4.07229E+06    -18.7021E+06    -14.5398E+06    -12.1219E+06    -28.9843E-03     54.8896E-03    -25.9053E-03     96.1483E-03    -29.2899E-03     55.1565E-03    -25.9450E-03     95.7910E-03
             973     14.9074E-03     94.1899E-03    -4.58576E+06     11.8935E+06    -24.0979E+06    -8.57455E+06    -30.5632E-03     56.4263E-03    -25.8631E-03     131.876E-03    -31.4730E-03     57.4319E-03    -25.9942E-03     131.591E-03
             974     15.7823E-03     94.3369E-03    -5.23996E+06     81.9852E+06    -21.7856E+06    -4.79829E+06    -33.3341E-03     59.1420E-03    -25.8080E-03     191.985E-03    -36.6703E-03     62.8139E-03    -26.0282E-03     192.544E-03
             975     16.6590E-03     94.5562E-03    -4.13444E+06     155.660E+06     45.2150E+06    -1.67901E+06    -30.9380E-03     56.9998E-03    -26.0618E-03     153.940E-03    -34.4349E-03     60.9035E-03    -26.0555E-03     155.597E-03
             976     876.777E-06     94.4536E-03    -11.4485E+06    -57.9260E+06    -11.1927E+06    -3.24269E+06    -26.1106E-03     52.2475E-03    -26.1369E-03     5.83564E-03    -26.0676E-03     51.9910E-03    -26.0923E-03     5.79133E-03
             977     1.75367E-03     94.4611E-03    -10.7675E+06    -57.8381E+06    -10.3529E+06    -6.37968E+06    -26.0861E-03     52.1956E-03    -26.1095E-03     10.7469E-03    -26.0414E-03     51.9374E-03    -26.0618E-03     10.6599E-03
             978     2.63053E-03     94.4732E-03    -9.58779E+06    -59.1800E+06    -9.10185E+06    -8.16223E+06    -26.0485E-03     52.1345E-03    -26.0860E-03     16.0089E-03    -25.9983E-03     51.8666E-03    -26.0318E-03     15.8964E-03
             979     3.50759E-03     94.4901E-03    -8.01593E+06    -57.3854E+06    -7.55162E+06    -10.1639E+06    -25.9948E-03     52.0453E-03    -26.0505E-03     21.3866E-03    -25.9423E-03     51.7825E-03    -25.9934E-03     21.2453E-03
             980     4.38461E-03     94.5119E-03    -7.14163E+06    -56.6252E+06    -5.63016E+06    -11.7736E+06    -25.9323E-03     51.9431E-03    -26.0108E-03     26.8256E-03    -25.8805E-03     51.6813E-03    -25.9465E-03     26.6600E-03
             981     5.26189E-03     94.5388E-03    -6.93786E+06    -56.7588E+06    -3.55122E+06    -12.8522E+06    -25.8772E-03     51.8447E-03    -25.9675E-03     32.3256E-03    -25.8289E-03     51.5806E-03    -25.8929E-03     32.1418E-03
             982     6.13915E-03     94.5705E-03    -6.18522E+06    -54.4992E+06    -2.04871E+06    -14.4267E+06    -25.8423E-03     51.7554E-03    -25.9131E-03     37.8976E-03    -25.7981E-03     51.5017E-03    -25.8354E-03     37.6882E-03
             983     7.01669E-03     94.6073E-03    -4.89719E+06    -52.7220E+06     636.532E+03    -14.9198E+06    -25.8552E-03     51.7193E-03    -25.8642E-03     43.4949E-03    -25.8146E-03     51.4724E-03    -25.7774E-03     43.2722E-03
             984     7.89413E-03     94.6490E-03    -3.75773E+06    -51.6104E+06     2.48684E+06    -15.0843E+06    -25.9261E-03     51.7420E-03    -25.8159E-03     49.0972E-03    -25.8894E-03     51.5015E-03    -25.7232E-03     48.8637E-03
             985     8.77175E-03     94.6958E-03    -2.49766E+06    -50.4953E+06     2.39270E+06    -15.1968E+06    -26.0739E-03     51.8394E-03    -25.7655E-03     54.7245E-03    -26.0401E-03     51.6105E-03    -25.6767E-03     54.4784E-03
             986     9.64921E-03     94.7478E-03    -1.94683E+06    -50.9400E+06     1.93913E+06    -15.1546E+06    -26.3212E-03     52.0500E-03    -25.7288E-03     60.2726E-03    -26.2947E-03     51.8302E-03    -25.6424E-03     60.0127E-03
             987     10.5267E-03     94.8045E-03    -1.76695E+06    -50.3709E+06    -666.231E+03    -15.2225E+06    -26.6848E-03     52.3828E-03    -25.6979E-03     65.7352E-03    -26.6713E-03     52.1860E-03    -25.6257E-03     65.4565E-03
             988     11.4039E-03     94.8665E-03    -1.66546E+06    -45.0394E+06    -1.18854E+06    -14.8814E+06    -27.1563E-03     52.8482E-03    -25.6918E-03     71.7375E-03    -27.1755E-03     52.7050E-03    -25.6300E-03     71.4404E-03
             989     12.2806E-03     94.9344E-03    -3.06988E+06    -44.3458E+06    -5.64905E+06    -14.9400E+06    -27.6980E-03     53.3922E-03    -25.6942E-03     79.7635E-03    -27.7636E-03     53.3058E-03    -25.6536E-03     79.4365E-03
             990     13.1581E-03     95.0115E-03    -3.70143E+06    -40.9350E+06    -12.2215E+06    -14.4058E+06    -28.5278E-03     54.2353E-03    -25.7075E-03     85.7978E-03    -28.6623E-03     54.2469E-03    -25.7039E-03     85.4413E-03
             991     14.0330E-03     95.0915E-03    -3.81262E+06    -20.4523E+06    -12.8775E+06    -12.4254E+06    -29.3203E-03     55.0734E-03    -25.7531E-03     95.9309E-03    -29.6234E-03     55.3278E-03    -25.7823E-03     95.5682E-03
             992     14.9094E-03     95.1892E-03    -2.99343E+06     7.42463E+06    -20.2683E+06    -9.53112E+06    -30.9611E-03     56.7156E-03    -25.7545E-03     131.980E-03    -31.8722E-03     57.7012E-03    -25.8623E-03     131.676E-03
             993     15.7860E-03     95.3388E-03    -2.74947E+06     77.8261E+06    -23.2304E+06    -5.17718E+06    -34.3743E-03     60.0921E-03    -25.7178E-03     191.842E-03    -37.6948E-03     63.7465E-03    -25.9428E-03     192.346E-03
             994     16.6643E-03     95.5537E-03    -3.77540E+06     153.206E+06     40.2018E+06    -945.976E+03    -31.5823E-03     57.5905E-03    -26.0082E-03     151.376E-03    -35.0592E-03     61.4813E-03    -26.0239E-03     152.997E-03
             995     877.043E-06     95.4524E-03    -6.93696E+06    -50.6470E+06    -7.35203E+06    -3.42948E+06    -25.8779E-03     51.7804E-03    -25.9025E-03     5.85265E-03    -25.8285E-03     51.5481E-03    -25.8557E-03     5.80608E-03
             996     1.75405E-03     95.4596E-03    -7.37247E+06    -51.2132E+06    -6.77870E+06    -6.22653E+06    -25.8453E-03     51.7193E-03    -25.8740E-03     10.8019E-03    -25.7984E-03     51.4841E-03    -25.8229E-03     10.7171E-03
             997     2.63122E-03     95.4717E-03    -7.25114E+06    -53.4285E+06    -6.70531E+06    -9.11304E+06    -25.7909E-03     51.6346E-03    -25.8437E-03     16.1087E-03    -25.7408E-03     51.3885E-03    -25.7893E-03     15.9844E-03
             998     3.50837E-03     95.4885E-03    -6.48584E+06    -51.8496E+06    -7.01709E+06    -11.5320E+06    -25.7125E-03     51.5061E-03    -25.7936E-03     21.5387E-03    -25.6611E-03     51.2679E-03    -25.7441E-03     21.3804E-03
             999     4.38579E-03     95.5102E-03    -5.47766E+06    -53.4328E+06    -4.92420E+06    -12.3423E+06    -25.6390E-03     51.3888E-03    -25.7498E-03     27.0377E-03    -25.5844E-03     51.1393E-03    -25.6890E-03     26.8657E-03
            1000     5.26319E-03     95.5367E-03    -3.87809E+06    -52.3087E+06    -2.30459E+06    -13.4730E+06    -25.5659E-03     51.2624E-03    -25.6965E-03     32.6242E-03    -25.5103E-03     51.0141E-03    -25.6266E-03     32.4336E-03
            1001     6.14091E-03     95.5684E-03    -2.71844E+06    -50.8909E+06     27.6152E+03    -14.7123E+06    -25.5182E-03     51.1559E-03    -25.6376E-03     38.2746E-03    -25.4646E-03     50.9119E-03    -25.5598E-03     38.0629E-03
            1002     7.01857E-03     95.6049E-03    -2.33026E+06    -50.8420E+06     2.01760E+06    -15.0492E+06    -25.5203E-03     51.1004E-03    -25.5801E-03     43.9878E-03    -25.4711E-03     50.8566E-03    -25.4929E-03     43.7652E-03
            1003     7.89648E-03     95.6467E-03    -1.58866E+06    -48.8514E+06     3.91697E+06    -15.4058E+06    -25.6009E-03     51.1250E-03    -25.5242E-03     49.7490E-03    -25.5588E-03     50.8925E-03    -25.4314E-03     49.5135E-03
            1004     8.77423E-03     95.6934E-03    -1.16159E+06    -49.5256E+06     3.78614E+06    -15.3308E+06    -25.7764E-03     51.2494E-03    -25.4730E-03     55.5162E-03    -25.7385E-03     51.0206E-03    -25.3806E-03     55.2709E-03
            1005     9.65213E-03     95.7454E-03    -913.110E+03    -49.2084E+06     3.13765E+06    -14.8499E+06    -26.0961E-03     51.5313E-03    -25.4352E-03     61.2787E-03    -26.0678E-03     51.3159E-03    -25.3468E-03     61.0255E-03
            1006     10.5296E-03     95.8024E-03    -896.606E+03    -48.6742E+06     1.15586E+06    -15.1066E+06    -26.5610E-03     51.9758E-03    -25.4148E-03     66.8808E-03    -26.5474E-03     51.7829E-03    -25.3372E-03     66.6061E-03
            1007     11.4069E-03     95.8647E-03    -970.621E+03    -44.8353E+06    -126.112E+03    -14.6899E+06    -27.1388E-03     52.5595E-03    -25.4207E-03     73.0040E-03    -27.1556E-03     52.4140E-03    -25.3549E-03     72.7117E-03
            1008     12.2841E-03     95.9332E-03    -1.11926E+06    -42.9938E+06    -3.18008E+06    -13.4487E+06    -28.0417E-03     53.4957E-03    -25.4540E-03     80.8669E-03    -28.1038E-03     53.4104E-03    -25.4059E-03     80.5587E-03
            1009     13.1598E-03     96.0105E-03    -2.95968E+06    -40.2253E+06    -10.7683E+06    -13.6085E+06    -28.9299E-03     54.4324E-03    -25.5026E-03     87.2435E-03    -29.0650E-03     54.4454E-03    -25.4938E-03     86.8967E-03
            1010     14.0358E-03     96.0929E-03    -3.64331E+06    -21.5983E+06    -11.9391E+06    -13.2605E+06    -29.7549E-03     55.3398E-03    -25.5849E-03     96.9359E-03    -30.0566E-03     55.5865E-03    -25.6080E-03     96.5618E-03
            1011     14.9112E-03     96.1879E-03    -3.14420E+06     3.67125E+06    -19.6226E+06    -11.2069E+06    -31.7572E-03     57.3913E-03    -25.6342E-03     131.864E-03    -32.6783E-03     58.3713E-03    -25.7331E-03     131.526E-03
            1012     15.7869E-03     96.3396E-03    -5.44551E+06     71.3804E+06    -29.2573E+06    -5.65898E+06    -34.9428E-03     60.5539E-03    -25.6110E-03     193.472E-03    -38.2238E-03     64.1534E-03    -25.8529E-03     193.943E-03
            1013     16.6542E-03     96.5580E-03    -4.48879E+06     149.759E+06     35.5006E+06    -621.804E+03    -31.4902E-03     57.3952E-03    -25.9050E-03     154.368E-03    -34.9286E-03     61.2464E-03    -25.9382E-03     156.008E-03
            1014     877.251E-06     96.4505E-03    -2.14097E+06    -43.4255E+06    -2.77630E+06    -3.66726E+06    -25.5611E-03     51.1430E-03    -25.5819E-03     5.88907E-03    -25.5048E-03     50.9333E-03    -25.5297E-03     5.83960E-03
            1015     1.75466E-03     96.4578E-03    -2.25445E+06    -44.7649E+06    -2.45156E+06    -6.06571E+06    -25.5236E-03     51.0761E-03    -25.5525E-03     10.8794E-03    -25.4668E-03     50.8594E-03    -25.4966E-03     10.7971E-03
            1016     2.63199E-03     96.4696E-03    -2.00317E+06    -46.1478E+06    -1.82862E+06    -9.21045E+06    -25.4509E-03     50.9700E-03    -25.5191E-03     16.2379E-03    -25.3921E-03     50.7456E-03    -25.4584E-03     16.1128E-03
            1017     3.50960E-03     96.4863E-03    -2.50925E+06    -46.8869E+06    -2.70149E+06    -11.4846E+06    -25.3512E-03     50.8156E-03    -25.4644E-03     21.7241E-03    -25.2933E-03     50.5901E-03    -25.4062E-03     21.5672E-03
            1018     4.38722E-03     96.5077E-03    -2.60942E+06    -49.1919E+06    -3.17561E+06    -13.3089E+06    -25.2510E-03     50.6524E-03    -25.4014E-03     27.3107E-03    -25.1906E-03     50.4173E-03    -25.3422E-03     27.1273E-03
            1019     5.26513E-03     96.5342E-03    -2.05011E+06    -48.2140E+06    -2.18969E+06    -14.6897E+06    -25.1605E-03     50.4925E-03    -25.3320E-03     33.0088E-03    -25.1016E-03     50.2615E-03    -25.2700E-03     32.8039E-03
            1020     6.14302E-03     96.5655E-03    -1.69038E+06    -48.4718E+06     286.215E+03    -14.6635E+06    -25.1046E-03     50.3730E-03    -25.2684E-03     38.7762E-03    -25.0493E-03     50.1388E-03    -25.1943E-03     38.5670E-03
            1021     7.02121E-03     96.6020E-03    -1.08988E+06    -47.7964E+06     2.40864E+06    -15.1660E+06    -25.1013E-03     50.3038E-03    -25.2024E-03     44.6456E-03    -25.0503E-03     50.0722E-03    -25.1195E-03     44.4238E-03
            1022     7.89937E-03     96.6435E-03    -822.431E+03    -47.3601E+06     3.77926E+06    -15.1571E+06    -25.1905E-03     50.3306E-03    -25.1401E-03     50.5996E-03    -25.1457E-03     50.1038E-03    -25.0514E-03     50.3700E-03
            1023     8.77765E-03     96.6905E-03    -888.160E+03    -47.8623E+06     4.48581E+06    -14.7282E+06    -25.4235E-03     50.5144E-03    -25.0909E-03     56.5512E-03    -25.3867E-03     50.2915E-03    -24.9978E-03     56.3167E-03
            1024     9.65566E-03     96.7423E-03    -531.794E+03    -47.7235E+06     3.59962E+06    -15.0863E+06    -25.8201E-03     50.8752E-03    -25.0551E-03     62.6112E-03    -25.7916E-03     50.6650E-03    -24.9672E-03     62.3582E-03
            1025     10.5335E-03     96.8002E-03    -285.803E+03    -47.4695E+06     2.01933E+06    -14.5130E+06    -26.4020E-03     51.4484E-03    -25.0464E-03     68.4410E-03    -26.3872E-03     51.2582E-03    -24.9671E-03     68.1772E-03
            1026     11.4110E-03     96.8624E-03    -620.686E+03    -43.6813E+06     888.115E+03    -14.5167E+06    -27.2025E-03     52.2761E-03    -25.0736E-03     74.7713E-03    -27.2200E-03     52.1338E-03    -25.0049E-03     74.4836E-03
            1027     12.2876E-03     96.9322E-03     67.1309E+03    -43.6904E+06    -2.03617E+06    -13.8882E+06    -28.3600E-03     53.5015E-03    -25.1415E-03     83.2132E-03    -28.4175E-03     53.4101E-03    -25.0885E-03     82.9003E-03
            1028     13.1635E-03     97.0108E-03     432.189E+03    -39.8153E+06    -7.91978E+06    -11.7115E+06    -29.3253E-03     54.5571E-03    -25.2319E-03     89.3443E-03    -29.4493E-03     54.5644E-03    -25.2143E-03     89.0221E-03
            1029     14.0393E-03     97.0920E-03    -1.76964E+06    -20.1480E+06    -8.72015E+06    -12.0546E+06    -30.2862E-03     55.6424E-03    -25.3562E-03     99.0878E-03    -30.5859E-03     55.8896E-03    -25.3680E-03     98.7281E-03
            1030     14.9135E-03     97.1911E-03    -5.60651E+06     144.777E+03    -19.2291E+06    -11.2526E+06    -33.2751E-03     58.7455E-03    -25.4704E-03     134.563E-03    -34.2316E-03     59.7384E-03    -25.5586E-03     134.203E-03
            1031     15.7860E-03     97.3402E-03    -6.83260E+06     64.2480E+06    -26.6788E+06    -5.76133E+06    -34.5360E-03     60.0384E-03    -25.5024E-03     192.216E-03    -37.7329E-03     63.5161E-03    -25.7190E-03     192.719E-03
            1032     16.6746E-03     97.5580E-03    -2.06483E+06     146.654E+06     38.2096E+06    -1.42183E+06    -30.1731E-03     55.9271E-03    -25.7541E-03     153.561E-03    -33.4842E-03     59.6408E-03    -25.7727E-03     155.229E-03
            1033     877.708E-06     97.4481E-03    -934.222E+03    -36.2663E+06    -991.040E+03    -3.92142E+06    -25.1305E-03     50.2650E-03    -25.1346E-03     5.94063E-03    -25.0810E-03     50.0867E-03    -25.0856E-03     5.88810E-03
            1034     1.75534E-03     97.4551E-03    -582.970E+03    -37.7631E+06    -1.22910E+06    -6.62711E+06    -25.0726E-03     50.1818E-03    -25.1092E-03     11.0102E-03    -25.0192E-03     49.9959E-03    -25.0598E-03     10.9211E-03
            1035     2.63323E-03     97.4669E-03    -375.506E+03    -39.3885E+06    -955.331E+03    -9.42232E+06    -24.9883E-03     50.0569E-03    -25.0687E-03     16.4198E-03    -24.9323E-03     49.8626E-03    -25.0158E-03     16.2926E-03
            1036     3.51109E-03     97.4833E-03     143.480E+03    -41.8737E+06    -214.215E+03    -11.3708E+06    -24.8816E-03     49.8985E-03    -25.0169E-03     21.9643E-03    -24.8212E-03     49.6905E-03    -24.9574E-03     21.8098E-03
            1037     4.38924E-03     97.5045E-03     188.807E+03    -43.5604E+06    -861.207E+03    -13.4558E+06    -24.7586E-03     49.7031E-03    -24.9445E-03     27.6456E-03    -24.6954E-03     49.4885E-03    -24.8860E-03     27.4616E-03
            1038     5.26747E-03     97.5306E-03    -569.810E+03    -45.1148E+06    -1.69535E+06    -14.5398E+06    -24.6458E-03     49.5083E-03    -24.8625E-03     33.4679E-03    -24.5843E-03     49.2896E-03    -24.8048E-03     33.2667E-03
            1039     6.14601E-03     97.5619E-03    -575.577E+03    -45.8318E+06    -231.797E+03    -15.0379E+06    -24.5776E-03     49.3633E-03    -24.7856E-03     39.3981E-03    -24.5193E-03     49.1408E-03    -24.7195E-03     39.1862E-03
            1040     7.02454E-03     97.5980E-03    -338.660E+03    -45.3294E+06     2.30285E+06    -15.0241E+06    -24.5831E-03     49.2977E-03    -24.7146E-03     45.4526E-03    -24.5311E-03     49.0769E-03    -24.6368E-03     45.2354E-03
            1041     7.90326E-03     97.6397E-03    -526.346E+03    -46.4411E+06     3.85942E+06    -14.3778E+06    -24.6983E-03     49.3496E-03    -24.6513E-03     51.6103E-03    -24.6525E-03     49.1258E-03    -24.5639E-03     51.3939E-03
            1042     8.78187E-03     97.6864E-03    -421.071E+03    -45.7395E+06     4.29741E+06    -14.3475E+06    -24.9794E-03     49.5770E-03    -24.5976E-03     57.8878E-03    -24.9418E-03     49.3631E-03    -24.5092E-03     57.6618E-03
            1043     9.66035E-03     97.7390E-03    -940.773E+03    -46.1980E+06     3.80045E+06    -14.2898E+06    -25.4669E-03     50.0372E-03    -24.5703E-03     64.2293E-03    -25.4416E-03     49.8336E-03    -24.4830E-03     63.9904E-03
            1044     10.5385E-03     97.7966E-03    -1.27643E+06    -46.3823E+06     2.26022E+06    -14.5733E+06    -26.1944E-03     50.7701E-03    -24.5757E-03     70.4313E-03    -26.1852E-03     50.5852E-03    -24.4953E-03     70.1706E-03
            1045     11.4160E-03     97.8606E-03    -700.942E+03    -42.3042E+06     2.17034E+06    -14.2834E+06    -27.1836E-03     51.8118E-03    -24.6282E-03     77.1455E-03    -27.2047E-03     51.6739E-03    -24.5550E-03     76.8639E-03
            1046     12.2929E-03     97.9305E-03    -1.18561E+06    -43.5576E+06    -675.617E+03    -14.2822E+06    -28.4045E-03     53.1309E-03    -24.7263E-03     85.9618E-03    -28.4703E-03     53.0398E-03    -24.6648E-03     85.6467E-03
            1047     13.1690E-03     98.0110E-03    -849.767E+03    -42.0424E+06    -7.38491E+06    -12.8071E+06    -29.6339E-03     54.4822E-03    -24.8483E-03     92.1492E-03    -29.7628E-03     54.4802E-03    -24.8230E-03     91.8140E-03
            1048     14.0433E-03     98.0928E-03    -292.599E+03    -19.3591E+06    -4.34242E+06    -9.84821E+06    -31.0977E-03     56.1319E-03    -25.0341E-03     102.049E-03    -31.4063E-03     56.3833E-03    -25.0274E-03     101.711E-03
            1049     14.9188E-03     98.1923E-03    -3.19675E+06    -1.29467E+06    -12.0437E+06    -7.75361E+06    -34.2022E-03     59.4255E-03    -25.2233E-03     138.276E-03    -35.1663E-03     60.4086E-03    -25.2770E-03     137.954E-03
            1050     15.7911E-03     98.3477E-03    -4.69388E+06     58.8345E+06    -24.1125E+06    -6.01131E+06    -36.0519E-03     61.3759E-03    -25.3239E-03     189.827E-03    -39.2799E-03     64.8656E-03    -25.5230E-03     190.296E-03
            1051     16.6577E-03     98.5438E-03    -2.02965E+06     144.048E+06     38.2934E+06    -3.08108E+06    -31.0815E-03     56.7405E-03    -25.6590E-03     151.668E-03    -34.4800E-03     60.5321E-03    -25.6735E-03     153.312E-03
            1052     878.104E-06     98.4445E-03     989.986E+03    -28.6105E+06     983.089E+03    -3.98687E+06    -24.5603E-03     49.1252E-03    -24.5649E-03     6.02093E-03    -24.5152E-03     48.9795E-03    -24.5199E-03     5.96784E-03
            1053     1.75642E-03     98.4516E-03     952.718E+03    -30.2736E+06     263.997E+03    -7.02363E+06    -24.4983E-03     49.0354E-03    -24.5371E-03     11.1296E-03    -24.4503E-03     48.8825E-03    -24.4933E-03     11.0359E-03
            1054     2.63465E-03     98.4631E-03     768.881E+03    -33.0650E+06    -538.277E+03    -9.76531E+06    -24.3979E-03     48.8877E-03    -24.4898E-03     16.6081E-03    -24.3459E-03     48.7226E-03    -24.4457E-03     16.4774E-03
            1055     3.51317E-03     98.4793E-03     711.441E+03    -36.2490E+06    -898.495E+03    -12.1394E+06    -24.2710E-03     48.6985E-03    -24.4275E-03     22.2505E-03    -24.2147E-03     48.5187E-03    -24.3805E-03     22.0873E-03
            1056     4.39176E-03     98.5002E-03     766.428E+03    -39.0386E+06    -542.036E+03    -13.3632E+06    -24.1365E-03     48.4907E-03    -24.3542E-03     28.0345E-03    -24.0772E-03     48.2970E-03    -24.3014E-03     27.8533E-03
            1057     5.27064E-03     98.5261E-03     425.191E+03    -41.9682E+06    -949.605E+03    -13.8860E+06    -24.0125E-03     48.2805E-03    -24.2680E-03     33.9787E-03    -23.9512E-03     48.0745E-03    -24.2125E-03     33.7879E-03
            1058     6.14959E-03     98.5570E-03    -698.740E+03    -42.4350E+06    -1.66913E+06    -14.6702E+06    -23.9272E-03     48.1005E-03    -24.1734E-03     40.1045E-03    -23.8716E-03     47.8967E-03    -24.1192E-03     39.8999E-03
            1059     7.02883E-03     98.5932E-03    -1.94081E+06    -44.7416E+06    -162.222E+03    -14.0946E+06    -23.9427E-03     48.0390E-03    -24.0963E-03     46.3731E-03    -23.8950E-03     47.8260E-03    -24.0295E-03     46.1709E-03
            1060     7.90802E-03     98.6345E-03    -2.63377E+06    -44.4422E+06     1.93928E+06    -13.6084E+06    -24.0940E-03     48.1250E-03    -24.0310E-03     52.8079E-03    -24.0577E-03     47.9159E-03    -23.9530E-03     52.6051E-03
            1061     8.78723E-03     98.6817E-03    -3.67940E+06    -44.7666E+06     2.70088E+06    -13.2186E+06    -24.4378E-03     48.4215E-03    -23.9837E-03     59.3916E-03    -24.4142E-03     48.2180E-03    -23.8999E-03     59.1842E-03
            1062     9.66624E-03     98.7342E-03    -4.24012E+06    -44.0574E+06     3.58022E+06    -13.2733E+06    -25.0467E-03     49.0170E-03    -23.9702E-03     66.0663E-03    -25.0392E-03     48.8276E-03    -23.8823E-03     65.8448E-03
            1063     10.5446E-03     98.7931E-03    -4.31417E+06     -44.154E+06     3.13430E+06    -14.3494E+06    -25.9142E-03     49.9117E-03    -23.9975E-03     72.6179E-03    -25.9233E-03     49.7397E-03    -23.9115E-03     72.3642E-03
            1064     11.4226E-03     98.8573E-03    -4.93267E+06    -42.5175E+06     2.55295E+06    -14.0143E+06    -27.0529E-03     51.1297E-03    -24.0768E-03     79.6864E-03    -27.0945E-03     50.9955E-03    -23.9952E-03     79.4119E-03
            1065     12.2995E-03     98.9292E-03    -5.14966E+06    -41.2658E+06     922.615E+03    -13.8458E+06    -28.4822E-03     52.6915E-03    -24.2093E-03     88.4981E-03    -28.5741E-03     52.6159E-03    -24.1374E-03     88.1907E-03
            1066     13.1754E-03     99.0101E-03    -5.31452E+06    -43.1592E+06    -6.56070E+06    -14.4073E+06    -29.9590E-03     54.3346E-03    -24.3756E-03     94.6009E-03    -30.1121E-03     54.3347E-03    -24.3381E-03     94.2450E-03
            1067     14.0512E-03     99.0942E-03    -4.74518E+06    -22.7676E+06    -3.80457E+06    -11.5222E+06    -31.9042E-03     56.5262E-03    -24.6220E-03     104.881E-03    -32.2452E-03     56.7807E-03    -24.6011E-03     104.513E-03
            1068     14.9223E-03     99.1963E-03    -1.34764E+06    -3.97832E+06    -6.90525E+06    -6.86917E+06    -33.9793E-03     58.8379E-03    -24.8587E-03     140.834E-03    -34.9403E-03     59.8000E-03    -24.8855E-03     140.534E-03
            1069     15.7966E-03     99.3498E-03    -1.62298E+06     58.9588E+06    -15.7317E+06    -4.67902E+06    -38.1682E-03     63.1962E-03    -25.0280E-03     194.549E-03    -41.6042E-03     66.8815E-03    -25.1898E-03     194.980E-03
            1070     16.6743E-03     99.5550E-03    -5.01826E+06     142.416E+06     42.8176E+06    -2.62866E+06    -35.1762E-03     60.6992E-03    -25.5230E-03     150.386E-03    -38.7864E-03     64.6732E-03    -25.5082E-03     151.895E-03
            1071     878.854E-06     99.4399E-03     3.91985E+06    -20.4586E+06     3.67255E+06    -3.93907E+06    -23.8490E-03     47.7195E-03    -23.8705E-03     6.07792E-03    -23.8050E-03     47.6064E-03    -23.8282E-03     6.02578E-03
            1072     1.75754E-03     99.4467E-03     3.46519E+06    -22.8391E+06     2.32148E+06    -7.11876E+06    -23.7819E-03     47.6109E-03    -23.8290E-03     11.2542E-03    -23.7350E-03     47.4885E-03    -23.7893E-03     11.1599E-03
            1073     2.63657E-03     99.4581E-03     2.72573E+06    -26.5401E+06     630.614E+03    -9.76703E+06    -23.6668E-03     47.4399E-03    -23.7731E-03     16.8151E-03    -23.6161E-03     47.3028E-03    -23.7354E-03     16.6853E-03
            1074     3.51562E-03     99.4740E-03     1.46125E+06    -30.5732E+06    -1.21429E+06    -11.8748E+06    -23.5238E-03     47.2233E-03    -23.6995E-03     22.5426E-03    -23.4714E-03     47.0710E-03    -23.6633E-03     22.3841E-03
            1075     4.39498E-03     99.4947E-03    -159.596E+03    -35.6141E+06    -2.88441E+06    -12.9387E+06    -23.3722E-03     46.9866E-03    -23.6144E-03     28.4392E-03    -23.3188E-03     46.8145E-03    -23.5770E-03     28.2652E-03
            1076     5.27442E-03     99.5202E-03    -1.63353E+06    -38.9610E+06    -3.89852E+06    -13.1729E+06    -23.2358E-03     46.7561E-03    -23.5203E-03     34.5344E-03    -23.1845E-03     46.5719E-03    -23.4809E-03     34.3550E-03
            1077     6.15421E-03     99.5509E-03    -3.57610E+06    -40.2371E+06    -4.57011E+06    -12.6838E+06    -23.1560E-03     46.5785E-03    -23.4225E-03     40.8432E-03    -23.1131E-03     46.3932E-03    -23.3818E-03     40.6670E-03
            1078     7.03402E-03     99.5867E-03    -5.63195E+06    -43.5313E+06    -3.41368E+06    -12.5065E+06    -23.1941E-03     46.5373E-03    -23.3433E-03     47.3460E-03    -23.1609E-03     46.3395E-03    -23.2890E-03     47.1676E-03
            1079     7.91396E-03     99.6283E-03    -7.78392E+06    -43.7601E+06    -769.287E+03    -11.4270E+06    -23.4019E-03     46.6869E-03    -23.2850E-03     54.0363E-03    -23.3871E-03     46.4913E-03    -23.2141E-03     53.8654E-03
            1080     8.79375E-03     99.6754E-03    -9.58718E+06    -43.1618E+06     1.83718E+06    -11.0364E+06    -23.8540E-03     47.1097E-03    -23.2557E-03     60.9050E-03    -23.8595E-03     46.9226E-03    -23.1700E-03     60.7298E-03
            1081     9.67312E-03     99.7288E-03    -10.3156E+06    -40.9805E+06     2.70370E+06    -12.6118E+06    -24.5864E-03     47.8438E-03    -23.2574E-03     67.9648E-03    -24.6109E-03     47.6783E-03    -23.1695E-03     67.7560E-03
            1082     10.5521E-03     99.7882E-03    -11.0420E+06    -42.8128E+06     2.52013E+06    -12.9190E+06    -25.6406E-03     48.9558E-03    -23.3152E-03     74.7603E-03    -25.6830E-03     48.7998E-03    -23.2245E-03     74.5289E-03
            1083     11.4301E-03     99.8537E-03    -11.3452E+06    -40.9072E+06     2.35031E+06    -13.5224E+06    -27.0289E-03     50.4619E-03    -23.4330E-03     82.0600E-03    -27.1044E-03     50.3451E-03    -23.3455E-03     81.7945E-03
            1084     12.3071E-03     99.9270E-03    -10.1994E+06    -39.2839E+06     884.497E+03    -14.7411E+06    -28.7371E-03     52.3504E-03    -23.6132E-03     90.8789E-03    -28.8581E-03     52.2932E-03    -23.5371E-03     90.5610E-03
            1085     13.1828E-03     100.010E-03    -9.11019E+06    -42.5721E+06    -5.36796E+06    -14.6123E+06    -30.7443E-03     54.5986E-03    -23.8543E-03     97.0237E-03    -30.9254E-03     54.6119E-03    -23.8062E-03     96.6603E-03
            1086     14.0558E-03     100.095E-03    -8.13482E+06    -24.7754E+06    -3.62651E+06    -13.8999E+06    -32.4903E-03     56.6595E-03    -24.1692E-03     106.956E-03    -32.8536E-03     56.9166E-03    -24.1396E-03     106.554E-03
            1087     14.9309E-03     100.200E-03    -5.36683E+06    -9.23941E+06    -7.85320E+06    -12.0507E+06    -34.5025E-03     58.9702E-03    -24.4677E-03     139.147E-03    -35.4710E-03     59.9096E-03    -24.4858E-03     138.771E-03
            1088     15.8077E-03     100.348E-03    -4.82280E+06     55.6541E+06    -14.4125E+06    -4.74642E+06    -38.1763E-03     62.8523E-03    -24.6760E-03     196.879E-03    -41.6011E-03     66.4992E-03    -24.8218E-03     197.313E-03
            1089     16.6665E-03     100.574E-03    -6.13162E+06     140.806E+06     43.5169E+06    -68.4612E+03    -37.5764E-03     62.7977E-03    -25.2213E-03     151.080E-03    -41.1066E-03     66.6804E-03    -25.1990E-03     152.496E-03
            1090     879.405E-06     100.434E-03     7.16387E+06    -12.4289E+06     6.66791E+06    -3.80896E+06    -22.9968E-03     46.0215E-03    -23.0247E-03     6.13802E-03    -22.9525E-03     45.9395E-03    -22.9838E-03     6.08788E-03
            1091     1.75916E-03     100.440E-03     6.06590E+06    -15.7137E+06     4.49271E+06    -6.73093E+06    -22.9102E-03     45.8829E-03    -22.9727E-03     11.3760E-03    -22.8638E-03     45.7892E-03    -22.9363E-03     11.2873E-03
            1092     2.63878E-03     100.451E-03     4.38314E+06    -20.3606E+06     1.54770E+06    -9.11299E+06    -22.7896E-03     45.6956E-03    -22.9061E-03     17.0014E-03    -22.7408E-03     45.5856E-03    -22.8752E-03     16.8810E-03
            1093     3.51873E-03     100.467E-03     2.06130E+06    -26.0819E+06    -2.12334E+06    -10.4033E+06    -22.6368E-03     45.4589E-03    -22.8221E-03     22.8190E-03    -22.5864E-03     45.3293E-03    -22.7979E-03     22.6808E-03
            1094     4.39874E-03     100.487E-03    -1.05422E+06    -32.3249E+06    -5.33657E+06    -10.9005E+06    -22.4768E-03     45.2051E-03    -22.7283E-03     28.8284E-03    -22.4287E-03     45.0539E-03    -22.7066E-03     28.6825E-03
            1095     5.27913E-03     100.513E-03    -4.90908E+06    -37.2345E+06    -7.26060E+06    -10.5924E+06    -22.3486E-03     44.9811E-03    -22.6325E-03     35.0558E-03    -22.3107E-03     44.8146E-03    -22.6077E-03     34.9119E-03
            1096     6.15955E-03     100.543E-03    -8.36565E+06    -38.9945E+06    -7.33231E+06    -9.91499E+06    -22.2970E-03     44.8388E-03    -22.5418E-03     41.5209E-03    -22.2751E-03     44.6700E-03    -22.5098E-03     41.3831E-03
            1097     7.04021E-03     100.579E-03    -11.5129E+06    -42.1568E+06    -5.06781E+06    -9.27465E+06    -22.3945E-03     44.8706E-03    -22.4761E-03     48.2214E-03    -22.3893E-03     44.6895E-03    -22.4236E-03     48.0879E-03
            1098     7.92076E-03     100.620E-03    -13.6851E+06    -44.0729E+06    -1.86590E+06    -8.51327E+06    -22.6973E-03     45.1336E-03    -22.4362E-03     55.1592E-03    -22.7087E-03     44.9452E-03    -22.3618E-03     55.0294E-03
            1099     8.80111E-03     100.668E-03    -14.0026E+06    -39.7563E+06     1.51676E+06    -9.35107E+06    -23.2639E-03     45.6867E-03    -22.4228E-03     62.3740E-03    -23.2945E-03     45.5220E-03    -22.3373E-03     62.2244E-03
            1100     9.68111E-03     100.722E-03    -14.6219E+06    -38.8629E+06     2.76989E+06    -10.3129E+06    -24.1757E-03     46.6317E-03    -22.4559E-03     69.7281E-03    -24.2233E-03     46.4813E-03    -22.3645E-03     69.5528E-03
            1101     10.5602E-03     100.783E-03    -15.4458E+06    -41.1868E+06     2.41296E+06    -11.0179E+06    -25.4922E-03     48.0456E-03    -22.5535E-03     76.8924E-03    -25.5578E-03     47.9032E-03    -22.4593E-03     76.6888E-03
            1102     11.4383E-03     100.849E-03    -14.7018E+06    -36.4227E+06     2.89322E+06    -13.6203E+06    -27.1490E-03     49.8702E-03    -22.7212E-03     84.4731E-03    -27.2484E-03     49.7798E-03    -22.6326E-03     84.2086E-03
            1103     12.3150E-03     100.924E-03    -13.4751E+06    -37.8722E+06     1.06123E+06    -15.4618E+06    -29.2864E-03     52.2582E-03    -22.9718E-03     93.5117E-03    -29.4279E-03     52.2145E-03    -22.8921E-03     93.1840E-03
            1104     13.1901E-03     101.009E-03    -12.3810E+06    -41.9702E+06    -5.57006E+06    -15.4517E+06    -31.6138E-03     54.9080E-03    -23.2942E-03     99.9954E-03    -31.8169E-03     54.9343E-03    -23.2432E-03     99.6177E-03
            1105     14.0636E-03     101.099E-03    -10.1883E+06    -23.3156E+06    -2.77864E+06    -15.8620E+06    -33.6509E-03     57.3538E-03    -23.7029E-03     108.619E-03    -34.0301E-03     57.6222E-03    -23.6682E-03     108.185E-03
            1106     14.9353E-03     101.200E-03    -9.81424E+06    -13.6116E+06    -8.83310E+06    -13.9956E+06    -37.8404E-03     61.9983E-03    -24.1578E-03     139.864E-03    -38.8587E-03     62.9592E-03    -24.1680E-03     139.400E-03
            1107     15.8001E-03     101.356E-03    -8.33824E+06     44.7644E+06    -23.6653E+06     -7.6943E+06    -38.6174E-03     63.0868E-03    -24.4694E-03     190.472E-03    -41.7909E-03     66.4571E-03    -24.6406E-03     190.836E-03
            1108     16.6932E-03     101.569E-03    -2.35897E+06     136.675E+06     37.9594E+06    -1.43597E+06    -36.4707E-03     61.4993E-03    -25.0286E-03     150.905E-03    -39.7674E-03     65.1634E-03    -25.0335E-03     152.346E-03
            1109     880.498E-06     101.426E-03     5.91351E+06    -5.28684E+06     5.80835E+06    -3.08745E+06    -21.9765E-03     43.9703E-03    -21.9938E-03     6.18075E-03    -21.9475E-03     43.9270E-03    -21.9657E-03     6.14024E-03
            1110     1.76080E-03     101.432E-03     4.32617E+06    -9.16977E+06     2.65775E+06    -5.70056E+06    -21.8910E-03     43.8377E-03    -21.9466E-03     11.4729E-03    -21.8601E-03     43.7817E-03    -21.9263E-03     11.3981E-03
            1111     2.64151E-03     101.443E-03     1.58921E+06    -15.4833E+06    -2.22384E+06    -7.43394E+06    -21.7555E-03     43.6298E-03    -21.8743E-03     17.1508E-03    -21.7221E-03     43.5535E-03    -21.8653E-03     17.0530E-03
            1112     3.52223E-03     101.458E-03    -2.40454E+06    -23.1985E+06    -7.37861E+06    -7.79744E+06    -21.6045E-03     43.3910E-03    -21.7864E-03     23.0405E-03    -21.5728E-03     43.2896E-03    -21.7862E-03     22.9373E-03
            1113     4.40331E-03     101.478E-03    -7.39052E+06    -30.8508E+06    -10.8362E+06    -6.92025E+06    -21.4708E-03     43.1693E-03    -21.6985E-03     29.1311E-03    -21.4482E-03     43.0423E-03    -21.6973E-03     29.0381E-03
            1114     5.28439E-03     101.503E-03    -12.4516E+06    -36.2743E+06    -11.8652E+06    -5.99679E+06    -21.3865E-03     43.0044E-03    -21.6179E-03     35.4740E-03    -21.3805E-03     42.8598E-03    -21.6066E-03     35.3914E-03
            1115     6.16576E-03     101.534E-03    -16.9681E+06    -37.9737E+06    -10.6991E+06    -5.67090E+06    -21.3992E-03     42.9481E-03    -21.5489E-03     42.0955E-03    -21.4162E-03     42.8010E-03    -21.5228E-03     42.0149E-03
            1116     7.04706E-03     101.569E-03    -20.1111E+06    -41.8118E+06    -7.72294E+06    -5.22290E+06    -21.5879E-03     43.0957E-03    -21.5078E-03     48.9965E-03    -21.6214E-03     42.9317E-03    -21.4566E-03     48.9180E-03
            1117     7.92828E-03     101.611E-03    -21.0417E+06    -41.5384E+06    -4.17546E+06    -6.64107E+06    -21.9977E-03     43.4878E-03    -21.4901E-03     56.2313E-03    -22.0449E-03     43.3249E-03    -21.4203E-03     56.1289E-03
            1118     8.80926E-03     101.659E-03    -20.6003E+06    -37.2704E+06    -674.750E+03    -8.35155E+06    -22.7045E-03     44.2119E-03    -21.5074E-03     63.7876E-03    -22.7670E-03     44.0709E-03    -21.4269E-03     63.6545E-03
            1119     9.68957E-03     101.714E-03    -19.5074E+06    -37.7704E+06     1.77774E+06    -8.60198E+06    -23.8295E-03     45.4147E-03    -21.5852E-03     71.5263E-03    -23.9002E-03     45.2769E-03    -21.4933E-03     71.3768E-03
            1120     10.5690E-03     101.776E-03    -17.5523E+06    -37.1103E+06     2.93134E+06    -10.6836E+06    -25.3751E-03     47.1055E-03    -21.7304E-03     79.2271E-03    -25.4567E-03     46.9846E-03    -21.6365E-03     79.0312E-03
            1121     11.4471E-03     101.845E-03    -15.5946E+06    -31.6818E+06     4.27792E+06    -13.8098E+06    -27.3588E-03     49.3181E-03    -21.9593E-03     87.2401E-03    -27.4712E-03     49.2503E-03    -21.8693E-03     86.9755E-03
            1122     12.3237E-03     101.922E-03    -13.9583E+06    -35.8466E+06     2.59745E+06    -15.7171E+06    -29.8663E-03     52.1532E-03    -22.2868E-03     96.9242E-03    -30.0176E-03     52.1202E-03    -22.2016E-03     96.5927E-03
            1123     13.1977E-03     102.010E-03    -11.7753E+06    -40.4910E+06    -4.28356E+06    -16.9687E+06    -32.4034E-03     55.0905E-03    -22.6870E-03     103.599E-03    -32.6097E-03     55.1238E-03    -22.6327E-03     103.201E-03
            1124     14.0705E-03     102.100E-03    -9.85485E+06    -22.0819E+06    -1.71747E+06    -17.2739E+06    -35.4974E-03     58.6994E-03    -23.2020E-03     112.448E-03    -35.8922E-03     58.9860E-03    -23.1642E-03     111.978E-03
            1125     14.9399E-03     102.208E-03    -8.76077E+06    -18.5478E+06    -8.36209E+06    -13.4706E+06    -39.8870E-03     63.6708E-03    -23.7838E-03     146.595E-03    -40.9197E-03     64.6309E-03    -23.7860E-03     146.110E-03
            1126     15.8083E-03     102.368E-03    -7.17377E+06     38.0265E+06    -23.9310E+06    -8.60432E+06    -42.7915E-03     67.0630E-03    -24.2715E-03     191.715E-03    -46.0058E-03     70.4556E-03    -24.4359E-03     191.852E-03
            1127     16.6631E-03     102.554E-03    -3.76365E+06     132.554E+06     36.6843E+06    -5.31348E+06    -38.3554E-03     63.3575E-03    -25.0021E-03     154.918E-03    -41.8287E-03     67.1821E-03    -25.0054E-03     156.254E-03
            1128     881.352E-06     102.415E-03     1.35027E+06     37.6638E+03     565.619E+03    -2.13385E+06    -20.7916E-03     41.6001E-03    -20.8085E-03     6.20507E-03    -20.7856E-03     41.5976E-03    -20.8077E-03     6.17717E-03
            1129     1.76299E-03     102.422E-03    -1.75360E+06    -4.47105E+06    -4.07014E+06    -3.38525E+06    -20.7132E-03     41.4702E-03    -20.7570E-03     11.5266E-03    -20.7097E-03     41.4562E-03    -20.7683E-03     11.4823E-03
            1130     2.64450E-03     102.432E-03    -6.89443E+06    -12.9482E+06    -9.89332E+06    -3.71527E+06    -20.5987E-03     41.2921E-03    -20.6935E-03     17.2371E-03    -20.6002E-03     41.2518E-03    -20.7142E-03     17.1882E-03
            1131     3.52638E-03     102.448E-03    -13.1696E+06    -22.5701E+06    -14.9775E+06    -2.71823E+06    -20.4848E-03     41.1094E-03    -20.6246E-03     23.1590E-03    -20.4965E-03     41.0376E-03    -20.6477E-03     23.1224E-03
            1132     4.40821E-03     102.467E-03    -19.2027E+06    -31.3132E+06    -17.8084E+06    -1.39099E+06    -20.4073E-03     40.9684E-03    -20.5611E-03     29.3104E-03    -20.4327E-03     40.8660E-03    -20.5769E-03     29.2902E-03
            1133     5.29035E-03     102.492E-03    -23.7551E+06    -35.5898E+06    -17.0377E+06    -916.449E+03    -20.3950E-03     40.9051E-03    -20.5102E-03     35.7556E-03    -20.4385E-03     40.7873E-03    -20.5093E-03     35.7404E-03
            1134     6.17239E-03     102.522E-03    -26.5442E+06    -37.4021E+06    -14.0460E+06    -1.04383E+06    -20.5003E-03     40.9757E-03    -20.4754E-03     42.5309E-03    -20.5605E-03     40.8495E-03    -20.4529E-03     42.5121E-03
            1135     7.05446E-03     102.558E-03    -27.2232E+06    -39.8711E+06    -10.2542E+06    -2.59681E+06    -20.7898E-03     41.2536E-03    -20.4639E-03     49.6829E-03    -20.8571E-03     41.1124E-03    -20.4178E-03     49.6408E-03
            1136     7.93635E-03     102.600E-03    -26.3378E+06    -37.3466E+06    -5.62061E+06    -5.37989E+06    -21.3235E-03     41.8040E-03    -20.4805E-03     57.2403E-03    -21.4001E-03     41.6707E-03    -20.4163E-03     57.1570E-03
            1137     8.81777E-03     102.649E-03    -24.9902E+06    -35.3940E+06    -1.62631E+06    -7.39605E+06    -22.1886E-03     42.7308E-03    -20.5422E-03     65.1835E-03    -22.2731E-03     42.6055E-03    -20.4627E-03     65.0660E-03
            1138     9.69856E-03     102.705E-03    -22.4433E+06    -35.3570E+06     1.07049E+06    -9.34888E+06    -23.4770E-03     44.1400E-03    -20.6630E-03     73.5006E-03    -23.5633E-03     44.0180E-03    -20.5738E-03     73.3450E-03
            1139     10.5782E-03     102.768E-03    -18.8214E+06    -32.1295E+06     3.85282E+06    -12.2179E+06    -25.2138E-03     46.0730E-03    -20.8593E-03     81.7688E-03    -25.3088E-03     45.9760E-03    -20.7661E-03     81.5568E-03
            1140     11.4566E-03     102.839E-03    -15.5089E+06    -28.2960E+06     5.86949E+06    -14.5228E+06    -27.4889E-03     48.6374E-03    -21.1485E-03     90.5481E-03    -27.6078E-03     48.5838E-03    -21.0556E-03     90.2769E-03
            1141     12.3325E-03     102.919E-03    -12.9609E+06    -32.5124E+06     4.83415E+06    -16.5426E+06    -30.1405E-03     51.6792E-03    -21.5386E-03     100.763E-03    -30.2958E-03     51.6591E-03    -21.4485E-03     100.423E-03
            1142     13.2075E-03     103.009E-03    -10.9593E+06    -37.8975E+06    -2.54964E+06    -18.5988E+06    -33.1519E-03     55.1590E-03    -22.0071E-03     108.186E-03    -33.3660E-03     55.2072E-03    -21.9490E-03     107.762E-03
            1143     14.0789E-03     103.104E-03    -9.09563E+06    -22.2006E+06    -252.929E+03    -18.6389E+06    -36.8232E-03     59.4361E-03    -22.6129E-03     118.607E-03    -37.2370E-03     59.7398E-03    -22.5688E-03     118.104E-03
            1144     14.9472E-03     103.216E-03    -6.62136E+06    -24.3283E+06    -7.16109E+06    -15.5858E+06    -39.9315E-03     63.1897E-03    -23.2582E-03     150.144E-03    -40.9303E-03     64.0995E-03    -23.2491E-03     149.634E-03
            1145     15.8187E-03     103.372E-03    -4.20570E+06     33.7316E+06    -19.0889E+06    -10.2423E+06    -45.0337E-03     68.8576E-03    -23.8239E-03     200.095E-03    -48.4587E-03     72.4430E-03    -23.9621E-03     200.118E-03
            1146     16.6882E-03     103.588E-03    -4.42715E+06     129.776E+06     40.6049E+06    -5.81573E+06    -43.6537E-03     68.3894E-03    -24.7357E-03     158.485E-03    -47.3338E-03     72.3972E-03    -24.7144E-03     159.607E-03
            1147     882.639E-06     103.403E-03    -6.90061E+06     1.97815E+06    -7.18091E+06     111.719E+03    -19.4885E-03     38.9888E-03    -19.5003E-03     6.19215E-03    -19.5154E-03     39.0192E-03    -19.5290E-03     6.19347E-03
            1148     1.76515E-03     103.409E-03    -11.7414E+06    -3.91565E+06    -12.7329E+06     1.03789E+06    -19.4330E-03     38.8925E-03    -19.4596E-03     11.4666E-03    -19.4676E-03     38.9084E-03    -19.5005E-03     11.4798E-03
            1149     2.64800E-03     103.420E-03    -18.0220E+06    -13.9607E+06    -16.4370E+06     2.84681E+06    -19.3826E-03     38.8126E-03    -19.4300E-03     17.1611E-03    -19.4287E-03     38.7928E-03    -19.4658E-03     17.1974E-03
            1150     3.53066E-03     103.434E-03    -24.0107E+06    -24.0803E+06    -18.7592E+06     4.26237E+06    -19.3495E-03     38.7541E-03    -19.4046E-03     23.1171E-03    -19.4076E-03     38.6958E-03    -19.4287E-03     23.1715E-03
            1151     4.41362E-03     103.454E-03    -28.3428E+06    -31.9723E+06    -19.2933E+06     4.50285E+06    -19.3606E-03     38.7438E-03    -19.3832E-03     29.3406E-03    -19.4283E-03     38.6533E-03    -19.3922E-03     29.3976E-03
            1152     5.29641E-03     103.479E-03    -30.8989E+06    -35.0795E+06    -18.0906E+06     3.75080E+06    -19.4343E-03     38.8005E-03    -19.3662E-03     35.8856E-03    -19.5124E-03     38.6967E-03    -19.3610E-03     35.9319E-03
            1153     6.17937E-03     103.509E-03    -31.5650E+06    -35.8814E+06    -15.5853E+06     1.92754E+06    -19.6208E-03     38.9816E-03    -19.3608E-03     42.8340E-03    -19.7055E-03     38.8720E-03    -19.3409E-03     42.8551E-03
            1154     7.06215E-03     103.545E-03    -30.4777E+06    -35.5748E+06    -11.0032E+06    -1.49624E+06    -20.0062E-03     39.3894E-03    -19.3832E-03     50.2597E-03    -20.0941E-03     39.2747E-03    -19.3424E-03     50.2339E-03
            1155     7.94463E-03     103.587E-03    -28.3049E+06    -33.6781E+06    -5.78640E+06    -4.91424E+06    -20.6540E-03     40.0942E-03    -19.4402E-03     58.1713E-03    -20.7444E-03     39.9813E-03    -19.3793E-03     58.0966E-03
            1156     8.82667E-03     103.637E-03    -25.1534E+06    -32.1454E+06    -1.14383E+06    -7.67429E+06    -21.6538E-03     41.1977E-03    -19.5439E-03     66.5948E-03    -21.7431E-03     41.0869E-03    -19.4665E-03     66.4768E-03
            1157     9.70784E-03     103.694E-03    -21.1569E+06    -30.7368E+06     2.52847E+06    -11.2422E+06    -23.0679E-03     42.7758E-03    -19.7079E-03     75.5029E-03    -23.1549E-03     42.6713E-03    -19.6201E-03     75.3265E-03
            1158     10.5879E-03     103.759E-03    -17.2966E+06    -28.2597E+06     5.24136E+06    -14.0532E+06    -24.9661E-03     44.9149E-03    -19.9488E-03     84.4956E-03    -25.0596E-03     44.8315E-03    -19.8565E-03     84.2637E-03
            1159     11.4663E-03     103.833E-03    -14.2850E+06    -25.3137E+06     7.37743E+06    -15.6918E+06    -27.3806E-03     47.6663E-03    -20.2858E-03     94.0690E-03    -27.4990E-03     47.6228E-03    -20.1915E-03     93.7864E-03
            1160     12.3432E-03     103.916E-03    -11.8556E+06    -28.9289E+06     6.64809E+06    -17.4758E+06    -30.3277E-03     51.0557E-03    -20.7279E-03     104.649E-03    -30.4861E-03     51.0501E-03    -20.6356E-03     104.298E-03
            1161     13.2172E-03     104.009E-03    -10.3347E+06    -34.4947E+06    -582.490E+03    -19.4034E+06    -33.9283E-03     55.1965E-03    -21.2682E-03     112.906E-03    -34.1558E-03     55.2668E-03    -21.2061E-03     112.467E-03
            1162     14.0886E-03     104.109E-03    -9.75570E+06    -21.8462E+06     992.851E+03    -20.0184E+06    -37.4148E-03     59.3642E-03    -21.9495E-03     123.003E-03    -37.8444E-03     59.6790E-03    -21.8987E-03     122.477E-03
            1163     14.9581E-03     104.224E-03    -7.98215E+06    -27.7314E+06    -6.84498E+06    -18.7929E+06    -41.6721E-03     64.3651E-03    -22.6930E-03     151.415E-03    -42.6987E-03     65.2852E-03    -22.6754E-03     150.822E-03
            1164     15.8245E-03     104.378E-03    -5.92460E+06     26.3833E+06    -17.0485E+06    -14.0435E+06    -46.6473E-03     70.0402E-03    -23.3929E-03     200.588E-03    -50.1079E-03     73.6232E-03    -23.5078E-03     200.516E-03
            1165     16.6879E-03     104.602E-03    -5.29262E+06     122.812E+06     41.6902E+06    -5.78987E+06    -46.7061E-03     71.1477E-03    -24.4417E-03     152.625E-03    -50.2810E-03     75.0194E-03    -24.4036E-03     153.530E-03
            1166     883.714E-06     104.387E-03    -24.0291E+06    -3.63321E+06    -20.9885E+06     5.91852E+06    -18.1252E-03     36.2666E-03    -18.1414E-03     6.06167E-03    -18.2095E-03     36.3138E-03    -18.2062E-03     6.13807E-03
            1167     1.76763E-03     104.394E-03    -28.9335E+06    -8.48374E+06    -22.7913E+06     8.37159E+06    -18.1407E-03     36.2847E-03    -18.1441E-03     11.2692E-03    -18.2400E-03     36.3172E-03    -18.2038E-03     11.3773E-03
            1168     2.65128E-03     104.404E-03    -32.7666E+06    -17.9465E+06    -23.2156E+06     9.90046E+06    -18.1669E-03     36.3284E-03    -18.1615E-03     16.9362E-03    -18.2711E-03     36.3197E-03    -18.2040E-03     17.0639E-03
            1169     3.53520E-03     104.419E-03    -34.5931E+06    -26.3860E+06    -22.0704E+06     10.1774E+06    -18.2280E-03     36.4092E-03    -18.1812E-03     22.9108E-03    -18.3307E-03     36.3593E-03    -18.2031E-03     23.0421E-03
            1170     4.41885E-03     104.438E-03    -35.1984E+06    -32.1110E+06    -20.4753E+06     8.96400E+06    -18.3333E-03     36.5332E-03    -18.1999E-03     29.2136E-03    -18.4331E-03     36.4534E-03    -18.2047E-03     29.3288E-03
            1171     5.30267E-03     104.463E-03    -34.3417E+06    -33.5363E+06    -18.5055E+06     6.30129E+06    -18.4951E-03     36.7128E-03    -18.2177E-03     35.8771E-03    -18.5917E-03     36.6220E-03    -18.2118E-03     35.9573E-03
            1172     6.18628E-03     104.493E-03    -32.0038E+06    -32.7226E+06    -14.9408E+06     2.75697E+06    -18.7710E-03     37.0197E-03    -18.2487E-03     43.0036E-03    -18.8629E-03     36.9251E-03    -18.2296E-03     43.0368E-03
            1173     7.06980E-03     104.530E-03    -29.3065E+06    -30.7454E+06    -10.0178E+06    -1.16971E+06    -19.2287E-03     37.5336E-03    -18.3049E-03     50.6957E-03    -19.3184E-03     37.4391E-03    -18.2679E-03     50.6759E-03
            1174     7.95298E-03     104.573E-03    -26.6329E+06    -29.4179E+06    -4.89981E+06    -5.12004E+06    -19.9628E-03     38.3601E-03    -18.3973E-03     58.9756E-03    -20.0513E-03     38.2637E-03    -18.3405E-03     58.9006E-03
            1175     8.83558E-03     104.624E-03    -23.3551E+06    -27.4738E+06    -60.9630E+03    -9.04944E+06    -21.0501E-03     39.5867E-03    -18.5366E-03     67.9058E-03    -21.1373E-03     39.4936E-03    -18.4632E-03     67.7729E-03
            1176     9.71733E-03     104.682E-03    -20.0150E+06    -25.1507E+06     3.64625E+06    -12.9003E+06    -22.5497E-03     41.2849E-03    -18.7353E-03     77.4049E-03    -22.6389E-03     41.2032E-03    -18.6515E-03     77.2108E-03
            1177     10.5979E-03     104.749E-03    -16.8346E+06    -25.0708E+06     5.64511E+06    -15.7342E+06    -24.5780E-03     43.5901E-03    -19.0121E-03     87.1771E-03    -24.6725E-03     43.5194E-03    -18.9231E-03     86.9277E-03
            1178     11.4769E-03     104.825E-03    -13.7895E+06    -22.6875E+06     7.70247E+06    -16.9135E+06    -27.1727E-03     46.5601E-03    -19.3874E-03     97.3540E-03    -27.2912E-03     46.5269E-03    -19.2960E-03     97.0599E-03
            1179     12.3536E-03     104.911E-03    -10.8888E+06    -24.6798E+06     7.85806E+06    -18.8227E+06    -30.6413E-03     50.5255E-03    -19.8843E-03     108.709E-03    -30.8044E-03     50.5398E-03    -19.7934E-03     108.342E-03
            1180     13.2278E-03     105.009E-03    -8.74081E+06    -32.4335E+06     806.560E+03    -20.0502E+06    -34.7376E-03     55.2407E-03    -20.5031E-03     117.787E-03    -34.9687E-03     55.3235E-03    -20.4394E-03     117.337E-03
            1181     14.0976E-03     105.113E-03    -8.05704E+06    -20.4840E+06     2.73300E+06    -19.3508E+06    -38.6864E-03     59.9685E-03    -21.2820E-03     126.533E-03    -39.1199E-03     60.2931E-03    -21.2270E-03     126.006E-03
            1182     14.9663E-03     105.229E-03    -7.26916E+06    -26.2178E+06    -4.83149E+06    -20.2911E+06    -45.1280E-03     67.3144E-03    -22.1865E-03     155.164E-03    -46.2028E-03     68.2852E-03    -22.1621E-03     154.481E-03
            1183     15.8278E-03     105.396E-03    -6.08015E+06     16.8046E+06    -15.4168E+06    -16.4201E+06    -51.0693E-03     74.2013E-03    -23.1320E-03     201.555E-03    -54.4756E-03     77.6908E-03    -23.2247E-03     201.242E-03
            1184     16.6901E-03     105.612E-03    -3.99933E+06     111.369E+06     42.4375E+06    -6.38057E+06    -48.4204E-03     72.7684E-03    -24.3480E-03     155.339E-03    -51.9566E-03     76.5628E-03    -24.2915E-03     156.111E-03
            1185     885.012E-06     105.370E-03    -42.2758E+06    -19.6294E+06    -38.9967E+06     10.7262E+06    -16.8722E-03     33.7617E-03    -16.8895E-03     5.84879E-03    -16.9984E-03     33.7815E-03    -16.9948E-03     5.98727E-03
            1186     1.76971E-03     105.376E-03    -41.9067E+06    -18.1697E+06    -31.4304E+06     15.7772E+06    -16.9236E-03     33.8528E-03    -16.9292E-03     10.9435E-03    -17.0612E-03     33.8682E-03    -16.9992E-03     11.1473E-03
            1187     2.65461E-03     105.386E-03    -41.9363E+06    -22.2826E+06    -26.4807E+06     15.9366E+06    -17.0266E-03     34.0068E-03    -16.9802E-03     16.6146E-03    -17.1655E-03     33.9944E-03    -17.0195E-03     16.8205E-03
            1188     3.53920E-03     105.401E-03    -40.8326E+06    -28.0274E+06    -24.1866E+06     13.5873E+06    -17.1701E-03     34.1966E-03    -17.0265E-03     22.6106E-03    -17.2985E-03     34.1506E-03    -17.0475E-03     22.7861E-03
            1189     4.42399E-03     105.421E-03    -37.5863E+06    -30.7819E+06    -21.7982E+06     10.0410E+06    -17.3421E-03     34.4118E-03    -17.0697E-03     28.9435E-03    -17.4538E-03     34.3439E-03    -17.0795E-03     29.0731E-03
            1190     5.30850E-03     105.446E-03    -33.4603E+06    -30.7281E+06    -18.4212E+06     5.97390E+06    -17.5779E-03     34.6952E-03    -17.1172E-03     35.6962E-03    -17.6742E-03     34.6169E-03    -17.1163E-03     35.7729E-03
            1191     6.19299E-03     105.476E-03    -30.0148E+06    -29.0021E+06    -14.2363E+06     2.20686E+06    -17.9269E-03     35.1057E-03    -17.1787E-03     42.9932E-03    -18.0149E-03     35.0254E-03    -17.1643E-03     43.0203E-03
            1192     7.07719E-03     105.513E-03    -27.0503E+06    -26.1231E+06    -9.24384E+06    -1.60933E+06    -18.4479E-03     35.7119E-03    -17.2640E-03     50.9209E-03    -18.5335E-03     35.6355E-03    -17.2331E-03     50.8969E-03
            1193     7.96108E-03     105.557E-03    -24.1197E+06    -24.4190E+06    -4.02619E+06    -5.56976E+06    -19.2405E-03     36.6259E-03    -17.3854E-03     59.5645E-03    -19.3239E-03     36.5486E-03    -17.3351E-03     59.4858E-03
            1194     8.84430E-03     105.608E-03    -21.5592E+06    -21.7570E+06     759.453E+03    -9.79369E+06    -20.3609E-03     37.9120E-03    -17.5511E-03     68.9446E-03    -20.4471E-03     37.8422E-03    -17.4845E-03     68.8051E-03
            1195     9.72674E-03     105.669E-03    -19.0651E+06    -19.8762E+06     4.34484E+06    -13.6487E+06    -21.9386E-03     39.7146E-03    -17.7760E-03     79.0555E-03    -22.0296E-03     39.6548E-03    -17.6978E-03     78.8555E-03
            1196     10.6079E-03     105.738E-03    -16.9257E+06    -21.2529E+06     6.01852E+06    -16.4606E+06    -24.0874E-03     42.1685E-03    -18.0811E-03     89.5461E-03    -24.1858E-03     42.1139E-03    -17.9956E-03     89.2919E-03
            1197     11.4872E-03     105.817E-03    -14.4939E+06    -19.9394E+06     7.47704E+06    -18.4663E+06    -26.9548E-03     45.4440E-03    -18.4892E-03     100.594E-03    -27.0781E-03     45.4235E-03    -18.4019E-03     100.285E-03
            1198     12.3644E-03     105.906E-03    -11.3310E+06    -19.7293E+06     8.77782E+06    -20.9136E+06    -30.9094E-03     49.9474E-03    -19.0380E-03     113.328E-03    -31.0834E-03     49.9859E-03    -18.9490E-03     112.936E-03
            1199     13.2375E-03     106.009E-03    -8.58972E+06    -32.2048E+06     1.87530E+06    -21.7008E+06    -35.4477E-03     55.1798E-03    -19.7321E-03     122.882E-03    -35.6812E-03     55.2635E-03    -19.6636E-03     122.409E-03
            1200     14.1085E-03     106.117E-03    -5.91569E+06    -20.4003E+06     4.08469E+06    -19.7597E+06    -40.6865E-03     61.3045E-03    -20.6181E-03     132.214E-03    -41.1240E-03     61.6374E-03    -20.5595E-03     131.660E-03
            1201     14.9724E-03     106.240E-03    -4.47665E+06    -22.7640E+06    -1.13035E+06    -20.1198E+06    -48.4473E-03     70.1354E-03    -21.6881E-03     163.535E-03    -49.5617E-03     71.1572E-03    -21.6543E-03     162.786E-03
            1202     15.8322E-03     106.415E-03    -4.53966E+06     6.94250E+06    -10.4828E+06    -16.8880E+06    -54.3899E-03     77.2261E-03    -22.8362E-03     206.714E-03    -57.8012E-03     80.6767E-03    -22.8921E-03     206.234E-03
            1203     16.6897E-03     106.627E-03    -3.13555E+06     99.7492E+06     45.9736E+06    -6.83480E+06    -50.9959E-03     75.1981E-03    -24.2022E-03     158.141E-03    -54.5664E-03     78.9783E-03    -24.1124E-03     158.754E-03
            1204     885.631E-06     106.349E-03    -70.0346E+06    -37.5637E+06    -69.6165E+06     7.15255E+06    -15.8255E-03     31.6542E-03    -15.8287E-03     5.65081E-03    -16.0201E-03     31.6689E-03    -16.0208E-03     5.74312E-03
            1205     1.77163E-03     106.356E-03    -58.9812E+06    -30.8130E+06    -53.4393E+06     12.8354E+06    -15.8553E-03     31.7304E-03    -15.8752E-03     10.5795E-03    -16.0280E-03     31.7393E-03    -16.0121E-03     10.7452E-03
            1206     2.65729E-03     106.366E-03    -47.4742E+06    -27.0419E+06    -36.9626E+06     15.0251E+06    -15.9706E-03     31.9080E-03    -15.9374E-03     16.1520E-03    -16.1152E-03     31.8951E-03    -16.0141E-03     16.3461E-03
            1207     3.54303E-03     106.381E-03    -39.1717E+06    -28.1076E+06    -27.2591E+06     12.8157E+06    -16.1751E-03     32.1723E-03    -15.9972E-03     22.1707E-03    -16.2907E-03     32.1280E-03    -16.0359E-03     22.3364E-03
            1208     4.42839E-03     106.401E-03    -34.3434E+06    -28.5289E+06    -22.4232E+06     8.99701E+06    -16.4209E-03     32.4759E-03    -16.0550E-03     28.5314E-03    -16.5187E-03     32.4154E-03    -16.0759E-03     28.6477E-03
            1209     5.31387E-03     106.426E-03    -31.5674E+06    -27.3985E+06    -18.8739E+06     5.07332E+06    -16.7122E-03     32.8331E-03    -16.1209E-03     35.3109E-03    -16.8030E-03     32.7692E-03    -16.1298E-03     35.3763E-03
            1210     6.19905E-03     106.457E-03    -28.4696E+06    -24.8608E+06    -14.4919E+06     845.889E+03    -17.1053E-03     33.3082E-03    -16.2029E-03     42.6807E-03    -17.1909E-03     33.2465E-03    -16.1981E-03     42.6909E-03
            1211     7.08406E-03     106.494E-03    -24.6662E+06    -21.8345E+06    -9.02861E+06    -2.96047E+06    -17.6763E-03     33.9861E-03    -16.3099E-03     50.7923E-03    -17.7560E-03     33.9270E-03    -16.2876E-03     50.7519E-03
            1212     7.96853E-03     106.539E-03    -21.3029E+06    -19.5987E+06    -3.59968E+06    -6.36681E+06    -18.4856E-03     34.9354E-03    -16.4498E-03     59.7371E-03    -18.5616E-03     34.8765E-03    -16.4085E-03     59.6499E-03
            1213     8.85254E-03     106.592E-03    -18.7747E+06    -16.2898E+06     1.61250E+06    -9.73792E+06    -19.6283E-03     36.2609E-03    -16.6325E-03     69.5327E-03    -19.7082E-03     36.2115E-03    -16.5736E-03     69.3966E-03
            1214     9.73558E-03     106.653E-03    -17.4231E+06    -14.8613E+06     5.40039E+06    -13.0322E+06    -21.2596E-03     38.1348E-03    -16.8752E-03     80.2651E-03    -21.3488E-03     38.0937E-03    -16.8014E-03     80.0769E-03
            1215     10.6173E-03     106.725E-03    -16.0370E+06    -16.4273E+06     7.21531E+06    -16.3620E+06    -23.4868E-03     40.6838E-03    -17.1971E-03     91.5334E-03    -23.5860E-03     40.6469E-03    -17.1139E-03     91.2858E-03
            1216     11.4974E-03     106.806E-03    -13.8322E+06    -15.7150E+06     8.61517E+06    -19.5582E+06    -26.5850E-03     44.2107E-03    -17.6257E-03     103.850E-03    -26.7087E-03     44.2046E-03    -17.5398E-03     103.532E-03
            1217     12.3745E-03     106.900E-03    -11.7953E+06    -15.0380E+06     9.94203E+06    -22.2135E+06    -30.8289E-03     49.0328E-03    -18.2039E-03     118.205E-03    -31.0096E-03     49.0896E-03    -18.1152E-03     117.803E-03
            1218     13.2487E-03     107.008E-03    -9.92943E+06    -31.6944E+06     3.08405E+06    -23.3364E+06    -35.9977E-03     54.9507E-03    -18.9530E-03     128.919E-03    -36.2388E-03     55.0355E-03    -18.8772E-03     128.427E-03
            1219     14.1171E-03     107.122E-03    -7.19726E+06    -20.8828E+06     4.05865E+06    -22.9123E+06    -42.1205E-03     62.0337E-03    -19.9132E-03     140.432E-03    -42.5766E-03     62.3790E-03    -19.8522E-03     139.823E-03
            1220     14.9822E-03     107.254E-03    -4.47565E+06    -21.6950E+06     915.465E+03    -21.1075E+06    -50.0855E-03     71.1630E-03    -21.0775E-03     173.620E-03    -51.2260E-03     72.2087E-03    -21.0350E-03     172.827E-03
            1221     15.8414E-03     107.435E-03    -4.47722E+06    -1.58126E+06    -11.3508E+06    -15.6692E+06    -56.7557E-03     79.0750E-03    -22.3193E-03     214.842E-03    -60.1800E-03     82.5114E-03    -22.3672E-03     214.252E-03
            1222     16.6992E-03     107.649E-03    -2.80547E+06     89.4472E+06     43.9547E+06    -6.72692E+06    -56.0809E-03     79.9457E-03    -23.8649E-03     162.500E-03    -59.6918E-03     83.7375E-03    -23.7707E-03     162.849E-03
            1223     886.491E-06     107.327E-03    -90.3889E+06    -44.6646E+06    -90.3715E+06    -447.227E+03    -15.0704E-03     30.1390E-03    -15.0686E-03     5.48177E-03    -15.3265E-03     30.1779E-03    -15.3246E-03     5.47590E-03
            1224     1.77267E-03     107.333E-03    -80.9238E+06    -38.7766E+06    -79.2099E+06     785.351E+03    -15.0656E-03     30.1543E-03    -15.0887E-03     10.2059E-03    -15.2992E-03     30.1926E-03    -15.3112E-03     10.2159E-03
            1225     2.65931E-03     107.344E-03    -66.9525E+06    -31.5353E+06    -64.5757E+06     2.90424E+06    -15.0961E-03     30.2068E-03    -15.1107E-03     15.5090E-03    -15.2915E-03     30.2398E-03    -15.2908E-03     15.5464E-03
            1226     3.54577E-03     107.359E-03    -52.5762E+06    -28.2105E+06    -49.7545E+06     3.53482E+06    -15.2419E-03     30.3901E-03    -15.1482E-03     21.3054E-03    -15.3917E-03     30.3973E-03    -15.2798E-03     21.3511E-03
            1227     4.43227E-03     107.380E-03    -40.6023E+06    -27.5641E+06    -36.0229E+06     2.99907E+06    -15.5094E-03     30.7206E-03    -15.2112E-03     27.5842E-03    -15.6202E-03     30.6938E-03    -15.2925E-03     27.6230E-03
            1228     5.31828E-03     107.405E-03    -31.2603E+06    -24.2120E+06    -24.0202E+06     1.11047E+06    -15.8745E-03     31.1679E-03    -15.2933E-03     34.4289E-03    -15.9609E-03     31.1269E-03    -15.3330E-03     34.4433E-03
            1229     6.20419E-03     107.436E-03    -24.9401E+06    -20.8455E+06    -15.4229E+06    -1.87226E+06    -16.3495E-03     31.7401E-03    -15.3905E-03     41.8978E-03    -16.4219E-03     31.6945E-03    -15.4013E-03     41.8732E-03
            1230     7.08974E-03     107.474E-03    -21.6188E+06    -18.6040E+06    -9.34207E+06    -4.21105E+06    -16.9565E-03     32.4660E-03    -15.5095E-03     50.1117E-03    -17.0249E-03     32.4187E-03    -15.4979E-03     50.0558E-03
            1231     7.97501E-03     107.520E-03    -19.7060E+06    -14.9635E+06    -3.72447E+06    -6.81721E+06    -17.7520E-03     33.4097E-03    -15.6577E-03     59.2058E-03    -17.8258E-03     33.3712E-03    -15.6260E-03     59.1141E-03
            1232     8.85961E-03     107.573E-03    -17.5460E+06    -11.6487E+06     1.76426E+06    -10.1055E+06    -18.8819E-03     34.7285E-03    -15.8467E-03     69.3770E-03    -18.9610E-03     34.6988E-03    -15.7955E-03     69.2386E-03
            1233     9.74338E-03     107.637E-03    -15.0334E+06    -10.8967E+06     6.40314E+06    -12.3314E+06    -20.4908E-03     36.5838E-03    -16.0929E-03     80.6765E-03    -20.5725E-03     36.5547E-03    -16.0233E-03     80.5014E-03
            1234     10.6259E-03     107.710E-03    -13.6261E+06    -10.3865E+06     9.47383E+06    -15.4151E+06    -22.7194E-03     39.1336E-03    -16.4142E-03     92.8095E-03    -22.8139E-03     39.1154E-03    -16.3320E-03     92.5801E-03
            1235     11.5065E-03     107.795E-03    -13.2936E+06    -10.7855E+06     10.6069E+06    -19.0148E+06    -25.8994E-03     42.7403E-03    -16.8409E-03     106.558E-03    -26.0236E-03     42.7484E-03    -16.7530E-03     106.255E-03
            1236     12.3848E-03     107.892E-03    -13.3520E+06    -10.6317E+06     11.4675E+06    -21.3337E+06    -30.2918E-03     47.7093E-03    -17.4176E-03     122.533E-03    -30.4797E-03     47.7790E-03    -17.3255E-03     122.153E-03
            1237     13.2590E-03     108.006E-03    -12.3546E+06    -27.7628E+06     5.42726E+06    -24.8290E+06    -35.9226E-03     54.1035E-03    -18.1809E-03     135.304E-03    -36.1771E-03     54.2003E-03    -18.0956E-03     134.801E-03
            1238     14.1292E-03     108.127E-03    -9.04710E+06    -19.9564E+06     5.12754E+06    -26.8845E+06    -42.6602E-03     61.8282E-03    -19.1679E-03     148.733E-03    -43.1286E-03     62.1794E-03    -19.1002E-03     148.072E-03
            1239     14.9929E-03     108.267E-03    -5.09568E+06    -25.6016E+06     2.14997E+06    -23.8631E+06    -50.8511E-03     71.2304E-03    -20.3793E-03     181.721E-03    -51.9725E-03     72.2374E-03    -20.3241E-03     180.880E-03
            1240     15.8536E-03     108.454E-03    -2.98445E+06    -11.0556E+06    -17.2247E+06    -15.3456E+06    -59.1417E-03     80.8078E-03    -21.6661E-03     221.838E-03    -62.4320E-03     84.0994E-03    -21.7319E-03     221.088E-03
            1241     16.7069E-03     108.676E-03    -3.59714E+06     80.8979E+06     36.8394E+06    -5.83188E+06    -62.7218E-03     86.1480E-03    -23.4262E-03     168.574E-03    -66.2956E-03     89.8911E-03    -23.3541E-03     168.574E-03
            1242     886.627E-06     108.304E-03    -81.1900E+06      -40.78E+06    -80.3493E+06    -3.66009E+06    -14.6936E-03     29.3652E-03    -14.6717E-03     5.25465E-03    -14.9238E-03     29.3957E-03    -14.8966E-03     5.20718E-03
            1243     1.77358E-03     108.310E-03    -79.0026E+06    -36.8614E+06    -76.6686E+06    -6.45040E+06    -14.6895E-03     29.3780E-03    -14.6885E-03     9.74178E-03    -14.9199E-03     29.4194E-03    -14.9038E-03     9.65814E-03
            1244     2.66021E-03     108.321E-03    -74.0963E+06    -31.2476E+06    -71.0632E+06    -8.26132E+06    -14.6907E-03     29.3832E-03    -14.6925E-03     14.7208E-03    -14.9129E-03     29.4375E-03    -14.8951E-03     14.6137E-03
            1245     3.54718E-03     108.336E-03    -66.2267E+06    -27.8539E+06    -62.9476E+06    -8.39750E+06    -14.7144E-03     29.4159E-03    -14.7015E-03     20.0856E-03    -14.9140E-03     29.4641E-03    -14.8799E-03     19.9767E-03
            1246     4.43405E-03     108.356E-03    -55.9900E+06    -26.5072E+06    -52.6441E+06    -8.55306E+06    -14.8271E-03     29.5498E-03    -14.7227E-03     25.9605E-03    -14.9924E-03     29.5750E-03    -14.8663E-03     25.8496E-03
            1247     5.32109E-03     108.382E-03    -44.6257E+06    -21.7743E+06    -42.0298E+06    -9.19463E+06    -15.0934E-03     29.8480E-03    -14.7546E-03     32.6007E-03    -15.2242E-03     29.8649E-03    -14.8684E-03     32.4816E-03
            1248     6.20769E-03     108.414E-03    -33.7408E+06    -18.7098E+06    -29.3417E+06    -9.37608E+06    -15.5772E-03     30.4078E-03    -14.8306E-03     40.0834E-03    -15.6765E-03     30.4060E-03    -14.9012E-03     39.9618E-03
            1249     7.09389E-03     108.453E-03    -24.1503E+06    -17.2535E+06    -15.5665E+06    -8.98381E+06    -16.2509E-03     31.2071E-03    -14.9561E-03     48.3890E-03    -16.3248E-03     31.1791E-03    -14.9739E-03     48.2718E-03
            1250     7.97954E-03     108.499E-03    -17.0583E+06    -12.0555E+06    -4.78528E+06    -8.88712E+06    -17.0929E-03     32.1993E-03    -15.1064E-03     57.6255E-03    -17.1555E-03     32.1725E-03    -15.0881E-03     57.5080E-03
            1251     8.86475E-03     108.553E-03    -14.2547E+06    -8.20672E+06     2.53363E+06    -9.56748E+06    -18.1891E-03     33.4807E-03    -15.2916E-03     68.0176E-03    -18.2564E-03     33.4609E-03    -15.2463E-03     67.8882E-03
            1252     9.74919E-03     108.618E-03    -14.1394E+06    -7.46075E+06     7.30313E+06    -11.4156E+06    -19.6622E-03     35.1874E-03    -15.5252E-03     79.7207E-03    -19.7425E-03     35.1698E-03    -15.4573E-03     79.5614E-03
            1253     10.6325E-03     108.694E-03    -13.3357E+06    -4.41997E+06     11.3486E+06    -14.3469E+06    -21.7611E-03     37.5833E-03    -15.8221E-03     92.6979E-03    -21.8596E-03     37.5859E-03    -15.7397E-03     92.4891E-03
            1254     11.5143E-03     108.781E-03    -11.9896E+06    -6.02668E+06     14.0737E+06    -17.4459E+06    -24.9013E-03     41.1252E-03    -16.2239E-03     107.770E-03    -25.0212E-03     41.1404E-03    -16.1274E-03     107.498E-03
            1255     12.3932E-03     108.883E-03    -11.5308E+06     -7.6026E+06     15.6600E+06    -18.7107E+06    -29.3909E-03     46.1629E-03    -16.7720E-03     125.350E-03    -29.5652E-03     46.2241E-03    -16.6660E-03     125.018E-03
            1256     13.2691E-03     109.002E-03    -12.1693E+06    -17.3882E+06     12.3419E+06    -23.8946E+06    -35.3429E-03     52.8588E-03    -17.5159E-03     140.158E-03    -35.6038E-03     52.9794E-03    -17.4113E-03     139.681E-03
            1257     14.1391E-03     109.132E-03    -12.0509E+06    -16.7776E+06     8.77687E+06    -29.7552E+06    -42.5467E-03     61.0419E-03    -18.4951E-03     154.875E-03    -43.0164E-03     61.3844E-03    -18.4094E-03     154.189E-03
            1258     15.0041E-03     109.279E-03    -10.0935E+06    -32.7520E+06     3.02298E+06    -27.2601E+06    -51.5702E-03     71.3037E-03    -19.7335E-03     187.770E-03    -52.6513E-03     72.2249E-03    -19.6563E-03     186.870E-03
            1259     15.8628E-03     109.473E-03    -8.31790E+06    -22.9044E+06    -18.5739E+06    -19.1405E+06    -61.8922E-03     82.9870E-03    -21.0948E-03     229.917E-03    -65.0160E-03     86.0554E-03    -21.1424E-03     228.922E-03
            1260     16.7147E-03     109.709E-03    -4.68124E+06     69.4140E+06     34.7569E+06    -7.13546E+06    -69.2501E-03     92.2971E-03    -23.0470E-03     181.183E-03    -72.8123E-03     95.9914E-03    -22.9671E-03     180.797E-03
            1261     886.984E-06     109.280E-03    -59.3745E+06    -32.8372E+06    -58.7515E+06    -4.09751E+06    -14.6898E-03     29.3332E-03    -14.6434E-03     4.87501E-03    -14.8538E-03     29.3404E-03    -14.8035E-03     4.82171E-03
            1262     1.77365E-03     109.286E-03    -57.3040E+06    -29.2962E+06    -54.3392E+06    -7.89222E+06    -14.7279E-03     29.4161E-03    -14.6883E-03     9.07031E-03    -14.8932E-03     29.4316E-03    -14.8344E-03     8.96770E-03
            1263     2.66055E-03     109.297E-03    -55.4010E+06    -26.1262E+06    -49.0010E+06    -10.6687E+06    -14.8042E-03     29.5326E-03    -14.7283E-03     13.6796E-03    -14.9725E-03     29.5535E-03    -14.8551E-03     13.5408E-03
            1264     3.54718E-03     109.312E-03    -53.7684E+06    -24.4124E+06    -45.4027E+06    -12.5493E+06    -14.8439E-03     29.6031E-03    -14.7592E-03     18.5786E-03    -15.0118E-03     29.6252E-03    -14.8729E-03     18.4152E-03
            1265     4.43407E-03     109.333E-03    -51.6531E+06    -22.2690E+06    -43.4407E+06    -14.7654E+06    -14.8565E-03     29.6253E-03    -14.7687E-03     23.8830E-03    -15.0200E-03     29.6523E-03    -14.8788E-03     23.6907E-03
            1266     5.32092E-03     109.358E-03    -48.3276E+06    -18.3330E+06    -40.6568E+06    -17.0186E+06    -14.9291E-03     29.6993E-03    -14.7702E-03     29.8569E-03    -15.0858E-03     29.7372E-03    -14.8768E-03     29.6355E-03
            1267     6.20804E-03     109.391E-03    -42.7514E+06    -16.7554E+06    -33.4976E+06    -18.1092E+06    -15.1652E-03     29.9651E-03    -14.7999E-03     36.7646E-03    -15.3068E-03     29.9926E-03    -14.8811E-03     36.5290E-03
            1268     7.09482E-03     109.430E-03    -34.7091E+06    -16.4373E+06    -23.8737E+06    -18.0081E+06    -15.6480E-03     30.5112E-03    -14.8632E-03     44.7665E-03    -15.7641E-03     30.5150E-03    -14.9084E-03     44.5321E-03
            1269     7.98118E-03     109.477E-03    -25.1764E+06    -12.1629E+06    -14.3727E+06    -16.3652E+06    -16.4092E-03     31.3643E-03    -14.9551E-03     54.0304E-03    -16.4982E-03     31.3625E-03    -14.9729E-03     53.8165E-03
            1270     8.86679E-03     109.532E-03    -15.8202E+06    -8.79973E+06    -2.77033E+06    -13.0863E+06    -17.4618E-03     32.5678E-03    -15.1059E-03     64.6359E-03    -17.5274E-03     32.5539E-03    -15.0841E-03     64.4625E-03
            1271     9.75168E-03     109.598E-03    -9.49195E+06    -4.80445E+06     8.73975E+06    -11.2541E+06    -18.8643E-03     34.1787E-03    -15.3144E-03     76.6566E-03    -18.9244E-03     34.1627E-03    -15.2499E-03     76.5028E-03
            1272     10.6358E-03     109.675E-03    -7.32985E+06     234.186E+03     16.1961E+06    -12.7434E+06    -20.8105E-03     36.3863E-03    -15.5758E-03     90.1855E-03    -20.8865E-03     36.3902E-03    -15.4845E-03     90.0038E-03
            1273     11.5183E-03     109.765E-03    -7.75408E+06    -2.17092E+06     20.0825E+06    -14.5177E+06    -23.7302E-03     39.6609E-03    -15.9307E-03     106.272E-03    -23.8312E-03     39.6685E-03    -15.8159E-03     106.049E-03
            1274     12.3988E-03     109.871E-03    -7.55087E+06    -4.00176E+06     22.7123E+06    -16.7943E+06    -28.2513E-03     44.6757E-03    -16.4243E-03     125.543E-03    -28.4007E-03     44.7184E-03    -16.2940E-03     125.251E-03
            1275     13.2751E-03     109.997E-03    -8.06540E+06    -8.37203E+06     22.0862E+06    -19.1215E+06    -34.3710E-03     51.4899E-03    -17.1189E-03     142.527E-03    -34.6084E-03     51.6053E-03    -16.9846E-03     142.134E-03
            1276     14.1466E-03     110.134E-03    -13.9209E+06    -8.07921E+06     17.0938E+06    -23.7751E+06    -41.9127E-03     59.9705E-03    -18.0578E-03     158.922E-03    -42.3706E-03     60.3015E-03    -17.9405E-03     158.335E-03
            1277     15.0119E-03     110.289E-03    -18.0348E+06    -33.6331E+06     7.29898E+06    -29.8420E+06    -52.0681E-03     71.3620E-03    -19.2939E-03     192.491E-03    -53.1054E-03     72.1957E-03    -19.1824E-03     191.549E-03
            1278     15.8711E-03     110.493E-03    -15.4842E+06    -35.6413E+06    -12.6636E+06    -25.4621E+06    -63.9754E-03     84.7029E-03    -20.7275E-03     236.902E-03    -66.8675E-03     87.4518E-03    -20.7167E-03     235.666E-03
            1279     16.7218E-03     110.741E-03    -10.9291E+06     53.1584E+06     35.6502E+06    -12.6592E+06    -74.2305E-03     97.0200E-03    -22.7895E-03     197.907E-03    -77.8150E-03     100.655E-03    -22.6725E-03     197.104E-03
            1280     886.453E-06     110.257E-03    -36.2402E+06    -24.1336E+06    -35.4532E+06    -4.38018E+06    -15.1379E-03     30.2640E-03    -15.1261E-03     4.32067E-03    -15.2326E-03     30.2474E-03    -15.2158E-03     4.26346E-03
            1281     1.77314E-03     110.263E-03    -36.0410E+06    -21.4040E+06    -33.0479E+06    -7.49792E+06    -15.2331E-03     30.3921E-03    -15.1590E-03     8.10289E-03    -15.3345E-03     30.3854E-03    -15.2409E-03     8.00487E-03
            1282     2.65946E-03     110.274E-03    -35.2994E+06    -20.2237E+06    -29.1676E+06    -9.73044E+06    -15.3919E-03     30.6155E-03    -15.2236E-03     12.1850E-03    -15.4971E-03     30.6081E-03    -15.2889E-03     12.0575E-03
            1283     3.54583E-03     110.290E-03    -33.5257E+06    -18.6726E+06    -24.6248E+06    -11.8702E+06    -15.5601E-03     30.8617E-03    -15.3016E-03     16.4624E-03    -15.6655E-03     30.8532E-03    -15.3490E-03     16.3065E-03
            1284     4.43193E-03     110.309E-03    -31.4208E+06    -15.9621E+06    -20.1002E+06    -14.6355E+06    -15.6948E-03     31.0721E-03    -15.3773E-03     21.0861E-03    -15.8006E-03     31.0678E-03    -15.4091E-03     20.8939E-03
            1285     5.31812E-03     110.336E-03    -30.0980E+06    -13.0491E+06    -16.2327E+06    -17.1641E+06    -15.7717E-03     31.2123E-03    -15.4407E-03     26.2404E-03    -15.8810E-03     31.2154E-03    -15.4593E-03     26.0149E-03
            1286     6.20417E-03     110.367E-03    -30.2560E+06    -12.8027E+06    -14.4492E+06    -19.0563E+06    -15.8019E-03     31.2857E-03    -15.4838E-03     32.1581E-03    -15.9154E-03     31.2881E-03    -15.4936E-03     31.9078E-03
            1287     7.09060E-03     110.407E-03    -30.5308E+06    -12.9414E+06    -13.8705E+06    -21.0762E+06    -15.8987E-03     31.4073E-03    -15.5086E-03     39.1418E-03    -16.0145E-03     31.4089E-03    -15.5149E-03     38.8653E-03
            1288     7.97704E-03     110.454E-03    -28.6771E+06    -11.6991E+06    -11.4926E+06    -22.1362E+06    -16.2138E-03     31.7520E-03    -15.5382E-03     47.5502E-03    -16.3260E-03     31.7541E-03    -15.5371E-03     47.2601E-03
            1289     8.86330E-03     110.510E-03    -23.4579E+06    -11.2093E+06    -5.79676E+06    -20.5451E+06    -16.8626E-03     32.4628E-03    -15.6002E-03     57.6833E-03    -16.9584E-03     32.4523E-03    -15.5789E-03     57.4133E-03
            1290     9.74893E-03     110.577E-03    -15.3393E+06    -6.01398E+06     3.55530E+06    -17.0785E+06    -17.9705E-03     33.6793E-03    -15.7088E-03     69.8097E-03    -18.0484E-03     33.6712E-03    -15.6601E-03     69.5828E-03
            1291     10.6333E-03     110.656E-03    -8.32834E+06     1.34709E+06     15.8183E+06    -13.6629E+06    -19.7378E-03     35.6322E-03    -15.8944E-03     83.9599E-03    -19.8140E-03     35.6379E-03    -15.8052E-03     83.7722E-03
            1292     11.5166E-03     110.748E-03    -4.22593E+06     247.311E+03     25.4766E+06    -12.9240E+06    -22.6167E-03     38.8014E-03    -16.1846E-03     100.962E-03    -22.6989E-03     38.7956E-03    -16.0515E-03     100.771E-03
            1293     12.3977E-03     110.858E-03    -3.78460E+06    -459.705E+03     30.1997E+06    -13.2506E+06    -26.9684E-03     43.5729E-03    -16.6045E-03     121.550E-03    -27.0904E-03     43.5924E-03    -16.4474E-03     121.324E-03
            1294     13.2755E-03     110.989E-03    -5.75344E+06    -5.15717E+06     30.6032E+06    -13.7815E+06    -32.7366E-03     49.9499E-03    -17.2134E-03     140.474E-03    -32.9363E-03     50.0226E-03    -17.0445E-03     140.179E-03
            1295     14.1487E-03     111.133E-03    -5.97202E+06     1.10767E+06     29.8898E+06    -15.5212E+06    -40.7270E-03     58.7937E-03    -18.0667E-03     159.221E-03    -41.1076E-03     59.0712E-03    -17.9102E-03     158.778E-03
            1296     15.0148E-03     111.299E-03    -6.92576E+06    -19.5525E+06     21.9190E+06    -24.4510E+06    -51.9102E-03     71.1607E-03    -19.2505E-03     193.897E-03    -52.7915E-03     71.8855E-03    -19.1025E-03     193.047E-03
            1297     15.8727E-03     111.512E-03    -6.12866E+06    -46.2894E+06    -1.86655E+06    -28.5034E+06    -64.7192E-03     85.4072E-03    -20.6879E-03     240.919E-03    -67.1598E-03     87.6686E-03    -20.6213E-03     239.569E-03
            1298     16.7232E-03     111.773E-03    -195.402E+03     31.8188E+06     38.7080E+06    -13.6844E+06    -76.3038E-03     99.0285E-03    -22.7247E-03     217.229E-03    -79.7810E-03     102.510E-03    -22.5770E-03     216.149E-03
            1299     885.783E-06     111.235E-03    -15.7569E+06    -16.5299E+06    -14.8650E+06    -3.36310E+06    -16.2435E-03     32.5112E-03    -16.2677E-03     3.63459E-03    -16.2768E-03     32.4731E-03    -16.2952E-03     3.59017E-03
            1300     1.77125E-03     111.241E-03    -16.2005E+06    -14.5562E+06    -13.3661E+06    -5.87095E+06    -16.4379E-03     32.7378E-03    -16.2998E-03     6.74633E-03    -16.4787E-03     32.7079E-03    -16.3221E-03     6.66860E-03
            1301     2.65675E-03     111.253E-03    -15.5398E+06    -14.2359E+06    -10.1236E+06    -8.66695E+06    -16.6753E-03     33.0762E-03    -16.4009E-03     10.0970E-03    -16.7182E-03     33.0425E-03    -16.4083E-03     9.98202E-03
            1302     3.54188E-03     111.268E-03    -14.3179E+06    -12.9840E+06    -5.84179E+06    -11.0677E+06    -16.9707E-03     33.4973E-03    -16.5266E-03     13.5718E-03    -17.0158E-03     33.4622E-03    -16.5162E-03     13.4247E-03
            1303     4.42684E-03     111.289E-03    -13.4180E+06    -10.1575E+06    -1.66568E+06    -13.0517E+06    -17.2625E-03     33.9266E-03    -16.6641E-03     17.3237E-03    -17.3137E-03     33.8987E-03    -16.6382E-03     17.1497E-03
            1304     5.31144E-03     111.314E-03    -13.1354E+06    -8.35584E+06     1.04580E+06    -14.4752E+06    -17.4825E-03     34.2793E-03    -16.7969E-03     21.5095E-03    -17.5394E-03     34.2566E-03    -16.7605E-03     21.3158E-03
            1305     6.19611E-03     111.347E-03    -12.6568E+06    -8.03031E+06     3.79109E+06    -15.8305E+06    -17.5932E-03     34.5104E-03    -16.9172E-03     26.3031E-03    -17.6529E-03     34.4853E-03    -16.8683E-03     26.0909E-03
            1306     7.08061E-03     111.385E-03    -12.5735E+06    -7.90938E+06     6.85436E+06    -17.6519E+06    -17.5809E-03     34.5954E-03    -17.0146E-03     31.9536E-03    -17.6455E-03     34.5670E-03    -16.9506E-03     31.7172E-03
            1307     7.96540E-03     111.432E-03    -14.5129E+06    -8.58011E+06     8.09672E+06    -19.0501E+06    -17.5035E-03     34.5803E-03    -17.0768E-03     38.7647E-03    -17.5793E-03     34.5502E-03    -17.0028E-03     38.5099E-03
            1308     8.85050E-03     111.488E-03    -17.1246E+06    -9.56085E+06     7.39012E+06    -20.5314E+06    -17.5201E-03     34.6265E-03    -17.1064E-03     47.2228E-03    -17.6071E-03     34.5969E-03    -17.0307E-03     46.9492E-03
            1309     9.73584E-03     111.556E-03    -17.6243E+06    -7.66881E+06     8.39599E+06    -20.6132E+06    -17.8103E-03     34.9386E-03    -17.1283E-03     57.9209E-03    -17.9046E-03     34.9184E-03    -17.0496E-03     57.6466E-03
            1310     10.6214E-03     111.635E-03    -13.8981E+06    -1.31676E+06     16.2005E+06    -17.8321E+06    -18.8537E-03     36.0483E-03    -17.1946E-03     71.5285E-03    -18.9514E-03     36.0449E-03    -17.0916E-03     71.2892E-03
            1311     11.5053E-03     111.730E-03    -7.87324E+06     1.22555E+06     27.6637E+06    -15.3601E+06    -21.3077E-03     38.6703E-03    -17.3625E-03     89.2002E-03    -21.4023E-03     38.6611E-03    -17.2146E-03     88.9864E-03
            1312     12.3864E-03     111.842E-03    -2.75498E+06    -3.17798E+06     36.0465E+06    -11.5485E+06    -25.2822E-03     42.9508E-03    -17.6686E-03     110.970E-03    -25.3778E-03     42.9211E-03    -17.4798E-03     110.786E-03
            1313     13.2652E-03     111.977E-03    -981.297E+03    -2.32437E+06     40.4881E+06    -8.65455E+06    -30.8248E-03     48.9751E-03    -18.1503E-03     131.597E-03    -30.9700E-03     48.9915E-03    -17.9430E-03     131.404E-03
            1314     14.1396E-03     112.129E-03    -2.45286E+06     6.47418E+06     40.9489E+06    -11.3951E+06    -38.7343E-03     57.6101E-03    -18.8758E-03     152.825E-03    -39.0290E-03     57.8011E-03    -18.6768E-03     152.490E-03
            1315     15.0067E-03     112.306E-03    -4.53602E+06    -1.62958E+06     36.9847E+06    -18.0201E+06    -49.8115E-03     69.7453E-03    -19.9338E-03     188.985E-03    -50.5124E-03     70.3183E-03    -19.7400E-03     188.303E-03
            1316     15.8671E-03     112.528E-03    -9.97068E+06    -42.2464E+06     8.40677E+06    -27.0228E+06    -61.8924E-03     83.1126E-03    -21.2202E-03     238.687E-03    -63.7733E-03     84.7850E-03    -21.1024E-03     237.444E-03
            1317     16.7205E-03     112.801E-03    -12.2059E+06     4.47101E+06     16.0006E+06    -22.4459E+06    -72.5258E-03     95.4316E-03    -22.9058E-03     235.300E-03    -75.7703E-03     98.6065E-03    -22.8146E-03     234.036E-03
            1318     883.989E-06     112.216E-03     1.13104E+06    -10.5497E+06     1.77126E+06    -2.81882E+06    -18.3180E-03     36.5649E-03    -18.2469E-03     2.75080E-03    -18.2999E-03     36.5079E-03    -18.2244E-03     2.71295E-03
            1319     1.76791E-03     112.223E-03     1.97283E+06    -8.94791E+06     4.60984E+06    -4.68385E+06    -18.5651E-03     36.9199E-03    -18.3548E-03     4.99684E-03    -18.5494E-03     36.8655E-03    -18.3217E-03     4.93350E-03
            1320     2.65142E-03     112.234E-03     2.15627E+06    -8.51894E+06     7.96349E+06    -6.89772E+06    -18.9021E-03     37.4065E-03    -18.5044E-03     7.41729E-03    -18.8912E-03     37.3493E-03    -18.4553E-03     7.32378E-03
            1321     3.53470E-03     112.250E-03     2.02999E+06    -7.74028E+06     10.2588E+06    -9.16364E+06    -19.2884E-03     37.9650E-03    -18.6767E-03     9.90912E-03    -19.2829E-03     37.9089E-03    -18.6171E-03     9.78461E-03
            1322     4.41750E-03     112.271E-03     2.09229E+06    -5.94751E+06     12.3807E+06    -10.6655E+06    -19.6983E-03     38.5639E-03    -18.8656E-03     12.6220E-03    -19.6987E-03     38.5140E-03    -18.7982E-03     12.4763E-03
            1323     5.30004E-03     112.298E-03     2.44864E+06    -4.55021E+06     15.8457E+06    -11.7101E+06    -20.1021E-03     39.1754E-03    -19.0733E-03     15.6630E-03    -20.1084E-03     39.1275E-03    -18.9910E-03     15.5017E-03
            1324     6.18203E-03     112.329E-03     2.27488E+06    -4.36192E+06     19.0008E+06    -12.6616E+06    -20.4227E-03     39.7059E-03    -19.2832E-03     19.1641E-03    -20.4356E-03     39.6554E-03    -19.1852E-03     18.9886E-03
            1325     7.06395E-03     112.369E-03     943.042E+03    -4.45226E+06     21.0291E+06    -12.9524E+06    -20.5919E-03     40.0684E-03    -19.4765E-03     23.3198E-03    -20.6152E-03     40.0173E-03    -19.3663E-03     23.1387E-03
            1326     7.94575E-03     112.415E-03    -243.734E+03    -5.25607E+06     22.7948E+06    -13.4612E+06    -20.5860E-03     40.2288E-03    -19.6428E-03     28.3128E-03    -20.6177E-03     40.1737E-03    -19.5208E-03     28.1238E-03
            1327     8.82773E-03     112.471E-03    -1.20851E+06    -5.19724E+06     25.3434E+06    -14.8338E+06    -20.4179E-03     40.1934E-03    -19.7755E-03     34.4840E-03    -20.4593E-03     40.1373E-03    -19.6395E-03     34.2765E-03
            1328     9.71008E-03     112.536E-03    -2.56891E+06    -5.57469E+06     27.2978E+06    -16.5968E+06    -20.2170E-03     40.0870E-03    -19.8700E-03     42.2494E-03    -20.2685E-03     40.0290E-03    -19.7217E-03     42.0191E-03
            1329     10.5928E-03     112.615E-03    -4.10615E+06    -3.05470E+06     29.5323E+06    -16.6516E+06    -20.2983E-03     40.2386E-03    -19.9403E-03     52.8187E-03    -20.3653E-03     40.1930E-03    -19.7823E-03     52.5883E-03
            1330     11.4760E-03     112.710E-03    -4.94369E+06     764.308E+03     35.1706E+06    -14.8894E+06    -21.1700E-03     41.2074E-03    -20.0375E-03     67.8911E-03    -21.2565E-03     41.1758E-03    -19.8556E-03     67.6835E-03
            1331     12.3588E-03     112.826E-03    -3.08565E+06    -6.95392E+06     39.4458E+06    -12.5383E+06    -23.5515E-03     43.7603E-03    -20.2087E-03     88.2857E-03    -23.6306E-03     43.6887E-03    -19.9970E-03     88.1026E-03
            1332     13.2379E-03     112.964E-03     2.59433E+06    -4.71443E+06     46.1635E+06    -8.42766E+06    -27.9573E-03     48.4733E-03    -20.5160E-03     110.528E-03    -28.0438E-03     48.4188E-03    -20.2821E-03     110.375E-03
            1333     14.1121E-03     113.123E-03     6.30830E+06     9.55858E+06     53.9772E+06    -5.16019E+06    -35.2002E-03     56.2553E-03    -21.0552E-03     134.689E-03    -35.3744E-03     56.3302E-03    -20.8083E-03     134.506E-03
            1334     14.9817E-03     113.307E-03     1.11772E+06     9.28023E+06     50.7644E+06    -6.27898E+06    -44.9674E-03     66.8425E-03    -21.8751E-03     171.347E-03    -45.4135E-03     67.1794E-03    -21.6363E-03     170.962E-03
            1335     15.8441E-03     113.538E-03    -5.11419E+06    -20.5745E+06     30.7557E+06    -16.0333E+06    -53.8612E-03     76.7265E-03    -22.8653E-03     220.793E-03    -55.0228E-03     77.7092E-03    -22.6743E-03     219.971E-03
            1336     16.7064E-03     113.813E-03    -6.26920E+06    -7.06987E+06     11.9806E+06    -24.2407E+06    -57.0889E-03     80.9252E-03    -23.8363E-03     238.518E-03    -59.3812E-03     83.1390E-03    -23.7571E-03     237.601E-03
            1337     881.334E-06     113.202E-03     16.9069E+06    -5.27767E+06     17.5734E+06    -2.41742E+06    -21.5503E-03     42.9553E-03    -21.4050E-03     1.68703E-03    -21.4841E-03     42.8785E-03    -21.3340E-03     1.65394E-03
            1338     1.76240E-03     113.209E-03     16.6464E+06    -5.12654E+06     18.8057E+06    -3.65790E+06    -21.8502E-03     43.4213E-03    -21.5711E-03     2.87456E-03    -21.7876E-03     43.3438E-03    -21.4938E-03     2.82366E-03
            1339     2.64314E-03     113.221E-03     16.7075E+06    -3.98198E+06     21.1224E+06    -4.90398E+06    -22.2448E-03     44.0022E-03    -21.7574E-03     4.13996E-03    -22.1870E-03     43.9271E-03    -21.6703E-03     4.07101E-03
            1340     3.52335E-03     113.237E-03     16.6171E+06    -3.58860E+06     23.5953E+06    -6.44005E+06    -22.7027E-03     44.6782E-03    -21.9755E-03     5.49758E-03    -22.6498E-03     44.6018E-03    -21.8764E-03     5.40666E-03
            1341     4.40320E-03     113.259E-03     15.9229E+06    -2.58835E+06     25.9139E+06    -7.68653E+06    -23.2304E-03     45.4515E-03    -22.2210E-03     7.02747E-03    -23.1862E-03     45.3780E-03    -22.1108E-03     6.91812E-03
            1342     5.28237E-03     113.286E-03     14.7518E+06    -1.82571E+06     28.0487E+06    -8.33742E+06    -23.8121E-03     46.3066E-03    -22.4945E-03     8.79237E-03    -23.7784E-03     46.2360E-03    -22.3730E-03     8.67204E-03
            1343     6.16108E-03     113.319E-03     13.2252E+06    -2.17110E+06     30.2307E+06    -8.24199E+06    -24.4158E-03     47.2108E-03    -22.7950E-03     10.8258E-03    -24.3931E-03     47.1380E-03    -22.6599E-03     10.7040E-03
            1344     7.03910E-03     113.357E-03     12.2349E+06    -2.49355E+06     32.6171E+06    -8.38570E+06    -24.9706E-03     48.0834E-03    -23.1128E-03     13.2216E-03    -24.9567E-03     48.0075E-03    -22.9638E-03     13.0949E-03
            1345     7.91662E-03     113.404E-03     11.7218E+06    -2.32307E+06     36.0468E+06    -9.17846E+06    -25.4095E-03     48.8503E-03    -23.4408E-03     16.0912E-03    -25.4045E-03     48.7718E-03    -23.2742E-03     15.9513E-03
            1346     8.79370E-03     113.459E-03     10.7126E+06    -2.65742E+06     39.0519E+06    -9.61606E+06    -25.7064E-03     49.4711E-03    -23.7648E-03     19.5866E-03    -25.7117E-03     49.3889E-03    -23.5812E-03     19.4381E-03
            1347     9.67050E-03     113.525E-03     8.89864E+06    -1.67214E+06     41.8845E+06    -10.4857E+06    -25.9113E-03     49.9917E-03    -24.0804E-03     24.0135E-03    -25.9329E-03     49.9139E-03    -23.8815E-03     23.8507E-03
            1348     10.5470E-03     113.602E-03     7.02238E+06    -2.78553E+06     44.1234E+06    -11.0246E+06    -26.0239E-03     50.4148E-03    -24.3909E-03     30.0532E-03    -26.0586E-03     50.3320E-03    -24.1764E-03     29.8811E-03
            1349     11.4234E-03     113.696E-03     5.53749E+06    -334.800E+03     46.7217E+06    -9.78554E+06    -25.9075E-03     50.5952E-03    -24.6877E-03     38.9432E-03    -25.9586E-03     50.5238E-03    -24.4617E-03     38.7870E-03
            1350     12.3002E-03     113.808E-03     4.17812E+06    -5.89407E+06     46.8558E+06    -9.50881E+06    -25.6285E-03     50.5904E-03    -24.9619E-03     52.4159E-03    -25.6799E-03     50.4942E-03    -24.7251E-03     52.2658E-03
            1351     13.1783E-03     113.948E-03     5.66095E+06    -8.22576E+06     49.5101E+06    -10.6080E+06    -26.0205E-03     51.2457E-03    -25.2252E-03     70.2911E-03    -26.0689E-03     51.1370E-03    -24.9739E-03     70.1260E-03
            1352     14.0557E-03     114.110E-03     13.0199E+06     2.57489E+06     58.1523E+06    -5.73105E+06    -29.2235E-03     54.7735E-03    -25.5499E-03     94.6278E-03    -29.2861E-03     54.7222E-03    -25.2818E-03     94.5009E-03
            1353     14.9247E-03     114.303E-03     22.2013E+06     10.3538E+06     65.4566E+06     2.49235E+06    -36.1019E-03     62.1412E-03    -26.0393E-03     131.164E-03    -36.2420E-03     62.2084E-03    -25.7592E-03     131.050E-03
            1354     15.7925E-03     114.532E-03     27.1346E+06     2.94924E+06     64.0203E+06    -2.21945E+06    -40.4472E-03     67.0531E-03    -26.6059E-03     175.899E-03    -40.8605E-03     67.3893E-03    -26.3295E-03     175.574E-03
            1355     16.6615E-03     114.808E-03     18.5167E+06    -4.06839E+06     34.1341E+06    -9.48451E+06    -27.4441E-03     54.0401E-03    -26.5960E-03     197.799E-03    -28.2816E-03     54.8374E-03    -26.4463E-03     197.517E-03
            1356     877.433E-06     114.195E-03     27.7187E+06    -1.58964E+06     28.6277E+06    -1.21352E+06    -26.1203E-03     52.3238E-03    -26.2035E-03    -76.1302E-06    -26.0220E-03     52.2330E-03    -26.0982E-03    -93.3760E-06
            1357     1.75442E-03     114.203E-03     27.1205E+06    -2.24028E+06     28.6705E+06    -2.25743E+06    -26.3958E-03     52.6311E-03    -26.2353E-03     149.667E-06    -26.2998E-03     52.5379E-03    -26.1280E-03     117.217E-06
            1358     2.63104E-03     114.215E-03     26.2184E+06    -1.30781E+06     28.7821E+06    -3.03860E+06    -26.8085E-03     53.1957E-03    -26.3872E-03     281.543E-06    -26.7185E-03     53.1084E-03    -26.2794E-03     237.362E-06
            1359     3.50733E-03     114.233E-03     25.0095E+06    -995.436E+03     31.5231E+06    -3.51254E+06    -27.3677E-03     53.9891E-03    -26.6214E-03     452.793E-06    -27.2883E-03     53.9011E-03    -26.4986E-03     400.691E-06
            1360     4.38285E-03     114.255E-03     23.6496E+06    -529.391E+03     34.4862E+06    -3.75748E+06    -28.0805E-03     55.0007E-03    -26.9201E-03     648.683E-06    -28.0131E-03     54.9127E-03    -26.7812E-03     591.407E-06
            1361     5.25775E-03     114.283E-03     21.9862E+06    -247.761E+03     36.2410E+06    -3.80784E+06    -28.9359E-03     56.2119E-03    -27.2760E-03     874.596E-06    -28.8801E-03     56.1252E-03    -27.1263E-03     814.399E-06
            1362     6.13163E-03     114.316E-03     20.7096E+06    -1.30729E+06     39.0997E+06    -3.72413E+06    -29.9440E-03     57.6460E-03    -27.7019E-03     1.12474E-03    -29.8975E-03     57.5517E-03    -27.5346E-03     1.06299E-03
            1363     7.00441E-03     114.357E-03     19.7900E+06    -394.227E+03     43.2723E+06    -4.20947E+06    -31.0630E-03     59.2578E-03    -28.1948E-03     1.40037E-03    -31.0289E-03     59.1634E-03    -28.0066E-03     1.32927E-03
            1364     7.87595E-03     114.403E-03     18.4961E+06    -946.386E+03     46.5880E+06    -4.32018E+06    -32.2656E-03     61.0145E-03    -28.7489E-03     1.69489E-03    -32.2427E-03     60.9143E-03    -28.5414E-03     1.61868E-03
            1365     8.74616E-03     114.459E-03     17.3440E+06    -779.436E+03     49.8757E+06    -4.58104E+06    -33.5444E-03     62.9101E-03    -29.3657E-03     2.00038E-03    -33.5333E-03     62.8076E-03    -29.1403E-03     1.91631E-03
            1366     9.61476E-03     114.524E-03     16.3161E+06    -421.640E+03     53.3973E+06    -4.35980E+06    -34.8964E-03     64.9489E-03    -30.0526E-03     2.44570E-03    -34.8973E-03     64.8444E-03    -29.8086E-03     2.35907E-03
            1367     10.4816E-03     114.603E-03     14.6930E+06    -357.005E+03     55.3093E+06    -4.68223E+06    -36.1664E-03     66.9718E-03    -30.8054E-03     3.22653E-03    -36.1801E-03     66.8669E-03    -30.5497E-03     3.12997E-03
            1368     11.3464E-03     114.694E-03     12.9808E+06    -2.42823E+06     55.0738E+06    -4.04689E+06    -36.6465E-03     68.2454E-03    -31.5989E-03     5.00509E-03    -36.6673E-03     68.1325E-03    -31.3389E-03     4.91273E-03
            1369     12.2100E-03     114.805E-03     12.5989E+06    -1.94130E+06     56.9034E+06    -4.58197E+06    -35.1360E-03     67.4994E-03    -32.3634E-03     9.07200E-03    -35.1639E-03     67.3862E-03    -32.0944E-03     8.97373E-03
            1370     13.0746E-03     114.936E-03     10.6000E+06    -6.89650E+06     57.4356E+06    -6.45035E+06    -31.4542E-03     64.4405E-03    -32.9863E-03     17.2202E-03    -31.4869E-03     64.3049E-03    -32.7045E-03     17.1037E-03
            1371     13.9419E-03     115.095E-03     7.67542E+06    -2.34222E+06     55.2910E+06    -8.74926E+06    -28.2706E-03     61.6894E-03    -33.4188E-03     32.6985E-03    -28.3243E-03     61.5855E-03    -33.1500E-03     32.5566E-03
            1372     14.8169E-03     115.284E-03     10.0467E+06    -1.86220E+06     61.8113E+06    -4.36299E+06    -28.8626E-03     62.7400E-03    -33.8774E-03     57.3145E-03    -28.9362E-03     62.6467E-03    -33.5802E-03     57.2066E-03
            1373     15.6831E-03     115.520E-03     12.9200E+06     6.56543E+06     70.3226E+06    -990.931E+03    -20.3675E-03     54.4860E-03    -34.1185E-03     83.7734E-03    -20.5102E-03     54.4903E-03    -33.7951E-03     83.6742E-03
            1374     16.5616E-03     115.769E-03     4.20548E+06     8.94203E+06     37.9828E+06    -1.02553E+06     2.47188E-03     30.8527E-03    -33.3245E-03     87.6535E-03     2.30504E-03     30.9453E-03    -33.1537E-03     87.6128E-03
            1375     16.6568E-03     57.5731E-03    -4.13833E+06     158.528E+06     75.0598E+06    -100.354E+03    -29.8679E-03     56.3682E-03    -26.5002E-03     152.359E-03    -33.3327E-03     60.1633E-03    -26.3488E-03     154.051E-03
            1376     15.7787E-03     57.3562E-03    -6.89681E+06     123.660E+06     12.8969E+06     293.474E+03    -32.5137E-03     58.7877E-03    -26.2740E-03     190.427E-03    -35.8989E-03     62.5500E-03    -26.3788E-03     191.036E-03
            1377     14.9019E-03     57.2061E-03    -8.26690E+06     65.1987E+06    -16.6841E+06     379.755E+03    -29.9041E-03     56.1341E-03    -26.2300E-03     129.995E-03    -30.9228E-03     57.4033E-03    -26.3960E-03     129.827E-03
            1378     14.0244E-03     57.1079E-03    -8.15601E+06     11.4717E+06    -8.86014E+06     64.7712E+03    -28.2165E-03     54.5697E-03    -26.3532E-03     91.9731E-03    -28.5819E-03     54.9726E-03    -26.4023E-03     91.7767E-03
            1379     13.1484E-03     57.0308E-03    -7.80178E+06    -23.8120E+06    -7.34366E+06    -23.2822E+03    -27.8369E-03     54.2540E-03    -26.4171E-03     80.6756E-03    -28.0196E-03     54.3457E-03    -26.4079E-03     80.5032E-03
            1380     12.2715E-03     56.9551E-03    -7.74688E+06    -39.3614E+06    -2.46585E+06     75.8005E+03    -27.6731E-03     54.1453E-03    -26.4722E-03     75.2942E-03    -27.7745E-03     54.0866E-03    -26.4162E-03     75.1548E-03
            1381     11.3949E-03     56.8878E-03    -8.16773E+06    -50.6354E+06     21.0064E+03     115.904E+03    -27.4971E-03     54.0067E-03    -26.5096E-03     67.4791E-03    -27.5441E-03     53.8449E-03    -26.4242E-03     67.3678E-03
            1382     10.5183E-03     56.8268E-03    -8.76931E+06    -62.6480E+06    -395.722E+03     118.285E+03    -27.3623E-03     53.8941E-03    -26.5318E-03     61.8500E-03    -27.3688E-03     53.6482E-03    -26.4302E-03     61.7606E-03
            1383     9.64169E-03     56.7702E-03    -9.65790E+06    -71.2075E+06     1.51405E+06     114.511E+03    -27.2459E-03     53.8067E-03    -26.5608E-03     57.0486E-03    -27.2306E-03     53.4999E-03    -26.4360E-03     56.9772E-03
            1384     8.76514E-03     56.7183E-03    -10.7909E+06    -75.9936E+06     2.20502E+06     99.8437E+03    -27.1231E-03     53.7020E-03    -26.5788E-03     52.0850E-03    -27.0958E-03     53.3602E-03    -26.4420E-03     52.0284E-03
            1385     7.88857E-03     56.6712E-03    -12.2353E+06    -80.9141E+06     1.16701E+06     85.0445E+03    -27.0140E-03     53.6031E-03    -26.5891E-03     47.0893E-03    -26.9770E-03     53.2321E-03    -26.4482E-03     47.0450E-03
            1386     7.01202E-03     56.6288E-03    -13.8284E+06    -87.9662E+06    -255.910E+03     61.5699E+03    -26.9195E-03     53.5201E-03    -26.6007E-03     41.9673E-03    -26.8725E-03     53.1125E-03    -26.4543E-03     41.9327E-03
            1387     6.13549E-03     56.5914E-03    -15.5199E+06    -93.3639E+06    -3.15304E+06     18.8347E+03    -26.8307E-03     53.4331E-03    -26.6025E-03     36.7859E-03    -26.7761E-03     53.0012E-03    -26.4603E-03     36.7589E-03
            1388     5.25895E-03     56.5589E-03    -17.1447E+06    -97.2490E+06    -7.04112E+06    -30.0578E+03    -26.7531E-03     53.3503E-03    -26.5972E-03     31.5517E-03    -26.6926E-03     52.9041E-03    -26.4665E-03     31.5306E-03
            1389     4.38244E-03     56.5314E-03    -18.6723E+06    -103.032E+06    -11.0323E+06    -47.5050E+03    -26.6977E-03     53.2914E-03    -26.5937E-03     26.2564E-03    -26.6287E-03     52.8224E-03    -26.4724E-03     26.2402E-03
            1390     3.50592E-03     56.5090E-03    -20.1259E+06    -107.486E+06    -14.5444E+06    -56.4402E+03    -26.6523E-03     53.2419E-03    -26.5896E-03     20.9874E-03    -26.5778E-03     52.7565E-03    -26.4773E-03     20.9753E-03
            1391     2.62945E-03     56.4916E-03    -21.4028E+06    -109.282E+06    -17.9068E+06    -60.0666E+03    -26.6117E-03     53.1934E-03    -26.5818E-03     15.7576E-03    -26.5352E-03     52.7049E-03    -26.4818E-03     15.7489E-03
            1392     1.75294E-03     56.4791E-03    -22.3866E+06    -110.873E+06    -20.8172E+06    -44.1990E+03    -26.5887E-03     53.1636E-03    -26.5750E-03     10.5494E-03    -26.5100E-03     52.6723E-03    -26.4858E-03     10.5438E-03
            1393     876.475E-06     56.4715E-03    -23.0140E+06    -111.888E+06    -22.6073E+06    -21.7210E+03    -26.5779E-03     53.1475E-03    -26.5695E-03     5.69322E-03    -26.4980E-03     52.6544E-03    -26.4869E-03     5.69033E-03
            1394     16.6558E-03     56.5750E-03    -5.15698E+06     157.669E+06     73.9559E+06     12.6652E+03    -29.9755E-03     56.4778E-03    -26.5023E-03     154.847E-03    -33.4917E-03     60.3209E-03    -26.3536E-03     156.566E-03
            1395     15.7781E-03     56.3569E-03    -8.07856E+06     123.046E+06     12.6945E+06     657.744E+03    -32.8995E-03     59.1764E-03    -26.2769E-03     192.551E-03    -36.3209E-03     62.9691E-03    -26.3801E-03     193.158E-03
            1396     14.9013E-03     56.2063E-03    -7.65012E+06     66.1781E+06    -15.2676E+06     254.748E+03    -30.1434E-03     56.3683E-03    -26.2248E-03     130.560E-03    -31.1699E-03     57.6468E-03    -26.3860E-03     130.385E-03
            1397     14.0254E-03     56.1087E-03    -7.13929E+06     11.7568E+06    -8.29019E+06    -213.326E+03    -28.1474E-03     54.4871E-03    -26.3397E-03     91.6786E-03    -28.5074E-03     54.8875E-03    -26.3878E-03     91.4792E-03
            1398     13.1479E-03     56.0313E-03    -7.33754E+06    -23.9478E+06    -7.13253E+06    -104.916E+03    -27.6868E-03     54.0961E-03    -26.4093E-03     80.6467E-03    -27.8665E-03     54.1854E-03    -26.3996E-03     80.4750E-03
            1399     12.2715E-03     55.9555E-03    -7.60729E+06    -39.4970E+06    -2.43751E+06     10.8826E+03    -27.7509E-03     54.2166E-03    -26.4657E-03     75.2475E-03    -27.8520E-03     54.1575E-03    -26.4096E-03     75.1065E-03
            1400     11.3950E-03     55.8883E-03    -8.11609E+06    -50.6138E+06     110.086E+03     66.8238E+03    -27.4986E-03     53.9983E-03    -26.4997E-03     67.4033E-03    -27.5454E-03     53.8363E-03    -26.4140E-03     67.2913E-03
            1401     10.5184E-03     55.8273E-03    -8.75040E+06    -62.6572E+06    -372.279E+03     103.383E+03    -27.3487E-03     53.8699E-03    -26.5212E-03     61.8357E-03    -27.3552E-03     53.6240E-03    -26.4196E-03     61.7461E-03
            1402     9.64183E-03     55.7707E-03    -9.61500E+06    -71.1901E+06     1.53719E+06     139.370E+03    -27.2323E-03     53.7827E-03    -26.5504E-03     57.0277E-03    -27.2168E-03     53.4759E-03    -26.4256E-03     56.9566E-03
            1403     8.76522E-03     55.7189E-03    -10.8394E+06    -75.9250E+06     2.24417E+06     124.059E+03    -27.1055E-03     53.6745E-03    -26.5691E-03     52.0839E-03    -27.0785E-03     53.3331E-03    -26.4320E-03     52.0278E-03
            1404     7.88865E-03     55.6716E-03    -12.2023E+06    -80.8591E+06     1.31255E+06     53.8410E+03    -26.9985E-03     53.5790E-03    -26.5805E-03     47.0863E-03    -26.9617E-03     53.2080E-03    -26.4390E-03     47.0417E-03
            1405     7.01209E-03     55.6293E-03    -13.7183E+06    -87.9316E+06    -77.6891E+03     4.79141E+03    -26.9011E-03     53.4942E-03    -26.5931E-03     41.9637E-03    -26.8539E-03     53.0863E-03    -26.4461E-03     41.9285E-03
            1406     6.13552E-03     55.5918E-03    -15.3760E+06    -93.2999E+06    -3.06010E+06    -49.4122E+03    -26.8153E-03     53.4109E-03    -26.5956E-03     36.7842E-03    -26.7602E-03     52.9789E-03    -26.4534E-03     36.7563E-03
            1407     5.25899E-03     55.5594E-03    -17.0864E+06    -97.2406E+06    -7.05732E+06    -81.5555E+03    -26.7413E-03     53.3325E-03    -26.5912E-03     31.5528E-03    -26.6804E-03     52.8862E-03    -26.4607E-03     31.5311E-03
            1408     4.38245E-03     55.5319E-03    -18.6986E+06    -103.067E+06    -11.1226E+06    -59.5366E+03    -26.6876E-03     53.2762E-03    -26.5886E-03     26.2582E-03    -26.6186E-03     52.8072E-03    -26.4677E-03     26.2418E-03
            1409     3.50596E-03     55.5095E-03    -20.1683E+06    -107.489E+06    -14.6667E+06    -30.4168E+03    -26.6430E-03     53.2286E-03    -26.5856E-03     20.9919E-03    -26.5685E-03     52.7435E-03    -26.4738E-03     20.9801E-03
            1410     2.62943E-03     55.4920E-03    -21.4780E+06    -109.311E+06    -18.0556E+06    -26.6935E+03    -26.6044E-03     53.1837E-03    -26.5793E-03     15.7642E-03    -26.5280E-03     52.6953E-03    -26.4799E-03     15.7559E-03
            1411     1.75297E-03     55.4796E-03    -22.4596E+06    -110.920E+06    -20.9382E+06    -14.9691E+03    -26.5826E-03     53.1578E-03    -26.5752E-03     10.5670E-03    -26.5041E-03     52.6666E-03    -26.4865E-03     10.5617E-03
            1412     876.458E-06     55.4720E-03    -23.0608E+06    -111.892E+06    -22.6556E+06    -16.4860E+03    -26.5859E-03     53.1518E-03    -26.5659E-03     5.68863E-03    -26.5062E-03     52.6589E-03    -26.4835E-03     5.68582E-03
            1413     16.6522E-03     55.5712E-03    -4.87955E+06     157.811E+06     74.7071E+06     480.060E+03    -30.0079E-03     56.5337E-03    -26.5258E-03     153.859E-03    -33.5183E-03     60.3704E-03    -26.3740E-03     155.574E-03
            1414     15.7776E-03     55.3586E-03    -7.82390E+06     123.544E+06     14.1886E+06    -42.0910E+03    -33.3876E-03     59.6670E-03    -26.2794E-03     190.316E-03    -36.7898E-03     63.4388E-03    -26.3762E-03     190.897E-03
            1415     14.9016E-03     55.2044E-03    -7.40419E+06     65.9683E+06    -14.7042E+06    -246.301E+03    -30.0699E-03     56.2728E-03    -26.2028E-03     129.118E-03    -31.0853E-03     57.5387E-03    -26.3613E-03     128.935E-03
            1416     14.0252E-03     55.1101E-03    -6.59012E+06     11.6976E+06    -7.96276E+06    -93.5984E+03    -27.9319E-03     54.2519E-03    -26.3200E-03     91.1176E-03    -28.2865E-03     54.6477E-03    -26.3672E-03     90.9225E-03
            1417     13.1485E-03     55.0320E-03    -7.09112E+06    -23.8298E+06    -6.98158E+06     7.70355E+03    -27.7210E-03     54.1136E-03    -26.3926E-03     80.7933E-03    -27.9012E-03     54.2043E-03    -26.3827E-03     80.6222E-03
            1418     12.2719E-03     54.9558E-03    -7.60879E+06    -39.5267E+06    -2.42210E+06     82.1472E+03    -27.6620E-03     54.1119E-03    -26.4498E-03     75.1335E-03    -27.7628E-03     54.0523E-03    -26.3936E-03     74.9939E-03
            1419     11.3951E-03     54.8889E-03    -8.21933E+06    -50.6559E+06     125.558E+03     51.4005E+03    -27.4559E-03     53.9434E-03    -26.4876E-03     67.3697E-03    -27.5032E-03     53.7814E-03    -26.4016E-03     67.2576E-03
            1420     10.5186E-03     54.8277E-03     -8.9081E+06    -62.6779E+06    -299.333E+03     30.3997E+03    -27.3249E-03     53.8360E-03    -26.5111E-03     61.8632E-03    -27.3322E-03     53.5900E-03    -26.4087E-03     61.7728E-03
            1421     9.64191E-03     54.7713E-03    -9.70144E+06    -71.2319E+06     1.58574E+06     108.637E+03    -27.2106E-03     53.7517E-03    -26.5412E-03     57.0707E-03    -27.1955E-03     53.4447E-03    -26.4159E-03     56.9993E-03
            1422     8.76532E-03     54.7193E-03    -10.7243E+06    -75.7710E+06     2.46176E+06     48.1529E+03    -27.0929E-03     53.6538E-03    -26.5609E-03     52.1221E-03    -27.0659E-03     53.3126E-03    -26.4232E-03     52.0651E-03
            1423     7.88873E-03     54.6722E-03    -11.9870E+06    -80.8222E+06     1.44219E+06    -48.6617E+03    -26.9809E-03     53.5537E-03    -26.5728E-03     47.1192E-03    -26.9432E-03     53.1824E-03    -26.4310E-03     47.0734E-03
            1424     7.01213E-03     54.6298E-03    -13.5214E+06    -87.9383E+06    -140.344E+03    -30.5084E+03    -26.8883E-03     53.4739E-03    -26.5856E-03     41.9914E-03    -26.8400E-03     53.0658E-03    -26.4392E-03     41.9558E-03
            1425     6.13558E-03     54.5924E-03    -15.2882E+06    -93.2488E+06    -3.11839E+06    -11.1393E+03    -26.8035E-03     53.3927E-03    -26.5892E-03     36.8039E-03    -26.7479E-03     52.9609E-03    -26.4474E-03     36.7767E-03
            1426     5.25901E-03     54.5599E-03    -17.0746E+06    -97.2598E+06    -7.12012E+06    -17.5278E+03    -26.7311E-03     53.3170E-03    -26.5859E-03     31.5671E-03    -26.6701E-03     52.8708E-03    -26.4557E-03     31.5463E-03
            1427     4.38248E-03     54.5324E-03    -18.7349E+06    -103.102E+06    -11.2037E+06    -12.4684E+03    -26.6783E-03     53.2627E-03    -26.5843E-03     26.2669E-03    -26.6093E-03     52.7937E-03    -26.4637E-03     26.2512E-03
            1428     3.50594E-03     54.5100E-03    -20.2233E+06    -107.519E+06    -14.7689E+06     9.15695E+03    -26.6352E-03     53.2176E-03    -26.5824E-03     21.0000E-03    -26.5608E-03     52.7326E-03    -26.4710E-03     20.9887E-03
            1429     2.62946E-03     54.4925E-03    -21.5011E+06    -109.298E+06    -18.1050E+06     24.0643E+03    -26.5982E-03     53.1758E-03    -26.5777E-03     15.7633E-03    -26.5219E-03     52.6877E-03    -26.4785E-03     15.7557E-03
            1430     1.75292E-03     54.4800E-03    -22.4766E+06    -110.919E+06    -20.9351E+06        -237.701    -26.5805E-03     53.1557E-03    -26.5752E-03     10.5811E-03    -26.5021E-03     52.6644E-03    -26.4864E-03     10.5760E-03
            1431     876.482E-06     54.4724E-03    -23.0719E+06    -111.905E+06    -22.6830E+06    -3.37718E+03    -26.5846E-03     53.1527E-03    -26.5681E-03     5.69886E-03    -26.5048E-03     52.6597E-03    -26.4858E-03     5.69621E-03
            1432     16.6578E-03     54.5758E-03    -4.52567E+06     158.143E+06     75.5558E+06     387.653E+03    -30.7042E-03     57.1683E-03    -26.4641E-03     152.885E-03    -34.1910E-03     60.9814E-03    -26.3091E-03     154.547E-03
            1433     15.7798E-03     54.3553E-03    -6.18618E+06     124.674E+06     15.1298E+06     96.4021E+03    -32.9822E-03     59.1910E-03    -26.2088E-03     190.512E-03    -36.3925E-03     62.9781E-03    -26.3050E-03     191.112E-03
            1434     14.9040E-03     54.2076E-03    -7.07999E+06     65.7073E+06    -15.1813E+06    -144.954E+03    -29.5319E-03     55.6842E-03    -26.1523E-03     128.241E-03    -30.5344E-03     56.9389E-03    -26.3132E-03     128.070E-03
            1435     14.0252E-03     54.1103E-03    -7.26355E+06     11.3534E+06    -8.28043E+06     246.965E+03    -27.5452E-03     53.8415E-03    -26.2963E-03     91.7589E-03    -27.9018E-03     54.2367E-03    -26.3436E-03     91.5727E-03
            1436     13.1489E-03     54.0325E-03    -7.27897E+06    -23.8280E+06    -7.05541E+06     246.357E+03    -27.7236E-03     54.1048E-03    -26.3812E-03     81.1548E-03    -27.9060E-03     54.1973E-03    -26.3714E-03     80.9862E-03
            1437     12.2720E-03     53.9567E-03    -7.64393E+06    -39.5629E+06    -2.38557E+06     165.367E+03    -27.6333E-03     54.0733E-03    -26.4399E-03     75.4650E-03    -27.7344E-03     54.0137E-03    -26.3834E-03     75.3267E-03
            1438     11.3953E-03     53.8892E-03    -8.21437E+06    -50.5792E+06     136.131E+03     179.893E+03    -27.4105E-03     53.8907E-03    -26.4801E-03     67.5379E-03    -27.4579E-03     53.7289E-03    -26.3942E-03     67.4278E-03
            1439     10.5186E-03     53.8285E-03    -9.08132E+06    -62.6657E+06    -374.386E+03     105.345E+03    -27.3072E-03     53.8131E-03    -26.5059E-03     61.9779E-03    -27.3153E-03     53.5675E-03    -26.4037E-03     61.8886E-03
            1440     9.64195E-03     53.7717E-03    -9.89416E+06    -71.0865E+06     1.34405E+06    -151.030E+03    -27.2040E-03     53.7399E-03    -26.5359E-03     57.1764E-03    -27.1897E-03     53.4342E-03    -26.4117E-03     57.1018E-03
            1441     8.76537E-03     53.7199E-03    -10.7546E+06    -75.8171E+06     2.09723E+06    -214.124E+03    -27.0866E-03     53.6421E-03    -26.5555E-03     52.1951E-03    -27.0591E-03     53.3012E-03    -26.4195E-03     52.1349E-03
            1442     7.88874E-03     53.6726E-03    -12.0643E+06    -80.9210E+06     1.16130E+06    -24.0999E+03    -26.9768E-03     53.5451E-03    -26.5683E-03     47.1748E-03    -26.9389E-03     53.1738E-03    -26.4277E-03     47.1293E-03
            1443     7.01216E-03     53.6303E-03    -13.7513E+06    -87.9229E+06    -431.486E+03     24.9971E+03    -26.8833E-03     53.4647E-03    -26.5814E-03     42.0308E-03    -26.8356E-03     53.0574E-03    -26.4362E-03     41.9960E-03
            1444     6.13558E-03     53.5929E-03    -15.4842E+06    -93.2816E+06    -3.33844E+06     26.3515E+03    -26.8017E-03     53.3871E-03    -26.5854E-03     36.8301E-03    -26.7467E-03     52.9558E-03    -26.4444E-03     36.8034E-03
            1445     5.25904E-03     53.5604E-03    -17.1926E+06    -97.2275E+06    -7.24643E+06     50.0302E+03    -26.7272E-03     53.3096E-03    -26.5824E-03     31.5821E-03    -26.6666E-03     52.8638E-03    -26.4527E-03     31.5621E-03
            1446     4.38247E-03     53.5329E-03    -18.8045E+06    -103.115E+06    -11.2202E+06     33.0591E+03    -26.6748E-03     53.2563E-03    -26.5814E-03     26.2749E-03    -26.6061E-03     52.7873E-03    -26.4608E-03     26.2598E-03
            1447     3.50598E-03     53.5105E-03    -20.2545E+06    -107.514E+06    -14.7551E+06     33.8549E+03    -26.6316E-03     53.2113E-03    -26.5797E-03     21.0024E-03    -26.5574E-03     52.7263E-03    -26.4682E-03     20.9915E-03
            1448     2.62944E-03     53.4930E-03    -21.5031E+06    -109.289E+06    -18.1029E+06     23.7691E+03    -26.5952E-03     53.1701E-03    -26.5750E-03     15.7689E-03    -26.5189E-03     52.6820E-03    -26.4758E-03     15.7613E-03
            1449     1.75298E-03     53.4805E-03    -22.4655E+06    -110.897E+06    -20.9457E+06     38.2730E+03    -26.5782E-03     53.1505E-03    -26.5724E-03     10.5976E-03    -26.4997E-03     52.6594E-03    -26.4837E-03     10.5931E-03
            1450     876.450E-06     53.4729E-03    -23.0914E+06    -111.884E+06    -22.6675E+06    -7.29952E+03    -26.5672E-03     53.1471E-03    -26.5799E-03     5.70947E-03    -26.4877E-03     52.6543E-03    -26.4975E-03     5.70676E-03
            1451     16.6570E-03     53.5792E-03    -4.36086E+06     158.124E+06     75.4053E+06    -376.873E+03    -31.1390E-03     57.5540E-03    -26.4150E-03     152.248E-03    -34.6452E-03     61.3874E-03    -26.2609E-03     153.886E-03
            1452     15.7798E-03     53.3542E-03    -6.47426E+06     124.102E+06     14.3975E+06    -95.4987E+03    -32.0990E-03     58.2764E-03    -26.1773E-03     192.555E-03    -35.5557E-03     62.1089E-03    -26.2759E-03     193.198E-03
            1453     14.9024E-03     53.2090E-03    -7.08284E+06     65.5482E+06    -15.5298E+06     546.798E+03    -29.0304E-03     55.1988E-03    -26.1684E-03     129.675E-03    -30.0307E-03     56.4517E-03    -26.3308E-03     129.525E-03
            1454     14.0261E-03     53.1118E-03    -7.41642E+06     11.6636E+06    -8.43797E+06     638.563E+03    -27.9249E-03     54.2471E-03    -26.3222E-03     93.7160E-03    -28.2914E-03     54.6532E-03    -26.3706E-03     93.5300E-03
            1455     13.1482E-03     53.0331E-03    -7.47181E+06    -23.8264E+06    -7.30978E+06     319.216E+03    -27.8681E-03     54.2637E-03    -26.3956E-03     81.8081E-03    -28.0522E-03     54.3579E-03    -26.3867E-03     81.6393E-03
            1456     12.2719E-03     52.9570E-03    -7.40503E+06    -39.5872E+06    -2.43449E+06     242.823E+03    -27.7468E-03     54.1945E-03    -26.4477E-03     75.5403E-03    -27.8469E-03     54.1348E-03    -26.3917E-03     75.4023E-03
            1457     11.3952E-03     52.8901E-03    -8.02424E+06    -50.5387E+06     129.067E+03     268.630E+03    -27.4357E-03     53.9196E-03    -26.4839E-03     67.7099E-03    -27.4821E-03     53.7578E-03    -26.3983E-03     67.6011E-03
            1458     10.5185E-03     52.8288E-03    -8.59012E+06    -62.3942E+06    -324.722E+03     165.185E+03    -27.3243E-03     53.8326E-03    -26.5083E-03     62.0826E-03    -27.3304E-03     53.5876E-03    -26.4070E-03     61.9940E-03
            1459     9.64197E-03     52.7724E-03    -9.48224E+06    -70.7552E+06     1.35172E+06    -123.754E+03    -27.2175E-03     53.7549E-03    -26.5374E-03     57.2395E-03    -27.2016E-03     53.4503E-03    -26.4143E-03     57.1654E-03
            1460     8.76528E-03     52.7203E-03    -10.9326E+06    -76.0359E+06     1.81201E+06    -194.668E+03    -27.0952E-03     53.6519E-03    -26.5566E-03     52.2455E-03    -27.0679E-03     53.3105E-03    -26.4215E-03     52.1855E-03
            1461     7.88875E-03     52.6732E-03    -12.4261E+06    -81.1207E+06     921.203E+03    -18.5376E+03    -26.9866E-03     53.5557E-03    -26.5692E-03     47.1988E-03    -26.9499E-03     53.1843E-03    -26.4289E-03     47.1534E-03
            1462     7.01214E-03     52.6308E-03    -13.9434E+06    -87.8504E+06    -518.043E+03     46.9700E+03    -26.8909E-03     53.4723E-03    -26.5814E-03     42.0539E-03    -26.8442E-03     53.0657E-03    -26.4364E-03     42.0194E-03
            1463     6.13560E-03     52.5934E-03    -15.6379E+06    -93.3164E+06    -3.47053E+06     11.3396E+03    -26.8073E-03     53.3916E-03    -26.5843E-03     36.8399E-03    -26.7528E-03     52.9604E-03    -26.4437E-03     36.8130E-03
            1464     5.25903E-03     52.5609E-03    -17.2976E+06    -97.2140E+06    -7.25800E+06     17.9712E+03    -26.7313E-03     53.3120E-03    -26.5807E-03     31.5868E-03    -26.6713E-03     52.8665E-03    -26.4509E-03     31.5665E-03
            1465     4.38251E-03     52.5334E-03    -18.8439E+06    -103.114E+06    -11.2073E+06     33.2258E+03    -26.6764E-03     53.2553E-03    -26.5788E-03     26.2785E-03    -26.6079E-03     52.7863E-03    -26.4580E-03     26.2635E-03
            1466     3.50597E-03     52.5110E-03    -20.2848E+06    -107.490E+06    -14.7604E+06     25.0342E+03    -26.6302E-03     53.2064E-03    -26.5762E-03     21.0025E-03    -26.5561E-03     52.7215E-03    -26.4647E-03     20.9915E-03
            1467     2.62947E-03     52.4935E-03    -21.5554E+06    -109.301E+06    -18.1659E+06     41.5699E+03    -26.5933E-03     53.1640E-03    -26.5706E-03     15.7752E-03    -26.5172E-03     52.6760E-03    -26.4717E-03     15.7679E-03
            1468     1.75294E-03     52.4810E-03    -22.5220E+06    -110.862E+06    -21.0583E+06     63.5792E+03    -26.5737E-03     53.1410E-03    -26.5673E-03     10.6082E-03    -26.4955E-03     52.6503E-03    -26.4791E-03     10.6040E-03
            1469     876.496E-06     52.4734E-03    -23.0676E+06    -111.804E+06    -22.7815E+06     64.1956E+03    -26.5668E-03     53.1373E-03    -26.5705E-03     5.72203E-03    -26.4870E-03     52.6450E-03    -26.4889E-03     5.72025E-03
            1470     16.6576E-03     52.5756E-03    -4.58848E+06     157.837E+06     73.9685E+06    -654.283E+03    -30.5248E-03     57.0072E-03    -26.4824E-03     154.182E-03    -34.0794E-03     60.8914E-03    -26.3348E-03     155.869E-03
            1471     15.7805E-03     52.3597E-03    -7.47283E+06     123.115E+06     12.8887E+06     122.125E+03    -32.4780E-03     58.7326E-03    -26.2546E-03     192.878E-03    -35.9456E-03     62.5733E-03    -26.3578E-03     193.513E-03
            1472     14.9002E-03     52.2089E-03    -8.09333E+06     65.4403E+06    -15.6945E+06     701.448E+03    -29.2341E-03     55.4752E-03    -26.2411E-03     130.833E-03    -30.2418E-03     56.7321E-03    -26.4027E-03     130.685E-03
            1473     14.0232E-03     52.1121E-03    -7.43865E+06     11.9510E+06    -8.40742E+06     390.072E+03    -28.5954E-03     54.9679E-03    -26.3725E-03     93.1622E-03    -28.9657E-03     55.3787E-03    -26.4211E-03     92.9653E-03
            1474     13.1483E-03     52.0330E-03    -7.20326E+06    -23.6124E+06    -7.02144E+06     264.209E+03    -28.1387E-03     54.5563E-03    -26.4175E-03     81.2752E-03    -28.3219E-03     54.6504E-03    -26.4080E-03     81.1036E-03
            1475     12.2716E-03     51.9578E-03    -7.58404E+06    -39.4777E+06    -2.55062E+06     265.908E+03    -27.7425E-03     54.2023E-03    -26.4597E-03     75.3608E-03    -27.8432E-03     54.1432E-03    -26.4042E-03     75.2233E-03
            1476     11.3950E-03     51.8904E-03    -7.89618E+06    -50.5523E+06     138.377E+03     130.628E+03    -27.5032E-03     53.9976E-03    -26.4944E-03     67.7097E-03    -27.5492E-03     53.8358E-03    -26.4090E-03     67.5986E-03
            1477     10.5185E-03     51.8295E-03    -8.43557E+06    -62.1554E+06    -259.325E+03     73.1144E+03    -27.3565E-03     53.8720E-03    -26.5156E-03     62.1088E-03    -27.3622E-03     53.6279E-03    -26.4145E-03     62.0189E-03
            1478     9.64181E-03     51.7727E-03    -9.39777E+06    -70.7150E+06     1.51508E+06     178.002E+03    -27.2402E-03     53.7841E-03    -26.5438E-03     57.2452E-03    -27.2242E-03     53.4792E-03    -26.4201E-03     57.1749E-03
            1479     8.76533E-03     51.7209E-03    -10.8070E+06    -75.9857E+06     2.06746E+06     206.339E+03    -27.1157E-03     53.6776E-03    -26.5619E-03     52.2386E-03    -27.0882E-03     53.3360E-03    -26.4257E-03     52.1838E-03
            1480     7.88868E-03     51.6737E-03    -12.4424E+06    -81.0976E+06     887.402E+03    -13.5099E+03    -27.0024E-03     53.5741E-03    -26.5717E-03     47.2020E-03    -26.9658E-03     53.2028E-03    -26.4316E-03     47.1567E-03
            1481     7.01216E-03     51.6314E-03    -14.0160E+06    -87.9097E+06    -542.879E+03    -43.8944E+03    -26.9062E-03     53.4887E-03    -26.5825E-03     42.0476E-03    -26.8597E-03     53.0820E-03    -26.4374E-03     42.0119E-03
            1482     6.13558E-03     51.5939E-03    -15.6320E+06    -93.2345E+06    -3.44080E+06    -26.6354E+03    -26.8152E-03     53.3990E-03    -26.5839E-03     36.8359E-03    -26.7609E-03     52.9682E-03    -26.4432E-03     36.8085E-03
            1483     5.25906E-03     51.5614E-03    -17.2780E+06    -97.2855E+06    -7.28708E+06    -56.6096E+03    -26.7378E-03     53.3167E-03    -26.5789E-03     31.5819E-03    -26.6775E-03     52.8708E-03    -26.4492E-03     31.5606E-03
            1484     4.38250E-03     51.5339E-03    -18.8376E+06    -103.126E+06    -11.2485E+06     10.2402E+03    -26.6789E-03     53.2545E-03    -26.5757E-03     26.2759E-03    -26.6103E-03     52.7856E-03    -26.4551E-03     26.2605E-03
            1485     3.50600E-03     51.5115E-03    -20.3069E+06    -107.492E+06    -14.7582E+06     47.5661E+03    -26.6315E-03     53.2036E-03    -26.5721E-03     21.0009E-03    -26.5576E-03     52.7188E-03    -26.4606E-03     20.9901E-03
            1486     2.62947E-03     51.4940E-03    -21.6049E+06    -109.296E+06    -18.1122E+06     59.0277E+03    -26.5923E-03     53.1575E-03    -26.5652E-03     15.7764E-03    -26.5165E-03     52.6695E-03    -26.4660E-03     15.7692E-03
            1487     1.75300E-03     51.4815E-03    -22.5487E+06    -110.824E+06    -21.0251E+06     65.3840E+03    -26.5685E-03     53.1288E-03    -26.5603E-03     10.6142E-03    -26.4905E-03     52.6383E-03    -26.4720E-03     10.6100E-03
            1488     876.447E-06     51.4738E-03    -23.1046E+06    -111.698E+06    -22.6891E+06     85.3462E+03    -26.5703E-03     53.1220E-03    -26.5517E-03     5.74769E-03    -26.4910E-03     52.6301E-03    -26.4697E-03     5.74616E-03
            1489     16.6490E-03     51.5692E-03    -5.08259E+06     156.931E+06     72.6498E+06    -152.276E+03    -29.1646E-03     55.7161E-03    -26.5516E-03     153.796E-03    -32.6666E-03     59.5466E-03    -26.4085E-03     155.529E-03
            1490     15.7755E-03     51.3598E-03    -8.79416E+06     122.196E+06     12.1392E+06    -352.013E+03    -32.9317E-03     59.2703E-03    -26.3386E-03     189.249E-03    -36.3308E-03     63.0367E-03    -26.4424E-03     189.849E-03
            1491     14.9008E-03     51.2105E-03    -8.93217E+06     66.2514E+06    -15.1453E+06    -144.511E+03    -30.3589E-03     56.6334E-03    -26.2745E-03     130.343E-03    -31.3902E-03     57.9121E-03    -26.4334E-03     130.163E-03
            1492     14.0253E-03     51.1106E-03    -8.30649E+06     12.1149E+06    -9.20001E+06     13.4915E+03    -28.5738E-03     54.9395E-03    -26.3657E-03     92.0391E-03    -28.9430E-03     55.3489E-03    -26.4172E-03     91.8379E-03
            1493     13.1483E-03     51.0339E-03    -7.71753E+06    -23.8438E+06    -7.59910E+06     218.363E+03    -27.9221E-03     54.3392E-03    -26.4171E-03     80.6437E-03    -28.1046E-03     54.4317E-03    -26.4093E-03     80.4737E-03
            1494     12.2715E-03     50.9580E-03    -7.62060E+06    -39.3681E+06    -2.58739E+06     195.274E+03    -27.7133E-03     54.1819E-03    -26.4686E-03     75.3833E-03    -27.8141E-03     54.1234E-03    -26.4134E-03     75.2452E-03
            1495     11.3950E-03     50.8909E-03    -8.07887E+06    -50.3904E+06     12.3943E+03     82.2270E+03    -27.5287E-03     54.0324E-03    -26.5037E-03     67.6637E-03    -27.5758E-03     53.8719E-03    -26.4188E-03     67.5518E-03
            1496     10.5183E-03     50.8299E-03     -8.8857E+06    -62.3090E+06    -459.588E+03     107.679E+03    -27.3983E-03     53.9213E-03    -26.5230E-03     62.0735E-03    -27.4059E-03     53.6775E-03    -26.4221E-03     61.9839E-03
            1497     9.64187E-03     50.7733E-03    -9.80667E+06    -70.8447E+06     1.30592E+06     309.463E+03    -27.2641E-03     53.8127E-03    -26.5486E-03     57.2169E-03    -27.2496E-03     53.5082E-03    -26.4251E-03     57.1482E-03
            1498     8.76520E-03     50.7214E-03    -10.9223E+06    -75.7879E+06     2.06502E+06     288.489E+03    -27.1347E-03     53.6996E-03    -26.5650E-03     52.2112E-03    -27.1080E-03     53.3592E-03    -26.4289E-03     52.1574E-03
            1499     7.88871E-03     50.6742E-03    -12.2270E+06    -80.7885E+06     1.16928E+06     98.5563E+03    -27.0205E-03     53.5943E-03    -26.5737E-03     47.1747E-03    -26.9837E-03     53.2238E-03    -26.4330E-03     47.1308E-03
            1500     7.01212E-03     50.6318E-03    -13.8490E+06    -87.9533E+06    -450.298E+03    -106.070E+03    -26.9172E-03     53.4997E-03    -26.5826E-03     42.0223E-03    -26.8699E-03     53.0924E-03    -26.4372E-03     41.9858E-03
            1501     6.13561E-03     50.5944E-03    -15.5385E+06    -93.2783E+06    -3.46352E+06    -66.8433E+03    -26.8231E-03     53.4052E-03    -26.5821E-03     36.8173E-03    -26.7682E-03     52.9741E-03    -26.4416E-03     36.7893E-03
            1502     5.25905E-03     50.5619E-03    -17.2879E+06    -97.2829E+06    -7.37851E+06    -5.24316E+03    -26.7403E-03     53.3160E-03    -26.5757E-03     31.5686E-03    -26.6799E-03     52.8703E-03    -26.4465E-03     31.5480E-03
            1503     4.38254E-03     50.5344E-03    -18.9301E+06    -103.178E+06    -11.2606E+06    -33.7819E+03    -26.6812E-03     53.2532E-03    -26.5720E-03     26.2647E-03    -26.6130E-03     52.7842E-03    -26.4513E-03     26.2488E-03
            1504     3.50600E-03     50.5120E-03    -20.3170E+06    -107.535E+06    -14.7127E+06     17.2690E+03    -26.6317E-03     53.1989E-03    -26.5672E-03     20.9967E-03    -26.5577E-03     52.7138E-03    -26.4554E-03     20.9856E-03
            1505     2.62951E-03     50.4945E-03    -21.5718E+06    -109.260E+06    -17.9595E+06     59.8383E+03    -26.5899E-03     53.1493E-03    -26.5594E-03     15.7763E-03    -26.5142E-03     52.6612E-03    -26.4595E-03     15.7692E-03
            1506     1.75296E-03     50.4820E-03    -22.5951E+06    -110.751E+06    -20.7520E+06    -7.46851E+03    -26.5663E-03     53.1188E-03    -26.5525E-03     10.6242E-03    -26.4890E-03     52.6283E-03    -26.4629E-03     10.6191E-03
            1507     876.531E-06     50.4743E-03    -23.1610E+06    -111.710E+06    -22.5766E+06    -104.829E+03    -26.5507E-03     53.1003E-03    -26.5496E-03     5.75793E-03    -26.4718E-03     52.6083E-03    -26.4669E-03     5.75394E-03
            1508     16.6594E-03     50.5745E-03    -4.22955E+06     157.802E+06     74.8255E+06     596.365E+03    -29.2813E-03     55.7917E-03    -26.5104E-03     153.009E-03    -32.7165E-03     59.5551E-03    -26.3590E-03     154.739E-03
            1509     15.7775E-03     50.3599E-03    -7.48911E+06     122.368E+06     12.6430E+06    -25.1867E+03    -32.2745E-03     58.5765E-03    -26.3020E-03     188.399E-03    -35.6096E-03     62.2826E-03    -26.4053E-03     189.016E-03
            1510     14.9014E-03     50.2084E-03    -8.09500E+06     65.8112E+06    -16.2610E+06    -221.042E+03    -30.3432E-03     56.5895E-03    -26.2463E-03     129.661E-03    -31.3713E-03     57.8697E-03    -26.4113E-03     129.477E-03
            1511     14.0248E-03     50.1121E-03    -8.03836E+06     12.0112E+06    -8.90660E+06    -76.5026E+03    -28.2128E-03     54.5673E-03    -26.3544E-03     92.3242E-03    -28.5796E-03     54.9739E-03    -26.4047E-03     92.1261E-03
            1512     13.1479E-03     50.0341E-03    -8.12217E+06    -24.1477E+06    -8.00059E+06     37.9308E+03    -27.7843E-03     54.2044E-03    -26.4201E-03     80.9709E-03    -27.9677E-03     54.2964E-03    -26.4133E-03     80.7998E-03
            1513     12.2715E-03     49.9586E-03    -8.18083E+06    -39.3273E+06    -2.83835E+06     104.875E+03    -27.7584E-03     54.2341E-03    -26.4758E-03     75.3876E-03    -27.8619E-03     54.1772E-03    -26.4211E-03     75.2478E-03
            1514     11.3948E-03     49.8913E-03    -8.70441E+06    -50.2315E+06    -145.394E+03     110.863E+03    -27.5464E-03     54.0556E-03    -26.5092E-03     67.6168E-03    -27.5966E-03     53.8970E-03    -26.4245E-03     67.5052E-03
            1515     10.5184E-03     49.8303E-03    -9.31719E+06    -62.4622E+06    -674.814E+03     98.4479E+03    -27.4223E-03     53.9491E-03    -26.5268E-03     61.9781E-03    -27.4315E-03     53.7054E-03    -26.4261E-03     61.8882E-03
            1516     9.64173E-03     49.7737E-03    -10.0520E+06    -70.9975E+06     1.15241E+06     182.730E+03    -27.2868E-03     53.8371E-03    -26.5503E-03     57.1553E-03    -27.2732E-03     53.5324E-03    -26.4270E-03     57.0848E-03
            1517     8.76528E-03     49.7218E-03    -11.0023E+06    -75.5173E+06     2.10320E+06     126.591E+03    -27.1494E-03     53.7143E-03    -26.5649E-03     52.1675E-03    -27.1237E-03     53.3753E-03    -26.4289E-03     52.1115E-03
            1518     7.88869E-03     49.6747E-03    -12.2702E+06    -80.6547E+06     1.19368E+06    -6.87158E+03    -27.0284E-03     53.6006E-03    -26.5722E-03     47.1323E-03    -26.9920E-03     53.2309E-03    -26.4315E-03     47.0870E-03
            1519     7.01217E-03     49.6323E-03    -13.7976E+06    -87.8289E+06    -320.629E+03    -26.9932E+03    -26.9217E-03     53.5020E-03    -26.5804E-03     41.9893E-03    -26.8745E-03     53.0951E-03    -26.4346E-03     41.9538E-03
            1520     6.13561E-03     49.5949E-03    -15.5998E+06    -93.4239E+06    -3.38488E+06    -65.3544E+03    -26.8256E-03     53.4048E-03    -26.5792E-03     36.7879E-03    -26.7709E-03     52.9729E-03    -26.4381E-03     36.7600E-03
            1521     5.25909E-03     49.5624E-03    -17.2605E+06    -97.3020E+06    -7.22081E+06     6.98910E+03    -26.7404E-03     53.3124E-03    -26.5721E-03     31.5472E-03    -26.6800E-03     52.8663E-03    -26.4420E-03     31.5268E-03
            1522     4.38254E-03     49.5349E-03    -18.8801E+06    -103.157E+06    -11.1960E+06     33.7154E+03    -26.6799E-03     53.2469E-03    -26.5670E-03     26.2511E-03    -26.6116E-03     52.7778E-03    -26.4460E-03     26.2361E-03
            1523     3.50605E-03     49.5125E-03    -20.4923E+06    -107.556E+06    -14.7186E+06    -15.2845E+03    -26.6296E-03     53.1907E-03    -26.5611E-03     20.9854E-03    -26.5565E-03     52.7058E-03    -26.4491E-03     20.9739E-03
            1524     2.62949E-03     49.4951E-03    -21.7551E+06    -109.195E+06    -17.9474E+06    -92.0839E+03    -26.5874E-03     53.1389E-03    -26.5515E-03     15.7711E-03    -26.5127E-03     52.6514E-03    -26.4513E-03     15.7620E-03
            1525     1.75304E-03     49.4825E-03    -22.5962E+06    -110.728E+06    -20.8681E+06    -147.888E+03    -26.5588E-03     53.1009E-03    -26.5421E-03     10.6185E-03    -26.4814E-03     52.6107E-03    -26.4531E-03     10.6115E-03
            1526     876.468E-06     49.4749E-03    -23.2365E+06    -111.913E+06    -22.8750E+06    -117.058E+03    -26.5436E-03     53.0787E-03    -26.5351E-03     5.75670E-03    -26.4644E-03     52.5863E-03    -26.4535E-03     5.75255E-03
            1527     16.6537E-03     49.5773E-03    -4.55193E+06     157.795E+06     74.9791E+06     377.761E+03    -30.2389E-03     56.7237E-03    -26.4848E-03     154.228E-03    -33.7147E-03     60.5260E-03    -26.3321E-03     155.940E-03
            1528     15.7790E-03     49.3599E-03    -6.85754E+06     123.609E+06     14.6102E+06     1.01738E+06    -32.4315E-03     58.6951E-03    -26.2636E-03     191.278E-03    -35.8034E-03     62.4391E-03    -26.3599E-03     191.904E-03
            1529     14.9017E-03     49.2094E-03    -7.40353E+06     65.4564E+06    -15.0812E+06     461.400E+03    -29.5746E-03     55.8069E-03    -26.2323E-03     130.205E-03    -30.5934E-03     57.0755E-03    -26.3918E-03     130.044E-03
            1530     14.0244E-03     49.1124E-03    -7.42565E+06     11.3545E+06    -8.42383E+06     11.2617E+03    -28.0810E-03     54.4463E-03    -26.3653E-03     92.1549E-03    -28.4444E-03     54.8480E-03    -26.4131E-03     91.9590E-03
            1531     13.1480E-03     49.0346E-03    -7.76445E+06    -23.8546E+06    -7.25222E+06     57.1391E+03    -27.9151E-03     54.3463E-03    -26.4313E-03     80.8852E-03    -28.0986E-03     54.4387E-03    -26.4217E-03     80.7130E-03
            1532     12.2713E-03     48.9590E-03    -8.21628E+06    -39.4708E+06    -2.73390E+06     111.753E+03    -27.8127E-03     54.2914E-03    -26.4787E-03     75.2554E-03    -27.9165E-03     54.2338E-03    -26.4232E-03     75.1152E-03
            1533     11.3950E-03     48.8917E-03    -8.77914E+06    -50.0491E+06     96.7129E+03     132.280E+03    -27.5643E-03     54.0737E-03    -26.5094E-03     67.5072E-03    -27.6155E-03     53.9158E-03    -26.4236E-03     67.3957E-03
            1534     10.5183E-03     48.8307E-03    -9.58817E+06    -62.4388E+06    -589.590E+03     46.8280E+03    -27.4162E-03     53.9421E-03    -26.5258E-03     61.9033E-03    -27.4270E-03     53.6988E-03    -26.4243E-03     61.8127E-03
            1535     9.64187E-03     48.7741E-03    -10.2952E+06    -70.9339E+06     972.223E+03    -167.082E+03    -27.2954E-03     53.8428E-03    -26.5473E-03     57.0914E-03    -27.2829E-03     53.5390E-03    -26.4247E-03     57.0163E-03
            1536     8.76526E-03     48.7223E-03    -11.1128E+06    -75.5187E+06     1.91765E+06    -192.029E+03    -27.1549E-03     53.7155E-03    -26.5606E-03     52.1330E-03    -27.1294E-03     53.3769E-03    -26.4254E-03     52.0729E-03
            1537     7.88875E-03     48.6751E-03    -12.3368E+06    -80.7048E+06     1.23622E+06    -48.2271E+03    -27.0295E-03     53.5977E-03    -26.5682E-03     47.0915E-03    -26.9934E-03     53.2277E-03    -26.4271E-03     47.0457E-03
            1538     7.01219E-03     48.6328E-03    -14.0154E+06    -87.8279E+06    -215.898E+03     16.8388E+03    -26.9201E-03     53.4962E-03    -26.5761E-03     41.9540E-03    -26.8742E-03     53.0894E-03    -26.4295E-03     41.9191E-03
            1539     6.13566E-03     48.5954E-03    -15.7576E+06    -93.3144E+06    -3.11426E+06    -58.2971E+03    -26.8235E-03     53.3983E-03    -26.5747E-03     36.7574E-03    -26.7702E-03     52.9668E-03    -26.4322E-03     36.7296E-03
            1540     5.25911E-03     48.5629E-03    -17.4686E+06    -97.4599E+06    -7.36715E+06    -118.240E+03    -26.7386E-03     53.3036E-03    -26.5650E-03     31.5209E-03    -26.6789E-03     52.8573E-03    -26.4352E-03     31.4988E-03
            1541     4.38259E-03     48.5355E-03    -18.9653E+06    -103.221E+06    -11.4125E+06     58.6308E+03    -26.6761E-03     53.2344E-03    -26.5583E-03     26.2296E-03    -26.6077E-03     52.7654E-03    -26.4382E-03     26.2149E-03
            1542     3.50604E-03     48.5131E-03    -20.3549E+06    -107.327E+06    -14.5967E+06    -5.70276E+03    -26.6256E-03     53.1780E-03    -26.5524E-03     20.9654E-03    -26.5523E-03     52.6938E-03    -26.4403E-03     20.9540E-03
            1543     2.62957E-03     48.4956E-03    -21.6527E+06    -109.183E+06    -18.1420E+06    -225.133E+03    -26.5798E-03     53.1206E-03    -26.5407E-03     15.7643E-03    -26.5044E-03     52.6333E-03    -26.4417E-03     15.7535E-03
            1544     1.75300E-03     48.4831E-03    -22.6761E+06    -110.959E+06    -21.4175E+06    -94.9842E+03    -26.5482E-03     53.0787E-03    -26.5304E-03     10.6160E-03    -26.4700E-03     52.5882E-03    -26.4438E-03     10.6098E-03
            1545     876.538E-06     48.4754E-03    -23.2941E+06    -111.971E+06    -23.0840E+06     117.061E+03    -26.5354E-03     53.0603E-03    -26.5248E-03     5.77581E-03    -26.4561E-03     52.5679E-03    -26.4441E-03     5.77467E-03
            1546     16.6562E-03     48.5753E-03    -4.55643E+06     157.289E+06     74.0970E+06     166.541E+03    -30.1619E-03     56.6673E-03    -26.5054E-03     153.416E-03    -33.6490E-03     60.4817E-03    -26.3564E-03     155.127E-03
            1547     15.7786E-03     48.3614E-03    -7.28976E+06     122.872E+06     13.3677E+06     303.904E+03    -32.6527E-03     58.9287E-03    -26.2760E-03     190.985E-03    -36.0365E-03     62.6840E-03    -26.3767E-03     191.597E-03
            1548     14.9010E-03     48.2102E-03    -7.12747E+06     66.0342E+06    -14.4692E+06     797.119E+03    -29.6923E-03     55.9339E-03    -26.2416E-03     130.826E-03    -30.7154E-03     57.2080E-03    -26.3993E-03     130.668E-03
            1549     14.0247E-03     48.1127E-03    -7.34595E+06     12.0337E+06    -7.74501E+06     546.676E+03    -28.2288E-03     54.5973E-03    -26.3685E-03     92.1460E-03    -28.5950E-03     55.0026E-03    -26.4140E-03     91.9548E-03
            1550     13.1479E-03     48.0351E-03    -7.75478E+06    -23.8633E+06    -7.09694E+06     178.349E+03    -27.9574E-03     54.3839E-03    -26.4265E-03     80.6544E-03    -28.1410E-03     54.4758E-03    -26.4161E-03     80.4833E-03
            1551     12.2716E-03     47.9592E-03    -8.03331E+06    -39.3813E+06    -2.45124E+06     205.843E+03    -27.7880E-03     54.2606E-03    -26.4726E-03     75.1171E-03    -27.8912E-03     54.2026E-03    -26.4161E-03     74.9782E-03
            1552     11.3949E-03     47.8922E-03    -8.58543E+06    -50.0060E+06     453.524E+03     63.4266E+03    -27.5444E-03     54.0491E-03    -26.5047E-03     67.4417E-03    -27.5952E-03     53.8905E-03    -26.4175E-03     67.3293E-03
            1553     10.5185E-03     47.8311E-03    -9.01988E+06    -62.2073E+06     17.3543E+03    -75.2238E+03    -27.4110E-03     53.9329E-03    -26.5220E-03     61.8727E-03    -27.4200E-03     53.6891E-03    -26.4186E-03     61.7805E-03
            1554     9.64183E-03     47.7746E-03    -9.83584E+06    -70.7304E+06     1.28500E+06    -248.618E+03    -27.2899E-03     53.8322E-03    -26.5422E-03     57.0551E-03    -27.2758E-03     53.5283E-03    -26.4190E-03     56.9790E-03
            1555     8.76535E-03     47.7227E-03    -11.1383E+06    -75.6955E+06     1.93448E+06    -326.860E+03    -27.1553E-03     53.7102E-03    -26.5549E-03     52.0886E-03    -27.1297E-03     53.3707E-03    -26.4193E-03     52.0267E-03
            1556     7.88879E-03     47.6756E-03    -12.5445E+06    -80.9617E+06     1.14693E+06    -135.885E+03    -27.0260E-03     53.5877E-03    -26.5617E-03     47.0572E-03    -26.9904E-03     53.2168E-03    -26.4204E-03     47.0103E-03
            1557     7.01225E-03     47.6333E-03    -14.0251E+06    -87.8175E+06    -331.697E+03        -228.318    -26.9179E-03     53.4861E-03    -26.5682E-03     41.9235E-03    -26.8719E-03     53.0795E-03    -26.4222E-03     41.8884E-03
            1558     6.13570E-03     47.5959E-03    -15.8369E+06    -93.2414E+06    -3.31698E+06     10.4148E+03    -26.8204E-03     53.3861E-03    -26.5657E-03     36.7286E-03    -26.7673E-03     52.9553E-03    -26.4241E-03     36.7017E-03
            1559     5.25917E-03     47.5634E-03    -17.8070E+06    -97.4774E+06    -7.60927E+06     17.1931E+03    -26.7353E-03     53.2905E-03    -26.5552E-03     31.4900E-03    -26.6769E-03     52.8449E-03    -26.4261E-03     31.4697E-03
            1560     4.38262E-03     47.5360E-03    -19.4781E+06    -103.174E+06    -11.7499E+06    -189.214E+03    -26.6689E-03     53.2159E-03    -26.5470E-03     26.2142E-03    -26.6027E-03     52.7483E-03    -26.4279E-03     26.1963E-03
            1561     3.50612E-03     47.5136E-03    -20.5729E+06    -107.242E+06    -15.0217E+06    -296.452E+03    -26.6144E-03     53.1540E-03    -26.5396E-03     20.9583E-03    -26.5417E-03     52.6711E-03    -26.4293E-03     20.9432E-03
            1562     2.62955E-03     47.4962E-03    -21.6762E+06    -109.440E+06    -18.5235E+06    -32.8898E+03    -26.5685E-03     53.0969E-03    -26.5284E-03     15.7411E-03    -26.4922E-03     52.6089E-03    -26.4309E-03     15.7328E-03
            1563     1.75306E-03     47.4836E-03    -22.8339E+06    -111.123E+06    -21.5010E+06     201.685E+03    -26.5372E-03     53.0571E-03    -26.5199E-03     10.6028E-03    -26.4595E-03     52.5662E-03    -26.4331E-03     10.6004E-03
            1564     876.494E-06     47.4760E-03    -23.5901E+06    -111.714E+06    -23.1792E+06     220.239E+03    -26.5177E-03     53.0368E-03    -26.5191E-03     5.76512E-03    -26.4401E-03     52.5463E-03    -26.4388E-03     5.76531E-03
            1565     16.6543E-03     47.5754E-03    -4.62266E+06     157.377E+06     74.5754E+06     268.730E+03    -29.7517E-03     56.2682E-03    -26.5165E-03     153.931E-03    -33.2415E-03     60.0840E-03    -26.3651E-03     155.670E-03
            1566     15.7773E-03     47.3619E-03    -7.04795E+06     122.549E+06     12.3930E+06     83.7708E+03    -32.6643E-03     58.9548E-03    -26.2905E-03     190.638E-03    -36.0439E-03     62.7085E-03    -26.3960E-03     191.254E-03
            1567     14.9013E-03     47.2104E-03    -7.11211E+06     65.3414E+06    -15.9122E+06     359.249E+03    -30.1071E-03     56.3485E-03    -26.2414E-03     130.519E-03    -31.1284E-03     57.6226E-03    -26.4054E-03     130.347E-03
            1568     14.0245E-03     47.1131E-03    -6.60909E+06     12.7454E+06    -6.23693E+06     977.539E+03    -28.3128E-03     54.6771E-03    -26.3643E-03     91.9457E-03    -28.6782E-03     55.0823E-03    -26.4043E-03     91.7592E-03
            1569     13.1485E-03     47.0352E-03    -7.12235E+06    -23.4369E+06    -5.85896E+06     720.132E+03    -27.9030E-03     54.3226E-03    -26.4196E-03     80.5939E-03    -28.0855E-03     54.4136E-03    -26.4046E-03     80.4303E-03
            1570     12.2716E-03     46.9599E-03    -7.56371E+06    -39.1534E+06    -2.12503E+06     166.610E+03    -27.7402E-03     54.2049E-03    -26.4647E-03     75.2011E-03    -27.8417E-03     54.1467E-03    -26.4076E-03     75.0622E-03
            1571     11.3951E-03     46.8924E-03    -7.92479E+06    -49.8465E+06     790.292E+03    -17.0290E+03    -27.5339E-03     54.0324E-03    -26.4985E-03     67.4773E-03    -27.5820E-03     53.8732E-03    -26.4108E-03     67.3640E-03
            1572     10.5184E-03     46.8317E-03    -8.76939E+06    -62.1552E+06     69.7641E+03    -101.936E+03    -27.4114E-03     53.9266E-03    -26.5152E-03     61.8653E-03    -27.4193E-03     53.6825E-03    -26.4120E-03     61.7729E-03
            1573     9.64198E-03     46.7749E-03    -9.73728E+06    -70.5350E+06     1.34678E+06    -156.484E+03    -27.2898E-03     53.8247E-03    -26.5349E-03     57.0408E-03    -27.2755E-03     53.5215E-03    -26.4118E-03     56.9659E-03
            1574     8.76541E-03     46.7233E-03    -10.9289E+06    -75.8366E+06     1.85696E+06    -158.069E+03    -27.1526E-03     53.6993E-03    -26.5466E-03     52.0494E-03    -27.1256E-03     53.3588E-03    -26.4115E-03     51.9897E-03
            1575     7.88886E-03     46.6760E-03    -12.4706E+06    -81.1197E+06     837.641E+03    -125.539E+03    -27.0266E-03     53.5784E-03    -26.5518E-03     47.0275E-03    -26.9900E-03     53.2071E-03    -26.4119E-03     46.9808E-03
            1576     7.01231E-03     46.6338E-03    -14.1204E+06    -87.8792E+06    -730.428E+03    -82.0125E+03    -26.9189E-03     53.4756E-03    -26.5567E-03     41.8837E-03    -26.8726E-03     53.0694E-03    -26.4124E-03     41.8475E-03
            1577     6.13577E-03     46.5964E-03    -15.7744E+06    -93.3879E+06    -3.60060E+06     101.629E+03    -26.8200E-03     53.3732E-03    -26.5532E-03     36.6822E-03    -26.7659E-03     52.9420E-03    -26.4129E-03     36.6565E-03
            1578     5.25922E-03     46.5640E-03    -17.4043E+06    -97.2928E+06    -7.31392E+06     113.420E+03    -26.7308E-03     53.2741E-03    -26.5433E-03     31.4434E-03    -26.6710E-03     52.8283E-03    -26.4135E-03     31.4243E-03
            1579     4.38269E-03     46.5365E-03    -19.0002E+06    -102.778E+06    -11.3959E+06    -217.340E+03    -26.6605E-03     53.1944E-03    -26.5339E-03     26.1725E-03    -26.5930E-03     52.7276E-03    -26.4143E-03     26.1543E-03
            1580     3.50612E-03     46.5142E-03    -20.7671E+06    -107.611E+06    -15.4590E+06    -288.946E+03    -26.6033E-03     53.1270E-03    -26.5237E-03     20.9236E-03    -26.5304E-03     52.6432E-03    -26.4148E-03     20.9086E-03
            1581     2.62962E-03     46.4967E-03    -22.1903E+06    -109.793E+06    -18.6911E+06     21.9087E+03    -26.5585E-03     53.0710E-03    -26.5125E-03     15.7055E-03    -26.4841E-03     52.5822E-03    -26.4145E-03     15.6979E-03
            1582     1.75306E-03     46.4842E-03    -22.9708E+06    -111.026E+06    -21.0581E+06     137.796E+03    -26.5250E-03     53.0269E-03    -26.5019E-03     10.5726E-03    -26.4487E-03     52.5360E-03    -26.4129E-03     10.5693E-03
            1583     876.551E-06     46.4765E-03    -23.3082E+06    -111.440E+06    -22.7453E+06     29.8883E+03    -26.4975E-03     52.9932E-03    -26.4957E-03     5.74151E-03    -26.4195E-03     52.5030E-03    -26.4141E-03     5.73925E-03
            1584     16.6553E-03     46.5774E-03    -5.00409E+06     157.158E+06     74.9131E+06     114.797E+03    -29.7372E-03     56.2434E-03    -26.5062E-03     153.159E-03    -33.2155E-03     60.0446E-03    -26.3522E-03     154.887E-03
            1585     15.7780E-03     46.3615E-03    -7.63597E+06     123.192E+06     14.1429E+06     122.753E+03    -32.6187E-03     58.9038E-03    -26.2852E-03     190.221E-03    -35.9988E-03     62.6531E-03    -26.3820E-03     190.841E-03
            1586     14.9014E-03     46.2108E-03    -7.84206E+06     64.8142E+06    -15.3135E+06    -290.240E+03    -30.0733E-03     56.3051E-03    -26.2317E-03     130.160E-03    -31.0939E-03     57.5723E-03    -26.3909E-03     129.980E-03
            1587     14.0253E-03     46.1132E-03    -6.65619E+06     11.4941E+06    -6.87279E+06     318.646E+03    -28.1968E-03     54.5483E-03    -26.3515E-03     91.8952E-03    -28.5579E-03     54.9465E-03    -26.3929E-03     91.7020E-03
            1588     13.1481E-03     46.0361E-03    -5.62353E+06    -22.5949E+06    -5.02047E+06     972.877E+03    -27.8199E-03     54.2351E-03    -26.4152E-03     80.7242E-03    -27.9971E-03     54.3267E-03    -26.3994E-03     80.5648E-03
            1589     12.2717E-03     45.9601E-03    -5.81267E+06    -38.7098E+06    -1.32449E+06     449.747E+03    -27.7769E-03     54.2392E-03    -26.4622E-03     75.2951E-03    -27.8716E-03     54.1796E-03    -26.4043E-03     75.1597E-03
            1590     11.3950E-03     45.8931E-03    -6.85222E+06    -49.9405E+06     1.35987E+06     417.114E+03    -27.5634E-03     54.0579E-03    -26.4944E-03     67.4616E-03    -27.6069E-03     53.8957E-03    -26.4053E-03     67.3538E-03
            1591     10.5186E-03     45.8319E-03    -8.07199E+06    -61.8127E+06     540.794E+03     374.044E+03    -27.4194E-03     53.9281E-03    -26.5087E-03     61.8298E-03    -27.4249E-03     53.6840E-03    -26.4047E-03     61.7436E-03
            1592     9.64201E-03     45.7755E-03    -9.36012E+06    -70.4214E+06     1.37337E+06     54.6032E+03    -27.2934E-03     53.8193E-03    -26.5259E-03     57.0002E-03    -27.2773E-03     53.5160E-03    -26.4034E-03     56.9282E-03
            1593     8.76547E-03     45.7236E-03    -10.7705E+06    -75.9199E+06     1.81408E+06     43.9978E+03    -27.1586E-03     53.6953E-03    -26.5366E-03     52.0016E-03    -27.1306E-03     53.3542E-03    -26.4019E-03     51.9446E-03
            1594     7.88895E-03     45.6766E-03    -12.2817E+06    -81.0431E+06     978.856E+03     46.8329E+03    -27.0368E-03     53.5772E-03    -26.5404E-03     46.9636E-03    -26.9995E-03     53.2057E-03    -26.4002E-03     46.9191E-03
            1595     7.01240E-03     45.6343E-03    -13.9583E+06    -87.9190E+06    -476.252E+03    -37.3453E+03    -26.9241E-03     53.4676E-03    -26.5435E-03     41.8132E-03    -26.8774E-03     53.0606E-03    -26.3982E-03     41.7776E-03
            1596     6.13588E-03     45.5970E-03    -15.5950E+06    -93.5127E+06    -3.37476E+06    -81.6128E+03    -26.8179E-03     53.3555E-03    -26.5376E-03     36.6114E-03    -26.7631E-03     52.9231E-03    -26.3962E-03     36.5834E-03
            1597     5.25932E-03     45.5645E-03    -17.0002E+06    -97.1523E+06    -7.22854E+06    -102.106E+03    -26.7221E-03     53.2465E-03    -26.5244E-03     31.3855E-03    -26.6607E-03     52.8008E-03    -26.3950E-03     31.3637E-03
            1598     4.38277E-03     45.5372E-03    -18.6135E+06    -102.810E+06    -11.1085E+06     112.816E+03    -26.6503E-03     53.1649E-03    -26.5146E-03     26.1056E-03    -26.5813E-03     52.6970E-03    -26.3941E-03     26.0917E-03
            1599     3.50624E-03     45.5148E-03    -20.4788E+06    -107.678E+06    -14.8677E+06     262.111E+03    -26.5903E-03     53.0943E-03    -26.5040E-03     20.8636E-03    -26.5167E-03     52.6089E-03    -26.3925E-03     20.8557E-03
            1600     2.62966E-03     45.4973E-03    -22.1009E+06    -109.703E+06    -18.3015E+06    -50.2644E+03    -26.5407E-03     53.0302E-03    -26.4894E-03     15.6736E-03    -26.4665E-03     52.5412E-03    -26.3898E-03     15.6651E-03
            1601     1.75314E-03     45.4848E-03    -23.1136E+06    -111.021E+06    -21.0852E+06    -300.590E+03    -26.5048E-03     52.9787E-03    -26.4738E-03     10.5531E-03    -26.4292E-03     52.4881E-03    -26.3848E-03     10.5442E-03
            1602     876.573E-06     45.4772E-03    -23.6658E+06    -111.603E+06    -23.0946E+06    -206.749E+03    -26.4634E-03     52.9304E-03    -26.4670E-03     5.72803E-03    -26.3865E-03     52.4404E-03    -26.3864E-03     5.72272E-03
            1603     16.6561E-03     45.5781E-03    -4.11069E+06     157.139E+06     75.9383E+06     98.5542E+03    -30.2078E-03     56.6962E-03    -26.4884E-03     153.491E-03    -33.6841E-03     60.4955E-03    -26.3306E-03     155.193E-03
            1604     15.7788E-03     45.3628E-03    -6.43889E+06     123.804E+06     15.5818E+06    -157.493E+03    -32.6347E-03     58.8912E-03    -26.2565E-03     190.714E-03    -36.0127E-03     62.6407E-03    -26.3487E-03     191.320E-03
            1605     14.9019E-03     45.2105E-03    -6.18869E+06     64.8237E+06    -14.4583E+06    -365.359E+03    -29.6803E-03     55.8922E-03    -26.2119E-03     130.226E-03    -30.6917E-03     57.1536E-03    -26.3692E-03     130.053E-03
            1606     14.0247E-03     45.1142E-03    -5.93030E+06     10.1829E+06    -7.59374E+06    -230.069E+03    -28.0092E-03     54.3536E-03    -26.3444E-03     91.9701E-03    -28.3629E-03     54.7444E-03    -26.3885E-03     91.7720E-03
            1607     13.1484E-03     45.0363E-03    -5.84640E+06    -22.8347E+06    -5.76961E+06     322.002E+03    -27.8587E-03     54.2714E-03    -26.4127E-03     80.8982E-03    -28.0362E-03     54.3638E-03    -26.4000E-03     80.7299E-03
            1608     12.2716E-03     44.9607E-03      -5.979E+06    -38.4122E+06    -1.17559E+06     881.150E+03    -27.8299E-03     54.2902E-03    -26.4603E-03     75.2748E-03    -27.9263E-03     54.2324E-03    -26.4018E-03     75.1445E-03
            1609     11.3952E-03     44.8933E-03    -6.67852E+06    -49.9190E+06     1.51526E+06     850.144E+03    -27.5960E-03     54.0848E-03    -26.4888E-03     67.4061E-03    -27.6388E-03     53.9223E-03    -26.3992E-03     67.3038E-03
            1610     10.5186E-03     44.8326E-03    -7.46377E+06    -61.4992E+06     1.05012E+06     769.550E+03    -27.4411E-03     53.9422E-03    -26.5011E-03     61.7855E-03    -27.4448E-03     53.6980E-03    -26.3958E-03     61.7042E-03
            1611     9.64212E-03     44.7759E-03    -8.73684E+06    -70.1885E+06     2.11626E+06     734.415E+03    -27.3097E-03     53.8268E-03    -26.5170E-03     56.9262E-03    -27.2919E-03     53.5226E-03    -26.3920E-03     56.8628E-03
            1612     8.76562E-03     44.7242E-03    -10.4353E+06    -75.6172E+06     2.41424E+06     394.672E+03    -27.1770E-03     53.7013E-03    -26.5243E-03     51.9160E-03    -27.1486E-03     53.3604E-03    -26.3875E-03     51.8635E-03
            1613     7.88907E-03     44.6770E-03    -12.0156E+06    -80.9348E+06     1.43188E+06     91.6699E+03    -27.0481E-03     53.5724E-03    -26.5243E-03     46.8705E-03    -27.0102E-03     53.2004E-03    -26.3824E-03     46.8266E-03
            1614     7.01257E-03     44.6348E-03    -13.5844E+06    -87.8423E+06    -88.1589E+03     39.4543E+03    -26.9228E-03     53.4468E-03    -26.5240E-03     41.7227E-03    -26.8748E-03     53.0390E-03    -26.3774E-03     41.6881E-03
            1615     6.13601E-03     44.5975E-03    -15.3928E+06    -93.3427E+06    -3.18344E+06    -128.449E+03    -26.8082E-03     53.3231E-03    -26.5149E-03     36.5389E-03    -26.7528E-03     52.8910E-03    -26.3732E-03     36.5102E-03
            1616     5.25946E-03     44.5652E-03    -17.3488E+06    -97.4004E+06    -7.34614E+06    -93.7882E+03    -26.7082E-03     53.2077E-03    -26.4994E-03     31.3195E-03    -26.6480E-03     52.7614E-03    -26.3698E-03     31.2978E-03
            1617     4.38289E-03     44.5377E-03    -19.0596E+06    -103.180E+06    -11.2864E+06     257.739E+03    -26.6320E-03     53.1194E-03    -26.4874E-03     26.0509E-03    -26.5643E-03     52.6505E-03    -26.3666E-03     26.0388E-03
            1618     3.50632E-03     44.5154E-03    -20.3667E+06    -107.376E+06    -14.4148E+06     334.373E+03    -26.5676E-03     53.0437E-03    -26.4760E-03     20.8163E-03    -26.4946E-03     52.5590E-03    -26.3629E-03     20.8094E-03
            1619     2.62977E-03     44.4980E-03    -21.5787E+06    -109.256E+06    -18.0565E+06     77.6546E+03    -26.5122E-03     52.9707E-03    -26.4585E-03     15.6424E-03    -26.4364E-03     52.4828E-03    -26.3591E-03     15.6356E-03
            1620     1.75317E-03     44.4855E-03    -22.9016E+06    -111.130E+06    -21.4732E+06    -126.792E+03    -26.4726E-03     52.9144E-03    -26.4418E-03     10.5198E-03    -26.3953E-03     52.4235E-03    -26.3548E-03     10.5132E-03
            1621     876.594E-06     44.4779E-03    -23.9423E+06    -111.956E+06    -23.5253E+06    -139.809E+03    -26.4393E-03     52.8708E-03    -26.4315E-03     5.69583E-03    -26.3626E-03     52.3801E-03    -26.3521E-03     5.69139E-03
            1622     16.6551E-03     44.5776E-03    -4.03348E+06     157.385E+06      75.862E+06    -534.311E+03    -30.2926E-03     56.7793E-03    -26.4867E-03     153.522E-03    -33.7725E-03     60.5836E-03    -26.3298E-03     155.214E-03
            1623     15.7793E-03     44.3630E-03    -6.24997E+06     123.828E+06     14.9748E+06    -744.213E+03    -32.6549E-03     58.9053E-03    -26.2504E-03     191.083E-03    -36.0387E-03     62.6631E-03    -26.3460E-03     191.682E-03
            1624     14.9021E-03     44.2121E-03    -6.75249E+06     64.4865E+06    -15.6959E+06    -359.587E+03    -29.5958E-03     55.8038E-03    -26.2080E-03     130.875E-03    -30.6125E-03     57.0710E-03    -26.3702E-03     130.704E-03
            1625     14.0250E-03     44.1146E-03    -6.62607E+06     10.0017E+06    -8.36119E+06    -87.8323E+03    -28.0552E-03     54.4010E-03    -26.3458E-03     92.4184E-03    -28.4124E-03     54.7945E-03    -26.3925E-03     92.2216E-03
            1626     13.1481E-03     44.0368E-03    -6.81185E+06    -23.6671E+06    -6.49874E+06     260.080E+03    -27.9759E-03     54.3869E-03    -26.4110E-03     80.9244E-03    -28.1563E-03     54.4779E-03    -26.3993E-03     80.7543E-03
            1627     12.2718E-03     43.9609E-03    -7.02845E+06    -38.6498E+06    -1.62535E+06     756.381E+03    -27.8580E-03     54.3118E-03    -26.4538E-03     75.2074E-03    -27.9584E-03     54.2547E-03    -26.3956E-03     75.0754E-03
            1628     11.3952E-03     43.8939E-03    -7.47357E+06    -49.6062E+06     1.24646E+06     888.337E+03    -27.6168E-03     54.0959E-03    -26.4792E-03     67.3171E-03    -27.6634E-03     53.9364E-03    -26.3902E-03     67.2153E-03
            1629     10.5188E-03     43.8328E-03    -8.31273E+06    -61.5895E+06     825.525E+03     900.757E+03    -27.4726E-03     53.9614E-03    -26.4888E-03     61.6805E-03    -27.4800E-03     53.7182E-03    -26.3833E-03     61.6010E-03
            1630     9.64229E-03     43.7764E-03    -9.15421E+06    -69.8671E+06     2.15829E+06     920.717E+03    -27.3373E-03     53.8378E-03    -26.5004E-03     56.8237E-03    -27.3221E-03     53.5357E-03    -26.3751E-03     56.7627E-03
            1631     8.76577E-03     43.7246E-03    -10.1447E+06    -75.0318E+06     2.71946E+06     638.046E+03    -27.1912E-03     53.6946E-03    -26.5035E-03     51.8148E-03    -27.1625E-03     53.3557E-03    -26.3663E-03     51.7655E-03
            1632     7.88931E-03     43.6776E-03    -11.6771E+06    -80.6788E+06     1.52002E+06     282.028E+03    -27.0452E-03     53.5448E-03    -26.4996E-03     46.7687E-03    -27.0061E-03     53.1734E-03    -26.3581E-03     46.7273E-03
            1633     7.01273E-03     43.6354E-03    -13.5069E+06    -87.8302E+06    -297.048E+03     144.849E+03    -26.9108E-03     53.4071E-03    -26.4963E-03     41.6409E-03    -26.8621E-03     52.9995E-03    -26.3509E-03     41.6078E-03
            1634     6.13620E-03     43.5981E-03    -15.5410E+06    -93.2498E+06    -3.30153E+06     260.007E+03    -26.7946E-03     53.2803E-03    -26.4857E-03     36.4599E-03    -26.7399E-03     52.8490E-03    -26.3444E-03     36.4363E-03
            1635     5.25962E-03     43.5657E-03    -17.7182E+06    -97.5019E+06    -7.34771E+06     283.475E+03    -26.6891E-03     53.1580E-03    -26.4689E-03     31.2416E-03    -26.6305E-03     52.7117E-03    -26.3386E-03     31.2249E-03
            1636     4.38305E-03     43.5384E-03    -19.4722E+06    -103.130E+06    -11.5923E+06     44.1420E+03    -26.6039E-03     53.0571E-03    -26.4532E-03     25.9967E-03    -26.5380E-03     52.5895E-03    -26.3334E-03     25.9820E-03
            1637     3.50646E-03     43.5161E-03    -20.6213E+06    -107.285E+06    -15.1278E+06    -99.6268E+03    -26.5350E-03     52.9734E-03    -26.4384E-03     20.7791E-03    -26.4624E-03     52.4906E-03    -26.3286E-03     20.7666E-03
            1638     2.62984E-03     43.4987E-03    -21.6083E+06    -109.277E+06    -18.4256E+06     151.391E+03    -26.4789E-03     52.9007E-03    -26.4219E-03     15.6060E-03    -26.4026E-03     52.4133E-03    -26.3242E-03     15.6002E-03
            1639     1.75325E-03     43.4863E-03    -22.4577E+06    -110.946E+06    -21.3021E+06     316.432E+03    -26.4360E-03     52.8437E-03    -26.4077E-03     10.4795E-03    -26.3569E-03     52.3528E-03    -26.3208E-03     10.4786E-03
            1640     876.624E-06     43.4787E-03    -23.0179E+06    -111.908E+06    -22.8645E+06     145.363E+03    -26.4183E-03     52.8102E-03    -26.3919E-03     5.67915E-03    -26.3380E-03     52.3175E-03    -26.3106E-03     5.67842E-03
            1641     16.6564E-03     43.5788E-03    -5.49638E+06     158.249E+06     70.7217E+06    -559.421E+03    -29.9193E-03     56.4051E-03    -26.4858E-03     154.276E-03    -33.4189E-03     60.2419E-03    -26.3536E-03     155.993E-03
            1642     15.7778E-03     43.3630E-03    -8.75225E+06     123.534E+06     8.22377E+06    -1.12002E+06    -32.7076E-03     58.9653E-03    -26.2577E-03     191.593E-03    -36.1148E-03     62.7560E-03    -26.3830E-03     192.200E-03
            1643     14.9012E-03     43.2129E-03    -8.82688E+06     63.8408E+06    -17.7918E+06    -961.069E+03    -30.0400E-03     56.2664E-03    -26.2264E-03     130.781E-03    -31.0652E-03     57.5385E-03    -26.3951E-03     130.594E-03
            1644     14.0245E-03     43.1149E-03    -7.97994E+06     9.70258E+06    -9.31116E+06    -241.538E+03    -28.3534E-03     54.6995E-03    -26.3461E-03     92.4165E-03    -28.7161E-03     55.0953E-03    -26.3952E-03     92.2144E-03
            1645     13.1485E-03     43.0371E-03    -7.58889E+06    -24.3776E+06    -7.37457E+06     298.805E+03    -28.0332E-03     54.4327E-03    -26.3996E-03     80.7268E-03    -28.2145E-03     54.5220E-03    -26.3901E-03     80.5569E-03
            1646     12.2718E-03     42.9613E-03    -7.75085E+06    -38.9355E+06    -2.31969E+06     603.956E+03    -27.8857E-03     54.3240E-03    -26.4383E-03     75.0587E-03    -27.9879E-03     54.2672E-03    -26.3822E-03     74.9249E-03
            1647     11.3955E-03     42.8941E-03    -8.26834E+06    -49.7319E+06     623.438E+03     822.970E+03    -27.6414E-03     54.1017E-03    -26.4603E-03     67.1417E-03    -27.6908E-03     53.9433E-03    -26.3730E-03     67.0390E-03
            1648     10.5190E-03     42.8333E-03    -8.93673E+06    -61.3788E+06     266.752E+03     902.301E+03    -27.4882E-03     53.9538E-03    -26.4657E-03     61.5229E-03    -27.4980E-03     53.7133E-03    -26.3624E-03     61.4434E-03
            1649     9.64251E-03     42.7768E-03    -9.65910E+06    -69.5212E+06     1.57224E+06     563.014E+03    -27.3471E-03     53.8203E-03    -26.4731E-03     56.6993E-03    -27.3340E-03     53.5214E-03    -26.3505E-03     56.6338E-03
            1650     8.76607E-03     42.7251E-03    -10.5785E+06    -74.8572E+06     2.16030E+06     485.678E+03    -27.1830E-03     53.6564E-03    -26.4734E-03     51.7030E-03    -27.1558E-03     53.3197E-03    -26.3387E-03     51.6519E-03
            1651     7.88949E-03     42.6781E-03    -11.9260E+06    -80.4299E+06     1.26626E+06     574.053E+03    -27.0276E-03     53.4962E-03    -26.4686E-03     46.6640E-03    -26.9897E-03     53.1267E-03    -26.3283E-03     46.6264E-03
            1652     7.01298E-03     42.6360E-03    -13.8122E+06    -87.7235E+06    -363.416E+03     496.608E+03    -26.8981E-03     53.3624E-03    -26.4642E-03     41.5406E-03    -26.8510E-03     52.9558E-03    -26.3188E-03     41.5121E-03
            1653     6.13639E-03     42.5987E-03    -15.7426E+06    -93.3571E+06    -3.42847E+06     501.787E+03    -26.7764E-03     53.2270E-03    -26.4506E-03     36.3625E-03    -26.7223E-03     52.7956E-03    -26.3096E-03     36.3421E-03
            1654     5.25983E-03     42.5665E-03    -17.3432E+06    -97.1179E+06    -7.27270E+06     394.483E+03    -26.6643E-03     53.0952E-03    -26.4309E-03     31.1568E-03    -26.6044E-03     52.6501E-03    -26.3013E-03     31.1416E-03
            1655     4.38321E-03     42.5392E-03    -18.8915E+06    -102.731E+06    -11.4061E+06     19.9424E+03    -26.5729E-03     52.9865E-03    -26.4137E-03     25.9213E-03    -26.5048E-03     52.5198E-03    -26.2943E-03     25.9063E-03
            1656     3.50658E-03     42.5169E-03    -20.5574E+06    -107.435E+06    -15.4216E+06    -111.522E+03    -26.4980E-03     52.8950E-03    -26.3970E-03     20.7214E-03    -26.4244E-03     52.4118E-03    -26.2885E-03     20.7088E-03
            1657     2.62996E-03     42.4995E-03    -21.8523E+06    -109.572E+06    -18.6907E+06     35.4856E+03    -26.4379E-03     52.8188E-03    -26.3809E-03     15.5583E-03    -26.3621E-03     52.3306E-03    -26.2838E-03     15.5509E-03
            1658     1.75331E-03     42.4871E-03    -22.4818E+06    -110.781E+06    -21.0127E+06     182.964E+03    -26.3955E-03     52.7636E-03    -26.3681E-03     10.4492E-03    -26.3172E-03     52.2732E-03    -26.2800E-03     10.4466E-03
            1659     876.647E-06     42.4795E-03    -22.7543E+06    -111.526E+06    -22.4386E+06     245.622E+03    -26.3750E-03     52.7293E-03    -26.3543E-03     5.65554E-03    -26.2946E-03     52.2374E-03    -26.2717E-03     5.65612E-03
            1660     16.6531E-03     42.5792E-03    -4.78252E+06     158.740E+06     71.4604E+06     370.636E+03    -29.7504E-03     56.2631E-03    -26.5126E-03     154.196E-03    -33.2475E-03     60.0994E-03    -26.3786E-03     155.922E-03
            1661     15.7772E-03     42.3630E-03    -7.64895E+06     124.178E+06     8.83188E+06    -626.368E+03    -33.0481E-03     59.3247E-03    -26.2766E-03     190.658E-03    -36.4440E-03     63.1086E-03    -26.4014E-03     191.244E-03
            1662     14.9013E-03     42.2127E-03    -8.11401E+06     63.5132E+06    -18.1977E+06    -985.293E+03    -30.3487E-03     56.5685E-03    -26.2198E-03     129.541E-03    -31.3638E-03     57.8330E-03    -26.3911E-03     129.345E-03
            1663     14.0254E-03     42.1152E-03    -8.25846E+06     8.99817E+06    -9.77973E+06    -296.735E+03    -28.4251E-03     54.7510E-03    -26.3260E-03     91.7441E-03    -28.7853E-03     55.1422E-03    -26.3759E-03     91.5406E-03
            1664     13.1485E-03     42.0375E-03    -8.27078E+06    -24.8191E+06    -7.93857E+06    -23.9596E+03    -27.9984E-03     54.3737E-03    -26.3753E-03     80.5379E-03    -28.1811E-03     54.4620E-03    -26.3670E-03     80.3644E-03
            1665     12.2722E-03     41.9616E-03    -8.00942E+06    -39.3239E+06    -2.70792E+06     336.584E+03    -27.8980E-03     54.3107E-03    -26.4127E-03     74.8700E-03    -28.0001E-03     54.2527E-03    -26.3576E-03     74.7327E-03
            1666     11.3957E-03     41.8946E-03    -8.23958E+06    -49.9845E+06     398.078E+03     744.832E+03    -27.6392E-03     54.0714E-03    -26.4322E-03     66.9961E-03    -27.6875E-03     53.9119E-03    -26.3458E-03     66.8925E-03
            1667     10.5193E-03     41.8337E-03    -8.79393E+06    -61.0016E+06     198.639E+03     719.074E+03    -27.4843E-03     53.9192E-03    -26.4349E-03     61.4089E-03    -27.4937E-03     53.6803E-03    -26.3327E-03     61.3272E-03
            1668     9.64285E-03     41.7773E-03    -9.59112E+06    -69.1202E+06     1.70682E+06     483.578E+03    -27.3335E-03     53.7748E-03    -26.4413E-03     56.5828E-03    -27.3207E-03     53.4776E-03    -26.3186E-03     56.5164E-03
            1669     8.76631E-03     41.7256E-03    -10.8568E+06    -75.0339E+06     2.07707E+06     424.029E+03    -27.1645E-03     53.6043E-03    -26.4398E-03     51.5717E-03    -27.1382E-03     53.2671E-03    -26.3049E-03     51.5199E-03
            1670     7.88981E-03     41.6787E-03    -12.2675E+06    -80.4117E+06     1.28176E+06     599.984E+03    -27.0132E-03     53.4460E-03    -26.4328E-03     46.5477E-03    -26.9769E-03     53.0770E-03    -26.2920E-03     46.5106E-03
            1671     7.01323E-03     41.6366E-03    -13.7583E+06    -87.5604E+06    -21.0574E+03     683.964E+03    -26.8806E-03     53.3068E-03    -26.4263E-03     41.4166E-03    -26.8339E-03     52.9005E-03    -26.2795E-03     41.3906E-03
            1672     6.13668E-03     41.5995E-03    -15.3933E+06    -93.0614E+06    -3.14664E+06     441.884E+03    -26.7499E-03     53.1589E-03    -26.4090E-03     36.2532E-03    -26.6949E-03     52.7281E-03    -26.2675E-03     36.2322E-03
            1673     5.26004E-03     41.5672E-03    -16.9249E+06    -96.8307E+06    -7.05712E+06     146.233E+03    -26.6308E-03     53.0175E-03    -26.3867E-03     31.0642E-03    -26.5696E-03     52.5730E-03    -26.2571E-03     31.0458E-03
            1674     4.38342E-03     41.5400E-03    -18.4565E+06    -102.621E+06    -10.9350E+06     235.372E+03    -26.5382E-03     52.9072E-03    -26.3689E-03     25.8298E-03    -26.4688E-03     52.4396E-03    -26.2480E-03     25.8176E-03
            1675     3.50677E-03     41.5177E-03    -20.1244E+06    -107.401E+06    -14.7717E+06     303.472E+03    -26.4583E-03     52.8093E-03    -26.3511E-03     20.6379E-03    -26.3834E-03     52.3247E-03    -26.2400E-03     20.6307E-03
            1676     2.63008E-03     41.5004E-03    -21.6388E+06    -109.481E+06    -18.4319E+06     98.9728E+03    -26.3889E-03     52.7209E-03    -26.3321E-03     15.4967E-03    -26.3125E-03     52.2325E-03    -26.2341E-03     15.4903E-03
            1677     1.75339E-03     41.4880E-03    -22.7643E+06    -110.868E+06    -21.1052E+06    -7.21653E+03    -26.3463E-03     52.6641E-03    -26.3178E-03     10.4156E-03    -26.2691E-03     52.1737E-03    -26.2296E-03     10.4106E-03
            1678     876.720E-06     41.4804E-03    -23.4173E+06    -111.251E+06    -22.7986E+06     70.6452E+03    -26.3202E-03     52.6227E-03    -26.3025E-03     5.61479E-03    -26.2429E-03     52.1337E-03    -26.2212E-03     5.61314E-03
            1679     16.6557E-03     41.5796E-03    -4.08455E+06     159.047E+06     73.5217E+06     295.074E+03    -30.2962E-03     56.7817E-03    -26.4855E-03     153.197E-03    -33.7580E-03     60.5804E-03    -26.3426E-03     154.883E-03
            1680     15.7786E-03     41.3632E-03    -6.08321E+06     124.805E+06     11.0992E+06     558.558E+03    -32.9147E-03     59.1459E-03    -26.2312E-03     189.585E-03    -36.2612E-03     62.8816E-03    -26.3478E-03     190.162E-03
            1681     14.9024E-03     41.2122E-03    -7.61372E+06     63.5379E+06    -18.2893E+06     298.645E+03    -29.9771E-03     56.1516E-03    -26.1744E-03     129.256E-03    -30.9825E-03     57.4085E-03    -26.3470E-03     129.083E-03
            1682     14.0255E-03     41.1160E-03    -8.34116E+06     8.89209E+06    -9.88508E+06    -150.493E+03    -28.2941E-03     54.5879E-03    -26.2938E-03     91.6230E-03    -28.6539E-03     54.9783E-03    -26.3440E-03     91.4231E-03
            1683     13.1492E-03     41.0377E-03    -8.22797E+06    -24.7404E+06    -7.88206E+06    -243.176E+03    -27.9884E-03     54.3343E-03    -26.3459E-03     80.6424E-03    -28.1711E-03     54.4227E-03    -26.3375E-03     80.4663E-03
            1684     12.2726E-03     40.9621E-03    -8.29848E+06    -39.9133E+06    -3.01089E+06    -48.9426E+03    -27.8744E-03     54.2565E-03    -26.3821E-03     74.8496E-03    -27.9767E-03     54.1963E-03    -26.3273E-03     74.7075E-03
            1685     11.3962E-03     40.8949E-03    -8.46846E+06    -50.3023E+06     237.905E+03     327.300E+03    -27.6298E-03     54.0304E-03    -26.4006E-03     66.9739E-03    -27.6784E-03     53.8696E-03    -26.3142E-03     66.8653E-03
            1686     10.5197E-03     40.8342E-03    -8.65403E+06    -60.6928E+06     359.691E+03     409.717E+03    -27.4826E-03     53.8838E-03    -26.4012E-03     61.3562E-03    -27.4919E-03     53.6458E-03    -26.2988E-03     61.2707E-03
            1687     9.64318E-03     40.7778E-03    -9.37264E+06    -69.2242E+06     2.03619E+06     525.738E+03    -27.3268E-03     53.7328E-03    -26.4060E-03     56.4705E-03    -27.3130E-03     53.4341E-03    -26.2818E-03     56.4049E-03
            1688     8.76671E-03     40.7262E-03    -10.6714E+06    -74.9060E+06     2.44644E+06     687.146E+03    -27.1540E-03     53.5554E-03    -26.4013E-03     51.4514E-03    -27.1275E-03     53.2179E-03    -26.2650E-03     51.4031E-03
            1689     7.89014E-03     40.6793E-03    -12.2470E+06    -80.4083E+06     1.21085E+06     539.462E+03    -27.0008E-03     53.3899E-03    -26.3891E-03     46.4362E-03    -26.9643E-03     53.0210E-03    -26.2487E-03     46.3984E-03
            1690     7.01359E-03     40.6373E-03    -13.7438E+06    -87.4304E+06    -71.3766E+03     484.427E+03    -26.8532E-03     53.2325E-03    -26.3793E-03     41.3035E-03    -26.8065E-03     52.8268E-03    -26.2329E-03     41.2751E-03
            1691     6.13696E-03     40.6002E-03    -15.2862E+06    -92.5863E+06    -2.92519E+06     319.397E+03    -26.7152E-03     53.0754E-03    -26.3602E-03     36.1435E-03    -26.6607E-03     52.6464E-03    -26.2184E-03     36.1210E-03
            1692     5.26033E-03     40.5681E-03    -17.1014E+06    -96.7539E+06    -6.92168E+06     187.010E+03    -26.5909E-03     52.9269E-03    -26.3360E-03     30.9612E-03    -26.5309E-03     52.4828E-03    -26.2055E-03     30.9435E-03
            1693     4.38364E-03     40.5409E-03    -18.8626E+06    -102.818E+06    -11.0335E+06     277.741E+03    -26.4925E-03     52.8079E-03    -26.3155E-03     25.7426E-03    -26.4246E-03     52.3402E-03    -26.1942E-03     25.7310E-03
            1694     3.50696E-03     40.5187E-03    -20.2647E+06    -107.238E+06    -14.5459E+06     413.601E+03    -26.4086E-03     52.7048E-03    -26.2962E-03     20.5643E-03    -26.3351E-03     52.2208E-03    -26.1841E-03     20.5586E-03
            1695     2.63024E-03     40.5014E-03    -21.5654E+06    -109.129E+06    -18.0046E+06     345.967E+03    -26.3380E-03     52.6131E-03    -26.2751E-03     15.4397E-03    -26.2623E-03     52.1257E-03    -26.1756E-03     15.4364E-03
            1696     1.75351E-03     40.4891E-03    -22.7239E+06    -110.741E+06    -21.1446E+06     116.917E+03    -26.2888E-03     52.5453E-03    -26.2565E-03     10.3751E-03    -26.2116E-03     52.0556E-03    -26.1687E-03     10.3717E-03
            1697     876.741E-06     40.4815E-03    -23.4497E+06    -111.243E+06    -23.0112E+06    -75.5233E+03    -26.2513E-03     52.4981E-03    -26.2468E-03     5.58490E-03    -26.1739E-03     52.0095E-03    -26.1666E-03     5.58138E-03
            1698     16.6566E-03     40.5791E-03    -4.93073E+06     158.378E+06     73.3332E+06    -206.371E+03    -30.6389E-03     57.0868E-03    -26.4479E-03     154.227E-03    -34.1134E-03     60.8934E-03    -26.3037E-03     155.902E-03
            1699     15.7806E-03     40.3645E-03    -7.54826E+06     124.570E+06     11.5048E+06     1.30497E+06    -32.7873E-03     58.9829E-03    -26.1956E-03     191.143E-03    -36.1492E-03     62.7268E-03    -26.3078E-03     191.743E-03
            1700     14.9025E-03     40.2132E-03    -7.94769E+06     64.5002E+06    -17.4354E+06     1.16010E+06    -29.8613E-03     56.0097E-03    -26.1485E-03     130.071E-03    -30.8731E-03     57.2729E-03    -26.3176E-03     129.912E-03
            1701     14.0260E-03     40.1161E-03    -7.72771E+06     9.59758E+06    -9.53929E+06    -18.2007E+03    -28.2036E-03     54.4747E-03    -26.2711E-03     91.8531E-03    -28.5626E-03     54.8679E-03    -26.3215E-03     91.6560E-03
            1702     13.1493E-03     40.0383E-03    -7.98863E+06    -24.9783E+06    -8.04539E+06    -174.791E+03    -28.0332E-03     54.3563E-03    -26.3232E-03     80.8886E-03    -28.2147E-03     54.4441E-03    -26.3156E-03     80.7131E-03
            1703     12.2729E-03     39.9624E-03    -8.29544E+06    -40.0927E+06    -3.17799E+06    -32.7210E+03    -27.9183E-03     54.2738E-03    -26.3555E-03     74.9076E-03    -28.0200E-03     54.2129E-03    -26.3012E-03     74.7657E-03
            1704     11.3965E-03     39.8955E-03    -8.65125E+06    -50.3272E+06    -356.007E+03    -242.226E+03    -27.6567E-03     54.0239E-03    -26.3673E-03     66.9687E-03    -27.7051E-03     53.8640E-03    -26.2835E-03     66.8527E-03
            1705     10.5200E-03     39.8346E-03    -9.01891E+06    -61.1174E+06    -319.546E+03     7.20923E+03    -27.4991E-03     53.8629E-03    -26.3638E-03     61.3028E-03    -27.5085E-03     53.6242E-03    -26.2637E-03     61.2122E-03
            1706     9.64361E-03     39.7784E-03    -9.75034E+06    -69.5347E+06     1.65910E+06     557.198E+03    -27.3316E-03     53.6971E-03    -26.3655E-03     56.3627E-03    -27.3185E-03     53.3978E-03    -26.2423E-03     56.2977E-03
            1707     8.76705E-03     39.7268E-03    -10.8662E+06    -74.7875E+06     2.27810E+06     691.190E+03    -27.1541E-03     53.5105E-03    -26.3565E-03     51.3542E-03    -27.1283E-03     53.1741E-03    -26.2209E-03     51.3062E-03
            1708     7.89055E-03     39.6801E-03    -12.1420E+06    -80.0799E+06     1.26127E+06     582.430E+03    -26.9859E-03     53.3261E-03    -26.3402E-03     46.3143E-03    -26.9493E-03     52.9584E-03    -26.2002E-03     46.2774E-03
            1709     7.01393E-03     39.6381E-03    -13.7190E+06    -87.2605E+06    -238.296E+03     309.542E+03    -26.8265E-03     53.1523E-03    -26.3258E-03     41.1835E-03    -26.7795E-03     52.7476E-03    -26.1806E-03     41.1530E-03
            1710     6.13732E-03     39.6011E-03    -15.4434E+06    -92.4563E+06    -3.09126E+06     284.129E+03    -26.6788E-03     52.9825E-03    -26.3037E-03     36.0222E-03    -26.6249E-03     52.5546E-03    -26.1627E-03     35.9994E-03
            1711     5.26062E-03     39.5690E-03    -17.1979E+06    -96.6888E+06    -7.00072E+06     339.419E+03    -26.5474E-03     52.8244E-03    -26.2769E-03     30.8454E-03    -26.4878E-03     52.3808E-03    -26.1468E-03     30.8297E-03
            1712     4.38393E-03     39.5419E-03    -18.8954E+06    -102.840E+06    -11.1396E+06     326.468E+03    -26.4406E-03     52.6943E-03    -26.2538E-03     25.6403E-03    -26.3727E-03     52.2266E-03    -26.1329E-03     25.6295E-03
            1713     3.50717E-03     39.5198E-03    -20.4472E+06    -107.165E+06    -14.6906E+06     311.980E+03    -26.3508E-03     52.5832E-03    -26.2324E-03     20.4806E-03    -26.2780E-03     52.1000E-03    -26.1208E-03     20.4736E-03
            1714     2.63041E-03     39.5025E-03    -21.6607E+06    -108.860E+06    -17.9130E+06     295.596E+03    -26.2785E-03     52.4885E-03    -26.2099E-03     15.3774E-03    -26.2039E-03     52.0024E-03    -26.1103E-03     15.3736E-03
            1715     1.75363E-03     39.4902E-03    -22.5648E+06    -110.423E+06    -20.9021E+06     222.463E+03    -26.2235E-03     52.4134E-03    -26.1899E-03     10.3312E-03    -26.1462E-03     51.9247E-03    -26.1016E-03     10.3292E-03
            1716     876.838E-06     39.4827E-03    -23.2634E+06    -111.177E+06    -22.9372E+06     73.3135E+03    -26.1828E-03     52.3636E-03    -26.1808E-03     5.55370E-03    -26.1047E-03     51.8749E-03    -26.1006E-03     5.55213E-03
            1717     16.6560E-03     39.5803E-03    -6.37435E+06     157.771E+06     71.7723E+06     422.217E+03    -30.5445E-03     57.0074E-03    -26.4630E-03     154.574E-03    -34.0562E-03     60.8485E-03    -26.3237E-03     156.270E-03
            1718     15.7776E-03     39.3640E-03    -9.46793E+06     124.179E+06     11.2120E+06     97.2433E+03    -33.1850E-03     59.3941E-03    -26.2091E-03     190.927E-03    -36.5869E-03     63.1708E-03    -26.3194E-03     191.515E-03
            1719     14.9029E-03     39.2134E-03    -8.52350E+06     65.2063E+06    -16.1479E+06     288.830E+03    -29.9923E-03     56.1417E-03    -26.1494E-03     129.727E-03    -31.0063E-03     57.4038E-03    -26.3124E-03     129.555E-03
            1720     14.0260E-03     39.1171E-03    -7.32649E+06     9.96122E+06    -9.58786E+06     398.322E+03    -28.2729E-03     54.5302E-03    -26.2573E-03     92.2218E-03    -28.6314E-03     54.9259E-03    -26.3091E-03     92.0292E-03
            1721     13.1495E-03     39.0383E-03    -7.58649E+06    -25.0578E+06    -8.22125E+06     248.611E+03    -28.1499E-03     54.4529E-03    -26.3029E-03     80.7763E-03    -28.3297E-03     54.5405E-03    -26.2967E-03     80.6051E-03
            1722     12.2733E-03     38.9629E-03    -7.97620E+06    -39.6960E+06    -3.09410E+06    -89.1820E+03    -27.9607E-03     54.2894E-03    -26.3287E-03     74.7193E-03    -28.0609E-03     54.2293E-03    -26.2750E-03     74.5766E-03
            1723     11.3968E-03     38.8959E-03    -8.49021E+06    -50.2387E+06    -474.236E+03    -301.468E+03    -27.6985E-03     54.0330E-03    -26.3345E-03     66.8806E-03    -27.7460E-03     53.8734E-03    -26.2517E-03     66.7637E-03
            1724     10.5205E-03     38.8352E-03    -9.32108E+06    -61.7674E+06    -691.456E+03    -127.229E+03    -27.5189E-03     53.8450E-03    -26.3261E-03     61.1788E-03    -27.5281E-03     53.6038E-03    -26.2265E-03     61.0866E-03
            1725     9.64395E-03     38.7789E-03    -10.0605E+06    -69.9517E+06     1.36074E+06     296.110E+03    -27.3424E-03     53.6652E-03    -26.3228E-03     56.2513E-03    -27.3298E-03     53.3645E-03    -26.1999E-03     56.1831E-03
            1726     8.76752E-03     38.7275E-03    -10.9055E+06    -74.6604E+06     2.25504E+06     480.224E+03    -27.1609E-03     53.4693E-03    -26.3084E-03     51.2198E-03    -27.1354E-03     53.1335E-03    -26.1730E-03     51.1692E-03
            1727     7.89094E-03     38.6808E-03    -12.0794E+06    -79.8590E+06     1.23834E+06     394.253E+03    -26.9741E-03     53.2605E-03    -26.2864E-03     46.1712E-03    -26.9374E-03     52.8938E-03    -26.1469E-03     46.1320E-03
            1728     7.01436E-03     38.6390E-03    -13.5672E+06    -87.0672E+06    -352.095E+03     409.323E+03    -26.8036E-03     53.0703E-03    -26.2666E-03     41.0369E-03    -26.7560E-03     52.6664E-03    -26.1225E-03     41.0079E-03
            1729     6.13769E-03     38.6021E-03    -15.4130E+06    -92.4650E+06    -3.37336E+06     376.934E+03    -26.6448E-03     52.8844E-03    -26.2395E-03     35.8804E-03    -26.5903E-03     52.4567E-03    -26.1000E-03     35.8590E-03
            1730     5.26099E-03     38.5701E-03    -17.2156E+06    -96.6368E+06    -7.18128E+06     396.210E+03    -26.5013E-03     52.7105E-03    -26.2092E-03     30.7090E-03    -26.4416E-03     52.2674E-03    -26.0800E-03     30.6942E-03
            1731     4.38421E-03     38.5430E-03    -18.8811E+06    -102.717E+06    -11.0965E+06     409.818E+03    -26.3856E-03     52.5689E-03    -26.1833E-03     25.5142E-03    -26.3179E-03     52.1017E-03    -26.0625E-03     25.5046E-03
            1732     3.50744E-03     38.5210E-03    -20.3660E+06    -106.947E+06    -14.7037E+06     288.812E+03    -26.2867E-03     52.4451E-03    -26.1584E-03     20.3772E-03    -26.2138E-03     51.9629E-03    -26.0473E-03     20.3700E-03
            1733     2.63061E-03     38.5038E-03    -21.6444E+06    -108.732E+06    -18.0835E+06     132.243E+03    -26.2033E-03     52.3374E-03    -26.1341E-03     15.2970E-03    -26.1285E-03     51.8522E-03    -26.0355E-03     15.2911E-03
            1734     1.75375E-03     38.4915E-03    -22.5681E+06    -110.305E+06    -20.8908E+06     136.416E+03    -26.1440E-03     52.2603E-03    -26.1164E-03     10.2732E-03    -26.0669E-03     51.7722E-03    -26.0282E-03     10.2701E-03
            1735     876.855E-06     38.4840E-03    -23.0999E+06    -110.869E+06    -22.6345E+06     194.145E+03    -26.1220E-03     52.2202E-03    -26.0982E-03     5.54543E-03    -26.0440E-03     51.7324E-03    -26.0171E-03     5.54543E-03
            1736     16.6541E-03     38.5799E-03    -3.95663E+06     158.786E+06     73.2997E+06     1.28007E+06    -30.9084E-03     57.3451E-03    -26.4368E-03     151.717E-03    -34.3834E-03     61.1573E-03    -26.2948E-03     153.395E-03
            1737     15.7808E-03     38.3630E-03    -5.82824E+06     125.485E+06     11.9687E+06     201.081E+03    -32.5197E-03     58.6921E-03    -26.1725E-03     188.771E-03    -35.8878E-03     62.4503E-03    -26.2861E-03     189.384E-03
            1738     14.9027E-03     38.2151E-03    -7.02989E+06     63.6846E+06    -17.5225E+06     482.946E+03    -29.6478E-03     55.7788E-03    -26.1310E-03     129.748E-03    -30.6423E-03     57.0252E-03    -26.3007E-03     129.586E-03
            1739     14.0259E-03     38.1167E-03    -7.59208E+06     10.2653E+06    -9.54286E+06     1.06038E+06    -28.5589E-03     54.8058E-03    -26.2469E-03     92.4424E-03    -28.9221E-03     55.2061E-03    -26.2985E-03     92.2546E-03
            1740     13.1502E-03     38.0388E-03    -7.75291E+06    -24.2049E+06    -8.04903E+06     322.618E+03    -28.2348E-03     54.5140E-03    -26.2792E-03     80.5325E-03    -28.4164E-03     54.6055E-03    -26.2731E-03     80.3615E-03
            1741     12.2736E-03     37.9633E-03    -7.84837E+06    -39.5956E+06    -3.17306E+06    -139.083E+03    -27.9747E-03     54.2735E-03    -26.2988E-03     74.7155E-03    -28.0740E-03     54.2136E-03    -26.2459E-03     74.5724E-03
            1742     11.3973E-03     37.8963E-03    -8.44972E+06    -50.2408E+06     -548.96E+03    -14.3555E+03    -27.7360E-03     54.0367E-03    -26.3007E-03     66.8151E-03    -27.7830E-03     53.8769E-03    -26.2183E-03     66.7020E-03
            1743     10.5208E-03     37.8357E-03    -9.31567E+06    -61.9795E+06    -879.195E+03     8.82234E+03    -27.5528E-03     53.8389E-03    -26.2861E-03     61.0624E-03    -27.5611E-03     53.5967E-03    -26.1871E-03     60.9721E-03
            1744     9.64446E-03     37.7795E-03    -10.1635E+06    -70.1420E+06     977.923E+03    -54.9821E+03    -27.3695E-03     53.6447E-03    -26.2752E-03     56.1249E-03    -27.3563E-03     53.3437E-03    -26.1539E-03     56.0523E-03
            1745     8.76794E-03     37.7282E-03    -10.9888E+06    -74.7739E+06     1.76404E+06     78.4541E+03    -27.1685E-03     53.4220E-03    -26.2535E-03     51.0585E-03    -27.1423E-03     53.0862E-03    -26.1203E-03     51.0029E-03
            1746     7.89143E-03     37.6817E-03    -12.2079E+06    -79.9209E+06     868.817E+03     381.048E+03    -26.9701E-03     53.1957E-03    -26.2256E-03     45.9897E-03    -26.9333E-03     52.8293E-03    -26.0876E-03     45.9505E-03
            1747     7.01479E-03     37.6399E-03    -13.8842E+06    -86.9879E+06    -761.654E+03     465.867E+03    -26.7835E-03     52.9827E-03    -26.1992E-03     40.8520E-03    -26.7369E-03     52.5802E-03    -26.0568E-03     40.8239E-03
            1748     6.13814E-03     37.6031E-03    -15.5522E+06    -92.3729E+06    -3.61658E+06     478.681E+03    -26.6102E-03     52.7768E-03    -26.1666E-03     35.6956E-03    -26.5561E-03     52.3501E-03    -26.0282E-03     35.6757E-03
            1749     5.26138E-03     37.5712E-03    -17.2683E+06    -96.5627E+06    -7.35716E+06     455.535E+03    -26.4526E-03     52.5835E-03    -26.1309E-03     30.5372E-03    -26.3929E-03     52.1411E-03    -26.0026E-03     30.5233E-03
            1750     4.38460E-03     37.5443E-03    -18.8386E+06    -102.552E+06    -11.2452E+06     394.005E+03    -26.3235E-03     52.4236E-03    -26.1001E-03     25.3626E-03    -26.2555E-03     51.9573E-03    -25.9803E-03     25.3529E-03
            1751     3.50773E-03     37.5223E-03    -20.2674E+06    -106.665E+06    -14.7366E+06     285.410E+03    -26.2117E-03     52.2835E-03    -26.0718E-03     20.2515E-03    -26.1387E-03     51.8026E-03    -25.9614E-03     20.2444E-03
            1752     2.63084E-03     37.5052E-03    -21.5725E+06    -108.551E+06    -18.0843E+06     142.956E+03    -26.1190E-03     52.1645E-03    -26.0455E-03     15.1963E-03    -26.0441E-03     51.6801E-03    -25.9473E-03     15.1906E-03
            1753     1.75390E-03     37.4930E-03    -22.6035E+06    -110.283E+06    -20.9648E+06     38.0661E+03    -26.0549E-03     52.0818E-03    -26.0269E-03     10.1999E-03    -25.9780E-03     51.5939E-03    -25.9390E-03     10.1956E-03
            1754     876.966E-06     37.4855E-03    -23.1524E+06    -110.702E+06    -22.6614E+06     22.9689E+03    -26.0168E-03     52.0407E-03    -26.0238E-03     5.53837E-03    -25.9393E-03     51.5538E-03    -25.9431E-03     5.53617E-03
            1755     16.6613E-03     37.5786E-03    -2.42417E+06     157.495E+06     75.9024E+06    -291.483E+03    -30.7018E-03     57.1292E-03    -26.4274E-03     152.760E-03    -34.1737E-03     60.9315E-03    -26.2727E-03     154.443E-03
            1756     15.7805E-03     37.3670E-03    -4.24086E+06     124.461E+06     15.1343E+06     2.30181E+06    -32.1852E-03     58.3720E-03    -26.1868E-03     191.028E-03    -35.5628E-03     62.1324E-03    -26.2855E-03     191.694E-03
            1757     14.9023E-03     37.2152E-03    -6.80702E+06     64.8250E+06    -16.4386E+06     2.94780E+06    -30.0906E-03     56.2299E-03    -26.1393E-03     131.458E-03    -31.1021E-03     57.4950E-03    -26.3056E-03     131.321E-03
            1758     14.0267E-03     37.1166E-03    -7.46887E+06     11.3518E+06    -9.29783E+06     904.391E+03    -28.7531E-03     54.9888E-03    -26.2357E-03     92.3745E-03    -29.1177E-03     55.3941E-03    -26.2878E-03     92.1828E-03
            1759     13.1501E-03     37.0392E-03    -6.95254E+06    -23.7658E+06    -7.58140E+06     266.502E+03    -28.2509E-03     54.5124E-03    -26.2616E-03     80.5418E-03    -28.4288E-03     54.6033E-03    -26.2549E-03     80.3707E-03
            1760     12.2740E-03     36.9636E-03    -7.25222E+06    -39.4891E+06    -2.95143E+06     234.001E+03    -28.0999E-03     54.3744E-03    -26.2745E-03     74.7422E-03    -28.1969E-03     54.3140E-03    -26.2215E-03     74.6033E-03
            1761     11.3976E-03     36.8968E-03    -8.01193E+06    -50.2696E+06    -484.849E+03     187.778E+03    -27.8103E-03     54.0770E-03    -26.2666E-03     66.7038E-03    -27.8548E-03     53.9160E-03    -26.1846E-03     66.5935E-03
            1762     10.5213E-03     36.8362E-03    -8.69085E+06    -61.8891E+06    -896.311E+03     198.923E+03    -27.6190E-03     53.8614E-03    -26.2424E-03     60.8910E-03    -27.6241E-03     53.6186E-03    -26.1445E-03     60.8031E-03
            1763     9.64489E-03     36.7802E-03    -9.67369E+06    -69.9600E+06     906.908E+03     32.2862E+03    -27.4159E-03     53.6379E-03    -26.2221E-03     55.9045E-03    -27.4003E-03     53.3370E-03    -26.1021E-03     55.8331E-03
            1764     8.76848E-03     36.7290E-03    -11.1490E+06    -75.1562E+06     1.31932E+06     90.7478E+03    -27.1855E-03     53.3769E-03    -26.1914E-03     50.8165E-03    -27.1588E-03     53.0400E-03    -26.0596E-03     50.7612E-03
            1765     7.89193E-03     36.6826E-03    -12.6482E+06    -80.1265E+06     456.700E+03     362.058E+03    -26.9671E-03     53.1226E-03    -26.1555E-03     45.7358E-03    -26.9315E-03     52.7563E-03    -26.0187E-03     45.6965E-03
            1766     7.01535E-03     36.6410E-03    -14.0930E+06    -86.8950E+06    -900.247E+03     480.731E+03    -26.7630E-03     52.8848E-03    -26.1217E-03     40.6047E-03    -26.7172E-03     52.4831E-03    -25.9798E-03     40.5770E-03
            1767     6.13864E-03     36.6043E-03    -15.7820E+06    -92.3017E+06    -3.85208E+06     455.870E+03    -26.5700E-03     52.6513E-03    -26.0813E-03     35.4647E-03    -26.5168E-03     52.2255E-03    -25.9438E-03     35.4447E-03
            1768     5.26187E-03     36.5725E-03    -17.3808E+06    -96.4006E+06    -7.54012E+06     422.556E+03    -26.3945E-03     52.4334E-03    -26.0389E-03     30.3277E-03    -26.3353E-03     51.9922E-03    -25.9116E-03     30.3136E-03
            1769     4.38500E-03     36.5457E-03    -18.8989E+06    -102.378E+06    -11.4348E+06     346.012E+03    -26.2483E-03     52.2508E-03    -26.0025E-03     25.1798E-03    -26.1806E-03     51.7858E-03    -25.8838E-03     25.1696E-03
            1770     3.50810E-03     36.5238E-03    -20.2752E+06    -106.457E+06    -14.9156E+06     258.178E+03    -26.1221E-03     52.0923E-03    -25.9702E-03     20.1012E-03    -26.0491E-03     51.6126E-03    -25.8610E-03     20.0938E-03
            1771     2.63111E-03     36.5068E-03    -21.4760E+06    -108.372E+06    -18.1007E+06     186.021E+03    -26.0222E-03     51.9640E-03    -25.9418E-03     15.0869E-03    -25.9470E-03     51.4804E-03    -25.8441E-03     15.0819E-03
            1772     1.75410E-03     36.4946E-03    -22.5053E+06    -110.115E+06    -20.8717E+06     84.8180E+03    -25.9593E-03     51.8788E-03    -25.9196E-03     10.1328E-03    -25.8822E-03     51.3915E-03    -25.8317E-03     10.1292E-03
            1773     877.042E-06     36.4872E-03    -23.2956E+06    -110.727E+06    -22.7833E+06    -64.9878E+03    -25.9093E-03     51.8190E-03    -25.9097E-03     5.47764E-03    -25.8322E-03     51.3324E-03    -25.8293E-03     5.47433E-03
            1774     16.6518E-03     36.5779E-03    -5.03650E+06     154.300E+06     71.5976E+06    -779.804E+03    -29.6467E-03     56.1457E-03    -26.4990E-03     153.851E-03    -33.1259E-03     59.9472E-03    -26.3574E-03     155.547E-03
            1775     15.7769E-03     36.3676E-03    -9.85722E+06     121.926E+06     13.5476E+06     1.26526E+06    -33.5897E-03     59.8599E-03    -26.2702E-03     191.064E-03    -37.0012E-03     63.6299E-03    -26.3650E-03     191.669E-03
            1776     14.9027E-03     36.2138E-03    -8.22584E+06     67.8973E+06    -12.7546E+06     1.93294E+06    -30.9271E-03     57.0990E-03    -26.1718E-03     130.920E-03    -31.9684E-03     58.3891E-03    -26.3221E-03     130.753E-03
            1777     14.0264E-03     36.1172E-03    -6.41415E+06     12.3561E+06    -9.10110E+06     769.451E+03    -28.7385E-03     54.9627E-03    -26.2242E-03     92.1005E-03    -29.0966E-03     55.3683E-03    -26.2783E-03     91.9085E-03
            1778     13.1503E-03     36.0392E-03    -6.68701E+06    -23.7891E+06    -7.75562E+06     647.766E+03    -28.4140E-03     54.6587E-03    -26.2446E-03     80.3715E-03    -28.5904E-03     54.7494E-03    -26.2392E-03     80.2042E-03
            1779     12.2741E-03     35.9639E-03    -7.17164E+06    -39.1350E+06    -3.05452E+06     561.361E+03    -28.2426E-03     54.4876E-03    -26.2450E-03     74.4019E-03    -28.3393E-03     54.4288E-03    -26.1931E-03     74.2666E-03
            1780     11.3981E-03     35.8971E-03    -7.71865E+06    -50.2869E+06    -608.858E+03     352.732E+03    -27.9243E-03     54.1487E-03    -26.2243E-03     66.3864E-03    -27.9670E-03     53.9872E-03    -26.1433E-03     66.2778E-03
            1781     10.5218E-03     35.8367E-03    -8.44533E+06    -61.6882E+06    -936.338E+03     291.242E+03    -27.6888E-03     53.8773E-03    -26.1884E-03     60.5729E-03    -27.6927E-03     53.6349E-03    -26.0914E-03     60.4862E-03
            1782     9.64553E-03     35.7808E-03    -9.47844E+06    -70.0607E+06     1.02960E+06     459.399E+03    -27.4572E-03     53.6159E-03    -26.1588E-03     55.5583E-03    -27.4404E-03     53.3138E-03    -26.0383E-03     55.4925E-03
            1783     8.76911E-03     35.7298E-03    -10.9685E+06    -75.1101E+06     1.58967E+06     535.656E+03    -27.2014E-03     53.3200E-03    -26.1185E-03     50.4815E-03    -27.1741E-03     52.9824E-03    -25.9858E-03     50.4321E-03
            1784     7.89262E-03     35.6835E-03    -12.5431E+06    -80.1564E+06     457.066E+03     346.964E+03    -26.9564E-03     53.0287E-03    -26.0722E-03     45.4299E-03    -26.9201E-03     52.6619E-03    -25.9355E-03     45.3907E-03
            1785     7.01598E-03     35.6421E-03    -14.1135E+06    -86.9424E+06    -922.143E+03     401.987E+03    -26.7301E-03     52.7602E-03    -26.0301E-03     40.3129E-03    -26.6843E-03     52.3583E-03    -25.8882E-03     40.2843E-03
            1786     6.13926E-03     35.6056E-03    -15.6894E+06    -92.1112E+06    -3.81123E+06     433.851E+03    -26.5171E-03     52.4988E-03    -25.9817E-03     35.2004E-03    -26.4636E-03     52.0737E-03    -25.8445E-03     35.1802E-03
            1787     5.26242E-03     35.5740E-03    -17.3155E+06    -96.2835E+06    -7.52200E+06     327.136E+03    -26.3240E-03     52.2565E-03    -25.9325E-03     30.0922E-03    -26.2646E-03     51.8157E-03    -25.8054E-03     30.0770E-03
            1788     4.38551E-03     35.5473E-03    -18.7815E+06    -102.228E+06    -11.3947E+06     288.984E+03    -26.1609E-03     52.0509E-03    -25.8900E-03     24.9716E-03    -26.0928E-03     51.5863E-03    -25.7715E-03     24.9608E-03
            1789     3.50850E-03     35.5256E-03    -20.1588E+06    -106.318E+06    -14.9452E+06     262.213E+03    -26.0200E-03     51.8726E-03    -25.8525E-03     19.9278E-03    -25.9466E-03     51.3935E-03    -25.7439E-03     19.9207E-03
            1790     2.63143E-03     35.5086E-03    -21.4171E+06    -108.230E+06    -18.1974E+06     231.703E+03    -25.9110E-03     51.7312E-03    -25.8201E-03     14.9573E-03    -25.8356E-03     51.2483E-03    -25.7231E-03     14.9530E-03
            1791     1.75430E-03     35.4965E-03    -22.3420E+06    -109.887E+06    -20.9837E+06     125.330E+03    -25.8421E-03     51.6360E-03    -25.7940E-03     10.0476E-03    -25.7644E-03     51.1498E-03    -25.7071E-03     10.0445E-03
            1792     877.195E-06     35.4890E-03    -22.7616E+06    -110.690E+06    -22.5186E+06     5.13663E+03    -25.7927E-03     51.5690E-03    -25.7763E-03     5.43363E-03    -25.7134E-03     51.0814E-03    -25.6954E-03     5.43126E-03
            1793     16.6545E-03     35.5809E-03    -4.93776E+06     154.934E+06     73.7245E+06     1.42798E+06    -30.1474E-03     56.6668E-03    -26.5193E-03     151.680E-03    -33.5896E-03     60.4277E-03    -26.3682E-03     153.348E-03
            1794     15.7783E-03     35.3628E-03    -9.03171E+06     122.219E+06     13.7559E+06    -8.11159E+03    -33.6916E-03     59.9469E-03    -26.2553E-03     188.442E-03    -37.0647E-03     63.6819E-03    -26.3506E-03     188.996E-03
            1795     14.9032E-03     35.2151E-03    -8.56332E+06     66.7641E+06    -15.2788E+06    -700.073E+03    -30.7095E-03     56.8491E-03    -26.1396E-03     129.157E-03    -31.7419E-03     58.1324E-03    -26.3004E-03     128.958E-03
            1796     14.0265E-03     35.1166E-03    -7.51898E+06     12.5876E+06    -9.22091E+06     803.791E+03    -28.8086E-03     55.0097E-03    -26.2011E-03     91.7417E-03    -29.1724E-03     55.4182E-03    -26.2545E-03     91.5491E-03
            1797     13.1508E-03     35.0394E-03    -7.41214E+06    -23.5222E+06    -7.99114E+06     815.665E+03    -28.5648E-03     54.7745E-03    -26.2097E-03     79.8291E-03    -28.7449E-03     54.8679E-03    -26.2048E-03     79.6623E-03
            1798     12.2748E-03     34.9639E-03    -7.46713E+06    -38.9789E+06    -3.08623E+06     587.690E+03    -28.3307E-03     54.5287E-03    -26.1980E-03     73.9358E-03    -28.4288E-03     54.4708E-03    -26.1461E-03     73.8003E-03
            1799     11.3987E-03     34.8975E-03    -7.98713E+06    -50.0029E+06    -571.512E+03     520.938E+03    -27.9896E-03     54.1562E-03    -26.1666E-03     65.9725E-03    -28.0338E-03     53.9961E-03    -26.0854E-03     65.8659E-03
            1800     10.5226E-03     34.8371E-03    -8.81647E+06    -61.7655E+06    -971.168E+03     472.778E+03    -27.7364E-03     53.8567E-03    -26.1203E-03     60.2012E-03    -27.7418E-03     53.6143E-03    -26.0228E-03     60.1168E-03
            1801     9.64629E-03     34.7815E-03    -9.74892E+06    -70.2126E+06     971.526E+03     644.087E+03    -27.4739E-03     53.5541E-03    -26.0802E-03     55.2058E-03    -27.4580E-03     53.2515E-03    -25.9594E-03     55.1426E-03
            1802     8.76992E-03     34.7306E-03    -10.7741E+06    -74.9234E+06     1.82548E+06     677.218E+03    -27.2022E-03     53.2328E-03    -26.0305E-03     50.1350E-03    -27.1743E-03     52.8953E-03    -25.8971E-03     50.0877E-03
            1803     7.89338E-03     34.6847E-03    -12.2146E+06    -79.8523E+06     780.606E+03     573.968E+03    -26.9355E-03     52.9102E-03    -25.9747E-03     45.0939E-03    -26.8982E-03     52.5439E-03    -25.8373E-03     45.0578E-03
            1804     7.01674E-03     34.6434E-03    -13.8808E+06    -86.9518E+06    -830.160E+03     372.243E+03    -26.6842E-03     52.6073E-03    -25.9231E-03     39.9947E-03    -26.6371E-03     52.2047E-03    -25.7811E-03     39.9660E-03
            1805     6.13997E-03     34.6071E-03    -15.5360E+06    -91.9879E+06    -3.74465E+06     365.328E+03    -26.4501E-03     52.3166E-03    -25.8666E-03     34.9061E-03    -26.3960E-03     51.8917E-03    -25.7294E-03     34.8853E-03
            1806     5.26307E-03     34.5756E-03    -17.1364E+06    -96.1019E+06    -7.58367E+06     319.873E+03    -26.2392E-03     52.0486E-03    -25.8094E-03     29.8262E-03    -26.1790E-03     51.6084E-03    -25.6831E-03     29.8111E-03
            1807     4.38607E-03     34.5491E-03    -18.7380E+06    -102.198E+06    -11.4807E+06     292.665E+03    -26.0620E-03     51.8225E-03    -25.7605E-03     24.7365E-03    -25.9936E-03     51.3580E-03    -25.6425E-03     24.7259E-03
            1808     3.50898E-03     34.5275E-03    -20.1873E+06    -106.185E+06    -14.9526E+06     326.808E+03    -25.9092E-03     51.6259E-03    -25.7167E-03     19.7286E-03    -25.8361E-03     51.1475E-03    -25.6082E-03     19.7225E-03
            1809     2.63180E-03     34.5107E-03    -21.3940E+06    -108.063E+06    -18.2507E+06     262.316E+03    -25.7833E-03     51.4612E-03    -25.6780E-03     14.8045E-03    -25.7079E-03     50.9792E-03    -25.5815E-03     14.8007E-03
            1810     1.75459E-03     34.4986E-03    -22.2391E+06    -109.664E+06    -21.0834E+06     208.005E+03    -25.6936E-03     51.3438E-03    -25.6502E-03     9.95466E-03    -25.6155E-03     50.8586E-03    -25.5644E-03     9.95276E-03
            1811     877.266E-06     34.4912E-03    -22.8153E+06    -110.550E+06    -22.6676E+06     151.662E+03    -25.6421E-03     51.2849E-03    -25.6428E-03     5.37418E-03    -25.5630E-03     50.7983E-03    -25.5628E-03     5.37374E-03
            1812     16.6576E-03     34.5806E-03    -4.70240E+06     155.649E+06     74.8817E+06     1.45595E+06    -31.2009E-03     57.6692E-03    -26.4683E-03     153.072E-03    -34.6673E-03     61.4543E-03    -26.3128E-03     154.739E-03
            1813     15.7808E-03     34.3644E-03    -5.97493E+06     123.688E+06     14.2664E+06     1.24451E+06    -33.1869E-03     59.3755E-03    -26.1886E-03     190.314E-03    -36.5557E-03     63.1208E-03    -26.2879E-03     190.901E-03
            1814     14.9030E-03     34.2143E-03    -7.29860E+06     65.7442E+06    -16.6241E+06     112.276E+03    -30.5279E-03     56.6210E-03    -26.0931E-03     129.366E-03    -31.5459E-03     57.8946E-03    -26.2610E-03     129.180E-03
            1815     14.0277E-03     34.1170E-03    -7.80202E+06     12.0580E+06    -8.83695E+06     188.812E+03    -29.0351E-03     55.1962E-03    -26.1611E-03     91.4724E-03    -29.4012E-03     55.6030E-03    -26.2114E-03     91.2688E-03
            1816     13.1515E-03     34.0390E-03    -7.39976E+06    -23.3053E+06    -7.42927E+06     560.319E+03    -28.5870E-03     54.7442E-03    -26.1572E-03     79.5533E-03    -28.7669E-03     54.8366E-03    -26.1498E-03     79.3836E-03
            1817     12.2756E-03     33.9643E-03    -7.50784E+06    -38.9475E+06    -2.85025E+06     660.871E+03    -28.3841E-03     54.5208E-03    -26.1367E-03     73.6134E-03    -28.4822E-03     54.4622E-03    -26.0836E-03     73.4787E-03
            1818     11.3996E-03     33.8976E-03    -8.01338E+06    -49.7704E+06    -218.848E+03     625.068E+03    -28.0306E-03     54.1268E-03    -26.0962E-03     65.6751E-03    -28.0752E-03     53.9670E-03    -26.0135E-03     65.5701E-03
            1819     10.5234E-03     33.8377E-03    -8.64149E+06    -61.8364E+06    -789.066E+03     657.957E+03    -27.7648E-03     53.8043E-03    -26.0394E-03     59.8572E-03    -27.7690E-03     53.5605E-03    -25.9412E-03     59.7756E-03
            1820     9.64719E-03     33.7822E-03    -9.50098E+06    -70.2239E+06     1.15844E+06     673.315E+03    -27.4894E-03     53.4783E-03    -25.9889E-03     54.8505E-03    -27.4721E-03     53.1746E-03    -25.8675E-03     54.7880E-03
            1821     8.77080E-03     33.7317E-03    -10.7219E+06    -74.7998E+06     1.90251E+06     693.507E+03    -27.1952E-03     53.1235E-03    -25.9283E-03     49.7698E-03    -27.1671E-03     52.7862E-03    -25.7947E-03     49.7231E-03
            1822     7.89429E-03     33.6858E-03    -12.0089E+06    -79.5705E+06     1.04714E+06     581.547E+03    -26.9071E-03     52.7696E-03    -25.8625E-03     44.7201E-03    -26.8693E-03     52.4037E-03    -25.7245E-03     44.6845E-03
            1823     7.01760E-03     33.6449E-03    -13.4938E+06    -86.7457E+06    -642.276E+03     489.833E+03    -26.6318E-03     52.4323E-03    -25.8005E-03     39.6354E-03    -26.5832E-03     52.0297E-03    -25.6584E-03     39.6086E-03
            1824     6.14077E-03     33.6087E-03    -15.2201E+06    -91.9569E+06    -3.88512E+06     401.897E+03    -26.3751E-03     52.1086E-03    -25.7335E-03     34.5696E-03    -26.3192E-03     51.6835E-03    -25.5975E-03     34.5495E-03
            1825     5.26381E-03     33.5775E-03    -16.9682E+06    -95.9744E+06    -7.61360E+06     440.407E+03    -26.1418E-03     51.8104E-03    -25.6686E-03     29.5154E-03    -26.0808E-03     51.3706E-03    -25.5429E-03     29.5021E-03
            1826     4.38671E-03     33.5512E-03    -18.6203E+06    -102.112E+06    -11.3385E+06     434.880E+03    -25.9487E-03     51.5617E-03    -25.6130E-03     24.4640E-03    -25.8800E-03     51.0973E-03    -25.4947E-03     24.4555E-03
            1827     3.50953E-03     33.5297E-03    -20.1121E+06    -106.047E+06    -14.8268E+06     384.369E+03    -25.7812E-03     51.3428E-03    -25.5616E-03     19.5035E-03    -25.7080E-03     50.8647E-03    -25.4528E-03     19.4982E-03
            1828     2.63224E-03     33.5130E-03    -21.4133E+06    -107.866E+06    -18.2148E+06     362.747E+03    -25.6375E-03     51.1532E-03    -25.5157E-03     14.6274E-03    -25.5626E-03     50.6721E-03    -25.4193E-03     14.6250E-03
            1829     1.75484E-03     33.5011E-03    -22.4438E+06    -109.430E+06    -20.9307E+06     305.342E+03    -25.5324E-03     51.0160E-03    -25.4836E-03     9.82473E-03    -25.4559E-03     50.5321E-03    -25.3970E-03     9.82416E-03
            1830     877.436E-06     33.4937E-03    -22.9743E+06    -110.234E+06    -22.5050E+06     135.920E+03    -25.4730E-03     50.9449E-03    -25.4719E-03     5.32237E-03    -25.3955E-03     50.4599E-03    -25.3912E-03     5.32177E-03
            1831     16.6548E-03     33.5789E-03    -4.82329E+06     154.475E+06     73.2348E+06     590.283E+03    -30.9517E-03     57.4171E-03    -26.4653E-03     153.304E-03    -34.4238E-03     61.2080E-03    -26.3161E-03     154.965E-03
            1832     15.7788E-03     33.3647E-03    -6.76380E+06     124.174E+06     15.1116E+06     921.090E+03    -33.6803E-03     59.8692E-03    -26.1889E-03     190.494E-03    -37.0636E-03     63.6254E-03    -26.2836E-03     191.071E-03
            1833     14.9040E-03     33.2137E-03    -6.20243E+06     66.8894E+06    -13.7454E+06     840.003E+03    -30.9456E-03     57.0192E-03    -26.0736E-03     129.565E-03    -31.9631E-03     58.2920E-03    -26.2303E-03     129.382E-03
            1834     14.0280E-03     33.1165E-03    -6.21902E+06     11.5424E+06    -8.38702E+06     515.678E+03    -29.1915E-03     55.3036E-03    -26.1120E-03     91.0727E-03    -29.5478E-03     55.7030E-03    -26.1617E-03     90.8721E-03
            1835     13.1524E-03     33.0393E-03    -6.63820E+06    -23.4639E+06    -7.16373E+06     682.545E+03    -28.6665E-03     54.7629E-03    -26.0964E-03     79.3701E-03    -28.8415E-03     54.8518E-03    -26.0885E-03     79.2022E-03
            1836     12.2764E-03     32.9641E-03    -7.06640E+06    -38.7630E+06    -2.68857E+06     863.606E+03    -28.4301E-03     54.4962E-03    -26.0661E-03     73.3529E-03    -28.5255E-03     54.4368E-03    -26.0131E-03     73.2212E-03
            1837     11.4005E-03     32.8982E-03    -7.71076E+06    -49.6347E+06    -63.6746E+03     749.397E+03    -28.0962E-03     54.1117E-03    -26.0155E-03     65.3197E-03    -28.1392E-03     53.9512E-03    -25.9326E-03     65.2165E-03
            1838     10.5244E-03     32.8382E-03    -8.43363E+06    -61.7263E+06    -661.285E+03     677.865E+03    -27.8007E-03     53.7476E-03    -25.9469E-03     59.4758E-03    -27.8036E-03     53.5034E-03    -25.8485E-03     59.3949E-03
            1839     9.64819E-03     32.7831E-03    -9.30099E+06    -70.3293E+06     1.10539E+06     811.019E+03    -27.5081E-03     53.3920E-03    -25.8839E-03     54.4379E-03    -27.4891E-03     53.0872E-03    -25.7629E-03     54.3775E-03
            1840     8.77183E-03     32.7327E-03    -10.4125E+06    -74.4073E+06     2.00629E+06     707.303E+03    -27.1877E-03     52.9989E-03    -25.8111E-03     49.3524E-03    -27.1584E-03     52.6626E-03    -25.6781E-03     49.3063E-03
            1841     7.89529E-03     32.6872E-03    -11.7506E+06    -79.4829E+06     983.919E+03     538.241E+03    -26.8734E-03     52.6068E-03    -25.7334E-03     44.2985E-03    -26.8341E-03     52.2408E-03    -25.5962E-03     44.2628E-03
            1842     7.01858E-03     32.6465E-03    -13.3392E+06    -86.6150E+06    -629.128E+03     594.630E+03    -26.5765E-03     52.2369E-03    -25.6603E-03     39.2223E-03    -26.5272E-03     51.8345E-03    -25.5185E-03     39.1972E-03
            1843     6.14171E-03     32.6107E-03    -15.0776E+06    -91.8281E+06    -3.92443E+06     615.326E+03    -26.2934E-03     51.8752E-03    -25.5819E-03     34.1733E-03    -26.2367E-03     51.4505E-03    -25.4465E-03     34.1564E-03
            1844     5.26465E-03     32.5796E-03    -16.8203E+06    -95.9520E+06    -7.65397E+06     634.641E+03    -26.0345E-03     51.5413E-03    -25.5068E-03     29.1526E-03    -25.9727E-03     51.1014E-03    -25.3815E-03     29.1422E-03
            1845     4.38746E-03     32.5535E-03    -18.4911E+06    -101.863E+06    -11.2865E+06     626.940E+03    -25.8154E-03     51.2577E-03    -25.4424E-03     24.1457E-03    -25.7464E-03     50.7942E-03    -25.3243E-03     24.1399E-03
            1846     3.51014E-03     32.5322E-03    -20.0902E+06    -105.876E+06    -14.7027E+06     538.420E+03    -25.6262E-03     51.0105E-03    -25.3842E-03     19.2359E-03    -25.5533E-03     50.5330E-03    -25.2751E-03     19.2328E-03
            1847     2.63271E-03     32.5157E-03    -21.4887E+06    -107.605E+06    -17.8032E+06     456.021E+03    -25.4728E-03     50.8056E-03    -25.3327E-03     14.4190E-03    -25.3992E-03     50.3253E-03    -25.2345E-03     14.4179E-03
            1848     1.75523E-03     32.5038E-03    -22.4432E+06    -109.033E+06    -20.6311E+06     219.664E+03    -25.3594E-03     50.6495E-03    -25.2901E-03     9.68406E-03    -25.2840E-03     50.1671E-03    -25.2026E-03     9.68246E-03
            1849     877.627E-06     32.4966E-03    -22.9883E+06    -110.019E+06    -22.6075E+06     15.0156E+03    -25.2671E-03     50.5431E-03    -25.2760E-03     5.26379E-03    -25.1897E-03     50.0593E-03    -25.1962E-03     5.26168E-03
            1850     16.6559E-03     32.5788E-03    -4.00057E+06     154.618E+06     74.3658E+06     469.373E+03    -31.1464E-03     57.6083E-03    -26.4619E-03     152.586E-03    -34.5942E-03     61.3751E-03    -26.3085E-03     154.212E-03
            1851     15.7803E-03     32.3637E-03    -6.64966E+06     123.810E+06     14.9278E+06    -155.549E+03    -33.9761E-03     60.1368E-03    -26.1607E-03     189.105E-03    -37.3353E-03     63.8686E-03    -26.2559E-03     189.636E-03
            1852     14.9044E-03     32.2130E-03    -6.61335E+06     66.1979E+06    -14.7233E+06     267.838E+03    -31.0712E-03     57.0950E-03    -26.0238E-03     128.935E-03    -32.0854E-03     58.3634E-03    -26.1838E-03     128.741E-03
            1853     14.0290E-03     32.1163E-03    -5.93626E+06     11.8651E+06    -8.20404E+06     1.12113E+06    -29.2138E-03     55.2701E-03    -26.0563E-03     90.5945E-03    -29.5669E-03     55.6680E-03    -26.1059E-03     90.4018E-03
            1854     13.1531E-03     32.0392E-03    -6.21986E+06    -23.5325E+06    -7.32875E+06     1.26333E+06    -28.7692E-03     54.7994E-03    -26.0303E-03     79.0352E-03    -28.9411E-03     54.8870E-03    -26.0238E-03     78.8743E-03
            1855     12.2775E-03     31.9645E-03    -6.68608E+06    -38.5714E+06    -2.74781E+06     1.16582E+06    -28.5328E-03     54.5204E-03    -25.9876E-03     73.0975E-03    -28.6259E-03     54.4608E-03    -25.9357E-03     72.9697E-03
            1856     11.4015E-03     31.8983E-03    -7.46587E+06    -49.3495E+06    -218.834E+03     1.09200E+06    -28.1698E-03     54.0929E-03    -25.9231E-03     64.9095E-03    -28.2111E-03     53.9331E-03    -25.8418E-03     64.8110E-03
            1857     10.5255E-03     31.8390E-03    -8.55985E+06    -61.6549E+06    -901.467E+03     1.02382E+06    -27.8488E-03     53.6900E-03    -25.8412E-03     59.0448E-03    -27.8516E-03     53.4462E-03    -25.7439E-03     58.9686E-03
            1858     9.64933E-03     31.7839E-03    -9.58471E+06    -70.0331E+06     545.873E+03     788.108E+03    -27.5287E-03     53.2914E-03    -25.7627E-03     54.0005E-03    -27.5103E-03     52.9888E-03    -25.6446E-03     53.9404E-03
            1859     8.77300E-03     31.7340E-03    -10.5359E+06    -74.2144E+06     1.60794E+06     594.931E+03    -27.1825E-03     52.8593E-03    -25.6768E-03     48.8735E-03    -27.1532E-03     52.5245E-03    -25.5458E-03     48.8264E-03
            1860     7.89644E-03     31.6887E-03    -11.9126E+06    -79.4681E+06     734.210E+03     731.870E+03    -26.8393E-03     52.4256E-03    -25.5863E-03     43.8150E-03    -26.8003E-03     52.0600E-03    -25.4501E-03     43.7822E-03
            1861     7.01971E-03     31.6483E-03    -13.6803E+06    -86.5342E+06    -831.276E+03     783.324E+03    -26.5152E-03     52.0151E-03    -25.4999E-03     38.7409E-03    -26.4672E-03     51.6137E-03    -25.3587E-03     38.7187E-03
            1862     6.14276E-03     31.6128E-03    -15.4511E+06    -91.6241E+06    -3.88176E+06     724.811E+03    -26.2016E-03     51.6106E-03    -25.4090E-03     33.7125E-03    -26.1470E-03     51.1872E-03    -25.2732E-03     33.6973E-03
            1863     5.26564E-03     31.5821E-03    -17.0051E+06    -95.8790E+06    -7.91306E+06     681.348E+03    -25.9119E-03     51.2319E-03    -25.3200E-03     28.7339E-03    -25.8507E-03     50.7928E-03    -25.1958E-03     28.7244E-03
            1864     4.38832E-03     31.5561E-03    -18.4441E+06    -101.713E+06    -11.4767E+06     778.018E+03    -25.6626E-03     50.9074E-03    -25.2448E-03     23.7752E-03    -25.5933E-03     50.4448E-03    -25.1279E-03     23.7716E-03
            1865     3.51086E-03     31.5351E-03    -19.9241E+06    -105.463E+06    -14.2599E+06     695.161E+03    -25.4485E-03     50.6291E-03    -25.1805E-03     18.9231E-03    -25.3760E-03     50.1528E-03    -25.0700E-03     18.9222E-03
            1866     2.63328E-03     31.5187E-03    -21.1804E+06    -107.187E+06    -17.4577E+06     332.255E+03    -25.2737E-03     50.3959E-03    -25.1222E-03     14.1828E-03    -25.1997E-03     49.9168E-03    -25.0233E-03     14.1802E-03
            1867     1.75556E-03     31.5070E-03    -22.0962E+06    -108.782E+06    -20.7491E+06     211.200E+03    -25.1489E-03     50.2233E-03    -25.0744E-03     9.53283E-03    -25.0718E-03     49.7418E-03    -24.9884E-03     9.53122E-03
            1868     877.816E-06     31.4998E-03    -22.7703E+06    -109.772E+06    -22.5963E+06     249.139E+03    -25.0698E-03     50.1131E-03    -25.0432E-03     5.16432E-03    -24.9918E-03     49.6302E-03    -24.9640E-03     5.16528E-03
            1869     16.6566E-03     31.5774E-03    -3.79765E+06     154.686E+06     74.5371E+06    -260.792E+03    -31.6748E-03     58.1060E-03    -26.4312E-03     152.834E-03    -35.1132E-03     61.8639E-03    -26.2773E-03     154.429E-03
            1870     15.7811E-03     31.3632E-03    -5.29337E+06     123.857E+06     13.9249E+06     11.8190E+03    -34.1081E-03     60.2137E-03    -26.1056E-03     189.457E-03    -37.4466E-03     63.9327E-03    -26.2079E-03     189.978E-03
            1871     14.9057E-03     31.2127E-03    -6.12531E+06     65.1582E+06    -16.6463E+06     732.907E+03    -31.1057E-03     57.0671E-03    -25.9614E-03     128.906E-03    -32.1101E-03     58.3294E-03    -26.1303E-03     128.716E-03
            1872     14.0297E-03     31.1159E-03    -6.49250E+06     11.5196E+06    -8.58908E+06     1.36507E+06    -29.2417E-03     55.2385E-03    -25.9968E-03     90.4471E-03    -29.5952E-03     55.6348E-03    -26.0471E-03     90.2578E-03
            1873     13.1541E-03     31.0393E-03    -6.49664E+06    -23.1264E+06    -7.57814E+06     1.44519E+06    -28.8929E-03     54.8532E-03    -25.9604E-03     78.8363E-03    -29.0658E-03     54.9430E-03    -25.9553E-03     78.6772E-03
            1874     12.2784E-03     30.9644E-03    -6.59833E+06    -38.5511E+06    -3.07690E+06     1.37915E+06    -28.6866E-03     54.5885E-03    -25.9018E-03     72.7810E-03    -28.7783E-03     54.5288E-03    -25.8518E-03     72.6555E-03
            1875     11.4027E-03     30.8988E-03    -7.25592E+06    -49.3372E+06    -140.282E+03     1.64641E+06    -28.2652E-03     54.0875E-03    -25.8222E-03     64.4577E-03    -28.3049E-03     53.9266E-03    -25.7409E-03     64.3664E-03
            1876     10.5267E-03     30.8395E-03    -8.26065E+06    -61.1424E+06    -654.931E+03     1.56792E+06    -27.9149E-03     53.6390E-03    -25.7241E-03     58.5546E-03    -27.9167E-03     53.3964E-03    -25.6268E-03     58.4858E-03
            1877     9.65062E-03     30.7850E-03    -9.32716E+06    -69.2582E+06     688.409E+03     905.680E+03    -27.5651E-03     53.1933E-03    -25.6282E-03     53.4709E-03    -27.5463E-03     52.8935E-03    -25.5108E-03     53.4127E-03
            1878     8.77429E-03     30.7353E-03    -10.7097E+06    -74.4479E+06     1.38071E+06     746.840E+03    -27.1858E-03     52.7115E-03    -25.5257E-03     48.3110E-03    -27.1563E-03     52.3756E-03    -25.3953E-03     48.2664E-03
            1879     7.89777E-03     30.6905E-03    -12.3090E+06    -79.4005E+06     624.514E+03     945.452E+03    -26.8095E-03     52.2283E-03    -25.4187E-03     43.2413E-03    -26.7721E-03     51.8635E-03    -25.2826E-03     43.2117E-03
            1880     7.02098E-03     30.6503E-03    -13.8838E+06    -86.3375E+06    -938.127E+03     899.753E+03    -26.4421E-03     51.7579E-03    -25.3157E-03     38.1788E-03    -26.3951E-03     51.3577E-03    -25.1751E-03     38.1584E-03
            1881     6.14400E-03     30.6152E-03    -15.6147E+06    -91.4240E+06    -3.95336E+06     856.957E+03    -26.0911E-03     51.3014E-03    -25.2103E-03     33.1885E-03    -26.0374E-03     50.8792E-03    -25.0749E-03     33.1754E-03
            1882     5.26675E-03     30.5848E-03    -17.4774E+06    -95.6528E+06    -8.13440E+06     775.464E+03    -25.7669E-03     50.8744E-03    -25.1075E-03     28.2620E-03    -25.7079E-03     50.4374E-03    -24.9841E-03     28.2540E-03
            1883     4.38932E-03     30.5592E-03    -18.9511E+06    -101.542E+06    -11.7564E+06     603.882E+03    -25.4868E-03     50.5071E-03    -25.0203E-03     23.3763E-03    -25.4198E-03     50.0464E-03    -24.9043E-03     23.3708E-03
            1884     3.51170E-03     30.5384E-03    -19.8810E+06    -104.968E+06    -14.4076E+06     398.496E+03    -25.2454E-03     50.1911E-03    -24.9457E-03     18.5956E-03    -25.1731E-03     49.7174E-03    -24.8367E-03     18.5911E-03
            1885     2.63391E-03     30.5222E-03    -20.9213E+06    -106.976E+06    -17.7681E+06     380.279E+03    -25.0461E-03     49.9263E-03    -24.8803E-03     13.9146E-03    -24.9705E-03     49.4483E-03    -24.7837E-03     13.9129E-03
            1886     1.75601E-03     30.5106E-03    -22.0436E+06    -108.578E+06    -20.7761E+06     445.043E+03    -24.9046E-03     49.7372E-03    -24.8326E-03     9.34564E-03    -24.8276E-03     49.2568E-03    -24.7471E-03     9.34716E-03
            1887     878.005E-06     30.5036E-03    -22.6354E+06    -109.280E+06    -22.1884E+06     296.642E+03    -24.8303E-03     49.6316E-03    -24.8014E-03     5.07296E-03    -24.7528E-03     49.1505E-03    -24.7210E-03     5.07456E-03
            1888     16.6569E-03     30.5770E-03    -5.24543E+06     155.010E+06     68.8157E+06    -687.547E+03    -31.8907E-03     58.2809E-03    -26.3901E-03     152.913E-03    -35.3291E-03     62.0514E-03    -26.2632E-03     154.482E-03
            1889     15.7811E-03     30.3618E-03    -8.22633E+06     122.801E+06     6.94409E+06    -592.042E+03    -34.3424E-03     60.3922E-03    -26.0497E-03     189.410E-03    -37.6845E-03     64.1209E-03    -26.1812E-03     189.911E-03
            1890     14.9059E-03     30.2121E-03    -7.68297E+06     63.9477E+06    -18.2018E+06     551.583E+03    -31.2923E-03     57.2085E-03    -25.9163E-03     128.570E-03    -32.2961E-03     58.4649E-03    -26.0889E-03     128.374E-03
            1891     14.0305E-03     30.1158E-03    -6.80287E+06     11.1918E+06    -9.01144E+06     1.40532E+06    -29.4295E-03     55.3685E-03    -25.9390E-03     90.2876E-03    -29.7832E-03     55.7639E-03    -25.9904E-03     90.0970E-03
            1892     13.1549E-03     30.0390E-03    -6.92024E+06    -22.6967E+06    -7.62020E+06     1.45945E+06    -29.1095E-03     54.9949E-03    -25.8855E-03     78.5198E-03    -29.2846E-03     55.0870E-03    -25.8806E-03     78.3594E-03
            1893     12.2796E-03     29.9644E-03    -7.30409E+06    -38.5638E+06    -3.38225E+06     1.43985E+06    -28.8474E-03     54.6539E-03    -25.8066E-03     72.2474E-03    -28.9412E-03     54.5947E-03    -25.7570E-03     72.1224E-03
            1894     11.4039E-03     29.8991E-03    -7.63219E+06    -49.6026E+06    -323.042E+03     1.67674E+06    -28.3802E-03     54.0882E-03    -25.7080E-03     63.8684E-03    -28.4202E-03     53.9259E-03    -25.6266E-03     63.7778E-03
            1895     10.5281E-03     29.8403E-03    -7.85211E+06    -60.3602E+06    -376.061E+03     1.61123E+06    -28.0033E-03     53.5932E-03    -25.5899E-03     57.9500E-03    -28.0039E-03     53.3528E-03    -25.4929E-03     57.8822E-03
            1896     9.65209E-03     29.7860E-03    -8.76468E+06     -68.781E+06     1.14753E+06     1.45162E+06    -27.6124E-03     53.0877E-03    -25.4752E-03     52.8083E-03    -27.5916E-03     52.7882E-03    -25.3571E-03     52.7576E-03
            1897     8.77582E-03     29.7368E-03    -10.4190E+06    -74.2474E+06     1.64193E+06     1.31571E+06    -27.1921E-03     52.5450E-03    -25.3529E-03     47.6415E-03    -27.1614E-03     52.2090E-03    -25.2219E-03     47.6047E-03
            1898     7.89928E-03     29.6923E-03    -11.9839E+06    -79.1843E+06     776.962E+03     1.01917E+06    -26.7674E-03     51.9939E-03    -25.2265E-03     42.5792E-03    -26.7286E-03     51.6292E-03    -25.0904E-03     42.5510E-03
            1899     7.02249E-03     29.6527E-03    -13.5428E+06    -86.1856E+06    -855.769E+03     986.375E+03    -26.3523E-03     51.4582E-03    -25.1059E-03     37.5521E-03    -26.3036E-03     51.0580E-03    -24.9655E-03     37.5334E-03
            1900     6.14536E-03     29.6179E-03    -15.3000E+06    -91.3276E+06    -4.13079E+06     1.09471E+06    -25.9588E-03     50.9427E-03    -24.9839E-03     32.6059E-03    -25.9032E-03     50.5206E-03    -24.8499E-03     32.5963E-03
            1901     5.26802E-03     29.5879E-03    -17.0484E+06    -95.2320E+06    -7.84953E+06     1.05844E+06    -25.5975E-03     50.4667E-03    -24.8692E-03     27.7339E-03    -25.5372E-03     50.0306E-03    -24.7457E-03     27.7299E-03
            1902     4.39041E-03     29.5627E-03    -18.7063E+06    -100.794E+06    -11.6258E+06     493.886E+03    -25.2830E-03     50.0525E-03    -24.7695E-03     22.9331E-03    -25.2159E-03     49.5949E-03    -24.6544E-03     22.9265E-03
            1903     3.51261E-03     29.5421E-03    -20.2149E+06    -104.934E+06    -15.0677E+06     152.966E+03    -25.0162E-03     49.6996E-03    -24.6834E-03     18.2365E-03    -24.9447E-03     49.2275E-03    -24.5772E-03     18.2291E-03
            1904     2.63462E-03     29.5262E-03    -21.4239E+06    -107.062E+06    -17.9389E+06     429.040E+03    -24.8028E-03     49.4143E-03    -24.6115E-03     13.6226E-03    -24.7294E-03     48.9368E-03    -24.5149E-03     13.6216E-03
            1905     1.75648E-03     29.5148E-03    -22.2102E+06    -108.058E+06    -20.3865E+06     396.695E+03    -24.6398E-03     49.1960E-03    -24.5562E-03     9.13893E-03    -24.5649E-03     48.7178E-03    -24.4693E-03     9.13992E-03
            1906     878.273E-06     29.5078E-03    -22.6556E+06    -108.859E+06    -22.1920E+06     62.8269E+03    -24.5346E-03     49.0662E-03    -24.5316E-03     4.96358E-03    -24.4579E-03     48.5872E-03    -24.4519E-03     4.96223E-03
            1907     16.6565E-03     29.5755E-03    -4.51356E+06     155.521E+06     70.1066E+06     267.632E+03    -32.1670E-03     58.5549E-03    -26.3879E-03     152.354E-03    -35.5950E-03     62.3157E-03    -26.2563E-03     153.907E-03
            1908     15.7819E-03     29.3606E-03    -7.79838E+06     122.735E+06     7.35703E+06     227.986E+03    -34.5171E-03     60.5481E-03    -26.0310E-03     189.186E-03    -37.8567E-03     64.2744E-03    -26.1609E-03     189.686E-03
            1909     14.9067E-03     29.2115E-03    -8.81923E+06     62.9301E+06    -19.8364E+06     77.4148E+03    -31.5438E-03     57.4199E-03    -25.8761E-03     128.224E-03    -32.5471E-03     58.6728E-03    -26.0537E-03     128.018E-03
            1910     14.0313E-03     29.1153E-03    -8.15405E+06     10.5720E+06    -10.0044E+06     762.513E+03    -29.8239E-03     55.7019E-03    -25.8780E-03     90.0814E-03    -30.1814E-03     56.0970E-03    -25.9316E-03     89.8783E-03
            1911     13.1563E-03     29.0386E-03    -7.65938E+06    -22.6859E+06    -7.99298E+06     1.47110E+06    -29.4266E-03     55.2236E-03    -25.7970E-03     78.0175E-03    -29.6036E-03     55.3162E-03    -25.7930E-03     77.8553E-03
            1912     12.2809E-03     28.9644E-03    -7.57288E+06    -38.4706E+06    -3.47064E+06     1.54529E+06    -29.0300E-03     54.7230E-03    -25.6930E-03     71.5196E-03    -29.1235E-03     54.6632E-03    -25.6436E-03     71.3959E-03
            1913     11.4055E-03     28.8996E-03    -7.80412E+06    -49.3886E+06    -705.802E+03     1.28227E+06    -28.5054E-03     54.0756E-03    -25.5702E-03     63.1345E-03    -28.5448E-03     53.9140E-03    -25.4907E-03     63.0392E-03
            1914     10.5298E-03     28.8410E-03    -8.22776E+06    -60.3310E+06    -816.430E+03     1.33857E+06    -28.0831E-03     53.5136E-03    -25.4305E-03     57.1905E-03    -28.0842E-03     53.2737E-03    -25.3352E-03     57.1196E-03
            1915     9.65381E-03     28.7873E-03    -8.88689E+06    -68.7647E+06     1.14112E+06     1.75824E+06    -27.6467E-03     52.9429E-03    -25.2961E-03     52.0322E-03    -27.6259E-03     52.6430E-03    -25.1778E-03     51.9860E-03
            1916     8.77758E-03     28.7384E-03    -9.86067E+06    -73.4958E+06     1.99796E+06     1.61583E+06    -27.1712E-03     52.3242E-03    -25.1530E-03     46.8749E-03    -27.1388E-03     51.9901E-03    -25.0221E-03     46.8426E-03
            1917     7.90103E-03     28.6945E-03    -11.2745E+06    -78.8014E+06     1.01592E+06     1.22508E+06    -26.6944E-03     51.7021E-03    -25.0077E-03     41.8503E-03    -26.6526E-03     51.3375E-03    -24.8720E-03     41.8255E-03
            1918     7.02411E-03     28.6553E-03    -13.0121E+06    -86.1858E+06    -610.215E+03     1.21708E+06    -26.2408E-03     51.1114E-03    -24.8706E-03     36.8598E-03    -26.1895E-03     50.7098E-03    -24.7298E-03     36.8446E-03
            1919     6.14695E-03     28.6211E-03    -14.7203E+06    -91.1322E+06    -3.88513E+06     1.27719E+06    -25.8054E-03     50.5376E-03    -24.7322E-03     31.9655E-03    -25.7473E-03     50.1150E-03    -24.5981E-03     31.9587E-03
            1920     5.26942E-03     28.5914E-03    -16.1624E+06    -94.7097E+06    -7.60920E+06     1.07450E+06    -25.4044E-03     50.0068E-03    -24.6024E-03     27.1612E-03    -25.3406E-03     49.5715E-03    -24.4797E-03     27.1578E-03
            1921     4.39164E-03     28.5666E-03    -17.6858E+06    -100.117E+06    -11.0211E+06     940.179E+03    -25.0569E-03     49.5490E-03    -24.4921E-03     22.4204E-03    -24.9865E-03     49.0924E-03    -24.3764E-03     22.4198E-03
            1922     3.51361E-03     28.5464E-03    -19.7146E+06    -104.683E+06    -14.5074E+06     735.004E+03    -24.7637E-03     49.1605E-03    -24.3968E-03     17.8105E-03    -24.6908E-03     48.6880E-03    -24.2890E-03     17.8109E-03
            1923     2.63540E-03     28.5307E-03    -21.4317E+06    -106.833E+06    -17.7983E+06     281.157E+03    -24.5302E-03     48.8443E-03    -24.3141E-03     13.3091E-03    -24.4573E-03     48.3677E-03    -24.2171E-03     13.3065E-03
            1924     1.75706E-03     28.5195E-03    -22.3354E+06    -107.731E+06    -20.6224E+06     70.9026E+03    -24.3525E-03     48.5992E-03    -24.2466E-03     8.91816E-03    -24.2784E-03     48.1231E-03    -24.1612E-03     8.91507E-03
            1925     878.543E-06     28.5127E-03    -22.8094E+06    -108.636E+06    -22.5377E+06     131.052E+03    -24.2306E-03     48.4358E-03    -24.2052E-03     4.85680E-03    -24.1545E-03     47.9585E-03    -24.1273E-03     4.85642E-03
            1926     16.6576E-03     28.5745E-03    -5.17386E+06     155.177E+06     71.6582E+06     521.100E+03    -32.3549E-03     58.7511E-03    -26.3962E-03     152.152E-03    -35.7862E-03     62.5071E-03    -26.2554E-03     153.701E-03
            1927     15.7816E-03     28.3590E-03    -7.48729E+06     123.257E+06     10.1430E+06     788.107E+03    -34.8398E-03     60.8680E-03    -26.0282E-03     189.162E-03    -38.1826E-03     64.5924E-03    -26.1454E-03     189.660E-03
            1928     14.9068E-03     28.2105E-03    -7.74353E+06     63.1210E+06    -19.0916E+06     753.166E+03    -32.1465E-03     57.9798E-03    -25.8333E-03     127.549E-03    -33.1386E-03     59.2239E-03    -26.0091E-03     127.336E-03
            1929     14.0322E-03     28.1142E-03    -7.98960E+06     9.56795E+06    -10.7102E+06     721.441E+03    -30.3085E-03     56.1009E-03    -25.7923E-03     88.9852E-03    -30.6580E-03     56.4870E-03    -25.8482E-03     88.7768E-03
            1930     13.1575E-03     28.0378E-03    -7.73532E+06    -23.1280E+06    -8.36574E+06     1.08472E+06    -29.6557E-03     55.3364E-03    -25.6807E-03     77.0117E-03    -29.8294E-03     55.4249E-03    -25.6778E-03     76.8438E-03
            1931     12.2827E-03     27.9644E-03    -7.41433E+06    -38.0588E+06    -3.42091E+06     1.27628E+06    -29.1967E-03     54.7490E-03    -25.5523E-03     70.5609E-03    -29.2884E-03     54.6892E-03    -25.5035E-03     70.4338E-03
            1932     11.4073E-03     27.8998E-03    -7.74640E+06    -49.1202E+06    -878.798E+03     1.23185E+06    -28.6061E-03     54.0114E-03    -25.4053E-03     62.2731E-03    -28.6441E-03     53.8501E-03    -25.3273E-03     62.1777E-03
            1933     10.5317E-03     27.8420E-03    -8.49974E+06    -60.5838E+06    -1.16555E+06     1.41999E+06    -28.1275E-03     53.3718E-03    -25.2443E-03     56.3599E-03    -28.1282E-03     53.1306E-03    -25.1499E-03     56.2909E-03
            1934     9.65585E-03     27.7886E-03    -9.17288E+06    -68.6541E+06     638.677E+03     1.42079E+06    -27.6389E-03     52.7269E-03    -25.0879E-03     51.2295E-03    -27.6182E-03     52.4280E-03    -24.9719E-03     51.1799E-03
            1935     8.77959E-03     27.7404E-03    -9.87072E+06    -73.2133E+06     1.65899E+06     1.49193E+06    -27.1152E-03     52.0407E-03    -24.9256E-03     46.0778E-03    -27.0821E-03     51.7079E-03    -24.7968E-03     46.0448E-03
            1936     7.90294E-03     27.6969E-03    -11.2439E+06    -78.4238E+06     1.01847E+06     1.64285E+06    -26.5980E-03     51.3611E-03    -24.7632E-03     41.0714E-03    -26.5561E-03     50.9980E-03    -24.6281E-03     41.0527E-03
            1937     7.02600E-03     27.6584E-03    -13.0574E+06    -85.9699E+06    -590.467E+03     1.50914E+06    -26.0999E-03     50.7089E-03    -24.6089E-03     36.1109E-03    -26.0489E-03     50.3080E-03    -24.4683E-03     36.1001E-03
            1938     6.14863E-03     27.6246E-03    -14.7616E+06    -90.7199E+06    -3.83206E+06     1.31081E+06    -25.6223E-03     50.0766E-03    -24.4542E-03     31.2817E-03    -25.5650E-03     49.6558E-03    -24.3204E-03     31.2760E-03
            1939     5.27098E-03     27.5955E-03    -16.4266E+06    -94.2968E+06    -7.79622E+06     1.18025E+06    -25.1842E-03     49.4933E-03    -24.3091E-03     26.5501E-03    -25.1220E-03     49.0607E-03    -24.1875E-03     26.5486E-03
            1940     4.39299E-03     27.5710E-03    -18.0580E+06    -99.9485E+06    -11.1106E+06     1.24885E+06    -24.8058E-03     48.9925E-03    -24.1867E-03     21.8932E-03    -24.7373E-03     48.5373E-03    -24.0711E-03     21.8970E-03
            1941     3.51476E-03     27.5512E-03    -19.3213E+06    -103.874E+06    -13.9857E+06     1.10780E+06    -24.4840E-03     48.5650E-03    -24.0810E-03     17.3723E-03    -24.4110E-03     48.0952E-03    -23.9723E-03     17.3778E-03
            1942     2.63627E-03     27.5358E-03    -20.6041E+06    -106.069E+06    -17.6137E+06     555.773E+03    -24.2212E-03     48.2097E-03    -23.9884E-03     12.9723E-03    -24.1455E-03     47.7354E-03    -23.8928E-03     12.9734E-03
            1943     1.75760E-03     27.5249E-03    -21.8640E+06    -107.658E+06    -20.6858E+06     149.806E+03    -24.0340E-03     47.9504E-03    -23.9164E-03     8.69067E-03    -23.9575E-03     47.4741E-03    -23.8320E-03     8.68876E-03
            1944     878.875E-06     27.5181E-03    -22.5051E+06    -108.444E+06    -22.1597E+06     200.816E+03    -23.9087E-03     47.7742E-03    -23.8656E-03     4.71508E-03    -23.8318E-03     47.2970E-03    -23.7865E-03     4.71566E-03
            1945     16.6560E-03     27.5717E-03    -4.71546E+06     154.770E+06     71.3008E+06     746.755E+03    -32.9446E-03     59.3337E-03    -26.3891E-03     151.748E-03    -36.3617E-03     63.0767E-03    -26.2502E-03     153.246E-03
            1946     15.7821E-03     27.3582E-03     -6.9757E+06     123.342E+06     10.3374E+06     998.965E+03    -35.7672E-03     61.7412E-03    -25.9739E-03     187.149E-03    -39.0730E-03     65.4300E-03    -26.0910E-03     187.581E-03
            1947     14.9082E-03     27.2077E-03    -7.69460E+06     63.3067E+06    -18.9446E+06     1.28874E+06    -32.4947E-03     58.2260E-03    -25.7313E-03     125.667E-03    -33.4678E-03     59.4515E-03    -25.9067E-03     125.452E-03
            1948     14.0347E-03     27.1134E-03    -7.54916E+06     9.88821E+06    -10.7004E+06     1.02257E+06    -30.4526E-03     56.1147E-03    -25.6621E-03     87.6519E-03    -30.7942E-03     56.4957E-03    -25.7190E-03     87.4474E-03
            1949     13.1598E-03     27.0372E-03    -7.09836E+06    -23.3181E+06    -8.36446E+06     761.684E+03    -29.7773E-03     55.3078E-03    -25.5305E-03     76.0921E-03    -29.9453E-03     55.3922E-03    -25.5283E-03     75.9202E-03
            1950     12.2848E-03     26.9642E-03    -7.18236E+06     -38.139E+06    -3.57571E+06     1.09337E+06    -29.2608E-03     54.6430E-03    -25.3822E-03     69.6377E-03    -29.3493E-03     54.5810E-03    -25.3344E-03     69.5089E-03
            1951     11.4095E-03     26.9004E-03    -7.66855E+06    -49.0312E+06    -1.01204E+06     1.42035E+06    -28.6512E-03     53.8671E-03    -25.2159E-03     61.4371E-03    -28.6874E-03     53.7050E-03    -25.1388E-03     61.3450E-03
            1952     10.5340E-03     26.8429E-03    -8.15348E+06    -60.5527E+06    -1.41719E+06     1.42688E+06    -28.1352E-03     53.1693E-03    -25.0342E-03     55.5787E-03    -28.1327E-03     52.9271E-03    -24.9416E-03     55.5108E-03
            1953     9.65804E-03     26.7902E-03    -8.89979E+06    -68.3784E+06     538.388E+03     1.42431E+06    -27.6070E-03     52.4657E-03    -24.8587E-03     50.4120E-03    -27.5844E-03     52.1672E-03    -24.7440E-03     50.3635E-03
            1954     8.78174E-03     26.7426E-03    -10.2136E+06    -73.3072E+06     1.33537E+06     1.47847E+06    -27.0447E-03     51.7216E-03    -24.6769E-03     45.2519E-03    -27.0121E-03     51.3887E-03    -24.5491E-03     45.2197E-03
            1955     7.90510E-03     26.6998E-03    -11.3953E+06    -78.3241E+06     880.466E+03     1.68930E+06    -26.4856E-03     50.9810E-03    -24.4954E-03     40.2535E-03    -26.4440E-03     50.6183E-03    -24.3609E-03     40.2362E-03
            1956     7.02798E-03     26.6618E-03    -12.7277E+06    -85.4660E+06    -298.119E+03     1.73073E+06    -25.9377E-03     50.2615E-03    -24.3239E-03     35.3220E-03    -25.8859E-03     49.8620E-03    -24.1830E-03     35.3149E-03
            1957     6.15052E-03     26.6287E-03    -14.5495E+06    -90.3426E+06    -3.62205E+06     1.58752E+06    -25.4157E-03     49.5686E-03    -24.1529E-03     30.5490E-03    -25.3578E-03     49.1489E-03    -24.0189E-03     30.5475E-03
            1958     5.27264E-03     26.6000E-03    -16.4675E+06    -93.9702E+06    -7.82102E+06     1.57636E+06    -24.9387E-03     48.9315E-03    -23.9927E-03     25.8956E-03    -24.8770E-03     48.5004E-03    -23.8717E-03     25.8998E-03
            1959     4.39444E-03     26.5761E-03    -18.0446E+06    -99.4038E+06    -11.3259E+06     1.27298E+06    -24.5279E-03     48.3845E-03    -23.8566E-03     21.3438E-03    -24.4596E-03     47.9321E-03    -23.7429E-03     21.3485E-03
            1960     3.51593E-03     26.5566E-03    -19.3172E+06    -103.260E+06    -14.2827E+06     925.502E+03    -24.1764E-03     47.9167E-03    -23.7403E-03     16.9260E-03    -24.1037E-03     47.4503E-03    -23.6340E-03     16.9295E-03
            1961     2.63719E-03     26.5416E-03    -20.3265E+06    -105.377E+06    -17.4409E+06     825.597E+03    -23.8901E-03     47.5325E-03    -23.6424E-03     12.6204E-03    -23.8143E-03     47.0610E-03    -23.5473E-03     12.6252E-03
            1962     1.75824E-03     26.5309E-03    -21.2283E+06    -107.172E+06    -20.0373E+06     557.411E+03    -23.6858E-03     47.2557E-03    -23.5699E-03     8.45399E-03    -23.6077E-03     46.7799E-03    -23.4839E-03     8.45751E-03
            1963     879.136E-06     26.5244E-03    -22.0269E+06    -108.107E+06    -21.5935E+06     162.732E+03    -23.5590E-03     47.0806E-03    -23.5216E-03     4.54827E-03    -23.4810E-03     46.6035E-03    -23.4409E-03     4.54843E-03
            1964     16.6570E-03     26.5680E-03    -4.56713E+06     153.818E+06     70.1236E+06     889.280E+03    -33.7434E-03     60.0931E-03    -26.3497E-03     152.151E-03    -37.1450E-03     63.8211E-03    -26.2155E-03     153.573E-03
            1965     15.7854E-03     26.3545E-03    -7.11071E+06     122.925E+06     9.85500E+06     1.70566E+06    -36.9754E-03     62.8570E-03    -25.8816E-03     186.641E-03    -40.2738E-03     66.5380E-03    -26.0003E-03     187.012E-03
            1966     14.9118E-03     26.2075E-03    -7.24719E+06     64.6853E+06    -17.9704E+06     1.39691E+06    -33.0120E-03     58.5960E-03    -25.5840E-03     124.001E-03    -33.9819E-03     59.8220E-03    -25.7571E-03     123.776E-03
            1967     14.0360E-03     26.1117E-03    -6.37160E+06     11.0248E+06    -10.1139E+06     825.540E+03    -30.1608E-03     55.6529E-03    -25.4920E-03     86.6589E-03    -30.4922E-03     56.0301E-03    -25.5493E-03     86.4572E-03
            1968     13.1620E-03     26.0369E-03    -6.36251E+06    -23.8144E+06    -8.47058E+06     954.824E+03    -29.6878E-03     55.0471E-03    -25.3593E-03     75.4799E-03    -29.8489E-03     55.1256E-03    -25.3579E-03     75.3125E-03
            1969     12.2871E-03     25.9642E-03    -6.81379E+06    -38.5404E+06    -3.80015E+06     1.42498E+06    -29.3050E-03     54.5038E-03    -25.1988E-03     69.0268E-03    -29.3889E-03     54.4377E-03    -25.1520E-03     68.9033E-03
            1970     11.4119E-03     25.9011E-03    -7.31732E+06    -48.8944E+06    -1.05791E+06     1.51931E+06    -28.6887E-03     53.7027E-03    -25.0140E-03     60.7736E-03    -28.7219E-03     53.5395E-03    -24.9378E-03     60.6838E-03
            1971     10.5363E-03     25.8441E-03    -8.04226E+06    -60.4140E+06    -1.60285E+06     1.55094E+06    -28.1616E-03     52.9725E-03    -24.8109E-03     54.8439E-03    -28.1574E-03     52.7300E-03    -24.7197E-03     54.7786E-03
            1972     9.66045E-03     25.7921E-03    -9.04772E+06    -68.3173E+06     275.577E+03     1.71560E+06    -27.5835E-03     52.1970E-03    -24.6134E-03     49.5816E-03    -27.5604E-03     51.8984E-03    -24.4999E-03     49.5380E-03
            1973     8.78413E-03     25.7451E-03    -10.2154E+06    -73.0494E+06     1.22460E+06     1.72689E+06    -26.9721E-03     51.3824E-03    -24.4103E-03     44.4113E-03    -26.9391E-03     51.0502E-03    -24.2835E-03     44.3834E-03
            1974     7.90735E-03     25.7030E-03    -11.6229E+06    -78.1574E+06     383.051E+03     1.51752E+06    -26.3578E-03     50.5648E-03    -24.2069E-03     39.4070E-03    -26.3163E-03     50.2034E-03    -24.0748E-03     39.3886E-03
            1975     7.03017E-03     25.6657E-03    -12.9379E+06    -85.3301E+06    -697.056E+03     1.62535E+06    -25.7593E-03     49.7765E-03    -24.0172E-03     34.5137E-03    -25.7077E-03     49.3781E-03    -23.8782E-03     34.5062E-03
            1976     6.15250E-03     25.6332E-03    -14.4313E+06    -90.1463E+06    -3.59623E+06     1.97399E+06    -25.1936E-03     49.0247E-03    -23.8310E-03     29.7886E-03    -25.1353E-03     48.6055E-03    -23.6974E-03     29.7929E-03
            1977     5.27444E-03     25.6052E-03    -16.0115E+06    -93.2979E+06    -7.76613E+06     1.81369E+06    -24.6763E-03     48.3313E-03    -23.6551E-03     25.2145E-03    -24.6131E-03     47.9027E-03    -23.5354E-03     25.2224E-03
            1978     4.39598E-03     25.5817E-03    -17.4436E+06    -98.6226E+06    -11.2870E+06     1.41723E+06    -24.2277E-03     47.7340E-03    -23.5064E-03     20.7505E-03    -24.1575E-03     47.2846E-03    -23.3945E-03     20.7575E-03
            1979     3.51721E-03     25.5628E-03    -18.9166E+06    -102.699E+06    -14.4256E+06     1.10525E+06    -23.8479E-03     47.2283E-03    -23.3804E-03     16.4329E-03    -23.7737E-03     46.7643E-03    -23.2762E-03     16.4391E-03
            1980     2.63814E-03     25.5480E-03    -20.2225E+06    -104.923E+06    -17.4449E+06     859.998E+03    -23.5421E-03     46.8186E-03    -23.2764E-03     12.2349E-03    -23.4664E-03     46.3491E-03    -23.1822E-03     12.2404E-03
            1981     1.75888E-03     25.5376E-03    -21.0414E+06    -106.471E+06    -19.7793E+06     740.742E+03    -23.3162E-03     46.5174E-03    -23.2012E-03     8.19831E-03    -23.2386E-03     46.0445E-03    -23.1152E-03     8.20438E-03
            1982     879.493E-06     25.5312E-03    -21.5969E+06    -107.351E+06    -21.4309E+06     404.100E+03    -23.1836E-03     46.3424E-03    -23.1588E-03     4.40538E-03    -23.1048E-03     45.8682E-03    -23.0790E-03     4.40876E-03
            1983     16.6585E-03     25.5680E-03    -5.44915E+06     152.564E+06     70.7726E+06     1.29255E+06    -35.2979E-03     61.5446E-03    -26.2467E-03     149.466E-03    -38.6614E-03     65.2252E-03    -26.1061E-03     150.792E-03
            1984     15.7834E-03     25.3474E-03    -7.63813E+06     123.589E+06     12.7063E+06     877.415E+03    -36.7069E-03     62.4446E-03    -25.7378E-03     183.864E-03    -39.9817E-03     66.0942E-03    -25.8424E-03     184.216E-03
            1985     14.9136E-03     25.2048E-03    -6.69512E+06     65.7971E+06    -16.2450E+06     322.325E+03    -32.4738E-03     57.9092E-03    -25.4355E-03     121.564E-03    -33.4203E-03     59.1127E-03    -25.6024E-03     121.333E-03
            1986     14.0404E-03     25.1127E-03    -6.04196E+06     10.5552E+06    -10.4899E+06     1.07830E+06    -30.1101E-03     55.4498E-03    -25.3397E-03     87.4716E-03    -30.4386E-03     55.8248E-03    -25.3987E-03     87.2743E-03
            1987     13.1640E-03     25.0361E-03    -6.32322E+06    -24.0966E+06    -8.69463E+06     1.74405E+06    -29.7831E-03     54.9810E-03    -25.1979E-03     75.6555E-03    -29.9419E-03     55.0570E-03    -25.1972E-03     75.4984E-03
            1988     12.2893E-03     24.9645E-03    -6.78510E+06    -38.4391E+06    -3.92145E+06     1.71359E+06    -29.3989E-03     54.4179E-03    -25.0190E-03     68.5076E-03    -29.4805E-03     54.3503E-03    -24.9730E-03     68.3888E-03
            1989     11.4141E-03     24.9018E-03    -7.32951E+06    -48.8680E+06    -1.13422E+06     1.65608E+06    -28.8113E-03     53.6224E-03    -24.8111E-03     60.1514E-03    -28.8432E-03     53.4582E-03    -24.7353E-03     60.0641E-03
            1990     10.5388E-03     24.8455E-03    -7.97184E+06    -60.2870E+06    -1.59477E+06     1.82285E+06    -28.2253E-03     52.8073E-03    -24.5820E-03     54.0453E-03    -28.2197E-03     52.5641E-03    -24.4910E-03     53.9846E-03
            1991     9.66289E-03     24.7943E-03    -8.71972E+06    -68.3006E+06     101.758E+03     1.91474E+06    -27.5820E-03     51.9400E-03    -24.3580E-03     48.7477E-03    -27.5561E-03     51.6404E-03    -24.2458E-03     48.7078E-03
            1992     8.78657E-03     24.7480E-03    -9.81735E+06    -72.6218E+06     1.19698E+06     1.92304E+06    -26.9081E-03     51.0392E-03    -24.1310E-03     43.5305E-03    -26.8729E-03     50.7078E-03    -24.0055E-03     43.5063E-03
            1993     7.90977E-03     24.7067E-03    -11.1396E+06    -77.6186E+06     475.008E+03     1.70576E+06    -26.2281E-03     50.1341E-03    -23.9060E-03     38.5173E-03    -26.1845E-03     49.7741E-03    -23.7749E-03     38.5025E-03
            1994     7.03240E-03     24.6701E-03    -12.8707E+06    -85.5619E+06    -1.06790E+06     1.74308E+06    -25.5778E-03     49.2736E-03    -23.6958E-03     33.6527E-03    -25.5246E-03     48.8741E-03    -23.5584E-03     33.6477E-03
            1995     6.15459E-03     24.6383E-03    -14.5078E+06    -89.9469E+06    -4.02447E+06     1.96840E+06    -24.9630E-03     48.4539E-03    -23.4909E-03     28.9859E-03    -24.9043E-03     48.0361E-03    -23.3596E-03     28.9910E-03
            1996     5.27630E-03     24.6109E-03    -15.8978E+06    -92.5398E+06    -7.75535E+06     1.91694E+06    -24.4017E-03     47.7017E-03    -23.3001E-03     24.4851E-03    -24.3388E-03     47.2765E-03    -23.1816E-03     24.4950E-03
            1997     4.39760E-03     24.5881E-03    -17.3560E+06    -97.8980E+06    -11.1451E+06     1.64464E+06    -23.9148E-03     47.0532E-03    -23.1384E-03     20.1124E-03    -23.8453E-03     46.6069E-03    -23.0270E-03     20.1229E-03
            1998     3.51853E-03     24.5695E-03    -18.6484E+06    -102.029E+06    -14.2751E+06     1.35808E+06    -23.5044E-03     46.5056E-03    -23.0012E-03     15.8987E-03    -23.4300E-03     46.0442E-03    -22.8976E-03     15.9085E-03
            1999     2.63918E-03     24.5553E-03    -19.7574E+06    -104.317E+06    -17.4326E+06     1.13226E+06    -23.1758E-03     46.0634E-03    -22.8876E-03     11.8172E-03    -23.0986E-03     45.5963E-03    -22.7949E-03     11.8266E-03
            2000     1.75959E-03     24.5451E-03    -20.7206E+06    -105.762E+06    -19.7264E+06     851.985E+03    -22.9318E-03     45.7383E-03    -22.8065E-03     7.90271E-03    -22.8537E-03     45.2684E-03    -22.7217E-03     7.91040E-03
            2001     879.791E-06     24.5389E-03    -21.2362E+06    -106.298E+06    -20.8929E+06     584.408E+03    -22.7862E-03     45.5502E-03    -22.7639E-03     4.27962E-03    -22.7080E-03     45.0800E-03    -22.6835E-03     4.28545E-03
            2002     16.6641E-03     24.5650E-03    -5.64866E+06     153.399E+06     73.0077E+06     939.550E+03    -36.8825E-03     63.0580E-03    -26.1754E-03     149.756E-03    -40.2951E-03     66.7836E-03    -26.0246E-03     151.027E-03
            2003     15.7947E-03     24.3456E-03    -4.58977E+06     126.182E+06     16.3922E+06     698.304E+03    -36.2094E-03     61.8476E-03    -25.6382E-03     185.808E-03    -39.5075E-03     65.5299E-03    -25.7325E-03     186.185E-03
            2004     14.9155E-03     24.2060E-03    -5.69983E+06     64.0129E+06    -16.9050E+06     897.711E+03    -31.8982E-03     57.2558E-03    -25.3576E-03     123.690E-03    -32.8181E-03     58.4316E-03    -25.5267E-03     123.479E-03
            2005     14.0385E-03     24.1108E-03    -6.51580E+06     9.85034E+06    -10.2278E+06     1.96553E+06    -30.9398E-03     56.1988E-03    -25.2590E-03     88.1456E-03    -31.2737E-03     56.5742E-03    -25.3150E-03     87.9499E-03
            2006     13.1663E-03     24.0360E-03    -6.86858E+06    -23.6621E+06    -8.52867E+06     2.03908E+06    -30.3255E-03     55.3904E-03    -25.0649E-03     75.2457E-03    -30.4859E-03     55.4672E-03    -25.0633E-03     75.0897E-03
            2007     12.2912E-03     23.9646E-03    -6.90096E+06    -38.1344E+06    -3.79352E+06     1.86449E+06    -29.6643E-03     54.5103E-03    -24.8461E-03     67.9416E-03    -29.7452E-03     54.4424E-03    -24.7997E-03     67.8248E-03
            2008     11.4166E-03     23.9024E-03    -7.31091E+06    -48.6749E+06    -1.04523E+06     1.80187E+06    -28.9899E-03     53.5960E-03    -24.6061E-03     59.3043E-03    -29.0204E-03     53.4308E-03    -24.5301E-03     59.2197E-03
            2009     10.5412E-03     23.8471E-03    -7.75718E+06    -60.2423E+06    -1.53836E+06     1.79404E+06    -28.2997E-03     52.6469E-03    -24.3472E-03     53.1124E-03    -28.2919E-03     52.4022E-03    -24.2563E-03     53.0526E-03
            2010     9.66543E-03     23.7965E-03    -8.30107E+06    -68.2150E+06     81.3656E+03     1.94076E+06    -27.5919E-03     51.6873E-03    -24.0953E-03     47.8041E-03    -27.5629E-03     51.3864E-03    -23.9840E-03     47.7659E-03
            2011     8.78913E-03     23.7512E-03    -9.00877E+06    -72.2073E+06     1.25361E+06     1.91237E+06    -26.8487E-03     50.6909E-03    -23.8421E-03     42.5489E-03    -26.8094E-03     50.3595E-03    -23.7181E-03     42.5259E-03
            2012     7.91220E-03     23.7107E-03    -10.2434E+06    -77.4628E+06     727.228E+03     2.07539E+06    -26.1078E-03     49.7024E-03    -23.5946E-03     37.5446E-03    -26.0597E-03     49.3408E-03    -23.4638E-03     37.5356E-03
            2013     7.03478E-03     23.6750E-03    -11.9797E+06    -85.4388E+06    -762.727E+03     2.33599E+06    -25.4030E-03     48.7657E-03    -23.3627E-03     32.7028E-03    -25.3456E-03     48.3646E-03    -23.2252E-03     32.7064E-03
            2014     6.15677E-03     23.6439E-03    -13.9563E+06    -89.4930E+06    -3.99500E+06     2.22395E+06    -24.7325E-03     47.8686E-03    -23.1361E-03     28.1028E-03    -24.6715E-03     47.4520E-03    -23.0061E-03     28.1120E-03
            2015     5.27827E-03     23.6173E-03    -15.6848E+06    -91.9890E+06    -7.79920E+06     2.04351E+06    -24.1208E-03     47.0482E-03    -22.9273E-03     23.6793E-03    -24.0575E-03     46.6252E-03    -22.8102E-03     23.6915E-03
            2016     4.39930E-03     23.5951E-03    -17.0719E+06    -97.1085E+06    -10.9559E+06     1.85832E+06    -23.5922E-03     46.3431E-03    -22.7509E-03     19.4096E-03    -23.5226E-03     45.8999E-03    -22.6401E-03     19.4234E-03
            2017     3.51996E-03     23.5771E-03    -18.4626E+06    -101.329E+06    -14.1126E+06     1.56301E+06    -23.1447E-03     45.7456E-03    -22.6009E-03     15.3161E-03    -23.0706E-03     45.2872E-03    -22.4978E-03     15.3290E-03
            2018     2.64025E-03     23.5632E-03    -19.6005E+06    -103.610E+06    -17.2610E+06     1.34303E+06    -22.7896E-03     45.2669E-03    -22.4773E-03     11.3736E-03    -22.7128E-03     44.8027E-03    -22.3849E-03     11.3860E-03
            2019     1.76031E-03     23.5534E-03    -20.2779E+06    -104.716E+06    -19.1962E+06     1.04335E+06    -22.5355E-03     44.9215E-03    -22.3860E-03     7.59133E-03    -22.4574E-03     44.4553E-03    -22.3007E-03     7.60168E-03
            2020     880.238E-06     23.5473E-03    -20.7998E+06    -105.276E+06    -20.3378E+06     456.557E+03    -22.3685E-03     44.6952E-03    -22.3267E-03     4.11539E-03    -22.2903E-03     44.2286E-03    -22.2455E-03     4.11968E-03
            2021     16.6579E-03     23.5501E-03    -4.39766E+06     152.210E+06     70.1333E+06    -637.862E+03    -35.8837E-03     62.1641E-03    -26.2804E-03     154.414E-03    -39.3366E-03     65.9385E-03    -26.1440E-03     155.707E-03
            2022     15.7839E-03     23.3463E-03    -5.59014E+06     122.803E+06     11.2331E+06     81.7955E+03    -37.8842E-03     63.6032E-03    -25.7190E-03     183.942E-03    -41.1269E-03     67.2295E-03    -25.8328E-03     184.212E-03
            2023     14.9119E-03     23.2027E-03    -5.94203E+06     63.6503E+06    -17.8546E+06     2.77003E+06    -33.6144E-03     58.9710E-03    -25.3566E-03     123.705E-03    -34.5369E-03     60.1501E-03    -25.5295E-03     123.487E-03
            2024     14.0425E-03     23.1090E-03    -6.87575E+06     10.8351E+06    -10.6987E+06     2.45297E+06    -31.8340E-03     57.0107E-03    -25.1768E-03     86.3493E-03    -32.1653E-03     57.3872E-03    -25.2360E-03     86.1516E-03
            2025     13.1672E-03     23.0351E-03    -6.69430E+06    -23.2412E+06    -8.62820E+06     1.82321E+06    -30.7682E-03     55.6994E-03    -24.9313E-03     74.1137E-03    -30.9247E-03     55.7748E-03    -24.9310E-03     73.9534E-03
            2026     12.2937E-03     22.9645E-03    -6.48647E+06    -38.0496E+06    -3.91360E+06     1.83858E+06    -30.0716E-03     54.7419E-03    -24.6703E-03     66.9783E-03    -30.1487E-03     54.6722E-03    -24.6253E-03     66.8603E-03
            2027     11.4189E-03     22.9032E-03    -6.73024E+06    -48.3162E+06    -1.06564E+06     1.93949E+06    -29.1647E-03     53.5572E-03    -24.3925E-03     58.2680E-03    -29.1908E-03     53.3910E-03    -24.3180E-03     58.1864E-03
            2028     10.5438E-03     22.8487E-03    -7.45360E+06    -60.1912E+06    -1.76967E+06     1.99679E+06    -28.3878E-03     52.4904E-03    -24.1027E-03     52.0735E-03    -28.3767E-03     52.2444E-03    -24.0135E-03     52.0176E-03
            2029     9.66807E-03     22.7991E-03    -8.21443E+06    -67.8459E+06    -486.878E+03     1.82518E+06    -27.6023E-03     51.4226E-03    -23.8203E-03     46.7167E-03    -27.5714E-03     51.1231E-03    -23.7124E-03     46.6785E-03
            2030     8.79171E-03     22.7547E-03    -9.12193E+06    -72.1772E+06     367.414E+03     1.90107E+06    -26.7849E-03     50.3244E-03    -23.5395E-03     41.4594E-03    -26.7440E-03     49.9938E-03    -23.4198E-03     41.4376E-03
            2031     7.91479E-03     22.7152E-03    -10.3834E+06    -77.8062E+06     97.9213E+03     2.46244E+06    -25.9933E-03     49.2616E-03    -23.2683E-03     36.4495E-03    -25.9439E-03     48.8988E-03    -23.1399E-03     36.4468E-03
            2032     7.03720E-03     22.6803E-03    -11.9998E+06    -85.0105E+06    -926.502E+03     2.81625E+06    -25.2245E-03     48.2375E-03    -23.0129E-03     31.6482E-03    -25.1671E-03     47.8384E-03    -22.8769E-03     31.6590E-03
            2033     6.15906E-03     22.6502E-03    -13.5749E+06    -88.7102E+06    -3.63135E+06     2.59228E+06    -24.4983E-03     47.2638E-03    -22.7654E-03     27.1169E-03    -24.4368E-03     46.8497E-03    -22.6353E-03     27.1317E-03
            2034     5.28034E-03     22.6243E-03    -15.0451E+06    -91.3891E+06    -7.68816E+06     2.27740E+06    -23.8327E-03     46.3680E-03    -22.5352E-03     22.7901E-03    -23.7670E-03     45.9467E-03    -22.4194E-03     22.8060E-03
            2035     4.40111E-03     22.6028E-03    -16.5682E+06    -96.5418E+06    -11.1645E+06     2.23794E+06    -23.2536E-03     45.5943E-03    -22.3407E-03     18.6415E-03    -23.1819E-03     45.1534E-03    -22.2325E-03     18.6607E-03
            2036     3.52143E-03     22.5854E-03    -18.2011E+06    -100.378E+06    -13.9398E+06     2.11706E+06    -22.7692E-03     44.9477E-03    -22.1785E-03     14.6819E-03    -22.6953E-03     44.4933E-03    -22.0763E-03     14.7024E-03
            2037     2.64141E-03     22.5720E-03    -19.8247E+06    -102.706E+06    -16.8789E+06     1.66404E+06    -22.3848E-03     44.4292E-03    -22.0445E-03     10.8818E-03    -22.3109E-03     43.9694E-03    -21.9512E-03     10.8986E-03
            2038     1.76111E-03     22.5624E-03    -21.0067E+06    -103.409E+06    -19.7814E+06     1.14611E+06    -22.1000E-03     44.0393E-03    -21.9393E-03     7.26302E-03    -22.0266E-03     43.5816E-03    -21.8578E-03     7.27490E-03
            2039     880.607E-06     22.5567E-03    -21.4214E+06    -104.192E+06    -21.3439E+06     438.809E+03    -21.9279E-03     43.7933E-03    -21.8654E-03     3.93547E-03    -21.8529E-03     43.3345E-03    -21.7899E-03     3.93962E-03
            2040     16.6516E-03     22.5364E-03    -559.741E+03     150.799E+06     72.7805E+06    -191.939E+03    -34.3666E-03     60.6545E-03    -26.2879E-03     148.881E-03    -37.5673E-03     64.1778E-03    -26.1419E-03     150.154E-03
            2041     15.7880E-03     22.3423E-03    -6.48966E+06     117.577E+06     10.1565E+06     1.13198E+06    -37.9065E-03     63.6359E-03    -25.7293E-03     175.842E-03    -40.9133E-03     67.0073E-03    -25.8396E-03     176.078E-03
            2042     14.9172E-03     22.1981E-03    -8.24747E+06     64.4633E+06    -18.7044E+06     2.50043E+06    -35.0804E-03     60.3720E-03    -25.2915E-03     120.099E-03    -36.0162E-03     61.5617E-03    -25.4666E-03     119.847E-03
            2043     14.0418E-03     22.1073E-03    -6.61634E+06     12.2786E+06    -11.0475E+06     2.02525E+06    -31.9696E-03     57.0166E-03    -25.0470E-03     84.2868E-03    -32.2903E-03     57.3895E-03    -25.1104E-03     84.0854E-03
            2044     13.1697E-03     22.0338E-03    -6.03114E+06    -23.0814E+06    -9.07377E+06     1.81515E+06    -31.0687E-03     55.8438E-03    -24.7752E-03     73.0512E-03    -31.2187E-03     55.9168E-03    -24.7783E-03     72.8901E-03
            2045     12.2957E-03     21.9640E-03    -6.23396E+06    -37.9376E+06    -4.44583E+06     1.84583E+06    -30.3402E-03     54.8207E-03    -24.4805E-03     65.5909E-03    -30.4126E-03     54.7492E-03    -24.4386E-03     65.4733E-03
            2046     11.4216E-03     21.9042E-03    -6.71242E+06    -48.5002E+06    -1.67924E+06     2.14169E+06    -29.3351E-03     53.5041E-03    -24.1690E-03     57.0652E-03    -29.3579E-03     53.3358E-03    -24.0974E-03     56.9873E-03
            2047     10.5464E-03     21.8504E-03    -7.24574E+06    -59.7951E+06    -2.11807E+06     2.26142E+06    -28.4883E-03     52.3356E-03    -23.8473E-03     50.9041E-03    -28.4748E-03     52.0903E-03    -23.7606E-03     50.8530E-03
            2048     9.67083E-03     21.8020E-03    -8.09948E+06    -67.4419E+06    -816.615E+03     2.19508E+06    -27.6226E-03     51.1567E-03    -23.5341E-03     45.4601E-03    -27.5901E-03     50.8584E-03    -23.4287E-03     45.4280E-03
            2049     8.79448E-03     21.7586E-03    -9.45958E+06    -72.2778E+06    -233.432E+03     2.27701E+06    -26.7332E-03     49.9570E-03    -23.2239E-03     40.2179E-03    -26.6921E-03     49.6265E-03    -23.1065E-03     40.2023E-03
            2050     7.91747E-03     21.7200E-03    -10.9111E+06    -78.2902E+06    -625.827E+03     2.79133E+06    -25.8716E-03     48.7966E-03    -22.9250E-03     35.2110E-03    -25.8225E-03     48.4326E-03    -22.7988E-03     35.2136E-03
            2051     7.03982E-03     21.6863E-03    -12.2715E+06    -84.2731E+06    -1.29154E+06     2.96304E+06    -25.0383E-03     47.6815E-03    -22.6432E-03     30.4722E-03    -24.9824E-03     47.2866E-03    -22.5096E-03     30.4860E-03
            2052     6.16147E-03     21.6570E-03    -13.5482E+06    -87.8238E+06    -3.79604E+06     2.50849E+06    -24.2486E-03     46.6207E-03    -22.3722E-03     26.0274E-03    -24.1876E-03     46.2110E-03    -22.2442E-03     26.0420E-03
            2053     5.28252E-03     21.6321E-03    -14.8529E+06    -91.1470E+06    -7.80252E+06     2.58866E+06    -23.5266E-03     45.6486E-03    -22.1220E-03     21.8038E-03    -23.4599E-03     45.2282E-03    -22.0073E-03     21.8244E-03
            2054     4.40300E-03     21.6113E-03    -16.3734E+06    -95.9223E+06    -11.3150E+06     2.85486E+06    -22.8986E-03     44.8072E-03    -21.9086E-03     17.7912E-03    -22.8265E-03     44.3693E-03    -21.8024E-03     17.8189E-03
            2055     3.52301E-03     21.5945E-03    -17.8205E+06    -99.2971E+06    -13.8352E+06     2.65046E+06    -22.3738E-03     44.1054E-03    -21.7316E-03     13.9858E-03    -22.2997E-03     43.6556E-03    -21.6310E-03     14.0136E-03
            2056     2.64262E-03     21.5816E-03    -19.0873E+06    -101.296E+06    -16.3889E+06     2.18324E+06    -21.9558E-03     43.5423E-03    -21.5865E-03     10.3489E-03    -21.8810E-03     43.0877E-03    -21.4939E-03     10.3728E-03
            2057     1.76193E-03     21.5725E-03    -20.2006E+06    -101.898E+06    -18.9320E+06     1.37861E+06    -21.6433E-03     43.1190E-03    -21.4757E-03     6.89321E-03    -21.5692E-03     42.6664E-03    -21.3933E-03     6.90828E-03
            2058     880.996E-06     21.5668E-03    -20.8681E+06    -102.901E+06    -20.8483E+06     777.165E+03    -21.4530E-03     42.8595E-03    -21.4065E-03     3.72284E-03    -21.3778E-03     42.4057E-03    -21.3313E-03     3.73146E-03
            2059     16.6720E-03     21.5477E-03    -3.40378E+06     150.220E+06     71.4584E+06     165.966E+03    -35.9091E-03     62.0251E-03    -26.1160E-03     148.136E-03    -39.0351E-03     65.4655E-03    -25.9716E-03     149.318E-03
            2060     15.7856E-03     21.3324E-03    -7.19132E+06     118.752E+06     11.5242E+06     2.36376E+06    -36.8054E-03     62.3752E-03    -25.5698E-03     179.377E-03    -39.8091E-03     65.7410E-03    -25.6740E-03     179.681E-03
            2061     14.9166E-03     21.1944E-03    -7.88947E+06     64.3205E+06    -18.5101E+06     1.47252E+06    -34.8665E-03     60.0296E-03    -25.1632E-03     117.208E-03    -35.7749E-03     61.1921E-03    -25.3376E-03     116.939E-03
            2062     14.0461E-03     21.1059E-03    -6.39663E+06     11.9873E+06    -11.7939E+06     1.51166E+06    -32.1311E-03     57.0322E-03    -24.9011E-03     83.2788E-03    -32.4427E-03     57.3979E-03    -24.9682E-03     83.0708E-03
            2063     13.1716E-03     21.0320E-03    -6.13751E+06    -22.8415E+06    -9.72354E+06     2.18970E+06    -31.3771E-03     55.9790E-03    -24.6019E-03     72.0839E-03    -31.5243E-03     56.0516E-03    -24.6085E-03     71.9270E-03
            2064     12.2985E-03     20.9639E-03    -6.56843E+06    -37.8375E+06    -4.90120E+06     2.18608E+06    -30.5135E-03     54.7902E-03    -24.2767E-03     64.1590E-03    -30.5838E-03     54.7171E-03    -24.2368E-03     64.0469E-03
            2065     11.4240E-03     20.9049E-03    -7.14207E+06    -48.6305E+06    -2.29107E+06     2.30268E+06    -29.5014E-03     53.4346E-03    -23.9331E-03     55.7094E-03    -29.5233E-03     53.2651E-03    -23.8637E-03     55.6346E-03
            2066     10.5493E-03     20.8524E-03    -7.78398E+06    -59.5412E+06    -2.51091E+06     2.49234E+06    -28.5859E-03     52.1644E-03    -23.5785E-03     49.5223E-03    -28.5732E-03     51.9201E-03    -23.4935E-03     49.4756E-03
            2067     9.67368E-03     20.8050E-03    -8.59841E+06    -67.0997E+06    -1.12664E+06     2.56216E+06    -27.6489E-03     50.8814E-03    -23.2325E-03     44.0621E-03    -27.6177E-03     50.5848E-03    -23.1284E-03     44.0362E-03
            2068     8.79743E-03     20.7628E-03    -9.59800E+06    -72.4222E+06    -459.311E+03     2.80095E+06    -26.6889E-03     49.5796E-03    -22.8907E-03     38.8084E-03    -26.6471E-03     49.2480E-03    -22.7741E-03     38.8009E-03
            2069     7.92036E-03     20.7254E-03    -10.8348E+06    -78.2034E+06    -1.17466E+06     3.00727E+06    -25.7403E-03     48.3000E-03    -22.5597E-03     33.8604E-03    -25.6894E-03     47.9364E-03    -22.4364E-03     33.8670E-03
            2070     7.04255E-03     20.6927E-03    -11.9619E+06    -83.4891E+06    -1.94857E+06     2.82674E+06    -24.8391E-03     47.0879E-03    -22.2488E-03     29.1864E-03    -24.7813E-03     46.6970E-03    -22.1202E-03     29.1994E-03
            2071     6.16403E-03     20.6645E-03    -13.3388E+06    -87.0472E+06    -4.07719E+06     2.65483E+06    -23.9828E-03     45.9379E-03    -21.9551E-03     24.8257E-03    -23.9213E-03     45.5318E-03    -21.8299E-03     24.8430E-03
            2072     5.28483E-03     20.6405E-03    -15.0780E+06    -91.4443E+06    -7.36856E+06     2.97858E+06    -23.2061E-03     44.8942E-03    -21.6881E-03     20.7133E-03    -23.1405E-03     44.4718E-03    -21.5705E-03     20.7396E-03
            2073     4.40501E-03     20.6206E-03    -16.6397E+06    -94.9914E+06    -11.0341E+06     3.34135E+06    -22.5242E-03     43.9762E-03    -21.4520E-03     16.8446E-03    -22.4550E-03     43.5427E-03    -21.3453E-03     16.8792E-03
            2074     3.52468E-03     20.6044E-03    -17.9314E+06    -98.0920E+06    -14.6012E+06     3.00096E+06    -21.9485E-03     43.2013E-03    -21.2528E-03     13.2095E-03    -21.8755E-03     42.7588E-03    -21.1576E-03     13.2423E-03
            2075     2.64389E-03     20.5921E-03    -18.8161E+06    -99.5298E+06    -17.3219E+06     2.42323E+06    -21.4920E-03     42.5867E-03    -21.0947E-03     9.75681E-03    -21.4170E-03     42.1419E-03    -21.0097E-03     9.78406E-03
            2076     1.76278E-03     20.5833E-03    -19.1872E+06    -100.046E+06    -18.3704E+06     1.41487E+06    -21.1665E-03     42.1489E-03    -20.9825E-03     6.49140E-03    -21.0908E-03     41.7033E-03    -20.9014E-03     6.50714E-03
            2077     881.488E-06     20.5781E-03    -19.4035E+06    -101.583E+06    -18.8543E+06     904.520E+03    -20.9595E-03     41.8762E-03    -20.9167E-03     3.49259E-03    -20.8818E-03     41.4239E-03    -20.8356E-03     3.50297E-03
            2078     16.6563E-03     20.5466E-03    -8.01075E+06     149.716E+06     68.0014E+06     52.1853E+03    -38.6354E-03     64.8358E-03    -26.2004E-03     151.937E-03    -41.9804E-03     68.4871E-03    -26.0658E-03     152.984E-03
            2079     15.7940E-03     20.3278E-03    -8.89097E+06     120.475E+06     11.7636E+06     990.813E+03    -40.1452E-03     65.6630E-03    -25.5178E-03     181.805E-03    -43.2989E-03     69.1788E-03    -25.6208E-03     181.925E-03
            2080     14.9202E-03     20.1914E-03    -6.52958E+06     63.7070E+06    -17.7866E+06     1.21416E+06    -34.4808E-03     59.5108E-03    -25.0301E-03     115.068E-03    -35.3306E-03     60.6153E-03    -25.2019E-03     114.801E-03
            2081     14.0456E-03     20.1033E-03    -6.67122E+06     11.0085E+06    -12.1095E+06     2.06087E+06    -32.4744E-03     57.2279E-03    -24.7535E-03     82.1864E-03    -32.7834E-03     57.5874E-03    -24.8204E-03     81.9814E-03
            2082     13.1745E-03     20.0305E-03    -7.15355E+06    -22.5853E+06    -9.89122E+06     2.15230E+06    -31.6809E-03     56.1008E-03    -24.4199E-03     70.7454E-03    -31.8289E-03     56.1719E-03    -24.4262E-03     70.5876E-03
            2083     12.3008E-03     19.9635E-03    -6.92295E+06    -37.8215E+06    -4.88377E+06     2.40445E+06    -30.7082E-03     54.7691E-03    -24.0609E-03     62.6902E-03    -30.7773E-03     54.6936E-03    -24.0205E-03     62.5817E-03
            2084     11.4271E-03     19.9058E-03    -7.33781E+06    -48.3839E+06    -2.11831E+06     2.53019E+06    -29.6795E-03     53.3626E-03    -23.6832E-03     54.2125E-03    -29.7008E-03     53.1923E-03    -23.6130E-03     54.1418E-03
            2085     10.5522E-03     19.8545E-03    -7.79108E+06    -59.4144E+06    -2.53302E+06     2.55216E+06    -28.6905E-03     51.9821E-03    -23.2916E-03     47.9898E-03    -28.6763E-03     51.7368E-03    -23.2068E-03     47.9452E-03
            2086     9.67684E-03     19.8083E-03    -8.25432E+06    -66.9516E+06    -1.06281E+06     2.69689E+06    -27.6730E-03     50.5834E-03    -22.9105E-03     42.4919E-03    -27.6391E-03     50.2857E-03    -22.8067E-03     42.4691E-03
            2087     8.80053E-03     19.7674E-03    -9.04841E+06    -72.4925E+06    -585.030E+03     2.99887E+06    -26.6267E-03     49.1612E-03    -22.5346E-03     37.2510E-03    -26.5808E-03     48.8276E-03    -22.4193E-03     37.2474E-03
            2088     7.92341E-03     19.7312E-03    -9.88026E+06    -77.6517E+06    -1.43682E+06     3.04915E+06    -25.6076E-03     47.7778E-03    -22.1702E-03     32.3684E-03    -25.5517E-03     47.4153E-03    -22.0504E-03     32.3769E-03
            2089     7.04548E-03     19.6997E-03    -11.0686E+06    -82.9494E+06    -2.33033E+06     3.01151E+06    -24.6284E-03     46.4581E-03    -21.8298E-03     27.7616E-03    -24.5659E-03     46.0686E-03    -21.7051E-03     27.7782E-03
            2090     6.16675E-03     19.6726E-03    -12.7925E+06    -86.7438E+06    -4.00382E+06     3.27077E+06    -23.7094E-03     45.2217E-03    -21.5122E-03     23.4795E-03    -23.6454E-03     44.8159E-03    -21.3879E-03     23.5056E-03
            2091     5.28729E-03     19.6497E-03    -14.7775E+06    -91.3875E+06    -6.75371E+06     3.64965E+06    -22.8716E-03     44.0951E-03    -21.2235E-03     19.4964E-03    -22.8053E-03     43.6715E-03    -21.1033E-03     19.5321E-03
            2092     4.40719E-03     19.6306E-03    -16.6705E+06    -94.0743E+06    -10.9058E+06     3.79047E+06    -22.1274E-03     43.0891E-03    -20.9617E-03     15.7869E-03    -22.0597E-03     42.6599E-03    -20.8557E-03     15.8278E-03
            2093     3.52646E-03     19.6154E-03    -18.1103E+06    -96.4362E+06    -14.7956E+06     3.42394E+06    -21.4979E-03     42.2393E-03    -20.7414E-03     12.3301E-03    -21.4278E-03     41.8055E-03    -20.6492E-03     12.3687E-03
            2094     2.64528E-03     19.6036E-03    -18.9262E+06    -97.5285E+06    -17.7907E+06     2.44622E+06    -20.9990E-03     41.5659E-03    -20.5669E-03     9.08562E-03    -20.9267E-03     41.1318E-03    -20.4870E-03     9.11348E-03
            2095     1.76372E-03     19.5953E-03    -19.1041E+06    -98.0385E+06    -19.1957E+06     1.31580E+06    -20.6429E-03     41.0868E-03    -20.4439E-03     6.03723E-03    -20.5685E-03     40.6523E-03    -20.3700E-03     6.05191E-03
            2096     881.899E-06     19.5902E-03    -19.1956E+06    -100.498E+06    -18.6877E+06     298.743E+03    -20.4280E-03     40.8056E-03    -20.3776E-03     3.23690E-03    -20.3511E-03     40.3582E-03    -20.2975E-03     3.23956E-03
            2097     16.6529E-03     19.5211E-03    -6.20177E+06     149.859E+06     66.1560E+06     602.461E+03    -39.1639E-03     65.3906E-03    -26.2267E-03     146.513E-03    -42.4230E-03     68.9682E-03    -26.1042E-03     147.483E-03
            2098     15.7897E-03     19.3203E-03    -8.63892E+06     117.502E+06     5.72399E+06    -805.512E+03    -40.7240E-03     66.1780E-03    -25.4540E-03     172.348E-03    -43.7186E-03     69.5427E-03    -25.5832E-03     172.366E-03
            2099     14.9206E-03     19.1890E-03    -8.26760E+06     62.4359E+06    -21.1738E+06     1.33322E+06    -35.0295E-03     59.9491E-03    -24.9196E-03     115.297E-03    -35.8686E-03     61.0419E-03    -25.1040E-03     115.028E-03
            2100     14.0503E-03     19.1001E-03    -7.62221E+06     11.4133E+06    -13.3173E+06     2.32398E+06    -33.3252E-03     57.9256E-03    -24.6004E-03     81.3318E-03    -33.6340E-03     58.2865E-03    -24.6724E-03     81.1212E-03
            2101     13.1767E-03     19.0292E-03    -6.84700E+06    -22.2198E+06    -9.86106E+06     2.10359E+06    -32.0082E-03     56.2281E-03    -24.2199E-03     68.9684E-03    -32.1491E-03     56.2944E-03    -24.2270E-03     68.8102E-03
            2102     12.3040E-03     18.9630E-03    -6.76200E+06    -37.9367E+06    -5.08130E+06     2.27297E+06    -30.9150E-03     54.7390E-03    -23.8239E-03     61.1808E-03    -30.9793E-03     54.6593E-03    -23.7845E-03     61.0719E-03
            2103     11.4300E-03     18.9068E-03    -6.70521E+06    -48.2822E+06    -2.22969E+06     2.51056E+06    -29.8895E-03     53.2976E-03    -23.4081E-03     52.4719E-03    -29.9051E-03     53.1245E-03    -23.3395E-03     52.4021E-03
            2104     10.5556E-03     18.8566E-03    -6.94194E+06    -59.0519E+06    -2.58773E+06     2.58075E+06    -28.8049E-03     51.7815E-03    -22.9766E-03     46.2124E-03    -28.7850E-03     51.5349E-03    -22.8938E-03     46.1698E-03
            2105     9.68020E-03     18.8120E-03    -7.45823E+06    -67.0936E+06    -1.33527E+06     2.75821E+06    -27.6807E-03     50.2388E-03    -22.5581E-03     40.6789E-03    -27.6408E-03     49.9381E-03    -22.4567E-03     40.6587E-03
            2106     8.80388E-03     18.7724E-03    -8.07729E+06    -72.2846E+06    -788.656E+03     3.01759E+06    -26.5557E-03     48.7026E-03    -22.1469E-03     35.4807E-03    -26.5039E-03     48.3679E-03    -22.0343E-03     35.4790E-03
            2107     7.92670E-03     18.7376E-03    -9.04182E+06    -77.4006E+06    -1.77632E+06     3.27747E+06    -25.4627E-03     47.2110E-03    -21.7483E-03     30.6229E-03    -25.4017E-03     46.8483E-03    -21.6318E-03     30.6357E-03
            2108     7.04861E-03     18.7074E-03    -10.4412E+06    -82.6539E+06    -2.73584E+06     3.65298E+06    -24.4080E-03     45.7837E-03    -21.3756E-03     26.1034E-03    -24.3417E-03     45.3948E-03    -21.2543E-03     26.1294E-03
            2109     6.16969E-03     18.6815E-03    -12.1294E+06    -86.6461E+06    -4.37871E+06     4.04777E+06    -23.4186E-03     44.4468E-03    -21.0282E-03     21.9272E-03    -23.3504E-03     44.0407E-03    -20.9069E-03     21.9644E-03
            2110     5.28997E-03     18.6597E-03    -13.8808E+06    -90.8311E+06    -6.76132E+06     4.36423E+06    -22.5108E-03     43.2232E-03    -20.7124E-03     18.0873E-03    -22.4405E-03     42.8008E-03    -20.5944E-03     18.1330E-03
            2111     4.40949E-03     18.6416E-03    -15.4644E+06    -93.0092E+06    -9.98050E+06     4.34906E+06    -21.7018E-03     42.1312E-03    -20.4294E-03     14.5634E-03    -21.6308E-03     41.7041E-03    -20.3220E-03     14.6121E-03
            2112     3.52842E-03     18.6272E-03    -16.8662E+06     -94.471E+06    -13.0333E+06     3.84423E+06    -21.0169E-03     41.2072E-03    -20.1904E-03     11.3209E-03    -20.9459E-03     40.7788E-03    -20.0941E-03     11.3654E-03
            2113     2.64679E-03     18.6161E-03    -18.1838E+06    -95.3034E+06    -16.2456E+06     2.89160E+06    -20.4695E-03     40.4665E-03    -19.9970E-03     8.31440E-03    -20.3989E-03     40.0401E-03    -19.9137E-03     8.34834E-03
            2114     1.76476E-03     18.6083E-03    -19.2714E+06    -95.8135E+06    -19.2449E+06     1.74402E+06    -20.0693E-03     39.9238E-03    -19.8545E-03     5.50888E-03    -19.9989E-03     39.5007E-03    -19.7839E-03     5.52930E-03
            2115     882.470E-06     18.6035E-03    -19.7842E+06    -99.3085E+06    -20.4162E+06     473.505E+03    -19.8329E-03     39.6118E-03    -19.7790E-03     2.95312E-03    -19.7582E-03     39.1737E-03    -19.7083E-03     2.95814E-03
            2116     16.6696E-03     18.5115E-03    -797.078E+03     149.715E+06     72.4944E+06     1.95322E+06    -38.5731E-03     64.6649E-03    -26.0918E-03     148.918E-03    -41.6689E-03     68.0796E-03    -25.9453E-03     149.940E-03
            2117     15.7951E-03     18.3187E-03    -3.76770E+06     117.001E+06     10.3835E+06     2.73184E+06    -38.9260E-03     64.3031E-03    -25.3771E-03     171.200E-03    -41.7457E-03     67.4945E-03    -25.4894E-03     171.338E-03
            2118     14.9208E-03     18.1830E-03    -7.33806E+06     62.4466E+06    -21.9574E+06     1.85554E+06    -36.6085E-03     61.4237E-03    -24.8152E-03     112.421E-03    -37.4372E-03     62.5118E-03    -25.0049E-03     112.124E-03
            2119     14.0502E-03     18.0959E-03    -6.78953E+06     11.9274E+06    -14.0678E+06     1.73859E+06    -33.8466E-03     58.2637E-03    -24.4172E-03     78.3477E-03    -34.1354E-03     58.6116E-03    -24.4949E-03     78.1286E-03
            2120     13.1801E-03     18.0279E-03    -6.23443E+06    -22.4196E+06    -10.7284E+06     2.01431E+06    -32.3392E-03     56.3310E-03    -23.9918E-03     66.8829E-03    -32.4698E-03     56.3910E-03    -24.0039E-03     66.7236E-03
            2121     12.3068E-03     17.9626E-03    -5.93518E+06    -37.9602E+06    -5.63032E+06     2.14399E+06    -31.2301E-03     54.7842E-03    -23.5540E-03     59.3910E-03    -31.2854E-03     54.7000E-03    -23.5185E-03     59.2818E-03
            2122     11.4337E-03     17.9076E-03    -6.06062E+06    -48.3138E+06    -2.86818E+06     2.47652E+06    -30.0810E-03     53.1756E-03    -23.0946E-03     50.3933E-03    -30.0894E-03     52.9993E-03    -23.0301E-03     50.3248E-03
            2123     10.5593E-03     17.8591E-03    -6.47715E+06    -58.7595E+06    -2.89258E+06     2.69271E+06    -28.8843E-03     51.5080E-03    -22.6237E-03     44.1151E-03    -28.8597E-03     51.2602E-03    -22.5436E-03     44.0760E-03
            2124     9.68393E-03     17.8159E-03    -6.81687E+06    -67.0566E+06    -1.81216E+06     2.78800E+06    -27.6854E-03     49.8504E-03    -22.1651E-03     38.6341E-03    -27.6399E-03     49.5480E-03    -22.0670E-03     38.6163E-03
            2125     8.80767E-03     17.7778E-03    -7.46826E+06    -72.3800E+06    -1.17738E+06     3.15473E+06    -26.4869E-03     48.2022E-03    -21.7153E-03     33.4130E-03    -26.4301E-03     47.8655E-03    -21.6054E-03     33.4149E-03
            2126     7.93038E-03     17.7445E-03    -8.40912E+06    -77.4235E+06    -2.18956E+06     3.78344E+06    -25.2956E-03     46.5743E-03    -21.2787E-03     28.6207E-03    -25.2299E-03     46.2103E-03    -21.1652E-03     28.6417E-03
            2127     7.05216E-03     17.7157E-03    -9.71070E+06    -82.6584E+06    -3.06949E+06     4.41012E+06    -24.1628E-03     45.0335E-03    -20.8707E-03     24.1977E-03    -24.0917E-03     44.6434E-03    -20.7521E-03     24.2349E-03
            2128     6.17300E-03     17.6912E-03    -11.3338E+06    -86.2673E+06    -4.72054E+06     4.90930E+06    -23.0862E-03     43.5757E-03    -20.4895E-03     20.1650E-03    -23.0137E-03     43.1704E-03    -20.3716E-03     20.2145E-03
            2129     5.29295E-03     17.6706E-03    -13.0472E+06    -90.0097E+06    -6.84173E+06     5.04193E+06    -22.1010E-03     42.2458E-03    -20.1448E-03     16.5073E-03    -22.0274E-03     41.8262E-03    -20.0296E-03     16.5627E-03
            2130     4.41215E-03     17.6536E-03    -14.5876E+06    -91.5558E+06    -9.53929E+06     4.79125E+06    -21.2219E-03     41.0595E-03    -19.8376E-03     13.2082E-03    -21.1491E-03     40.6376E-03    -19.7314E-03     13.2633E-03
            2131     3.53058E-03     17.6401E-03    -15.8907E+06    -92.5184E+06    -12.3197E+06     4.24952E+06    -20.4772E-03     40.0545E-03    -19.5773E-03     10.2151E-03    -20.4051E-03     39.6333E-03    -19.4817E-03     10.2653E-03
            2132     2.64848E-03     17.6298E-03     -17.048E+06    -92.9685E+06    -14.9176E+06     3.51194E+06    -19.8804E-03     39.2494E-03    -19.3690E-03     7.47032E-03    -19.8094E-03     38.8311E-03    -19.2841E-03     7.51260E-03
            2133     1.76591E-03     17.6225E-03    -17.9630E+06    -93.3339E+06    -17.5952E+06     2.50969E+06    -19.4475E-03     38.6625E-03    -19.2150E-03     4.94444E-03    -19.3765E-03     38.2474E-03    -19.1416E-03     4.97495E-03
            2134     883.003E-06     17.6180E-03    -18.7553E+06    -97.0827E+06    -19.0367E+06     1.70564E+06    -19.2003E-03     38.3180E-03    -19.1177E-03     2.63305E-03    -19.1256E-03     37.8875E-03    -19.0449E-03     2.65410E-03
            2135     16.6596E-03     17.5158E-03    -3.30201E+06     147.584E+06     73.5770E+06     226.823E+03    -39.3196E-03     65.4211E-03    -26.1015E-03     147.867E-03    -42.3464E-03     68.7472E-03    -25.9428E-03     148.770E-03
            2136     15.7870E-03     17.3044E-03    -5.30219E+06     117.003E+06     14.4111E+06     2.83358E+06    -40.8310E-03     66.1681E-03    -25.3371E-03     172.697E-03    -43.6400E-03     69.3318E-03    -25.4270E-03     172.745E-03
            2137     14.9273E-03     17.1778E-03    -5.21306E+06     63.6778E+06    -19.3756E+06     3.07864E+06    -37.8397E-03     62.5075E-03    -24.6679E-03     108.744E-03    -38.6405E-03     63.5721E-03    -24.8495E-03     108.434E-03
            2138     14.0562E-03     17.0932E-03    -4.93852E+06     12.6136E+06    -13.3516E+06     2.49478E+06    -34.1743E-03     58.3703E-03    -24.1959E-03     75.7954E-03    -34.4414E-03     58.7035E-03    -24.2738E-03     75.5880E-03
            2139     13.1827E-03     17.0256E-03    -5.27607E+06    -22.4254E+06    -11.1412E+06     2.23869E+06    -32.6250E-03     56.3523E-03    -23.7274E-03     64.8201E-03    -32.7430E-03     56.4044E-03    -23.7429E-03     64.6655E-03
            2140     12.3111E-03     16.9623E-03    -5.35792E+06    -38.0184E+06    -5.88872E+06     2.30804E+06    -31.5999E-03     54.8445E-03    -23.2446E-03     57.1509E-03    -31.6476E-03     54.7554E-03    -23.2112E-03     57.0447E-03
            2141     11.4376E-03     16.9085E-03    -5.65461E+06    -48.3101E+06    -2.99405E+06     2.57384E+06    -30.2313E-03     52.9696E-03    -22.7383E-03     48.1691E-03    -30.2339E-03     52.7894E-03    -22.6751E-03     48.1046E-03
            2142     10.5635E-03     16.8620E-03    -5.76270E+06    -58.6477E+06    -2.74663E+06     2.75211E+06    -28.9799E-03     51.2042E-03    -22.2242E-03     41.7674E-03    -28.9496E-03     50.9532E-03    -22.1446E-03     41.7316E-03
            2143     9.68818E-03     16.8201E-03    -6.27709E+06    -66.8100E+06    -1.85290E+06     2.94034E+06    -27.7012E-03     49.4205E-03    -21.7193E-03     36.2768E-03    -27.6514E-03     49.1167E-03    -21.6226E-03     36.2633E-03
            2144     8.81194E-03     16.7838E-03    -6.85796E+06    -72.7599E+06    -1.25618E+06     3.32808E+06    -26.3938E-03     47.6195E-03    -21.2258E-03     31.0311E-03    -26.3320E-03     47.2788E-03    -21.1166E-03     31.0373E-03
            2145     7.93457E-03     16.7521E-03    -7.65930E+06    -77.8276E+06    -2.03973E+06     4.20959E+06    -25.0949E-03     45.8434E-03    -20.7486E-03     26.3428E-03    -25.0241E-03     45.4752E-03    -20.6348E-03     26.3712E-03
            2146     7.05615E-03     16.7248E-03    -8.68830E+06    -82.6518E+06    -2.95384E+06     5.06817E+06    -23.8515E-03     44.1536E-03    -20.3021E-03     22.0700E-03    -23.7748E-03     43.7613E-03    -20.1844E-03     22.1172E-03
            2147     6.17670E-03     16.7017E-03    -9.92203E+06    -85.8934E+06    -3.91963E+06     5.65611E+06    -22.6828E-03     42.5736E-03    -19.8908E-03     18.2271E-03    -22.6045E-03     42.1665E-03    -19.7714E-03     18.2874E-03
            2148     5.29630E-03     16.6825E-03    -11.4181E+06    -88.7859E+06    -5.88911E+06     5.87215E+06    -21.6106E-03     41.1285E-03    -19.5179E-03     14.8089E-03    -21.5318E-03     40.7111E-03    -19.4020E-03     14.8759E-03
            2149     4.41499E-03     16.6667E-03    -13.0567E+06    -89.7130E+06    -8.58944E+06     5.38649E+06    -20.6653E-03     39.8530E-03    -19.1877E-03     11.7834E-03    -20.5889E-03     39.4366E-03    -19.0816E-03     11.8468E-03
            2150     3.53298E-03     16.6542E-03    -14.4115E+06    -90.4983E+06    -11.2818E+06     4.63766E+06    -19.8690E-03     38.7788E-03    -18.9098E-03     9.07574E-03    -19.7939E-03     38.3640E-03    -18.8141E-03     9.13147E-03
            2151     2.65029E-03     16.6447E-03    -15.1292E+06    -90.4001E+06    -13.8759E+06     3.63939E+06    -19.2328E-03     37.9198E-03    -18.6870E-03     6.60997E-03    -19.1574E-03     37.5100E-03    -18.6034E-03     6.65420E-03
            2152     1.76711E-03     16.6380E-03    -15.2318E+06    -91.1048E+06    -15.0741E+06     2.81651E+06    -18.7792E-03     37.3093E-03    -18.5301E-03     4.37510E-03    -18.7015E-03     36.8978E-03    -18.4513E-03     4.40977E-03
            2153     883.683E-06     16.6338E-03    -15.1362E+06    -93.5077E+06    -14.9320E+06     2.14262E+06    -18.5195E-03     36.9454E-03    -18.4259E-03     2.31777E-03    -18.4379E-03     36.5216E-03    -18.3431E-03     2.34456E-03
            2154     16.6618E-03     16.5032E-03    -5.71685E+06     146.955E+06     67.1755E+06    -157.069E+03    -42.2026E-03     68.2736E-03    -26.0710E-03     141.475E-03    -45.1640E-03     71.5418E-03    -25.9399E-03     142.177E-03
            2155     15.8009E-03     16.2997E-03    -9.86262E+06     114.490E+06     6.70633E+06    -520.063E+03    -42.4402E-03     67.5986E-03    -25.1584E-03     167.890E-03    -45.1683E-03     70.6791E-03    -25.2766E-03     167.770E-03
            2156     14.9245E-03     16.1676E-03    -6.94931E+06     62.2538E+06    -20.6308E+06     1.96120E+06    -37.4253E-03     61.8837E-03    -24.4584E-03     105.431E-03    -38.1861E-03     62.9006E-03    -24.6418E-03     105.118E-03
            2157     14.0574E-03     16.0907E-03    -5.54843E+06     13.4296E+06    -13.0939E+06     3.13974E+06    -34.8783E-03     58.8366E-03    -23.9583E-03     72.3915E-03    -35.1394E-03     59.1638E-03    -24.0352E-03     72.1873E-03
            2158     13.1874E-03     16.0232E-03    -5.27181E+06    -21.2868E+06    -10.5334E+06     2.57567E+06    -33.1177E-03     56.5465E-03    -23.4288E-03     63.0193E-03    -33.2313E-03     56.5964E-03    -23.4429E-03     62.8699E-03
            2159     12.3151E-03     15.9617E-03    -4.87290E+06    -38.2070E+06    -6.25106E+06     2.39944E+06    -31.9337E-03     54.8212E-03    -22.8875E-03     54.6615E-03    -31.9732E-03     54.7260E-03    -22.8563E-03     54.5582E-03
            2160     11.4423E-03     15.9100E-03    -4.70662E+06    -48.2870E+06    -2.60939E+06     2.57125E+06    -30.4992E-03     52.8282E-03    -22.3290E-03     45.5343E-03    -30.4938E-03     52.6424E-03    -22.2652E-03     45.4724E-03
            2161     10.5682E-03     15.8647E-03    -5.14579E+06    -58.5906E+06    -2.28253E+06     2.99242E+06    -29.1162E-03     50.8765E-03    -21.7602E-03     39.0329E-03    -29.0808E-03     50.6215E-03    -21.6792E-03     39.0030E-03
            2162     9.69324E-03     15.8250E-03    -5.72209E+06    -66.5957E+06    -1.17735E+06     3.20009E+06    -27.7042E-03     48.9072E-03    -21.2030E-03     33.4590E-03    -27.6509E-03     48.6007E-03    -21.1040E-03     33.4514E-03
            2163     8.81688E-03     15.7902E-03    -6.49460E+06    -72.9774E+06    -824.066E+03     3.54878E+06    -26.2422E-03     46.9025E-03    -20.6603E-03     28.3009E-03    -26.1775E-03     46.5581E-03    -20.5492E-03     28.3123E-03
            2164     7.93943E-03     15.7605E-03    -7.24369E+06    -78.5703E+06    -1.35837E+06     4.40152E+06    -24.8173E-03     44.9590E-03    -20.1417E-03     23.7199E-03    -24.7434E-03     44.5845E-03    -20.0241E-03     23.7528E-03
            2165     7.06070E-03     15.7349E-03    -7.90773E+06    -82.5379E+06    -2.65654E+06     5.32632E+06    -23.4351E-03     43.0904E-03    -19.6553E-03     19.6748E-03    -23.3545E-03     42.6964E-03    -19.5374E-03     19.7270E-03
            2166     6.18088E-03     15.7134E-03    -8.61179E+06    -85.6687E+06    -3.54757E+06     5.97060E+06    -22.1595E-03     41.3750E-03    -19.2155E-03     16.0891E-03    -22.0751E-03     40.9662E-03    -19.0965E-03     16.1547E-03
            2167     5.29996E-03     15.6956E-03    -9.40517E+06    -87.4791E+06    -4.65680E+06     6.33764E+06    -21.0085E-03     39.8325E-03    -18.8239E-03     12.9692E-03    -20.9231E-03     39.4166E-03    -18.7067E-03     13.0431E-03
            2168     4.41815E-03     15.6811E-03    -10.3119E+06    -87.5879E+06    -6.64143E+06     5.97256E+06    -20.0075E-03     38.4888E-03    -18.4813E-03     10.2672E-03    -19.9230E-03     38.0760E-03    -18.3725E-03     10.3389E-03
            2169     3.53548E-03     15.6696E-03    -11.3462E+06    -88.0639E+06    -8.82156E+06     5.04442E+06    -19.1802E-03     37.3766E-03    -18.1965E-03     7.88116E-03    -19.0967E-03     36.9659E-03    -18.0965E-03     7.94259E-03
            2170     2.65221E-03     15.6610E-03    -12.3561E+06    -87.7741E+06    -11.4249E+06     3.99088E+06    -18.5305E-03     36.4979E-03    -17.9674E-03     5.73293E-03    -18.4487E-03     36.0937E-03    -17.8793E-03     5.78200E-03
            2171     1.76844E-03     15.6548E-03    -13.2698E+06    -88.7567E+06    -12.9956E+06     3.10129E+06    -18.0638E-03     35.8677E-03    -17.8038E-03     3.79253E-03    -17.9827E-03     35.4620E-03    -17.7209E-03     3.83106E-03
            2172     884.267E-06     15.6511E-03    -13.7609E+06    -89.4943E+06    -13.6112E+06     1.99114E+06    -17.7863E-03     35.4756E-03    -17.6893E-03     1.99181E-03    -17.7056E-03     35.0680E-03    -17.6076E-03     2.01674E-03
            2173     16.6637E-03     15.4811E-03    -4.62661E+06     147.798E+06     68.4609E+06     1.32713E+06    -44.0157E-03     69.9815E-03    -25.9658E-03     139.485E-03    -46.9178E-03     73.1936E-03    -25.8311E-03     140.088E-03
            2174     15.7967E-03     15.2938E-03    -6.75874E+06     116.220E+06     8.85790E+06     1.37272E+06    -43.3776E-03     68.3377E-03    -24.9601E-03     164.486E-03    -46.0154E-03     71.3388E-03    -25.0745E-03     164.341E-03
            2175     14.9339E-03     15.1620E-03    -8.02722E+06     60.7178E+06    -22.2512E+06     709.392E+03    -37.8630E-03     62.0541E-03    -24.1911E-03     102.703E-03    -38.5880E-03     63.0309E-03    -24.3788E-03     102.366E-03
            2176     14.0625E-03     15.0856E-03    -6.20201E+06     13.0893E+06    -14.1658E+06     1.62925E+06    -34.8644E-03     58.5199E-03    -23.6555E-03     68.6788E-03    -35.1075E-03     58.8286E-03    -23.7363E-03     68.4609E-03
            2177     13.1916E-03     15.0216E-03    -4.37836E+06    -20.6381E+06    -10.3581E+06     2.33693E+06    -33.7851E-03     56.8644E-03    -23.0793E-03     60.3125E-03    -33.8886E-03     56.9092E-03    -23.0948E-03     60.1590E-03
            2178     12.3203E-03     14.9607E-03    -4.23523E+06    -38.1460E+06    -5.94128E+06     2.37805E+06    -32.4136E-03     54.8826E-03    -22.4690E-03     51.6745E-03    -32.4445E-03     54.7804E-03    -22.4373E-03     51.5728E-03
            2179     11.4479E-03     14.9114E-03    -4.57349E+06    -48.4880E+06    -2.31350E+06     2.90091E+06    -30.8221E-03     52.6652E-03    -21.8430E-03     42.2592E-03    -30.8121E-03     52.4736E-03    -21.7777E-03     42.2041E-03
            2180     10.5742E-03     14.8680E-03    -5.00474E+06    -58.3218E+06    -1.60936E+06     3.06129E+06    -29.2523E-03     50.4626E-03    -21.2103E-03     35.9022E-03    -29.2145E-03     50.2048E-03    -21.1266E-03     35.8762E-03
            2181     9.69911E-03     14.8303E-03    -5.28796E+06    -66.7056E+06    -452.626E+03     3.38540E+06    -27.6602E-03     48.2542E-03    -20.5940E-03     30.2188E-03    -27.6035E-03     47.9433E-03    -20.4919E-03     30.2166E-03
            2182     8.82280E-03     14.7977E-03    -6.00916E+06    -73.0212E+06     38.5179E+03     3.95516E+06    -26.0118E-03     46.0114E-03    -19.9996E-03     25.1947E-03    -25.9443E-03     45.6633E-03    -19.8848E-03     25.2141E-03
            2183     7.94501E-03     14.7697E-03    -7.00730E+06    -79.0879E+06    -794.103E+03     4.57613E+06    -24.4141E-03     43.8520E-03    -19.4379E-03     20.7954E-03    -24.3381E-03     43.4727E-03    -19.3170E-03     20.8327E-03
            2184     7.06598E-03     14.7461E-03    -7.92206E+06    -82.5773E+06    -2.52932E+06     5.39524E+06    -22.8917E-03     41.8076E-03    -18.9159E-03     17.0112E-03    -22.8106E-03     41.4126E-03    -18.7973E-03     17.0659E-03
            2185     6.18556E-03     14.7263E-03    -8.54333E+06    -85.1098E+06    -4.39151E+06     5.87507E+06    -21.4974E-03     39.9450E-03    -18.4476E-03     13.7543E-03    -21.4119E-03     39.5397E-03    -18.3337E-03     13.8200E-03
            2186     5.30409E-03     14.7101E-03    -8.76713E+06    -86.4588E+06    -4.94694E+06     6.02616E+06    -20.2789E-03     38.3226E-03    -18.0437E-03     10.9611E-03    -20.1911E-03     37.9111E-03    -17.9304E-03     11.0320E-03
            2187     4.42155E-03     14.6969E-03    -8.88970E+06    -85.5510E+06    -5.90311E+06     5.93093E+06    -19.2369E-03     36.9336E-03    -17.6968E-03     8.59950E-03    -19.1492E-03     36.5278E-03    -17.5893E-03     8.67130E-03
            2188     3.53824E-03     14.6865E-03    -9.17227E+06    -85.5279E+06    -7.49641E+06     5.27776E+06    -18.3926E-03     35.8040E-03    -17.4114E-03     6.54726E-03    -18.3039E-03     35.4008E-03    -17.3115E-03     6.61217E-03
            2189     2.65423E-03     14.6786E-03    -9.66279E+06    -85.3514E+06    -8.91888E+06     4.58660E+06    -17.7470E-03     34.9353E-03    -17.1882E-03     4.74034E-03    -17.6588E-03     34.5355E-03    -17.0950E-03     4.79743E-03
            2190     1.76976E-03     14.6731E-03    -10.3891E+06    -85.6500E+06    -9.87517E+06     3.80347E+06    -17.2858E-03     34.3119E-03    -17.0262E-03     3.11583E-03    -17.1993E-03     33.9131E-03    -16.9363E-03     3.16363E-03
            2191     885.022E-06     14.6698E-03    -11.3508E+06    -85.2339E+06    -11.0347E+06     2.32413E+06    -17.0060E-03     33.9100E-03    -16.9040E-03     1.64034E-03    -16.9231E-03     33.5164E-03    -16.8191E-03     1.66968E-03
            2192     16.6673E-03     14.4762E-03    -5.11479E+06     146.499E+06     69.0091E+06     660.468E+03    -45.1988E-03     71.0780E-03    -25.8792E-03     136.797E-03    -47.9951E-03     74.1764E-03    -25.7392E-03     137.253E-03
            2193     15.8030E-03     14.2774E-03    -5.77733E+06     116.814E+06     11.1552E+06     1.92981E+06    -44.6078E-03     69.4076E-03    -24.7998E-03     160.733E-03    -47.1695E-03     72.3313E-03    -24.9050E-03     160.517E-03
            2194     14.9356E-03     14.1572E-03    -5.75792E+06     61.9273E+06    -21.1788E+06     1.98825E+06    -39.1529E-03     63.0801E-03    -23.9272E-03     98.8117E-03    -39.8378E-03     64.0261E-03    -24.1145E-03     98.4710E-03
            2195     14.0665E-03     14.0820E-03    -6.21072E+06     12.9156E+06    -16.1423E+06     905.986E+03    -35.5657E-03     58.8626E-03    -23.2969E-03     67.0220E-03    -35.7904E-03     59.1581E-03    -23.3874E-03     66.7961E-03
            2196     13.1971E-03     14.0184E-03     -5.6263E+06    -21.2754E+06    -12.4120E+06     1.62209E+06    -34.4901E-03     57.1390E-03    -22.6489E-03     57.2491E-03    -34.5876E-03     57.1770E-03    -22.6719E-03     57.0866E-03
            2197     12.3267E-03     13.9602E-03    -5.01055E+06    -38.3890E+06    -6.45996E+06     2.64548E+06    -32.9578E-03     54.9220E-03    -21.9641E-03     48.1102E-03    -32.9847E-03     54.8137E-03    -21.9335E-03     48.0148E-03
            2198     11.4545E-03     13.9129E-03    -5.01722E+06    -48.4572E+06    -2.88943E+06     2.89581E+06    -31.1212E-03     52.3811E-03    -21.2599E-03     38.7980E-03    -31.1081E-03     52.1867E-03    -21.1968E-03     38.7464E-03
            2199     10.5810E-03     13.8718E-03    -4.89384E+06    -58.0575E+06    -1.58772E+06     2.96232E+06    -29.3888E-03     49.9458E-03    -20.5570E-03     32.3303E-03    -29.3478E-03     49.6861E-03    -20.4737E-03     32.3065E-03
            2200     9.70615E-03     13.8362E-03    -5.24414E+06    -67.1038E+06    -446.576E+03     3.41932E+06    -27.5347E-03     47.4115E-03    -19.8768E-03     26.6545E-03    -27.4750E-03     47.0964E-03    -19.7741E-03     26.6560E-03
            2201     8.82961E-03     13.8060E-03    -5.94007E+06    -73.3570E+06     324.596E+03     4.33899E+06    -25.6800E-03     44.9101E-03    -19.2300E-03     21.7696E-03    -25.6107E-03     44.5584E-03    -19.1134E-03     21.7966E-03
            2202     7.95155E-03     13.7802E-03    -6.98564E+06    -78.9402E+06    -294.171E+03     4.96039E+06    -23.8930E-03     42.5192E-03    -18.6261E-03     17.6100E-03    -23.8169E-03     42.1390E-03    -18.5030E-03     17.6545E-03
            2203     7.07190E-03     13.7587E-03    -7.75689E+06    -82.5518E+06    -1.50081E+06     5.26790E+06    -22.2358E-03     40.3106E-03    -18.0748E-03     14.0812E-03    -22.1549E-03     39.9135E-03    -17.9513E-03     14.1361E-03
            2204     6.19095E-03     13.7408E-03    -8.17925E+06    -84.3656E+06    -3.55747E+06     5.64437E+06    -20.7385E-03     38.3195E-03    -17.5811E-03     11.1429E-03    -20.6531E-03     37.9160E-03    -17.4647E-03     11.2069E-03
            2205     5.30869E-03     13.7261E-03    -8.53272E+06    -85.1984E+06    -5.21803E+06     5.52865E+06    -19.4429E-03     36.5994E-03    -17.1565E-03     8.70324E-03    -19.3551E-03     36.1940E-03    -17.0467E-03     8.76860E-03
            2206     4.42547E-03     13.7143E-03    -8.49619E+06    -84.0295E+06    -5.51923E+06     5.19830E+06    -18.3604E-03     35.1648E-03    -16.8044E-03     6.69507E-03    -18.2734E-03     34.7653E-03    -16.6978E-03     6.75809E-03
            2207     3.54134E-03     13.7049E-03    -8.31107E+06    -83.4035E+06    -6.42288E+06     5.00077E+06    -17.4916E-03     34.0099E-03    -16.5183E-03     5.01999E-03    -17.4031E-03     33.6144E-03    -16.4174E-03     5.08179E-03
            2208     2.65659E-03     13.6980E-03    -8.16757E+06    -82.9891E+06    -7.24095E+06     4.47465E+06    -16.8396E-03     33.1388E-03    -16.2991E-03     3.60840E-03    -16.7498E-03     32.7462E-03    -16.2032E-03     3.66437E-03
            2209     1.77134E-03     13.6930E-03    -7.64811E+06    -82.1709E+06    -7.04174E+06     3.50426E+06    -16.3870E-03     32.5328E-03    -16.1457E-03     2.35907E-03    -16.2960E-03     32.1432E-03    -16.0507E-03     2.40322E-03
            2210     885.712E-06     13.6901E-03    -6.78186E+06    -80.9144E+06    -6.48203E+06     2.00442E+06    -16.1198E-03     32.1662E-03    -16.0464E-03     1.24266E-03    -16.0270E-03     31.7810E-03    -15.9516E-03     1.26799E-03
            2211     16.6652E-03     13.4572E-03    -4.47754E+06     145.988E+06     69.2631E+06     573.151E+03    -47.5118E-03     73.3397E-03    -25.8279E-03     134.159E-03    -50.2305E-03     76.3601E-03    -25.6868E-03     134.443E-03
            2212     15.8039E-03     13.2667E-03    -6.46369E+06     115.100E+06     10.5661E+06     1.14449E+06    -46.3240E-03     70.9477E-03    -24.6237E-03     155.874E-03    -48.7813E-03     73.7605E-03    -24.7284E-03     155.523E-03
            2213     14.9397E-03     13.1484E-03    -5.97632E+06     62.1452E+06    -21.5818E+06     2.22933E+06    -40.1827E-03     63.8272E-03    -23.6445E-03     93.5453E-03    -40.8198E-03     64.7265E-03    -23.8338E-03     93.1973E-03
            2214     14.0731E-03     13.0779E-03    -5.59934E+06     14.2636E+06    -16.1163E+06     2.35297E+06    -37.1770E-03     60.0801E-03    -22.9031E-03     63.3507E-03    -37.3886E-03     60.3695E-03    -22.9963E-03     63.1341E-03
            2215     13.2039E-03     13.0147E-03    -5.93351E+06    -21.8835E+06    -13.4261E+06     1.59731E+06    -35.3282E-03     57.4694E-03    -22.1412E-03     53.9265E-03    -35.4154E-03     57.4970E-03    -22.1680E-03     53.7645E-03
            2216     12.3339E-03     12.9599E-03    -5.62504E+06    -39.0482E+06    -7.92436E+06     2.17723E+06    -33.4669E-03     54.8320E-03    -21.3650E-03     44.2459E-03    -33.4868E-03     54.7164E-03    -21.3399E-03     44.1481E-03
            2217     11.4622E-03     12.9145E-03    -5.04284E+06    -48.1762E+06    -3.26385E+06     2.67318E+06    -31.4778E-03     52.0570E-03    -20.5792E-03     34.9948E-03    -31.4603E-03     51.8603E-03    -20.5184E-03     34.9441E-03
            2218     10.5892E-03     12.8760E-03    -5.43545E+06    -58.1187E+06    -1.96968E+06     3.04600E+06    -29.4331E-03     49.2321E-03    -19.7990E-03     28.3699E-03    -29.3911E-03     48.9704E-03    -19.7167E-03     28.3509E-03
            2219     9.71420E-03     12.8432E-03    -6.12809E+06    -67.4717E+06    -744.548E+03     3.64119E+06    -27.3106E-03     46.3649E-03    -19.0543E-03     22.8719E-03    -27.2524E-03     46.0478E-03    -18.9513E-03     22.8796E-03
            2220     8.83744E-03     12.8154E-03    -6.93443E+06    -73.9522E+06     242.820E+03     4.45472E+06    -25.2402E-03     43.5955E-03    -18.3554E-03     18.1763E-03    -25.1735E-03     43.2412E-03    -18.2369E-03     18.2077E-03
            2221     7.95890E-03     12.7922E-03    -7.52847E+06    -78.3786E+06     315.455E+03     4.97453E+06    -23.2822E-03     40.9915E-03    -17.7093E-03     14.2912E-03    -23.2097E-03     40.6132E-03    -17.5832E-03     14.3380E-03
            2222     7.07877E-03     12.7728E-03    -8.26764E+06    -82.1068E+06    -477.626E+03     5.03473E+06    -21.4910E-03     38.6171E-03    -17.1261E-03     11.0854E-03    -21.4143E-03     38.2209E-03    -16.9974E-03     11.1388E-03
            2223     6.19709E-03     12.7569E-03    -8.93615E+06    -83.7326E+06    -1.93490E+06     5.15496E+06    -19.8951E-03     36.5041E-03    -16.6090E-03     8.49269E-03    -19.8165E-03     36.1022E-03    -16.4843E-03     8.55146E-03
            2224     5.31415E-03     12.7439E-03    -9.02933E+06    -83.4489E+06    -3.96313E+06     4.78068E+06    -18.5174E-03     34.6787E-03    -16.1613E-03     6.45606E-03    -18.4364E-03     34.2808E-03    -16.0470E-03     6.51251E-03
            2225     4.43003E-03     12.7335E-03    -8.88075E+06    -82.7812E+06    -4.93294E+06     4.17090E+06    -17.3784E-03     33.1727E-03    -15.7944E-03     4.84404E-03    -17.2959E-03     32.7791E-03    -15.6861E-03     4.89430E-03
            2226     3.54506E-03     12.7254E-03    -8.44231E+06    -81.7499E+06    -5.09296E+06     3.81135E+06    -16.4773E-03     31.9825E-03    -15.5052E-03     3.56624E-03    -16.3938E-03     31.5935E-03    -15.3999E-03     3.61300E-03
            2227     2.65934E-03     12.7191E-03    -7.44827E+06    -80.5884E+06    -5.16097E+06     3.07189E+06    -15.8088E-03     31.0958E-03    -15.2870E-03     2.54871E-03    -15.7218E-03     30.7112E-03    -15.1851E-03     2.58678E-03
            2228     1.77313E-03     12.7148E-03    -6.25056E+06    -79.2568E+06     -5.0682E+06     1.89886E+06    -15.3601E-03     30.4955E-03    -15.1354E-03     1.65953E-03    -15.2692E-03     30.1156E-03    -15.0367E-03     1.68309E-03
            2229     886.675E-06     12.7121E-03    -5.22803E+06    -78.0476E+06    -4.86137E+06     832.686E+03    -15.1142E-03     30.1465E-03    -15.0323E-03     854.988E-06    -15.0201E-03     29.7710E-03    -14.9359E-03     865.257E-06
            2230     16.6670E-03     12.4335E-03    -3.88200E+06     145.657E+06     69.7127E+06     463.493E+03    -49.1931E-03     74.9463E-03    -25.7532E-03     131.180E-03    -51.8017E-03     77.8562E-03    -25.6102E-03     131.307E-03
            2231     15.8098E-03     12.2543E-03    -6.92254E+06     113.704E+06     10.8672E+06     796.416E+03    -48.2870E-03     72.7106E-03    -24.4236E-03     148.213E-03    -50.5907E-03     75.3625E-03    -24.5241E-03     147.739E-03
            2232     14.9448E-03     12.1396E-03    -7.69521E+06     61.7567E+06    -21.6688E+06     2.02556E+06    -41.9271E-03     65.2299E-03    -23.3028E-03     88.7287E-03    -42.5306E-03     66.0885E-03    -23.4895E-03     88.3572E-03
            2233     14.0787E-03     12.0711E-03    -6.67471E+06     15.3378E+06    -16.2811E+06     2.50822E+06    -38.4236E-03     60.8582E-03    -22.4346E-03     59.0642E-03    -38.6274E-03     61.1403E-03    -22.5286E-03     58.8453E-03
            2234     13.2118E-03     12.0118E-03    -5.46570E+06    -21.4861E+06    -13.3011E+06     2.20189E+06    -36.2938E-03     57.8554E-03    -21.5616E-03     50.0524E-03    -36.3698E-03     57.8745E-03    -21.5890E-03     49.8994E-03
            2235     12.3423E-03     11.9590E-03    -5.30802E+06    -39.1968E+06    -7.86165E+06     2.00514E+06    -34.1032E-03     54.7853E-03    -20.6821E-03     40.1115E-03    -34.1146E-03     54.6618E-03    -20.6569E-03     40.0152E-03
            2236     11.4715E-03     11.9166E-03    -5.58355E+06    -48.5563E+06    -2.88784E+06     2.59580E+06    -31.7260E-03     51.5336E-03    -19.8075E-03     30.7921E-03    -31.7068E-03     51.3308E-03    -19.7435E-03     30.7447E-03
            2237     10.5982E-03     11.8811E-03    -6.09658E+06    -58.3915E+06    -1.03611E+06     3.48348E+06    -29.3216E-03     48.2764E-03    -18.9548E-03     24.2951E-03    -29.2809E-03     48.0101E-03    -18.8665E-03     24.2860E-03
            2238     9.72319E-03     11.8512E-03    -7.13974E+06    -67.5802E+06     196.074E+03     4.06444E+06    -26.9467E-03     45.0968E-03    -18.1501E-03     19.0291E-03    -26.8929E-03     44.7774E-03    -18.0408E-03     19.0457E-03
            2239     8.84607E-03     11.8263E-03    -7.86533E+06    -73.7942E+06     1.45386E+06     4.10394E+06    -24.6534E-03     42.0578E-03    -17.4045E-03     14.7080E-03    -24.5923E-03     41.7028E-03    -17.2788E-03     14.7375E-03
            2240     7.96704E-03     11.8056E-03    -8.38494E+06    -78.3821E+06     1.89071E+06     4.47442E+06    -22.5333E-03     39.2579E-03    -16.7247E-03     11.2501E-03    -22.4667E-03     38.8780E-03    -16.5894E-03     11.2923E-03
            2241     7.08618E-03     11.7887E-03    -9.36893E+06    -81.3764E+06     1.44001E+06     4.99066E+06    -20.6183E-03     36.7349E-03    -16.1166E-03     8.49840E-03    -20.5506E-03     36.3409E-03    -15.9778E-03     8.55248E-03
            2242     6.20377E-03     11.7749E-03    -10.2961E+06    -82.2716E+06    -363.748E+03     4.24745E+06    -18.9408E-03     34.5199E-03    -15.5791E-03     6.37899E-03    -18.8733E-03     34.1248E-03    -15.4467E-03     6.42678E-03
            2243     5.31992E-03     11.7637E-03    -10.4317E+06    -81.9592E+06    -2.21651E+06     3.28824E+06    -17.5140E-03     32.6336E-03    -15.1196E-03     4.77572E-03    -17.4446E-03     32.2426E-03    -14.9967E-03     4.81331E-03
            2244     4.43494E-03     11.7548E-03    -10.0475E+06    -81.3976E+06    -3.54383E+06     2.63224E+06    -16.3428E-03     31.0846E-03    -14.7418E-03     3.54603E-03    -16.2701E-03     30.6975E-03    -14.6269E-03     3.57663E-03
            2245     3.54896E-03     11.7478E-03    -9.40293E+06    -80.3452E+06    -4.55710E+06     1.81679E+06    -15.4296E-03     29.8705E-03    -14.4409E-03     2.58507E-03    -15.3537E-03     29.4891E-03    -14.3336E-03     2.60616E-03
            2246     2.66232E-03     11.7425E-03    -8.66898E+06    -78.8144E+06    -5.46554E+06     1.02366E+06    -14.7505E-03     28.9613E-03    -14.2108E-03     1.83278E-03    -14.6718E-03     28.5878E-03    -14.1113E-03     1.84441E-03
            2247     1.77516E-03     11.7386E-03    -8.13149E+06    -77.6962E+06    -6.58515E+06     363.540E+03    -14.2812E-03     28.3286E-03    -14.0473E-03     1.17955E-03    -14.1998E-03     27.9614E-03    -13.9558E-03     1.18327E-03
            2248     887.627E-06     11.7364E-03    -7.94417E+06    -77.1108E+06    -7.58904E+06     97.6385E+03    -14.0327E-03     27.9565E-03    -13.9238E-03     620.907E-06    -13.9496E-03     27.5936E-03    -13.8384E-03     621.662E-06
            2249     16.6695E-03     11.4113E-03    -3.41970E+06     144.801E+06     70.0571E+06     1.02606E+06    -51.4406E-03     77.0150E-03    -25.5743E-03     126.159E-03    -53.8813E-03     79.7549E-03    -25.4291E-03     126.132E-03
            2250     15.8102E-03     11.2373E-03    -7.76226E+06     112.220E+06     11.6695E+06     1.52845E+06    -49.4107E-03     73.5374E-03    -24.1267E-03     139.608E-03    -51.5325E-03     75.9966E-03    -24.2198E-03     139.071E-03
            2251     14.9517E-03     11.1288E-03    -7.82076E+06     61.8442E+06    -20.3055E+06     2.00457E+06    -43.4496E-03     66.3380E-03    -22.8884E-03     82.2885E-03    -44.0109E-03     67.1505E-03    -23.0682E-03     81.8994E-03
            2252     14.0874E-03     11.0648E-03    -7.27181E+06     15.8084E+06    -16.1382E+06     1.70231E+06    -39.5788E-03     61.4726E-03    -21.8937E-03     54.5669E-03    -39.7708E-03     61.7420E-03    -21.9868E-03     54.3356E-03
            2253     13.2200E-03     11.0077E-03    -7.01864E+06    -20.8936E+06    -13.1219E+06     1.91318E+06    -37.3224E-03     58.2286E-03    -20.9063E-03     45.5286E-03    -37.3979E-03     58.2435E-03    -20.9314E-03     45.3724E-03
            2254     12.3522E-03     10.9583E-03    -6.62853E+06    -39.2796E+06    -7.56573E+06     2.31588E+06    -34.6028E-03     54.5233E-03    -19.9204E-03     35.4894E-03    -34.6142E-03     54.3939E-03    -19.8917E-03     35.4016E-03
            2255     11.4812E-03     10.9194E-03    -6.91226E+06    -49.1178E+06    -2.23048E+06     2.72458E+06    -31.7124E-03     50.6781E-03    -18.9657E-03     26.6040E-03    -31.6958E-03     50.4694E-03    -18.8956E-03     26.5636E-03
            2256     10.6082E-03     10.8871E-03    -7.51941E+06    -58.8505E+06     263.655E+03     3.51984E+06    -28.9889E-03     47.0445E-03    -18.0557E-03     20.3982E-03    -28.9541E-03     46.7736E-03    -17.9581E-03     20.3939E-03
            2257     9.73275E-03     10.8606E-03    -7.76429E+06    -67.1059E+06     2.12547E+06     3.89071E+06    -26.3103E-03     43.5200E-03    -17.2097E-03     15.6156E-03    -26.2617E-03     43.1996E-03    -17.0905E-03     15.6334E-03
            2258     8.85501E-03     10.8388E-03    -8.51922E+06    -73.1892E+06     3.86337E+06     3.79351E+06    -23.8113E-03     40.2539E-03    -16.4427E-03     11.8947E-03    -23.7571E-03     39.8986E-03    -16.3049E-03     11.9226E-03
            2259     7.97517E-03     10.8209E-03    -9.80577E+06    -78.5967E+06     4.42877E+06     4.00020E+06    -21.5560E-03     37.3128E-03    -15.7568E-03     9.03763E-03    -21.4996E-03     36.9298E-03    -15.6064E-03     9.07528E-03
            2260     7.09345E-03     10.8065E-03    -10.4610E+06    -80.4276E+06     3.76720E+06     3.92826E+06    -19.5791E-03     34.7262E-03    -15.1471E-03     6.85731E-03    -19.5215E-03     34.3350E-03    -14.9964E-03     6.89854E-03
            2261     6.21005E-03     10.7949E-03    -10.7064E+06    -80.2047E+06     1.68355E+06     3.05064E+06    -17.8937E-03     32.5070E-03    -14.6133E-03     5.21146E-03    -17.8341E-03     32.1198E-03    -14.4730E-03     5.24421E-03
            2262     5.32529E-03     10.7856E-03    -11.2609E+06    -80.4810E+06    -793.054E+03     1.71056E+06    -16.4929E-03     30.6541E-03    -14.1611E-03     3.99094E-03    -16.4319E-03     30.2696E-03    -14.0321E-03     4.00832E-03
            2263     4.43937E-03     10.7781E-03    -11.5217E+06    -80.2455E+06    -3.27231E+06     666.482E+03    -15.3606E-03     29.1455E-03    -13.7849E-03     3.05563E-03    -15.2974E-03     28.7660E-03    -13.6682E-03     3.06086E-03
            2264     3.55256E-03     10.7723E-03    -11.5303E+06    -79.3805E+06    -6.28667E+06     58.9098E+03    -14.4748E-03     27.9503E-03    -13.4755E-03     2.29928E-03    -14.4084E-03     27.5794E-03    -13.3752E-03     2.29761E-03
            2265     2.66505E-03     10.7678E-03    -11.7116E+06    -78.1593E+06    -8.66786E+06    -318.735E+03    -13.8029E-03     27.0369E-03    -13.2340E-03     1.66883E-03    -13.7357E-03     26.6757E-03    -13.1471E-03     1.66305E-03
            2266     1.77700E-03     10.7646E-03    -12.0513E+06    -77.5436E+06    -10.6892E+06    -352.542E+03    -13.3179E-03     26.3753E-03    -13.0574E-03     1.08286E-03    -13.2503E-03     26.0206E-03    -12.9809E-03     1.07726E-03
            2267     888.612E-06     10.7627E-03    -12.3165E+06    -77.2140E+06    -11.9511E+06    -203.889E+03    -13.0337E-03     25.9640E-03    -12.9304E-03     585.615E-06    -12.9659E-03     25.6133E-03    -12.8603E-03     582.427E-06
            2268     16.6774E-03     10.3919E-03    -3.65868E+06     143.959E+06     72.0141E+06     1.46696E+06    -55.0942E-03     80.4833E-03    -25.3890E-03     122.381E-03    -57.3963E-03     83.0753E-03    -25.2324E-03     122.155E-03
            2269     15.8215E-03     10.2200E-03    -6.50624E+06     112.765E+06     16.1689E+06     3.23103E+06    -51.4089E-03     75.1843E-03    -23.7754E-03     133.312E-03    -53.3598E-03     77.4664E-03    -23.8486E-03     132.696E-03
            2270     14.9588E-03     10.1177E-03    -8.08244E+06     63.0675E+06    -18.8326E+06     2.34350E+06    -44.5700E-03     66.9680E-03    -22.3980E-03     76.1062E-03    -45.0830E-03     67.7314E-03    -22.5719E-03     75.7183E-03
            2271     14.0948E-03     10.0573E-03    -7.63514E+06     16.9470E+06    -15.9283E+06     1.65212E+06    -40.8572E-03     62.1392E-03    -21.2820E-03     49.9839E-03    -41.0374E-03     62.3991E-03    -21.3752E-03     49.7510E-03
            2272     13.2306E-03     10.0028E-03    -7.24061E+06    -21.3535E+06    -12.7477E+06     2.04945E+06    -38.1042E-03     58.2870E-03    -20.1828E-03     40.7855E-03    -38.1709E-03     58.2896E-03    -20.2051E-03     40.6342E-03
            2273     12.3624E-03     9.95846E-03    -7.70657E+06    -39.1863E+06    -6.50114E+06     2.61051E+06    -34.6837E-03     53.7971E-03    -19.1134E-03     30.8116E-03    -34.6954E-03     53.6616E-03    -19.0779E-03     30.7344E-03
            2274     11.4916E-03     9.92292E-03    -8.39223E+06    -49.1836E+06    -1.16926E+06     2.87804E+06    -31.3201E-03     49.4249E-03    -18.1048E-03     22.8302E-03    -31.3087E-03     49.2128E-03    -18.0271E-03     22.7978E-03
            2275     10.6181E-03     9.89461E-03    -8.60085E+06    -58.8367E+06     1.42043E+06     2.81400E+06    -28.2267E-03     45.3943E-03    -17.1677E-03     17.1847E-03    -28.1970E-03     45.1214E-03    -17.0628E-03     17.1760E-03
            2276     9.74183E-03     9.87165E-03    -8.75921E+06    -66.8616E+06     3.65751E+06     2.97466E+06    -25.2889E-03     41.6101E-03    -16.3213E-03     13.1854E-03    -25.2468E-03     41.2892E-03    -16.1933E-03     13.1948E-03
            2277     8.86313E-03     9.85309E-03    -9.41136E+06    -73.1222E+06     5.72081E+06     3.56491E+06    -22.6501E-03     38.2247E-03    -15.5747E-03     10.1756E-03    -22.6027E-03     37.8679E-03    -15.4264E-03     10.2026E-03
            2278     7.98220E-03     9.83826E-03    -10.4272E+06    -77.5803E+06     6.31027E+06     3.26956E+06    -20.3479E-03     35.2689E-03    -14.9210E-03     7.98735E-03    -20.2987E-03     34.8890E-03    -14.7618E-03     8.01683E-03
            2279     7.09936E-03     9.82628E-03    -11.1566E+06    -79.1670E+06     4.73147E+06     2.09532E+06    -18.4089E-03     32.7585E-03    -14.3496E-03     6.40786E-03    -18.3579E-03     32.3732E-03    -14.1950E-03     6.42610E-03
            2280     6.21499E-03     9.81678E-03    -11.4739E+06    -78.8329E+06     2.87502E+06     1.27003E+06    -16.8213E-03     30.6840E-03    -13.8627E-03     5.20574E-03    -16.7693E-03     30.3031E-03    -13.7174E-03     5.21582E-03
            2281     5.32930E-03     9.80916E-03    -11.9195E+06    -78.9483E+06     49.0447E+03     429.366E+03    -15.5439E-03     28.9947E-03    -13.4508E-03     4.28320E-03    -15.4896E-03     28.6177E-03    -13.3188E-03     4.28413E-03
            2282     4.44259E-03     9.80315E-03    -12.9988E+06    -79.5212E+06    -4.80811E+06    -462.516E+03    -14.5294E-03     27.6294E-03    -13.1000E-03     3.52457E-03    -14.4724E-03     27.2579E-03    -12.9899E-03     3.51521E-03
            2283     3.55505E-03     9.79838E-03    -14.0245E+06    -79.1317E+06    -9.06092E+06    -894.867E+03    -13.7301E-03     26.5430E-03    -12.8129E-03     2.84598E-03    -13.6726E-03     26.1810E-03    -12.7231E-03     2.83197E-03
            2284     2.66687E-03     9.79482E-03    -14.7333E+06    -78.4126E+06    -11.7839E+06    -886.887E+03    -13.1167E-03     25.7064E-03    -12.5897E-03     2.17943E-03    -13.0597E-03     25.3529E-03    -12.5136E-03     2.16627E-03
            2285     1.77822E-03     9.79223E-03    -15.2973E+06    -78.0618E+06    -13.8402E+06    -656.599E+03    -12.6722E-03     25.0968E-03    -12.4246E-03     1.47674E-03    -12.6154E-03     24.7487E-03    -12.3584E-03     1.46716E-03
            2286     889.208E-06     9.79079E-03    -15.5633E+06    -77.7583E+06    -15.1549E+06    -351.866E+03    -12.4009E-03     24.7050E-03    -12.3042E-03     826.263E-06    -12.3439E-03     24.3609E-03    -12.2446E-03     821.142E-06
            2287     16.6729E-03     9.35762E-03    -4.69480E+06     141.425E+06     70.8875E+06     834.040E+03    -58.5489E-03     83.7903E-03    -25.2414E-03     117.254E-03    -60.7266E-03     86.2484E-03    -25.0852E-03     116.807E-03
            2288     15.8236E-03     9.20165E-03    -7.37714E+06     112.071E+06     19.0004E+06     2.79939E+06    -54.5711E-03     78.0082E-03    -23.4371E-03     124.307E-03    -56.3709E-03     80.1258E-03    -23.4939E-03     123.553E-03
            2289     14.9671E-03     9.10534E-03    -7.37951E+06     65.4283E+06    -13.8695E+06     3.53695E+06    -46.3695E-03     68.2522E-03    -21.8827E-03     69.7263E-03    -46.8378E-03     68.9676E-03    -22.0362E-03     69.3440E-03
            2290     14.1057E-03     9.04876E-03    -7.98804E+06     17.8073E+06    -15.1902E+06     2.67342E+06    -41.7714E-03     62.3957E-03    -20.6243E-03     45.2879E-03    -41.9389E-03     62.6426E-03    -20.7144E-03     45.0733E-03
            2291     13.2403E-03     8.99834E-03    -8.46263E+06    -21.7207E+06    -12.7367E+06     2.60573E+06    -38.2797E-03     57.7194E-03    -19.4397E-03     36.1313E-03    -38.3411E-03     57.7111E-03    -19.4597E-03     35.9964E-03
            2292     12.3727E-03     8.95920E-03    -8.51617E+06    -38.7714E+06    -4.81486E+06     2.95984E+06    -34.2504E-03     52.5798E-03    -18.3293E-03     26.6977E-03    -34.2633E-03     52.4392E-03    -18.2848E-03     26.6337E-03
            2293     11.5013E-03     8.92801E-03    -8.75800E+06    -48.3409E+06     985.794E+03     2.45800E+06    -30.3757E-03     47.6873E-03    -17.3116E-03     19.8398E-03    -30.3675E-03     47.4739E-03    -17.2239E-03     19.8092E-03
            2294     10.6267E-03     8.90390E-03    -8.94572E+06    -58.2961E+06     3.36235E+06     1.92239E+06    -26.9243E-03     43.3241E-03    -16.3997E-03     15.0688E-03    -26.8986E-03     43.0501E-03    -16.2854E-03     15.0537E-03
            2295     9.74924E-03     8.88470E-03    -9.48993E+06    -67.2051E+06     5.80928E+06     2.09707E+06    -23.8632E-03     39.4726E-03    -15.6094E-03     11.9284E-03    -23.8269E-03     39.1473E-03    -15.4692E-03     11.9297E-03
            2296     8.86920E-03     8.86955E-03    -9.93275E+06    -73.0279E+06      7.2236E+06     2.35292E+06    -21.1960E-03     36.1266E-03    -14.9307E-03     9.74763E-03    -21.1533E-03     35.7687E-03    -14.7743E-03     9.76101E-03
            2297     7.98700E-03     8.85748E-03    -10.1385E+06    -76.0634E+06     7.30593E+06     1.87441E+06    -18.9809E-03     33.3373E-03    -14.3564E-03     8.25505E-03    -18.9339E-03     32.9631E-03    -14.1949E-03     8.26767E-03
            2298     7.10299E-03     8.84796E-03    -10.8765E+06    -77.6108E+06     5.91132E+06     728.471E+03    -17.2008E-03     31.0779E-03    -13.8771E-03     7.22430E-03    -17.1525E-03     30.6984E-03    -13.7192E-03     7.22554E-03
            2299     6.21754E-03     8.84024E-03    -11.9757E+06    -78.0059E+06     3.30217E+06    -432.156E+03    -15.8189E-03     29.2982E-03    -13.4792E-03     6.40129E-03    -15.7713E-03     28.9216E-03    -13.3323E-03     6.38977E-03
            2300     5.33103E-03     8.83421E-03    -13.0393E+06    -78.4831E+06    -427.777E+03    -794.038E+03    -14.7674E-03     27.9158E-03    -13.1484E-03     5.65632E-03    -14.7187E-03     27.5435E-03    -13.0179E-03     5.64167E-03
            2301     4.44369E-03     8.82931E-03    -14.1079E+06    -79.1095E+06    -5.84011E+06    -914.189E+03    -13.9563E-03     26.8257E-03    -12.8694E-03     4.90682E-03    -13.9040E-03     26.4594E-03    -12.7634E-03     4.89176E-03
            2302     3.55569E-03     8.82560E-03    -15.2827E+06    -79.2476E+06    -10.2332E+06    -1.21357E+06    -13.3288E-03     25.9758E-03    -12.6471E-03     4.13575E-03    -13.2756E-03     25.6168E-03    -12.5612E-03     4.11774E-03
            2303     2.66721E-03     8.82265E-03    -16.1825E+06    -79.0144E+06    -12.9951E+06    -1.29562E+06    -12.8592E-03     25.3382E-03    -12.4790E-03     3.25504E-03    -12.8068E-03     24.9856E-03    -12.4059E-03     3.23670E-03
            2304     1.77833E-03     8.82073E-03    -16.6256E+06    -78.9340E+06    -15.0673E+06    -1.06109E+06    -12.5283E-03     24.8862E-03    -12.3579E-03     2.25365E-03    -12.4752E-03     24.5375E-03    -12.2947E-03     2.23893E-03
            2305     889.231E-06     8.81948E-03    -16.8322E+06    -78.7332E+06    -16.2244E+06    -615.712E+03    -12.3328E-03     24.6110E-03    -12.2782E-03     1.26578E-03    -12.2792E-03     24.2654E-03    -12.2207E-03     1.25730E-03
            2306     16.6823E-03     8.32743E-03    -3.93786E+06     140.028E+06     70.9039E+06     1.34835E+06    -62.0530E-03     87.0794E-03    -25.0264E-03     109.205E-03    -64.0376E-03     89.3425E-03    -24.8692E-03     108.567E-03
            2307     15.8320E-03     8.17668E-03    -7.55940E+06     110.198E+06     20.1525E+06     2.48580E+06    -56.5277E-03     79.5705E-03    -23.0428E-03     111.654E-03    -58.1102E-03     81.4604E-03    -23.0909E-03     110.817E-03
            2308     14.9764E-03     8.09267E-03    -8.64825E+06     65.3957E+06    -11.3826E+06     3.76181E+06    -47.7238E-03     69.0750E-03    -21.3512E-03     62.4424E-03    -48.1482E-03     69.7348E-03    -21.4904E-03     62.0648E-03
            2309     14.1142E-03     8.03967E-03    -8.99312E+06     19.4134E+06    -13.4733E+06     4.31919E+06    -42.2663E-03     62.2534E-03    -19.9871E-03     41.1041E-03    -42.4273E-03     62.4911E-03    -20.0696E-03     40.9210E-03
            2310     13.2504E-03     7.99519E-03    -9.84786E+06    -20.5858E+06    -11.1193E+06     3.28804E+06    -37.7618E-03     56.5201E-03    -18.7583E-03     31.7786E-03    -37.8236E-03     56.5067E-03    -18.7698E-03     31.6660E-03
            2311     12.3814E-03     7.96093E-03    -10.0639E+06    -38.0358E+06    -2.89038E+06     2.24611E+06    -33.0323E-03     50.6926E-03    -17.6603E-03     23.4308E-03    -33.0516E-03     50.5500E-03    -17.6050E-03     23.3687E-03
            2312     11.5090E-03     7.93530E-03    -9.71557E+06    -46.8993E+06     3.76208E+06     1.41867E+06    -28.7599E-03     45.4600E-03    -16.7002E-03     17.9331E-03    -28.7603E-03     45.2489E-03    -16.5993E-03     17.8969E-03
            2313     10.6328E-03     7.91522E-03    -9.81592E+06    -57.8612E+06     6.24386E+06     791.933E+03    -25.1138E-03     40.9943E-03    -15.8804E-03     14.4290E-03    -25.0963E-03     40.7186E-03    -15.7511E-03     14.4047E-03
            2314     9.75371E-03     7.90003E-03    -9.81385E+06    -67.3078E+06     8.84212E+06     686.023E+03    -22.0758E-03     37.2819E-03    -15.2060E-03     12.2296E-03    -22.0451E-03     36.9518E-03    -15.0500E-03     12.2160E-03
            2315     8.87211E-03     7.88793E-03    -9.90086E+06    -72.5602E+06     10.3993E+06     423.548E+03    -19.5628E-03     34.2191E-03    -14.6563E-03     10.8743E-03    -19.5253E-03     33.8587E-03    -14.4847E-03     10.8649E-03
            2316     7.98844E-03     7.87860E-03    -10.2545E+06    -75.2799E+06     9.15477E+06     20.6335E+03    -17.6052E-03     31.8157E-03    -14.2105E-03     9.99309E-03    -17.5626E-03     31.4430E-03    -14.0407E-03     9.98305E-03
            2317     7.10325E-03     7.87091E-03    -10.8231E+06    -76.3094E+06     6.92674E+06    -632.596E+03    -16.1412E-03     30.0004E-03    -13.8592E-03     9.29037E-03    -16.0960E-03     29.6258E-03    -13.6982E-03     9.27483E-03
            2318     6.21695E-03     7.86489E-03    -11.9494E+06    -77.3586E+06     3.65263E+06    -1.43572E+06    -15.0790E-03     28.6636E-03    -13.5846E-03     8.59963E-03    -15.0327E-03     28.2897E-03    -13.4369E-03     8.57573E-03
            2319     5.32983E-03     7.85980E-03    -13.2836E+06    -78.7556E+06    -1.00019E+06    -1.86293E+06    -14.3358E-03     27.7017E-03    -13.3660E-03     7.77531E-03    -14.2871E-03     27.3292E-03    -13.2375E-03     7.74730E-03
            2320     4.44219E-03     7.85593E-03    -14.1776E+06    -79.3935E+06    -5.69667E+06    -1.77473E+06    -13.8035E-03     26.9958E-03    -13.1923E-03     6.80244E-03    -13.7514E-03     26.6280E-03    -13.0851E-03     6.77662E-03
            2321     3.55413E-03     7.85274E-03    -14.7061E+06    -79.4516E+06    -9.11628E+06    -1.73282E+06    -13.4180E-03     26.4797E-03    -13.0617E-03     5.72767E-03    -13.3633E-03     26.1172E-03    -12.9707E-03     5.70325E-03
            2322     2.66579E-03     7.85040E-03    -15.2117E+06    -79.7165E+06    -11.9383E+06    -1.80703E+06    -13.1481E-03     26.1150E-03    -12.9669E-03     4.48173E-03    -13.0914E-03     25.7558E-03    -12.8889E-03     4.45701E-03
            2323     1.77729E-03     7.84869E-03    -15.6090E+06    -80.1900E+06    -14.1799E+06    -1.52876E+06    -12.9789E-03     25.8813E-03    -12.9024E-03     3.09681E-03    -12.9202E-03     25.5236E-03    -12.8344E-03     3.07620E-03
            2324     888.667E-06     7.84776E-03    -15.8215E+06    -80.3153E+06    -15.3547E+06    -927.943E+03    -12.8865E-03     25.7492E-03    -12.8627E-03     1.70726E-03    -12.8269E-03     25.3930E-03    -12.8001E-03     1.69482E-03
            2325     16.6837E-03     7.28790E-03    -4.04525E+06     138.437E+06     72.3488E+06     1.52485E+06    -65.7030E-03     90.5112E-03    -24.8082E-03     104.487E-03    -67.5320E-03     92.6087E-03    -24.6413E-03     103.683E-03
            2326     15.8393E-03     7.15408E-03    -6.57187E+06     108.413E+06     22.9387E+06     4.36055E+06    -58.3180E-03     80.9749E-03    -22.6569E-03     101.036E-03    -59.6811E-03     82.6351E-03    -22.6898E-03     100.181E-03
            2327     14.9829E-03     7.07807E-03    -9.46355E+06     65.1251E+06    -9.32007E+06     5.53782E+06    -48.1666E-03     69.0274E-03    -20.8608E-03     55.7826E-03    -48.5428E-03     69.6293E-03    -20.9881E-03     55.4518E-03
            2328     14.1236E-03     7.03100E-03    -11.5490E+06     21.6341E+06    -10.7586E+06     5.40761E+06    -41.9190E-03     61.3778E-03    -19.4588E-03     36.8141E-03    -42.0829E-03     61.6095E-03    -19.5272E-03     36.6646E-03
            2329     13.2579E-03     6.99311E-03    -12.5550E+06    -17.9748E+06    -7.81564E+06     3.77655E+06    -36.3370E-03     54.5895E-03    -18.2525E-03     28.5284E-03    -36.4114E-03     54.5788E-03    -18.2473E-03     28.4406E-03
            2330     12.3878E-03     6.96539E-03    -12.9309E+06    -35.7252E+06     250.050E+03     1.07717E+06    -30.9571E-03     48.1966E-03    -17.2395E-03     21.8792E-03    -30.9944E-03     48.0609E-03    -17.1677E-03     21.8155E-03
            2331     11.5130E-03     6.94455E-03    -12.5622E+06    -45.8994E+06     6.34497E+06    -760.013E+03    -26.4764E-03     42.8871E-03    -16.4108E-03     17.9700E-03    -26.4946E-03     42.6797E-03    -16.2943E-03     17.9145E-03
            2332     10.6348E-03     6.92928E-03    -11.6090E+06    -57.5619E+06     9.27365E+06    -1.34542E+06    -22.9357E-03     38.6878E-03    -15.7521E-03     15.7607E-03    -22.9312E-03     38.4111E-03    -15.6054E-03     15.7144E-03
            2333     9.75372E-03     6.91717E-03    -11.0649E+06    -67.1947E+06     11.3879E+06    -1.70356E+06    -20.1546E-03     35.4016E-03    -15.2470E-03     14.4005E-03    -20.1336E-03     35.0700E-03    -15.0766E-03     14.3597E-03
            2334     8.87044E-03     6.90824E-03    -10.9599E+06    -72.4108E+06     12.9073E+06    -1.82799E+06    -18.0553E-03     32.9251E-03    -14.8697E-03     13.5779E-03    -18.0268E-03     32.5633E-03    -14.6843E-03     13.5416E-03
            2335     7.98552E-03     6.90065E-03    -11.1545E+06    -74.8625E+06     10.9953E+06    -2.19248E+06    -16.5629E-03     31.1453E-03    -14.5824E-03     12.9182E-03    -16.5280E-03     30.7732E-03    -14.4027E-03     12.8810E-03
            2336     7.09954E-03     6.89470E-03    -11.3647E+06    -75.9873E+06     7.19541E+06    -2.61528E+06    -15.5547E-03     29.9231E-03    -14.3684E-03     12.1392E-03    -15.5131E-03     29.5505E-03    -14.2058E-03     12.0991E-03
            2337     6.21279E-03     6.88946E-03    -11.6410E+06    -77.2450E+06     3.74618E+06    -2.80426E+06    -14.8979E-03     29.1162E-03    -14.2182E-03     11.1735E-03    -14.8504E-03     28.7422E-03    -14.0706E-03     11.1327E-03
            2338     5.32566E-03     6.88524E-03    -12.1276E+06    -79.0396E+06    -659.859E+03    -3.03816E+06    -14.4812E-03     28.5895E-03    -14.1083E-03     9.95395E-03    -14.4268E-03     28.2134E-03    -13.9794E-03     9.91138E-03
            2339     4.43821E-03     6.88168E-03    -12.4262E+06    -80.1115E+06    -4.38825E+06    -3.21554E+06    -14.2282E-03     28.2589E-03    -14.0308E-03     8.55309E-03    -14.1681E-03     27.8830E-03    -13.9185E-03     8.50915E-03
            2340     3.55068E-03     6.87893E-03    -12.3667E+06    -80.2866E+06    -6.73077E+06    -3.01411E+06    -14.0718E-03     28.0509E-03    -13.9791E-03     7.04509E-03    -14.0077E-03     27.6773E-03    -13.8784E-03     7.00447E-03
            2341     2.66303E-03     6.87671E-03    -12.4109E+06    -80.9121E+06    -9.30282E+06    -2.47691E+06    -13.9783E-03     27.9208E-03    -13.9425E-03     5.39989E-03    -13.9097E-03     27.5478E-03    -13.8537E-03     5.36676E-03
            2342     1.77535E-03     6.87520E-03    -12.7346E+06     -81.842E+06    -11.5850E+06    -1.79710E+06    -13.9314E-03     27.8505E-03    -13.9191E-03     3.68182E-03    -13.8597E-03     27.4766E-03    -13.8399E-03     3.65789E-03
            2343     887.680E-06     6.87421E-03    -13.0323E+06    -82.2664E+06    -12.7526E+06    -1.03696E+06    -13.9091E-03     27.8177E-03    -13.9086E-03     2.01553E-03    -13.8365E-03     27.4438E-03    -13.8342E-03     2.00176E-03
            2344     16.6870E-03     6.24314E-03    -5.15126E+06     134.596E+06     71.6813E+06     1.60982E+06    -68.1428E-03     92.7951E-03    -24.6523E-03     97.6617E-03    -69.8036E-03     94.7088E-03    -24.4816E-03     96.7395E-03
            2345     15.8439E-03     6.12847E-03    -9.13721E+06     104.306E+06     26.1222E+06     4.86585E+06    -59.7140E-03     82.1028E-03    -22.3888E-03     87.5876E-03    -60.8718E-03     83.5252E-03    -22.3962E-03     86.7321E-03
            2346     14.9910E-03     6.06376E-03    -11.3042E+06     65.5671E+06    -3.81015E+06     8.36906E+06    -47.8422E-03     68.3740E-03    -20.5318E-03     49.3458E-03    -48.1848E-03     68.9218E-03    -20.6296E-03     49.0886E-03
            2347     14.1282E-03     6.02363E-03    -14.7198E+06     24.3774E+06    -8.47267E+06     7.99678E+06    -39.9561E-03     59.1125E-03    -19.1563E-03     34.1624E-03    -40.1267E-03     59.3426E-03    -19.2127E-03     34.0794E-03
            2348     13.2614E-03     5.99354E-03    -16.7806E+06    -12.8063E+06    -4.45220E+06     3.69237E+06    -33.7757E-03     51.8553E-03    -18.0796E-03     27.5378E-03    -33.8754E-03     51.8635E-03    -18.0589E-03     27.4727E-03
            2349     12.3886E-03     5.97210E-03    -16.6959E+06    -31.9415E+06     3.40719E+06    -1.02246E+06    -28.2374E-03     45.4759E-03    -17.2385E-03     22.7948E-03    -28.3002E-03     45.3565E-03    -17.1509E-03     22.7187E-03
            2350     11.5114E-03     5.95694E-03    -15.6823E+06    -44.9640E+06     8.73603E+06    -3.73513E+06    -23.9396E-03     40.5466E-03    -16.6069E-03     20.5105E-03    -23.9768E-03     40.3434E-03    -16.4753E-03     20.4255E-03
            2351     10.6309E-03     5.94491E-03    -14.8677E+06    -57.4936E+06     11.3217E+06    -4.62370E+06    -20.8590E-03     37.0112E-03    -16.1523E-03     19.0745E-03    -20.8732E-03     36.7359E-03    -15.9907E-03     18.9914E-03
            2352     9.74804E-03     5.93634E-03    -13.9401E+06    -67.3906E+06     12.6599E+06    -4.91241E+06    -18.6687E-03     34.5055E-03    -15.8368E-03     18.0063E-03    -18.6633E-03     34.1747E-03    -15.6555E-03     17.9275E-03
            2353     8.86351E-03     5.92893E-03    -12.9799E+06    -72.7408E+06     12.7117E+06    -5.09194E+06    -17.2228E-03     32.8443E-03    -15.6215E-03     17.1131E-03    -17.2034E-03     32.4837E-03    -15.4337E-03     17.0369E-03
            2354     7.97809E-03     5.92309E-03    -12.0851E+06    -75.0102E+06     10.6746E+06    -5.19349E+06    -16.3334E-03     31.8045E-03    -15.4711E-03     16.0448E-03    -16.3023E-03     31.4332E-03    -15.2914E-03     15.9704E-03
            2355     7.09200E-03     5.91765E-03    -11.4794E+06    -76.4453E+06     6.73695E+06    -5.26614E+06    -15.8029E-03     31.1662E-03    -15.3633E-03     14.7146E-03    -15.7603E-03     30.7919E-03    -15.2022E-03     14.6413E-03
            2356     6.20574E-03     5.91314E-03    -10.9941E+06    -78.0856E+06     2.87420E+06    -5.10383E+06    -15.4940E-03     30.7853E-03    -15.2913E-03     13.1465E-03    -15.4407E-03     30.4073E-03    -15.1478E-03     13.0768E-03
            2357     5.31922E-03     5.90906E-03    -10.5004E+06    -79.6744E+06    -756.862E+03    -4.85982E+06    -15.3199E-03     30.5632E-03    -15.2433E-03     11.3914E-03    -15.2563E-03     30.1815E-03    -15.1163E-03     11.3258E-03
            2358     4.43271E-03     5.90578E-03    -10.2089E+06    -81.1022E+06    -3.96593E+06    -4.74442E+06    -15.2341E-03     30.4460E-03    -15.2118E-03     9.54042E-03    -15.1622E-03     30.0612E-03    -15.0993E-03     9.47715E-03
            2359     3.54612E-03     5.90300E-03    -10.2774E+06    -82.0618E+06    -6.23329E+06    -4.23006E+06    -15.1950E-03     30.3879E-03    -15.1929E-03     7.66934E-03    -15.1186E-03     30.0016E-03    -15.0902E-03     7.61330E-03
            2360     2.65960E-03     5.90089E-03    -10.4967E+06    -83.0224E+06    -8.25014E+06    -3.14070E+06    -15.1788E-03     30.3579E-03    -15.1791E-03     5.76784E-03    -15.0991E-03     29.9700E-03    -15.0848E-03     5.72630E-03
            2361     1.77307E-03     5.89934E-03    -10.7185E+06    -83.8642E+06    -9.82358E+06    -1.95065E+06    -15.1687E-03     30.3383E-03    -15.1696E-03     3.87640E-03    -15.0865E-03     29.9487E-03    -15.0816E-03     3.85057E-03
            2362     886.528E-06     5.89841E-03    -10.8502E+06    -84.3065E+06    -10.7655E+06    -1.02082E+06    -15.1408E-03     30.3290E-03    -15.1881E-03     2.10727E-03    -15.0572E-03     29.9389E-03    -15.1040E-03     2.09376E-03
            2363     16.6894E-03     5.19846E-03    -4.52169E+06     131.799E+06     74.0845E+06     3.29049E+06    -69.5261E-03     94.0933E-03    -24.5672E-03     91.5312E-03    -71.0007E-03     95.8064E-03    -24.3814E-03     90.5792E-03
            2364     15.8473E-03     5.10001E-03    -10.8835E+06     98.7601E+06     30.9289E+06     7.54200E+06    -58.8778E-03     81.1671E-03    -22.2893E-03     74.3806E-03    -59.8222E-03     82.3366E-03    -22.2620E-03     73.6395E-03
            2365     14.9920E-03     5.05091E-03    -16.6318E+06     62.8199E+06    -540.603E+03     11.6214E+06    -45.4113E-03     65.9094E-03    -20.4981E-03     43.8866E-03    -45.7318E-03     66.3970E-03    -20.5678E-03     43.7352E-03
            2366     14.1283E-03     5.01975E-03    -19.6031E+06     31.0181E+06    -6.01059E+06     10.2718E+06    -36.5650E-03     55.8395E-03    -19.2745E-03     34.2477E-03    -36.7592E-03     56.0926E-03    -19.3211E-03     34.2330E-03
            2367     13.2573E-03     4.99634E-03    -20.3173E+06    -4.25601E+06    -1.66062E+06     2.31198E+06    -30.3613E-03     48.7837E-03    -18.4224E-03     29.4544E-03    -30.4879E-03     48.8286E-03    -18.3951E-03     29.3969E-03
            2368     12.3817E-03     4.98204E-03    -19.3456E+06    -28.1200E+06     5.55778E+06    -4.33320E+06    -25.4798E-03     43.3015E-03    -17.8217E-03     26.2150E-03    -25.5611E-03     43.1986E-03    -17.7251E-03     26.1099E-03
            2369     11.5021E-03     4.97063E-03    -18.5053E+06    -43.9214E+06     9.37583E+06    -6.87618E+06    -22.0097E-03     39.4152E-03    -17.4055E-03     24.7993E-03    -22.0618E-03     39.2187E-03    -17.2681E-03     24.6815E-03
            2370     10.6201E-03     4.96222E-03    -17.7190E+06    -57.4714E+06     11.0492E+06    -8.25823E+06    -19.7557E-03     36.8907E-03    -17.1350E-03     23.2803E-03    -19.7828E-03     36.6189E-03    -16.9707E-03     23.1551E-03
            2371     9.73641E-03     4.95510E-03    -16.3677E+06    -67.7076E+06     11.2319E+06    -9.17145E+06    -18.3941E-03     35.3544E-03    -16.9603E-03     21.6781E-03    -18.3976E-03     35.0268E-03    -16.7822E-03     21.5473E-03
            2372     8.85203E-03     4.94930E-03    -14.3365E+06    -73.6058E+06     10.7601E+06    -9.64701E+06    -17.6393E-03     34.4826E-03    -16.8434E-03     20.0069E-03    -17.6221E-03     34.1219E-03    -16.6620E-03     19.8738E-03
            2373     7.96713E-03     4.94366E-03    -12.2042E+06    -76.3641E+06     8.50668E+06    -9.31945E+06    -17.2338E-03     33.9854E-03    -16.7516E-03     18.0606E-03    -17.1979E-03     33.6102E-03    -16.5806E-03     17.9342E-03
            2374     7.08225E-03     4.93889E-03    -10.5150E+06    -78.0057E+06     4.57893E+06    -8.43706E+06    -16.9901E-03     33.6625E-03    -16.6724E-03     15.9700E-03    -16.9372E-03     33.2818E-03    -16.5211E-03     15.8567E-03
            2375     6.19706E-03     4.93437E-03    -9.54191E+06    -79.7634E+06     749.239E+03    -7.55912E+06    -16.8234E-03     33.4325E-03    -16.6090E-03     13.8320E-03    -16.7572E-03     33.0468E-03    -16.4758E-03     13.7312E-03
            2376     5.31195E-03     4.93059E-03    -9.08533E+06    -81.3731E+06    -2.63780E+06    -6.68241E+06    -16.7085E-03     33.2669E-03    -16.5584E-03     11.6779E-03    -16.6325E-03     32.8773E-03    -16.4405E-03     11.5893E-03
            2377     4.42666E-03     4.92726E-03    -9.12598E+06    -82.9897E+06    -5.59058E+06    -5.60671E+06    -16.6254E-03     33.1430E-03    -16.5177E-03     9.57099E-03    -16.5428E-03     32.7495E-03    -16.4121E-03     9.49688E-03
            2378     3.54143E-03     4.92460E-03    -9.66305E+06    -84.4306E+06    -7.87052E+06    -4.44618E+06    -16.5593E-03     33.0454E-03    -16.4861E-03     7.55210E-03    -16.4739E-03     32.6487E-03    -16.3890E-03     7.49345E-03
            2379     2.65608E-03     4.92246E-03    -10.3296E+06    -85.5668E+06    -9.46825E+06    -3.26449E+06    -16.5065E-03     32.9688E-03    -16.4623E-03     5.61228E-03    -16.4205E-03     32.5697E-03    -16.3706E-03     5.56926E-03
            2380     1.77076E-03     4.92097E-03    -10.6758E+06    -86.1782E+06    -10.3405E+06    -2.07771E+06    -16.4690E-03     32.9138E-03    -16.4448E-03     3.74165E-03    -16.3825E-03     32.5133E-03    -16.3561E-03     3.71427E-03
            2381     885.380E-06     4.92007E-03    -10.7607E+06    -86.3853E+06    -10.6847E+06    -1.03940E+06    -16.4349E-03     32.8740E-03    -16.4390E-03     2.00498E-03    -16.3480E-03     32.4732E-03    -16.3516E-03     1.99127E-03
            2382     16.6895E-03     4.14998E-03    -6.41800E+06     126.167E+06     73.2297E+06     5.27911E+06    -69.1522E-03     93.8127E-03    -24.6606E-03     85.3590E-03    -70.4196E-03     95.2954E-03    -24.4681E-03     84.4562E-03
            2383     15.8462E-03     4.07481E-03    -12.5739E+06     91.9755E+06     39.1508E+06     12.2617E+06    -55.0263E-03     77.5652E-03    -22.5389E-03     62.9618E-03    -55.7706E-03     78.4809E-03    -22.4583E-03     62.4421E-03
            2384     14.9871E-03     4.04157E-03    -17.9636E+06     61.9006E+06     11.9962E+06     15.4690E+06    -40.6932E-03     61.6984E-03    -21.0052E-03     41.3586E-03    -40.9942E-03     62.1222E-03    -21.0090E-03     41.3360E-03
            2385     14.1179E-03     4.01882E-03    -19.6399E+06     41.1778E+06     1.48633E+06     9.55690E+06    -32.3990E-03     52.4305E-03    -20.0315E-03     37.7769E-03    -32.6073E-03     52.7118E-03    -20.0553E-03     37.7904E-03
            2386     13.2440E-03     4.00290E-03    -18.9263E+06     6.32035E+06     273.365E+03    -492.610E+03    -27.4441E-03     46.8684E-03    -19.4243E-03     34.0246E-03    -27.5747E-03     46.9539E-03    -19.4047E-03     33.9532E-03
            2387     12.3657E-03     3.99268E-03    -18.3568E+06    -25.4407E+06     4.23173E+06    -6.96393E+06    -23.9723E-03     43.0134E-03    -19.0411E-03     30.7921E-03    -24.0469E-03     42.9204E-03    -18.9564E-03     30.6647E-03
            2388     11.4853E-03     3.98503E-03    -18.0562E+06    -42.6989E+06     6.04558E+06     -9.7271E+06    -21.7699E-03     40.5429E-03    -18.7730E-03     28.7670E-03    -21.8147E-03     40.3544E-03    -18.6547E-03     28.6185E-03
            2389     10.6033E-03     3.97798E-03    -17.0648E+06    -56.9365E+06     5.55761E+06    -12.0019E+06    -20.4773E-03     39.0604E-03    -18.5831E-03     26.2380E-03    -20.4926E-03     38.7967E-03    -18.4480E-03     26.0682E-03
            2390     9.72087E-03     3.97234E-03    -15.0828E+06    -67.9690E+06     4.66916E+06    -13.7795E+06    -19.7968E-03     38.2353E-03    -18.4385E-03     23.5532E-03    -19.7832E-03     37.9130E-03    -18.2947E-03     23.3652E-03
            2391     8.83796E-03     3.96661E-03    -12.7763E+06    -75.1218E+06     4.39259E+06    -14.3762E+06    -19.4150E-03     37.7305E-03    -18.3156E-03     20.8772E-03    -19.3780E-03     37.3685E-03    -18.1661E-03     20.6845E-03
            2392     7.95509E-03     3.96164E-03    -10.7298E+06    -79.2922E+06     2.89853E+06    -13.4517E+06    -19.1165E-03     37.3110E-03    -18.1945E-03     18.1729E-03    -19.0605E-03     36.9267E-03    -18.0494E-03     17.9943E-03
            2393     7.07175E-03     3.95688E-03    -9.15368E+06    -81.1967E+06    -399.077E+03    -11.4676E+06    -18.8472E-03     36.9177E-03    -18.0705E-03     15.5827E-03    -18.7754E-03     36.5260E-03    -17.9415E-03     15.4310E-03
            2394     6.18845E-03     3.95282E-03    -8.20134E+06    -82.6995E+06    -3.17720E+06    -9.33515E+06    -18.5906E-03     36.5490E-03    -17.9584E-03     13.1527E-03    -18.5076E-03     36.1523E-03    -17.8424E-03     13.0295E-03
            2395     5.30475E-03     3.94910E-03    -8.18485E+06    -84.3333E+06    -5.80330E+06    -7.29411E+06    -18.3465E-03     36.2053E-03    -17.8588E-03     10.8733E-03    -18.2571E-03     35.8041E-03    -17.7536E-03     10.7772E-03
            2396     4.42102E-03     3.94606E-03    -8.86046E+06    -85.8201E+06    -7.87194E+06    -5.41839E+06    -18.1263E-03     35.9007E-03    -17.7744E-03     8.76731E-03    -18.0349E-03     35.4959E-03    -17.6765E-03     8.69590E-03
            2397     3.53698E-03     3.94350E-03    -9.67041E+06    -86.9645E+06    -9.39104E+06    -3.86306E+06    -17.9376E-03     35.6427E-03    -17.7051E-03     6.83367E-03    -17.8463E-03     35.2355E-03    -17.6119E-03     6.78274E-03
            2398     2.65290E-03     3.94155E-03    -10.3762E+06    -87.8425E+06    -10.6174E+06    -2.69734E+06    -17.7849E-03     35.4351E-03    -17.6503E-03     5.02585E-03    -17.6940E-03     35.0263E-03    -17.5609E-03     4.99028E-03
            2399     1.76863E-03     3.94013E-03    -10.9372E+06    -88.3376E+06    -11.2493E+06    -1.80849E+06    -17.6754E-03     35.2867E-03    -17.6113E-03     3.33225E-03    -17.5857E-03     34.8771E-03    -17.5236E-03     3.30842E-03
            2400     884.364E-06     3.93925E-03    -11.2472E+06    -88.4272E+06    -11.2930E+06    -1.03696E+06    -17.6169E-03     35.1931E-03    -17.5762E-03     1.78822E-03    -17.5285E-03     34.7837E-03    -17.4881E-03     1.77457E-03
            2401     16.6851E-03     3.10697E-03    -6.88273E+06     117.130E+06     68.0149E+06     9.16453E+06    -65.7651E-03     90.9757E-03    -25.2105E-03     82.5557E-03    -66.7981E-03     92.2060E-03    -25.0303E-03     81.8237E-03
            2402     15.8344E-03     3.05308E-03    -13.0486E+06     85.9368E+06     44.9618E+06     14.7221E+06    -49.1928E-03     72.6032E-03    -23.4104E-03     56.9296E-03    -49.7582E-03     73.3001E-03    -23.2913E-03     56.6349E-03
            2403     14.9698E-03     3.03792E-03    -13.1241E+06     66.5714E+06     29.2826E+06     13.7007E+06    -35.6596E-03     57.9166E-03    -22.2571E-03     44.3311E-03    -35.9367E-03     58.2999E-03    -22.1882E-03     44.3539E-03
            2404     14.0964E-03     3.02101E-03    -11.2288E+06     52.1324E+06     11.0324E+06     7.05419E+06    -29.9112E-03     51.4351E-03    -21.5240E-03     43.9791E-03    -30.0951E-03     51.7325E-03    -21.5281E-03     43.9900E-03
            2405     13.2202E-03     3.00937E-03    -11.3973E+06     15.2925E+06    -337.363E+03    -1.64368E+06    -27.0441E-03     48.0992E-03    -21.0550E-03     37.8469E-03    -27.1410E-03     48.2107E-03    -21.0624E-03     37.7778E-03
            2406     12.3426E-03     3.00270E-03    -12.2754E+06    -22.3367E+06    -968.024E+03    -8.01529E+06    -25.0305E-03     45.7786E-03    -20.7481E-03     33.2854E-03    -25.0675E-03     45.6951E-03    -20.7027E-03     33.1534E-03
            2407     11.4636E-03     2.99615E-03    -12.0283E+06    -40.9670E+06    -2.81781E+06    -11.9127E+06    -23.8772E-03     44.3508E-03    -20.4736E-03     29.5663E-03    -23.8792E-03     44.1724E-03    -20.4109E-03     29.3943E-03
            2408     10.5843E-03     2.99072E-03    -10.7018E+06    -55.8532E+06    -6.46273E+06    -14.8677E+06    -23.0827E-03     43.3016E-03    -20.2189E-03     25.8440E-03    -23.0490E-03     43.0499E-03    -20.1547E-03     25.6401E-03
            2409     9.70428E-03     2.98521E-03    -9.17713E+06    -68.4501E+06    -9.47219E+06    -16.7845E+06    -22.5431E-03     42.5246E-03    -19.9815E-03     22.3730E-03    -22.4779E-03     42.2109E-03    -19.9163E-03     22.1482E-03
            2410     8.82417E-03     2.98036E-03    -7.98444E+06    -77.6222E+06    -9.74553E+06    -16.8425E+06    -22.0240E-03     41.7862E-03    -19.7622E-03     19.1281E-03    -21.9384E-03     41.4246E-03    -19.6868E-03     18.9050E-03
            2411     7.94331E-03     2.97570E-03    -7.46123E+06    -83.3426E+06    -8.49975E+06    -15.2454E+06    -21.4680E-03     41.0257E-03    -19.5576E-03     16.2078E-03    -21.3729E-03     40.6326E-03    -19.4685E-03     16.0070E-03
            2412     7.06229E-03     2.97169E-03    -7.39891E+06    -85.7650E+06    -8.38980E+06    -12.6865E+06    -20.9342E-03     40.2922E-03    -19.3580E-03     13.5876E-03    -20.8351E-03     39.8866E-03    -19.2649E-03     13.4209E-03
            2413     6.18055E-03     2.96797E-03    -7.62731E+06    -87.1693E+06    -9.30966E+06    -9.57880E+06    -20.4221E-03     39.5916E-03    -19.1695E-03     11.2438E-03    -20.3207E-03     39.1805E-03    -19.0786E-03     11.1180E-03
            2414     5.29861E-03     2.96487E-03    -8.23506E+06    -88.1796E+06    -9.76919E+06    -6.62449E+06    -19.9421E-03     38.9461E-03    -19.0040E-03     9.15023E-03    -19.8415E-03     38.5314E-03    -18.9131E-03     9.06318E-03
            2415     4.41605E-03     2.96220E-03    -9.04916E+06    -88.8179E+06    -10.1983E+06    -4.43512E+06    -19.5209E-03     38.3829E-03    -18.8620E-03     7.28869E-03    -19.4227E-03     37.9668E-03    -18.7711E-03     7.23030E-03
            2416     3.53332E-03     2.96003E-03    -9.86241E+06    -89.3106E+06    -10.7421E+06    -2.94767E+06    -19.1712E-03     37.9150E-03    -18.7438E-03     5.61780E-03    -19.0755E-03     37.4983E-03    -18.6537E-03     5.57892E-03
            2417     2.65019E-03     2.95835E-03    -10.5335E+06    -89.6932E+06    -11.2050E+06    -1.86476E+06    -18.8941E-03     37.5450E-03    -18.6509E-03     4.09788E-03    -18.8005E-03     37.1280E-03    -18.5616E-03     4.07321E-03
            2418     1.76695E-03     2.95713E-03    -11.0137E+06    -89.8797E+06    -11.4767E+06    -1.17156E+06    -18.6926E-03     37.2774E-03    -18.5847E-03     2.70622E-03    -18.6008E-03     36.8606E-03    -18.4958E-03     2.69072E-03
            2419     883.475E-06     2.95641E-03    -11.3790E+06    -90.0508E+06    -11.7099E+06    -657.205E+03    -18.5650E-03     37.1189E-03    -18.5539E-03     1.44836E-03    -18.4742E-03     36.7022E-03    -18.4654E-03     1.43965E-03
            2420     16.6594E-03     2.06359E-03    -3.75915E+06     108.832E+06     67.8545E+06     11.3385E+06    -60.5062E-03     86.9791E-03    -26.4729E-03     71.9990E-03    -61.2525E-03     87.9069E-03    -26.2860E-03     71.4791E-03
            2421     15.8075E-03     2.03906E-03    -4.61281E+06     86.8448E+06     52.4639E+06     12.6019E+06    -41.3098E-03     66.4080E-03    -25.0982E-03     53.9116E-03    -41.6950E-03     66.9358E-03    -24.9551E-03     53.7921E-03
            2422     14.9371E-03     2.03696E-03    -4.54799E+06     73.0674E+06     32.6042E+06     7.63990E+06    -34.8598E-03     59.1018E-03    -24.2419E-03     50.9448E-03    -35.0807E-03     59.4708E-03    -24.1783E-03     50.9402E-03
            2423     14.0646E-03     2.02012E-03    -1.51069E+06     58.1586E+06     6.53580E+06     3.13483E+06    -32.7334E-03     56.2519E-03    -23.5186E-03     45.7249E-03    -32.8565E-03     56.5562E-03    -23.5680E-03     45.7083E-03
            2424     13.1922E-03     2.01340E-03     165.088E+03     21.5359E+06    -10.0635E+06    -676.293E+03    -30.2273E-03     53.1817E-03    -22.9544E-03     35.6311E-03    -30.2529E-03     53.3128E-03    -23.0362E-03     35.5894E-03
            2425     12.3173E-03     2.00731E-03    -308.558E+03    -17.0098E+06    -13.9809E+06    -7.01360E+06    -28.6974E-03     51.2277E-03    -22.5303E-03     29.7445E-03    -28.6594E-03     51.1681E-03    -22.5751E-03     29.6329E-03
            2426     11.4426E-03     2.00256E-03    -507.836E+03    -38.7724E+06    -18.9571E+06    -12.0996E+06    -27.6171E-03     49.7272E-03    -22.1101E-03     25.0662E-03    -27.5389E-03     49.5640E-03    -22.1479E-03     24.8966E-03
            2427     10.5665E-03     1.99802E-03    -693.920E+03    -55.3394E+06    -24.3356E+06    -14.4373E+06    -26.6496E-03     48.3484E-03    -21.6988E-03     21.1179E-03    -26.5393E-03     48.1094E-03    -21.7392E-03     20.9227E-03
            2428     9.68994E-03     1.99370E-03    -1.68412E+06    -69.3338E+06    -27.0306E+06    -15.3493E+06    -25.6582E-03     46.9749E-03    -21.3167E-03     17.6672E-03    -25.5279E-03     46.6706E-03    -21.3489E-03     17.4631E-03
            2429     8.81223E-03     1.98977E-03    -3.28996E+06    -80.8854E+06    -26.7901E+06    -14.8808E+06    -24.6586E-03     45.6289E-03    -20.9703E-03     14.7320E-03    -24.5195E-03     45.2686E-03    -20.9822E-03     14.5359E-03
            2430     7.93391E-03     1.98635E-03    -4.94625E+06    -87.4207E+06    -23.6559E+06    -13.2107E+06    -23.7095E-03     44.3681E-03    -20.6587E-03     12.2515E-03    -23.5735E-03     43.9727E-03    -20.6430E-03     12.0782E-03
            2431     7.05444E-03     1.98313E-03    -6.44887E+06    -90.6484E+06    -19.1218E+06    -10.8654E+06    -22.8083E-03     43.1875E-03    -20.3792E-03     10.0912E-03    -22.6816E-03     42.7715E-03    -20.3340E-03     9.94895E-03
            2432     6.17452E-03     1.98046E-03    -7.79016E+06    -92.1246E+06    -15.8091E+06    -7.87077E+06    -21.9863E-03     42.1107E-03    -20.1244E-03     8.23336E-03    -21.8689E-03     41.6844E-03    -20.0586E-03     8.13034E-03
            2433     5.29363E-03     1.97810E-03    -8.80995E+06    -91.9707E+06    -13.8906E+06    -5.13476E+06    -21.2654E-03     41.1604E-03    -19.8950E-03     6.63163E-03    -21.1561E-03     40.7335E-03    -19.8183E-03     6.56431E-03
            2434     4.41237E-03     1.97615E-03    -9.50280E+06    -91.5030E+06    -12.4905E+06    -3.17962E+06    -20.6513E-03     40.3491E-03    -19.6978E-03     5.23239E-03    -20.5481E-03     39.9235E-03    -19.6138E-03     5.19058E-03
            2435     3.53044E-03     1.97455E-03    -10.1137E+06    -91.1676E+06    -11.7257E+06    -1.85036E+06    -20.1426E-03     39.6768E-03    -19.5342E-03     4.00344E-03    -20.0440E-03     39.2526E-03    -19.4460E-03     3.97900E-03
            2436     2.64824E-03     1.97331E-03    -10.6337E+06    -91.0121E+06    -11.5031E+06    -1.09586E+06    -19.7484E-03     39.1534E-03    -19.4051E-03     2.90601E-03    -19.6529E-03     38.7304E-03    -19.3152E-03     2.89146E-03
            2437     1.76561E-03     1.97244E-03    -11.0102E+06    -90.8902E+06    -11.3339E+06    -569.183E+03    -19.4655E-03     38.7779E-03    -19.3124E-03     1.90607E-03    -19.3723E-03     38.3559E-03    -19.2213E-03     1.89846E-03
            2438     882.892E-06     1.97187E-03    -11.2485E+06    -90.9131E+06    -11.3941E+06    -218.863E+03    -19.2829E-03     38.5508E-03    -19.2679E-03     1.01656E-03    -19.1907E-03     38.1293E-03    -19.1767E-03     1.01361E-03
            2439     16.6419E-03     1.03878E-03     1.10366E+06     104.461E+06     72.4312E+06     8.19455E+06    -59.2540E-03     88.1798E-03    -28.9258E-03     75.5248E-03    -59.7321E-03     88.8247E-03    -28.7167E-03     75.1920E-03
            2440     15.7627E-03     1.03801E-03     4.16815E+06     92.6473E+06     57.8464E+06     7.58808E+06    -46.4901E-03     73.9964E-03    -27.5062E-03     55.7408E-03    -46.7441E-03     74.4197E-03    -27.3574E-03     55.7304E-03
            2441     14.8948E-03     1.02139E-03     5.83339E+06     78.3996E+06     27.0879E+06     2.70240E+06    -42.4912E-03     68.8404E-03    -26.3492E-03     40.7030E-03    -42.6311E-03     69.1993E-03    -26.3359E-03     40.6934E-03
            2442     14.0349E-03     1.01380E-03     7.95185E+06     58.2455E+06    -5.53501E+06     505.225E+03    -38.5356E-03     63.8617E-03    -25.3261E-03     29.8557E-03    -38.5799E-03     64.1564E-03    -25.4497E-03     29.8297E-03
            2443     13.1671E-03     1.00934E-03     10.2046E+06     25.3664E+06    -22.3700E+06    -356.932E+03    -35.0620E-03     59.5954E-03    -24.5334E-03     22.6475E-03    -35.0186E-03     59.7428E-03    -24.6969E-03     22.6250E-03
            2444     12.2984E-03     1.00616E-03     11.1095E+06    -11.4652E+06    -29.0388E+06    -4.32065E+06    -32.9873E-03     56.8803E-03    -23.8929E-03     18.0925E-03    -32.8749E-03     56.8505E-03    -24.0376E-03     18.0253E-03
            2445     11.4266E-03     1.00322E-03     9.59730E+06    -36.9473E+06    -36.1137E+06    -7.71443E+06    -31.2301E-03     54.5179E-03    -23.2877E-03     14.6381E-03    -31.0772E-03     54.3724E-03    -23.4287E-03     14.5314E-03
            2446     10.5542E-03     1.00036E-03     6.72911E+06    -55.5175E+06    -41.0292E+06    -8.96517E+06    -29.6259E-03     52.3524E-03    -22.7265E-03     11.9651E-03    -29.4527E-03     52.1249E-03    -22.8609E-03     11.8446E-03
            2447     9.67998E-03     998.059E-06     3.42683E+06    -70.6657E+06    -41.5683E+06    -9.00929E+06    -28.0673E-03     50.2919E-03    -22.2246E-03     9.81578E-03    -27.8877E-03     49.9942E-03    -22.3350E-03     9.69635E-03
            2448     8.80442E-03     995.930E-06     47.7339E+03    -83.3884E+06    -39.0215E+06    -8.51286E+06    -26.6242E-03     48.4039E-03    -21.7797E-03     8.08108E-03    -26.4466E-03     48.0436E-03    -21.8540E-03     7.96914E-03
            2449     7.92742E-03     993.920E-06    -3.03604E+06    -90.4995E+06    -34.2352E+06    -7.58441E+06    -25.3063E-03     46.6892E-03    -21.3829E-03     6.61690E-03    -25.1407E-03     46.2908E-03    -21.4185E-03     6.51757E-03
            2450     7.04961E-03     992.275E-06    -5.72615E+06    -94.2053E+06    -27.9225E+06    -6.23859E+06    -24.1048E-03     45.1395E-03    -21.0348E-03     5.39695E-03    -23.9564E-03     44.7174E-03    -21.0295E-03     5.31541E-03
            2451     6.17042E-03     990.779E-06    -7.79476E+06    -95.9589E+06    -21.6161E+06    -4.57681E+06    -23.0483E-03     43.7785E-03    -20.7303E-03     4.36218E-03    -22.9168E-03     43.3414E-03    -20.6879E-03     4.30239E-03
            2452     5.29066E-03     989.543E-06    -9.11074E+06    -94.7278E+06    -17.3885E+06    -2.91646E+06    -22.1411E-03     42.5979E-03    -20.4568E-03     3.48343E-03    -22.0241E-03     42.1627E-03    -20.3932E-03     3.44527E-03
            2453     4.40992E-03     988.476E-06    -9.95578E+06    -93.5027E+06    -14.5200E+06    -1.69704E+06    -21.3805E-03     41.6026E-03    -20.2221E-03     2.73209E-03    -21.2737E-03     41.1706E-03    -20.1447E-03     2.70980E-03
            2454     3.52875E-03     987.656E-06    -10.3846E+06    -92.3840E+06    -12.4241E+06    -897.258E+03    -20.7630E-03     40.7918E-03    -20.0287E-03     2.08349E-03    -20.6630E-03     40.3629E-03    -19.9418E-03     2.07163E-03
            2455     2.64693E-03     986.987E-06    -10.6401E+06    -91.7688E+06    -11.5620E+06    -420.890E+03    -20.2884E-03     40.1629E-03    -19.8745E-03     1.50880E-03    -20.1918E-03     39.7363E-03    -19.7838E-03     1.50317E-03
            2456     1.76489E-03     986.524E-06    -10.8156E+06    -91.3967E+06    -11.0894E+06    -197.558E+03    -19.9506E-03     39.7125E-03    -19.7620E-03     986.824E-06    -19.8560E-03     39.2873E-03    -19.6692E-03     984.151E-06
            2457     882.471E-06     986.240E-06    -10.9356E+06    -91.2269E+06    -10.9065E+06    -89.8343E+03    -19.7504E-03     39.4323E-03    -19.6820E-03     526.685E-06    -19.6567E-03     39.0080E-03    -19.5884E-03     525.525E-06


