********************************************************************************
Field Output Report, written Tue May  6 03:44:12 2025

Source 1
---------

   ODB: D:/AISI_1020/Vel_5_updated/1020_2a_16_rd_2000_cal_50_v_5_f_025.odb
   Step: Step-1
   Frame: Increment  25046735: Step Time =    3.056

Loc 1 : Nodal values from source 1

Output sorted by column "Node Label".

Field Output reported at nodes for region: DIE_2A_16_D0_36-1.Region_1
   Computation algorithm: EXTRAPOLATE_COMPUTE_AVERAGE
   Averaged at nodes
   Averaging regions: ODB_REGIONS

      Node Label     COORD.COOR1     COORD.COOR2
                          @Loc 1          @Loc 1
-------------------------------------------------
               1     16.4041E-03     180.080E-03


Field Output reported at nodes for region: DIE_2A_16_D0_36-1.Region_2
   Computation algorithm: EXTRAPOLATE_COMPUTE_AVERAGE
   Averaged at nodes
   Averaging regions: ODB_REGIONS

      Node Label     COORD.COOR1     COORD.COOR2
                          @Loc 1          @Loc 1
-------------------------------------------------
               1     16.4041E-03     180.080E-03


Field Output reported at nodes for part: WIRE_1-1
   Computation algorithm: EXTRAPOLATE_COMPUTE_AVERAGE
   Averaged at nodes
   Averaging regions: ODB_REGIONS

      Node Label     COORD.COOR1     COORD.COOR2    ER.Max. Prin    ER.Mid. Prin    ER.Min. Prin         ER.ER11         ER.ER22         ER.ER33         ER.ER12    PE.Max. Prin    PE.Mid. Prin    PE.Min. Prin         PE.PE11         PE.PE22         PE.PE33         PE.PE12     S.Max. Prin     S.Mid. Prin     S.Min. Prin           S.S11           S.S22           S.S33           S.S12            TEMP
                          @Loc 1          @Loc 1          @Loc 1          @Loc 1          @Loc 1          @Loc 1          @Loc 1          @Loc 1          @Loc 1          @Loc 1          @Loc 1          @Loc 1          @Loc 1          @Loc 1          @Loc 1          @Loc 1          @Loc 1          @Loc 1          @Loc 1          @Loc 1          @Loc 1          @Loc 1          @Loc 1          @Loc 1
-----------------------------------------------------------------------------------------------------------------------------------------------------------------------------------------------------------------------------------------------------------------------------------------------------------------------------------------------------------------------------------------------------------------
               1     14.3656E-03     86.9939E-03     133.637E-03    -12.9129E-03    -47.8516E-03    -47.5887E-03     133.374E-03    -12.9129E-03    -13.7942E-03     457.156E-03    -226.380E-03    -230.776E-03    -228.831E-03     455.211E-03    -226.380E-03     72.8672E-03     112.386E+06     80.8044E+06    -3.99103E+06    -3.98033E+06     80.7937E+06     112.386E+06    -138.051E+03         60.9428
               2     285.585E-09     86.1697E-03     268.113E-03     47.7770E-03    -239.333E-03    -16.8519E-03     45.6322E-03     47.7770E-03     503.583E-03     453.222E-03    -226.503E-03    -226.719E-03    -226.694E-03     453.221E-03    -226.527E-03     720.621E-06    -137.976E+06    -143.921E+06    -286.018E+06    -141.512E+06    -286.010E+06    -140.393E+06    -849.892E+03         57.2986
               3    -2.70024E-06    -1.48492E-15     752.791E-03    -271.497E-03    -279.201E-03    -279.091E-03     752.682E-03    -271.497E-03    -21.2724E-03     546.481E-03    -270.438E-03    -276.043E-03    -270.436E-03     546.479E-03    -276.043E-03     2.60921E-03    -67.2328E+06    -71.2369E+06    -269.801E+06    -67.2898E+06    -269.744E+06    -71.2369E+06     3.39644E+06         58.9823
               4     14.2173E-03    -1.48492E-15     613.250E-03    -157.504E-03    -226.996E-03    -157.228E-03     612.975E-03    -226.996E-03     29.1508E-03     585.455E-03    -229.768E-03    -355.687E-03    -350.755E-03     580.523E-03    -229.768E-03     135.903E-03     124.622E+06     88.9784E+06     1.32585E+06     1.35836E+06     88.9459E+06     124.622E+06     1.68774E+06         61.3255
               5     14.4082E-03     173.805E-03     26.3432E-03     7.07125E-03    -47.7017E-03     7.15359E-03     26.2609E-03    -47.7017E-03    -2.51396E-03     360.621E-03    -134.861E-03    -225.760E-03    -134.793E-03     360.552E-03    -225.760E-03    -11.6534E-03     77.2479E+06     54.5118E+06    -49.0067E+06    -45.1869E+06     50.6921E+06     77.2479E+06    -19.5147E+06         66.2653
               6     1.89482E-06     171.313E-03     80.5064E-03    -89.1121E-03    -89.7997E-03    -89.0880E-03     80.4823E-03    -89.7997E-03     4.03662E-03     528.980E-03    -263.526E-03    -265.455E-03    -265.251E-03     528.777E-03    -263.526E-03    -25.4090E-03     72.9031E+06     66.8840E+06    -21.7350E+06     72.1086E+06    -20.9406E+06     66.8840E+06    -8.63442E+06         54.3562
               7     13.5777E-03     86.8868E-03     129.869E-03    -11.4921E-03    -45.2948E-03    -45.0879E-03     129.662E-03    -11.4921E-03    -1.85494E-03     456.107E-03    -226.306E-03    -229.801E-03    -227.136E-03     453.495E-03    -226.360E-03     83.2041E-03     113.494E+06     79.6013E+06     -6.9844E+06    -6.97727E+06     79.5942E+06     113.494E+06    -64.1091E+03         60.8557
               8     12.7759E-03     86.7390E-03     122.231E-03    -8.65345E-03    -40.1486E-03    -40.0060E-03     122.089E-03    -8.65345E-03     487.830E-06     453.412E-03    -225.791E-03    -227.621E-03    -224.649E-03     451.026E-03    -226.377E-03     78.2196E-03     111.994E+06     73.6728E+06    -14.4645E+06    -14.4593E+06     73.6677E+06     111.994E+06     327.023E+03         60.6683
               9     11.9740E-03     86.6408E-03     114.977E-03    -5.91263E-03    -35.3070E-03    -34.8258E-03     114.496E-03    -5.91263E-03     6.33754E-03     452.034E-03    -225.586E-03    -226.448E-03    -224.152E-03     450.600E-03    -226.448E-03     61.8774E-03     104.844E+06     68.1436E+06    -22.2148E+06    -22.2067E+06     68.1354E+06     104.844E+06     617.057E+03         60.4554
              10     11.1736E-03     86.5470E-03     107.538E-03    -3.31819E-03    -30.0724E-03    -29.6042E-03     107.070E-03    -3.31819E-03     7.15585E-03     452.207E-03    -225.720E-03    -226.487E-03    -224.522E-03     451.009E-03    -226.487E-03     56.7011E-03     90.8796E+06     63.0483E+06    -29.9764E+06    -29.9640E+06     63.0359E+06     90.8796E+06     463.386E+03         60.2187
              11     10.3739E-03     86.4705E-03     99.9759E-03    -846.638E-06    -24.6180E-03    -24.4236E-03     99.7815E-03    -846.638E-06     2.00836E-03     452.206E-03    -225.704E-03    -226.502E-03    -224.785E-03     451.287E-03    -226.502E-03     49.8157E-03     73.1675E+06     54.3425E+06    -39.0566E+06    -39.0444E+06     54.3302E+06     73.1675E+06     425.460E+03         59.9612
              12     9.57510E-03     86.4025E-03     93.3111E-03     1.48076E-03    -19.9539E-03    -19.3096E-03     92.6668E-03     1.48076E-03    -4.52875E-03     452.304E-03    -225.784E-03    -226.521E-03    -225.063E-03     451.584E-03    -226.521E-03     44.0833E-03     58.8820E+06     46.7680E+06    -48.5660E+06    -48.5610E+06     46.7630E+06     58.8820E+06     220.643E+03         59.6872
              13     8.77659E-03     86.3453E-03     86.4696E-03     3.65079E-03    -14.9777E-03    -14.2837E-03     85.7756E-03     3.65079E-03    -4.32785E-03     452.314E-03    -225.761E-03    -226.554E-03    -225.219E-03     451.773E-03    -226.554E-03     38.1867E-03     44.5950E+06     23.1700E+06    -58.2912E+06    -58.2903E+06     23.1691E+06     44.5950E+06    -5.46954E+03         59.4023
              14     7.97827E-03     86.2969E-03     79.8165E-03     5.64851E-03    -10.0992E-03    -9.54682E-03     79.2640E-03     5.64851E-03    -1.69461E-03     452.386E-03    -225.790E-03    -226.596E-03    -225.398E-03     451.994E-03    -226.596E-03     32.4804E-03     27.0718E+06    -22.3763E+06    -67.5110E+06    -67.5074E+06    -22.3798E+06     27.0718E+06     100.505E+03         59.1127
              15     7.18005E-03     86.2567E-03     74.7497E-03     7.46768E-03    -6.70026E-03    -5.16240E-03     73.2118E-03     7.46768E-03     5.39476E-03     452.476E-03    -225.847E-03    -226.629E-03    -225.578E-03     452.206E-03    -226.629E-03     26.8734E-03     9.07277E+06    -64.2184E+06    -79.0564E+06    -76.4599E+06    -66.8149E+06     9.07277E+06    -146.406E+03         58.8251
              16     6.38194E-03     86.2249E-03     69.1698E-03     9.09820E-03    -2.53383E-03    -1.09114E-03     67.7271E-03     9.09820E-03     7.37000E-03     452.534E-03    -225.887E-03    -226.646E-03    -225.714E-03     452.360E-03    -226.646E-03     21.5630E-03    -8.92051E+06    -86.1015E+06    -104.561E+06    -86.1244E+06    -104.538E+06    -8.92051E+06    -404.155E+03         58.5464
              17     5.58404E-03     86.2006E-03     65.9300E-03     10.5222E-03    -485.177E-06     2.67230E-03     62.7725E-03     10.5222E-03     12.4940E-03     452.608E-03    -225.958E-03    -226.650E-03    -225.855E-03     452.504E-03    -226.650E-03     16.5475E-03    -27.4289E+06    -95.7960E+06    -138.077E+06    -95.8002E+06    -138.073E+06    -27.4289E+06    -306.052E+03         58.2830
              18     4.78623E-03     86.1839E-03     64.6013E-03     11.7320E-03    -255.398E-06     5.89951E-03     58.4464E-03     11.7320E-03     28.2070E-06     452.662E-03    -226.022E-03    -226.640E-03    -225.968E-03     452.608E-03    -226.640E-03     11.8919E-03    -47.1505E+06    -105.705E+06    -169.537E+06    -105.709E+06    -169.533E+06    -47.1505E+06    -352.453E+03         58.0413
              19     3.98850E-03     86.1733E-03     62.3005E-03     12.7231E-03     1.13093E-03     8.72309E-03     54.7083E-03     12.7231E-03     1.80005E-03     452.649E-03    -226.027E-03    -226.622E-03    -226.003E-03     452.625E-03    -226.622E-03     7.90063E-03    -68.2199E+06    -115.628E+06    -196.554E+06    -115.632E+06    -196.550E+06    -68.2199E+06    -395.544E+03         57.8268
              20     3.19053E-03     86.1680E-03     70.5533E-03     13.5093E-03    -7.91102E-03     10.8604E-03     51.7818E-03     13.5093E-03    -23.3730E-03     452.675E-03    -226.069E-03    -226.606E-03    -226.060E-03     452.666E-03    -226.606E-03     4.63278E-03    -90.1164E+06    -124.210E+06    -216.791E+06    -124.212E+06    -216.789E+06    -90.1164E+06    -96.9428E+03         57.6442
              21     2.39252E-03     86.1676E-03     87.2860E-03     14.1077E-03    -25.3400E-03     12.6014E-03     49.3446E-03     14.1077E-03     17.6601E-03     452.846E-03    -226.248E-03    -226.599E-03    -226.246E-03     452.844E-03    -226.599E-03     2.26381E-03    -111.576E+06    -131.692E+06    -237.166E+06    -131.693E+06    -237.165E+06    -111.576E+06     113.381E+03         57.4975
              22     1.59499E-03     86.1684E-03     112.693E-03     14.6035E-03    -51.0798E-03     13.5937E-03     48.0199E-03     14.6035E-03    -36.6055E-03     453.054E-03    -226.455E-03    -226.599E-03    -226.455E-03     453.053E-03    -226.599E-03     671.315E-06    -128.756E+06    -137.128E+06    -259.142E+06    -137.134E+06    -259.136E+06    -128.756E+06    -201.212E+03         57.3897
              23     797.505E-06     86.1709E-03     199.232E-03     31.3126E-03    -154.054E-03    -1.63792E-03     46.8155E-03     31.3126E-03     154.222E-03     453.182E-03    -226.523E-03    -226.659E-03    -226.618E-03     453.182E-03    -226.564E-03     367.957E-06    -136.861E+06    -141.513E+06    -278.153E+06    -140.313E+06    -278.144E+06    -138.069E+06    -675.495E+03         57.3222
              24     62.4087E-09     84.5984E-03     212.204E-03     101.746E-03    -235.649E-03    -40.7402E-03     17.2950E-03     101.746E-03     444.057E-03     453.252E-03    -226.525E-03    -226.727E-03    -226.727E-03     453.252E-03    -226.525E-03     477.501E-06    -139.240E+06    -147.682E+06    -287.752E+06    -142.771E+06    -287.749E+06    -144.154E+06     350.723E+03         57.3300
              25    -95.7072E-09     83.0259E-03     175.317E-03     111.819E-03    -206.517E-03    -64.0162E-03    -4.48508E-03     149.121E-03     339.068E-03     453.101E-03    -226.521E-03    -226.580E-03    -226.531E-03     453.101E-03    -226.570E-03     297.941E-06    -139.150E+06    -148.498E+06    -284.100E+06    -143.587E+06    -284.096E+06    -144.065E+06     729.027E+03         57.3610
              26     69.5684E-09     81.4532E-03     190.566E-03     55.3914E-03    -162.817E-03    -88.7161E-03    -18.7091E-03     190.566E-03     204.124E-03     452.935E-03    -226.393E-03    -226.541E-03    -226.492E-03     452.934E-03    -226.443E-03     802.326E-06    -140.293E+06    -146.508E+06    -281.156E+06    -144.775E+06    -281.107E+06    -142.075E+06    -1.54442E+06         57.3917
              27     73.3322E-09     79.8807E-03     221.651E-03    -4.55677E-03    -131.446E-03    -111.947E-03    -24.0549E-03     221.651E-03     52.7998E-03     452.941E-03    -226.347E-03    -226.594E-03    -226.594E-03     452.940E-03    -226.347E-03     1.09857E-03    -143.218E+06    -145.238E+06    -282.571E+06    -143.269E+06    -282.520E+06    -145.238E+06    -1.37770E+06         57.4220
              28     165.635E-09     78.3095E-03     242.434E-03     3.30341E-03    -156.900E-03    -133.665E-03    -19.9320E-03     242.434E-03    -101.082E-03     452.867E-03    -226.216E-03    -226.651E-03    -226.651E-03     452.867E-03    -226.216E-03     604.206E-06    -142.115E+06    -142.636E+06    -285.856E+06    -142.406E+06    -285.848E+06    -142.353E+06    -182.759E+03         57.4522
              29     299.589E-09     76.7380E-03     255.660E-03     60.9404E-03    -223.781E-03    -156.081E-03    -6.75979E-03     255.660E-03    -241.787E-03     452.643E-03    -226.048E-03    -226.595E-03    -226.595E-03     452.643E-03    -226.048E-03     393.889E-06    -142.211E+06    -142.883E+06    -287.050E+06    -142.898E+06    -287.034E+06    -142.211E+06     228.285E+03         57.4821
              30     125.441E-09     75.1671E-03     258.602E-03     122.976E-03    -284.332E-03    -176.321E-03     14.9653E-03     258.602E-03    -359.554E-03     452.741E-03    -226.140E-03    -226.601E-03    -226.401E-03     452.741E-03    -226.341E-03     492.286E-06    -141.936E+06    -143.588E+06    -288.627E+06    -142.361E+06    -288.592E+06    -143.199E+06    -516.686E+03         57.5117
              31    -454.538E-09     73.5951E-03     250.674E-03     180.721E-03    -329.453E-03    -193.805E-03     45.0721E-03     250.674E-03    -450.770E-03     453.259E-03    -226.503E-03    -226.756E-03    -226.503E-03     453.259E-03    -226.756E-03     525.428E-06    -140.883E+06    -143.828E+06    -289.288E+06    -142.659E+06    -289.195E+06    -142.146E+06     832.710E+03         57.5411
              32     393.845E-09     72.0213E-03     248.802E-03     216.040E-03    -358.339E-03    -210.900E-03     83.1119E-03     234.291E-03    -510.020E-03     453.519E-03    -226.593E-03    -226.926E-03    -226.873E-03     453.519E-03    -226.646E-03     586.147E-06    -141.959E+06    -144.401E+06    -287.880E+06    -143.751E+06    -287.770E+06    -142.718E+06     469.246E+03         57.5702
              33     50.5523E-09     70.4486E-03     272.984E-03     207.826E-03    -369.801E-03    -224.659E-03     127.842E-03     207.826E-03    -537.104E-03     453.055E-03    -226.277E-03    -226.778E-03    -226.778E-03     453.055E-03    -226.277E-03     686.000E-06    -142.496E+06    -144.854E+06    -288.545E+06    -142.550E+06    -288.492E+06    -144.854E+06    -801.635E+03         57.5989
              34     288.274E-09     68.8772E-03     311.714E-03     171.446E-03    -367.306E-03    -233.617E-03     178.025E-03     171.446E-03    -539.373E-03     452.672E-03    -226.147E-03    -226.525E-03    -226.525E-03     452.671E-03    -226.147E-03     769.057E-06    -139.929E+06    -144.793E+06    -287.161E+06    -143.208E+06    -287.148E+06    -141.527E+06     732.213E+03         57.6272
              35     3.04339E-09     67.3059E-03     348.204E-03     128.812E-03    -356.405E-03    -240.264E-03     232.063E-03     128.812E-03    -521.896E-03     452.749E-03    -226.180E-03    -226.569E-03    -226.569E-03     452.749E-03    -226.180E-03     471.058E-06    -138.815E+06    -146.046E+06    -287.164E+06    -142.082E+06    -287.163E+06    -142.780E+06    -367.318E+03         57.6550
              36     327.284E-09     65.7351E-03     383.904E-03     79.8354E-03    -338.219E-03    -242.154E-03     287.839E-03     79.8354E-03    -489.408E-03     452.949E-03    -226.301E-03    -226.648E-03    -226.648E-03     452.949E-03    -226.301E-03     273.738E-06    -139.936E+06    -146.988E+06    -288.905E+06    -143.073E+06    -288.855E+06    -143.901E+06     1.72026E+06         57.6825
              37    -104.638E-09     64.1617E-03     421.295E-03     23.4319E-03    -313.889E-03    -236.633E-03     344.039E-03     23.4319E-03    -449.864E-03     453.205E-03    -226.392E-03    -226.813E-03    -226.507E-03     453.205E-03    -226.698E-03     903.077E-06    -139.453E+06    -144.971E+06    -287.829E+06    -142.654E+06    -287.716E+06    -141.884E+06    -274.708E+03         57.7094
              38    -403.581E-09     62.5887E-03     459.994E-03    -37.7770E-03    -287.083E-03    -226.310E-03     399.221E-03    -37.7770E-03    -407.346E-03     453.111E-03    -226.345E-03    -226.766E-03    -226.344E-03     453.110E-03    -226.766E-03     684.218E-06    -140.992E+06    -146.120E+06    -289.417E+06    -143.755E+06    -289.351E+06    -143.422E+06    -2.51783E+06         57.7359
              39     252.012E-09     61.0182E-03     498.068E-03    -102.844E-03    -256.131E-03    -209.904E-03     451.841E-03    -102.844E-03    -360.666E-03     452.741E-03    -226.270E-03    -226.471E-03    -226.354E-03     452.741E-03    -226.386E-03     229.094E-06    -139.992E+06    -145.772E+06    -290.418E+06    -142.698E+06    -290.409E+06    -143.075E+06     378.069E+03         57.7619
              40    -145.619E-09     59.4465E-03     533.596E-03    -166.561E-03    -223.702E-03    -184.032E-03     499.972E-03    -172.607E-03    -309.481E-03     452.969E-03    -226.420E-03    -226.549E-03    -226.549E-03     452.969E-03    -226.420E-03     577.685E-06    -139.966E+06    -145.701E+06    -289.847E+06    -142.640E+06    -289.825E+06    -143.049E+06     1.77675E+06         57.7874
              41     250.240E-09     57.8734E-03     564.547E-03    -173.489E-03    -244.339E-03    -151.249E-03     542.307E-03    -244.339E-03    -250.390E-03     453.031E-03    -226.367E-03    -226.664E-03    -226.664E-03     453.031E-03    -226.367E-03     400.573E-06    -140.587E+06    -144.676E+06    -288.804E+06    -143.293E+06    -288.750E+06    -142.024E+06    -653.620E+03         57.8126
              42     142.924E-09     56.3021E-03     589.318E-03    -123.391E-03    -316.211E-03    -111.947E-03     577.874E-03    -316.211E-03    -174.508E-03     452.689E-03    -226.176E-03    -226.513E-03    -226.428E-03     452.688E-03    -226.260E-03     637.985E-06    -141.819E+06    -143.741E+06    -288.116E+06    -142.350E+06    -288.070E+06    -143.257E+06    -975.402E+03         57.8373
              43    -266.617E-09     54.7309E-03     608.005E-03    -65.9760E-03    -389.211E-03    -62.7893E-03     604.819E-03    -389.211E-03    -75.2403E-03     453.022E-03    -226.444E-03    -226.578E-03    -226.444E-03     453.022E-03    -226.578E-03     696.649E-06    -143.256E+06    -144.208E+06    -290.586E+06    -143.753E+06    -290.574E+06    -143.724E+06     1.32755E+06         57.8617
              44     187.046E-09     53.1576E-03     625.789E-03    -9.61647E-03    -460.773E-03    -6.39727E-03     622.570E-03    -460.773E-03     52.4314E-03     453.234E-03    -226.440E-03    -226.794E-03    -226.744E-03     453.234E-03    -226.489E-03     473.499E-06    -141.029E+06    -142.180E+06    -287.621E+06    -141.740E+06    -287.593E+06    -141.497E+06    -653.045E+03         57.8858
              45     311.480E-09     51.5857E-03     654.249E-03     31.4350E-03    -528.497E-03     54.6831E-03     631.001E-03    -528.497E-03     215.637E-03     453.205E-03    -226.375E-03    -226.831E-03    -226.830E-03     453.205E-03    -226.375E-03     815.679E-06    -140.806E+06    -142.484E+06    -285.157E+06    -141.513E+06    -285.133E+06    -141.801E+06    -946.734E+03         57.9097
              46    -76.0283E-09     50.0132E-03     709.807E-03     42.9575E-03    -593.189E-03     122.755E-03     630.009E-03    -593.189E-03     418.438E-03     453.189E-03    -226.398E-03    -226.791E-03    -226.791E-03     453.189E-03    -226.398E-03     314.388E-06    -142.769E+06    -144.578E+06    -287.563E+06    -143.595E+06    -287.551E+06    -143.764E+06     1.19199E+06         57.9333
              47     476.868E-09     48.4417E-03     802.743E-03     11.5641E-03    -653.641E-03     195.319E-03     618.988E-03    -653.641E-03     659.354E-03     452.824E-03    -226.271E-03    -226.553E-03    -226.513E-03     452.824E-03    -226.311E-03     147.563E-06    -142.190E+06    -143.316E+06    -287.395E+06    -143.019E+06    -287.381E+06    -142.502E+06     338.523E+03         57.9568
              48    -538.868E-09     46.8701E-03     932.996E-03    -64.5298E-03    -707.907E-03     269.169E-03     599.298E-03    -707.907E-03     936.423E-03     452.960E-03    -226.364E-03    -226.596E-03    -226.363E-03     452.960E-03    -226.596E-03     399.215E-06    -142.071E+06    -142.453E+06    -289.262E+06    -142.149E+06    -289.254E+06    -142.383E+06    -1.08058E+06         57.9801
              49     238.820E-09     45.2977E-03         1.09397    -176.267E-03    -755.718E-03     346.087E-03     571.615E-03    -755.718E-03         1.24719     453.221E-03    -226.358E-03    -226.863E-03    -226.670E-03     453.221E-03    -226.551E-03     26.4833E-06    -143.396E+06    -143.971E+06    -293.323E+06    -143.485E+06    -293.305E+06    -143.901E+06     504.554E+03         58.0033
              50     259.577E-09     43.7248E-03         1.27258    -313.376E-03    -796.673E-03     424.055E-03     535.146E-03    -796.673E-03         1.58047     452.751E-03    -226.190E-03    -226.561E-03    -226.502E-03     452.751E-03    -226.249E-03     392.550E-06    -142.576E+06    -143.934E+06    -291.457E+06    -143.446E+06    -291.440E+06    -143.081E+06     695.567E+03         58.0264
              51    -339.577E-09     42.1538E-03         1.45951    -467.608E-03    -829.966E-03     498.908E-03     492.996E-03    -829.966E-03         1.92624     452.617E-03    -226.219E-03    -226.398E-03    -226.219E-03     452.616E-03    -226.398E-03     811.859E-06    -141.541E+06    -143.548E+06    -287.930E+06    -142.396E+06    -287.928E+06    -142.695E+06    -385.891E+03         58.0494
              52     142.055E-09     40.5820E-03         1.65128    -631.289E-03    -856.664E-03     571.418E-03     448.573E-03    -856.664E-03         2.27873     453.008E-03    -226.331E-03    -226.677E-03    -226.557E-03     453.008E-03    -226.451E-03     313.563E-06    -142.134E+06    -144.041E+06    -288.402E+06    -142.897E+06    -288.391E+06    -143.288E+06     838.681E+03         58.0724
              53     232.389E-09     39.0109E-03         1.83618    -796.587E-03    -876.546E-03     639.552E-03     400.041E-03    -876.546E-03         2.62150     453.210E-03    -226.485E-03    -226.724E-03    -226.711E-03     453.209E-03    -226.498E-03     250.884E-06    -142.711E+06    -143.558E+06    -288.199E+06    -143.481E+06    -288.181E+06    -142.806E+06     168.266E+03         58.0954
              54    -248.347E-09     37.4370E-03         2.00345    -883.363E-03    -957.595E-03     698.086E-03     350.546E-03    -886.135E-03         2.93762     453.375E-03    -226.607E-03    -226.768E-03    -226.755E-03     453.375E-03    -226.620E-03     629.409E-06    -142.417E+06    -142.526E+06    -287.466E+06    -142.439E+06    -287.444E+06    -142.526E+06    -1.74719E+06         58.1183
              55     489.231E-09     35.8641E-03         2.14882    -886.104E-03        -1.09817     747.138E-03     303.512E-03    -886.104E-03         3.21643     453.332E-03    -226.358E-03    -226.974E-03    -226.974E-03     453.332E-03    -226.358E-03     554.600E-06    -142.479E+06    -143.028E+06    -287.583E+06    -142.501E+06    -287.560E+06    -143.028E+06    -286.260E+03         58.1412
              56     257.947E-09     34.2926E-03         2.26467    -879.479E-03        -1.21998     786.030E-03     258.657E-03    -879.479E-03         3.44444     453.067E-03    -226.240E-03    -226.827E-03    -226.827E-03     453.067E-03    -226.240E-03     293.789E-06    -142.748E+06    -144.406E+06    -290.582E+06    -143.880E+06    -290.573E+06    -143.283E+06     985.670E+03         58.1639
              57    -49.5579E-09     32.7210E-03         2.34500    -865.368E-03        -1.31573     810.677E-03     218.595E-03    -865.368E-03         3.61250     453.104E-03    -226.338E-03    -226.766E-03    -226.457E-03     453.104E-03    -226.647E-03     126.475E-06    -140.784E+06    -143.046E+06    -289.921E+06    -141.910E+06    -289.918E+06    -141.922E+06    -202.658E+03         58.1866
              58    -449.495E-09     31.1487E-03         2.39043    -843.729E-03        -1.38301     821.646E-03     185.781E-03    -843.729E-03         3.71947     453.695E-03    -226.652E-03    -227.043E-03    -226.652E-03     453.695E-03    -227.043E-03     25.2196E-06    -139.260E+06    -141.009E+06    -287.193E+06    -139.873E+06    -287.191E+06    -140.398E+06    -401.210E+03         58.2092
              59     331.830E-09     29.5748E-03         2.39635    -814.134E-03        -1.41690     818.237E-03     161.217E-03    -814.134E-03         3.75622     454.198E-03    -227.004E-03    -227.194E-03    -227.112E-03     454.198E-03    -227.086E-03    -217.815E-06    -141.796E+06    -143.564E+06    -291.079E+06    -142.408E+06    -291.078E+06    -142.953E+06     325.798E+03         58.2317
              60    -165.860E-09     28.0009E-03         2.35175    -772.986E-03        -1.41280     794.758E-03     144.198E-03    -772.986E-03         3.70791     454.554E-03    -227.171E-03    -227.382E-03    -227.279E-03     454.553E-03    -227.275E-03     207.481E-06    -141.924E+06    -144.680E+06    -292.158E+06    -143.525E+06    -292.156E+06    -143.082E+06     69.9394E+03         58.2539
              61     25.1883E-09     26.4250E-03         2.25444    -719.876E-03        -1.36618     750.692E-03     137.564E-03    -719.876E-03         3.56831     455.310E-03    -227.487E-03    -227.823E-03    -227.719E-03     455.309E-03    -227.590E-03     638.965E-06    -140.661E+06    -143.755E+06    -289.932E+06    -142.262E+06    -289.930E+06    -142.157E+06    -613.903E+03         58.2757
              62     335.250E-09     24.8481E-03         2.10136    -656.810E-03        -1.27370     686.552E-03     141.108E-03    -656.810E-03         3.33066     455.532E-03    -227.551E-03    -227.980E-03    -227.980E-03     455.531E-03    -227.551E-03     584.523E-06    -141.736E+06    -144.812E+06    -289.455E+06    -143.323E+06    -289.449E+06    -143.232E+06     163.155E+03         58.2968
              63    -176.733E-12     23.2732E-03         1.89109    -582.660E-03        -1.13671     600.256E-03     154.120E-03    -582.660E-03         2.99460     455.056E-03    -227.379E-03    -227.677E-03    -227.575E-03     455.056E-03    -227.481E-03     335.668E-06    -141.315E+06    -144.701E+06    -290.247E+06    -142.899E+06    -290.243E+06    -143.121E+06     616.775E+03         58.3168
              64    -176.009E-09     21.6989E-03         1.63806    -500.562E-03    -962.868E-03     496.325E-03     178.869E-03    -500.562E-03         2.58112     453.717E-03    -226.690E-03    -227.027E-03    -226.690E-03     453.716E-03    -227.027E-03    -674.852E-06    -141.036E+06    -144.387E+06    -291.401E+06    -142.580E+06    -291.401E+06    -142.842E+06     126.306E+03         58.3351
              65    -176.498E-09     20.1274E-03         1.36126    -419.280E-03    -765.330E-03     382.763E-03     213.165E-03    -419.280E-03         2.11901     450.359E-03    -225.048E-03    -225.311E-03    -225.075E-03     450.358E-03    -225.283E-03    -1.63693E-03    -142.365E+06    -145.307E+06    -292.608E+06    -143.926E+06    -292.592E+06    -143.763E+06    -1.03345E+06         58.3511
              66     211.739E-09     18.5630E-03         1.08284    -342.412E-03    -562.204E-03     265.227E-03     255.412E-03    -342.412E-03         1.64298     444.677E-03    -222.264E-03    -222.413E-03    -222.289E-03     444.674E-03    -222.385E-03    -2.37012E-03    -143.665E+06    -145.100E+06    -295.825E+06    -143.724E+06    -295.804E+06    -145.062E+06    -477.170E+03         58.3642
              67    -400.643E-09     17.0099E-03     835.026E-03    -275.974E-03    -376.468E-03     152.995E-03     305.563E-03    -275.974E-03         1.19706     435.779E-03    -217.683E-03    -218.096E-03    -217.677E-03     435.772E-03    -218.096E-03    -4.02250E-03    -142.894E+06    -143.665E+06    -296.071E+06    -143.674E+06    -296.062E+06    -142.894E+06     51.8546E+03         58.3739
              68    -61.9098E-09     15.4737E-03     647.520E-03    -210.230E-03    -251.917E-03     55.6326E-03     359.604E-03    -229.864E-03     815.556E-03     423.159E-03    -211.348E-03    -211.811E-03    -211.336E-03     423.147E-03    -211.811E-03    -5.57324E-03    -144.188E+06    -145.945E+06    -296.922E+06    -144.938E+06    -296.905E+06    -145.212E+06    -1.55119E+06         58.3802
              69    -231.732E-09     13.9588E-03     540.858E-03    -150.753E-03    -202.861E-03    -25.2411E-03     415.346E-03    -202.861E-03     516.344E-03     407.753E-03    -203.760E-03    -203.992E-03    -203.801E-03     407.733E-03    -203.932E-03    -6.86592E-03    -146.782E+06    -147.935E+06    -299.545E+06    -146.933E+06    -299.522E+06    -147.806E+06    -113.736E+03         58.3841
              70     318.576E-09     12.4700E-03     514.448E-03    -132.297E-03    -191.046E-03    -89.4709E-03     471.623E-03    -191.046E-03     305.880E-03     391.614E-03    -195.487E-03    -196.127E-03    -196.101E-03     391.588E-03    -195.487E-03    -7.75041E-03    -147.146E+06    -147.860E+06    -295.897E+06    -147.870E+06    -295.887E+06    -147.146E+06     975.925E+03         58.3871
              71     622.683E-09     11.0049E-03     537.335E-03    -148.770E-03    -194.857E-03    -136.706E-03     525.271E-03    -194.857E-03     168.720E-03     379.493E-03    -189.014E-03    -190.479E-03    -190.458E-03     379.472E-03    -189.014E-03    -6.87330E-03    -147.125E+06    -147.743E+06    -290.387E+06    -147.712E+06    -290.385E+06    -147.159E+06     472.716E+03         58.3923
              72     829.433E-09     9.55213E-03     577.792E-03    -175.704E-03    -206.936E-03    -173.104E-03     575.192E-03    -206.936E-03     78.8387E-03     377.947E-03    -187.939E-03    -190.008E-03    -189.999E-03     377.938E-03    -187.939E-03    -4.00382E-03    -151.088E+06    -152.953E+06    -290.185E+06    -152.924E+06    -290.179E+06    -151.122E+06    -134.903E+03         58.4037
              73     1.16432E-06     8.09167E-03     621.987E-03    -204.267E-03    -220.282E-03    -203.973E-03     621.693E-03    -220.282E-03     20.5302E-03     391.879E-03    -194.822E-03    -197.058E-03    -197.055E-03     391.877E-03    -194.822E-03     228.362E-06    -154.409E+06    -156.724E+06    -293.996E+06    -156.245E+06    -293.991E+06    -154.894E+06    -832.720E+03         58.4272
              74     612.294E-09     6.59733E-03     663.999E-03    -228.898E-03    -236.146E-03    -228.705E-03     663.807E-03    -236.146E-03    -19.8159E-03     421.876E-03    -210.173E-03    -211.704E-03    -211.694E-03     421.867E-03    -210.173E-03     4.52774E-03    -144.132E+06    -145.631E+06    -297.327E+06    -145.150E+06    -297.324E+06    -144.617E+06     87.4557E+03         58.4713
              75     261.885E-09     5.04482E-03     700.484E-03    -248.697E-03    -252.103E-03    -248.765E-03     699.799E-03    -251.350E-03    -49.8548E-03     462.736E-03    -230.723E-03    -232.013E-03    -231.181E-03     462.716E-03    -231.535E-03     7.37284E-03    -124.392E+06    -127.516E+06    -297.017E+06    -125.411E+06    -297.012E+06    -126.501E+06     934.203E+03         58.5480
              76    -1.47108E-06     3.42060E-03     729.015E-03    -260.907E-03    -266.851E-03    -265.959E-03     728.123E-03    -260.907E-03    -59.4797E-03     504.310E-03    -250.735E-03    -253.575E-03    -250.717E-03     504.292E-03    -253.575E-03     7.27494E-03    -100.138E+06    -104.011E+06    -291.294E+06    -101.917E+06    -291.279E+06    -102.247E+06     1.59875E+06         58.6736
              77    -1.59184E-06     1.73007E-03     746.854E-03    -267.816E-03    -276.859E-03    -276.405E-03     746.401E-03    -267.816E-03    -39.0833E-03     535.135E-03    -265.152E-03    -269.983E-03    -265.145E-03     535.128E-03    -269.983E-03     4.48534E-03    -76.6193E+06    -80.3856E+06    -278.416E+06    -78.4238E+06    -278.376E+06    -78.6213E+06     2.77813E+06         58.8666
              78     759.170E-06    -1.48492E-15     750.933E-03    -271.758E-03    -276.704E-03    -275.546E-03     750.869E-03    -272.852E-03    -6.23303E-03     543.583E-03    -269.655E-03    -273.927E-03    -269.650E-03     543.577E-03    -273.927E-03     4.02030E-03    -66.6002E+06    -70.5195E+06    -271.746E+06    -68.5474E+06    -271.716E+06    -68.6023E+06     2.07226E+06         58.9960
              79     1.52152E-03    -1.48492E-15     748.521E-03    -271.587E-03    -273.685E-03    -271.574E-03     748.509E-03    -273.685E-03     1.96471E-03     535.446E-03    -265.004E-03    -270.442E-03    -264.989E-03     535.431E-03    -270.442E-03     6.86157E-03    -66.6142E+06    -69.2844E+06    -262.101E+06    -69.2934E+06    -262.092E+06    -66.6142E+06     1.20468E+06         59.0354
              80     2.29054E-03    -1.48492E-15     745.650E-03    -269.210E-03    -272.599E-03    -269.206E-03     745.647E-03    -272.599E-03    -1.52386E-03     523.257E-03    -256.041E-03    -267.215E-03    -256.012E-03     523.228E-03    -267.215E-03     9.36727E-03    -65.8954E+06    -69.2249E+06    -245.605E+06     -69.246E+06    -245.584E+06    -65.8954E+06     1.90679E+06         59.0988
              81     3.06774E-03    -1.48492E-15     741.003E-03    -265.729E-03    -271.331E-03    -265.728E-03     741.002E-03    -271.331E-03    -52.5076E-06     508.502E-03    -245.370E-03    -263.132E-03    -245.326E-03     508.458E-03    -263.132E-03     11.4674E-03    -62.9202E+06    -69.7753E+06    -231.240E+06    -69.7941E+06    -231.221E+06    -62.9202E+06     1.70714E+06         59.1856
              82     3.85412E-03    -1.48492E-15     735.280E-03    -261.887E-03    -269.823E-03    -261.886E-03     735.280E-03    -269.823E-03    -1.10172E-03     492.813E-03    -234.340E-03    -258.472E-03    -234.281E-03     492.753E-03    -258.472E-03     13.1078E-03    -59.5829E+06    -69.4690E+06    -210.463E+06    -69.4792E+06    -210.452E+06    -59.5829E+06     1.19890E+06         59.2947
              83     4.64953E-03    -1.48492E-15     728.131E-03    -256.693E-03    -268.052E-03    -256.693E-03     728.130E-03    -268.052E-03    -559.537E-06     477.241E-03    -223.718E-03    -253.523E-03    -223.648E-03     477.171E-03    -253.523E-03     14.0103E-03    -55.8365E+06    -68.1902E+06    -184.475E+06    -68.2000E+06    -184.465E+06    -55.8365E+06     73.5271E+03         59.4242
              84     5.45342E-03    -1.48492E-15     719.927E-03    -250.233E-03    -265.931E-03    -250.233E-03     719.927E-03    -265.931E-03    -802.141E-06     462.287E-03    -213.801E-03    -248.486E-03    -213.724E-03     462.211E-03    -248.486E-03     14.3780E-03    -51.0309E+06    -65.7555E+06    -152.207E+06    -65.7632E+06    -152.199E+06    -51.0309E+06    -816.643E+03         59.5716
              85     6.26517E-03    -1.48492E-15     710.497E-03    -242.682E-03    -263.436E-03    -242.682E-03     710.497E-03    -263.436E-03    -877.758E-06     448.548E-03    -205.045E-03    -243.503E-03    -204.962E-03     448.465E-03    -243.503E-03     14.7228E-03    -46.3418E+06    -61.1878E+06    -113.221E+06    -61.6486E+06    -112.761E+06    -46.3418E+06    -3.06025E+06         59.7339
              86     7.08345E-03    -1.48492E-15     699.877E-03    -234.314E-03    -260.579E-03    -234.313E-03     699.876E-03    -260.579E-03    -1.27794E-03     436.711E-03    -197.999E-03    -238.713E-03    -197.910E-03     436.623E-03    -238.713E-03     15.0047E-03    -36.9278E+06    -47.0386E+06    -73.3169E+06    -54.2701E+06    -62.8422E+06    -40.1711E+06    -7.91436E+06         59.9076
              87     7.90723E-03    -1.48492E-15     688.076E-03    -225.319E-03    -257.396E-03    -225.318E-03     688.075E-03    -257.396E-03    -1.58047E-03     427.263E-03    -192.999E-03    -234.263E-03    -192.906E-03     427.170E-03    -234.263E-03     15.1784E-03    -743.677E+03    -30.3719E+06    -47.6900E+06    -44.9576E+06    -3.47606E+06    -30.3719E+06    -6.57764E+06         60.0889
              88     8.73356E-03    -1.48492E-15     675.258E-03    -215.589E-03    -253.917E-03    -215.588E-03     675.257E-03    -253.917E-03    -2.04967E-03     421.040E-03    -190.670E-03    -230.370E-03    -190.563E-03     420.933E-03    -230.370E-03     16.1415E-03     35.7267E+06    -10.5214E+06    -38.3792E+06    -38.3201E+06     35.6676E+06    -10.5214E+06    -1.66233E+06         60.2738
              89     9.56081E-03    -1.48492E-15     661.680E-03    -204.901E-03    -250.154E-03    -204.899E-03     661.678E-03    -250.154E-03    -2.41770E-03     419.115E-03    -191.899E-03    -227.216E-03    -191.773E-03     418.988E-03    -227.216E-03     17.5686E-03     48.1466E+06     24.1548E+06    -34.3894E+06    -34.3528E+06     48.1100E+06     24.1548E+06     959.312E+03         60.4584
              90     10.3858E-03    -1.48492E-15     647.726E-03    -193.478E-03    -246.120E-03    -193.476E-03     647.723E-03    -246.120E-03    -2.92403E-03     422.004E-03    -197.175E-03    -224.829E-03    -197.011E-03     421.840E-03    -224.829E-03     20.0755E-03     59.5767E+06     48.3119E+06    -30.5778E+06    -30.3646E+06     52.2274E+06     55.4481E+06     3.89574E+06         60.6391
              91     11.2023E-03    -1.48492E-15     633.878E-03    -181.919E-03    -241.861E-03    -181.916E-03     633.874E-03    -241.861E-03    -3.50071E-03     430.333E-03    -207.012E-03    -223.320E-03    -206.712E-03     430.032E-03    -223.320E-03     27.2601E-03     79.8746E+06     53.5293E+06    -25.6685E+06    -25.4632E+06     53.3239E+06     79.8746E+06     3.70099E+06         60.8129
              92     12.0066E-03    -1.48492E-15     620.977E-03    -170.937E-03    -237.463E-03    -170.933E-03     620.972E-03    -237.463E-03    -3.80152E-03     445.281E-03    -218.033E-03    -227.248E-03    -221.978E-03     444.832E-03    -222.854E-03     34.5874E-03     102.361E+06     57.9858E+06    -21.2211E+06    -21.1479E+06     57.9127E+06     102.361E+06    -336.378E+03         60.9775
              93     12.8052E-03    -1.48492E-15     610.578E-03    -161.266E-03    -233.066E-03    -161.262E-03     610.574E-03    -233.066E-03    -3.55606E-03     480.027E-03    -223.878E-03    -256.148E-03    -255.291E-03     479.169E-03    -223.878E-03     49.3214E-03     116.818E+06     69.3375E+06    -13.6897E+06    -13.6258E+06     69.2737E+06     116.818E+06    -490.954E+03         61.1290
              94     13.5599E-03    -1.48492E-15     609.757E-03    -157.191E-03    -228.942E-03    -157.052E-03     609.618E-03    -228.942E-03     13.0731E-03     545.467E-03    -227.315E-03    -318.151E-03    -315.073E-03     542.388E-03    -227.315E-03     98.9641E-03     123.450E+06     83.3139E+06    -3.19661E+06    -3.16257E+06     83.2798E+06     123.450E+06      1.7149E+06         61.2631
              95     14.3304E-03     1.86715E-03     589.753E-03    -152.058E-03    -225.671E-03    -151.769E-03     589.463E-03    -225.671E-03     29.2606E-03     545.569E-03    -228.248E-03    -317.321E-03    -312.827E-03     541.075E-03    -228.248E-03     124.221E-03     118.830E+06     87.6269E+06    -2.56726E+06    -2.33657E+06     87.3962E+06     118.830E+06    -2.30206E+06         61.2217
              96     14.3576E-03     3.51297E-03     561.771E-03    -144.598E-03    -220.843E-03    -144.444E-03     561.617E-03    -220.843E-03     16.4436E-03     493.588E-03    -226.388E-03    -267.200E-03    -264.082E-03     490.470E-03    -226.388E-03     96.2943E-03     114.841E+06     85.7583E+06    -6.30297E+06     -6.0795E+06     85.5349E+06     114.841E+06    -2.50339E+06         61.0531
              97     14.3653E-03     5.10926E-03     551.356E-03    -141.948E-03    -211.959E-03    -141.945E-03     551.354E-03    -211.959E-03     1.01010E-03     476.382E-03    -226.005E-03    -250.377E-03    -248.621E-03     474.626E-03    -226.005E-03     70.8947E-03     119.428E+06     86.8726E+06    -3.87088E+06    -3.83924E+06      86.841E+06     119.428E+06     1.65129E+06         60.9490
              98     14.3673E-03     6.70007E-03     537.543E-03    -140.676E-03    -199.887E-03    -140.671E-03     537.539E-03    -199.887E-03    -3.12980E-03     469.642E-03    -225.960E-03    -243.682E-03    -242.491E-03     468.451E-03    -225.960E-03     58.1445E-03     120.569E+06     86.8555E+06    -3.21858E+06    -3.19398E+06     86.8309E+06     120.569E+06     1.30954E+06         60.8887
              99     14.3674E-03     8.29800E-03     520.067E-03    -138.886E-03    -185.353E-03    -138.875E-03     520.056E-03    -185.353E-03    -5.47213E-03     466.935E-03    -225.993E-03    -240.942E-03    -239.830E-03     465.823E-03    -225.993E-03     56.0452E-03     119.635E+06     85.6821E+06    -3.33545E+06    -3.33320E+06     85.6799E+06     119.635E+06     195.511E+03         60.8577
             100     14.3673E-03     9.89281E-03     499.435E-03    -136.510E-03    -168.869E-03    -136.494E-03     499.418E-03    -168.869E-03    -6.48191E-03     465.103E-03    -226.059E-03    -239.044E-03    -237.802E-03     463.861E-03    -226.059E-03     59.0652E-03       119.3E+06     85.2519E+06    -2.74854E+06    -2.74504E+06     85.2484E+06       119.3E+06    -483.313E+03         60.8437
             101     14.3668E-03     11.4858E-03     476.507E-03    -133.796E-03    -151.078E-03    -133.776E-03     476.487E-03    -151.078E-03    -6.97696E-03     463.495E-03    -226.131E-03    -237.364E-03    -235.973E-03     462.103E-03    -226.131E-03     62.3556E-03     117.748E+06     83.4784E+06    -3.52653E+06    -3.52326E+06     83.4751E+06     117.748E+06    -406.376E+03         60.8368
             102     14.3666E-03     13.0751E-03     452.405E-03    -127.798E-03    -135.599E-03    -130.766E-03     452.383E-03    -132.609E-03    -7.20923E-03     461.705E-03    -226.207E-03    -235.497E-03    -233.946E-03     460.153E-03    -226.207E-03     65.6783E-03     117.448E+06     83.3477E+06    -3.06255E+06    -3.06224E+06     83.3474E+06     117.448E+06     85.6459E+03         60.8300
             103     14.3665E-03     14.6601E-03     427.941E-03    -114.142E-03    -127.670E-03    -127.647E-03     427.917E-03    -114.142E-03    -7.21236E-03     459.979E-03    -226.273E-03    -233.705E-03    -232.015E-03     458.289E-03    -226.273E-03     68.3829E-03     117.277E+06     83.8719E+06    -2.93117E+06    -2.92822E+06     83.8690E+06     117.277E+06    -224.746E+03         60.8194
             104     14.3663E-03     16.2424E-03     403.937E-03    -96.3315E-03    -124.515E-03    -124.490E-03     403.912E-03    -96.3315E-03    -7.16884E-03     458.448E-03    -226.331E-03    -232.117E-03    -230.303E-03     456.635E-03    -226.331E-03     70.6753E-03     116.312E+06     82.8572E+06    -3.20867E+06    -3.20595E+06     82.8545E+06     116.312E+06    -395.550E+03         60.8033
             105     14.3662E-03     17.8219E-03     381.417E-03    -79.7843E-03    -121.515E-03    -121.490E-03     381.392E-03    -79.7843E-03    -7.04115E-03     457.150E-03    -226.389E-03    -230.761E-03    -228.849E-03     455.238E-03    -226.389E-03     72.4282E-03     115.757E+06     82.0848E+06    -3.57454E+06    -3.57402E+06     82.0842E+06     115.757E+06    -194.506E+03         60.7821
             106     14.3656E-03     19.3983E-03     360.921E-03    -65.0552E-03    -118.630E-03    -118.606E-03     360.897E-03    -65.0552E-03    -6.81632E-03     455.732E-03    -226.437E-03    -229.295E-03    -227.312E-03     453.749E-03    -226.437E-03     73.5912E-03     115.464E+06     82.3046E+06    -3.45432E+06    -3.45110E+06     82.3014E+06     115.464E+06     206.548E+03         60.7572
             107     14.3665E-03     20.9717E-03     342.968E-03    -52.6399E-03    -115.956E-03    -115.931E-03     342.943E-03    -52.6399E-03    -6.81010E-03     454.436E-03    -226.467E-03    -227.969E-03    -225.937E-03     452.404E-03    -226.467E-03     74.3644E-03     115.648E+06     83.2307E+06    -3.24449E+06    -3.23997E+06     83.2262E+06     115.648E+06     67.5535E+03         60.7307
             108     14.3658E-03     22.5436E-03     328.322E-03    -42.9390E-03    -113.678E-03    -113.652E-03     328.295E-03    -42.9390E-03    -6.85411E-03     453.781E-03    -226.494E-03    -227.288E-03    -225.258E-03     451.752E-03    -226.494E-03     74.2407E-03     115.807E+06     83.2560E+06    -3.29110E+06    -3.28929E+06     83.2542E+06     115.807E+06    -226.828E+03         60.7045
             109     14.3659E-03     24.1143E-03     317.278E-03    -36.2336E-03    -111.701E-03    -111.674E-03     317.251E-03    -36.2336E-03    -6.75220E-03     453.074E-03    -226.280E-03    -226.795E-03    -224.526E-03     451.049E-03    -226.523E-03     74.0901E-03     115.760E+06     82.9200E+06    -3.41796E+06    -3.41790E+06     82.9200E+06     115.760E+06     41.9306E+03         60.6804
             110     14.3660E-03     25.6833E-03     310.107E-03    -32.7206E-03    -110.140E-03    -110.112E-03     310.080E-03    -32.7206E-03    -6.80988E-03     452.590E-03    -226.055E-03    -226.536E-03    -224.024E-03     450.560E-03    -226.536E-03     74.1336E-03     115.709E+06     82.7814E+06    -3.29252E+06    -3.29234E+06     82.7812E+06     115.709E+06    -93.6873E+03         60.6595
             111     14.3659E-03     27.2532E-03     306.938E-03    -32.4882E-03    -109.004E-03    -108.975E-03     306.909E-03    -32.4882E-03    -6.92847E-03     452.645E-03    -226.116E-03    -226.529E-03    -224.082E-03     450.611E-03    -226.529E-03     74.2001E-03     115.308E+06     82.6477E+06    -3.46063E+06    -3.45963E+06     82.6467E+06     115.308E+06     102.840E+03         60.6424
             112     14.3663E-03     28.8224E-03     307.782E-03    -35.4772E-03    -108.259E-03    -108.229E-03     307.752E-03    -35.4772E-03    -6.99538E-03     453.022E-03    -226.346E-03    -226.675E-03    -224.473E-03     450.995E-03    -226.521E-03     74.1182E-03     115.887E+06     83.0421E+06    -3.42222E+06    -3.41915E+06     83.0391E+06     115.887E+06    -122.607E+03         60.6295
             113     14.3655E-03     30.3941E-03     312.457E-03    -41.5264E-03    -108.049E-03    -108.017E-03     312.426E-03    -41.5264E-03    -7.24811E-03     453.028E-03    -226.356E-03    -226.672E-03    -224.493E-03     451.011E-03    -226.518E-03     73.9354E-03     115.766E+06     83.0113E+06    -2.92270E+06    -2.91992E+06     83.0085E+06     115.766E+06    -160.579E+03         60.6204
             114     14.3667E-03     31.9626E-03     320.650E-03    -50.3682E-03    -108.218E-03    -108.184E-03     320.616E-03    -50.3682E-03    -7.57979E-03     453.774E-03    -226.347E-03    -227.427E-03    -225.219E-03     451.727E-03    -226.508E-03     74.5611E-03     114.154E+06     81.1967E+06    -4.45505E+06    -4.45107E+06     81.1928E+06     114.154E+06    -233.125E+03         60.6148
             115     14.3642E-03     33.5386E-03     331.995E-03    -61.6279E-03    -108.609E-03    -108.577E-03     331.963E-03    -61.6279E-03    -7.49378E-03     454.122E-03    -226.526E-03    -227.596E-03    -225.569E-03     452.095E-03    -226.526E-03     74.2264E-03     114.396E+06       80.73E+06    -4.43927E+06    -4.42679E+06     80.7175E+06     114.396E+06     235.798E+03         60.6122
             116     14.3665E-03     35.1069E-03     345.466E-03    -74.8534E-03    -109.306E-03    -109.275E-03     345.435E-03    -74.8534E-03    -7.51835E-03     452.786E-03    -226.120E-03    -226.666E-03    -224.164E-03     450.680E-03    -226.516E-03     75.4809E-03     115.780E+06     82.4534E+06    -2.04311E+06    -2.03104E+06     82.4413E+06     115.780E+06     262.348E+03         60.6121
             117     14.3674E-03     36.6752E-03     361.062E-03    -89.5086E-03    -110.305E-03    -110.270E-03     361.027E-03    -89.5086E-03    -8.13307E-03     454.144E-03    -226.064E-03    -228.080E-03    -225.607E-03     452.067E-03    -226.460E-03     75.0833E-03     115.270E+06     81.8481E+06    -3.42121E+06    -3.41185E+06     81.8387E+06     115.270E+06    -879.949E+03         60.6142
             118     14.3641E-03     38.2543E-03     378.302E-03    -104.608E-03    -111.896E-03    -111.439E-03     378.266E-03    -105.029E-03    -8.34259E-03     455.400E-03    -226.485E-03    -228.914E-03    -226.921E-03     453.407E-03    -226.485E-03     73.7398E-03     114.454E+06     80.9834E+06    -4.56406E+06    -4.53177E+06     80.9511E+06     114.454E+06     524.683E+03         60.6175
             119     14.3662E-03     39.8230E-03     395.474E-03    -112.779E-03    -120.811E-03    -112.746E-03     395.441E-03    -120.811E-03    -8.25098E-03     453.942E-03    -226.518E-03    -227.424E-03    -225.345E-03     451.863E-03    -226.518E-03     75.1676E-03     115.350E+06     82.6601E+06    -2.71340E+06     -2.6856E+06     82.6323E+06     115.350E+06     766.649E+03         60.6220
             120     14.3661E-03     41.3952E-03     412.279E-03    -114.005E-03    -136.204E-03    -113.970E-03     412.244E-03    -136.204E-03    -8.54104E-03     453.341E-03    -226.508E-03    -226.833E-03    -224.775E-03     451.283E-03    -226.508E-03     74.7113E-03     116.160E+06     83.2127E+06    -2.37027E+06    -2.36819E+06     83.2106E+06     116.160E+06    -383.459E+03         60.6276
             121     14.3658E-03     42.9665E-03     428.066E-03    -115.034E-03    -150.625E-03    -114.998E-03     428.030E-03    -150.625E-03    -8.90233E-03     453.777E-03    -226.489E-03    -227.287E-03    -225.208E-03     451.697E-03    -226.489E-03     75.1420E-03     114.942E+06     81.5260E+06    -3.23042E+06    -3.23014E+06     81.5257E+06     114.942E+06    -141.003E+03         60.6340
             122     14.3667E-03     44.5351E-03     441.863E-03    -115.968E-03    -163.531E-03    -115.929E-03     441.825E-03    -163.531E-03    -9.26583E-03     454.367E-03    -226.453E-03    -227.914E-03    -225.895E-03     452.348E-03    -226.453E-03     74.0842E-03     114.662E+06     81.4042E+06    -3.50756E+06    -3.50648E+06     81.4031E+06     114.662E+06    -248.685E+03         60.6410
             123     14.3660E-03     46.1110E-03     453.402E-03    -116.640E-03    -174.406E-03    -116.600E-03     453.361E-03    -174.406E-03    -9.64501E-03     454.544E-03    -226.457E-03    -228.087E-03    -226.108E-03     452.565E-03    -226.457E-03     73.3836E-03     114.691E+06     81.1076E+06    -3.72483E+06    -3.72222E+06     81.1050E+06     114.691E+06    -468.227E+03         60.6484
             124     14.3660E-03     47.6827E-03     461.819E-03    -116.953E-03    -182.832E-03    -116.909E-03     461.775E-03    -182.832E-03    -10.0695E-03     454.343E-03    -226.470E-03    -227.873E-03    -225.812E-03     452.282E-03    -226.470E-03     74.8674E-03     114.609E+06     80.4632E+06    -3.75303E+06    -3.74989E+06     80.4601E+06     114.609E+06    -1.55531E+03         60.6562
             125     14.3666E-03     49.2552E-03     466.644E-03    -116.940E-03    -188.469E-03    -116.893E-03     466.596E-03    -188.469E-03    -10.5365E-03     454.481E-03    -226.461E-03    -228.019E-03    -225.955E-03     452.416E-03    -226.461E-03     74.9604E-03     115.187E+06     80.9853E+06    -3.12249E+06    -3.11928E+06     80.9821E+06     115.187E+06      -6.792E+03         60.6645
             126     14.3658E-03     50.8291E-03     467.713E-03    -116.421E-03    -191.066E-03    -116.369E-03     467.662E-03    -191.066E-03    -10.9659E-03     454.234E-03    -226.473E-03    -227.762E-03    -225.706E-03     452.179E-03    -226.473E-03     74.7691E-03     114.732E+06     81.1927E+06    -2.85866E+06    -2.85432E+06     81.1884E+06     114.732E+06     72.8802E+03         60.6730
             127     14.3664E-03     52.3988E-03     464.597E-03    -115.370E-03    -190.509E-03    -115.313E-03     464.540E-03    -190.509E-03    -11.4810E-03     453.979E-03    -226.478E-03    -227.500E-03    -225.439E-03     451.918E-03    -226.478E-03     74.8350E-03     113.987E+06     80.3210E+06    -3.67453E+06    -3.67104E+06     80.3175E+06     113.987E+06     151.823E+03         60.6819
             128     14.3660E-03     53.9702E-03     457.226E-03    -113.843E-03    -186.784E-03    -113.779E-03     457.162E-03    -186.784E-03    -12.0711E-03     454.322E-03    -226.462E-03    -227.859E-03    -225.831E-03     452.294E-03    -226.462E-03     74.2746E-03     114.655E+06     80.5087E+06    -3.47494E+06    -3.47412E+06     80.5079E+06     114.655E+06    -206.999E+03         60.6911
             129     14.3666E-03     55.5441E-03     445.868E-03    -111.752E-03    -179.977E-03    -111.681E-03     445.797E-03    -179.977E-03    -12.5912E-03     454.406E-03    -226.469E-03    -227.937E-03    -225.919E-03     452.388E-03    -226.469E-03     74.0917E-03     115.001E+06     80.9165E+06    -2.80651E+06    -2.80638E+06     80.9164E+06     115.001E+06    -92.2428E+03         60.7006
             130     14.3653E-03     57.1165E-03     430.698E-03    -109.135E-03    -170.303E-03    -109.057E-03     430.620E-03    -170.303E-03    -12.9557E-03     454.139E-03    -226.480E-03    -227.659E-03    -225.588E-03     452.068E-03    -226.480E-03     75.0467E-03     113.907E+06     80.2429E+06    -3.60476E+06    -3.60343E+06     80.2416E+06     113.907E+06     157.176E+03         60.7102
             131     14.3671E-03     58.6874E-03     411.807E-03    -106.112E-03    -158.087E-03    -106.024E-03     411.720E-03    -158.087E-03    -13.4389E-03     453.767E-03    -226.467E-03    -227.300E-03    -225.216E-03     451.683E-03    -226.467E-03     75.2373E-03     114.833E+06     81.2017E+06    -2.53499E+06    -2.53241E+06     81.1991E+06     114.833E+06    -11.3497E+03         60.7200
             132     14.3663E-03     60.2590E-03     389.997E-03    -102.643E-03    -143.696E-03    -102.542E-03     389.896E-03    -143.696E-03    -14.0961E-03     454.249E-03    -226.461E-03    -227.788E-03    -225.737E-03     452.198E-03    -226.461E-03     74.6869E-03     114.380E+06     81.0017E+06    -3.64280E+06    -3.63902E+06     80.9979E+06     114.380E+06     84.6463E+03         60.7301
             133     14.3656E-03     61.8322E-03     365.870E-03    -98.7525E-03    -127.568E-03    -98.6406E-03     365.758E-03    -127.568E-03    -14.4146E-03     454.673E-03    -226.479E-03    -228.194E-03    -226.167E-03     452.647E-03    -226.479E-03     74.2873E-03     113.902E+06     80.9761E+06    -4.39768E+06    -4.39478E+06     80.9732E+06     113.902E+06     464.742E+03         60.7402
             134     14.3659E-03     63.4033E-03     339.579E-03    -94.5849E-03    -110.249E-03    -94.4641E-03     339.459E-03    -110.249E-03    -14.4719E-03     454.214E-03    -226.483E-03    -227.731E-03    -225.696E-03     452.180E-03    -226.483E-03     74.3831E-03     114.749E+06     82.2894E+06    -2.90454E+06    -2.90374E+06     82.2886E+06     114.749E+06     23.8035E+03         60.7506
             135     14.3664E-03     64.9755E-03     311.973E-03    -87.8393E-03    -94.5533E-03    -89.9537E-03     311.838E-03    -92.3034E-03    -14.7366E-03     454.074E-03    -226.464E-03    -227.610E-03    -225.551E-03     452.015E-03    -226.464E-03     74.8164E-03     115.270E+06     82.4168E+06    -2.48817E+06    -2.48774E+06     82.4164E+06     115.270E+06    -185.142E+03         60.7613
             136     14.3665E-03     66.5491E-03     284.207E-03    -74.2829E-03    -85.4462E-03    -85.2938E-03     284.054E-03    -74.2829E-03    -14.9900E-03     453.993E-03    -226.473E-03    -227.520E-03    -225.441E-03     451.914E-03    -226.473E-03     75.1703E-03     115.597E+06     81.9102E+06    -2.72607E+06    -2.72597E+06     81.9101E+06     115.597E+06    -72.2830E+03         60.7722
             137     14.3657E-03     68.1212E-03     256.751E-03    -56.7699E-03    -80.8724E-03    -80.7049E-03     256.583E-03    -56.7699E-03    -15.0217E-03     452.956E-03    -226.054E-03    -226.902E-03    -224.375E-03     450.867E-03    -226.492E-03     75.2190E-03     115.418E+06     82.0722E+06    -2.30362E+06    -2.29751E+06     82.0661E+06     115.418E+06     500.046E+03         60.7833
             138     14.3677E-03     69.6848E-03     230.210E-03    -40.2921E-03    -76.3060E-03    -76.1150E-03     230.019E-03    -40.2921E-03    -15.2666E-03     454.102E-03    -226.000E-03    -228.102E-03    -225.589E-03     452.027E-03    -226.439E-03     75.0951E-03     114.258E+06     81.4370E+06    -3.70102E+06    -3.67974E+06     81.4157E+06     114.258E+06    -304.605E+03         60.7949
             139     14.3654E-03     71.2629E-03     205.554E-03    -25.3098E-03    -71.8190E-03    -71.6034E-03     205.338E-03    -25.3098E-03    -15.4449E-03     455.687E-03    -226.425E-03    -229.262E-03    -227.326E-03     453.752E-03    -226.425E-03     72.6849E-03     113.446E+06     80.2417E+06    -4.77917E+06    -4.76246E+06     80.2250E+06     113.446E+06    -556.839E+03         60.8068
             140     14.3658E-03     72.8388E-03     183.071E-03    -12.2952E-03    -67.5513E-03    -67.3193E-03     182.839E-03    -12.2952E-03    -15.2294E-03     453.977E-03    -226.324E-03    -227.653E-03    -225.453E-03     451.933E-03    -226.480E-03     74.4142E-03     113.514E+06     80.2443E+06    -3.29772E+06    -3.29608E+06     80.2426E+06     113.514E+06     321.179E+03         60.8188
             141     14.3672E-03     74.4038E-03     163.302E-03    -1.63463E-03    -63.6209E-03    -63.3656E-03     163.046E-03    -1.63463E-03    -15.1924E-03     453.471E-03    -226.308E-03    -227.163E-03    -224.933E-03     451.398E-03    -226.464E-03     74.9199E-03     114.423E+06     81.0778E+06    -2.80625E+06    -2.79945E+06     81.0710E+06     114.423E+06    -462.829E+03         60.8314
             142     14.3659E-03     75.9795E-03     146.998E-03     6.42941E-03    -59.9931E-03    -59.7110E-03     146.716E-03     6.42941E-03    -15.2597E-03     454.455E-03    -226.443E-03    -228.012E-03    -226.010E-03     452.454E-03    -226.443E-03     73.7785E-03     115.094E+06     81.3176E+06    -2.81017E+06    -2.80006E+06     81.3075E+06     115.094E+06    -152.378E+03         60.8444
             143     14.3667E-03     77.5514E-03     134.242E-03     11.7186E-03    -56.7940E-03    -56.4936E-03     133.942E-03     11.7186E-03    -15.1328E-03     454.696E-03    -226.460E-03    -228.236E-03    -226.193E-03     452.653E-03    -226.460E-03     74.5838E-03     113.815E+06     80.5670E+06    -4.04586E+06    -4.04218E+06     80.5633E+06     113.815E+06     486.309E+03         60.8575
             144     14.3650E-03     79.1253E-03     125.227E-03     14.1298E-03    -54.1807E-03    -53.8696E-03     124.916E-03     14.1298E-03    -14.9248E-03     454.231E-03    -226.488E-03    -227.743E-03    -225.726E-03     452.214E-03    -226.488E-03     74.0702E-03     113.259E+06     80.6639E+06    -4.32744E+06    -4.32706E+06     80.6635E+06     113.259E+06     175.635E+03         60.8709
             145     14.3666E-03     80.6946E-03     120.016E-03     13.6793E-03    -51.9418E-03    -51.6228E-03     119.697E-03     13.6793E-03    -14.7985E-03     453.508E-03    -226.483E-03    -227.026E-03    -224.952E-03     451.435E-03    -226.483E-03     75.0108E-03     113.959E+06     81.9156E+06    -2.64039E+06    -2.63999E+06     81.9151E+06     113.959E+06    -44.6453E+03         60.8846
             146     14.3668E-03     82.2665E-03     118.498E-03     10.5097E-03    -50.1938E-03    -49.8721E-03     118.176E-03     10.5097E-03    -14.7180E-03     453.768E-03    -226.465E-03    -227.304E-03    -225.235E-03     451.700E-03    -226.465E-03     74.9573E-03     114.155E+06     81.7042E+06    -3.08008E+06    -3.07971E+06     81.7038E+06     114.155E+06    -167.315E+03         60.8987
             147     14.3655E-03     83.8412E-03     120.581E-03     4.83234E-03    -49.0430E-03    -48.7246E-03     120.262E-03     4.83234E-03    -14.6841E-03     454.271E-03    -226.498E-03    -227.774E-03    -225.744E-03     452.242E-03    -226.498E-03     74.3027E-03     114.769E+06     81.7742E+06    -3.44110E+06    -3.42442E+06     81.7575E+06     114.769E+06     785.483E+03         60.9130
             148     14.3653E-03     85.4070E-03     125.833E-03    -3.10126E-03    -48.2804E-03    -47.9836E-03     125.537E-03    -3.10126E-03    -14.3511E-03     457.740E-03    -226.420E-03    -231.320E-03    -229.198E-03     455.618E-03    -226.420E-03     76.3405E-03     113.358E+06     81.2652E+06    -3.43085E+06    -3.40732E+06     81.2417E+06     113.358E+06     300.868E+03         60.9278
             149     14.3677E-03     88.5689E-03     143.719E-03    -24.1205E-03    -47.8752E-03    -47.6381E-03     143.482E-03    -24.1205E-03    -13.4613E-03     451.166E-03    -224.514E-03    -226.652E-03    -222.549E-03     449.075E-03    -226.526E-03     74.6124E-03     114.620E+06     82.3131E+06    -3.05692E+06    -3.02580E+06     82.2820E+06     114.620E+06    -678.592E+03         60.9576
             150     14.3656E-03     90.1261E-03     155.692E-03    -36.2552E-03    -48.3287E-03    -48.1198E-03     155.483E-03    -36.2552E-03    -13.0297E-03     451.487E-03    -224.545E-03    -226.942E-03    -222.725E-03     449.282E-03    -226.557E-03     76.8834E-03     114.827E+06     82.5643E+06    -3.52707E+06    -3.48044E+06     82.5177E+06     114.827E+06    -165.522E+03         60.9729
             151     14.3659E-03     91.6998E-03     168.517E-03    -45.8194E-03    -51.9298E-03    -48.7025E-03     168.334E-03    -48.8644E-03    -12.5768E-03     453.700E-03    -226.502E-03    -227.198E-03    -225.203E-03     451.705E-03    -226.502E-03     73.5810E-03     114.450E+06     82.9478E+06    -3.15510E+06    -3.13509E+06     82.9278E+06     114.450E+06     740.410E+03         60.9888
             152     14.3661E-03     93.2687E-03     181.542E-03    -49.5652E-03    -61.4539E-03    -49.4010E-03     181.378E-03    -61.4539E-03    -12.3059E-03     454.005E-03    -226.471E-03    -227.534E-03    -225.484E-03     451.955E-03    -226.471E-03     74.6467E-03     114.050E+06     82.7145E+06    -2.90067E+06    -2.89996E+06     82.7138E+06     114.050E+06    -189.834E+03         61.0049
             153     14.3666E-03     94.8438E-03     194.309E-03    -50.3969E-03    -73.5115E-03    -50.2485E-03     194.161E-03    -73.5115E-03    -12.0360E-03     454.418E-03    -226.449E-03    -227.969E-03    -225.939E-03     452.388E-03    -226.449E-03     74.3215E-03     114.700E+06     82.7578E+06    -2.80410E+06    -2.80259E+06     82.7563E+06     114.700E+06    -269.333E+03         61.0213
             154     14.3662E-03     96.4152E-03     206.119E-03    -51.1199E-03    -84.5669E-03    -50.9840E-03     205.984E-03    -84.5669E-03    -11.8180E-03     454.324E-03    -226.454E-03    -227.870E-03    -225.829E-03     452.283E-03    -226.454E-03     74.5163E-03     114.774E+06     82.7395E+06    -2.87435E+06    -2.87229E+06     82.7374E+06     114.774E+06    -99.2311E+03         61.0379
             155     14.3665E-03     97.9876E-03     216.421E-03    -51.7796E-03    -94.1960E-03    -51.6552E-03     216.297E-03    -94.1960E-03    -11.5392E-03     454.770E-03    -226.457E-03    -228.313E-03    -226.277E-03     452.735E-03    -226.457E-03     74.4648E-03     113.580E+06     81.7797E+06    -4.04385E+06    -4.04109E+06     81.7769E+06     113.580E+06    -152.580E+03         61.0549
             156     14.3651E-03     99.5620E-03     224.580E-03    -52.2541E-03    -102.024E-03    -52.1423E-03     224.469E-03    -102.024E-03    -11.1185E-03     454.530E-03    -226.483E-03    -228.047E-03    -225.991E-03     452.474E-03    -226.483E-03     74.8129E-03     114.511E+06     82.5014E+06    -3.11560E+06    -3.09491E+06     82.4807E+06     114.511E+06     581.726E+03         61.0722
             157     14.3668E-03     101.135E-03     230.054E-03    -52.3969E-03    -107.749E-03    -52.2931E-03     229.951E-03    -107.749E-03    -10.8295E-03     453.045E-03    -226.171E-03    -226.874E-03    -224.432E-03     450.947E-03    -226.515E-03     75.3949E-03     115.185E+06     83.6456E+06    -1.77818E+06    -1.75935E+06     83.6268E+06     115.185E+06     770.060E+03         61.0898
             158     14.3656E-03     102.701E-03     232.665E-03    -52.2693E-03    -111.142E-03    -52.1699E-03     232.566E-03    -111.142E-03    -10.6426E-03     453.581E-03    -226.147E-03    -227.434E-03    -225.000E-03     451.490E-03    -226.490E-03     75.3288E-03     113.510E+06     82.4610E+06    -3.54559E+06    -3.54515E+06     82.4605E+06     113.510E+06    -188.215E+03         61.1081
             159     14.3665E-03     104.272E-03     231.934E-03    -51.6655E-03    -112.058E-03    -51.5701E-03     231.839E-03    -112.058E-03    -10.4034E-03     454.966E-03    -226.437E-03    -228.529E-03    -226.557E-03     452.994E-03    -226.437E-03     73.3016E-03     112.507E+06     81.1792E+06    -4.68487E+06    -4.68130E+06     81.1756E+06     112.507E+06    -453.520E+03         61.1270
             160     14.3662E-03     105.848E-03     227.712E-03    -50.5497E-03    -110.447E-03    -50.4548E-03     227.617E-03    -110.447E-03    -10.2759E-03     454.438E-03    -226.429E-03    -228.010E-03    -226.057E-03     452.486E-03    -226.429E-03     72.8961E-03     114.052E+06     82.5497E+06    -2.86076E+06    -2.85709E+06     82.5461E+06     114.052E+06    -475.862E+03         61.1463
             161     14.3673E-03     107.420E-03     220.316E-03    -49.1147E-03    -106.341E-03    -49.0180E-03     220.219E-03    -106.341E-03    -10.2066E-03     454.262E-03    -226.442E-03    -227.821E-03    -225.788E-03     452.229E-03    -226.442E-03     74.3622E-03     114.700E+06     82.5968E+06    -2.87406E+06    -2.86489E+06     82.5877E+06     114.700E+06    -710.074E+03         61.1661
             162     14.3654E-03     108.994E-03     209.682E-03    -47.2609E-03    -99.8528E-03    -47.1630E-03     209.584E-03    -99.8528E-03    -10.0306E-03     454.449E-03    -226.466E-03    -227.983E-03    -225.942E-03     452.408E-03    -226.466E-03     74.5381E-03     113.904E+06     81.1103E+06    -3.88241E+06    -3.85812E+06     81.0860E+06     113.904E+06     187.239E+03         61.1863
             163     14.3665E-03     110.565E-03     195.900E-03    -44.8873E-03    -91.1863E-03    -44.7858E-03     195.799E-03    -91.1863E-03    -9.88060E-03     454.351E-03    -226.487E-03    -227.864E-03    -225.791E-03     452.278E-03    -226.487E-03     75.0947E-03     114.240E+06     81.2603E+06    -3.70148E+06    -3.68304E+06     81.2419E+06     114.240E+06     440.996E+03         61.2070
             164     14.3654E-03     112.137E-03     179.357E-03    -42.1250E-03    -80.6095E-03    -42.0187E-03     179.251E-03    -80.6095E-03    -9.69408E-03     453.913E-03    -226.486E-03    -227.427E-03    -225.360E-03     451.845E-03    -226.486E-03     74.9491E-03     114.951E+06     82.1391E+06    -2.77441E+06    -2.75890E+06     82.1236E+06     114.951E+06     359.311E+03         61.2282
             165     14.3674E-03     113.710E-03     160.429E-03    -39.0220E-03    -68.4520E-03    -38.9060E-03     160.313E-03    -68.4520E-03    -9.59826E-03     452.775E-03    -226.146E-03    -226.629E-03    -224.209E-03     450.702E-03    -226.493E-03     74.9153E-03     116.061E+06     84.2350E+06    -2.17500E+06    -2.16262E+06     84.2226E+06     116.061E+06     724.197E+03         61.2497
             166     14.3660E-03     115.275E-03     139.711E-03    -35.5604E-03    -55.0783E-03    -35.4295E-03     139.580E-03    -55.0783E-03    -9.55672E-03     454.251E-03    -226.122E-03    -228.129E-03    -225.735E-03     452.204E-03    -226.469E-03     74.5912E-03     115.464E+06     84.4002E+06    -4.17138E+06    -4.17136E+06     84.4002E+06     115.464E+06    -31.9997E+03         61.2716
             167     14.3656E-03     116.851E-03     117.626E-03    -31.8514E-03    -40.9046E-03    -31.7063E-03     117.481E-03    -40.9046E-03    -9.28984E-03     454.993E-03    -226.428E-03    -228.565E-03    -226.598E-03     453.026E-03    -226.428E-03     73.2224E-03     115.704E+06     86.5046E+06    -3.29350E+06    -3.28541E+06     86.4965E+06     115.704E+06     572.012E+03         61.2939
             168     14.3684E-03     118.424E-03     94.7850E-03    -24.5324E-03    -29.8998E-03    -27.8723E-03     94.6157E-03    -26.3906E-03    -9.06438E-03     454.234E-03    -226.420E-03    -227.814E-03    -225.777E-03     452.197E-03    -226.420E-03     74.4353E-03     117.485E+06     89.8184E+06    -2.64038E+06    -2.62243E+06     89.8004E+06     117.485E+06    -78.1308E+03         61.3163
             169     14.3652E-03     119.998E-03     72.0650E-03    -11.9699E-03    -24.1914E-03    -23.9817E-03     71.8553E-03    -11.9699E-03    -8.90706E-03     454.653E-03    -226.434E-03    -228.219E-03    -226.175E-03     452.609E-03    -226.434E-03     74.5956E-03     117.192E+06     90.3072E+06    -4.32119E+06    -4.28254E+06     90.2686E+06     117.192E+06     485.891E+03         61.3388
             170     14.3675E-03     121.569E-03     49.8929E-03     1.92046E-03    -20.3644E-03    -20.0943E-03     49.6228E-03     1.92046E-03    -8.58335E-03     453.913E-03    -226.445E-03    -227.468E-03    -225.397E-03     451.841E-03    -226.445E-03     75.0097E-03     118.628E+06     93.7685E+06    -4.04442E+06    -4.01156E+06     93.7357E+06     118.628E+06     1.62219E+06         61.3615
             171     14.3670E-03     123.141E-03     30.0061E-03     13.6686E-03    -16.7099E-03    -16.3070E-03     28.4164E-03     14.8554E-03    -8.25281E-03     453.654E-03    -226.420E-03    -227.234E-03    -225.154E-03     451.574E-03    -226.420E-03     75.1442E-03     121.051E+06     97.7660E+06    -3.40599E+06    -3.39663E+06     97.7567E+06     121.051E+06     971.267E+03         61.3847
             172     14.3678E-03     124.712E-03     26.4703E-03     9.86360E-03    -13.6285E-03    -12.7487E-03     8.98381E-03     26.4703E-03    -7.97064E-03     454.089E-03    -226.382E-03    -227.707E-03    -225.663E-03     452.045E-03    -226.382E-03     74.5399E-03     121.695E+06     100.611E+06    -4.15589E+06    -4.14956E+06     100.604E+06     121.695E+06     756.926E+03         61.4081
             173     14.3680E-03     126.284E-03     36.4385E-03    -2.71507E-03    -14.9717E-03    -9.45973E-03    -8.22705E-03     36.4385E-03    -7.57626E-03     453.656E-03    -226.342E-03    -227.315E-03    -225.262E-03     451.603E-03    -226.342E-03     74.6716E-03     123.767E+06     104.748E+06    -3.07746E+06    -3.07053E+06     104.741E+06     123.767E+06     801.517E+03         61.4319
             174     14.3699E-03     127.855E-03     44.4835E-03    -5.56318E-03    -23.7982E-03    -6.50702E-03    -22.8544E-03     44.4835E-03    -7.22441E-03     453.718E-03    -226.295E-03    -227.422E-03    -225.334E-03     451.629E-03    -226.295E-03     75.3122E-03     126.495E+06     108.095E+06    -2.63261E+06    -2.62614E+06     108.089E+06     126.495E+06     376.950E+03         61.4562
             175     14.3689E-03     129.429E-03     50.3957E-03    -3.63444E-03    -34.7679E-03    -4.04187E-03    -34.3605E-03     50.3957E-03    -6.90045E-03     453.246E-03    -226.143E-03    -227.103E-03    -224.891E-03     451.173E-03    -226.282E-03     74.9802E-03     128.914E+06     111.074E+06    -3.16751E+06    -3.13734E+06     111.044E+06     128.914E+06     1.11714E+06         61.4806
             176     14.3709E-03     130.997E-03     54.0401E-03    -1.82973E-03    -42.8011E-03    -2.09037E-03    -42.5405E-03     54.0401E-03    -6.45452E-03     452.892E-03    -226.087E-03    -226.804E-03    -224.525E-03     450.752E-03    -226.226E-03     76.1129E-03     129.921E+06     114.274E+06    -3.42640E+06    -3.39620E+06     114.244E+06     129.921E+06     1.10635E+06         61.5052
             177     14.3716E-03     132.565E-03     55.3682E-03    -457.669E-06    -47.6416E-03    -653.556E-06    -47.4457E-03     55.3682E-03    -6.05071E-03     454.496E-03    -226.111E-03    -228.385E-03    -226.306E-03     452.416E-03    -226.111E-03     75.1651E-03     130.600E+06     116.216E+06    -4.21779E+06    -4.21375E+06     116.212E+06     130.600E+06     256.187E+03         61.5298
             178     14.3718E-03     134.144E-03     54.4059E-03     434.396E-06    -49.0752E-03     273.521E-06    -48.9143E-03     54.4059E-03    -5.62875E-03     454.526E-03    -226.057E-03    -228.470E-03    -226.432E-03     452.488E-03    -226.057E-03     74.4466E-03     132.151E+06     118.646E+06    -4.45266E+06    -4.44584E+06     118.639E+06     132.151E+06     915.836E+03         61.5541
             179     14.3738E-03     135.712E-03     51.2490E-03     810.477E-06    -47.1105E-03     673.628E-06    -46.9736E-03     51.2490E-03    -5.11379E-03     452.525E-03    -225.817E-03    -226.708E-03    -224.399E-03     450.390E-03    -225.991E-03     76.0280E-03     134.958E+06     124.661E+06    -3.12535E+06    -3.08392E+06     124.619E+06     134.958E+06     2.03316E+06         61.5785
             180     14.3768E-03     137.281E-03     46.0541E-03     601.332E-06    -41.9944E-03     475.952E-06    -41.8690E-03     46.0541E-03    -4.61263E-03     452.418E-03    -225.645E-03    -226.773E-03    -224.388E-03     450.207E-03    -225.820E-03     77.3345E-03     137.195E+06     132.106E+06    -4.10859E+06    -4.06497E+06     132.063E+06     137.195E+06     2.20171E+06         61.6045
             181     14.3785E-03     138.854E-03     39.0453E-03    -113.954E-06    -33.9592E-03    -235.719E-06    -33.8374E-03     39.0453E-03    -4.04247E-03     452.548E-03    -225.634E-03    -226.914E-03    -224.732E-03     450.366E-03    -225.634E-03     76.8274E-03     140.211E+06     138.760E+06    -4.67775E+06    -4.64876E+06     139.363E+06     139.579E+06     1.93594E+06         61.6337
             182     14.3820E-03     140.419E-03     30.5071E-03    -1.28285E-03    -23.3726E-03    -1.41810E-03    -23.2373E-03     30.5071E-03    -3.37238E-03     453.860E-03    -225.356E-03    -228.504E-03    -226.178E-03     451.534E-03    -225.356E-03     79.3764E-03     142.514E+06     141.236E+06    -3.61144E+06    -3.58597E+06     142.489E+06     141.236E+06     913.501E+03         61.6690
             183     14.3868E-03     141.994E-03     20.7774E-03    -2.25847E-03    -11.2838E-03    -3.10466E-03    -10.4376E-03     20.7774E-03    -2.76756E-03     453.960E-03    -225.044E-03    -228.916E-03    -226.736E-03     451.779E-03    -225.044E-03     76.6511E-03     142.262E+06     141.513E+06    -4.31276E+06    -4.29479E+06     142.142E+06     141.615E+06     687.057E+03         61.7128
             184     14.3903E-03     143.568E-03     13.5929E-03     1.15550E-03    -5.60247E-03    -5.07453E-03     3.97260E-03     10.2479E-03    -2.11478E-03     450.271E-03    -224.321E-03    -225.950E-03    -223.260E-03     448.158E-03    -224.898E-03     75.1085E-03     144.801E+06     143.865E+06    -4.51889E+06    -4.49844E+06     144.678E+06     143.967E+06     488.267E+03         61.7662
             185     14.3926E-03     145.125E-03     19.3867E-03    -697.867E-06    -7.30078E-03    -7.27664E-03     19.3626E-03    -697.867E-06    -1.32062E-03     450.498E-03    -224.140E-03    -226.358E-03    -223.538E-03     448.255E-03    -224.717E-03     77.6254E-03     147.850E+06     146.653E+06    -4.41567E+06    -4.38844E+06     147.823E+06     146.653E+06     724.195E+03         61.8306
             186     14.3949E-03     146.700E-03     35.3855E-03    -8.69081E-03    -12.8220E-03    -9.81057E-03     35.3824E-03    -11.6991E-03    -583.836E-06     452.790E-03    -224.479E-03    -228.312E-03    -226.174E-03     450.653E-03    -224.479E-03     76.1462E-03     151.870E+06     150.133E+06    -4.75262E+06    -4.72653E+06     151.844E+06     150.133E+06     1.83776E+06         61.9068
             187     14.3979E-03     148.270E-03     51.5704E-03    -12.4483E-03    -22.3709E-03    -12.4472E-03     51.5693E-03    -22.3709E-03     237.280E-06     453.351E-03    -224.289E-03    -229.062E-03    -226.816E-03     451.105E-03    -224.289E-03     78.1743E-03     157.226E+06     154.458E+06    -2.62250E+06    -2.61896E+06     155.829E+06     155.852E+06     623.807E+03         61.9970
             188     14.4005E-03     149.844E-03     67.2601E-03    -15.1482E-03    -32.3453E-03    -15.1443E-03     67.2562E-03    -32.3453E-03     1.10952E-03     454.439E-03    -224.099E-03    -230.340E-03    -228.097E-03     452.196E-03    -224.099E-03     78.2493E-03     158.922E+06     156.163E+06    -3.28429E+06    -3.28304E+06     156.162E+06     158.922E+06     400.793E+03         62.1103
             189     14.4019E-03     151.416E-03     82.0779E-03    -17.9839E-03    -41.3059E-03    -17.9736E-03     82.0676E-03    -41.3059E-03     1.99916E-03     457.255E-03    -223.896E-03    -233.359E-03    -231.134E-03     455.030E-03    -223.896E-03     78.2661E-03     159.636E+06     152.557E+06    -6.20852E+06    -6.16770E+06     152.516E+06     159.636E+06    -1.44910E+06         62.2624
             190     14.4040E-03     152.997E-03     95.6323E-03    -20.6960E-03    -48.9664E-03    -20.6767E-03     95.6129E-03    -48.9664E-03     2.98691E-03     460.082E-03    -223.702E-03    -236.380E-03    -234.257E-03     457.959E-03    -223.702E-03     76.7860E-03     156.411E+06     143.039E+06    -6.23978E+06    -6.16897E+06     142.968E+06     156.411E+06    -3.24723E+06         62.4686
             191     14.4043E-03     154.583E-03     107.372E-03    -23.2644E-03    -55.1020E-03    -23.2351E-03     107.343E-03    -55.1020E-03     3.90167E-03     463.683E-03    -223.516E-03    -240.166E-03    -237.942E-03     461.459E-03    -223.516E-03     78.9710E-03     150.576E+06     133.599E+06    -2.51098E+06    -2.47893E+06     133.567E+06     150.576E+06    -1.74453E+06         62.7330
             192     14.4053E-03     156.175E-03     117.082E-03    -25.7035E-03    -59.5680E-03    -25.6619E-03     117.040E-03    -59.5680E-03     4.86139E-03     468.865E-03    -223.318E-03    -245.547E-03    -243.281E-03     466.599E-03    -223.318E-03     80.3155E-03     145.132E+06     125.542E+06    -5.85416E+06    -5.77224E+06     125.460E+06     145.132E+06    -2.58150E+06         63.0423
             193     14.4054E-03     157.776E-03     124.497E-03    -27.7668E-03    -62.3013E-03    -27.7132E-03     124.444E-03    -62.3013E-03     5.70758E-03     474.634E-03    -223.107E-03    -251.527E-03    -249.214E-03     472.321E-03    -223.107E-03     81.8091E-03     139.292E+06     113.697E+06    -1.50738E+06    -1.36868E+06     113.558E+06     139.292E+06    -3.99489E+06         63.3695
             194     14.4062E-03     159.386E-03     129.286E-03    -29.4457E-03    -63.3416E-03    -29.3868E-03     129.227E-03    -63.3416E-03     6.11413E-03     481.487E-03    -222.885E-03    -258.602E-03    -256.240E-03     479.125E-03    -222.885E-03     83.4561E-03     130.100E+06     97.8428E+06    -4.33217E+06    -4.14457E+06     97.6552E+06     130.100E+06    -4.31400E+06         63.6835
             195     14.4054E-03     161.010E-03     131.319E-03    -30.6255E-03    -62.8337E-03    -30.5689E-03     131.262E-03    -62.8337E-03     6.04993E-03     487.480E-03    -222.705E-03    -264.775E-03    -262.456E-03     485.161E-03    -222.705E-03     83.4076E-03     126.386E+06     84.6762E+06    -3.53352E+06    -3.28576E+06     84.4285E+06     126.386E+06    -656.879E+03         63.9601
             196     14.4069E-03     162.637E-03     130.351E-03    -30.9408E-03    -61.0354E-03    -30.8944E-03     130.304E-03    -61.0354E-03     5.45496E-03     492.009E-03    -222.576E-03    -269.433E-03    -267.136E-03     489.712E-03    -222.576E-03     83.4971E-03     126.517E+06     75.3231E+06    -5.83393E+06    -5.10689E+06     74.5961E+06     126.517E+06    -3.33503E+06         64.1852
             197     14.4059E-03     164.273E-03     125.911E-03    -30.1753E-03    -58.3316E-03    -30.1447E-03     125.880E-03    -58.3316E-03     4.32692E-03     495.049E-03    -222.479E-03    -272.570E-03    -270.372E-03     492.851E-03    -222.479E-03     82.0359E-03     128.227E+06     61.5149E+06    -1.57855E+06    -918.328E+03     60.8547E+06     128.227E+06    -4.43277E+06         64.3598
             198     14.4084E-03     165.910E-03     117.655E-03    -28.0076E-03    -55.2150E-03    -27.9922E-03     117.640E-03    -55.2150E-03     2.94593E-03     496.275E-03    -222.420E-03    -273.855E-03    -271.774E-03     494.194E-03    -222.420E-03     79.9233E-03     127.586E+06     40.9223E+06    -5.85167E+06    -4.54747E+06     39.6181E+06     127.586E+06    -5.20138E+06         64.5061
             199     14.4077E-03     167.545E-03     105.144E-03    -23.9109E-03    -52.2264E-03    -23.9057E-03     105.139E-03    -52.2264E-03     1.50493E-03     494.802E-03    -222.406E-03    -272.396E-03    -270.605E-03     493.011E-03    -222.406E-03     73.9531E-03     134.551E+06     41.3938E+06    -5.92664E+06     1.36736E+06     34.0998E+06     134.551E+06     1.80356E+06         64.6894
             200     14.4112E-03     169.175E-03     87.7821E-03    -17.6341E-03    -49.8613E-03    -17.6319E-03     87.7799E-03    -49.8613E-03    -157.805E-06     486.916E-03    -222.518E-03    -264.399E-03    -263.040E-03     485.558E-03    -222.518E-03     63.6269E-03     135.981E+06     48.4766E+06    -15.0154E+06    -7.68033E+06     41.1415E+06     135.981E+06     202.358E+03         65.0043
             201     14.4106E-03     170.784E-03     65.5120E-03    -9.02016E-03    -48.4011E-03    -9.00624E-03     65.4980E-03    -48.4011E-03    -1.72839E-03     471.213E-03    -222.803E-03    -248.410E-03    -247.345E-03     470.148E-03    -222.803E-03     55.3358E-03     134.503E+06     55.4413E+06    -7.78693E+06     6.49025E+06     41.1641E+06     134.503E+06    -1.32287E+06         65.5054
             202     14.4156E-03     172.377E-03     39.7657E-03     1.49213E-03    -47.8067E-03     1.54562E-03     39.7122E-03    -47.8067E-03    -2.44516E-03     411.127E-03    -178.921E-03    -232.206E-03    -186.215E-03     410.585E-03    -224.370E-03     20.8341E-03     111.049E+06     61.3376E+06    -6.53751E+06     8.35533E+06     46.4448E+06     111.049E+06    -3.37968E+06         66.0351
             203     13.4679E-03     173.700E-03     27.6699E-03     5.61586E-03    -49.4479E-03     5.70485E-03     27.5810E-03    -49.4479E-03    -2.79527E-03     364.058E-03    -135.739E-03    -228.320E-03    -134.096E-03     362.416E-03    -228.320E-03    -45.9648E-03     77.4529E+06     14.4162E+06    -62.3441E+06    -36.2487E+06    -11.6793E+06     77.4529E+06    -14.1982E+06         65.9353
             204     12.5680E-03     173.505E-03     30.3296E-03     2.63789E-03    -52.9992E-03     2.83270E-03     30.1348E-03    -52.9992E-03    -4.52045E-03     368.749E-03    -135.464E-03    -233.285E-03    -129.626E-03     362.911E-03    -233.285E-03    -104.907E-03     100.064E+06     3.07360E+06    -42.9188E+06    -18.2636E+06    -21.5816E+06     100.064E+06    -7.54519E+06         65.0646
             205     11.6944E-03     173.279E-03     33.3027E-03    -940.715E-06    -56.6415E-03    -660.104E-06     33.0221E-03    -56.6415E-03    -6.15522E-03     374.802E-03    -136.715E-03    -238.087E-03    -125.910E-03     363.997E-03    -238.087E-03    -146.305E-03     120.545E+06     18.3925E+06    -15.0617E+06    -2.15881E+06     5.48958E+06     120.545E+06    -3.70982E+06         63.8572
             206     10.8410E-03     173.049E-03     36.7894E-03    -5.47586E-03    -60.3082E-03    -5.15830E-03     36.4719E-03    -60.3082E-03    -7.29666E-03     387.409E-03    -144.628E-03    -242.782E-03    -129.732E-03     372.514E-03    -242.782E-03    -175.337E-03     124.970E+06     12.9170E+06    -9.27645E+06     5.14702E+06    -1.50651E+06     124.970E+06    -4.53040E+06         62.4837
             207     10.0045E-03     172.825E-03     40.6413E-03    -10.9309E-03    -63.9257E-03    -10.5665E-03     40.2769E-03    -63.9257E-03    -8.62685E-03     405.166E-03    -157.996E-03    -247.170E-03    -140.091E-03     387.261E-03    -247.170E-03    -197.573E-03     128.511E+06     15.4331E+06    -6.33550E+06     6.24254E+06     2.85505E+06     128.511E+06    -7.84325E+06         61.1015
             208     9.18426E-03     172.612E-03     44.6645E-03    -17.2909E-03    -67.4277E-03    -16.9143E-03     44.2879E-03    -67.4277E-03    -9.62865E-03     425.097E-03    -174.061E-03    -251.037E-03    -154.267E-03     405.304E-03    -251.037E-03    -214.175E-03     127.146E+06     15.1764E+06    -9.18571E+06     9.23800E+06    -3.24733E+06     127.146E+06    -9.84874E+06         59.8204
             209     8.37993E-03     172.409E-03     48.7381E-03    -24.4886E-03    -70.7579E-03    -24.0717E-03     48.3212E-03    -70.7579E-03    -11.0179E-03     444.170E-03    -189.885E-03    -254.285E-03    -169.501E-03     423.786E-03    -254.285E-03    -223.667E-03     125.471E+06     19.3011E+06    -9.09317E+06     13.0959E+06    -2.88797E+06     125.471E+06    -10.8946E+06         58.6933
             210     7.58898E-03     172.220E-03     52.8953E-03    -32.3988E-03    -73.8714E-03    -31.9514E-03     52.4480E-03    -73.8714E-03    -12.3157E-03     461.451E-03    -204.507E-03    -256.944E-03    -184.668E-03     441.611E-03    -256.944E-03    -226.366E-03     121.856E+06     21.7318E+06    -9.66177E+06     16.6333E+06    -4.56327E+06     121.856E+06    -11.3189E+06         57.7346
             211     6.80793E-03     172.048E-03     57.1092E-03    -40.6130E-03    -76.7362E-03    -40.1485E-03     56.6447E-03    -76.7362E-03    -13.4407E-03     476.890E-03    -217.836E-03    -259.055E-03    -199.425E-03     458.480E-03    -259.055E-03    -223.028E-03     118.141E+06     26.5010E+06    -9.20361E+06     20.8168E+06    -3.51941E+06     118.141E+06    -12.8067E+06         56.9381
             212     6.03621E-03     171.892E-03     61.2892E-03    -48.8552E-03    -79.3351E-03    -48.4124E-03     60.8464E-03    -79.3351E-03    -13.9090E-03     490.110E-03    -229.464E-03    -260.646E-03    -213.179E-03     473.825E-03    -260.646E-03    -213.811E-03     113.121E+06     32.1194E+06    -9.85684E+06     26.6199E+06    -4.35739E+06     113.121E+06    -14.1211E+06         56.2877
             213     5.27133E-03     171.754E-03     65.1937E-03    -56.9202E-03    -81.6623E-03    -56.5292E-03     64.8026E-03    -81.6623E-03    -13.7827E-03     501.049E-03    -239.266E-03    -261.784E-03    -225.542E-03     487.325E-03    -261.784E-03    -199.394E-03     108.802E+06     38.5324E+06    -11.1818E+06     33.1942E+06    -5.84363E+06     108.802E+06    -15.1276E+06         55.7636
             214     4.51194E-03     171.635E-03     68.7051E-03    -64.5610E-03    -83.7172E-03    -64.2374E-03     68.3815E-03    -83.7172E-03    -13.0573E-03     509.519E-03    -246.972E-03    -262.547E-03    -236.042E-03     498.589E-03    -262.547E-03    -180.083E-03     105.208E+06     43.9708E+06    -12.0253E+06     39.8152E+06    -7.86976E+06     105.208E+06    -14.6759E+06         55.3467
             215     3.75593E-03     171.533E-03     71.7395E-03    -71.6082E-03    -85.4863E-03    -71.3684E-03     71.4997E-03    -85.4863E-03    -11.6687E-03     515.552E-03    -252.536E-03    -263.016E-03    -244.388E-03     507.404E-03    -263.016E-03    -156.784E-03     97.1824E+06     50.3842E+06    -9.65741E+06     46.4941E+06    -5.76730E+06     97.1824E+06    -14.7554E+06         55.0202
             216     3.00167E-03     171.452E-03     74.3142E-03    -77.7440E-03    -86.9536E-03    -77.5655E-03     74.1357E-03    -86.9536E-03    -10.3743E-03     520.181E-03    -256.909E-03    -263.272E-03    -251.311E-03     514.583E-03    -263.272E-03    -130.608E-03     84.9342E+06     56.6250E+06    -9.33087E+06     53.0458E+06    -5.75161E+06     84.9342E+06    -14.9309E+06         54.7701
             217     2.24988E-03     171.388E-03     76.6219E-03    -82.7645E-03    -88.1026E-03    -82.6582E-03     76.5156E-03    -88.1026E-03    -8.00162E-03     523.361E-03    -259.980E-03    -263.382E-03    -256.595E-03     519.976E-03    -263.382E-03    -101.562E-03     76.3437E+06     62.7985E+06    -11.3876E+06     60.0285E+06    -8.61766E+06     76.3437E+06    -13.8698E+06         54.5855
             218     1.49912E-03     171.341E-03     78.6434E-03    -86.4699E-03    -88.9087E-03    -86.4038E-03     78.5774E-03    -88.9087E-03    -6.59908E-03     524.857E-03    -261.249E-03    -263.608E-03    -259.588E-03     523.196E-03    -263.608E-03    -70.3927E-03     72.0278E+06     68.2263E+06    -11.8291E+06     66.3706E+06    -9.97337E+06     72.0278E+06    -12.0150E+06         54.4582
             219     748.054E-06     171.313E-03     80.0393E-03    -88.5278E-03    -89.5114E-03    -88.4799E-03     79.9913E-03    -89.5114E-03    -1.45078E-03     527.125E-03    -262.494E-03    -264.631E-03    -262.885E-03     526.552E-03    -263.667E-03    -39.9333E-03     71.9536E+06     68.7792E+06    -15.1907E+06     70.6025E+06    -14.0044E+06     68.9441E+06    -9.85536E+06         54.3821
             220    -323.330E-09     169.605E-03     80.9637E-03    -81.3199E-03    -82.3568E-03    -81.9665E-03     80.9172E-03    -81.6637E-03     5.30023E-03     487.779E-03    -243.191E-03    -244.588E-03    -244.041E-03     487.665E-03    -243.624E-03    -16.8087E-03     15.9069E+06     10.7169E+06    -41.9189E+06     12.3642E+06    -40.5567E+06     12.8974E+06    -6.98244E+06         54.0580
             221    -193.715E-09     168.041E-03     88.3356E-03    -71.1375E-03    -72.6096E-03    -72.5200E-03     88.2460E-03    -71.1375E-03     7.55325E-03     423.941E-03    -211.624E-03    -212.318E-03    -211.611E-03     423.928E-03    -212.318E-03    -3.55498E-03    -73.9099E+06    -93.0245E+06    -102.584E+06    -92.4248E+06    -85.0164E+06    -92.0768E+06    -7.56923E+06         53.3467
             222    -219.527E-09     166.548E-03     103.924E-03    -69.2211E-03    -70.0966E-03    -69.8807E-03     103.804E-03    -69.3176E-03     9.11149E-03     390.563E-03    -195.012E-03    -195.551E-03    -195.004E-03     390.555E-03    -195.551E-03     3.55979E-03    -135.349E+06    -196.940E+06    -202.361E+06    -198.946E+06    -137.531E+06    -198.172E+06    -10.3624E+06         52.5536
             223    -220.652E-09     165.086E-03     121.509E-03    -70.8134E-03    -71.0993E-03    -70.7091E-03     121.405E-03    -71.0993E-03     8.86037E-03     376.142E-03    -187.931E-03    -188.210E-03    -187.908E-03     376.118E-03    -188.210E-03     7.16592E-03    -189.336E+06    -290.046E+06    -296.451E+06    -293.435E+06    -190.136E+06    -292.262E+06    -8.64755E+06         51.9077
             224     142.575E-09     163.635E-03     138.702E-03    -73.2532E-03    -73.8565E-03    -73.5835E-03     138.619E-03    -73.4426E-03     8.42663E-03     372.014E-03    -185.998E-03    -186.015E-03    -185.967E-03     371.982E-03    -186.015E-03     8.43837E-03    -219.253E+06    -276.386E+06    -280.281E+06    -277.277E+06    -220.041E+06    -278.602E+06    -2.04670E+06         51.5166
             225    -209.470E-09     162.186E-03     153.810E-03    -75.9690E-03    -76.9590E-03    -76.2680E-03     153.696E-03    -76.5451E-03     10.2250E-03     371.912E-03    -185.889E-03    -186.024E-03    -185.973E-03     371.877E-03    -185.904E-03     8.84484E-03    -196.237E+06    -197.725E+06    -227.501E+06    -198.847E+06    -225.298E+06    -197.318E+06    -39.3075E+03         51.3951
             226     355.697E-09     160.735E-03     165.118E-03    -77.7768E-03    -79.4762E-03    -77.6355E-03     164.976E-03    -79.4762E-03     11.7119E-03     372.462E-03    -185.947E-03    -186.514E-03    -186.479E-03     372.426E-03    -185.947E-03     8.91725E-03    -151.213E+06    -153.315E+06    -228.889E+06    -151.670E+06    -228.839E+06    -152.908E+06    -1.19931E+06         51.5013
             227     318.490E-09     159.284E-03     172.151E-03    -78.3339E-03    -80.1570E-03    -78.1551E-03     171.972E-03    -80.1570E-03     13.3061E-03     373.005E-03    -185.951E-03    -187.054E-03    -187.018E-03     372.969E-03    -185.951E-03     8.97358E-03    -139.261E+06    -143.156E+06    -233.277E+06    -141.469E+06    -233.269E+06    -140.956E+06    -604.588E+03         51.7712
             228     738.144E-09     157.834E-03     174.985E-03    -77.2611E-03    -80.1979E-03    -76.8991E-03     174.623E-03    -80.1979E-03     18.6853E-03     375.690E-03    -187.202E-03    -188.487E-03    -188.447E-03     375.650E-03    -187.202E-03     9.50282E-03    -142.561E+06    -145.819E+06    -241.569E+06    -144.837E+06    -241.493E+06    -143.619E+06    -2.49785E+06         52.1429
             229     236.179E-09     156.376E-03     172.752E-03    -73.2695E-03    -79.8031E-03    -72.5090E-03     171.992E-03    -79.8031E-03     26.8666E-03     381.886E-03    -190.397E-03    -191.489E-03    -191.449E-03     381.846E-03    -190.397E-03     9.59926E-03    -145.502E+06    -147.585E+06    -256.278E+06    -146.616E+06    -256.190E+06    -146.559E+06    -2.97550E+06         52.5675
             230     485.940E-09     154.907E-03     165.484E-03    -67.1791E-03    -76.6125E-03    -65.5307E-03     163.836E-03    -76.6125E-03     38.1195E-03     390.663E-03    -194.790E-03    -195.873E-03    -195.839E-03     390.629E-03    -194.790E-03     8.96744E-03    -152.877E+06    -154.319E+06    -273.208E+06    -153.993E+06    -273.118E+06    -153.293E+06    -3.16204E+06         53.0100
             231     493.706E-09     153.425E-03     154.767E-03    -59.5345E-03    -72.8514E-03    -55.5065E-03     150.739E-03    -72.8514E-03     56.3565E-03     401.023E-03    -199.981E-03    -201.042E-03    -201.014E-03     400.996E-03    -199.981E-03     8.13807E-03    -156.769E+06    -160.413E+06    -288.377E+06    -156.838E+06    -288.307E+06    -160.413E+06    -2.14155E+06         53.4456
             232     159.485E-09     151.924E-03     142.309E-03    -50.8526E-03    -70.0650E-03    -41.3474E-03     132.804E-03    -70.0650E-03     81.1389E-03     411.812E-03    -205.563E-03    -206.249E-03    -206.226E-03     411.789E-03    -205.563E-03     7.50739E-03    -158.870E+06    -165.037E+06    -292.947E+06    -161.815E+06    -292.941E+06    -162.098E+06     593.925E+03         53.8568
             233     252.871E-09     150.408E-03     130.918E-03    -44.5415E-03    -65.5266E-03    -23.6977E-03     110.074E-03    -65.5266E-03     110.455E-03     421.514E-03    -210.627E-03    -210.887E-03    -210.855E-03     421.495E-03    -210.640E-03     6.83309E-03    -161.858E+06    -165.173E+06    -293.457E+06    -164.812E+06    -293.442E+06    -162.235E+06    -136.227E+03         54.2316
             234    -293.956E-09     148.878E-03     125.730E-03    -44.5666E-03    -61.0103E-03    -2.30569E-03     83.4693E-03    -61.0103E-03     143.767E-03     428.726E-03    -214.274E-03    -214.453E-03    -214.427E-03     428.715E-03    -214.287E-03     5.39870E-03    -164.622E+06    -167.030E+06    -296.323E+06    -164.640E+06    -296.305E+06    -167.030E+06     13.3781E+03         54.5626
             235     533.167E-09     147.340E-03     129.284E-03    -52.3234E-03    -58.9437E-03     23.2496E-03     53.5813E-03    -58.8144E-03     176.361E-03     433.668E-03    -216.563E-03    -217.105E-03    -217.099E-03     433.662E-03    -216.563E-03     4.09435E-03    -164.212E+06    -169.772E+06    -302.477E+06    -167.761E+06    -302.457E+06    -166.243E+06    -90.5712E+03         54.8469
             236     109.634E-09     145.796E-03     140.035E-03    -56.5056E-03    -66.8361E-03     52.0677E-03     21.1316E-03    -56.5056E-03     202.359E-03     437.850E-03    -218.601E-03    -219.249E-03    -219.244E-03     437.845E-03    -218.601E-03     3.73136E-03    -164.130E+06    -172.745E+06    -315.419E+06    -167.717E+06    -315.361E+06    -169.216E+06    -2.81849E+06         55.0856
             237     271.020E-09     144.244E-03     155.118E-03    -55.5151E-03    -83.7935E-03     83.5956E-03    -12.2708E-03    -55.5151E-03     216.914E-03     441.007E-03    -220.181E-03    -220.826E-03    -220.822E-03     441.004E-03    -220.181E-03     2.95608E-03    -160.659E+06    -170.435E+06    -321.882E+06    -165.396E+06    -321.834E+06    -165.746E+06    -2.11028E+06         55.2831
             238     379.448E-09     142.690E-03     170.379E-03    -58.9794E-03    -98.0765E-03     117.409E-03    -45.1070E-03    -58.9794E-03     211.222E-03     442.579E-03    -220.838E-03    -221.741E-03    -221.739E-03     442.577E-03    -220.838E-03     2.46506E-03    -157.669E+06    -168.222E+06    -321.873E+06    -162.361E+06    -321.869E+06    -163.533E+06    -700.718E+03         55.4457
             239     407.156E-09     141.135E-03     185.344E-03    -65.0711E-03    -108.123E-03     153.055E-03    -75.8345E-03    -65.0711E-03     179.745E-03     443.963E-03    -221.676E-03    -222.287E-03    -222.285E-03     443.961E-03    -221.676E-03     2.09713E-03    -156.379E+06    -166.791E+06    -320.228E+06    -160.989E+06    -320.167E+06    -162.243E+06     1.58278E+06         55.5802
             240    -224.578E-09     139.576E-03     203.771E-03    -74.4149E-03    -117.563E-03     190.238E-03    -104.030E-03    -74.4149E-03     120.228E-03     445.442E-03    -222.644E-03    -222.798E-03    -222.724E-03     445.441E-03    -222.717E-03     1.44402E-03    -152.980E+06    -159.879E+06    -316.742E+06    -157.608E+06    -316.663E+06    -155.330E+06     781.474E+03         55.6934
             241     85.3647E-09     138.015E-03     231.397E-03    -89.8077E-03    -131.931E-03     228.471E-03    -129.005E-03    -89.8077E-03     25.0718E-03     447.051E-03    -223.430E-03    -223.621E-03    -223.547E-03     447.050E-03    -223.503E-03     1.58624E-03    -150.962E+06    -154.461E+06    -316.588E+06    -152.152E+06    -316.546E+06    -153.312E+06    -62.6874E+03         55.7911
             242     118.375E-09     136.451E-03     276.387E-03    -109.050E-03    -157.867E-03     266.964E-03    -148.444E-03    -109.050E-03    -107.810E-03     448.717E-03    -224.261E-03    -224.456E-03    -224.378E-03     448.717E-03    -224.338E-03     1.53945E-03    -152.904E+06    -154.059E+06    -319.244E+06    -154.081E+06    -319.222E+06    -152.904E+06     806.809E+03         55.8778
             243    -239.288E-09     134.885E-03     343.679E-03    -131.798E-03    -200.826E-03     304.754E-03    -161.900E-03    -131.798E-03    -272.729E-03     449.851E-03    -224.851E-03    -225.000E-03    -224.922E-03     449.850E-03    -224.928E-03     1.18504E-03    -151.208E+06    -153.104E+06    -322.209E+06    -151.217E+06    -322.206E+06    -153.098E+06    -192.942E+03         55.9565
             244     336.323E-09     133.317E-03     433.793E-03    -160.406E-03    -262.612E-03     340.648E-03    -169.466E-03    -160.406E-03    -469.467E-03     450.646E-03    -225.154E-03    -225.492E-03    -225.491E-03     450.645E-03    -225.154E-03     1.10648E-03    -146.663E+06    -150.435E+06    -322.357E+06    -148.546E+06    -322.356E+06    -148.553E+06     358.183E+03         56.0292
             245     112.259E-09     131.749E-03     543.202E-03    -192.202E-03    -339.038E-03     373.334E-03    -169.170E-03    -192.202E-03    -692.957E-03     451.272E-03    -225.489E-03    -225.783E-03    -225.754E-03     451.271E-03    -225.517E-03     1.16567E-03    -147.774E+06    -150.786E+06    -320.825E+06    -149.656E+06    -320.825E+06    -148.904E+06     63.8597E+03         56.0968
             246    -165.719E-09     130.180E-03     664.225E-03    -226.765E-03    -422.842E-03     402.691E-03    -161.307E-03    -226.765E-03    -927.719E-03     451.760E-03    -225.809E-03    -225.950E-03    -225.922E-03     451.759E-03    -225.837E-03     826.343E-06    -144.388E+06    -146.459E+06    -314.445E+06    -145.331E+06    -314.442E+06    -145.518E+06     400.683E+03         56.1601
             247     359.693E-09     128.609E-03     791.612E-03    -265.999E-03    -510.072E-03     427.927E-03    -146.387E-03    -265.999E-03        -1.16698     451.936E-03    -225.824E-03    -226.112E-03    -226.112E-03     451.936E-03    -225.824E-03     708.731E-06    -140.767E+06    -142.955E+06    -308.925E+06    -141.714E+06    -308.919E+06    -142.014E+06     987.885E+03         56.2194
             248    -89.9073E-09     127.040E-03     920.137E-03    -306.028E-03    -596.502E-03     447.720E-03    -124.086E-03    -306.028E-03        -1.40390     452.264E-03    -225.812E-03    -226.452E-03    -225.987E-03     452.263E-03    -226.276E-03     944.314E-06    -140.492E+06    -143.450E+06    -309.265E+06    -142.208E+06    -309.260E+06    -141.738E+06     876.258E+03         56.2750
             249    -629.487E-09     125.468E-03         1.04302    -345.550E-03    -675.814E-03     463.563E-03    -96.3534E-03    -345.550E-03        -1.62456     452.653E-03    -226.090E-03    -226.563E-03    -226.099E-03     452.653E-03    -226.554E-03     510.323E-06    -139.121E+06    -141.404E+06    -305.133E+06    -141.415E+06    -305.122E+06    -139.121E+06    -546.975E+03         56.3274
             250     653.502E-09     123.896E-03         1.15630    -386.798E-03    -743.481E-03     474.965E-03    -62.1440E-03    -386.798E-03        -1.82182     452.569E-03    -225.928E-03    -226.642E-03    -226.641E-03     452.569E-03    -225.928E-03     675.183E-06    -138.144E+06    -141.492E+06    -301.232E+06    -138.725E+06    -301.222E+06    -140.920E+06    -596.069E+03         56.3769
             251     443.586E-09     122.325E-03         1.25436    -427.415E-03    -797.377E-03     478.891E-03    -21.9111E-03    -427.415E-03        -1.98930     452.728E-03    -225.969E-03    -226.759E-03    -226.759E-03     452.728E-03    -225.969E-03     1.25794E-03    -138.325E+06    -143.385E+06    -300.089E+06    -140.609E+06    -300.088E+06    -141.102E+06     159.699E+03         56.4242
             252    -279.503E-09     120.754E-03         1.33307    -465.047E-03    -835.447E-03     477.183E-03     20.4380E-03    -465.047E-03        -2.11959     452.957E-03    -226.354E-03    -226.604E-03    -226.439E-03     452.957E-03    -226.518E-03     793.145E-06    -136.383E+06    -140.197E+06    -295.569E+06    -138.680E+06    -295.557E+06    -137.913E+06     894.449E+03         56.4695
             253     4.10509E-09     119.182E-03         1.39448    -500.350E-03    -857.016E-03     472.043E-03     65.4257E-03    -500.350E-03        -2.21422     452.731E-03    -226.132E-03    -226.599E-03    -226.434E-03     452.731E-03    -226.297E-03     511.240E-06    -138.242E+06    -140.949E+06    -293.709E+06    -139.437E+06    -293.691E+06    -139.771E+06     365.399E+03         56.5134
             254     494.450E-09     117.611E-03         1.43886    -531.895E-03    -865.870E-03     460.600E-03     112.389E-03    -531.895E-03        -2.27801     452.698E-03    -226.186E-03    -226.512E-03    -226.488E-03     452.697E-03    -226.209E-03     709.687E-06    -140.921E+06    -143.495E+06    -294.082E+06    -142.114E+06    -294.067E+06    -142.318E+06     224.054E+03         56.5560
             255    -542.812E-09     116.039E-03         1.46554    -557.901E-03    -864.487E-03     443.971E-03     157.080E-03    -557.901E-03        -2.31209     452.892E-03    -226.375E-03    -226.517E-03    -226.375E-03     452.892E-03    -226.517E-03     580.479E-06    -138.196E+06    -139.842E+06    -291.845E+06    -138.479E+06    -291.812E+06    -139.593E+06     2.18388E+06         56.5978
             256     361.007E-09     114.467E-03         1.47816    -579.370E-03    -850.989E-03     426.604E-03     200.564E-03    -579.370E-03        -2.31795     452.852E-03    -226.278E-03    -226.575E-03    -226.456E-03     452.852E-03    -226.396E-03     678.072E-06    -139.108E+06    -140.297E+06    -286.166E+06    -140.335E+06    -286.128E+06    -139.108E+06     303.741E+03         56.6388
             257    -62.1559E-09     112.895E-03         1.47619    -595.232E-03    -828.472E-03     405.887E-03     241.832E-03    -595.232E-03        -2.29862     452.791E-03    -226.246E-03    -226.545E-03    -226.545E-03     452.791E-03    -226.246E-03     833.367E-06    -140.406E+06    -141.840E+06    -284.077E+06    -141.372E+06    -284.050E+06    -140.900E+06    -1.93613E+06         56.6792
             258     252.659E-09     111.324E-03         1.45801    -603.912E-03    -798.983E-03     380.767E-03     278.264E-03    -603.912E-03        -2.25448     452.965E-03    -226.346E-03    -226.619E-03    -226.619E-03     452.965E-03    -226.346E-03     791.687E-06    -138.842E+06    -139.367E+06    -286.918E+06    -138.854E+06    -286.907E+06    -139.367E+06    -745.864E+03         56.7191
             259    -6.26616E-09     109.751E-03         1.42421    -607.360E-03    -758.364E-03     356.051E-03     309.793E-03    -607.360E-03        -2.18194     453.116E-03    -226.475E-03    -226.641E-03    -226.641E-03     453.116E-03    -226.475E-03     824.379E-06    -139.778E+06    -140.076E+06    -287.464E+06    -139.779E+06    -287.462E+06    -140.076E+06     400.625E+03         56.7585
             260     28.6556E-09     108.179E-03         1.37300    -604.229E-03    -707.707E-03     330.681E-03     334.609E-03    -604.229E-03        -2.08056     453.017E-03    -226.454E-03    -226.563E-03    -226.562E-03     453.017E-03    -226.454E-03     558.026E-06    -141.452E+06    -142.447E+06    -285.545E+06    -142.185E+06    -285.540E+06    -141.719E+06     818.298E+03         56.7975
             261     134.164E-09     106.608E-03         1.30318    -592.214E-03    -647.853E-03     302.486E-03     352.846E-03    -592.214E-03        -1.95024     452.881E-03    -226.377E-03    -226.504E-03    -226.472E-03     452.881E-03    -226.409E-03     376.610E-06    -141.941E+06    -143.941E+06    -286.800E+06     -142.68E+06    -286.789E+06    -143.214E+06     1.27012E+06         56.8361
             262    -195.110E-09     105.036E-03         1.21465    -560.475E-03    -589.685E-03     275.687E-03     362.986E-03    -574.179E-03        -1.78840     452.927E-03    -226.427E-03    -226.499E-03    -226.427E-03     452.927E-03    -226.499E-03     291.708E-06    -140.579E+06    -144.009E+06    -286.141E+06    -142.743E+06    -286.134E+06    -141.852E+06      642.91E+03         56.8745
             263     158.739E-09     103.464E-03         1.10829    -491.861E-03    -550.010E-03     250.896E-03     365.533E-03    -550.010E-03        -1.59591     453.069E-03    -226.472E-03    -226.597E-03    -226.557E-03     453.068E-03    -226.511E-03     657.206E-06    -138.789E+06    -142.949E+06    -283.502E+06    -140.990E+06    -283.458E+06    -140.792E+06    -1.81966E+06         56.9125
             264    -39.7774E-09     101.891E-03     982.831E-03    -397.358E-03    -517.157E-03     224.808E-03     360.665E-03    -517.157E-03        -1.37333     453.063E-03    -226.428E-03    -226.635E-03    -226.634E-03     453.063E-03    -226.428E-03     832.222E-06    -139.197E+06    -142.318E+06    -283.346E+06    -140.413E+06    -283.248E+06    -141.199E+06     171.690E+03         56.9501
             265     249.165E-09     100.319E-03     840.355E-03    -293.050E-03    -478.052E-03     199.481E-03     347.824E-03    -478.052E-03        -1.12346     452.760E-03    -226.033E-03    -226.727E-03    -226.726E-03     452.760E-03    -226.033E-03     461.570E-06    -142.050E+06    -144.287E+06    -285.770E+06    -144.352E+06    -285.705E+06    -142.050E+06     1.06306E+06         56.9875
             266     679.867E-09     98.7479E-03     686.523E-03    -181.209E-03    -434.507E-03     176.420E-03     328.894E-03    -434.507E-03    -853.865E-03     452.887E-03    -226.136E-03    -226.751E-03    -226.750E-03     452.886E-03    -226.136E-03     913.691E-06    -139.797E+06    -144.703E+06    -286.616E+06    -140.932E+06    -286.600E+06    -143.584E+06    -1.49048E+06         57.0244
             267    -649.577E-09     97.1762E-03     525.551E-03    -70.7660E-03    -383.892E-03     152.107E-03     302.678E-03    -383.892E-03    -575.996E-03     453.319E-03    -226.472E-03    -226.847E-03    -226.514E-03     453.319E-03    -226.805E-03     499.208E-06    -138.249E+06    -145.072E+06    -287.530E+06    -141.324E+06    -287.491E+06    -142.036E+06     953.483E+03         57.0608
             268     156.122E-09     95.6031E-03     369.238E-03     28.9031E-03    -327.207E-03     127.604E-03     270.537E-03    -327.207E-03    -303.851E-03     453.220E-03    -226.391E-03    -226.829E-03    -226.496E-03     453.220E-03    -226.724E-03     426.136E-06    -140.835E+06    -144.411E+06    -287.333E+06    -143.938E+06    -287.265E+06    -141.375E+06    -2.71837E+03         57.0968
             269     9.58569E-09     94.0298E-03     259.470E-03     80.4772E-03    -267.966E-03     105.383E-03     234.565E-03    -267.966E-03    -51.4443E-03     453.093E-03    -226.354E-03    -226.739E-03    -226.738E-03     453.093E-03    -226.354E-03     1.16187E-03    -142.422E+06    -143.218E+06    -285.614E+06    -142.456E+06    -285.580E+06    -143.218E+06    -1.51179E+06         57.1321
             270     436.529E-09     92.4582E-03     244.839E-03     32.3976E-03    -204.853E-03     81.5152E-03     195.722E-03    -204.853E-03     166.614E-03     453.064E-03    -226.317E-03    -226.748E-03    -226.748E-03     453.064E-03    -226.317E-03     991.415E-06    -142.721E+06    -143.033E+06    -286.793E+06    -142.778E+06    -286.793E+06    -142.978E+06    -177.400E+03         57.1668
             271    -189.148E-09     90.8867E-03     282.885E-03    -63.8254E-03    -146.145E-03     56.0347E-03     156.146E-03    -139.266E-03     337.937E-03     452.937E-03    -226.305E-03    -226.632E-03    -226.632E-03     452.937E-03    -226.305E-03     449.025E-06    -141.404E+06    -142.064E+06    -286.379E+06    -141.468E+06    -286.371E+06    -142.008E+06     496.461E+03         57.2008
             272     466.106E-09     89.3155E-03     305.328E-03    -75.7376E-03    -155.899E-03     32.6052E-03     116.823E-03    -75.7376E-03     453.185E-03     452.955E-03    -226.359E-03    -226.596E-03    -226.596E-03     452.955E-03    -226.359E-03     243.994E-06    -142.626E+06    -144.768E+06    -287.345E+06    -144.196E+06    -287.313E+06    -143.230E+06     2.04428E+06         57.2340
             273    -345.682E-09     87.7429E-03     300.422E-03    -13.1236E-03    -212.384E-03     8.70544E-03     79.3326E-03    -13.1236E-03     507.873E-03     453.084E-03    -226.499E-03    -226.585E-03    -226.561E-03     453.084E-03    -226.523E-03     560.888E-06    -139.805E+06    -143.759E+06    -285.644E+06    -141.375E+06    -285.612E+06    -142.221E+06     570.396E+03         57.2666
             274     13.5670E-03     85.3072E-03     121.129E-03    -1.47810E-03    -45.0039E-03    -44.7774E-03     120.903E-03    -1.47810E-03    -2.20804E-03     457.893E-03    -226.361E-03    -231.532E-03    -228.592E-03     454.953E-03    -226.361E-03     88.8524E-03     113.274E+06     79.4539E+06    -7.69121E+06    -7.67854E+06     79.4412E+06     113.274E+06    -24.1021E+03         60.8412
             275     12.7727E-03     85.1716E-03     111.799E-03     1.75424E-03    -38.4515E-03    -38.2914E-03     111.639E-03     1.75424E-03     147.088E-06     455.476E-03    -226.088E-03    -229.388E-03    -226.331E-03     452.628E-03    -226.297E-03     86.9102E-03     111.223E+06     73.2744E+06    -15.4375E+06    -15.4192E+06     73.2562E+06     111.223E+06    -733.656E+03         60.6554
             276     11.9743E-03     85.0714E-03     102.942E-03     4.88785E-03    -32.3283E-03    -31.7910E-03     102.405E-03     4.88785E-03     5.93337E-03     452.495E-03    -225.797E-03    -226.698E-03    -224.385E-03     450.705E-03    -226.319E-03     69.5638E-03     104.176E+06     67.6444E+06    -22.6683E+06    -22.6382E+06     67.6144E+06     104.176E+06    -661.663E+03         60.4447
             277     11.1747E-03     84.9791E-03     93.8220E-03     7.87998E-03    -25.8868E-03    -25.3594E-03     93.2946E-03     7.87998E-03     6.77620E-03     451.935E-03    -225.555E-03    -226.380E-03    -224.167E-03     450.539E-03    -226.371E-03     61.1827E-03     90.4574E+06     62.2676E+06    -30.6652E+06    -30.6454E+06     62.2478E+06     90.4574E+06     428.437E+03         60.2107
             278     10.3750E-03     84.8999E-03     84.6081E-03     10.7360E-03    -19.1406E-03    -18.9150E-03     84.3825E-03     10.7360E-03     1.43484E-03     451.832E-03    -225.415E-03    -226.417E-03    -224.412E-03     450.829E-03    -226.417E-03     51.9312E-03     73.7917E+06     54.2846E+06    -39.1968E+06    -39.1796E+06     54.2674E+06     73.7917E+06     1.22124E+06         59.9564
             279     9.57566E-03     84.8316E-03     76.5902E-03     13.4256E-03    -13.3869E-03    -12.5331E-03     75.7363E-03     13.4256E-03    -5.20362E-03     451.872E-03    -225.409E-03    -226.464E-03    -224.667E-03     451.130E-03    -226.464E-03     44.6789E-03     59.7155E+06     47.6596E+06    -47.8670E+06    -47.8490E+06     47.6416E+06     59.7155E+06     1.17127E+06         59.6861
             280     8.77670E-03     84.7734E-03     68.3503E-03     15.9324E-03    -7.31792E-03    -6.39363E-03     67.4260E-03     15.9324E-03    -5.17430E-03     452.039E-03    -225.520E-03    -226.520E-03    -224.978E-03     451.498E-03    -226.520E-03     38.1816E-03     45.1961E+06     23.9758E+06    -56.9586E+06    -56.9500E+06     23.9672E+06     45.1961E+06     534.762E+03         59.4052
             281     7.97833E-03     84.7248E-03     60.4086E-03     18.2463E-03    -1.47012E-03    -657.944E-06     59.5964E-03     18.2463E-03    -2.35911E-03     452.320E-03    -225.745E-03    -226.574E-03    -225.357E-03     451.932E-03    -226.574E-03     32.3029E-03     27.7504E+06    -21.8236E+06    -66.2254E+06    -66.2188E+06    -21.8302E+06     27.7504E+06    -178.936E+03         59.1198
             282     7.18025E-03     84.6844E-03     54.6925E-03     20.3580E-03     2.31443E-03     4.72424E-03     52.2827E-03     20.3580E-03     4.55307E-03     452.436E-03    -225.828E-03    -226.608E-03    -225.563E-03     452.171E-03    -226.608E-03     26.6835E-03     9.57689E+06    -63.8199E+06    -78.6867E+06    -75.8662E+06    -66.6404E+06     9.57689E+06    -347.793E+03         58.8363
             283     6.38223E-03     84.6527E-03     48.0144E-03     22.2571E-03     7.29212E-03     9.64591E-03     45.6606E-03     22.2571E-03     7.06651E-03     452.469E-03    -225.843E-03    -226.627E-03    -225.671E-03     452.298E-03    -226.627E-03     21.4297E-03    -8.58867E+06    -85.6651E+06    -104.769E+06    -85.6709E+06    -104.763E+06    -8.58867E+06    -138.237E+03         58.5615
             284     5.58416E-03     84.6284E-03     45.5309E-03     23.9301E-03     8.34728E-03     14.1736E-03     39.7046E-03     23.9301E-03     11.6103E-03     452.520E-03    -225.884E-03    -226.636E-03    -225.781E-03     452.417E-03    -226.636E-03     16.5204E-03    -27.1298E+06    -95.4713E+06    -138.115E+06    -95.4741E+06    -138.112E+06    -27.1298E+06    -169.568E+03         58.3018
             285     4.78625E-03     84.6116E-03     46.4583E-03     25.3668E-03     6.24347E-03     18.1107E-03     34.5910E-03     25.3668E-03     105.433E-06     452.598E-03    -225.965E-03    -226.633E-03    -225.910E-03     452.543E-03    -226.633E-03     12.0000E-03    -47.1047E+06    -105.468E+06    -169.597E+06    -105.470E+06    -169.595E+06    -47.1047E+06    -251.144E+03         58.0634
             286     3.98836E-03     84.6013E-03     45.0782E-03     26.5575E-03     6.47728E-03     21.5586E-03     29.9969E-03     26.5575E-03     313.346E-06     452.616E-03    -225.992E-03    -226.624E-03    -225.967E-03     452.591E-03    -226.624E-03     7.94333E-03    -68.2548E+06    -115.319E+06    -196.953E+06    -115.322E+06    -196.950E+06    -68.2548E+06    -240.448E+03         57.8516
             287     3.19031E-03     84.5966E-03     54.9994E-03     27.5343E-03    -4.51093E-03     24.0807E-03     26.4078E-03     27.5343E-03    -22.2878E-03     452.665E-03    -226.048E-03    -226.618E-03    -226.039E-03     452.657E-03    -226.618E-03     4.55185E-03    -89.9223E+06    -124.531E+06    -217.443E+06    -124.534E+06    -217.440E+06    -89.9223E+06    -196.767E+03         57.6714
             288     2.39261E-03     84.5949E-03     72.4782E-03     28.2627E-03    -22.7367E-03     26.5714E-03     23.1701E-03     28.2627E-03     14.5035E-03     452.866E-03    -226.250E-03    -226.616E-03    -226.248E-03     452.864E-03    -226.616E-03     2.01055E-03    -111.149E+06    -132.087E+06    -237.268E+06    -132.088E+06    -237.267E+06    -111.149E+06    -26.8545E+03         57.5265
             289     1.59494E-03     84.5963E-03     94.6662E-03     28.8921E-03    -45.3924E-03     27.4831E-03     21.7907E-03     28.8921E-03    -30.7836E-03     453.078E-03    -226.461E-03    -226.618E-03    -226.461E-03     453.078E-03    -226.618E-03     454.707E-06    -128.701E+06    -137.862E+06    -258.526E+06    -137.873E+06    -258.515E+06    -128.701E+06     84.4841E+03         57.4200
             290     797.443E-06     84.5978E-03     160.967E-03     65.4924E-03    -148.140E-03    -7.03418E-03     19.8615E-03     65.4924E-03     137.348E-03     453.212E-03    -226.539E-03    -226.673E-03    -226.639E-03     453.212E-03    -226.573E-03     233.061E-06    -137.592E+06    -144.018E+06    -278.584E+06    -141.572E+06    -278.573E+06    -140.049E+06     225.677E+03         57.3533
             291     13.5670E-03     83.7282E-03     115.201E-03     6.61625E-03    -45.1269E-03    -44.8896E-03     114.963E-03     6.61625E-03    -2.48972E-03     455.560E-03    -226.501E-03    -229.059E-03    -226.407E-03     452.907E-03    -226.501E-03     84.4776E-03     114.515E+06     80.0403E+06    -7.01601E+06    -7.00552E+06     80.0298E+06     114.515E+06     569.713E+03         60.8265
             292     12.7693E-03     83.5962E-03     104.556E-03     10.1501E-03    -37.5062E-03    -37.3328E-03     104.383E-03     10.1501E-03    -175.324E-06     455.610E-03    -226.490E-03    -229.119E-03    -226.550E-03     453.041E-03    -226.490E-03     82.9160E-03     111.942E+06     74.0227E+06    -13.9166E+06    -13.8936E+06     73.9997E+06     111.942E+06    -155.044E+03         60.6418
             293     11.9713E-03     83.5013E-03     94.4043E-03     13.5732E-03    -30.4027E-03    -29.8271E-03     93.8287E-03     13.5732E-03     5.50343E-03     453.935E-03    -226.462E-03    -227.473E-03    -225.699E-03     452.161E-03    -226.462E-03     69.3970E-03     102.890E+06     66.7956E+06    -22.5339E+06    -22.5050E+06     66.7666E+06     102.890E+06    -787.916E+03         60.4332
             294     11.1726E-03     83.4077E-03     83.9629E-03     16.8581E-03    -22.8862E-03    -22.3106E-03     83.3873E-03     16.8581E-03     6.24948E-03     453.148E-03    -226.337E-03    -226.811E-03    -225.275E-03     451.712E-03    -226.437E-03     62.1707E-03     88.2061E+06     60.0723E+06    -32.0400E+06    -32.0276E+06     60.0599E+06     88.2061E+06    -567.721E+03         60.2022
             295     10.3745E-03     83.3291E-03     73.4079E-03     19.9962E-03    -15.0536E-03    -14.7984E-03     73.1527E-03     19.9962E-03     753.969E-06     452.540E-03    -226.042E-03    -226.498E-03    -225.078E-03     451.506E-03    -226.428E-03     52.8042E-03       73.03E+06     53.3495E+06    -40.2640E+06    -40.2519E+06     53.3374E+06       73.03E+06     36.7846E+03         59.9513
             296     9.57598E-03     83.2604E-03     64.3598E-03     22.9541E-03    -8.50501E-03    -7.40179E-03     63.2565E-03     22.9541E-03    -5.87599E-03     452.168E-03    -225.729E-03    -226.438E-03    -224.970E-03     451.409E-03    -226.438E-03     45.2037E-03     60.0353E+06     47.9036E+06    -48.1778E+06    -48.1616E+06     47.8874E+06     60.0353E+06     442.030E+03         59.6849
             297     8.77736E-03     83.2022E-03     54.9733E-03     25.7144E-03    -1.51083E-03    -320.544E-06     53.7830E-03     25.7144E-03    -6.14686E-03     452.071E-03    -225.595E-03    -226.476E-03    -225.049E-03     451.525E-03    -226.476E-03     38.3269E-03     46.0388E+06     25.3545E+06    -56.6550E+06    -56.6455E+06     25.3450E+06     46.0388E+06     482.457E+03         59.4080
             298     7.97883E-03     83.1525E-03     46.0915E-03     28.2650E-03     5.06929E-03     6.29591E-03     44.8648E-03     28.2650E-03    -3.01281E-03     452.135E-03    -225.606E-03    -226.529E-03    -225.220E-03     451.749E-03    -226.529E-03     32.2108E-03     28.2907E+06    -20.8235E+06    -66.0900E+06    -66.0780E+06    -20.8355E+06     28.2907E+06     195.889E+03         59.1266
             299     7.18053E-03     83.1126E-03     41.2204E-03     29.9741E-03     8.40581E-03     12.4387E-03     36.5638E-03     30.5978E-03     3.52544E-03     452.254E-03    -225.681E-03    -226.573E-03    -225.415E-03     451.988E-03    -226.573E-03     26.6801E-03     9.49101E+06    -64.0382E+06    -78.9764E+06    -76.0342E+06    -66.9804E+06     9.49101E+06     45.6815E+03         58.8472
             300     6.38233E-03     83.0805E-03     38.0093E-03     29.1184E-03     12.6825E-03     18.0253E-03     29.0777E-03     32.7072E-03     6.81385E-03     452.364E-03    -225.762E-03    -226.601E-03    -225.590E-03     452.191E-03    -226.601E-03     21.4776E-03    -8.69072E+06    -85.8494E+06    -104.973E+06    -85.8592E+06    -104.963E+06    -8.69072E+06     170.605E+03         58.5763
             301     5.58430E-03     83.0566E-03     38.1449E-03     30.8955E-03     11.0430E-03     23.2196E-03     22.2860E-03     34.5778E-03     10.3936E-03     452.406E-03    -225.788E-03    -226.618E-03    -225.686E-03     452.303E-03    -226.618E-03     16.5175E-03    -27.3016E+06    -95.4405E+06    -137.590E+06    -95.4416E+06    -137.588E+06    -27.3016E+06     137.410E+03         58.3202
             302     4.78614E-03     83.0396E-03     40.3663E-03     34.7825E-03     5.21643E-03     27.7070E-03     16.4594E-03     36.1988E-03     509.625E-06     452.500E-03    -225.868E-03    -226.631E-03    -225.814E-03     452.445E-03    -226.631E-03     11.9304E-03    -47.0759E+06    -105.266E+06    -169.904E+06    -105.266E+06    -169.904E+06    -47.0759E+06    -75.6813E+03         58.0850
             303     3.98821E-03     83.0293E-03     40.8198E-03     36.2981E-03     3.33201E-03     31.7404E-03     11.1565E-03     37.5530E-03    -2.13665E-03     452.686E-03    -226.061E-03    -226.625E-03    -226.037E-03     452.662E-03    -226.625E-03     7.78503E-03    -67.7335E+06    -114.784E+06    -197.178E+06    -114.785E+06    -197.177E+06    -67.7335E+06    -4.24025E+03         57.8761
             304     3.19066E-03     83.0244E-03     49.0172E-03     38.1230E-03    -6.79549E-03     34.5967E-03     7.06920E-03     38.6787E-03    -20.2157E-03     452.813E-03    -226.228E-03    -226.585E-03    -226.220E-03     452.805E-03    -226.585E-03     4.43721E-03    -89.2008E+06    -123.862E+06    -217.266E+06    -123.862E+06    -217.265E+06    -89.2008E+06     21.6607E+03         57.6982
             305     2.39287E-03     83.0229E-03     62.0136E-03     39.5306E-03    -21.2473E-03     37.5500E-03     3.21640E-03     39.5306E-03     9.11278E-03     452.825E-03    -226.284E-03    -226.541E-03    -226.283E-03     452.823E-03    -226.541E-03     1.87408E-03    -110.309E+06    -132.383E+06    -237.964E+06    -132.386E+06    -237.961E+06    -110.309E+06     70.6106E+03         57.5552
             306     1.59518E-03     83.0240E-03     76.3435E-03     40.3137E-03    -36.1914E-03     38.4891E-03     1.66302E-03     40.3137E-03    -21.0594E-03     452.868E-03    -226.344E-03    -226.524E-03    -226.344E-03     452.868E-03    -226.524E-03     347.105E-06    -128.339E+06    -139.098E+06    -259.075E+06    -139.106E+06    -259.067E+06    -128.339E+06     610.772E+03         57.4500
             307     797.560E-06     83.0255E-03     130.471E-03     76.2923E-03    -126.135E-03    -13.4146E-03    -900.755E-06     94.9431E-03     106.910E-03     453.013E-03    -226.460E-03    -226.554E-03    -226.465E-03     453.013E-03    -226.549E-03     131.514E-06    -137.644E+06    -145.155E+06    -277.036E+06    -142.706E+06    -277.028E+06    -140.101E+06     849.263E+03         57.3840
             308     13.5683E-03     82.1593E-03     112.631E-03     12.3958E-03    -45.9126E-03    -45.6785E-03     112.396E-03     12.3958E-03    -2.70095E-03     454.374E-03    -226.507E-03    -227.867E-03    -225.168E-03     451.674E-03    -226.507E-03     85.0666E-03     114.396E+06     79.9909E+06    -6.43253E+06    -6.42251E+06     79.9809E+06     114.396E+06    -283.893E+03         60.8126
             309     12.7678E-03     82.0233E-03     100.997E-03     16.1246E-03    -37.4697E-03    -37.2883E-03     100.815E-03     16.1246E-03    -607.345E-06     454.675E-03    -226.568E-03    -228.107E-03    -225.586E-03     452.154E-03    -226.568E-03     81.7039E-03     111.961E+06     73.5815E+06    -13.8633E+06    -13.8471E+06     73.5653E+06     111.961E+06     322.544E+03         60.6288
             310     11.9698E-03     81.9275E-03     89.8634E-03     19.7321E-03    -29.5038E-03    -28.9114E-03     89.2711E-03     19.7321E-03     5.01971E-03     454.336E-03    -226.560E-03    -227.775E-03    -226.130E-03     452.690E-03    -226.560E-03     66.8963E-03     103.664E+06     66.9389E+06    -22.0059E+06    -21.9885E+06     66.9214E+06     103.664E+06     1.00394E+06         60.4221
             311     11.1726E-03     81.8353E-03     78.4983E-03     23.1937E-03    -21.1780E-03    -20.5761E-03     77.8964E-03     23.1937E-03     5.71801E-03     453.790E-03    -226.498E-03    -227.291E-03    -225.930E-03     452.428E-03    -226.498E-03     60.6521E-03     89.0899E+06     60.8019E+06    -30.6967E+06    -30.6809E+06     60.7861E+06     89.0899E+06     388.961E+03         60.1938
             312     10.3742E-03     81.7569E-03     67.0202E-03     26.5003E-03    -12.5595E-03    -12.2906E-03     66.7513E-03     26.5003E-03     24.7890E-06     452.967E-03    -226.346E-03    -226.621E-03    -225.514E-03     451.959E-03    -226.444E-03     52.1891E-03     72.7052E+06     53.4192E+06    -39.8680E+06    -39.8580E+06     53.4092E+06     72.7052E+06    -589.448E+03         59.9463
             313     9.57594E-03     81.6888E-03     57.2866E-03     29.6238E-03    -5.50342E-03    -4.19978E-03     55.9829E-03     29.6238E-03    -6.46241E-03     452.463E-03    -226.036E-03    -226.427E-03    -225.276E-03     451.703E-03    -226.427E-03     45.2693E-03     59.5941E+06     47.2263E+06    -48.9043E+06    -48.8955E+06     47.2175E+06     59.5941E+06    -893.634E+03         59.6835
             314     8.77774E-03     81.6300E-03     47.0600E-03     32.5439E-03     2.21121E-03     3.60289E-03     45.6684E-03     32.5439E-03    -7.04379E-03     452.160E-03    -225.715E-03    -226.446E-03    -225.158E-03     451.604E-03    -226.446E-03     38.6828E-03     45.7245E+06     24.6486E+06    -58.0120E+06    -58.0079E+06     24.6445E+06     45.7245E+06    -363.656E+03         59.4106
             315     7.97935E-03     81.5814E-03     39.5543E-03     33.3800E-03     9.16687E-03     10.8821E-03     35.9734E-03     35.2457E-03    -3.52523E-03     452.027E-03    -225.533E-03    -226.494E-03    -225.139E-03     451.633E-03    -226.494E-03     32.5499E-03     27.8744E+06    -21.0096E+06    -67.3625E+06    -67.3534E+06    -21.0187E+06     27.8744E+06     353.109E+03         59.1333
             316     7.18071E-03     81.5408E-03     38.4653E-03     32.5087E-03     11.2875E-03     17.5631E-03     26.9732E-03     37.7253E-03     2.59694E-03     452.079E-03    -225.533E-03    -226.546E-03    -225.262E-03     451.809E-03    -226.546E-03     26.9511E-03     9.39643E+06    -64.0605E+06    -79.2324E+06    -76.5702E+06    -66.7226E+06     9.39643E+06     520.911E+03         58.8579
             317     6.38248E-03     81.5087E-03     39.9810E-03     29.9603E-03     12.5545E-03     23.6488E-03     18.8659E-03     39.9810E-03     6.85502E-03     452.259E-03    -225.673E-03    -226.587E-03    -225.497E-03     452.084E-03    -226.587E-03     21.6386E-03    -8.71411E+06    -86.0094E+06    -104.755E+06    -86.0271E+06    -104.737E+06    -8.71411E+06     166.062E+03         58.5908
             318     5.58431E-03     81.4846E-03     41.9919E-03     32.6954E-03     8.10461E-03     29.3695E-03     11.4305E-03     41.9919E-03     9.06348E-03     452.427E-03    -225.823E-03    -226.604E-03    -225.719E-03     452.323E-03    -226.604E-03     16.5614E-03    -27.5648E+06    -95.8633E+06    -137.415E+06    -95.8661E+06    -137.412E+06    -27.5648E+06     27.3116E+03         58.3383
             319     4.78637E-03     81.4677E-03     43.7480E-03     38.7477E-03     501.082E-06     34.2581E-03     4.99067E-03     43.7480E-03     1.29976E-03     452.542E-03    -225.935E-03    -226.607E-03    -225.881E-03     452.488E-03    -226.607E-03     11.8168E-03    -47.1425E+06    -105.642E+06    -169.698E+06    -105.643E+06    -169.697E+06    -47.1425E+06     132.231E+03         58.1063
             320     3.98845E-03     81.4572E-03     45.2234E-03     41.1466E-03    -3.22295E-03     38.7879E-03    -864.294E-06     45.2234E-03    -4.92364E-03     452.666E-03    -226.079E-03    -226.587E-03    -226.056E-03     452.643E-03    -226.587E-03     7.71088E-03    -67.8104E+06    -115.262E+06    -197.106E+06    -115.263E+06    -197.106E+06    -67.8104E+06     35.1473E+03         57.9002
             321     3.19064E-03     81.4519E-03     49.2041E-03     44.7414E-03    -10.7822E-03     41.9961E-03    -5.27737E-03     46.4446E-03    -17.2185E-03     452.760E-03    -226.226E-03    -226.534E-03    -226.218E-03     452.752E-03    -226.534E-03     4.40846E-03    -89.6214E+06    -124.227E+06    -217.397E+06    -124.227E+06    -217.397E+06    -89.6214E+06     8.54347E+03         57.7246
             322     2.39319E-03     81.4510E-03     55.2229E-03     47.3956E-03    -19.7130E-03     45.0667E-03    -9.55674E-03     47.3956E-03     2.26480E-03     452.749E-03    -226.273E-03    -226.475E-03    -226.271E-03     452.747E-03    -226.475E-03     1.99016E-03    -110.624E+06    -131.894E+06    -238.484E+06    -131.897E+06    -238.481E+06    -110.624E+06     98.8485E+03         57.5834
             323     1.59544E-03     81.4522E-03     60.4700E-03     48.3339E-03    -25.6488E-03     46.1238E-03    -11.3025E-03     48.3339E-03    -8.50966E-03     452.746E-03    -226.294E-03    -226.451E-03    -226.294E-03     452.746E-03    -226.451E-03     558.739E-06    -127.246E+06    -137.477E+06    -259.404E+06    -137.480E+06    -259.401E+06    -127.246E+06     117.652E+03         57.4795
             324     797.608E-06     81.4538E-03     126.793E-03     52.1376E-03    -95.5562E-03    -21.9589E-03    -14.3915E-03     119.725E-03     67.9511E-03     452.855E-03    -226.357E-03    -226.497E-03    -226.406E-03     452.854E-03    -226.448E-03     429.423E-06    -137.161E+06    -143.074E+06    -275.643E+06    -142.208E+06    -275.619E+06    -138.051E+06    -709.558E+03         57.4144
             325     13.5665E-03     80.5898E-03     113.808E-03     15.5972E-03    -47.3393E-03    -47.1158E-03     113.584E-03     15.5972E-03    -3.01778E-03     454.680E-03    -226.518E-03    -228.162E-03    -225.432E-03     451.950E-03    -226.518E-03     85.5583E-03     113.772E+06     79.8233E+06    -6.95805E+06    -6.94703E+06     79.8123E+06     113.772E+06    -174.634E+03         60.7989
             326     12.7687E-03     80.4510E-03     101.529E-03     19.3796E-03    -38.2446E-03    -38.0638E-03     101.348E-03     19.3796E-03    -1.10804E-03     454.995E-03    -226.564E-03    -228.432E-03    -225.900E-03     452.463E-03    -226.564E-03     81.8218E-03     111.141E+06     72.9042E+06    -15.4627E+06    -15.4489E+06     72.8904E+06     111.141E+06     6.50512E+03         60.6163
             327     11.9706E-03     80.3538E-03     89.7620E-03     23.0359E-03    -29.6666E-03    -29.0894E-03     89.1848E-03     23.0359E-03     4.51257E-03     454.075E-03    -226.555E-03    -227.521E-03    -225.916E-03     452.471E-03    -226.555E-03     66.0421E-03     103.609E+06     66.4788E+06    -23.2218E+06    -23.2052E+06     66.4622E+06     103.609E+06     424.042E+03         60.4115
             328     11.1723E-03     80.2621E-03     77.8626E-03     26.5486E-03    -20.8579E-03    -20.2682E-03     77.2729E-03     26.5486E-03     5.24418E-03     453.670E-03    -226.504E-03    -227.166E-03    -225.837E-03     452.340E-03    -226.504E-03     59.9301E-03     90.4760E+06     61.9458E+06    -30.6081E+06    -30.5924E+06     61.9302E+06     90.4760E+06     320.054E+03         60.1857
             329     10.3745E-03     80.1847E-03     65.9110E-03     29.9050E-03    -11.7885E-03    -11.5348E-03     65.6573E-03     29.9050E-03    -676.584E-06     453.015E-03    -226.375E-03    -226.640E-03    -225.570E-03     452.018E-03    -226.448E-03     51.9066E-03     73.9429E+06     54.6284E+06    -39.0469E+06    -39.0403E+06     54.6218E+06     73.9429E+06    -60.0902E+03         59.9413
             330     9.57626E-03     80.1167E-03     55.7724E-03     33.0813E-03    -4.37263E-03    -3.01256E-03     54.4123E-03     33.0813E-03    -7.05854E-03     452.418E-03    -225.993E-03    -226.425E-03    -225.231E-03     451.656E-03    -226.425E-03     45.3329E-03     59.3905E+06     47.1721E+06    -48.5441E+06    -48.5369E+06     47.1649E+06     59.3905E+06    -358.269E+03         59.6822
             331     8.77761E-03     80.0584E-03     45.0674E-03     36.0573E-03     3.75210E-03     5.17039E-03     43.6491E-03     36.0573E-03    -7.87647E-03     452.112E-03    -225.663E-03    -226.449E-03    -225.097E-03     451.546E-03    -226.449E-03     39.0522E-03     44.9443E+06     23.4298E+06    -58.1177E+06    -58.1130E+06     23.4251E+06     44.9443E+06    -467.466E+03         59.4131
             332     7.97908E-03     80.0097E-03     39.4512E-03     34.7658E-03     10.9536E-03     12.7759E-03     33.5734E-03     38.8213E-03    -3.90066E-03     452.147E-03    -225.649E-03    -226.498E-03    -225.246E-03     451.743E-03    -226.498E-03     32.9385E-03     27.5079E+06    -22.1696E+06    -67.5505E+06    -67.5442E+06    -22.1758E+06     27.5079E+06    -179.371E+03         59.1397
             333     7.18086E-03     79.9695E-03     41.3659E-03     31.2712E-03     12.7470E-03     19.8696E-03     24.1486E-03     41.3659E-03     1.68140E-03     452.190E-03    -225.650E-03    -226.540E-03    -225.376E-03     451.916E-03    -226.540E-03     27.1341E-03     9.58736E+06    -64.2543E+06    -79.1492E+06    -76.8605E+06    -66.5430E+06     9.58736E+06     251.990E+03         58.8683
             334     6.38236E-03     79.9370E-03     43.6847E-03     29.9946E-03     11.9091E-03     26.3152E-03     15.5885E-03     43.6847E-03     7.06354E-03     452.257E-03    -225.686E-03    -226.571E-03    -225.511E-03     452.082E-03    -226.571E-03     21.6314E-03    -8.53246E+06    -86.2708E+06    -104.121E+06    -86.2950E+06    -104.097E+06    -8.53246E+06     250.745E+03         58.6051
             335     5.58434E-03     79.9125E-03     45.7609E-03     33.7699E-03     6.30410E-03     32.3086E-03     7.76541E-03     45.7609E-03     7.73056E-03     452.418E-03    -225.834E-03    -226.584E-03    -225.731E-03     452.315E-03    -226.584E-03     16.5038E-03    -27.6047E+06    -96.2191E+06    -137.826E+06    -96.2244E+06    -137.820E+06    -27.6047E+06     95.9193E+03         58.3561
             336     4.78653E-03     79.8955E-03     47.5818E-03     39.5154E-03    -1.00006E-03     37.5156E-03     999.648E-06     47.5818E-03     2.35804E-03     452.555E-03    -225.978E-03    -226.577E-03    -225.925E-03     452.501E-03    -226.577E-03     11.8757E-03    -47.3892E+06    -105.934E+06    -169.411E+06    -105.935E+06    -169.410E+06    -47.3892E+06     88.5664E+03         58.1274
             337     3.98875E-03     79.8853E-03     49.1200E-03     43.0207E-03    -5.93348E-03     42.2613E-03    -5.17409E-03     49.1200E-03    -7.74230E-03     452.595E-03    -226.046E-03    -226.549E-03    -226.022E-03     452.571E-03    -226.549E-03     7.88286E-03    -68.3331E+06    -115.526E+06    -196.646E+06    -115.527E+06    -196.645E+06    -68.3331E+06    -4.40534E+03         57.9240
             338     3.19096E-03     79.8798E-03     50.6540E-03     47.1559E-03    -11.5492E-03     45.6928E-03    -9.83392E-03     50.4018E-03    -13.5732E-03     452.593E-03    -226.082E-03    -226.511E-03    -226.073E-03     452.585E-03    -226.511E-03     4.53509E-03    -90.3939E+06    -124.904E+06    -217.982E+06    -124.904E+06    -217.982E+06    -90.3939E+06     16.5343E+03         57.7508
             339     2.39291E-03     79.8792E-03     52.5170E-03     50.4921E-03    -16.9704E-03     49.0099E-03    -14.3603E-03     51.3892E-03    -5.24339E-03     452.666E-03    -226.182E-03    -226.484E-03    -226.180E-03     452.664E-03    -226.484E-03     2.11469E-03    -111.383E+06    -132.622E+06    -238.279E+06    -132.625E+06    -238.277E+06    -111.383E+06     72.0819E+03         57.6114
             340     1.59522E-03     79.8802E-03     53.4414E-03     52.1079E-03    -19.2038E-03     50.1615E-03    -16.1422E-03     52.3262E-03     5.75250E-03     452.790E-03    -226.318E-03    -226.472E-03    -226.317E-03     452.790E-03    -226.472E-03     738.456E-06    -129.011E+06    -139.173E+06    -259.136E+06    -139.176E+06    -259.133E+06    -129.011E+06    -141.884E+03         57.5088
             341     797.652E-06     79.8822E-03     137.498E-03     23.9609E-03    -75.1641E-03    -31.5485E-03    -19.4151E-03     137.259E-03     24.4104E-03     452.898E-03    -226.366E-03    -226.532E-03    -226.489E-03     452.898E-03    -226.409E-03     663.922E-06    -139.976E+06    -143.829E+06    -276.177E+06    -142.845E+06    -276.151E+06    -140.986E+06    -845.732E+03         57.4445
             342     13.5673E-03     79.0164E-03     118.859E-03     16.0053E-03    -49.3452E-03    -49.1329E-03     118.646E-03     16.0053E-03    -3.24649E-03     455.242E-03    -226.506E-03    -228.737E-03    -226.057E-03     452.563E-03    -226.506E-03     84.7997E-03     114.083E+06     79.6530E+06    -7.35601E+06    -7.35127E+06     79.6483E+06     114.083E+06     530.826E+03         60.7856
             343     12.7693E-03     78.8779E-03     106.384E-03     19.6951E-03    -39.9419E-03    -39.7676E-03     106.210E-03     19.6951E-03    -1.42486E-03     455.054E-03    -226.527E-03    -228.526E-03    -226.010E-03     452.537E-03    -226.527E-03     81.6623E-03     112.373E+06     73.8865E+06    -14.3023E+06    -14.2974E+06     73.8816E+06     112.373E+06     333.801E+03         60.6042
             344     11.9710E-03     78.7817E-03     94.4769E-03     23.2641E-03    -31.0941E-03    -30.5647E-03     93.9475E-03     23.2641E-03     4.06185E-03     453.675E-03    -226.523E-03    -227.152E-03    -225.533E-03     452.057E-03    -226.523E-03     66.2971E-03     104.161E+06     66.9098E+06    -22.5939E+06    -22.5887E+06     66.9045E+06     104.161E+06    -583.942E+03         60.4012
             345     11.1726E-03     78.6896E-03     82.4476E-03     26.7022E-03    -22.0736E-03    -21.5319E-03     81.9059E-03     26.7022E-03     4.78233E-03     453.250E-03    -226.434E-03    -226.816E-03    -225.413E-03     451.911E-03    -226.497E-03     60.1251E-03     89.9593E+06     61.4420E+06    -31.3909E+06    -31.3853E+06     61.4363E+06     89.9593E+06    -555.968E+03         60.1778
             346     10.3742E-03     78.6120E-03     70.3925E-03     29.9891E-03    -12.8666E-03    -12.6485E-03     70.1744E-03     29.9891E-03    -1.36847E-03     452.819E-03    -226.269E-03    -226.550E-03    -225.348E-03     451.814E-03    -226.465E-03     52.1208E-03     73.2110E+06     54.2630E+06    -39.9179E+06    -39.9159E+06     54.2610E+06     73.2110E+06     41.5159E+03         59.9364
             347     9.57582E-03     78.5450E-03     60.1226E-03     33.1052E-03    -5.24461E-03    -4.00476E-03     58.8828E-03     33.1052E-03    -7.71420E-03     452.462E-03    -226.009E-03    -226.453E-03    -225.240E-03     451.693E-03    -226.453E-03     45.5376E-03     59.1872E+06     47.6183E+06    -48.4548E+06    -48.4535E+06     47.6169E+06     59.1872E+06     186.852E+03         59.6807
             348     8.77719E-03     78.4871E-03     49.3350E-03     36.0318E-03     3.00547E-03     4.25418E-03     48.0863E-03     36.0318E-03    -8.78886E-03     452.269E-03    -225.794E-03    -226.475E-03    -225.227E-03     451.701E-03    -226.475E-03     39.0734E-03     44.9953E+06     23.5969E+06    -57.6845E+06    -57.6822E+06     23.5946E+06     44.9953E+06    -25.6149E+03         59.4154
             349     7.97883E-03     78.4376E-03     41.5309E-03     36.4899E-03     10.6355E-03     11.9657E-03     37.9321E-03     38.7586E-03    -4.32698E-03     452.322E-03    -225.810E-03    -226.512E-03    -225.409E-03     451.921E-03    -226.512E-03     32.8334E-03     27.4681E+06    -22.8347E+06    -67.2099E+06    -67.2062E+06    -22.8383E+06     27.4681E+06    -202.378E+03         59.1461
             350     7.18071E-03     78.3975E-03     41.2748E-03     33.3297E-03     14.2752E-03     19.2051E-03     28.3999E-03     41.2748E-03     613.392E-06     452.403E-03    -225.868E-03    -226.534E-03    -225.596E-03     452.131E-03    -226.534E-03     27.0083E-03     9.53807E+06    -64.7239E+06    -78.8835E+06    -76.7453E+06    -66.8621E+06     9.53807E+06    -171.431E+03         58.8786
             351     6.38290E-03     78.3652E-03     43.5700E-03     30.0005E-03     15.4997E-03     25.8072E-03     19.6931E-03     43.5700E-03     7.08727E-03     452.346E-03    -225.802E-03    -226.544E-03    -225.628E-03     452.172E-03    -226.544E-03     21.5704E-03    -8.49719E+06    -86.3806E+06    -104.153E+06    -86.4163E+06    -104.118E+06    -8.49719E+06     123.650E+03         58.6192
             352     5.58471E-03     78.3407E-03     45.6276E-03     32.7054E-03     10.9514E-03     31.9153E-03     11.7415E-03     45.6276E-03     6.32884E-03     452.290E-03    -225.737E-03    -226.553E-03    -225.634E-03     452.187E-03    -226.553E-03     16.5101E-03    -27.3900E+06    -96.0973E+06    -137.706E+06    -96.1008E+06    -137.703E+06    -27.3900E+06     192.522E+03         58.3738
             353     4.78651E-03     78.3236E-03     47.4361E-03     38.1494E-03     3.97086E-03     37.2086E-03     4.91167E-03     47.4361E-03     3.40308E-03     452.397E-03    -225.837E-03    -226.559E-03    -225.783E-03     452.342E-03    -226.559E-03     11.9779E-03    -47.5241E+06    -105.996E+06    -169.363E+06    -105.996E+06    -169.362E+06    -47.5241E+06    -51.6501E+03         58.1482
             354     3.98862E-03     78.3131E-03     48.9715E-03     42.8549E-03    -2.16694E-03     41.9915E-03    -1.30357E-03     48.9715E-03    -10.6492E-03     452.518E-03    -225.969E-03    -226.549E-03    -225.944E-03     452.493E-03    -226.549E-03     7.98562E-03    -68.6507E+06    -115.436E+06    -196.743E+06    -115.436E+06    -196.743E+06    -68.6507E+06     26.0000E+03         57.9476
             355     3.19065E-03     78.3084E-03     50.2564E-03     46.4740E-03    -7.03235E-03     45.5005E-03    -6.05880E-03     50.2564E-03    -9.86211E-03     452.571E-03    -226.041E-03    -226.530E-03    -226.032E-03     452.562E-03    -226.530E-03     4.63419E-03    -90.0658E+06    -124.192E+06    -218.021E+06    -124.192E+06    -218.021E+06    -90.0658E+06     113.732E+03         57.7766
             356     2.39295E-03     78.3072E-03     52.5686E-03     49.2818E-03    -12.2766E-03     48.9447E-03    -10.6002E-03     51.2294E-03    -12.7218E-03     452.712E-03    -226.197E-03    -226.515E-03    -226.195E-03     452.710E-03    -226.515E-03     2.12086E-03    -110.700E+06    -132.358E+06    -238.397E+06    -132.360E+06    -238.395E+06    -110.700E+06     154.990E+03         57.6391
             357     1.59515E-03     78.3085E-03     59.1095E-03     51.8768E-03    -21.1246E-03     50.1589E-03    -12.3923E-03     52.0950E-03     20.1087E-03     452.885E-03    -226.375E-03    -226.510E-03    -226.399E-03     452.885E-03    -226.486E-03     570.953E-06    -128.377E+06    -138.197E+06    -258.390E+06    -138.200E+06    -258.387E+06    -128.377E+06     162.462E+03         57.5378
             358     797.504E-06     78.3097E-03     153.182E-03     27.7478E-03    -91.3341E-03    -42.3952E-03    -15.5159E-03     147.507E-03    -20.1792E-03     452.907E-03    -226.325E-03    -226.582E-03    -226.567E-03     452.907E-03    -226.340E-03     333.186E-06    -139.152E+06    -141.446E+06    -277.096E+06    -141.333E+06    -277.090E+06    -139.271E+06    -57.9270E+03         57.4744
             359     13.5686E-03     77.4445E-03     128.002E-03     13.4833E-03    -52.0205E-03    -51.8221E-03     127.804E-03     13.4833E-03    -3.54424E-03     455.317E-03    -226.475E-03    -228.842E-03    -226.128E-03     452.602E-03    -226.475E-03     85.3398E-03     114.591E+06     79.5487E+06    -7.02036E+06    -7.01620E+06     79.5445E+06     114.591E+06     288.147E+03         60.7726
             360     12.7698E-03     77.3056E-03     115.805E-03     16.9490E-03    -42.7164E-03    -42.5578E-03     115.647E-03     16.9490E-03    -1.68382E-03     454.696E-03    -226.506E-03    -228.190E-03    -225.638E-03     452.144E-03    -226.506E-03     82.2027E-03     113.069E+06     74.1648E+06    -13.7229E+06    -13.7191E+06     74.1611E+06     113.069E+06    -156.315E+03         60.5922
             361     11.9712E-03     77.2097E-03     104.135E-03     20.3063E-03    -33.8956E-03    -33.4374E-03     103.677E-03     20.3063E-03     3.67475E-03     453.411E-03    -226.522E-03    -226.889E-03    -225.241E-03     451.763E-03    -226.522E-03     66.8694E-03     104.561E+06     67.2933E+06    -21.9977E+06    -21.9898E+06     67.2855E+06     104.561E+06    -134.501E+03         60.3911
             362     11.1724E-03     77.1180E-03     92.4076E-03     23.5492E-03    -24.9567E-03    -24.4866E-03     91.9374E-03     23.5492E-03     4.28771E-03     453.098E-03    -226.425E-03    -226.673E-03    -225.227E-03     451.740E-03    -226.512E-03     60.5208E-03     89.5166E+06     60.9952E+06    -31.0306E+06    -31.0239E+06     60.9886E+06     89.5166E+06     56.2979E+03         60.1701
             363     10.3736E-03     77.0403E-03     80.7152E-03     26.6504E-03    -15.9208E-03    -15.7421E-03     80.5365E-03     26.6504E-03    -2.01850E-03     452.768E-03    -226.274E-03    -226.494E-03    -225.272E-03     451.765E-03    -226.494E-03     52.0199E-03     72.9217E+06     53.7030E+06    -39.8588E+06    -39.8585E+06     53.7027E+06     72.9217E+06    -36.9871E+03         59.9316
             364     9.57506E-03     76.9728E-03     70.5838E-03     29.5976E-03    -8.31746E-03    -7.31150E-03     69.5779E-03     29.5976E-03    -8.30768E-03     452.655E-03    -226.175E-03    -226.481E-03    -225.422E-03     451.902E-03    -226.481E-03     45.0643E-03     59.3776E+06     47.6952E+06    -48.6490E+06    -48.6487E+06     47.6949E+06     59.3776E+06    -22.4652E+03         59.6793
             365     8.77722E-03     76.9146E-03     60.0552E-03     32.3723E-03    -177.923E-06     805.239E-06     59.0721E-03     32.3723E-03    -9.71871E-03     452.502E-03    -226.018E-03    -226.484E-03    -225.465E-03     451.949E-03    -226.484E-03     38.5874E-03     45.1688E+06     23.8833E+06    -57.7259E+06    -57.7247E+06     23.8821E+06     45.1688E+06    -18.6361E+03         59.4178
             366     7.97908E-03     76.8659E-03     49.9520E-03     34.8803E-03     7.72432E-03     8.44865E-03     49.1488E-03     34.9592E-03    -4.83968E-03     452.383E-03    -225.877E-03    -226.506E-03    -225.481E-03     451.987E-03    -226.506E-03     32.6422E-03     27.6310E+06    -22.6587E+06    -66.9650E+06    -66.9626E+06    -22.6611E+06     27.6310E+06    -131.532E+03         59.1524
             367     7.18095E-03     76.8249E-03     44.3432E-03     34.9071E-03     13.4752E-03     15.5074E-03     39.8677E-03     37.3503E-03    -452.710E-06     452.380E-03    -225.855E-03    -226.525E-03    -225.583E-03     452.108E-03    -226.525E-03     27.0424E-03     9.60925E+06    -64.4702E+06    -78.9221E+06    -76.3299E+06    -67.0625E+06     9.60925E+06    -278.162E+03         58.8888
             368     6.38284E-03     76.7933E-03     41.6736E-03     32.7117E-03     18.5305E-03     21.9710E-03     31.4038E-03     39.5411E-03     6.96976E-03     452.361E-03    -225.829E-03    -226.532E-03    -225.653E-03     452.185E-03    -226.532E-03     21.7192E-03    -8.55055E+06    -86.0478E+06    -104.795E+06    -86.0717E+06    -104.772E+06    -8.55055E+06    -278.564E+03         58.6331
             369     5.58479E-03     76.7691E-03     41.5085E-03     32.2627E-03     19.3883E-03     28.0261E-03     23.6249E-03     41.5085E-03     4.86148E-03     452.289E-03    -225.751E-03    -226.537E-03    -225.646E-03     452.184E-03    -226.537E-03     16.6977E-03    -27.2312E+06    -95.8025E+06    -137.488E+06    -95.8054E+06    -137.485E+06    -27.2312E+06    -177.261E+03         58.3912
             370     4.78667E-03     76.7521E-03     43.2427E-03     34.2010E-03     15.8790E-03     33.1764E-03     16.9036E-03     43.2427E-03     4.26835E-03     452.322E-03    -225.772E-03    -226.550E-03    -225.717E-03     452.266E-03    -226.550E-03     12.0427E-03    -46.6759E+06    -105.244E+06    -169.473E+06    -105.244E+06    -169.472E+06    -46.6759E+06    -56.3725E+03         58.1687
             371     3.98852E-03     76.7413E-03     45.8179E-03     39.8249E-03     7.84121E-03     37.9071E-03     10.8578E-03     44.7191E-03    -13.4218E-03     452.474E-03    -225.922E-03    -226.551E-03    -225.898E-03     452.450E-03    -226.551E-03     7.82946E-03    -67.6182E+06    -114.993E+06    -197.434E+06    -114.994E+06    -197.434E+06    -67.6182E+06     169.180E+03         57.9709
             372     3.19073E-03     76.7365E-03     47.1458E-03     44.2607E-03     2.17333E-03     41.4098E-03     6.22539E-03     45.9446E-03    -6.57618E-03     452.620E-03    -226.096E-03    -226.524E-03    -226.088E-03     452.612E-03    -226.524E-03     4.38281E-03    -89.7111E+06    -124.235E+06    -217.883E+06    -124.238E+06    -217.879E+06    -89.7111E+06     383.982E+03         57.8023
             373     2.39281E-03     76.7353E-03     53.4096E-03     45.8439E-03    -5.92998E-03     44.5530E-03     1.87615E-03     46.8944E-03    -19.6719E-03     452.753E-03    -226.274E-03    -226.479E-03    -226.272E-03     452.751E-03    -226.479E-03     1.95500E-03    -110.944E+06    -131.664E+06    -237.998E+06    -131.668E+06    -237.995E+06    -110.944E+06     197.471E+03         57.6665
             374     1.59538E-03     76.7361E-03     73.9452E-03     47.7542E-03    -28.0625E-03     45.8840E-03    -1.32306E-06     47.7542E-03     33.2536E-03     452.823E-03    -226.374E-03    -226.449E-03    -226.407E-03     452.823E-03    -226.416E-03     430.047E-06    -128.324E+06    -137.495E+06    -258.045E+06    -137.503E+06    -258.037E+06    -128.324E+06    -304.298E+03         57.5666
             375     797.913E-06     76.7380E-03     171.720E-03     54.5824E-03    -132.793E-03    -55.5503E-03    -2.88231E-03     151.942E-03    -60.7963E-03     452.735E-03    -226.214E-03    -226.521E-03    -226.521E-03     452.735E-03    -226.214E-03     152.565E-06    -138.924E+06    -141.480E+06    -277.665E+06    -141.496E+06    -277.649E+06    -138.924E+06    -161.222E+03         57.5040
             376     13.5676E-03     75.8711E-03     141.155E-03     8.02316E-03    -55.4182E-03    -55.2382E-03     140.975E-03     8.02316E-03    -3.83030E-03     454.882E-03    -226.468E-03    -228.415E-03    -225.714E-03     452.182E-03    -226.468E-03     84.9930E-03     115.197E+06     79.8716E+06    -6.40582E+06    -6.39940E+06     79.8652E+06     115.197E+06    -103.919E+03         60.7598
             377     12.7695E-03     75.7346E-03     129.718E-03     11.1424E-03    -46.4954E-03    -46.3528E-03     129.576E-03     11.1424E-03    -2.06091E-03     454.358E-03    -226.519E-03    -227.839E-03    -225.261E-03     451.779E-03    -226.519E-03     82.6371E-03     112.247E+06     73.5336E+06    -14.2425E+06    -14.2376E+06     73.5288E+06     112.247E+06     8.40076E+03         60.5805
             378     11.9704E-03     75.6381E-03     118.694E-03     14.1633E-03    -38.0094E-03    -37.6212E-03     118.305E-03     14.1633E-03     3.23703E-03     453.514E-03    -226.546E-03    -226.968E-03    -225.301E-03     451.848E-03    -226.546E-03     67.2443E-03     103.491E+06     66.6709E+06    -22.5562E+06    -22.5471E+06     66.6618E+06     103.491E+06     146.740E+03         60.3810
             379     11.1718E-03     75.5459E-03     107.686E-03     17.0901E-03    -29.4864E-03    -29.0948E-03     107.294E-03     17.0901E-03     3.90691E-03     453.392E-03    -226.505E-03    -226.887E-03    -225.518E-03     452.047E-03    -226.529E-03     60.2059E-03     89.5384E+06     61.1059E+06    -30.9151E+06    -30.9088E+06     61.0997E+06     89.5384E+06     159.134E+03         60.1625
             380     10.3737E-03     75.4684E-03     96.7901E-03     19.8918E-03    -20.9510E-03    -20.8099E-03     96.6491E-03     19.8918E-03    -2.52000E-03     452.995E-03    -226.407E-03    -226.588E-03    -225.519E-03     452.013E-03    -226.494E-03     51.5044E-03     73.6581E+06     53.8322E+06    -39.4606E+06    -39.4600E+06     53.8316E+06     73.6581E+06     62.6985E+03         59.9270
             381     9.57578E-03     75.4000E-03     87.1351E-03     22.5608E-03    -13.5776E-03    -12.8194E-03     86.3769E-03     22.5608E-03    -8.72747E-03     452.646E-03    -226.178E-03    -226.468E-03    -225.438E-03     451.906E-03    -226.468E-03     44.6764E-03     59.9940E+06     47.7144E+06    -48.1296E+06    -48.1295E+06     47.7143E+06     59.9940E+06    -27.9546E+03         59.6781
             382     8.77738E-03     75.3424E-03     77.2587E-03     25.0786E-03    -5.85926E-03    -5.12685E-03     76.5263E-03     25.0786E-03    -10.4079E-03     452.413E-03    -225.942E-03    -226.471E-03    -225.395E-03     451.866E-03    -226.471E-03     38.3973E-03     45.4677E+06     24.0116E+06    -57.3712E+06    -57.3701E+06     24.0105E+06     45.4677E+06    -217.422E+03         59.4203
             383     7.97917E-03     75.2936E-03     67.6051E-03     27.4313E-03     1.73274E-03     2.10155E-03     67.2363E-03     27.4313E-03    -5.21982E-03     452.321E-03    -225.824E-03    -226.498E-03    -225.427E-03     451.925E-03    -226.498E-03     32.6789E-03     27.8604E+06    -22.4822E+06    -66.8799E+06    -66.8766E+06    -22.4854E+06     27.8604E+06    -339.207E+03         59.1586
             384     7.18090E-03     75.2533E-03     59.2640E-03     29.6111E-03     8.07363E-03     8.78409E-03     58.5536E-03     29.6111E-03    -1.25694E-03     452.259E-03    -225.734E-03    -226.525E-03    -225.459E-03     451.984E-03    -226.525E-03     27.1486E-03     9.55529E+06    -64.4947E+06    -79.2085E+06    -76.4236E+06    -67.2796E+06     9.55529E+06    -281.222E+03         58.8988
             385     6.38267E-03     75.2212E-03     51.5898E-03     31.0985E-03     14.4298E-03     14.8580E-03     50.6435E-03     31.6166E-03     6.98118E-03     452.297E-03    -225.752E-03    -226.545E-03    -225.574E-03     452.119E-03    -226.545E-03     21.7892E-03    -8.55039E+06    -85.9393E+06    -104.910E+06    -85.9503E+06    -104.899E+06    -8.55039E+06    -303.550E+03         58.6468
             386     5.58467E-03     75.1973E-03     46.8559E-03     30.7314E-03     19.7396E-03     20.5222E-03     43.3727E-03     33.4320E-03     3.63064E-03     452.393E-03    -225.842E-03    -226.551E-03    -225.736E-03     452.287E-03    -226.551E-03     16.7929E-03    -27.1587E+06    -95.7228E+06    -137.674E+06    -95.7265E+06    -137.670E+06    -27.1587E+06    -356.962E+03         58.4083
             387     4.78668E-03     75.1804E-03     44.8358E-03     30.8055E-03     21.8438E-03     25.4400E-03     37.0020E-03     35.0430E-03     4.99171E-03     452.444E-03    -225.896E-03    -226.548E-03    -225.840E-03     452.388E-03    -226.548E-03     12.1503E-03    -46.8160E+06    -105.810E+06    -170.345E+06    -105.812E+06    -170.343E+06    -46.8160E+06    -52.9977E+03         58.1891
             388     3.98883E-03     75.1696E-03     47.8141E-03     34.3685E-03     15.4358E-03     29.9010E-03     31.2939E-03     36.4236E-03    -15.6990E-03     452.493E-03    -225.960E-03    -226.533E-03    -225.935E-03     452.468E-03    -226.533E-03     7.94927E-03    -67.7246E+06    -115.340E+06    -197.843E+06    -115.342E+06    -197.841E+06    -67.7246E+06     311.978E+03         57.9940
             389     3.19090E-03     75.1645E-03     49.9140E-03     37.5793E-03     10.2248E-03     33.2480E-03     26.8908E-03     37.5793E-03    -3.78999E-03     452.614E-03    -226.123E-03    -226.491E-03    -226.115E-03     452.606E-03    -226.491E-03     4.54281E-03    -89.7161E+06    -124.331E+06    -217.352E+06    -124.339E+06    -217.343E+06    -89.7161E+06     144.228E+03         57.8277
             390     2.39338E-03     75.1633E-03     60.2855E-03     38.4919E-03    -1.26712E-03     36.1917E-03     22.8267E-03     38.4919E-03    -25.5933E-03     452.689E-03    -226.254E-03    -226.435E-03    -226.252E-03     452.687E-03    -226.435E-03     2.10331E-03    -110.891E+06    -132.423E+06    -237.895E+06    -132.432E+06    -237.886E+06    -110.891E+06     177.806E+03         57.6938
             391     1.59547E-03     75.1643E-03     93.8712E-03     39.3150E-03    -35.4399E-03     37.5725E-03     20.8588E-03     39.3150E-03     44.4486E-03     452.676E-03    -226.284E-03    -226.392E-03    -226.293E-03     452.676E-03    -226.383E-03     554.823E-06    -129.158E+06    -138.550E+06    -257.708E+06    -138.573E+06    -257.686E+06    -129.158E+06     423.930E+03         57.5952
             392     797.605E-06     75.1665E-03     187.038E-03     81.3660E-03    -170.675E-03    -69.6656E-03     18.2166E-03     149.179E-03    -94.4370E-03     452.709E-03    -226.219E-03    -226.490E-03    -226.358E-03     452.709E-03    -226.351E-03     237.807E-06    -139.617E+06    -142.300E+06    -277.786E+06    -141.707E+06    -277.748E+06    -140.249E+06    -62.2471E+03         57.5333
             393     13.5692E-03     74.3020E-03     158.045E-03    -274.312E-06    -59.3874E-03    -59.2277E-03     157.885E-03    -274.312E-06    -3.95307E-03     454.688E-03    -226.422E-03    -228.267E-03    -225.412E-03     451.912E-03    -226.500E-03     86.1643E-03     114.391E+06     79.2602E+06    -6.49209E+06    -6.48424E+06     79.2524E+06     114.391E+06    -414.472E+03         60.7472
             394     12.7684E-03     74.1633E-03     147.790E-03     2.37345E-03    -51.1559E-03    -51.0282E-03     147.662E-03     2.37345E-03    -2.36663E-03     454.987E-03    -226.548E-03    -228.439E-03    -225.839E-03     452.386E-03    -226.548E-03     82.9106E-03     111.879E+06     73.3405E+06    -14.0427E+06    -14.0346E+06     73.3324E+06     111.879E+06     215.011E+03         60.5690
             395     11.9702E-03     74.0657E-03     137.920E-03     4.93645E-03    -43.3332E-03    -43.0062E-03     137.593E-03     4.93645E-03     2.87513E-03     453.932E-03    -226.545E-03    -227.387E-03    -225.765E-03     452.309E-03    -226.545E-03     66.3748E-03     103.729E+06     67.2266E+06    -22.4649E+06    -22.4576E+06     67.2192E+06     103.729E+06     423.866E+03         60.3713
             396     11.1723E-03     73.9731E-03     128.047E-03     7.43334E-03    -35.5539E-03    -35.2326E-03     127.726E-03     7.43334E-03     3.63852E-03     453.461E-03    -226.495E-03    -226.966E-03    -225.646E-03     452.150E-03    -226.505E-03     59.4707E-03     89.5909E+06     61.4100E+06    -31.2885E+06    -31.2830E+06     61.4045E+06     89.5909E+06    -47.3818E+03         60.1552
             397     10.3744E-03     73.8956E-03     118.268E-03     9.82765E-03    -27.7797E-03    -27.6687E-03     118.157E-03     9.82765E-03    -2.87584E-03     452.891E-03    -226.334E-03    -226.557E-03    -225.452E-03     451.915E-03    -226.463E-03     51.3621E-03     73.5552E+06     54.0865E+06    -39.5972E+06    -39.5951E+06     54.0843E+06     73.5552E+06    -167.878E+03         59.9227
             398     9.57587E-03     73.8281E-03     109.515E-03     12.1126E-03    -20.9224E-03    -20.3616E-03     108.954E-03     12.1126E-03    -9.00673E-03     452.448E-03    -226.001E-03    -226.447E-03    -225.255E-03     451.702E-03    -226.447E-03     44.8593E-03     60.1384E+06     47.6862E+06    -48.1832E+06    -48.1809E+06     47.6839E+06     60.1384E+06    -304.832E+03         59.6770
             399     8.77745E-03     73.7704E-03     100.717E-03     14.2728E-03    -13.9845E-03    -13.4431E-03     100.175E-03     14.2728E-03    -10.8734E-03     452.233E-03    -225.768E-03    -226.465E-03    -225.215E-03     451.681E-03    -226.465E-03     38.5810E-03     45.9192E+06     24.0266E+06    -57.2319E+06    -57.2294E+06     24.0240E+06     45.9192E+06    -354.758E+03         59.4227
             400     7.97909E-03     73.7216E-03     92.1204E-03     16.3021E-03    -7.16469E-03    -6.96218E-03     91.9178E-03     16.3021E-03    -5.41321E-03     452.233E-03    -225.730E-03    -226.503E-03    -225.332E-03     451.835E-03    -226.503E-03     32.7202E-03     27.8502E+06    -22.6360E+06    -66.7997E+06    -66.7962E+06    -22.6395E+06     27.8502E+06    -324.080E+03         59.1647
             401     7.18084E-03     73.6816E-03     84.5080E-03     18.1921E-03    -1.22435E-03    -901.121E-06     84.1848E-03     18.1921E-03    -1.79136E-03     452.233E-03    -225.696E-03    -226.538E-03    -225.421E-03     451.958E-03    -226.538E-03     27.1758E-03     9.40898E+06    -64.7455E+06    -79.2525E+06    -76.4225E+06    -67.5755E+06     9.40898E+06    -316.756E+03         58.9087
             402     6.38262E-03     73.6495E-03     77.2753E-03     19.9379E-03     4.41782E-03     4.60739E-03     77.0857E-03     19.9379E-03     7.06414E-03     452.282E-03    -225.717E-03    -226.565E-03    -225.538E-03     452.103E-03    -226.565E-03     21.8545E-03    -8.57086E+06    -85.9991E+06    -104.996E+06    -86.0086E+06    -104.986E+06    -8.57086E+06    -218.475E+03         58.6603
             403     5.58440E-03     73.6254E-03     70.6593E-03     21.5332E-03     9.56895E-03     9.64082E-03     70.5875E-03     21.5332E-03     2.80720E-03     452.418E-03    -225.842E-03    -226.576E-03    -225.735E-03     452.311E-03    -226.576E-03     16.8571E-03    -27.2135E+06    -95.7603E+06    -137.869E+06    -95.7628E+06    -137.866E+06    -27.2135E+06    -26.4545E+03         58.4253
             404     4.78661E-03     73.6082E-03     65.2738E-03     22.9702E-03     13.6853E-03     14.0841E-03     64.8750E-03     22.9702E-03     5.61847E-03     452.539E-03    -225.968E-03    -226.571E-03    -225.911E-03     452.482E-03    -226.571E-03     12.2539E-03    -46.9931E+06    -105.567E+06    -170.791E+06    -105.572E+06    -170.786E+06    -46.9931E+06    -56.1376E+03         58.2091
             405     3.98869E-03     73.5981E-03     66.2572E-03     24.2245E-03     11.5644E-03     18.1043E-03     59.7172E-03     24.2245E-03    -17.3967E-03     452.571E-03    -226.023E-03    -226.547E-03    -225.997E-03     452.545E-03    -226.547E-03     8.18971E-03    -67.9259E+06    -115.369E+06    -198.248E+06    -115.373E+06    -198.244E+06    -67.9259E+06    -67.0987E+03         58.0168
             406     3.19083E-03     73.5925E-03     67.7858E-03     25.2997E-03     8.96611E-03     21.1782E-03     55.5737E-03     25.2997E-03    -1.55826E-03     452.585E-03    -226.074E-03    -226.511E-03    -226.065E-03     452.576E-03    -226.511E-03     4.85003E-03    -89.5617E+06    -124.293E+06    -217.147E+06    -124.308E+06    -217.132E+06    -89.5617E+06     212.806E+03         57.8528
             407     2.39293E-03     73.5914E-03     79.0154E-03     26.1427E-03    -3.08781E-03     24.0772E-03     51.8504E-03     26.1427E-03    -30.0611E-03     452.640E-03    -226.150E-03    -226.490E-03    -226.147E-03     452.638E-03    -226.490E-03     2.39525E-03    -110.862E+06    -132.366E+06    -238.237E+06    -132.382E+06    -238.220E+06    -110.862E+06     228.186E+03         57.7207
             408     1.59531E-03     73.5928E-03     117.617E-03     26.8523E-03    -42.3795E-03     25.4151E-03     49.8221E-03     26.8523E-03     53.0084E-03     452.754E-03    -226.245E-03    -226.509E-03    -226.245E-03     452.754E-03    -226.509E-03     935.795E-06    -128.408E+06    -137.930E+06    -257.298E+06    -137.952E+06    -257.275E+06    -128.408E+06     286.254E+03         57.6234
             409     797.661E-06     73.5946E-03     197.023E-03     103.970E-03    -198.981E-03    -84.4603E-03     47.5267E-03     138.946E-03    -120.727E-03     453.048E-03    -226.405E-03    -226.644E-03    -226.404E-03     453.048E-03    -226.644E-03     477.757E-06    -138.306E+06    -141.723E+06    -277.201E+06    -141.158E+06    -277.134E+06    -138.938E+06     643.472E+03         57.5624
             410     13.5638E-03     72.7279E-03     178.525E-03    -11.2305E-03    -63.8060E-03    -63.6639E-03     178.383E-03    -11.2305E-03    -4.12693E-03     455.162E-03    -226.419E-03    -228.743E-03    -226.005E-03     452.503E-03    -226.497E-03     84.4414E-03     114.082E+06     79.2306E+06    -6.86172E+06    -6.85650E+06     79.2253E+06     114.082E+06    -235.254E+03         60.7350
             411     12.7690E-03     72.5896E-03     169.761E-03    -9.16841E-03    -56.6001E-03    -56.4909E-03     169.652E-03    -9.16841E-03    -2.52031E-03     455.142E-03    -226.512E-03    -228.629E-03    -226.158E-03     452.670E-03    -226.512E-03     80.9028E-03     112.000E+06     73.3297E+06      -14.72E+06    -14.7130E+06     73.3228E+06     112.000E+06    -354.357E+03         60.5579
             412     11.9717E-03     72.4927E-03     161.408E-03    -7.16239E-03    -49.8010E-03    -49.5312E-03     161.138E-03    -7.16239E-03     2.66813E-03     453.680E-03    -226.500E-03    -227.180E-03    -225.578E-03     452.078E-03    -226.500E-03     65.9560E-03     104.212E+06     67.4039E+06    -22.7454E+06    -22.7403E+06     67.3988E+06     104.212E+06     148.462E+03         60.3620
             413     11.1732E-03     72.4013E-03     153.037E-03    -5.19031E-03    -43.0068E-03    -42.7449E-03     152.775E-03    -5.19031E-03     3.38567E-03     453.117E-03    -226.421E-03    -226.696E-03    -225.313E-03     451.786E-03    -226.473E-03     59.9267E-03     90.2055E+06     62.1399E+06    -30.8493E+06    -30.8454E+06     62.1360E+06     90.2055E+06    -78.2964E+03         60.1482
             414     10.3743E-03     72.3236E-03     144.749E-03    -3.29806E-03    -36.2624E-03    -36.1745E-03     144.661E-03    -3.29806E-03    -3.21534E-03     452.643E-03    -226.193E-03    -226.451E-03    -225.198E-03     451.648E-03    -226.451E-03     51.8222E-03     73.5261E+06     54.1782E+06    -39.7618E+06    -39.7572E+06     54.1736E+06     73.5261E+06    -540.776E+03         59.9184
             415     9.57592E-03     72.2564E-03     137.299E-03    -1.48528E-03    -30.3261E-03    -29.9015E-03     136.875E-03    -1.48528E-03    -9.33357E-03     452.329E-03    -225.879E-03    -226.450E-03    -225.124E-03     451.574E-03    -226.450E-03     45.1337E-03     59.9647E+06     47.6882E+06    -48.6928E+06    -48.6873E+06     47.6827E+06     59.9647E+06    -658.307E+03         59.6759
             416     8.77738E-03     72.1985E-03     129.910E-03     235.160E-06    -24.3814E-03    -23.9695E-03     129.498E-03     235.160E-06    -11.2761E-03     452.182E-03    -225.704E-03    -226.478E-03    -225.144E-03     451.622E-03    -226.478E-03     38.8459E-03     45.4699E+06     23.6449E+06    -57.8033E+06    -57.8000E+06     23.6417E+06     45.4699E+06    -485.880E+03         59.4251
             417     7.97895E-03     72.1499E-03     122.710E-03     1.85917E-03    -18.5437E-03    -18.4170E-03     122.584E-03     1.85917E-03    -5.62387E-03     452.215E-03    -225.693E-03    -226.523E-03    -225.291E-03     451.814E-03    -226.523E-03     32.8758E-03     27.4423E+06    -22.8745E+06    -67.0108E+06    -67.0076E+06    -22.8777E+06     27.4423E+06    -325.259E+03         59.1708
             418     7.18063E-03     72.1097E-03     116.264E-03     3.38409E-03    -13.4660E-03    -13.2865E-03     116.085E-03     3.38409E-03    -2.27144E-03     452.279E-03    -225.718E-03    -226.561E-03    -225.441E-03     452.002E-03    -226.561E-03     27.2646E-03     9.04781E+06    -64.8383E+06    -79.6340E+06    -76.5368E+06    -67.9355E+06     9.04781E+06    -235.970E+03         58.9184
             419     6.38240E-03     72.0778E-03     110.199E-03     4.80549E-03    -8.66685E-03    -8.55727E-03     110.089E-03     4.80549E-03     7.01986E-03     452.361E-03    -225.774E-03    -226.587E-03    -225.594E-03     452.181E-03    -226.587E-03     21.9376E-03    -8.92206E+06    -86.2282E+06    -105.441E+06    -86.2316E+06    -105.438E+06    -8.92206E+06    -83.1335E+03         58.6736
             420     5.58444E-03     72.0533E-03     104.674E-03     6.11577E-03    -4.30423E-03    -4.23934E-03     104.609E-03     6.11577E-03     2.22579E-03     452.433E-03    -225.834E-03    -226.599E-03    -225.727E-03     452.326E-03    -226.599E-03     16.8510E-03    -27.4143E+06    -95.8379E+06    -138.002E+06    -95.8409E+06    -137.999E+06    -27.4143E+06     21.0014E+03         58.4420
             421     4.78624E-03     72.0364E-03     100.026E-03     7.31873E-03    -819.858E-06    -524.171E-06     99.7307E-03     7.31873E-03     5.98958E-03     452.522E-03    -225.919E-03    -226.603E-03    -225.863E-03     452.466E-03    -226.603E-03     12.1672E-03    -47.1023E+06    -105.606E+06    -170.788E+06    -105.617E+06    -170.777E+06    -47.1023E+06     147.987E+03         58.2289
             422     3.98847E-03     72.0258E-03     99.3163E-03     8.39410E-03    -1.03729E-03     2.96046E-03     95.3186E-03     8.39410E-03    -18.5729E-03     452.594E-03    -226.002E-03    -226.592E-03    -225.976E-03     452.569E-03    -226.592E-03     8.15321E-03    -68.2580E+06    -115.621E+06    -198.427E+06    -115.631E+06    -198.417E+06    -68.2580E+06     203.956E+03         58.0393
             423     3.19068E-03     72.0209E-03     99.2188E-03     9.31912E-03    -1.81714E-03     5.75383E-03     91.6478E-03     9.31912E-03    -124.423E-06     452.611E-03    -226.036E-03    -226.575E-03    -226.026E-03     452.601E-03    -226.575E-03     4.89776E-03    -89.9938E+06    -124.878E+06    -217.495E+06    -124.895E+06    -217.478E+06    -89.9938E+06     181.737E+03         57.8776
             424     2.39277E-03     72.0196E-03     108.575E-03     10.0621E-03    -11.9759E-03     8.15442E-03     88.4448E-03     10.0621E-03    -32.9541E-03     452.726E-03    -226.139E-03    -226.587E-03    -226.136E-03     452.723E-03    -226.587E-03     2.32462E-03    -110.572E+06    -132.208E+06    -237.866E+06    -132.225E+06    -237.849E+06    -110.572E+06     83.5091E+03         57.7473
             425     1.59475E-03     72.0208E-03     145.521E-03     10.6711E-03    -49.5082E-03     9.53053E-03     86.4822E-03     10.6711E-03     58.4961E-03     452.960E-03    -226.327E-03    -226.633E-03    -226.326E-03     452.959E-03    -226.633E-03     795.840E-06    -128.552E+06    -138.465E+06    -257.310E+06    -138.475E+06    -257.300E+06    -128.552E+06    -180.125E+03         57.6514
             426     797.040E-06     72.0221E-03     210.287E-03     113.502E-03    -217.200E-03    -100.711E-03     84.6731E-03     122.627E-03    -137.813E-03     453.307E-03    -226.512E-03    -226.795E-03    -226.652E-03     453.307E-03    -226.655E-03     478.457E-06    -139.274E+06    -142.924E+06    -276.796E+06    -142.608E+06    -276.733E+06    -139.654E+06     86.4115E+03         57.5912
             427     13.5727E-03     71.1562E-03     201.970E-03    -24.5752E-03    -68.7357E-03    -68.6062E-03     201.841E-03    -24.5752E-03    -4.34946E-03     455.612E-03    -226.424E-03    -229.188E-03    -226.555E-03     452.979E-03    -226.424E-03     83.9030E-03     114.391E+06     79.2169E+06    -7.54959E+06    -7.53522E+06     79.2025E+06     114.391E+06    -36.5633E+03         60.7234
             428     12.7714E-03     71.0177E-03     195.106E-03    -23.1693E-03    -62.7979E-03    -62.7038E-03     195.012E-03    -23.1693E-03    -2.65451E-03     454.316E-03    -226.429E-03    -227.887E-03    -225.346E-03     451.791E-03    -226.445E-03     81.6925E-03     112.770E+06     73.6354E+06    -14.2616E+06    -14.2546E+06     73.6284E+06     112.770E+06     89.3127E+03         60.5473
             429     11.9715E-03     70.9216E-03     188.572E-03    -21.7978E-03    -57.2156E-03    -56.9920E-03     188.348E-03    -21.7978E-03     2.44757E-03     453.085E-03    -226.460E-03    -226.625E-03    -224.962E-03     451.438E-03    -226.477E-03     66.8105E-03     104.615E+06     67.5034E+06    -22.3932E+06    -22.3899E+06     67.5000E+06     104.615E+06    -469.319E+03         60.3530
             430     11.1724E-03     70.8294E-03     182.043E-03    -20.4323E-03    -51.6991E-03    -51.4846E-03     181.829E-03    -20.4323E-03     3.12808E-03     452.910E-03    -226.377E-03    -226.533E-03    -225.072E-03     451.553E-03    -226.481E-03     60.4790E-03     90.5128E+06     62.0174E+06    -30.7270E+06    -30.7234E+06     62.0137E+06     90.5128E+06    -499.532E+03         60.1412
             431     10.3741E-03     70.7520E-03     175.627E-03    -19.1174E-03    -46.2945E-03    -46.2236E-03     175.556E-03    -19.1174E-03    -3.55769E-03     452.589E-03    -226.117E-03    -226.471E-03    -225.112E-03     451.583E-03    -226.471E-03     52.0843E-03     73.6484E+06     54.2650E+06    -39.3782E+06    -39.3738E+06     54.2606E+06     73.6484E+06    -378.539E+03         59.9142
             432     9.57551E-03     70.6845E-03     169.864E-03    -17.8439E-03    -41.5758E-03    -41.2451E-03     169.534E-03    -17.8439E-03    -9.67256E-03     452.333E-03    -225.858E-03    -226.475E-03    -225.096E-03     451.571E-03    -226.475E-03     45.3396E-03     59.3692E+06     47.5556E+06    -48.5916E+06    -48.5878E+06     47.5518E+06     59.3692E+06    -376.696E+03         59.6749
             433     8.77698E-03     70.6269E-03     164.129E-03    -16.6251E-03    -36.8149E-03    -36.4918E-03     163.806E-03    -16.6251E-03    -11.6208E-03     452.237E-03    -225.730E-03    -226.507E-03    -225.165E-03     451.672E-03    -226.507E-03     38.9875E-03     44.9236E+06     23.3408E+06    -57.7908E+06    -57.7894E+06     23.3394E+06     44.9236E+06    -301.025E+03         59.4275
             434     7.97861E-03     70.5778E-03     158.502E-03    -15.4671E-03    -32.1047E-03    -32.0139E-03     158.411E-03    -15.4671E-03    -5.90532E-03     452.287E-03    -225.735E-03    -226.553E-03    -225.332E-03     451.884E-03    -226.553E-03     32.9218E-03     27.0256E+06    -23.2042E+06    -67.1737E+06    -67.1724E+06    -23.2055E+06     27.0256E+06    -196.338E+03         59.1767
             435     7.18036E-03     70.5380E-03     153.503E-03    -14.3698E-03    -28.0658E-03    -27.9472E-03     153.385E-03    -14.3698E-03    -2.67178E-03     452.379E-03    -225.791E-03    -226.588E-03    -225.515E-03     452.103E-03    -226.588E-03     27.2477E-03     8.59301E+06    -64.9980E+06    -80.0018E+06    -76.8309E+06    -68.1689E+06     8.59301E+06    -120.607E+03         58.9280
             436     6.38230E-03     70.5055E-03     148.820E-03    -13.3311E-03    -24.2965E-03    -24.2245E-03     148.748E-03    -13.3311E-03     6.88941E-03     452.437E-03    -225.828E-03    -226.609E-03    -225.648E-03     452.258E-03    -226.609E-03     21.9212E-03    -9.36748E+06    -86.4403E+06    -105.648E+06    -86.4459E+06    -105.642E+06    -9.36748E+06    -152.041E+03         58.6868
             437     5.58422E-03     70.4814E-03     144.519E-03    -12.3561E-03    -20.8436E-03    -20.7866E-03     144.462E-03    -12.3561E-03     1.78965E-03     452.471E-03    -225.850E-03    -226.621E-03    -225.743E-03     452.364E-03    -226.621E-03     16.8653E-03    -27.8399E+06    -96.2834E+06    -138.486E+06    -96.2920E+06    -138.477E+06    -27.8399E+06     5.93011E+03         58.4585
             438     4.78641E-03     70.4643E-03     140.792E-03    -11.4473E-03    -18.0104E-03    -17.7829E-03     140.564E-03    -11.4473E-03     6.01687E-03     452.526E-03    -225.896E-03    -226.630E-03    -225.839E-03     452.470E-03    -226.630E-03     12.1746E-03    -47.3804E+06    -106.080E+06    -171.279E+06    -106.092E+06    -171.266E+06    -47.3804E+06     389.800E+03         58.2485
             439     3.98831E-03     70.4540E-03     139.790E-03    -10.6220E-03    -17.7342E-03    -15.0099E-03     137.066E-03    -10.6220E-03    -19.2494E-03     452.610E-03    -225.981E-03    -226.629E-03    -225.956E-03     452.585E-03    -226.629E-03     8.05350E-03    -68.0854E+06    -115.342E+06    -197.817E+06    -115.350E+06    -197.810E+06    -68.0854E+06      373.32E+03         58.0616
             440     3.19028E-03     70.4490E-03     139.318E-03    -9.91190E-03    -17.8643E-03    -12.6825E-03     134.136E-03    -9.91190E-03     480.911E-06     452.733E-03    -226.121E-03    -226.612E-03    -226.112E-03     452.724E-03    -226.612E-03     4.67268E-03    -89.7185E+06    -124.318E+06    -216.914E+06    -124.327E+06    -216.906E+06    -89.7185E+06    -89.8453E+03         57.9021
             441     2.39258E-03     70.4475E-03     146.436E-03    -9.31385E-03    -25.7366E-03    -10.9761E-03     131.676E-03    -9.31385E-03    -34.4595E-03     452.893E-03    -226.299E-03    -226.594E-03    -226.297E-03     452.891E-03    -226.594E-03     2.05847E-03    -110.404E+06    -132.907E+06    -238.194E+06    -132.915E+06    -238.186E+06    -110.404E+06    -198.309E+03         57.7736
             442     1.59518E-03     70.4486E-03     178.458E-03    -8.82711E-03    -58.1614E-03    -9.64732E-03     129.944E-03    -8.82711E-03     61.0934E-03     453.017E-03    -226.429E-03    -226.588E-03    -226.457E-03     453.017E-03    -226.560E-03     508.036E-06    -128.512E+06    -138.851E+06    -257.305E+06    -138.855E+06    -257.301E+06    -128.512E+06     222.096E+03         57.6790
             443     797.796E-06     70.4493E-03     237.626E-03     99.6054E-03    -225.879E-03    -116.882E-03     128.630E-03     99.6054E-03    -145.227E-03     453.055E-03    -226.370E-03    -226.685E-03    -226.649E-03     453.055E-03    -226.406E-03     384.578E-06    -139.668E+06    -142.788E+06    -276.951E+06    -141.639E+06    -276.922E+06    -140.846E+06    -167.368E+03         57.6196
             444     13.5666E-03     69.5838E-03     227.788E-03    -39.9165E-03    -73.9937E-03    -73.8802E-03     227.674E-03    -39.9165E-03    -4.37733E-03     455.182E-03    -226.241E-03    -228.941E-03    -225.909E-03     452.369E-03    -226.460E-03     86.7695E-03     114.247E+06     79.0394E+06    -7.34856E+06    -7.32636E+06     79.0172E+06     114.247E+06    -171.519E+03         60.7118
             445     12.7696E-03     69.4474E-03     223.155E-03    -39.2253E-03    -69.5569E-03    -69.4748E-03     223.073E-03    -39.2253E-03    -2.81161E-03     454.935E-03    -226.481E-03    -228.455E-03    -225.770E-03     452.267E-03    -226.497E-03     84.0168E-03     112.468E+06     73.3548E+06    -14.3776E+06    -14.3604E+06     73.3377E+06     112.468E+06    -375.946E+03         60.5366
             446     11.9713E-03     69.3505E-03     218.750E-03    -38.5501E-03    -65.4272E-03    -65.2372E-03     218.560E-03    -38.5501E-03     2.29728E-03     453.436E-03    -226.499E-03    -226.937E-03    -225.233E-03     451.749E-03    -226.515E-03     67.6453E-03     105.036E+06     67.9866E+06    -22.0658E+06    -22.0582E+06     67.9791E+06     105.036E+06    -614.068E+03         60.3440
             447     11.1726E-03     69.2580E-03     214.355E-03    -37.8517E-03    -61.4359E-03    -61.2565E-03     214.176E-03    -37.8517E-03     2.99179E-03     452.980E-03    -226.354E-03    -226.626E-03    -225.099E-03     451.611E-03    -226.513E-03     60.7278E-03     90.3138E+06     61.4834E+06    -30.8136E+06    -30.8103E+06     61.4801E+06     90.3138E+06    -465.941E+03         60.1344
             448     10.3737E-03     69.1801E-03     210.062E-03    -37.1702E-03    -57.5794E-03    -57.5203E-03     210.003E-03    -37.1702E-03    -3.67497E-03     452.610E-03    -226.106E-03    -226.504E-03    -225.096E-03     451.600E-03    -226.504E-03     52.2281E-03     73.1567E+06     53.8359E+06    -39.5615E+06    -39.5597E+06     53.8341E+06     73.1567E+06    -212.968E+03         59.9100
             449     9.57514E-03     69.1130E-03     206.277E-03    -36.4906E-03    -54.2619E-03    -53.9976E-03     206.013E-03    -36.4906E-03    -9.76661E-03     452.443E-03    -225.935E-03    -226.508E-03    -225.171E-03     451.679E-03    -226.508E-03     45.3819E-03     59.0954E+06     47.5529E+06    -48.4512E+06    -48.4501E+06     47.5518E+06     59.0954E+06    -13.3978E+03         59.6738
             450     8.77675E-03     69.0545E-03     202.447E-03    -35.8234E-03    -50.9198E-03    -50.6609E-03     202.188E-03    -35.8234E-03    -11.7640E-03     452.349E-03    -225.813E-03    -226.537E-03    -225.251E-03     451.787E-03    -226.537E-03     38.8984E-03     44.6491E+06     23.0442E+06    -57.7515E+06    -57.7508E+06     23.0435E+06     44.6491E+06    -27.4317E+03         59.4298
             451     7.97840E-03     69.0062E-03     198.610E-03    -35.1730E-03    -47.5411E-03    -47.4728E-03     198.542E-03    -35.1730E-03    -5.99982E-03     452.399E-03    -225.820E-03    -226.578E-03    -225.419E-03     451.998E-03    -226.578E-03     32.8439E-03     26.9887E+06    -23.3838E+06    -67.2140E+06    -67.2125E+06    -23.3853E+06     26.9887E+06     29.4110E+03         59.1826
             452     7.18027E-03     68.9654E-03     195.233E-03    -34.5432E-03    -44.6226E-03    -44.5357E-03     195.146E-03    -34.5432E-03    -2.74699E-03     452.473E-03    -225.865E-03    -226.608E-03    -225.590E-03     452.198E-03    -226.608E-03     27.1566E-03     8.68655E+06    -65.1741E+06    -79.9062E+06    -76.9762E+06    -68.1042E+06     8.68655E+06    -7.20974E+03         58.9375
             453     6.38217E-03     68.9338E-03     192.030E-03    -33.9312E-03    -41.9473E-03    -41.8956E-03     191.978E-03    -33.9312E-03     6.81778E-03     452.479E-03    -225.856E-03    -226.624E-03    -225.678E-03     452.302E-03    -226.624E-03     21.7778E-03    -9.72189E+06    -87.0163E+06    -105.780E+06    -87.0276E+06    -105.769E+06    -9.72189E+06    -16.1002E+03         58.6997
             454     5.58412E-03     68.9092E-03     189.073E-03    -33.3346E-03    -39.5484E-03    -39.5043E-03     189.029E-03    -33.3346E-03     1.66237E-03     452.486E-03    -225.851E-03    -226.635E-03    -225.746E-03     452.381E-03    -226.635E-03     16.7129E-03    -28.2892E+06    -96.5976E+06    -139.257E+06    -96.6111E+06    -139.244E+06    -28.2892E+06     115.542E+03         58.4748
             455     4.78601E-03     68.8925E-03     186.484E-03    -32.7623E-03    -37.4571E-03    -37.2919E-03     186.319E-03    -32.7623E-03     5.94854E-03     452.575E-03    -225.932E-03    -226.643E-03    -225.877E-03     452.520E-03    -226.643E-03     12.0334E-03    -47.4264E+06    -105.881E+06    -171.228E+06    -105.888E+06    -171.221E+06    -47.4264E+06     23.1972E+03         58.2677
             456     3.98821E-03     68.8820E-03     185.834E-03    -32.2295E-03    -37.2920E-03    -35.3647E-03     183.907E-03    -32.2295E-03    -19.4642E-03     452.716E-03    -226.086E-03    -226.630E-03    -226.062E-03     452.691E-03    -226.630E-03     7.90775E-03    -67.8722E+06    -115.347E+06    -197.250E+06    -115.348E+06    -197.249E+06    -67.8722E+06    -161.968E+03         58.0835
             457     3.19066E-03     68.8767E-03     185.461E-03    -31.7531E-03    -37.3789E-03    -33.7324E-03     181.815E-03    -31.7531E-03     521.129E-06     452.811E-03    -226.226E-03    -226.584E-03    -226.218E-03     452.803E-03    -226.584E-03     4.49181E-03    -89.8810E+06    -124.300E+06    -216.970E+06    -124.302E+06    -216.968E+06    -89.8810E+06     81.2511E+03         57.9262
             458     2.39301E-03     68.8753E-03     190.861E-03    -31.3508E-03    -43.1436E-03    -32.4547E-03     180.172E-03    -31.3508E-03    -34.6485E-03     452.892E-03    -226.369E-03    -226.523E-03    -226.367E-03     452.890E-03    -226.523E-03     2.06298E-03    -111.147E+06    -131.704E+06    -237.700E+06    -131.706E+06    -237.698E+06    -111.147E+06     2.24827E+03         57.7996
             459     1.59536E-03     68.8760E-03     216.879E-03    -31.0800E-03    -69.4306E-03    -31.4067E-03     178.855E-03    -31.0800E-03     61.3388E-03     452.915E-03    -226.428E-03    -226.487E-03    -226.467E-03     452.915E-03    -226.447E-03     623.975E-06    -127.996E+06    -137.435E+06    -257.960E+06    -137.438E+06    -257.958E+06    -127.996E+06    -484.500E+03         57.7062
             460     797.644E-06     68.8777E-03     274.166E-03     70.2280E-03    -228.289E-03    -132.236E-03     178.114E-03     70.2280E-03    -145.564E-03     452.779E-03    -226.276E-03    -226.504E-03    -226.504E-03     452.779E-03    -226.276E-03     447.883E-06    -137.462E+06    -142.387E+06    -277.385E+06    -141.596E+06    -277.377E+06    -138.261E+06     69.1524E+03         57.6477
             461     13.5663E-03     68.0098E-03     255.462E-03    -56.7909E-03    -79.3623E-03    -79.2635E-03     255.363E-03    -56.7909E-03    -4.36172E-03     454.505E-03    -226.312E-03    -228.193E-03    -225.265E-03     451.797E-03    -226.532E-03     85.2579E-03     115.155E+06     80.0839E+06    -6.44434E+06    -6.43256E+06     80.0721E+06     115.155E+06     129.394E+03         60.7004
             462     12.7680E-03     67.8735E-03     253.176E-03    -56.8751E-03    -76.6256E-03    -76.5557E-03     253.106E-03    -56.8751E-03    -2.83183E-03     455.054E-03    -226.578E-03    -228.477E-03    -225.940E-03     452.518E-03    -226.578E-03     82.0807E-03     112.048E+06     73.5705E+06    -14.7590E+06    -14.7418E+06     73.5533E+06     112.048E+06    -725.389E+03         60.5262
             463     11.9703E-03     67.7782E-03     251.174E-03    -56.9361E-03    -74.2453E-03    -74.0822E-03     251.011E-03    -56.9361E-03     2.35916E-03     453.842E-03    -226.577E-03    -227.265E-03    -225.590E-03     452.167E-03    -226.577E-03     67.4519E-03     103.621E+06     67.0604E+06    -23.0533E+06    -23.0413E+06     67.0485E+06     103.621E+06    -933.761E+03         60.3351
             464     11.1718E-03     67.6863E-03     249.122E-03    -56.9382E-03    -71.9324E-03    -71.7797E-03     248.969E-03    -56.9382E-03     3.03501E-03     453.299E-03    -226.460E-03    -226.839E-03    -225.364E-03     451.921E-03    -226.557E-03     60.9574E-03     89.1937E+06     60.8267E+06    -31.6148E+06    -31.6112E+06     60.8231E+06     89.1937E+06    -394.006E+03         60.1278
             465     10.3732E-03     67.6086E-03     247.100E-03    -56.9264E-03    -69.7231E-03    -69.6737E-03     247.050E-03    -56.9264E-03    -3.55340E-03     452.826E-03    -226.252E-03    -226.574E-03    -225.277E-03     451.814E-03    -226.538E-03     52.2555E-03     72.5741E+06     53.2662E+06    -40.3424E+06    -40.3419E+06     53.2658E+06     72.5741E+06    -190.774E+03         59.9061
             466     9.57489E-03     67.5403E-03     245.453E-03    -56.8801E-03    -67.9613E-03    -67.7476E-03     245.239E-03    -56.8801E-03    -9.59974E-03     452.575E-03    -226.040E-03    -226.535E-03    -225.281E-03     451.815E-03    -226.535E-03     45.2514E-03     59.0335E+06     47.1810E+06    -48.9066E+06    -48.9059E+06     47.1803E+06     59.0335E+06        -418.473         59.6729
             467     8.77652E-03     67.4829E-03     243.742E-03    -56.8030E-03    -66.1799E-03    -65.9710E-03     243.533E-03    -56.8030E-03    -11.6079E-03     452.464E-03    -225.908E-03    -226.555E-03    -225.351E-03     451.906E-03    -226.555E-03     38.7378E-03     44.7471E+06     23.0964E+06    -58.1614E+06    -58.1601E+06     23.0952E+06     44.7471E+06     236.192E+03         59.4322
             468     7.97831E-03     67.4335E-03     241.917E-03    -56.6943E-03    -64.3142E-03    -64.2615E-03     241.864E-03    -56.6943E-03    -5.88645E-03     452.472E-03    -225.882E-03    -226.590E-03    -225.485E-03     452.074E-03    -226.590E-03     32.7062E-03     26.9947E+06    -23.2650E+06    -67.8718E+06    -67.8695E+06    -23.2673E+06     26.9947E+06     159.928E+03         59.1885
             469     7.18019E-03     67.3936E-03     240.300E-03    -56.5577E-03    -62.7133E-03    -62.6447E-03     240.231E-03    -56.5577E-03    -2.54001E-03     452.492E-03    -225.877E-03    -226.615E-03    -225.604E-03     452.219E-03    -226.615E-03     27.0532E-03     8.47009E+06    -65.3737E+06    -80.3906E+06    -77.5453E+06    -68.2189E+06     8.47009E+06     160.387E+03         58.9469
             470     6.38218E-03     67.3613E-03     238.696E-03    -56.3952E-03    -61.1816E-03    -61.1411E-03     238.656E-03    -56.3952E-03     6.89081E-03     452.521E-03    -225.893E-03    -226.627E-03    -225.717E-03     452.345E-03    -226.627E-03     21.6955E-03    -9.72581E+06    -86.9380E+06    -105.667E+06    -86.9774E+06    -105.627E+06    -9.72581E+06     62.1815E+03         58.7125
             471     5.58423E-03     67.3374E-03     237.212E-03    -56.2054E-03    -59.8597E-03    -59.8283E-03     237.181E-03    -56.2054E-03     1.83981E-03     452.559E-03    -225.928E-03    -226.631E-03    -225.824E-03     452.455E-03    -226.631E-03     16.5950E-03    -28.2545E+06    -96.6461E+06    -139.414E+06    -96.6595E+06    -139.401E+06    -28.2545E+06    -161.968E+03         58.4908
             472     4.78632E-03     67.3203E-03     235.882E-03    -55.9867E-03    -58.7796E-03    -58.6654E-03     235.768E-03    -55.9867E-03     5.88294E-03     452.634E-03    -226.012E-03    -226.622E-03    -225.958E-03     452.580E-03    -226.622E-03     11.8810E-03    -48.0747E+06    -106.642E+06    -171.083E+06    -106.644E+06    -171.080E+06    -48.0747E+06    -188.677E+03         58.2867
             473     3.98852E-03     67.3097E-03     235.916E-03    -55.7474E-03    -58.9832E-03    -57.6080E-03     234.541E-03    -55.7474E-03    -19.1451E-03     452.703E-03    -226.113E-03    -226.590E-03    -226.089E-03     452.679E-03    -226.590E-03     7.81308E-03    -69.2269E+06    -116.022E+06    -197.178E+06    -116.023E+06    -197.177E+06    -69.2269E+06    -212.765E+03         58.1051
             474     3.19065E-03     67.3045E-03     235.905E-03    -55.5197E-03    -59.1425E-03    -56.5781E-03     233.341E-03    -55.5197E-03     134.223E-06     452.751E-03    -226.214E-03    -226.537E-03    -226.206E-03     452.743E-03    -226.537E-03     4.55190E-03    -90.8594E+06    -124.678E+06    -217.511E+06    -124.680E+06    -217.509E+06    -90.8594E+06    -322.615E+03         57.9500
             475     2.39294E-03     67.3032E-03     240.058E-03    -55.3201E-03    -63.4982E-03    -55.9076E-03     232.468E-03    -55.3201E-03    -33.7067E-03     452.783E-03    -226.307E-03    -226.476E-03    -226.305E-03     452.781E-03    -226.476E-03     2.13871E-03    -111.625E+06    -132.317E+06    -237.319E+06    -132.319E+06    -237.317E+06    -111.625E+06    -216.686E+03         57.8251
             476     1.59533E-03     67.3040E-03     260.277E-03    -55.2509E-03    -83.7663E-03    -55.1071E-03     231.618E-03    -55.2509E-03     59.7874E-03     452.782E-03    -226.352E-03    -226.430E-03    -226.363E-03     452.782E-03    -226.419E-03     610.991E-06    -129.287E+06    -138.540E+06    -258.387E+06    -138.543E+06    -258.384E+06    -129.287E+06    -203.154E+03         57.7330
             477     797.814E-06     67.3061E-03     311.941E-03     36.7675E-03    -227.777E-03    -147.342E-03     231.505E-03     36.7675E-03    -140.331E-03     452.768E-03    -226.275E-03    -226.493E-03    -226.480E-03     452.768E-03    -226.288E-03     277.038E-06    -137.837E+06    -143.620E+06    -278.231E+06    -141.640E+06    -278.229E+06    -139.820E+06    -355.806E+03         57.6753
             478     13.5681E-03     66.4396E-03     284.205E-03    -74.7034E-03    -84.8940E-03    -84.8045E-03     284.116E-03    -74.7034E-03    -4.36882E-03     454.506E-03    -226.511E-03    -227.995E-03    -225.281E-03     451.792E-03    -226.511E-03     85.3097E-03     115.716E+06     80.5255E+06    -6.25051E+06    -6.24396E+06     80.5189E+06     115.716E+06    -82.1601E+03         60.6896
             479     12.7686E-03     66.3015E-03     284.456E-03    -75.5739E-03    -83.9745E-03    -83.9145E-03     284.396E-03    -75.5739E-03    -2.72880E-03     454.270E-03    -226.580E-03    -227.691E-03    -225.166E-03     451.745E-03    -226.580E-03     81.7015E-03     112.530E+06     74.0259E+06    -14.0474E+06    -14.0290E+06     74.0075E+06     112.530E+06     138.706E+03         60.5163
             480     11.9694E-03     66.2057E-03     284.928E-03    -76.3887E-03    -83.3647E-03    -83.2233E-03     284.787E-03    -76.3887E-03     2.47707E-03     453.632E-03    -226.607E-03    -227.025E-03    -225.395E-03     452.002E-03    -226.607E-03     66.5195E-03     103.106E+06     66.5964E+06    -23.0208E+06    -23.0031E+06     66.5787E+06     103.106E+06     146.467E+03         60.3266
             481     11.1712E-03     66.1139E-03     285.325E-03    -77.1088E-03    -82.8342E-03    -82.7029E-03     285.194E-03    -77.1088E-03     3.15824E-03     453.483E-03    -226.587E-03    -226.895E-03    -225.550E-03     452.137E-03    -226.587E-03     60.2521E-03     88.5299E+06     60.6961E+06    -32.0959E+06    -32.0897E+06     60.6899E+06     88.5299E+06    -159.337E+03         60.1214
             482     10.3733E-03     66.0360E-03     285.712E-03    -77.7809E-03    -82.3796E-03    -82.3385E-03     285.671E-03    -77.7809E-03    -3.34980E-03     453.029E-03    -226.432E-03    -226.597E-03    -225.476E-03     452.031E-03    -226.555E-03     51.9494E-03     72.1788E+06     53.3549E+06    -40.6736E+06    -40.6729E+06     53.3542E+06     72.1788E+06    -238.320E+03         59.9023
             483     9.57482E-03     65.9686E-03     286.315E-03    -78.3808E-03    -82.2933E-03    -82.1165E-03     286.138E-03    -78.3808E-03    -9.41199E-03     452.705E-03    -226.164E-03    -226.541E-03    -225.411E-03     451.952E-03    -226.541E-03     45.0683E-03     58.6108E+06     46.3392E+06    -49.7236E+06    -49.7221E+06     46.3377E+06     58.6108E+06    -239.526E+03         59.6721
             484     8.77657E-03     65.9100E-03     286.767E-03    -78.8495E-03    -82.1678E-03    -81.9358E-03     286.595E-03    -78.9093E-03    -11.3556E-03     452.529E-03    -225.976E-03    -226.554E-03    -225.426E-03     451.979E-03    -226.554E-03     38.4895E-03     44.7235E+06     22.7913E+06    -59.0778E+06    -59.0757E+06     22.7892E+06     44.7235E+06    -14.0711E+03         59.4346
             485     7.97843E-03     65.8616E-03     287.032E-03    -79.2335E-03    -81.9214E-03    -81.7487E-03     286.989E-03    -79.3627E-03    -5.76410E-03     452.469E-03    -225.888E-03    -226.581E-03    -225.496E-03     452.077E-03    -226.581E-03     32.4583E-03     26.8880E+06    -23.1584E+06    -68.2916E+06    -68.2871E+06    -23.1629E+06     26.8880E+06     213.333E+03         59.1943
             486     7.18024E-03     65.8212E-03     287.344E-03    -79.6056E-03    -81.8000E-03    -81.6081E-03     287.285E-03    -79.7390E-03    -2.31875E-03     452.452E-03    -225.847E-03    -226.605E-03    -225.579E-03     452.183E-03    -226.605E-03     26.8672E-03     8.37082E+06    -65.3983E+06    -80.2597E+06    -77.5410E+06    -68.1170E+06     8.37082E+06     84.5491E+03         58.9561
             487     6.38215E-03     65.7893E-03     287.489E-03    -79.8987E-03    -81.6033E-03    -81.4319E-03     287.455E-03    -80.0367E-03     6.97790E-03     452.492E-03    -225.873E-03    -226.620E-03    -225.699E-03     452.318E-03    -226.620E-03     21.5746E-03    -9.66789E+06    -86.9048E+06    -105.499E+06    -86.9769E+06    -105.426E+06    -9.66789E+06    -11.4688E+03         58.7251
             488     5.58417E-03     65.7650E-03     287.572E-03    -80.1308E-03    -81.4186E-03    -81.2723E-03     287.550E-03    -80.2554E-03     2.13857E-03     452.592E-03    -225.974E-03    -226.618E-03    -225.870E-03     452.488E-03    -226.618E-03     16.6060E-03    -28.5359E+06    -96.7888E+06    -139.069E+06    -96.8063E+06    -139.051E+06    -28.5359E+06    -133.761E+03         58.5065
             489     4.78645E-03     65.7481E-03     287.551E-03    -80.3064E-03    -81.3155E-03    -81.1550E-03     287.476E-03    -80.3913E-03     5.69047E-03     452.667E-03    -226.068E-03    -226.599E-03    -226.013E-03     452.612E-03    -226.599E-03     12.0052E-03    -48.3059E+06    -106.367E+06    -170.986E+06    -106.372E+06    -170.981E+06    -48.3059E+06    -413.402E+03         58.3054
             490     3.98861E-03     65.7377E-03     288.374E-03    -80.4131E-03    -82.0062E-03    -80.9955E-03     287.397E-03    -80.4475E-03    -18.4276E-03     452.666E-03    -226.106E-03    -226.561E-03    -226.081E-03     452.642E-03    -226.561E-03     7.89243E-03    -69.0811E+06    -115.729E+06    -197.486E+06    -115.732E+06    -197.483E+06    -69.0811E+06    -412.560E+03         58.1263
             491     3.19083E-03     65.7325E-03     288.949E-03    -80.4709E-03    -82.3623E-03    -80.5845E-03     287.171E-03    -80.4709E-03    -545.628E-06     452.661E-03    -226.150E-03    -226.510E-03    -226.142E-03     452.652E-03    -226.510E-03     4.57968E-03    -90.8624E+06    -124.965E+06    -217.771E+06    -124.967E+06    -217.769E+06    -90.8624E+06    -246.702E+03         57.9734
             492     2.39317E-03     65.7310E-03     292.408E-03    -80.4499E-03    -85.9697E-03    -80.6739E-03     287.113E-03    -80.4499E-03    -32.1129E-03     452.684E-03    -226.218E-03    -226.466E-03    -226.216E-03     452.682E-03    -226.466E-03     2.14556E-03    -111.842E+06    -132.904E+06    -237.963E+06    -132.906E+06    -237.961E+06    -111.842E+06    -171.439E+03         57.8502
             493     1.59537E-03     65.7326E-03     307.676E-03    -80.4737E-03    -101.226E-03    -80.1929E-03     286.643E-03    -80.4737E-03     57.0014E-03     452.740E-03    -226.294E-03    -226.446E-03    -226.294E-03     452.740E-03    -226.446E-03     675.540E-06    -129.249E+06    -138.656E+06    -258.387E+06    -138.656E+06    -258.386E+06    -129.249E+06    -33.5114E+03         57.7594
             494     797.502E-06     65.7339E-03     351.539E-03    -348.452E-06    -225.362E-03    -160.719E-03     286.896E-03    -348.452E-06    -130.504E-03     452.865E-03    -226.320E-03    -226.546E-03    -226.493E-03     452.865E-03    -226.373E-03     257.999E-06    -138.332E+06    -143.976E+06    -278.817E+06    -142.018E+06    -278.792E+06    -140.315E+06     893.372E+03         57.7024
             495     13.5677E-03     64.8693E-03     313.333E-03    -88.5576E-03    -95.0341E-03    -90.4091E-03     313.254E-03    -93.1033E-03    -4.31837E-03     454.679E-03    -226.498E-03    -228.181E-03    -225.439E-03     451.937E-03    -226.498E-03     85.6878E-03     114.970E+06     80.1926E+06    -6.60875E+06    -6.60230E+06     80.1862E+06     114.970E+06    -151.618E+03         60.6790
             496     12.7686E-03     64.7309E-03     316.183E-03    -90.1097E-03    -96.0386E-03    -91.3648E-03     316.131E-03    -94.7309E-03    -2.74070E-03     454.413E-03    -226.561E-03    -227.852E-03    -225.284E-03     451.845E-03    -226.561E-03     82.3619E-03     111.910E+06     72.9537E+06    -14.8718E+06    -14.8562E+06     72.9381E+06     111.910E+06     275.004E+03         60.5066
             497     11.9700E-03     64.6334E-03     319.118E-03    -91.7472E-03    -97.1180E-03    -92.4533E-03     318.992E-03    -96.2867E-03     2.54378E-03     453.585E-03    -226.590E-03    -226.995E-03    -225.379E-03     451.969E-03    -226.590E-03     66.2259E-03     103.824E+06     66.7047E+06    -22.8911E+06    -22.8777E+06     66.6913E+06     103.824E+06     754.367E+03         60.3185
             498     11.1716E-03     64.5413E-03     321.961E-03    -93.3730E-03    -98.1896E-03    -93.7333E-03     321.847E-03    -97.7150E-03     3.34238E-03     453.349E-03    -226.548E-03    -226.801E-03    -225.467E-03     452.037E-03    -226.570E-03     59.4973E-03     89.7876E+06     61.7957E+06    -30.9961E+06    -30.9910E+06     61.7906E+06     89.7876E+06     475.451E+03         60.1153
             499     10.3730E-03     64.4638E-03     324.768E-03    -95.0176E-03    -99.2550E-03    -95.1800E-03     324.734E-03    -99.0584E-03    -3.11914E-03     452.948E-03    -226.403E-03    -226.545E-03    -225.432E-03     451.971E-03    -226.539E-03     51.3576E-03     72.9073E+06     53.6513E+06    -40.0852E+06    -40.0835E+06     53.6496E+06     72.9073E+06     73.9393E+03         59.8987
             500     9.57499E-03     64.3957E-03     327.661E-03    -96.7006E-03    -100.417E-03    -96.6753E-03     327.510E-03    -100.292E-03    -9.26486E-03     452.669E-03    -226.146E-03    -226.523E-03    -225.404E-03     451.927E-03    -226.523E-03     44.7370E-03     58.8629E+06     46.2449E+06    -49.5316E+06    -49.5292E+06     46.2426E+06     58.8629E+06    -1.13831E+03         59.6714
             501     8.77687E-03     64.3379E-03     330.271E-03    -98.1860E-03    -101.489E-03    -98.1134E-03     330.125E-03    -101.416E-03    -11.1399E-03     452.460E-03    -225.926E-03    -226.534E-03    -225.379E-03     451.913E-03    -226.534E-03     38.3967E-03     44.5847E+06     22.4346E+06    -58.6136E+06    -58.6097E+06     22.4306E+06     44.5847E+06    -207.762E+03         59.4371
             502     7.97860E-03     64.2892E-03     332.590E-03    -99.4863E-03    -102.425E-03    -99.4492E-03     332.553E-03    -102.425E-03    -5.65919E-03     452.424E-03    -225.859E-03    -226.564E-03    -225.468E-03     452.032E-03    -226.564E-03     32.4742E-03     26.9461E+06    -23.3646E+06    -67.7795E+06    -67.7646E+06    -23.3795E+06     26.9461E+06    -290.094E+03         59.2000
             503     7.18052E-03     64.2492E-03     334.862E-03    -100.812E-03    -103.314E-03    -100.760E-03     334.811E-03    -103.314E-03    -2.07324E-03     452.441E-03    -225.852E-03    -226.589E-03    -225.583E-03     452.172E-03    -226.589E-03     26.8778E-03     8.79098E+06    -65.1166E+06    -80.0885E+06    -77.2363E+06    -67.9687E+06     8.79098E+06    -134.147E+03         58.9651
             504     6.38238E-03     64.2172E-03     336.817E-03    -102.023E-03    -104.074E-03    -101.995E-03     336.789E-03    -104.074E-03     6.97765E-03     452.456E-03    -225.853E-03    -226.603E-03    -225.679E-03     452.282E-03    -226.603E-03     21.5469E-03    -9.42518E+06    -86.8731E+06    -105.619E+06    -86.9428E+06    -105.550E+06    -9.42518E+06    -57.5392E+03         58.7374
             505     5.58436E-03     64.1929E-03     338.500E-03    -103.121E-03    -104.696E-03    -103.107E-03     338.486E-03    -104.696E-03     2.53147E-03     452.499E-03    -225.894E-03    -226.605E-03    -225.790E-03     452.395E-03    -226.605E-03     16.5898E-03    -28.3044E+06    -96.4004E+06    -138.535E+06    -96.4198E+06    -138.516E+06    -28.3044E+06    -246.056E+03         58.5219
             506     4.78634E-03     64.1759E-03     339.861E-03    -104.009E-03    -105.184E-03    -103.962E-03     339.814E-03    -105.184E-03     5.44873E-03     452.610E-03    -226.013E-03    -226.597E-03    -225.958E-03     452.555E-03    -226.597E-03     12.0331E-03    -47.8412E+06    -106.063E+06    -171.069E+06    -106.068E+06    -171.065E+06    -47.8412E+06    -434.789E+03         58.3236
             507     3.98863E-03     64.1656E-03     341.605E-03    -105.024E-03    -105.926E-03    -104.712E-03     340.909E-03    -105.542E-03    -17.6454E-03     452.692E-03    -226.130E-03    -226.562E-03    -226.105E-03     452.668E-03    -226.562E-03     7.95495E-03    -68.6793E+06    -115.906E+06    -198.235E+06    -115.908E+06    -198.233E+06    -68.6793E+06    -207.048E+03         58.1471
             508     3.19089E-03     64.1606E-03     342.870E-03    -105.797E-03    -106.380E-03    -105.145E-03     341.634E-03    -105.797E-03    -1.29195E-03     452.628E-03    -226.117E-03    -226.511E-03    -226.108E-03     452.619E-03    -226.511E-03     4.61435E-03    -90.8275E+06    -124.924E+06    -217.909E+06    -124.925E+06    -217.908E+06    -90.8275E+06    -11.4416E+03         57.9963
             509     2.39289E-03     64.1595E-03     346.080E-03    -105.950E-03    -109.388E-03    -105.690E-03     342.382E-03    -105.950E-03    -30.1423E-03     452.615E-03    -226.124E-03    -226.490E-03    -226.122E-03     452.612E-03    -226.490E-03     2.24680E-03    -111.750E+06    -132.255E+06    -238.228E+06    -132.256E+06    -238.227E+06    -111.750E+06    -27.9729E+03         57.8748
             510     1.59517E-03     64.1604E-03     357.692E-03    -106.074E-03    -120.996E-03    -105.717E-03     342.414E-03    -106.074E-03     53.5455E-03     452.785E-03    -226.269E-03    -226.516E-03    -226.269E-03     452.785E-03    -226.516E-03     797.867E-06    -128.892E+06    -138.269E+06    -258.821E+06    -138.270E+06    -258.820E+06    -128.892E+06     88.1118E+03         57.7852
             511     797.634E-06     64.1623E-03     393.732E-03    -41.3606E-03    -221.705E-03    -170.911E-03     342.938E-03    -41.3606E-03    -118.579E-03     453.055E-03    -226.379E-03    -226.676E-03    -226.436E-03     453.055E-03    -226.618E-03     584.936E-06    -137.915E+06    -143.081E+06    -278.470E+06    -141.923E+06    -278.413E+06    -139.130E+06    -40.0617E+03         57.7291
             512     13.5673E-03     63.2980E-03     342.099E-03    -95.8695E-03    -111.413E-03    -95.7987E-03     342.028E-03    -111.413E-03    -4.20348E-03     455.189E-03    -226.501E-03    -228.688E-03    -225.984E-03     452.486E-03    -226.501E-03     85.1670E-03     114.449E+06     79.7172E+06    -7.09023E+06    -7.08693E+06     79.7139E+06     114.449E+06     344.805E+03         60.6687
             513     12.7690E-03     63.1589E-03     347.375E-03    -98.6631E-03    -113.756E-03    -98.6176E-03     347.330E-03    -113.756E-03    -2.57236E-03     454.905E-03    -226.531E-03    -228.374E-03    -225.841E-03     452.372E-03    -226.531E-03     81.8904E-03     112.067E+06     72.9226E+06    -14.9383E+06    -14.9336E+06     72.9179E+06     112.067E+06     398.099E+03         60.4973
             514     11.9707E-03     63.0611E-03     352.824E-03    -101.718E-03    -116.003E-03    -101.606E-03     352.712E-03    -116.003E-03     2.77578E-03     453.493E-03    -226.540E-03    -226.953E-03    -225.342E-03     451.882E-03    -226.540E-03     66.1171E-03     104.453E+06     67.1175E+06    -22.9091E+06    -22.9018E+06     67.1102E+06     104.453E+06    -60.1067E+03         60.3107
             515     11.1723E-03     62.9693E-03     358.062E-03    -104.781E-03    -118.093E-03    -104.680E-03     357.961E-03    -118.093E-03     3.62128E-03     453.142E-03    -226.485E-03    -226.657E-03    -225.300E-03     451.826E-03    -226.525E-03     59.5680E-03     90.2667E+06     61.3356E+06    -31.3561E+06    -31.3490E+06     61.3285E+06     90.2667E+06     143.623E+03         60.1095
             516     10.3742E-03     62.8915E-03     363.134E-03    -107.861E-03    -120.067E-03    -107.833E-03     363.105E-03    -120.067E-03    -2.75775E-03     452.761E-03    -226.258E-03    -226.503E-03    -225.279E-03     451.782E-03    -226.503E-03     51.4203E-03     73.7031E+06     53.5088E+06    -39.5812E+06    -39.5764E+06     53.5040E+06     73.7031E+06     612.047E+03         59.8952
             517     9.57550E-03     62.8237E-03     368.220E-03    -111.097E-03    -121.901E-03    -110.968E-03     368.091E-03    -121.901E-03    -8.93547E-03     452.442E-03    -225.945E-03    -226.496E-03    -225.199E-03     451.695E-03    -226.496E-03     44.8526E-03     59.5359E+06     46.9451E+06    -48.3374E+06    -48.3329E+06     46.9406E+06     59.5359E+06     386.240E+03         59.6707
             518     8.77690E-03     62.7658E-03     372.965E-03    -114.149E-03    -123.590E-03    -114.025E-03     372.841E-03    -123.590E-03    -10.7793E-03     452.327E-03    -225.808E-03    -226.520E-03    -225.256E-03     451.776E-03    -226.520E-03     38.5435E-03       44.91E+06     22.9320E+06    -57.6939E+06    -57.6902E+06     22.9283E+06       44.91E+06    -44.7933E+03         59.4394
             519     7.97863E-03     62.7171E-03     377.306E-03    -116.921E-03    -125.125E-03    -116.890E-03     377.275E-03    -125.125E-03    -5.36450E-03     452.393E-03    -225.836E-03    -226.557E-03    -225.441E-03     451.998E-03    -226.557E-03     32.5864E-03      27.177E+06    -23.4952E+06    -67.4166E+06    -67.4035E+06    -23.5083E+06      27.177E+06    -250.859E+03         59.2056
             520     7.18040E-03     62.6770E-03     381.442E-03    -119.642E-03    -126.500E-03    -119.595E-03     381.396E-03    -126.500E-03    -1.57222E-03     452.453E-03    -225.870E-03    -226.583E-03    -225.600E-03     452.182E-03    -226.583E-03     26.9734E-03     8.97741E+06    -65.0575E+06    -80.1497E+06    -76.9218E+06    -68.2854E+06     8.97741E+06    -280.931E+03         58.9740
             521     6.38245E-03     62.6450E-03     385.110E-03    -122.134E-03    -127.705E-03    -122.109E-03     385.085E-03    -127.705E-03     7.08882E-03     452.470E-03    -225.876E-03    -226.593E-03    -225.701E-03     452.294E-03    -226.593E-03     21.6425E-03    -9.09738E+06    -86.3585E+06    -105.589E+06    -86.4392E+06    -105.508E+06    -9.09738E+06    -347.410E+03         58.7495
             522     5.58440E-03     62.6210E-03     388.361E-03    -124.441E-03    -128.726E-03    -124.431E-03     388.351E-03    -128.726E-03     3.11527E-03     452.460E-03    -225.864E-03    -226.596E-03    -225.760E-03     452.356E-03    -226.596E-03     16.6110E-03    -27.8303E+06    -96.3963E+06    -138.493E+06    -96.4056E+06    -138.484E+06    -27.8303E+06    -254.979E+03         58.5370
             523     4.78641E-03     62.6038E-03     391.137E-03    -126.430E-03    -129.560E-03    -126.401E-03     391.108E-03    -129.560E-03     5.37440E-03     452.509E-03    -225.912E-03    -226.597E-03    -225.857E-03     452.454E-03    -226.597E-03     12.0225E-03    -47.6817E+06    -106.278E+06    -171.447E+06    -106.278E+06    -171.447E+06    -47.6817E+06     21.3959E+03         58.3415
             524     3.98849E-03     62.5934E-03     393.931E-03    -128.536E-03    -130.219E-03    -128.042E-03     393.426E-03    -130.208E-03    -16.8059E-03     452.602E-03    -226.020E-03    -226.582E-03    -225.996E-03     452.577E-03    -226.582E-03     7.98163E-03    -68.8911E+06    -115.908E+06    -198.748E+06    -115.909E+06    -198.746E+06    -68.8911E+06        -794.391         58.1674
             525     3.19073E-03     62.5886E-03     395.908E-03    -130.073E-03    -130.707E-03    -129.218E-03     395.041E-03    -130.695E-03    -2.12106E-03     452.669E-03    -226.121E-03    -226.549E-03    -226.112E-03     452.660E-03    -226.549E-03     4.65449E-03    -90.4815E+06    -124.773E+06    -217.830E+06    -124.775E+06    -217.828E+06    -90.4815E+06    -145.638E+03         58.0188
             526     2.39300E-03     62.5879E-03     399.061E-03    -130.762E-03    -133.097E-03    -130.238E-03     396.478E-03    -131.039E-03    -27.8587E-03     452.736E-03    -226.210E-03    -226.526E-03    -226.208E-03     452.734E-03    -226.526E-03     2.21817E-03    -111.327E+06    -133.048E+06    -238.757E+06    -133.050E+06    -238.756E+06    -111.327E+06     94.2565E+03         57.8990
             527     1.59505E-03     62.5884E-03     408.134E-03    -131.341E-03    -141.693E-03    -130.640E-03     397.082E-03    -131.341E-03     49.6933E-03     452.854E-03    -226.335E-03    -226.519E-03    -226.335E-03     452.854E-03    -226.519E-03     639.305E-06    -129.344E+06    -139.048E+06    -258.495E+06    -139.049E+06    -258.494E+06    -129.344E+06     387.498E+03         57.8107
             528     797.283E-06     62.5900E-03     437.223E-03    -84.6426E-03    -217.590E-03    -178.342E-03     397.975E-03    -84.6426E-03    -106.038E-03     453.025E-03    -226.382E-03    -226.643E-03    -226.382E-03     453.025E-03    -226.643E-03     357.663E-06    -139.124E+06    -143.530E+06    -278.148E+06    -142.349E+06    -278.114E+06    -140.339E+06    -1.06357E+06         57.7553
             529     13.5676E-03     61.7240E-03     369.588E-03    -100.987E-03    -129.064E-03    -100.921E-03     369.522E-03    -129.064E-03    -4.09995E-03     455.500E-03    -226.488E-03    -229.012E-03    -226.319E-03     452.808E-03    -226.488E-03     85.0270E-03     114.538E+06     79.2909E+06    -7.43616E+06    -7.43308E+06     79.2878E+06     114.538E+06     173.399E+03         60.6586
             530     12.7704E-03     61.5862E-03     377.248E-03    -105.614E-03    -132.052E-03    -105.574E-03     377.209E-03    -132.052E-03    -2.21804E-03     454.936E-03    -226.505E-03    -228.431E-03    -225.888E-03     452.393E-03    -226.505E-03     82.1224E-03     112.872E+06     73.5233E+06    -14.1739E+06    -14.1697E+06     73.5191E+06     112.872E+06    -50.2811E+03         60.4881
             531     11.9716E-03     61.4903E-03     385.018E-03    -110.459E-03    -134.915E-03    -110.358E-03     384.917E-03    -134.915E-03     3.12981E-03     453.392E-03    -226.515E-03    -226.877E-03    -225.222E-03     451.737E-03    -226.515E-03     66.9997E-03     104.817E+06     67.3704E+06    -22.0475E+06    -22.0302E+06      67.353E+06     104.817E+06     195.478E+03         60.3029
             532     11.1726E-03     61.3972E-03     392.502E-03    -115.241E-03    -137.602E-03    -115.150E-03     392.411E-03    -137.602E-03     3.98899E-03     453.046E-03    -226.435E-03    -226.611E-03    -225.177E-03     451.685E-03    -226.508E-03     60.5512E-03     89.9697E+06     60.9585E+06    -30.9779E+06    -30.9623E+06     60.9429E+06     89.9697E+06     264.020E+03         60.1036
             533     10.3738E-03     61.3197E-03     399.733E-03    -119.929E-03    -140.148E-03    -119.904E-03     399.709E-03    -140.148E-03    -2.24051E-03     452.723E-03    -226.229E-03    -226.494E-03    -225.224E-03     451.717E-03    -226.494E-03     52.1026E-03     73.2810E+06     53.2182E+06    -39.7816E+06    -39.7771E+06     53.2137E+06     73.2810E+06     205.063E+03         59.8917
             534     9.57535E-03     61.2520E-03     406.846E-03    -124.719E-03    -142.526E-03    -124.609E-03     406.736E-03    -142.526E-03    -8.39326E-03     452.458E-03    -225.965E-03    -226.493E-03    -225.207E-03     451.700E-03    -226.493E-03     45.2038E-03     59.9241E+06     47.2293E+06    -48.1224E+06    -48.1147E+06     47.2216E+06     59.9241E+06     321.973E+03         59.6699
             535     8.77694E-03     61.1938E-03     413.591E-03    -129.288E-03    -144.729E-03    -129.183E-03     413.485E-03    -144.729E-03    -10.1121E-03     452.324E-03    -225.808E-03    -226.516E-03    -225.254E-03     451.770E-03    -226.516E-03     38.6200E-03     45.5243E+06     23.4816E+06    -57.3297E+06    -57.3252E+06     23.4771E+06     45.5243E+06     254.472E+03         59.4416
             536     7.97861E-03     61.1450E-03     419.863E-03    -133.518E-03    -146.744E-03    -133.492E-03     419.837E-03    -146.744E-03    -4.81570E-03     452.366E-03    -225.812E-03    -226.554E-03    -225.418E-03     451.972E-03    -226.554E-03     32.5615E-03     27.4189E+06    -23.2518E+06    -67.0523E+06    -67.0455E+06    -23.2587E+06     27.4189E+06    -35.0961E+03         59.2110
             537     7.18055E-03     61.1048E-03     425.724E-03    -137.597E-03    -148.561E-03    -137.554E-03     425.681E-03    -148.561E-03    -869.572E-06     452.428E-03    -225.848E-03    -226.581E-03    -225.577E-03     452.158E-03    -226.581E-03     26.9625E-03     9.10987E+06    -64.8715E+06    -79.9249E+06    -76.4530E+06    -68.3434E+06     9.10987E+06    -201.476E+03         58.9826
             538     6.38237E-03     61.0730E-03     430.986E-03    -141.282E-03    -150.171E-03    -141.257E-03     430.961E-03    -150.171E-03     7.47808E-03     452.471E-03    -225.879E-03    -226.593E-03    -225.704E-03     452.296E-03    -226.593E-03     21.6357E-03    -8.94605E+06    -85.8471E+06    -105.631E+06    -85.9191E+06    -105.559E+06    -8.94605E+06    -137.558E+03         58.7612
             539     5.58446E-03     61.0488E-03     435.723E-03    -144.653E-03    -151.562E-03    -144.645E-03     435.714E-03    -151.562E-03     3.88062E-03     452.472E-03    -225.878E-03    -226.594E-03    -225.774E-03     452.368E-03    -226.594E-03     16.6038E-03    -27.7591E+06    -95.7577E+06    -138.799E+06    -95.7588E+06    -138.798E+06    -27.7591E+06    -97.1405E+03         58.5518
             540     4.78649E-03     61.0321E-03     439.749E-03    -147.683E-03    -152.722E-03    -147.664E-03     439.731E-03    -152.722E-03     5.33022E-03     452.478E-03    -225.877E-03    -226.600E-03    -225.822E-03     452.422E-03    -226.600E-03     12.0610E-03    -47.1344E+06    -105.530E+06    -171.870E+06    -105.530E+06    -171.869E+06    -47.1344E+06    -15.6642E+03         58.3590
             541     3.98843E-03     61.0215E-03     443.535E-03    -150.547E-03    -153.647E-03    -150.184E-03     443.172E-03    -153.647E-03    -15.7091E-03     452.555E-03    -225.956E-03    -226.599E-03    -225.931E-03     452.530E-03    -226.599E-03     7.90289E-03    -67.6529E+06    -115.048E+06    -198.732E+06    -115.050E+06    -198.730E+06    -67.6529E+06     48.7549E+03         58.1874
             542     3.19039E-03     61.0167E-03     446.365E-03    -152.535E-03    -154.379E-03    -151.939E-03     445.770E-03    -154.379E-03    -3.08404E-03     452.697E-03    -226.120E-03    -226.576E-03    -226.112E-03     452.688E-03    -226.576E-03     4.48385E-03    -89.6040E+06    -124.391E+06    -217.995E+06    -124.392E+06    -217.993E+06    -89.6040E+06     91.6674E+03         58.0408
             543     2.39277E-03     61.0154E-03     449.693E-03    -154.072E-03    -156.280E-03    -153.665E-03     447.925E-03    -154.918E-03    -25.5061E-03     452.866E-03    -226.331E-03    -226.535E-03    -226.329E-03     452.864E-03    -226.535E-03     2.15512E-03    -110.793E+06    -132.494E+06    -238.873E+06    -132.495E+06    -238.872E+06    -110.793E+06     159.432E+03         57.9227
             544     1.59546E-03     61.0167E-03     456.899E-03    -155.360E-03    -162.307E-03    -154.405E-03     448.997E-03    -155.360E-03     45.4901E-03     452.928E-03    -226.424E-03    -226.504E-03    -226.464E-03     452.928E-03    -226.464E-03     722.476E-06    -128.810E+06    -138.203E+06    -257.982E+06    -138.203E+06    -257.981E+06    -128.810E+06     30.1190E+03         57.8356
             545     797.997E-06     61.0175E-03     479.823E-03    -129.218E-03    -211.446E-03    -181.949E-03     450.327E-03    -129.218E-03    -92.2370E-03     452.825E-03    -226.341E-03    -226.484E-03    -226.423E-03     452.825E-03    -226.402E-03     226.391E-06    -138.419E+06    -143.098E+06    -278.289E+06    -141.562E+06    -278.284E+06    -139.960E+06     152.603E+03         57.7810
             546     13.5684E-03     60.1511E-03     394.941E-03    -105.747E-03    -145.476E-03    -105.688E-03     394.881E-03    -145.476E-03    -3.99586E-03     454.982E-03    -226.486E-03    -228.496E-03    -225.762E-03     452.248E-03    -226.486E-03     85.5981E-03     114.711E+06     79.3218E+06    -6.89740E+06    -6.89430E+06     79.3187E+06     114.711E+06    -86.4343E+03         60.6487
             547     12.7689E-03     60.0144E-03     404.844E-03    -112.025E-03    -149.014E-03    -111.991E-03     404.810E-03    -149.014E-03    -2.04024E-03     454.716E-03    -226.530E-03    -228.186E-03    -225.599E-03     452.129E-03    -226.530E-03     82.8096E-03     112.456E+06     72.9380E+06    -14.1611E+06    -14.1570E+06     72.9339E+06     112.456E+06    -100.865E+03         60.4790
             548     11.9704E-03     59.9183E-03     414.652E-03    -118.407E-03    -152.409E-03    -118.315E-03     414.560E-03    -152.409E-03     3.42496E-03     453.640E-03    -226.546E-03    -227.094E-03    -225.414E-03     451.960E-03    -226.546E-03     67.5287E-03     104.217E+06     66.5409E+06    -22.4301E+06    -22.4158E+06     66.5266E+06     104.217E+06     406.478E+03         60.2952
             549     11.1719E-03     59.8258E-03     424.176E-03    -124.749E-03    -155.617E-03    -124.666E-03     424.093E-03    -155.617E-03     4.36569E-03     453.274E-03    -226.476E-03    -226.798E-03    -225.374E-03     451.904E-03    -226.530E-03     60.7697E-03     90.1417E+06     61.3031E+06    -30.5628E+06    -30.5466E+06     61.2869E+06     90.1417E+06     664.517E+03         60.0977
             550     10.3736E-03     59.7476E-03     433.415E-03    -131.010E-03    -158.660E-03    -130.989E-03     433.394E-03    -158.660E-03    -1.69906E-03     452.849E-03    -226.312E-03    -226.537E-03    -225.342E-03     451.849E-03    -226.507E-03     51.9723E-03     73.7078E+06     53.8201E+06    -39.3213E+06    -39.3154E+06     53.8142E+06     73.7078E+06     219.137E+03         59.8882
             551     9.57532E-03     59.6797E-03     442.450E-03    -137.271E-03    -161.508E-03    -137.176E-03     442.355E-03    -161.508E-03    -7.79862E-03     452.563E-03    -226.066E-03    -226.497E-03    -225.313E-03     451.810E-03    -226.497E-03     45.0519E-03     59.9785E+06     47.1048E+06    -48.5759E+06    -48.5672E+06     47.0962E+06     59.9785E+06    -88.5423E+03         59.6691
             552     8.77704E-03     59.6218E-03     450.993E-03    -143.239E-03    -164.152E-03    -143.149E-03     450.903E-03    -164.152E-03    -9.36440E-03     452.372E-03    -225.859E-03    -226.514E-03    -225.305E-03     451.818E-03    -226.514E-03     38.6276E-03     45.6100E+06     23.4774E+06    -57.5789E+06    -57.5703E+06     23.4687E+06     45.6100E+06     73.0518E+03         59.4438
             553     7.97876E-03     59.5729E-03     458.923E-03    -148.764E-03    -166.580E-03    -148.742E-03     458.901E-03    -166.580E-03    -4.27473E-03     452.340E-03    -225.793E-03    -226.548E-03    -225.398E-03     451.946E-03    -226.548E-03     32.5808E-03     27.5238E+06    -22.8435E+06    -66.8392E+06    -66.8299E+06    -22.8528E+06     27.5238E+06     52.2927E+03         59.2162
             554     7.18042E-03     59.5328E-03     466.368E-03    -154.044E-03    -168.780E-03    -154.002E-03     466.326E-03    -168.780E-03    -165.190E-06     452.375E-03    -225.796E-03    -226.579E-03    -225.524E-03     452.104E-03    -226.579E-03     26.9818E-03     9.14944E+06    -64.7538E+06     -79.902E+06    -76.3765E+06    -68.2794E+06     9.14944E+06    -102.270E+03         58.9910
             555     6.38244E-03     59.5008E-03     473.093E-03    -158.888E-03    -170.739E-03    -158.861E-03     473.067E-03    -170.739E-03     7.88278E-03     452.418E-03    -225.819E-03    -226.599E-03    -225.643E-03     452.242E-03    -226.599E-03     21.6909E-03    -8.83337E+06    -85.9486E+06    -105.829E+06    -86.0042E+06    -105.774E+06    -8.83337E+06    -116.190E+03         58.7727
             556     5.58436E-03     59.4769E-03     479.087E-03    -163.249E-03    -172.443E-03    -163.240E-03     479.078E-03    -172.443E-03     4.65844E-03     452.469E-03    -225.862E-03    -226.607E-03    -225.758E-03     452.365E-03    -226.607E-03     16.6586E-03    -27.6157E+06    -95.6751E+06    -138.787E+06    -95.6762E+06    -138.786E+06    -27.6157E+06    -72.2206E+03         58.5662
             557     4.78631E-03     59.4602E-03     484.195E-03    -167.014E-03    -173.892E-03    -167.003E-03     484.183E-03    -173.892E-03     5.12573E-03     452.558E-03    -225.949E-03    -226.609E-03    -225.893E-03     452.502E-03    -226.609E-03     12.0698E-03    -47.1718E+06    -105.599E+06    -172.065E+06    -105.599E+06    -172.064E+06    -47.1718E+06    -24.0001E+03         58.3762
             558     3.98849E-03     59.4496E-03     488.864E-03    -170.548E-03    -175.086E-03    -170.297E-03     488.612E-03    -175.086E-03    -14.4546E-03     452.649E-03    -226.058E-03    -226.591E-03    -226.033E-03     452.625E-03    -226.591E-03     7.89204E-03    -67.7374E+06    -115.315E+06    -199.058E+06    -115.316E+06    -199.057E+06    -67.7374E+06     101.855E+03         58.2070
             559     3.19085E-03     59.4446E-03     492.520E-03    -173.181E-03    -176.045E-03    -172.792E-03     492.132E-03    -176.045E-03    -4.05566E-03     452.711E-03    -226.163E-03    -226.548E-03    -226.155E-03     452.703E-03    -226.548E-03     4.36199E-03    -89.6214E+06    -124.250E+06    -218.159E+06    -124.251E+06    -218.158E+06    -89.6214E+06     239.225E+03         58.0625
             560     2.39292E-03     59.4435E-03     496.269E-03    -175.492E-03    -177.485E-03    -175.054E-03     495.104E-03    -176.759E-03    -23.0263E-03     452.764E-03    -226.260E-03    -226.504E-03    -226.258E-03     452.762E-03    -226.504E-03     2.00982E-03    -110.927E+06    -131.968E+06    -238.374E+06    -131.969E+06    -238.373E+06    -110.927E+06     87.1420E+03         57.9460
             561     1.59514E-03     59.4440E-03     502.132E-03    -177.304E-03    -181.743E-03    -176.237E-03     496.625E-03    -177.304E-03     40.9071E-03     452.826E-03    -226.309E-03    -226.517E-03    -226.349E-03     452.825E-03    -226.477E-03     754.049E-06    -128.182E+06    -137.683E+06    -258.176E+06    -137.683E+06    -258.176E+06    -128.182E+06    -205.329E+03         57.8602
             562     797.525E-06     59.4462E-03     519.540E-03    -172.062E-03    -204.345E-03    -180.023E-03     498.240E-03    -175.085E-03    -77.0544E-03     452.915E-03    -226.366E-03    -226.549E-03    -226.470E-03     452.915E-03    -226.445E-03     452.162E-06    -137.615E+06    -142.775E+06    -278.766E+06    -141.245E+06    -278.754E+06    -139.157E+06     725.067E+03         57.8063
             563     13.5668E-03     58.5805E-03     417.639E-03    -109.916E-03    -160.095E-03    -109.864E-03     417.586E-03    -160.095E-03    -3.71552E-03     454.673E-03    -226.500E-03    -228.172E-03    -225.439E-03     451.940E-03    -226.500E-03     85.6123E-03     114.569E+06     79.2884E+06    -6.62954E+06    -6.62606E+06     79.2849E+06     114.569E+06     243.509E+03         60.6389
             564     12.7685E-03     58.4423E-03     429.339E-03    -117.615E-03    -164.079E-03    -117.586E-03     429.310E-03    -164.079E-03    -1.82672E-03     454.697E-03    -226.553E-03    -228.143E-03    -225.597E-03     452.150E-03    -226.553E-03     82.0996E-03     111.881E+06     72.7586E+06    -14.6231E+06    -14.6186E+06     72.7541E+06     111.881E+06     322.227E+03         60.4700
             565     11.9701E-03     58.3459E-03     440.951E-03    -125.396E-03    -167.908E-03    -125.311E-03     440.866E-03    -167.908E-03     3.74988E-03     453.804E-03    -226.565E-03    -227.240E-03    -225.608E-03     452.172E-03    -226.565E-03     66.5803E-03     104.019E+06     66.3632E+06    -22.8682E+06    -22.8653E+06     66.3603E+06     104.019E+06    -88.4907E+03         60.2875
             566     11.1721E-03     58.2533E-03     452.229E-03    -133.109E-03    -171.536E-03    -133.033E-03     452.153E-03    -171.536E-03     4.73816E-03     453.438E-03    -226.530E-03    -226.908E-03    -225.564E-03     452.101E-03    -226.537E-03     60.0752E-03     90.5878E+06     61.1770E+06    -31.2078E+06    -31.1950E+06     61.1642E+06     90.5878E+06    -245.050E+03         60.0920
             567     10.3739E-03     58.1753E-03     463.198E-03    -140.756E-03    -174.978E-03    -140.738E-03     463.180E-03    -174.978E-03    -1.16776E-03     452.867E-03    -226.332E-03    -226.535E-03    -225.373E-03     451.877E-03    -226.504E-03     51.7019E-03     74.4572E+06     53.9014E+06    -39.3781E+06    -39.3657E+06      53.889E+06     74.4572E+06     16.9686E+03         59.8848
             568     9.57542E-03     58.1077E-03     473.890E-03    -148.324E-03    -178.204E-03    -148.240E-03     473.806E-03    -178.204E-03    -7.25124E-03     452.501E-03    -226.009E-03    -226.491E-03    -225.260E-03     451.751E-03    -226.491E-03     44.9549E-03     60.1743E+06     47.1733E+06    -48.2002E+06    -48.1910E+06     47.1641E+06     60.1743E+06     128.278E+03         59.6683
             569     8.77698E-03     58.0496E-03     483.972E-03    -155.527E-03    -181.200E-03    -155.448E-03     483.893E-03    -181.200E-03    -8.76355E-03     452.327E-03    -225.817E-03    -226.510E-03    -225.263E-03     451.773E-03    -226.510E-03     38.6324E-03     45.4459E+06     23.3034E+06    -57.6330E+06    -57.6196E+06     23.2900E+06     45.4459E+06    -83.1118E+03         59.4459
             570     7.97870E-03     58.0009E-03     493.337E-03    -162.198E-03    -183.955E-03    -162.178E-03     493.317E-03    -183.955E-03    -3.86422E-03     452.342E-03    -225.794E-03    -226.548E-03    -225.398E-03     451.946E-03    -226.548E-03     32.6404E-03     27.6641E+06    -22.9371E+06    -67.1466E+06     -67.139E+06    -22.9447E+06     27.6641E+06         147.482         59.2213
             571     7.18058E-03     57.9608E-03     502.101E-03    -168.489E-03    -186.459E-03    -168.447E-03     502.060E-03    -186.459E-03     488.010E-06     452.360E-03    -225.779E-03    -226.581E-03    -225.508E-03     452.089E-03    -226.581E-03     26.9601E-03     9.37334E+06    -64.7616E+06    -80.0884E+06    -76.6970E+06    -68.1530E+06     9.37334E+06     154.644E+03         58.9992
             572     6.38226E-03     57.9288E-03     509.975E-03    -174.245E-03    -188.701E-03    -174.218E-03     509.948E-03    -188.701E-03     8.02898E-03     452.355E-03    -225.750E-03    -226.605E-03    -225.576E-03     452.180E-03    -226.605E-03     21.6086E-03    -8.87351E+06    -86.3965E+06    -105.860E+06    -86.4830E+06    -105.774E+06    -8.87351E+06    -10.6848E+03         58.7840
             573     5.58416E-03     57.9049E-03     517.014E-03    -179.449E-03    -190.667E-03    -179.438E-03     517.003E-03    -190.667E-03     5.41024E-03     452.474E-03    -225.856E-03    -226.618E-03    -225.752E-03     452.370E-03    -226.618E-03     16.6129E-03    -27.7111E+06    -96.2822E+06    -139.212E+06    -96.2833E+06    -139.211E+06    -27.7111E+06     55.8261E+03         58.5804
             574     4.78637E-03     57.8880E-03     523.109E-03    -183.916E-03    -192.359E-03    -183.906E-03     523.099E-03    -192.359E-03     4.89318E-03     452.622E-03    -226.008E-03    -226.614E-03    -225.954E-03     452.567E-03    -226.614E-03     12.0055E-03    -47.5972E+06    -106.079E+06    -171.950E+06    -106.080E+06    -171.949E+06    -47.5972E+06     201.541E+03         58.3931
             575     3.98855E-03     57.8776E-03     528.583E-03    -188.001E-03    -193.776E-03    -187.836E-03     528.418E-03    -193.776E-03    -13.1584E-03     452.678E-03    -226.091E-03    -226.587E-03    -226.066E-03     452.653E-03    -226.587E-03     7.99814E-03    -68.4297E+06    -115.676E+06    -198.877E+06    -115.677E+06    -198.877E+06    -68.4297E+06    -21.4637E+03         58.2263
             576     3.19070E-03     57.8724E-03     532.857E-03    -191.200E-03    -194.927E-03    -190.965E-03     532.622E-03    -194.927E-03    -5.13094E-03     452.746E-03    -226.210E-03    -226.536E-03    -226.201E-03     452.737E-03    -226.536E-03     4.63723E-03    -89.7457E+06    -124.256E+06    -218.326E+06    -124.257E+06    -218.324E+06    -89.7457E+06    -256.765E+03         58.0838
             577     2.39322E-03     57.8717E-03     536.997E-03    -194.204E-03    -195.971E-03    -193.683E-03     536.298E-03    -195.794E-03    -19.8877E-03     452.762E-03    -226.285E-03    -226.477E-03    -226.283E-03     452.760E-03    -226.477E-03     2.10285E-03    -110.615E+06    -131.880E+06    -238.186E+06    -131.882E+06    -238.184E+06    -110.615E+06    -259.834E+03         57.9690
             578     1.59534E-03     57.8725E-03     541.850E-03    -196.495E-03    -198.646E-03    -195.073E-03     538.277E-03    -196.495E-03     35.4481E-03     452.727E-03    -226.275E-03    -226.451E-03    -226.275E-03     452.726E-03    -226.451E-03     509.133E-06    -128.396E+06    -138.379E+06    -258.721E+06    -138.382E+06    -258.718E+06    -128.396E+06     96.5368E+03         57.8843
             579     797.389E-06     57.8740E-03     554.308E-03    -185.166E-03    -222.565E-03    -173.073E-03     540.240E-03    -220.591E-03    -59.8344E-03     452.882E-03    -226.323E-03    -226.559E-03    -226.471E-03     452.882E-03    -226.411E-03     148.525E-06    -138.291E+06    -142.932E+06    -278.831E+06    -142.243E+06    -278.802E+06    -139.010E+06    -114.302E+03         57.8312
             580     13.5679E-03     57.0084E-03     437.187E-03    -113.537E-03    -172.474E-03    -113.489E-03     437.140E-03    -172.474E-03    -3.37466E-03     455.012E-03    -226.505E-03    -228.507E-03    -225.786E-03     452.292E-03    -226.505E-03     85.4555E-03     114.656E+06      79.161E+06    -6.76390E+06    -6.76108E+06     79.1582E+06     114.656E+06     289.500E+03         60.6294
             581     12.7692E-03     56.8707E-03     450.264E-03    -122.413E-03    -176.773E-03    -122.387E-03     450.238E-03    -176.773E-03    -1.39148E-03     454.865E-03    -226.543E-03    -228.322E-03    -225.776E-03     452.319E-03    -226.543E-03     82.1477E-03     112.551E+06     73.4310E+06    -14.1600E+06    -14.1559E+06     73.4269E+06     112.551E+06     263.285E+03         60.4613
             582     11.9708E-03     56.7731E-03     463.315E-03    -131.396E-03    -180.905E-03    -131.316E-03     463.236E-03    -180.905E-03     4.18022E-03     453.763E-03    -226.548E-03    -227.215E-03    -225.577E-03     452.124E-03    -226.548E-03     66.6942E-03     104.447E+06     66.9363E+06    -22.3563E+06    -22.3517E+06     66.9317E+06     104.447E+06    -237.216E+03         60.2802
             583     11.1725E-03     56.6811E-03     475.991E-03    -140.253E-03    -184.826E-03    -140.181E-03     475.919E-03    -184.826E-03     5.18242E-03     453.345E-03    -226.514E-03    -226.831E-03    -225.484E-03     452.005E-03    -226.520E-03     60.1290E-03     90.1873E+06     61.0912E+06    -31.1193E+06    -31.1089E+06     61.0808E+06     90.1873E+06     -608.53E+03         60.0864
             584     10.3739E-03     56.6033E-03     488.268E-03    -148.946E-03    -188.546E-03    -148.930E-03     488.252E-03    -188.546E-03    -584.410E-06     452.807E-03    -226.305E-03    -226.501E-03    -225.323E-03     451.813E-03    -226.490E-03     51.7893E-03     73.3321E+06     53.0808E+06    -40.1063E+06    -40.0978E+06     53.0723E+06     73.3321E+06    -414.392E+03         59.8814
             585     9.57550E-03     56.5356E-03     500.179E-03    -157.530E-03    -192.038E-03    -157.454E-03     500.104E-03    -192.038E-03    -6.69589E-03     452.456E-03    -225.972E-03    -226.484E-03    -225.221E-03     451.705E-03    -226.484E-03     44.9817E-03      59.918E+06     46.6998E+06    -48.4425E+06    -48.4362E+06     46.6935E+06      59.918E+06     124.883E+03         59.6675
             586     8.77707E-03     56.4777E-03     511.475E-03    -165.702E-03    -195.287E-03    -165.631E-03     511.404E-03    -195.287E-03    -8.07999E-03     452.278E-03    -225.771E-03    -226.507E-03    -225.218E-03     451.725E-03    -226.507E-03     38.5683E-03     45.7789E+06     23.5814E+06    -57.4181E+06    -57.4017E+06     23.5650E+06     45.7789E+06     340.210E+03         59.4479
             587     7.97865E-03     56.4288E-03     521.995E-03    -173.300E-03    -198.279E-03    -173.281E-03     521.975E-03    -198.279E-03    -3.42302E-03     452.294E-03    -225.745E-03    -226.549E-03    -225.350E-03     451.899E-03    -226.549E-03     32.6171E-03     27.8020E+06    -22.9486E+06    -67.1090E+06    -67.0981E+06    -22.9596E+06     27.8020E+06     92.1589E+03         59.2263
             588     7.18047E-03     56.3886E-03     531.751E-03    -180.427E-03    -201.004E-03    -180.384E-03     531.708E-03    -201.004E-03     1.18592E-03     452.360E-03    -225.776E-03    -226.584E-03    -225.504E-03     452.089E-03    -226.584E-03     26.9685E-03     9.48756E+06    -65.0349E+06    -80.0809E+06    -76.7356E+06    -68.3801E+06     9.48756E+06     50.9189E+03         59.0072
             589     6.38244E-03     56.3572E-03     540.494E-03    -186.837E-03    -203.455E-03    -186.808E-03     540.466E-03    -203.455E-03     8.11542E-03     452.399E-03    -225.793E-03    -226.606E-03    -225.619E-03     452.225E-03    -226.606E-03     21.6026E-03    -8.48181E+06    -86.0193E+06    -105.565E+06    -86.1010E+06    -105.483E+06    -8.48181E+06     190.377E+03         58.7950
             590     5.58432E-03     56.3328E-03     548.393E-03    -192.654E-03    -205.628E-03    -192.639E-03     548.378E-03    -205.628E-03     6.29940E-03     452.473E-03    -225.855E-03    -226.618E-03    -225.751E-03     452.368E-03    -226.618E-03     16.6314E-03    -27.3551E+06    -95.6853E+06    -139.712E+06    -95.6905E+06    -139.707E+06    -27.3551E+06     233.501E+03         58.5943
             591     4.78631E-03     56.3158E-03     555.274E-03    -197.828E-03    -207.511E-03    -197.815E-03     555.260E-03    -207.511E-03     4.65643E-03     452.576E-03    -225.958E-03    -226.618E-03    -225.903E-03     452.522E-03    -226.618E-03     12.0000E-03    -47.1286E+06    -105.578E+06    -171.767E+06    -105.578E+06    -171.766E+06    -47.1286E+06     165.556E+03         58.4096
             592     3.98844E-03     56.3056E-03     561.446E-03    -202.451E-03    -209.085E-03    -202.357E-03     561.351E-03    -209.085E-03    -11.4548E-03     452.650E-03    -226.050E-03    -226.601E-03    -226.025E-03     452.626E-03    -226.601E-03     7.99035E-03    -67.8721E+06    -115.304E+06    -197.989E+06    -115.305E+06    -197.987E+06    -67.8721E+06    -164.471E+03         58.2452
             593     3.19062E-03     56.3004E-03     566.212E-03    -205.839E-03    -210.391E-03    -205.722E-03     566.096E-03    -210.391E-03    -6.66037E-03     452.735E-03    -226.173E-03    -226.563E-03    -226.164E-03     452.727E-03    -226.563E-03     4.70081E-03    -89.7580E+06    -124.510E+06    -218.735E+06    -124.512E+06    -218.733E+06    -89.7580E+06    -354.154E+03         58.1047
             594     2.39282E-03     56.2992E-03     570.603E-03    -209.322E-03    -211.388E-03    -209.000E-03     570.280E-03    -211.387E-03    -15.7940E-03     452.849E-03    -226.344E-03    -226.505E-03    -226.342E-03     452.847E-03    -226.505E-03     2.17151E-03    -111.137E+06    -132.504E+06    -238.882E+06    -132.509E+06    -238.877E+06    -111.137E+06     36.3347E+03         57.9915
             595     1.59550E-03     56.3009E-03     574.489E-03    -211.885E-03    -212.720E-03    -210.456E-03     572.560E-03    -212.220E-03     28.5984E-03     452.855E-03    -226.396E-03    -226.459E-03    -226.430E-03     452.855E-03    -226.425E-03     706.699E-06    -129.726E+06    -138.656E+06    -258.943E+06    -138.666E+06    -258.934E+06    -129.726E+06     143.451E+03         57.9080
             596     798.031E-06     56.3022E-03     582.468E-03    -167.713E-03    -264.931E-03    -160.861E-03     575.117E-03    -264.433E-03    -37.7274E-03     452.750E-03    -226.269E-03    -226.480E-03    -226.429E-03     452.750E-03    -226.320E-03     458.924E-06    -139.929E+06    -142.471E+06    -278.394E+06    -141.780E+06    -278.365E+06    -140.648E+06    -526.473E+03         57.8557
             597     13.5671E-03     55.4363E-03     452.954E-03    -116.631E-03    -182.234E-03    -116.587E-03     452.910E-03    -182.234E-03    -3.15411E-03     455.100E-03    -226.487E-03    -228.613E-03    -225.923E-03     452.410E-03    -226.487E-03     84.9228E-03     114.791E+06     78.8847E+06    -6.82950E+06    -6.82908E+06     78.8842E+06     114.791E+06    -141.125E+03         60.6200
             598     12.7690E-03     55.2981E-03     467.120E-03    -126.426E-03    -186.693E-03    -126.403E-03     467.097E-03    -186.693E-03    -995.444E-06     454.733E-03    -226.522E-03    -228.211E-03    -225.668E-03     452.190E-03    -226.522E-03     82.0799E-03     112.682E+06     73.2527E+06    -14.2131E+06    -14.2104E+06     73.2501E+06     112.682E+06    -74.1636E+03         60.4527
             599     11.9706E-03     55.2010E-03     481.151E-03    -136.264E-03    -190.980E-03    -136.189E-03     481.076E-03    -190.980E-03     4.62279E-03     453.568E-03    -226.535E-03    -227.033E-03    -225.390E-03     451.925E-03    -226.535E-03     66.7922E-03     104.595E+06     67.2382E+06    -22.3401E+06    -22.3294E+06     67.2275E+06     104.595E+06     143.280E+03         60.2729
             600     11.1721E-03     55.1089E-03     494.748E-03    -145.914E-03    -195.056E-03    -145.846E-03     494.680E-03    -195.056E-03     5.66213E-03     453.240E-03    -226.514E-03    -226.727E-03    -225.381E-03     451.895E-03    -226.514E-03     60.2282E-03     89.5081E+06     60.9920E+06    -31.2738E+06    -31.2650E+06     60.9832E+06     89.5081E+06     194.638E+03         60.0809
             601     10.3739E-03     55.0313E-03     507.888E-03    -155.345E-03    -198.926E-03    -155.330E-03     507.873E-03    -198.926E-03     115.463E-06     452.808E-03    -226.310E-03    -226.499E-03    -225.327E-03     451.814E-03    -226.488E-03     51.8118E-03     72.7276E+06     53.0310E+06    -40.1819E+06    -40.1806E+06     53.0298E+06     72.7276E+06    -100.886E+03         59.8781
             602     9.57552E-03     54.9637E-03     520.623E-03    -164.613E-03    -202.566E-03    -164.544E-03     520.554E-03    -202.566E-03    -6.00235E-03     452.464E-03    -225.980E-03    -226.483E-03    -225.226E-03     451.709E-03    -226.483E-03     45.1037E-03     59.3498E+06     45.9989E+06    -49.3748E+06    -49.3733E+06     45.9974E+06     59.3498E+06    -339.758E+03         59.6667
             603     8.77712E-03     54.9057E-03     532.696E-03    -173.443E-03    -205.960E-03    -173.379E-03     532.632E-03    -205.960E-03    -7.15540E-03     452.294E-03    -225.786E-03    -226.507E-03    -225.230E-03     451.737E-03    -226.507E-03     38.6911E-03     45.6624E+06     23.4672E+06    -58.2174E+06    -58.2048E+06     23.4546E+06     45.6624E+06    -86.4339E+03         59.4498
             604     7.97882E-03     54.8570E-03     543.942E-03    -181.656E-03    -209.094E-03    -181.636E-03     543.923E-03    -209.094E-03    -2.85388E-03     452.255E-03    -225.705E-03    -226.550E-03    -225.309E-03     451.859E-03    -226.550E-03     32.6633E-03     27.8526E+06    -22.6192E+06    -67.1059E+06    -67.0937E+06    -22.6313E+06     27.8526E+06     110.793E+03         59.2312
             605     7.18039E-03     54.8167E-03     554.428E-03    -189.357E-03    -211.959E-03    -189.308E-03     554.379E-03    -211.959E-03     2.06661E-03     452.313E-03    -225.723E-03    -226.590E-03    -225.451E-03     452.040E-03    -226.590E-03     27.0417E-03     9.28303E+06    -65.1709E+06    -79.8172E+06    -76.4642E+06    -68.5239E+06     9.28303E+06    -109.651E+03         59.0151
             606     6.38224E-03     54.7849E-03     563.863E-03    -196.331E-03    -214.545E-03    -196.297E-03     563.830E-03    -214.545E-03     8.28478E-03     452.444E-03    -225.829E-03    -226.615E-03    -225.653E-03     452.268E-03    -226.615E-03     21.7412E-03    -8.55986E+06    -86.2158E+06    -105.782E+06    -86.2527E+06    -105.745E+06    -8.55986E+06    -112.538E+03         58.8058
             607     5.58433E-03     54.7609E-03     572.405E-03    -202.677E-03    -216.844E-03    -202.652E-03     572.379E-03    -216.844E-03     7.42665E-03     452.513E-03    -225.887E-03    -226.626E-03    -225.781E-03     452.407E-03    -226.626E-03     16.7644E-03    -27.1490E+06    -96.0991E+06    -140.043E+06    -96.1081E+06    -140.034E+06    -27.1490E+06     244.097E+03         58.6080
             608     4.78632E-03     54.7438E-03     579.795E-03    -208.231E-03    -218.848E-03    -208.203E-03     579.767E-03    -218.848E-03     4.19093E-03     452.556E-03    -225.934E-03    -226.623E-03    -225.878E-03     452.501E-03    -226.623E-03     12.0511E-03    -47.2909E+06    -105.830E+06    -171.165E+06    -105.832E+06    -171.163E+06    -47.2909E+06     155.623E+03         58.4259
             609     3.98840E-03     54.7335E-03     586.409E-03    -213.276E-03    -220.530E-03    -213.235E-03     586.368E-03    -220.530E-03    -9.21153E-03     452.653E-03    -226.046E-03    -226.607E-03    -226.021E-03     452.628E-03    -226.607E-03     7.95357E-03    -68.4160E+06    -115.345E+06    -197.310E+06    -115.345E+06    -197.309E+06    -68.4160E+06    -165.404E+03         58.2638
             610     3.19061E-03     54.7284E-03     591.594E-03    -216.914E-03    -221.926E-03    -216.866E-03     591.547E-03    -221.926E-03    -8.76774E-03     452.730E-03    -226.151E-03    -226.579E-03    -226.142E-03     452.721E-03    -226.579E-03     4.62910E-03    -90.0351E+06    -124.660E+06    -219.541E+06    -124.660E+06    -219.541E+06    -90.0351E+06    -64.3793E+03         58.1254
             611     2.39288E-03     54.7272E-03     596.281E-03    -220.496E-03    -223.002E-03    -220.407E-03     596.192E-03    -223.002E-03    -10.7215E-03     452.816E-03    -226.267E-03    -226.549E-03    -226.265E-03     452.814E-03    -226.549E-03     2.09005E-03    -110.796E+06    -132.660E+06    -239.841E+06    -132.664E+06    -239.838E+06    -110.796E+06     227.059E+03         58.0138
             612     1.59503E-03     54.7284E-03     599.146E-03    -222.690E-03    -223.903E-03    -222.011E-03     598.466E-03    -223.903E-03     19.7007E-03     452.920E-03    -226.365E-03    -226.555E-03    -226.399E-03     452.920E-03    -226.521E-03     662.052E-06    -128.199E+06    -138.118E+06    -257.868E+06    -138.130E+06    -257.856E+06    -128.199E+06     282.421E+03         57.9315
             613     797.425E-06     54.7306E-03     603.555E-03    -144.150E-03    -306.791E-03    -141.956E-03     601.361E-03    -306.791E-03    -8.68558E-03     452.993E-03    -226.416E-03    -226.576E-03    -226.450E-03     452.992E-03    -226.543E-03     485.078E-06    -139.518E+06    -142.190E+06    -278.439E+06    -141.971E+06    -278.425E+06    -139.752E+06     759.356E+03         57.8798
             614     13.5690E-03     53.8652E-03     464.637E-03    -119.050E-03    -189.049E-03    -119.010E-03     464.597E-03    -189.049E-03    -2.92568E-03     455.137E-03    -226.483E-03    -228.654E-03    -225.918E-03     452.401E-03    -226.483E-03     85.5894E-03     115.073E+06     79.0726E+06    -6.70223E+06    -6.70138E+06     79.0718E+06     115.073E+06    -150.684E+03         60.6109
             615     12.7699E-03     53.7262E-03     479.377E-03    -129.439E-03    -193.515E-03    -129.419E-03     479.357E-03    -193.515E-03    -713.490E-06     454.827E-03    -226.516E-03    -228.311E-03    -225.725E-03     452.241E-03    -226.516E-03     82.7016E-03     112.314E+06     73.1094E+06    -14.6456E+06    -14.6418E+06     73.1056E+06     112.314E+06     31.6669E+03         60.4444
             616     11.9710E-03     53.6296E-03     493.882E-03    -139.745E-03    -197.809E-03    -139.672E-03     493.810E-03    -197.809E-03     5.02521E-03     453.561E-03    -226.527E-03    -227.034E-03    -225.389E-03     451.916E-03    -226.527E-03     66.8203E-03     104.127E+06     66.9028E+06    -23.1070E+06    -23.0963E+06     66.8921E+06     104.127E+06     256.356E+03         60.2658
             617     11.1724E-03     53.5367E-03     507.927E-03    -149.820E-03    -201.905E-03    -149.754E-03     507.860E-03    -201.905E-03     6.13912E-03     453.131E-03    -226.433E-03    -226.698E-03    -225.275E-03     451.789E-03    -226.514E-03     60.1421E-03     90.2371E+06     61.1698E+06    -31.3908E+06    -31.3831E+06     61.1621E+06     90.2371E+06     242.980E+03         60.0755
             618     10.3738E-03     53.4592E-03     521.507E-03    -159.695E-03    -205.799E-03    -159.680E-03     521.492E-03    -205.799E-03     864.935E-06     452.723E-03    -226.228E-03    -226.496E-03    -225.235E-03     451.731E-03    -226.496E-03     51.7632E-03     73.8530E+06     53.4906E+06    -39.7817E+06    -39.7812E+06     53.4901E+06     73.8530E+06     60.7059E+03         59.8748
             619     9.57538E-03     53.3918E-03     534.640E-03    -169.349E-03    -209.467E-03    -169.285E-03     534.576E-03    -209.467E-03    -5.27310E-03     452.468E-03    -225.976E-03    -226.491E-03    -225.221E-03     451.712E-03    -226.491E-03     45.1346E-03     59.8551E+06     46.6848E+06    -48.5906E+06    -48.5847E+06     46.6790E+06     59.8551E+06    -418.284E+03         59.6659
             620     8.77695E-03     53.3336E-03     547.084E-03    -178.542E-03    -212.893E-03    -178.483E-03     547.024E-03    -212.893E-03    -6.19233E-03     452.303E-03    -225.789E-03    -226.515E-03    -225.231E-03     451.746E-03    -226.515E-03     38.7524E-03     45.2504E+06     22.6664E+06    -57.9860E+06    -57.9749E+06     22.6553E+06     45.2504E+06    -798.660E+03         59.4518
             621     7.97859E-03     53.2850E-03     558.681E-03    -187.086E-03    -216.064E-03    -187.065E-03     558.659E-03    -216.064E-03    -2.33635E-03     452.296E-03    -225.738E-03    -226.559E-03    -225.340E-03     451.899E-03    -226.559E-03     32.6972E-03     27.7210E+06    -23.4097E+06    -67.3225E+06    -67.3170E+06    -23.4153E+06     27.7210E+06    -348.484E+03         59.2361
             622     7.18041E-03     53.2450E-03     569.567E-03    -195.098E-03    -218.974E-03    -195.039E-03     569.508E-03    -218.974E-03     3.06346E-03     452.326E-03    -225.729E-03    -226.597E-03    -225.456E-03     452.053E-03    -226.597E-03     27.0591E-03     9.33572E+06    -65.0319E+06    -79.9744E+06    -76.8228E+06    -68.1834E+06     9.33572E+06     158.573E+03         59.0229
             623     6.38216E-03     53.2128E-03     579.406E-03    -202.424E-03    -221.608E-03    -202.382E-03     579.364E-03    -221.608E-03     8.31325E-03     452.416E-03    -225.792E-03    -226.624E-03    -225.616E-03     452.239E-03    -226.624E-03     21.7248E-03    -9.06311E+06    -86.5548E+06    -106.094E+06    -86.5660E+06    -106.083E+06    -9.06311E+06     139.682E+03         58.8166
             624     5.58411E-03     53.1887E-03     588.331E-03    -209.188E-03    -223.946E-03    -209.143E-03     588.286E-03    -223.946E-03     8.67016E-03     452.550E-03    -225.915E-03    -226.635E-03    -225.810E-03     452.445E-03    -226.635E-03     16.7021E-03    -27.6875E+06    -96.2947E+06    -140.197E+06    -96.3058E+06    -140.186E+06    -27.6875E+06    -28.3866E+03         58.6215
             625     4.78626E-03     53.1718E-03     595.989E-03    -214.926E-03    -225.985E-03    -214.863E-03     595.926E-03    -225.985E-03     3.31311E-03     452.622E-03    -225.994E-03    -226.628E-03    -225.939E-03     452.567E-03    -226.628E-03     12.0018E-03    -47.3406E+06    -105.715E+06    -170.869E+06    -105.720E+06    -170.864E+06    -47.3406E+06    -4.10034E+03         58.4420
             626     3.98840E-03     53.1615E-03     602.819E-03    -220.111E-03    -227.710E-03    -220.086E-03     602.793E-03    -227.710E-03    -6.68338E-03     452.663E-03    -226.057E-03    -226.606E-03    -226.033E-03     452.639E-03    -226.606E-03     7.90913E-03    -68.5858E+06    -115.273E+06    -197.263E+06    -115.275E+06    -197.261E+06    -68.5858E+06     235.128E+03         58.2822
             627     3.19059E-03     53.1562E-03     608.211E-03    -224.072E-03    -229.133E-03    -223.991E-03     608.130E-03    -229.133E-03    -11.6094E-03     452.710E-03    -226.129E-03    -226.581E-03    -226.121E-03     452.701E-03    -226.581E-03     4.58175E-03    -90.1195E+06    -124.433E+06    -219.517E+06    -124.435E+06    -219.515E+06    -90.1195E+06     146.361E+03         58.1457
             628     2.39283E-03     53.1552E-03     613.225E-03    -227.736E-03    -230.217E-03    -227.604E-03     613.092E-03    -230.217E-03    -4.40656E-03     452.782E-03    -226.214E-03    -226.568E-03    -226.212E-03     452.780E-03    -226.568E-03     2.12904E-03    -110.572E+06    -132.478E+06    -240.161E+06    -132.479E+06    -240.161E+06    -110.572E+06    -183.054E+03         58.0357
             629     1.59519E-03     53.1564E-03     615.391E-03    -229.233E-03    -231.189E-03    -229.034E-03     615.192E-03    -231.189E-03     7.73500E-03     452.937E-03    -226.362E-03    -226.575E-03    -226.364E-03     452.936E-03    -226.572E-03     557.822E-06    -128.339E+06    -138.573E+06    -258.246E+06    -138.579E+06    -258.240E+06    -128.339E+06     209.323E+03         57.9546
             630     797.466E-06     53.1583E-03     620.076E-03    -118.914E-03    -346.249E-03    -117.165E-03     618.327E-03    -346.249E-03     28.3325E-03     453.137E-03    -226.449E-03    -226.688E-03    -226.604E-03     453.137E-03    -226.533E-03     191.228E-06    -138.716E+06    -141.612E+06    -277.051E+06    -141.398E+06    -277.031E+06    -138.950E+06     19.1455E+03         57.9037
             631     13.5662E-03     52.2923E-03     472.018E-03    -120.710E-03    -192.708E-03    -120.674E-03     471.982E-03    -192.708E-03    -2.61076E-03     455.141E-03    -226.500E-03    -228.641E-03    -225.896E-03     452.396E-03    -226.500E-03     85.7817E-03     114.187E+06     78.4541E+06    -7.16738E+06    -7.16429E+06     78.4510E+06     114.187E+06    -49.0424E+03         60.6019
             632     12.7686E-03     52.1538E-03     486.751E-03    -131.295E-03    -197.031E-03    -131.277E-03     486.733E-03    -197.031E-03    -391.788E-06     455.077E-03    -226.530E-03    -228.546E-03    -225.970E-03     452.500E-03    -226.530E-03     82.6030E-03     112.503E+06     73.2809E+06    -14.3531E+06    -14.3492E+06     73.2770E+06     112.503E+06     40.4497E+03         60.4362
             633     11.9709E-03     52.0572E-03     501.251E-03    -141.757E-03    -201.190E-03    -141.685E-03     501.180E-03    -201.190E-03     5.45376E-03     453.653E-03    -226.534E-03    -227.119E-03    -225.470E-03     452.003E-03    -226.534E-03     66.9281E-03     104.853E+06     67.3872E+06    -22.3363E+06    -22.3323E+06     67.3831E+06     104.853E+06    -13.1788E+03         60.2589
             634     11.1725E-03     51.9652E-03     515.292E-03    -151.952E-03    -205.166E-03    -151.886E-03     515.226E-03    -205.166E-03     6.56175E-03     453.127E-03    -226.409E-03    -226.718E-03    -225.253E-03     451.773E-03    -226.519E-03     60.4276E-03     90.6325E+06     61.0950E+06    -30.8762E+06    -30.8705E+06     61.0893E+06     90.6325E+06    -383.696E+03         60.0703
             635     10.3738E-03     51.8874E-03     528.830E-03    -161.894E-03    -208.950E-03    -161.879E-03     528.814E-03    -208.950E-03     1.48892E-03     452.704E-03    -226.201E-03    -226.503E-03    -225.200E-03     451.703E-03    -226.503E-03     51.9880E-03     74.1427E+06     53.6871E+06    -39.3937E+06    -39.3875E+06     53.6809E+06     74.1427E+06    -383.779E+03         59.8717
             636     9.57534E-03     51.8196E-03     541.902E-03    -171.630E-03    -212.521E-03    -171.568E-03     541.839E-03    -212.521E-03    -4.73697E-03     452.486E-03    -225.986E-03    -226.500E-03    -225.231E-03     451.731E-03    -226.500E-03     45.1377E-03     60.1468E+06     47.3532E+06    -47.9110E+06    -47.9005E+06     47.3426E+06     60.1468E+06    -290.189E+03         59.6652
             637     8.77692E-03     51.7619E-03     554.326E-03    -180.902E-03    -215.859E-03    -180.843E-03     554.267E-03    -215.859E-03    -5.36859E-03     452.331E-03    -225.808E-03    -226.523E-03    -225.253E-03     451.776E-03    -226.523E-03     38.6640E-03     45.2665E+06     22.3643E+06    -57.4530E+06    -57.4436E+06     22.3550E+06     45.2665E+06    -181.478E+03         59.4538
             638     7.97856E-03     51.7129E-03     565.937E-03    -189.516E-03    -218.953E-03    -189.491E-03     565.911E-03    -218.953E-03    -2.03442E-03     452.342E-03    -225.778E-03    -226.565E-03    -225.382E-03     451.947E-03    -226.565E-03     32.6112E-03     27.3420E+06    -24.2821E+06    -67.3220E+06    -67.3181E+06    -24.2860E+06     27.3420E+06    -199.617E+03         59.2409
             639     7.18034E-03     51.6730E-03     576.837E-03    -197.618E-03    -221.794E-03    -197.544E-03     576.763E-03    -221.794E-03     4.00003E-03     452.409E-03    -225.812E-03    -226.597E-03    -225.541E-03     452.138E-03    -226.597E-03     26.9604E-03     9.30115E+06    -65.0779E+06    -80.2105E+06    -76.7425E+06    -68.5459E+06     9.30115E+06    -15.4472E+03         59.0307
             640     6.38225E-03     51.6409E-03     586.629E-03    -204.928E-03    -224.375E-03    -204.871E-03     586.572E-03    -224.375E-03     8.04407E-03     452.425E-03    -225.808E-03    -226.616E-03    -225.634E-03     452.250E-03    -226.616E-03     21.5995E-03    -9.01412E+06    -86.1122E+06    -105.861E+06    -86.1220E+06    -105.852E+06    -9.01412E+06     141.961E+03         58.8272
             641     5.58419E-03     51.6165E-03     595.602E-03    -211.774E-03    -226.673E-03    -211.693E-03     595.522E-03    -226.673E-03     9.98936E-03     452.475E-03    -225.845E-03    -226.630E-03    -225.742E-03     452.371E-03    -226.630E-03     16.6063E-03    -27.7697E+06    -95.3751E+06    -139.704E+06    -95.3843E+06    -139.695E+06    -27.7697E+06    -114.760E+03         58.6349
             642     4.78629E-03     51.5995E-03     603.325E-03    -217.682E-03    -228.676E-03    -217.548E-03     603.191E-03    -228.676E-03     2.01806E-03     452.621E-03    -225.988E-03    -226.633E-03    -225.933E-03     452.566E-03    -226.633E-03     12.0145E-03    -47.0024E+06    -105.076E+06    -171.741E+06    -105.079E+06    -171.737E+06    -47.0024E+06    -10.2002E+03         58.4580
             643     3.98848E-03     51.5895E-03     610.222E-03    -222.915E-03    -230.359E-03    -222.833E-03     610.140E-03    -230.359E-03    -3.70898E-03     452.696E-03    -226.083E-03    -226.612E-03    -226.059E-03     452.671E-03    -226.612E-03     7.92568E-03    -67.6948E+06    -114.757E+06    -197.561E+06    -114.759E+06    -197.559E+06    -67.6948E+06     400.325E+03         58.3004
             644     3.19063E-03     51.5842E-03     615.637E-03    -226.853E-03    -231.767E-03    -226.540E-03     615.324E-03    -231.767E-03    -15.5511E-03     452.689E-03    -226.105E-03    -226.584E-03    -226.097E-03     452.681E-03    -226.584E-03     4.55761E-03    -89.7120E+06    -123.702E+06    -218.722E+06    -123.704E+06    -218.719E+06    -89.7120E+06     345.917E+03         58.1659
             645     2.39277E-03     51.5834E-03     621.049E-03    -230.558E-03    -233.344E-03    -230.364E-03     620.342E-03    -232.832E-03     3.58515E-03     452.789E-03    -226.214E-03    -226.576E-03    -226.212E-03     452.787E-03    -226.576E-03     2.16256E-03    -110.576E+06    -131.177E+06    -239.777E+06    -131.178E+06    -239.776E+06    -110.576E+06    -20.9345E+03         58.0574
             646     1.59499E-03     51.5840E-03     623.472E-03    -232.144E-03    -234.368E-03    -231.406E-03     622.222E-03    -233.856E-03    -7.66611E-03     452.982E-03    -226.400E-03    -226.582E-03    -226.402E-03     452.981E-03    -226.579E-03     722.080E-06    -128.165E+06    -137.016E+06    -259.062E+06    -137.018E+06    -259.060E+06    -128.165E+06    -411.035E+03         57.9775
             647     797.665E-06     51.5859E-03     638.232E-03    -99.8400E-03    -381.482E-03    -87.3864E-03     625.779E-03    -381.482E-03     75.4928E-03     453.143E-03    -226.434E-03    -226.709E-03    -226.665E-03     453.143E-03    -226.478E-03     481.671E-06    -138.388E+06    -141.046E+06    -276.661E+06    -140.562E+06    -276.647E+06    -138.886E+06    -785.570E+03         57.9273
             648     13.5682E-03     50.7194E-03     474.901E-03    -121.665E-03    -193.121E-03    -121.631E-03     474.867E-03    -193.121E-03    -2.27278E-03     455.026E-03    -226.495E-03    -228.531E-03    -225.824E-03     452.319E-03    -226.495E-03     85.2350E-03     114.508E+06     78.7392E+06    -6.87689E+06    -6.87067E+06     78.7330E+06     114.508E+06     117.484E+03         60.5933
             649     12.7697E-03     50.5813E-03     489.198E-03    -132.083E-03    -197.154E-03    -132.066E-03     489.182E-03    -197.154E-03    -25.2913E-06     454.751E-03    -226.536E-03    -228.215E-03    -225.668E-03     452.204E-03    -226.536E-03     82.1736E-03     112.583E+06     72.8735E+06    -14.3967E+06    -14.3874E+06     72.8642E+06     112.583E+06    -312.176E+03         60.4282
             650     11.9707E-03     50.4852E-03     503.255E-03    -142.363E-03    -201.033E-03    -142.293E-03     503.184E-03    -201.033E-03     5.79165E-03     453.649E-03    -226.549E-03    -227.100E-03    -225.452E-03     452.001E-03    -226.549E-03     66.8920E-03     105.074E+06     67.2925E+06    -22.0827E+06    -22.0765E+06     67.2862E+06     105.074E+06    -534.123E+03         60.2522
             651     11.1719E-03     50.3933E-03     516.771E-03    -152.307E-03    -204.750E-03    -152.242E-03     516.705E-03    -204.750E-03     6.81567E-03     453.290E-03    -226.499E-03    -226.791E-03    -225.419E-03     451.947E-03    -226.528E-03     60.1750E-03     90.6053E+06     61.2231E+06    -30.4787E+06    -30.4735E+06     61.2180E+06     90.6053E+06    -339.994E+03         60.0653
             652     10.3736E-03     50.3154E-03     529.790E-03    -161.989E-03    -208.288E-03    -161.973E-03     529.774E-03    -208.288E-03     2.00170E-03     452.763E-03    -226.261E-03    -226.502E-03    -225.269E-03     451.771E-03    -226.502E-03     51.7474E-03     73.7572E+06     53.6020E+06    -39.3713E+06    -39.3649E+06     53.5956E+06     73.7572E+06    -355.774E+03         59.8687
             653     9.57518E-03     50.2476E-03     542.376E-03    -171.488E-03    -211.631E-03    -171.425E-03     542.313E-03    -211.631E-03    -4.36815E-03     452.443E-03    -225.944E-03    -226.498E-03    -225.195E-03     451.693E-03    -226.498E-03     44.9483E-03     59.5878E+06     46.7440E+06    -48.6711E+06    -48.6647E+06     46.7376E+06     59.5878E+06    -82.8988E+03         59.6647
             654     8.77685E-03     50.1896E-03     554.345E-03    -180.521E-03    -214.756E-03    -180.460E-03     554.283E-03    -214.756E-03    -4.59537E-03     452.330E-03    -225.807E-03    -226.523E-03    -225.255E-03     451.778E-03    -226.523E-03     38.5514E-03     45.1043E+06     22.4070E+06    -57.8262E+06    -57.8218E+06     22.4026E+06     45.1043E+06     91.8529E+03         59.4559
             655     7.97860E-03     50.1411E-03     565.530E-03    -188.870E-03    -217.656E-03    -188.837E-03     565.497E-03    -217.656E-03    -1.85043E-03     452.369E-03    -225.807E-03    -226.562E-03    -225.412E-03     451.975E-03    -226.562E-03     32.5935E-03     27.2322E+06    -24.2078E+06    -67.1423E+06    -67.1380E+06    -24.2121E+06     27.2322E+06    -32.0533E+03         59.2458
             656     7.18044E-03     50.1007E-03     576.033E-03    -196.748E-03    -220.324E-03    -196.651E-03     575.936E-03    -220.324E-03     4.94261E-03     452.432E-03    -225.841E-03    -226.592E-03    -225.569E-03     452.161E-03    -226.592E-03     27.0007E-03     9.14347E+06    -65.1453E+06    -80.0541E+06    -76.3091E+06    -68.8903E+06     9.14347E+06    -154.873E+03         59.0384
             657     6.38245E-03     50.0688E-03     585.403E-03    -203.779E-03    -222.756E-03    -203.697E-03     585.321E-03    -222.756E-03     7.60108E-03     452.445E-03    -225.838E-03    -226.607E-03    -225.662E-03     452.270E-03    -226.607E-03     21.6586E-03    -8.95577E+06    -85.7832E+06    -105.675E+06    -85.8045E+06    -105.654E+06    -8.95577E+06    -299.092E+03         58.8378
             658     5.58434E-03     50.0447E-03     594.093E-03    -210.427E-03    -224.934E-03    -210.283E-03     593.949E-03    -224.934E-03     11.5972E-03     452.423E-03    -225.801E-03    -226.622E-03    -225.697E-03     452.319E-03    -226.622E-03     16.6506E-03    -27.8569E+06    -95.8707E+06    -140.120E+06    -95.8744E+06    -140.116E+06    -27.8569E+06    -46.6227E+03         58.6482
             659     4.78612E-03     50.0275E-03     601.585E-03    -216.223E-03    -226.844E-03    -215.954E-03     601.317E-03    -226.844E-03     383.940E-06     452.508E-03    -225.871E-03    -226.637E-03    -225.815E-03     452.452E-03    -226.637E-03     12.0966E-03    -47.5541E+06    -105.716E+06    -172.116E+06    -105.717E+06    -172.115E+06    -47.5541E+06     191.930E+03         58.4738
             660     3.98834E-03     50.0170E-03     608.378E-03    -221.490E-03    -228.446E-03    -221.219E-03     608.108E-03    -228.446E-03     37.8261E-06     452.647E-03    -226.013E-03    -226.634E-03    -225.988E-03     452.622E-03    -226.634E-03     8.03602E-03    -68.3351E+06    -115.086E+06    -197.594E+06    -115.087E+06    -197.593E+06    -68.3351E+06    -3.97108E+03         58.3185
             661     3.19057E-03     50.0125E-03     613.960E-03    -225.514E-03    -229.804E-03    -224.609E-03     613.054E-03    -229.804E-03    -20.5850E-03     452.770E-03    -226.155E-03    -226.614E-03    -226.146E-03     452.761E-03    -226.614E-03     4.76551E-03    -89.7882E+06    -123.740E+06    -218.396E+06    -123.742E+06    -218.394E+06    -89.7882E+06    -21.7472E+03         58.1859
             662     2.39280E-03     50.0111E-03     620.339E-03    -228.901E-03    -232.614E-03    -228.422E-03     618.100E-03    -230.854E-03     13.4331E-03     452.900E-03    -226.308E-03    -226.593E-03    -226.305E-03     452.898E-03    -226.593E-03     2.27928E-03    -110.116E+06    -131.376E+06    -239.297E+06    -131.378E+06    -239.296E+06    -110.116E+06     21.8421E+03         58.0789
             663     1.59518E-03     50.0121E-03     624.766E-03    -231.252E-03    -235.114E-03    -229.385E-03     619.671E-03    -231.885E-03    -26.4899E-03     453.000E-03    -226.421E-03    -226.580E-03    -226.420E-03     453.000E-03    -226.580E-03     699.833E-06    -127.228E+06    -137.551E+06    -258.890E+06    -137.556E+06    -258.885E+06    -127.228E+06     44.8368E+03         58.0001
             664     797.259E-06     50.0133E-03     667.216E-03    -94.1436E-03    -414.319E-03    -52.0909E-03     623.695E-03    -412.850E-03     134.282E-03     453.115E-03    -226.432E-03    -226.684E-03    -226.628E-03     453.115E-03    -226.487E-03     260.295E-06    -138.815E+06    -142.413E+06    -277.755E+06    -141.926E+06    -277.744E+06    -139.312E+06     645.423E+03         57.9506
             665     13.5679E-03     49.1479E-03     473.423E-03    -121.965E-03    -190.308E-03    -121.933E-03     473.391E-03    -190.308E-03    -2.06621E-03     455.001E-03    -226.485E-03    -228.516E-03    -225.791E-03     452.276E-03    -226.485E-03     85.5061E-03     115.433E+06     79.5875E+06    -6.57915E+06    -6.57130E+06     79.5796E+06     115.433E+06    -33.8144E+03         60.5849
             666     12.7685E-03     49.0102E-03     486.792E-03    -131.867E-03    -193.906E-03    -131.852E-03     486.776E-03    -193.906E-03     218.632E-06     454.554E-03    -226.530E-03    -228.024E-03    -225.465E-03     451.995E-03    -226.530E-03     82.3031E-03     112.887E+06     73.3479E+06    -14.2485E+06    -14.2372E+06     73.3366E+06     112.887E+06    -354.416E+03         60.4206
             667     11.9702E-03     48.9126E-03     499.854E-03    -141.529E-03    -197.367E-03    -141.460E-03     499.784E-03    -197.367E-03     6.06117E-03     453.614E-03    -226.549E-03    -227.065E-03    -225.426E-03     451.975E-03    -226.549E-03     66.6853E-03     104.600E+06     66.6156E+06    -22.7710E+06    -22.7627E+06     66.6073E+06     104.600E+06    -700.508E+03         60.2457
             668     11.1725E-03     48.8209E-03     512.418E-03    -150.871E-03    -200.694E-03    -150.805E-03     512.352E-03    -200.694E-03     6.98823E-03     453.350E-03    -226.526E-03    -226.824E-03    -225.491E-03     452.017E-03    -226.526E-03     59.9650E-03     90.3397E+06     60.8762E+06    -31.1896E+06    -31.1844E+06     60.8710E+06     90.3397E+06    -465.839E+03         60.0605
             669     10.3741E-03     48.7435E-03     524.505E-03    -160.011E-03    -203.863E-03    -159.993E-03     524.487E-03    -203.863E-03     2.54558E-03     452.833E-03    -226.316E-03    -226.517E-03    -225.351E-03     451.844E-03    -226.493E-03     51.6807E-03     73.4748E+06     53.2416E+06    -39.7467E+06    -39.7446E+06     53.2395E+06     73.4748E+06    -67.3584E+03         59.8660
             670     9.57558E-03     48.6757E-03     536.193E-03    -168.954E-03    -206.856E-03    -168.887E-03     536.126E-03    -206.856E-03    -3.95992E-03     452.430E-03    -225.945E-03    -226.485E-03    -225.197E-03     451.682E-03    -226.485E-03     44.8750E-03     59.4430E+06     46.4658E+06    -48.7854E+06    -48.7828E+06     46.4632E+06     59.4430E+06    -12.7968E+03         59.6643
             671     8.77696E-03     48.6177E-03     547.276E-03    -177.422E-03    -209.654E-03    -177.355E-03     547.208E-03    -209.654E-03    -3.72164E-03     452.249E-03    -225.738E-03    -226.511E-03    -225.189E-03     451.699E-03    -226.511E-03     38.4559E-03     44.9426E+06     22.4231E+06    -57.8692E+06    -57.8667E+06     22.4206E+06     44.9426E+06    -97.6664E+03         59.4581
             672     7.97862E-03     48.5688E-03     557.563E-03    -185.168E-03    -212.256E-03    -185.123E-03     557.518E-03    -212.256E-03    -1.67120E-03     452.297E-03    -225.742E-03    -226.555E-03    -225.348E-03     451.903E-03    -226.555E-03     32.5687E-03     27.1947E+06    -24.0153E+06    -66.9096E+06    -66.9027E+06    -24.0222E+06     27.1947E+06    -159.803E+03         59.2508
             673     7.18043E-03     48.5288E-03     567.285E-03    -192.470E-03    -214.660E-03    -192.338E-03     567.153E-03    -214.660E-03     6.06275E-03     452.343E-03    -225.750E-03    -226.593E-03    -225.477E-03     452.070E-03    -226.593E-03     27.0704E-03     8.89034E+06    -65.6631E+06    -79.8614E+06    -76.7012E+06    -68.8233E+06     8.89034E+06    -232.692E+03         59.0462
             674     6.38219E-03     48.4966E-03     575.953E-03    -198.998E-03    -216.865E-03    -198.874E-03     575.829E-03    -216.865E-03     7.06140E-03     452.403E-03    -225.783E-03    -226.620E-03    -225.605E-03     452.225E-03    -226.620E-03     21.8271E-03    -9.17125E+06    -86.5685E+06    -106.197E+06    -86.5920E+06    -106.173E+06    -9.17125E+06     38.8063E+03         58.8483
             675     5.58425E-03     48.4728E-03     584.068E-03    -205.314E-03    -218.849E-03    -205.062E-03     583.815E-03    -218.849E-03     13.5269E-03     452.511E-03    -225.876E-03    -226.635E-03    -225.770E-03     452.404E-03    -226.635E-03     16.8064E-03    -27.9037E+06    -96.2372E+06    -140.519E+06    -96.2448E+06    -140.512E+06    -27.9037E+06     175.697E+03         58.6614
             676     4.78636E-03     48.4558E-03     591.070E-03    -210.736E-03    -220.608E-03    -210.233E-03     590.567E-03    -220.608E-03    -1.57967E-03     452.515E-03    -225.872E-03    -226.642E-03    -225.816E-03     452.459E-03    -226.642E-03     12.0995E-03    -47.7937E+06    -105.978E+06    -171.787E+06    -105.980E+06    -171.786E+06    -47.7937E+06    -67.7485E+03         58.4895
             677     3.98809E-03     48.4452E-03     597.641E-03    -215.842E-03    -222.109E-03    -215.165E-03     596.964E-03    -222.109E-03     4.42700E-03     452.575E-03    -225.924E-03    -226.651E-03    -225.899E-03     452.550E-03    -226.651E-03     7.92685E-03    -68.6657E+06    -115.441E+06    -197.648E+06    -115.442E+06    -197.647E+06    -68.6657E+06    -167.673E+03         58.3364
             678     3.19015E-03     48.4402E-03     603.661E-03    -220.509E-03    -223.391E-03    -218.440E-03     601.592E-03    -223.391E-03    -26.4658E-03     452.803E-03    -226.157E-03    -226.646E-03    -226.148E-03     452.794E-03    -226.646E-03     4.69287E-03    -90.1788E+06    -124.548E+06    -218.349E+06    -124.549E+06    -218.348E+06    -90.1788E+06    -141.526E+03         58.2057
             679     2.39267E-03     48.4386E-03     611.984E-03    -223.401E-03    -228.364E-03    -222.079E-03     606.681E-03    -224.383E-03     25.1913E-03     453.020E-03    -226.402E-03    -226.619E-03    -226.406E-03     453.018E-03    -226.612E-03     2.29824E-03    -111.035E+06    -132.872E+06    -239.545E+06    -132.873E+06    -239.545E+06    -111.035E+06     36.4869E+03         58.1003
             680     1.59511E-03     48.4400E-03     621.311E-03    -225.451E-03    -236.200E-03    -222.724E-03     607.835E-03    -225.451E-03    -49.0622E-03     453.093E-03    -226.488E-03    -226.606E-03    -226.555E-03     453.093E-03    -226.538E-03     663.924E-06    -128.514E+06    -138.970E+06    -258.958E+06    -138.975E+06    -258.953E+06    -128.514E+06     109.685E+03         58.0226
             681     797.886E-06     48.4409E-03     713.617E-03    -107.286E-03    -446.656E-03    -12.3392E-03     611.902E-03    -439.888E-03     203.911E-03     452.951E-03    -226.369E-03    -226.582E-03    -226.551E-03     452.951E-03    -226.400E-03     119.377E-06    -139.033E+06    -142.209E+06    -277.142E+06    -142.066E+06    -277.130E+06    -139.189E+06     199.755E+03         57.9739
             682     13.5677E-03     47.5761E-03     467.852E-03    -121.557E-03    -184.393E-03    -121.527E-03     467.822E-03    -184.393E-03    -1.86068E-03     455.163E-03    -226.488E-03    -228.675E-03    -225.962E-03     452.450E-03    -226.488E-03     85.3440E-03     115.052E+06     79.4334E+06    -7.03580E+06    -7.03014E+06     79.4277E+06     115.052E+06    -159.471E+03         60.5769
             683     12.7700E-03     47.4384E-03     479.736E-03    -130.574E-03    -187.433E-03    -130.560E-03     479.722E-03    -187.433E-03     445.168E-06     454.802E-03    -226.520E-03    -228.283E-03    -225.735E-03     452.254E-03    -226.520E-03     82.1878E-03     113.036E+06     74.3383E+06    -14.5104E+06    -14.5057E+06     74.3336E+06     113.036E+06    -266.798E+03         60.4134
             684     11.9712E-03     47.3408E-03     491.361E-03    -139.330E-03    -190.357E-03    -139.259E-03     491.290E-03    -190.357E-03     6.40902E-03     453.495E-03    -226.533E-03    -226.962E-03    -225.320E-03     451.853E-03    -226.533E-03     66.7368E-03     104.750E+06     67.1675E+06    -22.8338E+06    -22.8298E+06     67.1636E+06     104.750E+06    -492.362E+03         60.2397
             685     11.1720E-03     47.2486E-03     502.547E-03    -147.772E-03    -193.179E-03    -147.704E-03     502.479E-03    -193.179E-03     7.22520E-03     453.184E-03    -226.491E-03    -226.694E-03    -225.329E-03     451.848E-03    -226.519E-03     60.0298E-03     90.1264E+06     60.1259E+06    -31.3148E+06    -31.3099E+06     60.1209E+06     90.1264E+06    -617.733E+03         60.0561
             686     10.3737E-03     47.1712E-03     513.297E-03    -156.008E-03    -195.868E-03    -155.987E-03     513.275E-03    -195.868E-03     3.13939E-03     452.819E-03    -226.303E-03    -226.517E-03    -225.335E-03     451.828E-03    -226.493E-03     51.7556E-03     73.4073E+06     52.6965E+06    -39.9965E+06    -39.9947E+06     52.6946E+06     73.4073E+06    -336.022E+03         59.8635
             687     9.57554E-03     47.1037E-03     523.655E-03    -164.061E-03    -198.410E-03    -163.989E-03     523.583E-03    -198.410E-03    -3.54934E-03     452.465E-03    -225.981E-03    -226.484E-03    -225.225E-03     451.710E-03    -226.484E-03     45.1418E-03     59.5818E+06     46.4996E+06    -48.6172E+06    -48.6145E+06     46.4969E+06     59.5818E+06    -142.290E+03         59.6641
             688     8.77724E-03     47.0459E-03     533.455E-03    -171.683E-03    -200.786E-03    -171.606E-03     533.378E-03    -200.786E-03    -2.82048E-03     452.254E-03    -225.744E-03    -226.510E-03    -225.185E-03     451.695E-03    -226.510E-03     38.7881E-03     45.0212E+06     22.4490E+06    -57.8929E+06    -57.8904E+06     22.4465E+06     45.0212E+06    -57.2665E+03         59.4605
             689     7.97873E-03     46.9970E-03     542.534E-03    -178.581E-03    -202.999E-03    -178.519E-03     542.472E-03    -202.999E-03    -1.60270E-03     452.234E-03    -225.676E-03    -226.558E-03    -225.276E-03     451.834E-03    -226.558E-03     32.7860E-03     26.9400E+06    -24.0574E+06    -67.8492E+06    -67.8371E+06    -24.0695E+06     26.9400E+06     4.01828E+03         59.2558
             690     7.18035E-03     46.9567E-03     551.154E-03    -185.085E-03    -205.054E-03    -184.902E-03     550.972E-03    -205.054E-03     7.22761E-03     452.291E-03    -225.689E-03    -226.602E-03    -225.415E-03     452.017E-03    -226.602E-03     27.1249E-03     8.33856E+06    -65.8128E+06    -80.6506E+06    -77.6024E+06    -68.8611E+06     8.33856E+06     44.2443E+03         59.0540
             691     6.38211E-03     46.9250E-03     558.768E-03    -190.830E-03    -206.955E-03    -190.637E-03     558.575E-03    -206.955E-03     6.24439E-03     452.397E-03    -225.761E-03    -226.636E-03    -225.583E-03     452.219E-03    -226.636E-03     21.7926E-03    -9.62299E+06    -87.1992E+06    -106.948E+06    -87.2096E+06    -106.937E+06    -9.62299E+06     79.8133E+03         58.8589
             692     5.58393E-03     46.9003E-03     566.080E-03    -196.598E-03    -208.681E-03    -196.173E-03     565.655E-03    -208.681E-03     15.5028E-03     452.534E-03    -225.880E-03    -226.654E-03    -225.774E-03     452.428E-03    -226.654E-03     16.7616E-03    -28.0014E+06    -96.7006E+06    -140.081E+06    -96.7120E+06    -140.070E+06    -28.0014E+06     99.7796E+03         58.6746
             693     4.78611E-03     46.8837E-03     572.489E-03    -201.697E-03    -210.225E-03    -200.806E-03     571.598E-03    -210.225E-03    -4.06369E-03     452.652E-03    -225.999E-03    -226.654E-03    -225.943E-03     452.597E-03    -226.654E-03     12.0438E-03    -47.7966E+06    -106.410E+06    -171.605E+06    -106.412E+06    -171.603E+06    -47.7966E+06    -25.6457E+03         58.5051
             694     3.98839E-03     46.8735E-03     578.820E-03    -206.666E-03    -211.555E-03    -205.247E-03     577.400E-03    -211.555E-03     9.19158E-03     452.714E-03    -226.079E-03    -226.635E-03    -226.055E-03     452.689E-03    -226.635E-03     7.86376E-03    -68.8963E+06    -116.199E+06    -197.969E+06    -116.200E+06    -197.968E+06    -68.8963E+06     44.4970E+03         58.3542
             695     3.19055E-03     46.8678E-03     585.580E-03    -211.421E-03    -213.480E-03    -208.074E-03     581.472E-03    -212.719E-03    -33.3564E-03     452.770E-03    -226.168E-03    -226.602E-03    -226.160E-03     452.762E-03    -226.602E-03     4.41773E-03    -90.9502E+06    -125.320E+06    -218.317E+06    -125.320E+06    -218.316E+06    -90.9502E+06     207.845E+03         58.2254
             696     2.39259E-03     46.8665E-03     597.020E-03    -213.446E-03    -222.512E-03    -211.686E-03     586.350E-03    -213.602E-03     38.5983E-03     452.890E-03    -226.317E-03    -226.573E-03    -226.322E-03     452.888E-03    -226.566E-03     2.03124E-03    -112.022E+06    -132.885E+06    -239.532E+06    -132.885E+06    -239.532E+06    -112.022E+06     70.7226E+03         58.1216
             697     1.59525E-03     46.8667E-03     615.555E-03    -214.705E-03    -240.084E-03    -211.580E-03     587.050E-03    -214.705E-03    -75.3318E-03     452.978E-03    -226.392E-03    -226.586E-03    -226.460E-03     452.978E-03    -226.518E-03     600.771E-06    -129.927E+06    -138.507E+06    -258.452E+06    -138.511E+06    -258.449E+06    -129.927E+06    -511.031E+03         58.0450
             698     797.630E-06     46.8696E-03     779.231E-03    -140.011E-03    -478.929E-03     30.6469E-03     591.344E-03    -461.699E-03     283.800E-03     452.974E-03    -226.370E-03    -226.604E-03    -226.431E-03     452.974E-03    -226.543E-03     227.645E-06    -139.994E+06    -141.672E+06    -278.129E+06    -141.524E+06    -278.122E+06    -140.150E+06    -1.02701E+06         57.9969
             699     13.5676E-03     46.0030E-03     458.505E-03    -120.626E-03    -175.634E-03    -120.596E-03     458.476E-03    -175.634E-03    -1.53322E-03     455.172E-03    -226.471E-03    -228.701E-03    -226.043E-03     452.514E-03    -226.471E-03     84.3911E-03     114.734E+06     78.9617E+06    -7.26302E+06    -7.26063E+06     78.9593E+06     114.734E+06    -213.879E+03         60.5694
             700     12.7690E-03     45.8659E-03     468.554E-03    -128.418E-03    -178.009E-03    -128.404E-03     468.540E-03    -178.009E-03     721.921E-06     454.711E-03    -226.500E-03    -228.211E-03    -225.685E-03     452.185E-03    -226.500E-03     81.8114E-03     112.949E+06     74.4593E+06    -14.3701E+06    -14.3674E+06     74.4566E+06     112.949E+06     55.4595E+03         60.4066
             701     11.9708E-03     45.7693E-03     478.359E-03    -135.958E-03    -180.293E-03    -135.885E-03     478.285E-03    -180.293E-03     6.64477E-03     453.408E-03    -226.515E-03    -226.893E-03    -225.257E-03     451.772E-03    -226.515E-03     66.6141E-03     105.005E+06     68.0644E+06    -22.5082E+06    -22.5055E+06     68.0617E+06     105.005E+06    -152.561E+03         60.2340
             702     11.1726E-03     45.6768E-03     487.729E-03    -143.169E-03    -182.508E-03    -143.098E-03     487.658E-03    -182.508E-03     7.40650E-03     452.952E-03    -226.361E-03    -226.591E-03    -225.099E-03     451.610E-03    -226.511E-03     60.1314E-03     89.9998E+06     59.9264E+06    -31.4446E+06    -31.4412E+06     59.9230E+06     89.9998E+06    -461.401E+03         60.0519
             703     10.3739E-03     45.5991E-03     496.703E-03    -150.162E-03    -184.620E-03    -150.137E-03     496.678E-03    -184.620E-03     3.63556E-03     452.612E-03    -226.111E-03    -226.501E-03    -225.114E-03     451.615E-03    -226.501E-03     51.8722E-03     73.0527E+06     52.4200E+06    -40.0978E+06    -40.0941E+06     52.4162E+06     73.0527E+06    -508.374E+03         59.8613
             704     9.57526E-03     45.5320E-03     505.342E-03    -157.030E-03    -186.623E-03    -156.949E-03     505.261E-03    -186.623E-03    -3.34775E-03     452.423E-03    -225.917E-03    -226.506E-03    -225.155E-03     451.661E-03    -226.506E-03     45.3166E-03     59.0039E+06     45.7745E+06    -49.3162E+06    -49.3106E+06     45.7689E+06     59.0039E+06    -172.006E+03         59.6641
             705     8.77667E-03     45.4738E-03     513.543E-03    -163.550E-03    -188.496E-03    -163.459E-03     513.452E-03    -188.496E-03    -2.04790E-03     452.326E-03    -225.791E-03    -226.536E-03    -225.226E-03     451.762E-03    -226.536E-03     38.9957E-03     44.7337E+06     22.2077E+06    -58.7892E+06    -58.7817E+06     22.2002E+06     44.7337E+06     316.019E+03         59.4630
             706     7.97846E-03     45.4253E-03     521.122E-03    -169.376E-03    -190.241E-03    -169.289E-03     521.036E-03    -190.241E-03    -1.81706E-03     452.343E-03    -225.764E-03    -226.579E-03    -225.361E-03     451.940E-03    -226.579E-03     32.9206E-03     26.7147E+06    -23.9110E+06    -68.2907E+06    -68.2794E+06    -23.9224E+06     26.7147E+06     356.667E+03         59.2610
             707     7.18016E-03     45.3849E-03     528.355E-03    -174.917E-03    -191.869E-03    -174.664E-03     528.102E-03    -191.869E-03     8.19447E-03     452.413E-03    -225.798E-03    -226.615E-03    -225.522E-03     452.137E-03    -226.615E-03     27.1792E-03     8.30963E+06    -65.7990E+06    -80.6186E+06    -77.5720E+06    -68.8456E+06     8.30963E+06     186.101E+03         59.0619
             708     6.38212E-03     45.3528E-03     534.663E-03    -179.716E-03    -193.389E-03    -179.418E-03     534.365E-03    -193.389E-03     5.05902E-03     452.487E-03    -225.849E-03    -226.638E-03    -225.672E-03     452.310E-03    -226.638E-03     21.7243E-03    -9.69755E+06    -86.9550E+06    -106.658E+06    -86.9658E+06    -106.648E+06    -9.69755E+06     17.2435E+03         58.8695
             709     5.58417E-03     45.3284E-03     540.971E-03    -184.745E-03    -194.787E-03    -184.059E-03     540.285E-03    -194.787E-03     17.4084E-03     452.515E-03    -225.865E-03    -226.650E-03    -225.761E-03     452.411E-03    -226.650E-03     16.5944E-03    -28.5606E+06    -97.1402E+06    -140.119E+06    -97.1508E+06    -140.109E+06    -28.5606E+06    -182.973E+03         58.6878
             710     4.78601E-03     45.3114E-03     546.697E-03    -189.524E-03    -196.047E-03    -188.027E-03     545.200E-03    -196.047E-03    -7.13066E-03     452.659E-03    -226.007E-03    -226.652E-03    -225.952E-03     452.604E-03    -226.652E-03     11.9506E-03    -47.9545E+06    -106.785E+06    -171.851E+06    -106.792E+06    -171.844E+06    -47.9545E+06    -13.1297E+03         58.5208
             711     3.98837E-03     45.3009E-03     552.871E-03    -194.084E-03    -197.651E-03    -191.954E-03     550.209E-03    -197.119E-03     14.3721E-03     452.848E-03    -226.233E-03    -226.614E-03    -226.209E-03     452.823E-03    -226.614E-03     7.95026E-03    -68.9407E+06    -116.199E+06    -198.146E+06    -116.200E+06    -198.145E+06    -68.9407E+06     186.951E+03         58.3721
             712     3.19081E-03     45.2960E-03     560.937E-03    -197.780E-03    -201.750E-03    -193.991E-03     553.485E-03    -198.087E-03    -41.3244E-03     452.851E-03    -226.315E-03    -226.536E-03    -226.306E-03     452.842E-03    -226.536E-03     4.54658E-03    -91.1322E+06    -125.421E+06    -218.177E+06    -125.422E+06    -218.176E+06    -91.1322E+06     122.860E+03         58.2451
             713     2.39331E-03     45.2942E-03     577.190E-03    -198.839E-03    -216.618E-03    -197.275E-03     557.847E-03    -198.839E-03     53.2845E-03     452.716E-03    -226.244E-03    -226.472E-03    -226.242E-03     452.714E-03    -226.472E-03     1.99684E-03    -112.166E+06    -133.230E+06    -238.960E+06    -133.230E+06    -238.960E+06    -112.166E+06    -43.4337E+03         58.1427
             714     1.59513E-03     45.2953E-03     610.232E-03    -199.890E-03    -249.001E-03    -196.748E-03     557.979E-03    -199.890E-03    -104.452E-03     452.684E-03    -226.213E-03    -226.471E-03    -226.212E-03     452.683E-03    -226.471E-03     431.595E-06    -130.124E+06    -138.917E+06    -258.069E+06    -138.919E+06    -258.068E+06    -130.124E+06    -314.065E+03         58.0673
             715     797.314E-06     45.2970E-03     862.466E-03    -188.475E-03    -512.664E-03     76.8480E-03     562.679E-03    -478.200E-03     373.932E-03     452.982E-03    -226.304E-03    -226.677E-03    -226.460E-03     452.982E-03    -226.521E-03    -55.7030E-06    -140.761E+06    -142.546E+06    -280.199E+06    -142.305E+06    -280.188E+06    -141.013E+06     21.9395E+03         58.0199
             716     13.5693E-03     44.4329E-03     445.949E-03    -119.258E-03    -164.380E-03    -119.230E-03     445.920E-03    -164.380E-03    -1.39688E-03     455.209E-03    -226.470E-03    -228.740E-03    -226.018E-03     452.488E-03    -226.470E-03     85.3614E-03     114.836E+06     79.2918E+06    -6.96521E+06    -6.96214E+06     79.2887E+06     114.836E+06    -437.702E+03         60.5622
             717     12.7703E-03     44.2937E-03     453.846E-03    -125.586E-03    -166.003E-03    -125.572E-03     453.832E-03    -166.003E-03     778.212E-06     454.759E-03    -226.501E-03    -228.258E-03    -225.685E-03     452.186E-03    -226.501E-03     82.5062E-03     112.827E+06     73.9274E+06    -14.3051E+06    -14.2973E+06     73.9196E+06     112.827E+06    -468.309E+03         60.4001
             718     11.9716E-03     44.1977E-03     461.452E-03    -131.581E-03    -167.561E-03    -131.506E-03     461.376E-03    -167.561E-03     6.74585E-03     453.308E-03    -226.524E-03    -226.785E-03    -225.126E-03     451.649E-03    -226.524E-03     67.0793E-03     105.256E+06     67.9285E+06    -22.1119E+06    -22.1036E+06     67.9202E+06     105.256E+06     77.9823E+03         60.2287
             719     11.1724E-03     44.1055E-03     468.649E-03    -137.243E-03    -169.090E-03    -137.169E-03     468.576E-03    -169.090E-03     7.34897E-03     452.905E-03    -226.333E-03    -226.572E-03    -225.000E-03     451.529E-03    -226.529E-03     60.8724E-03     90.2943E+06     60.5046E+06    -31.1452E+06    -31.1363E+06     60.4957E+06     90.2943E+06     296.150E+03         60.0481
             720     10.3734E-03     44.0277E-03     475.482E-03    -142.766E-03    -170.547E-03    -142.736E-03     475.452E-03    -170.547E-03     3.94142E-03     452.620E-03    -226.094E-03    -226.526E-03    -225.078E-03     451.604E-03    -226.526E-03     52.3613E-03     72.6360E+06     52.0473E+06    -40.6954E+06    -40.6834E+06     52.0353E+06     72.6360E+06     230.904E+03         59.8594
             721     9.57489E-03     43.9598E-03     482.112E-03    -148.227E-03    -171.933E-03    -148.134E-03     482.019E-03    -171.933E-03    -3.33456E-03     452.509E-03    -225.977E-03    -226.532E-03    -225.215E-03     451.747E-03    -226.532E-03     45.3389E-03     58.4868E+06     45.3311E+06    -49.6984E+06    -49.6881E+06     45.3208E+06     58.4868E+06     235.201E+03         59.6644
             722     8.77657E-03     43.9020E-03     488.394E-03    -153.371E-03    -173.230E-03    -153.259E-03     488.282E-03    -173.230E-03    -1.43403E-03     452.419E-03    -225.861E-03    -226.558E-03    -225.303E-03     451.861E-03    -226.558E-03     38.7700E-03     44.3263E+06     21.8371E+06    -58.7224E+06    -58.7138E+06     21.8285E+06     44.3263E+06     161.678E+03         59.4657
             723     7.97818E-03     43.8528E-03     494.155E-03    -157.897E-03    -174.445E-03    -157.775E-03     494.033E-03    -174.445E-03    -2.24936E-03     452.469E-03    -225.874E-03    -226.595E-03    -225.476E-03     452.071E-03    -226.595E-03     32.7067E-03     26.9439E+06    -23.6718E+06    -67.7097E+06    -67.6929E+06    -23.6886E+06     26.9439E+06     256.234E+03         59.2664
             724     7.18021E-03     43.8128E-03     499.791E-03    -162.273E-03    -175.589E-03    -161.923E-03     499.441E-03    -175.589E-03     9.07494E-03     452.536E-03    -225.915E-03    -226.621E-03    -225.643E-03     452.264E-03    -226.621E-03     27.0449E-03     8.69597E+06    -65.3373E+06    -80.4833E+06    -77.1371E+06    -68.6836E+06     8.69597E+06     239.934E+03         59.0700
             725     6.38215E-03     43.7804E-03     504.647E-03    -166.064E-03    -176.671E-03    -165.611E-03     504.195E-03    -176.671E-03     3.69979E-03     452.543E-03    -225.910E-03    -226.632E-03    -225.735E-03     452.367E-03    -226.632E-03     21.6700E-03    -9.41518E+06    -86.7384E+06    -106.225E+06    -86.7459E+06    -106.217E+06    -9.41518E+06     184.597E+03         58.8803
             726     5.58416E-03     43.7565E-03     509.823E-03    -170.385E-03    -177.673E-03    -169.313E-03     508.751E-03    -177.673E-03     19.4000E-03     452.581E-03    -225.949E-03    -226.632E-03    -225.846E-03     452.478E-03    -226.632E-03     16.5710E-03    -28.3724E+06    -96.4496E+06    -139.641E+06    -96.4558E+06    -139.634E+06    -28.3724E+06    -73.8345E+03         58.7011
             727     4.78636E-03     43.7393E-03     514.818E-03    -174.720E-03    -178.585E-03    -172.322E-03     512.420E-03    -178.585E-03    -10.4119E-03     452.640E-03    -226.016E-03    -226.624E-03    -225.962E-03     452.586E-03    -226.624E-03     11.9050E-03    -48.0271E+06    -106.441E+06    -172.371E+06    -106.449E+06    -172.362E+06    -48.0271E+06    -316.199E+03         58.5365
             728     3.98833E-03     43.7286E-03     520.956E-03    -177.936E-03    -181.483E-03    -175.472E-03     516.369E-03    -179.361E-03     19.9602E-03     452.733E-03    -226.140E-03    -226.593E-03    -226.116E-03     452.709E-03    -226.593E-03     7.88354E-03    -68.6004E+06    -115.890E+06    -198.562E+06    -115.894E+06    -198.559E+06    -68.6004E+06    -66.4169E+03         58.3899
             729     3.19077E-03     43.7232E-03     531.247E-03    -180.078E-03    -189.408E-03    -176.882E-03     518.720E-03    -180.078E-03    -49.9052E-03     452.814E-03    -226.289E-03    -226.525E-03    -226.280E-03     452.805E-03    -226.525E-03     4.60186E-03    -90.3679E+06    -124.623E+06    -217.975E+06    -124.623E+06    -217.975E+06    -90.3679E+06     98.8720E+03         58.2647
             730     2.39311E-03     43.7226E-03     554.793E-03    -180.648E-03    -211.805E-03    -179.495E-03     522.483E-03    -180.648E-03     69.2463E-03     452.777E-03    -226.305E-03    -226.472E-03    -226.333E-03     452.775E-03    -226.441E-03     2.09997E-03    -111.511E+06    -132.694E+06    -238.811E+06    -132.694E+06    -238.810E+06    -111.511E+06    -8.05186E+03         58.1639
             731     1.59561E-03     43.7238E-03     608.208E-03    -181.585E-03    -264.912E-03    -178.644E-03     521.940E-03    -181.585E-03    -135.772E-03     452.677E-03    -226.245E-03    -226.432E-03    -226.299E-03     452.677E-03    -226.377E-03     465.253E-06    -128.961E+06    -138.803E+06    -258.552E+06    -138.804E+06    -258.551E+06    -128.961E+06     131.245E+03         58.0895
             732     797.789E-06     43.7252E-03     958.265E-03    -247.853E-03    -548.880E-03     124.887E-03     526.146E-03    -489.501E-03     470.219E-03     452.690E-03    -226.207E-03    -226.483E-03    -226.388E-03     452.690E-03    -226.302E-03     133.064E-06    -139.443E+06    -142.513E+06    -279.471E+06    -142.270E+06    -279.462E+06    -139.695E+06     516.739E+03         58.0427
             733     13.5658E-03     42.8577E-03     430.833E-03    -117.472E-03    -151.062E-03    -117.445E-03     430.806E-03    -151.062E-03    -1.27343E-03     454.885E-03    -226.521E-03    -228.363E-03    -225.599E-03     452.120E-03    -226.521E-03     86.0629E-03     115.438E+06     80.1956E+06    -6.54026E+06    -6.53802E+06     80.1933E+06     115.438E+06    -276.676E+03         60.5554
             734     12.7688E-03     42.7219E-03     436.218E-03    -122.121E-03    -151.872E-03    -122.107E-03     436.204E-03    -151.872E-03     825.659E-06     454.862E-03    -226.571E-03    -228.291E-03    -225.667E-03     452.237E-03    -226.571E-03     83.4510E-03     112.936E+06     73.7082E+06    -14.3539E+06    -14.3476E+06     73.7019E+06     112.936E+06    -536.241E+03         60.3939
             735     11.9699E-03     42.6264E-03     441.376E-03    -126.390E-03    -152.649E-03    -126.312E-03     441.298E-03    -152.649E-03     6.80439E-03     453.717E-03    -226.589E-03    -227.128E-03    -225.423E-03     452.012E-03    -226.589E-03     68.0269E-03     104.254E+06     66.2707E+06    -23.2415E+06    -23.2342E+06     66.2634E+06     104.254E+06    -83.0592E+03         60.2237
             736     11.1714E-03     42.5340E-03     446.108E-03    -130.290E-03    -153.431E-03    -130.213E-03     446.031E-03    -153.431E-03     7.13516E-03     453.391E-03    -226.500E-03    -226.891E-03    -225.440E-03     452.015E-03    -226.575E-03     60.8982E-03     90.1570E+06     60.2652E+06    -31.8744E+06    -31.8655E+06     60.2564E+06     90.1570E+06     760.553E+03         60.0447
             737     10.3731E-03     42.4557E-03     450.572E-03    -134.138E-03    -154.180E-03    -134.102E-03     450.536E-03    -154.180E-03     4.16853E-03     452.914E-03    -226.311E-03    -226.604E-03    -225.362E-03     451.912E-03    -226.550E-03     52.0299E-03     73.3769E+06     52.4913E+06    -40.5902E+06    -40.5793E+06     52.4804E+06     73.3769E+06     797.013E+03         59.8579
             738     9.57479E-03     42.3876E-03     454.921E-03    -137.979E-03    -154.896E-03    -137.870E-03     454.812E-03    -154.896E-03    -3.36433E-03     452.603E-03    -226.064E-03    -226.539E-03    -225.313E-03     451.852E-03    -226.539E-03     44.9940E-03     58.9726E+06     45.8870E+06    -49.0425E+06    -49.0342E+06     45.8787E+06     58.9726E+06     308.835E+03         59.6652
             739     8.77653E-03     42.3295E-03     459.021E-03    -141.546E-03    -155.570E-03    -141.406E-03     458.882E-03    -155.570E-03    -877.273E-06     452.455E-03    -225.897E-03    -226.558E-03    -225.346E-03     451.903E-03    -226.558E-03     38.5613E-03     44.6011E+06     22.0385E+06    -57.9717E+06    -57.9670E+06     22.0338E+06     44.6011E+06    -53.2798E+03         59.4689
             740     7.97841E-03     42.2808E-03     462.766E-03    -144.584E-03    -156.211E-03    -144.415E-03     462.597E-03    -156.211E-03    -2.66278E-03     452.492E-03    -225.899E-03    -226.593E-03    -225.503E-03     452.096E-03    -226.593E-03     32.6571E-03     27.1141E+06    -23.9807E+06    -67.6563E+06    -67.6345E+06    -24.0025E+06     27.1141E+06    -54.6872E+03         59.2721
             741     7.18023E-03     42.2401E-03     466.640E-03    -147.662E-03    -156.833E-03    -147.181E-03     466.159E-03    -156.833E-03     10.0600E-03     452.543E-03    -225.928E-03    -226.615E-03    -225.656E-03     452.271E-03    -226.615E-03     26.9881E-03     8.79342E+06    -65.4139E+06    -80.5104E+06    -77.2424E+06    -68.6820E+06     8.79342E+06     75.9609E+03         59.0783
             742     6.38225E-03     42.2086E-03     469.900E-03    -150.331E-03    -157.444E-03    -149.657E-03     469.226E-03    -157.444E-03     2.30584E-03     452.555E-03    -225.932E-03    -226.624E-03    -225.757E-03     452.381E-03    -226.624E-03     21.6246E-03    -9.22885E+06    -86.8972E+06    -106.134E+06    -86.9009E+06    -106.131E+06    -9.22885E+06     97.2282E+03         58.8912
             743     5.58428E-03     42.1838E-03     473.881E-03    -153.914E-03    -158.020E-03    -152.287E-03     472.254E-03    -158.020E-03     21.5472E-03     452.596E-03    -225.978E-03    -226.618E-03    -225.874E-03     452.492E-03    -226.618E-03     16.6088E-03    -27.8422E+06    -96.3061E+06    -139.043E+06    -96.3067E+06    -139.043E+06    -27.8422E+06     114.828E+03         58.7146
             744     4.78646E-03     42.1673E-03     478.252E-03    -157.356E-03    -159.155E-03    -154.262E-03     474.559E-03    -158.556E-03    -13.6677E-03     452.667E-03    -226.068E-03    -226.599E-03    -226.013E-03     452.612E-03    -226.599E-03     12.0030E-03    -48.0965E+06    -106.313E+06    -172.064E+06    -106.316E+06    -172.061E+06    -48.0965E+06    -107.551E+03         58.5522
             745     3.98881E-03     42.1566E-03     484.732E-03    -158.666E-03    -164.223E-03    -156.466E-03     477.330E-03    -159.020E-03     25.7282E-03     452.633E-03    -226.067E-03    -226.566E-03    -226.043E-03     452.609E-03    -226.566E-03     7.94302E-03    -69.0366E+06    -116.134E+06    -199.191E+06    -116.139E+06    -199.186E+06    -69.0366E+06    -287.089E+03         58.4077
             746     3.19069E-03     42.1513E-03     498.460E-03    -159.485E-03    -176.966E-03    -157.180E-03     478.673E-03    -159.485E-03    -58.7410E-03     452.633E-03    -226.108E-03    -226.525E-03    -226.099E-03     452.625E-03    -226.525E-03     4.56600E-03    -90.6878E+06    -124.865E+06    -218.366E+06    -124.867E+06    -218.364E+06    -90.6878E+06    -107.259E+03         58.2844
             747     2.39298E-03     42.1502E-03     532.067E-03    -159.825E-03    -209.735E-03    -159.374E-03     481.707E-03    -159.825E-03     86.1166E-03     452.789E-03    -226.285E-03    -226.504E-03    -226.314E-03     452.787E-03    -226.474E-03     2.08871E-03    -111.633E+06    -132.555E+06    -238.716E+06    -132.555E+06    -238.716E+06    -111.633E+06     54.2435E+03         58.1849
             748     1.59544E-03     42.1518E-03     611.565E-03    -160.596E-03    -288.879E-03    -157.861E-03     480.547E-03    -160.596E-03    -168.787E-03     452.812E-03    -226.362E-03    -226.450E-03    -226.416E-03     452.812E-03    -226.395E-03     611.844E-06    -129.067E+06    -138.289E+06    -259.041E+06    -138.290E+06    -259.040E+06    -129.067E+06     205.717E+03         58.1116
             749     797.902E-06     42.1540E-03         1.06286    -314.450E-03    -586.879E-03     172.964E-03     484.192E-03    -495.629E-03     569.436E-03     452.679E-03    -226.281E-03    -226.398E-03    -226.306E-03     452.679E-03    -226.373E-03     472.891E-06    -139.153E+06    -142.082E+06    -278.309E+06    -141.507E+06    -278.307E+06    -139.730E+06    -38.7934E+03         58.0656
             750     13.5679E-03     41.2873E-03     413.769E-03    -115.514E-03    -136.211E-03    -115.487E-03     413.741E-03    -136.211E-03    -1.05052E-03     454.294E-03    -226.556E-03    -227.739E-03    -225.008E-03     451.564E-03    -226.556E-03     85.4670E-03     115.336E+06     80.0794E+06    -6.50935E+06    -6.50813E+06     80.0782E+06     115.336E+06    -121.479E+03         60.5492
             751     12.7668E-03     41.1501E-03     416.482E-03    -118.226E-03    -136.169E-03    -118.211E-03     416.467E-03    -136.169E-03     865.584E-06     454.744E-03    -226.626E-03    -228.118E-03    -225.557E-03     452.182E-03    -226.626E-03     82.3127E-03     112.054E+06     72.7025E+06    -14.7495E+06    -14.7451E+06     72.6981E+06     112.054E+06     349.675E+03         60.3884
             752     11.9689E-03     41.0529E-03     418.920E-03    -120.559E-03    -136.128E-03    -120.478E-03     418.838E-03    -136.128E-03     6.74940E-03     454.179E-03    -226.633E-03    -227.547E-03    -225.917E-03     452.550E-03    -226.633E-03     66.5432E-03     103.856E+06     65.6948E+06    -23.3199E+06    -23.3142E+06     65.6891E+06     103.856E+06     442.087E+03         60.2193
             753     11.1715E-03     40.9611E-03     421.054E-03    -122.608E-03    -136.137E-03    -122.527E-03     420.973E-03    -136.137E-03     6.93312E-03     453.722E-03    -226.590E-03    -227.133E-03    -225.803E-03     452.393E-03    -226.590E-03     59.9325E-03     90.1390E+06     59.8248E+06    -31.6705E+06    -31.6664E+06     59.8208E+06     90.1390E+06     288.244E+03         60.0419
             754     10.3735E-03     40.8833E-03     422.989E-03    -124.601E-03    -136.151E-03    -124.558E-03     422.946E-03    -136.151E-03     4.34435E-03     453.037E-03    -226.391E-03    -226.646E-03    -225.501E-03     452.046E-03    -226.545E-03     51.7417E-03     74.0340E+06     53.2575E+06    -39.7508E+06    -39.7478E+06     53.2545E+06     74.0340E+06     154.126E+03         59.8570
             755     9.57523E-03     40.8154E-03     424.879E-03    -126.654E-03    -136.178E-03    -126.525E-03     424.750E-03    -136.178E-03    -3.46447E-03     452.566E-03    -226.036E-03    -226.530E-03    -225.285E-03     451.815E-03    -226.530E-03     45.0039E-03     59.5884E+06     46.3029E+06    -48.8121E+06    -48.8084E+06     46.2993E+06     59.5884E+06     57.3837E+03         59.6664
             756     8.77671E-03     40.7575E-03     426.683E-03    -128.547E-03    -136.207E-03    -128.372E-03     426.508E-03    -136.207E-03    -316.901E-06     452.409E-03    -225.858E-03    -226.551E-03    -225.303E-03     451.854E-03    -226.551E-03     38.6673E-03     44.9805E+06     22.2189E+06    -58.1965E+06    -58.1930E+06     22.2155E+06     44.9805E+06     103.156E+03         59.4724
             757     7.97839E-03     40.7083E-03     428.311E-03    -130.029E-03    -136.250E-03    -129.797E-03     428.080E-03    -136.250E-03    -3.08622E-03     452.456E-03    -225.869E-03    -226.587E-03    -225.470E-03     452.057E-03    -226.587E-03     32.7438E-03     27.1188E+06    -23.9890E+06    -67.7568E+06    -67.7366E+06    -24.0092E+06     27.1188E+06     88.8572E+03         59.2782
             758     7.18030E-03     40.6682E-03     430.280E-03    -131.743E-03    -136.324E-03    -131.091E-03     429.628E-03    -136.324E-03     10.9930E-03     452.508E-03    -225.896E-03    -226.612E-03    -225.623E-03     452.234E-03    -226.612E-03     27.0964E-03     8.64697E+06    -65.7920E+06    -80.3672E+06    -77.3700E+06    -68.7892E+06     8.64697E+06     60.3254E+03         59.0869
             759     6.38228E-03     40.6359E-03     431.822E-03    -133.145E-03    -136.442E-03    -132.165E-03     430.842E-03    -136.442E-03     793.845E-06     452.556E-03    -225.935E-03    -226.622E-03    -225.758E-03     452.380E-03    -226.622E-03     21.7330E-03    -9.25391E+06    -86.7204E+06    -105.872E+06    -86.7249E+06    -105.868E+06    -9.25391E+06     9.84512E+03         58.9023
             760     5.58437E-03     40.6121E-03     434.604E-03    -135.018E-03    -137.470E-03    -133.507E-03     432.210E-03    -136.588E-03     23.5733E-03     452.572E-03    -225.952E-03    -226.620E-03    -225.846E-03     452.466E-03    -226.620E-03     16.7568E-03    -27.8276E+06    -96.4074E+06    -139.243E+06    -96.4084E+06    -139.242E+06    -27.8276E+06    -15.9870E+03         58.7281
             761     4.78636E-03     40.5947E-03     438.592E-03    -136.740E-03    -139.975E-03    -134.465E-03     433.094E-03    -136.752E-03    -17.0941E-03     452.629E-03    -226.022E-03    -226.608E-03    -225.965E-03     452.573E-03    -226.608E-03     12.1815E-03    -47.6489E+06    -105.909E+06    -171.651E+06    -105.909E+06    -171.650E+06    -47.6489E+06     20.0221E+03         58.5681
             762     3.98853E-03     40.5846E-03     446.057E-03    -136.891E-03    -147.210E-03    -135.826E-03     434.674E-03    -136.891E-03     31.4912E-03     452.660E-03    -226.081E-03    -226.579E-03    -226.055E-03     452.634E-03    -226.579E-03     8.06999E-03    -68.8283E+06    -115.714E+06    -199.112E+06    -115.716E+06    -199.110E+06    -68.8283E+06    -162.693E+03         58.4256
             763     3.19087E-03     40.5797E-03     464.848E-03    -137.098E-03    -165.443E-03    -135.643E-03     435.047E-03    -137.098E-03    -67.8252E-03     452.625E-03    -226.080E-03    -226.545E-03    -226.071E-03     452.616E-03    -226.545E-03     4.76021E-03    -90.8475E+06    -125.228E+06    -218.931E+06    -125.230E+06    -218.929E+06    -90.8475E+06    -146.898E+03         58.3040
             764     2.39292E-03     40.5782E-03     511.244E-03    -137.233E-03    -211.393E-03    -137.355E-03     437.206E-03    -137.233E-03     102.846E-03     452.713E-03    -226.184E-03    -226.529E-03    -226.181E-03     452.710E-03    -226.529E-03     2.23226E-03    -111.916E+06    -132.826E+06    -239.105E+06    -132.826E+06    -239.105E+06    -111.916E+06     15.4616E+03         58.2060
             765     1.59514E-03     40.5798E-03     620.669E-03    -137.840E-03    -320.585E-03    -135.382E-03     435.466E-03    -137.840E-03    -202.180E-03     452.905E-03    -226.385E-03    -226.520E-03    -226.385E-03     452.905E-03    -226.520E-03     569.395E-06    -129.309E+06    -138.494E+06    -258.805E+06    -138.494E+06    -258.805E+06    -129.309E+06    -33.3350E+03         58.1337
             766     797.409E-06     40.5822E-03         1.17389    -384.878E-03    -626.520E-03     220.683E-03     439.377E-03    -497.566E-03     671.407E-03     453.007E-03    -226.412E-03    -226.595E-03    -226.525E-03     453.007E-03    -226.482E-03     174.732E-06    -139.427E+06    -142.435E+06    -278.030E+06    -141.864E+06    -278.025E+06    -140.004E+06     386.408E+03         58.0883
             767     13.5655E-03     39.7185E-03     395.531E-03    -113.202E-03    -120.459E-03    -113.247E-03     395.505E-03    -120.388E-03    -1.06701E-03     455.040E-03    -226.543E-03    -228.497E-03    -225.786E-03     452.329E-03    -226.543E-03     85.3307E-03     114.705E+06     79.4265E+06    -7.03603E+06    -7.01703E+06     79.4075E+06     114.705E+06     113.984E+03         60.5440
             768     12.7684E-03     39.5769E-03     395.380E-03    -113.602E-03    -119.867E-03    -113.954E-03     395.365E-03    -119.501E-03     707.622E-06     454.898E-03    -226.537E-03    -228.360E-03    -225.820E-03     452.400E-03    -226.580E-03     81.2555E-03     112.209E+06     72.6706E+06    -15.0375E+06    -15.0279E+06     72.6610E+06     112.209E+06     116.028E+03         60.3839
             769     11.9705E-03     39.4798E-03     395.062E-03    -113.629E-03    -119.374E-03    -114.269E-03     394.977E-03    -118.648E-03     6.66817E-03     453.603E-03    -226.542E-03    -227.061E-03    -225.423E-03     452.014E-03    -226.590E-03     65.6905E-03     104.763E+06     66.6056E+06    -22.8071E+06    -22.7993E+06     66.5978E+06     104.763E+06     358.007E+03         60.2158
             770     11.1718E-03     39.3884E-03     394.536E-03    -113.612E-03    -118.745E-03    -114.387E-03     394.450E-03    -117.884E-03     6.67132E-03     453.324E-03    -226.510E-03    -226.814E-03    -225.423E-03     451.997E-03    -226.575E-03     59.8422E-03     91.1384E+06     60.4209E+06    -31.0988E+06    -31.0950E+06     60.4170E+06     91.1384E+06    -183.839E+03         60.0398
             771     10.3734E-03     39.3108E-03     393.857E-03    -113.586E-03    -118.125E-03    -114.495E-03     393.807E-03    -117.166E-03     4.38455E-03     452.915E-03    -226.321E-03    -226.595E-03    -225.369E-03     451.917E-03    -226.548E-03     51.9462E-03     74.3447E+06     52.8283E+06    -39.9762E+06    -39.9744E+06     52.8265E+06     74.3447E+06    -216.805E+03         59.8567
             772     9.57494E-03     39.2436E-03     393.289E-03    -113.647E-03    -117.612E-03    -114.605E-03     393.137E-03    -116.502E-03    -3.69018E-03     452.614E-03    -226.079E-03    -226.534E-03    -225.319E-03     451.853E-03    -226.534E-03     45.2898E-03     59.4758E+06     46.0000E+06    -49.1206E+06    -49.1146E+06     45.9940E+06     59.4758E+06     44.7325E+03         59.6681
             773     8.77667E-03     39.1852E-03     392.775E-03    -113.695E-03    -117.126E-03    -114.721E-03     392.557E-03    -115.882E-03     124.051E-06     452.452E-03    -225.900E-03    -226.552E-03    -225.339E-03     451.892E-03    -226.552E-03     38.8443E-03     44.8849E+06     22.0507E+06    -58.3779E+06    -58.3713E+06     22.0441E+06     44.8849E+06     292.079E+03         59.4765
             774     7.97842E-03     39.1363E-03     392.220E-03    -113.616E-03    -116.578E-03    -114.563E-03     391.906E-03    -115.318E-03    -3.70749E-03     452.416E-03    -225.827E-03    -226.589E-03    -225.427E-03     452.016E-03    -226.589E-03     32.8043E-03     27.1928E+06    -23.6317E+06    -67.5947E+06    -67.5792E+06    -23.6472E+06     27.1928E+06     295.286E+03         59.2846
             775     7.18021E-03     39.0958E-03     392.207E-03    -113.738E-03    -116.246E-03    -114.282E-03     391.337E-03    -114.832E-03     11.6352E-03     452.449E-03    -225.827E-03    -226.622E-03    -225.551E-03     452.173E-03    -226.622E-03     27.2265E-03     9.02386E+06    -64.7665E+06    -80.1988E+06    -76.6515E+06    -68.3138E+06     9.02386E+06    -39.4423E+03         59.0958
             776     6.38212E-03     39.0639E-03     392.020E-03    -113.787E-03    -115.930E-03    -113.882E-03     390.630E-03    -114.444E-03    -909.028E-06     452.524E-03    -225.883E-03    -226.641E-03    -225.704E-03     452.345E-03    -226.641E-03     21.9161E-03    -9.29826E+06    -86.2749E+06    -106.078E+06    -86.2844E+06    -106.068E+06    -9.29826E+06    -227.822E+03         58.9137
             777     5.58412E-03     39.0397E-03     393.693E-03    -113.812E-03    -117.645E-03    -113.899E-03     390.280E-03    -114.146E-03     25.2595E-03     452.601E-03    -225.956E-03    -226.646E-03    -225.848E-03     452.494E-03    -226.646E-03     16.8942E-03    -27.8646E+06    -95.9844E+06    -139.215E+06    -95.9870E+06    -139.213E+06    -27.8646E+06    -219.759E+03         58.7419
             778     4.78628E-03     39.0229E-03     397.609E-03    -113.934E-03    -121.611E-03    -113.665E-03     389.663E-03    -113.934E-03    -20.7752E-03     452.647E-03    -226.003E-03    -226.644E-03    -225.946E-03     452.590E-03    -226.644E-03     12.2419E-03    -47.1112E+06    -105.708E+06    -172.128E+06    -105.711E+06    -172.125E+06    -47.1112E+06    -31.8964E+03         58.5840
             779     3.98835E-03     39.0123E-03     406.739E-03    -113.756E-03    -130.945E-03    -114.145E-03     389.940E-03    -113.756E-03     36.9132E-03     452.711E-03    -226.088E-03    -226.623E-03    -226.063E-03     452.686E-03    -226.623E-03     8.02829E-03    -68.2107E+06    -115.296E+06    -198.947E+06    -115.298E+06    -198.945E+06    -68.2107E+06     200.948E+03         58.4436
             780     3.19048E-03     39.0078E-03     432.202E-03    -113.685E-03    -156.151E-03    -113.275E-03     389.326E-03    -113.685E-03    -76.8152E-03     452.736E-03    -226.147E-03    -226.589E-03    -226.139E-03     452.727E-03    -226.589E-03     4.66868E-03    -90.1029E+06    -124.253E+06    -218.754E+06    -124.255E+06    -218.752E+06    -90.1029E+06    -39.4099E+03         58.3237
             781     2.39274E-03     39.0064E-03     493.765E-03    -113.641E-03    -217.168E-03    -114.061E-03     390.657E-03    -113.641E-03     118.743E-03     452.778E-03    -226.200E-03    -226.579E-03    -226.197E-03     452.776E-03    -226.579E-03     2.20661E-03    -110.782E+06    -132.343E+06    -239.518E+06    -132.344E+06    -239.516E+06    -110.782E+06    -91.1132E+03         58.2270
             782     1.59495E-03     39.0077E-03     634.531E-03    -114.135E-03    -358.048E-03    -111.917E-03     388.400E-03    -114.135E-03    -234.656E-03     452.976E-03    -226.388E-03    -226.587E-03    -226.388E-03     452.975E-03    -226.587E-03     499.987E-06    -128.483E+06    -138.635E+06    -258.504E+06    -138.635E+06    -258.504E+06    -128.483E+06     41.2136E+03         58.1558
             783     797.654E-06     39.0094E-03         1.28398    -455.644E-03    -666.133E-03     266.272E-03     391.558E-03    -495.623E-03     770.790E-03     453.160E-03    -226.502E-03    -226.658E-03    -226.615E-03     453.160E-03    -226.545E-03     60.3994E-06    -139.525E+06    -142.382E+06    -277.696E+06    -142.343E+06    -277.687E+06    -139.572E+06     83.8506E+03         58.1110
             784     13.5683E-03     38.1418E-03     376.830E-03    -103.991E-03    -111.107E-03    -110.869E-03     376.803E-03    -104.202E-03    -1.16565E-03     455.602E-03    -226.489E-03    -229.113E-03    -226.485E-03     452.974E-03    -226.489E-03     84.0389E-03     115.511E+06     79.6309E+06    -6.94024E+06    -6.91320E+06     79.6039E+06     115.511E+06     290.461E+03         60.5397
             785     12.7708E-03     38.0059E-03     373.869E-03    -102.519E-03    -109.609E-03    -109.594E-03     373.854E-03    -102.519E-03     652.414E-06     454.357E-03    -226.432E-03    -227.925E-03    -225.332E-03     451.847E-03    -226.515E-03     81.6456E-03     113.447E+06     73.4671E+06    -13.9271E+06    -13.9158E+06     73.4557E+06     113.447E+06     53.7541E+03         60.3804
             786     11.9707E-03     37.9090E-03     370.892E-03    -100.893E-03    -108.080E-03    -107.993E-03     370.804E-03    -100.893E-03     6.48369E-03     453.020E-03    -226.462E-03    -226.558E-03    -224.795E-03     451.353E-03    -226.558E-03     67.2029E-03     105.111E+06     66.8557E+06    -22.5518E+06    -22.5488E+06     66.8528E+06     105.111E+06    -58.0372E+03         60.2133
             787     11.1717E-03     37.8164E-03     367.671E-03    -99.3802E-03    -106.223E-03    -106.134E-03     367.582E-03    -99.3802E-03     6.24620E-03     453.023E-03    -226.446E-03    -226.577E-03    -225.086E-03     451.663E-03    -226.577E-03     60.5261E-03     91.1738E+06     60.4522E+06    -31.3854E+06    -31.3827E+06     60.4495E+06     91.1738E+06    -102.976E+03         60.0386
             788     10.3731E-03     37.7389E-03     364.444E-03    -97.9495E-03    -104.405E-03    -104.347E-03     364.385E-03    -97.9495E-03     4.30890E-03     452.865E-03    -226.299E-03    -226.566E-03    -225.293E-03     451.859E-03    -226.566E-03     52.1282E-03     73.9396E+06     52.2368E+06    -40.3102E+06    -40.3056E+06     52.2322E+06     73.9396E+06     120.653E+03         59.8571
             789     9.57482E-03     37.6710E-03     361.475E-03    -96.6112E-03    -102.830E-03    -102.650E-03     361.294E-03    -96.6112E-03    -4.00700E-03     452.693E-03    -226.138E-03    -226.555E-03    -225.375E-03     451.930E-03    -226.555E-03     45.3768E-03     59.2637E+06     45.8329E+06    -48.9361E+06    -48.9274E+06     45.8242E+06     59.2637E+06     282.790E+03         59.6706
             790     8.77659E-03     37.6130E-03     358.643E-03    -95.3565E-03    -101.290E-03    -101.021E-03     358.373E-03    -95.3565E-03     368.370E-06     452.516E-03    -225.945E-03    -226.572E-03    -225.380E-03     451.952E-03    -226.572E-03     38.9892E-03     45.0730E+06     22.1125E+06    -57.8075E+06    -57.7988E+06     22.1038E+06     45.0730E+06     114.565E+03         59.4811
             791     7.97832E-03     37.5641E-03     355.908E-03    -94.2002E-03    -99.6447E-03    -99.2277E-03     355.491E-03    -94.2002E-03    -4.47965E-03     452.446E-03    -225.837E-03    -226.610E-03    -225.432E-03     452.042E-03    -226.610E-03     32.9889E-03     27.7055E+06    -23.1164E+06    -66.8947E+06    -66.8869E+06    -23.1242E+06     27.7055E+06    -194.556E+03         59.2916
             792     7.18006E-03     37.5238E-03     353.981E-03    -93.1649E-03    -98.5451E-03    -97.4006E-03     352.837E-03    -93.1649E-03     12.0586E-03     452.451E-03    -225.806E-03    -226.646E-03    -225.527E-03     452.173E-03    -226.646E-03     27.3479E-03     9.12131E+06    -64.5722E+06    -80.3932E+06    -76.6856E+06    -68.2798E+06     9.12131E+06    -246.949E+03         59.1052
             793     6.38187E-03     37.4917E-03     352.152E-03    -92.2754E-03    -97.4862E-03    -95.5626E-03     350.228E-03    -92.2754E-03    -2.62792E-03     452.532E-03    -225.861E-03    -226.671E-03    -225.681E-03     452.352E-03    -226.671E-03     21.9586E-03    -9.23492E+06    -86.3884E+06    -106.322E+06    -86.3982E+06    -106.312E+06    -9.23492E+06    -124.550E+03         58.9255
             794     5.58390E-03     37.4674E-03     352.857E-03    -91.5269E-03    -99.0000E-03    -94.2602E-03     348.117E-03    -91.5269E-03     26.7154E-03     452.626E-03    -225.946E-03    -226.680E-03    -225.839E-03     452.519E-03    -226.680E-03     16.8477E-03     -28.065E+06    -96.0731E+06    -139.178E+06    -96.0763E+06    -139.175E+06     -28.065E+06    -79.9320E+03         58.7559
             795     4.78599E-03     37.4506E-03     357.111E-03    -90.9261E-03    -103.946E-03    -92.7995E-03     345.965E-03    -90.9261E-03    -24.3258E-03     452.707E-03    -226.024E-03    -226.683E-03    -225.967E-03     452.650E-03    -226.683E-03     12.2106E-03    -47.5233E+06    -105.946E+06    -172.546E+06    -105.954E+06    -172.539E+06    -47.5233E+06    -113.982E+03         58.6002
             796     3.98823E-03     37.4403E-03     368.685E-03    -90.4358E-03    -116.008E-03    -92.1844E-03     344.862E-03    -90.4358E-03     41.8398E-03     452.791E-03    -226.124E-03    -226.666E-03    -226.099E-03     452.765E-03    -226.666E-03     8.09248E-03    -67.9604E+06    -115.416E+06    -199.112E+06    -115.421E+06    -199.106E+06    -67.9604E+06    -89.3760E+03         58.4617
             797     3.19057E-03     37.4353E-03     402.158E-03    -90.1055E-03    -149.607E-03    -90.6940E-03     343.245E-03    -90.1055E-03    -85.1182E-03     452.866E-03    -226.240E-03    -226.626E-03    -226.231E-03     452.857E-03    -226.626E-03     4.59174E-03    -89.6146E+06    -124.280E+06    -218.447E+06    -124.285E+06    -218.441E+06    -89.6146E+06     130.633E+03         58.3434
             798     2.39280E-03     37.4347E-03     480.094E-03    -89.8498E-03    -227.166E-03    -90.7948E-03     343.723E-03    -89.8498E-03     133.651E-03     452.901E-03    -226.311E-03    -226.590E-03    -226.309E-03     452.899E-03    -226.590E-03     2.14054E-03    -110.710E+06    -132.266E+06    -239.347E+06    -132.272E+06    -239.341E+06    -110.710E+06     75.9509E+03         58.2481
             799     1.59521E-03     37.4350E-03     651.466E-03    -90.1438E-03    -398.729E-03    -88.3735E-03     341.111E-03    -90.1438E-03    -265.045E-03     452.949E-03    -226.360E-03    -226.589E-03    -226.359E-03     452.949E-03    -226.589E-03     572.795E-06    -128.648E+06    -138.256E+06    -258.757E+06    -138.257E+06    -258.756E+06    -128.648E+06         568.146         58.1778
             800     797.334E-06     37.4376E-03         1.38626    -486.980E-03    -737.218E-03     307.158E-03     343.274E-03    -488.366E-03     861.672E-03     453.186E-03    -226.501E-03    -226.685E-03    -226.575E-03     453.186E-03    -226.612E-03     267.828E-06    -139.433E+06    -141.515E+06    -277.591E+06    -141.471E+06    -277.580E+06    -139.488E+06    -806.910E+03         58.1337
             801     13.5696E-03     36.5708E-03     358.467E-03    -88.3042E-03    -108.790E-03    -108.763E-03     358.440E-03    -88.3042E-03    -1.13677E-03     454.737E-03    -226.298E-03    -228.439E-03    -225.450E-03     451.945E-03    -226.496E-03     86.3782E-03     115.137E+06     78.9987E+06     -6.8128E+06    -6.80127E+06     78.9872E+06     115.137E+06    -218.658E+03         60.5365
             802     12.7685E-03     36.4361E-03     353.017E-03    -85.8795E-03    -105.513E-03    -105.497E-03     353.001E-03    -85.8795E-03     504.496E-06     454.527E-03    -226.523E-03    -228.004E-03    -225.299E-03     451.862E-03    -226.563E-03     84.0203E-03     113.191E+06     72.9296E+06    -13.7267E+06    -13.7174E+06     72.9204E+06     113.191E+06     388.421E+03         60.3777
             803     11.9701E-03     36.3376E-03     347.375E-03    -83.5330E-03    -101.969E-03    -101.880E-03     347.286E-03    -83.5330E-03     6.14523E-03     453.565E-03    -226.555E-03    -227.010E-03    -225.248E-03     451.850E-03    -226.602E-03     68.2180E-03     105.547E+06     67.1794E+06    -21.8987E+06    -21.8945E+06     67.1751E+06     105.547E+06     452.449E+03         60.2117
             804     11.1713E-03     36.2450E-03     341.618E-03    -81.3259E-03    -98.2291E-03    -98.1371E-03     341.525E-03    -81.3259E-03     5.72498E-03     453.206E-03    -226.502E-03    -226.704E-03    -225.225E-03     451.827E-03    -226.602E-03     60.9497E-03     90.8473E+06     60.3303E+06    -30.8607E+06    -30.8577E+06     60.3272E+06     90.8473E+06     488.624E+03         60.0384
             805     10.3729E-03     36.1664E-03     335.952E-03    -79.2310E-03    -94.5911E-03    -94.5240E-03     335.885E-03    -79.2310E-03     4.16020E-03     452.897E-03    -226.308E-03    -226.589E-03    -225.294E-03     451.883E-03    -226.589E-03     52.3501E-03     73.6467E+06     52.4665E+06    -39.7938E+06    -39.7842E+06     52.4569E+06     73.6467E+06     150.524E+03         59.8586
             806     9.57453E-03     36.0987E-03     330.659E-03    -77.2624E-03    -91.2927E-03    -91.0798E-03     330.446E-03    -77.2624E-03    -4.34941E-03     452.665E-03    -226.079E-03    -226.586E-03    -225.309E-03     451.895E-03    -226.586E-03     45.5729E-03     59.4858E+06     46.1440E+06    -48.6511E+06    -48.6413E+06     46.1341E+06     59.4858E+06    -320.340E+03         59.6740
             807     8.77613E-03     36.0407E-03     325.590E-03    -75.4159E-03    -88.0626E-03    -87.7347E-03     325.262E-03    -75.4159E-03     499.730E-06     452.527E-03    -225.916E-03    -226.611E-03    -225.346E-03     451.957E-03    -226.611E-03     39.1949E-03     45.1989E+06     22.0415E+06    -57.7745E+06    -57.7700E+06     22.0370E+06     45.1989E+06    -381.958E+03         59.4866
             808     7.97791E-03     35.9918E-03     320.798E-03    -73.7104E-03    -84.8503E-03    -84.3105E-03     320.258E-03    -73.7104E-03    -5.22130E-03     452.538E-03    -225.886E-03    -226.652E-03    -225.477E-03     452.129E-03    -226.652E-03     33.1768E-03     27.5828E+06    -23.4113E+06    -67.2170E+06    -67.2079E+06    -23.4204E+06     27.5828E+06     46.2132E+03         59.2993
             809     7.17980E-03     35.9517E-03     317.117E-03    -72.1672E-03    -82.5055E-03    -81.0261E-03     315.638E-03    -72.1672E-03     12.4466E-03     452.588E-03    -225.904E-03    -226.683E-03    -225.622E-03     452.306E-03    -226.683E-03     27.5243E-03     9.16758E+06    -64.4353E+06    -80.0198E+06    -76.5514E+06    -67.9037E+06     9.16758E+06     123.976E+03         59.1152
             810     6.38180E-03     35.9194E-03     313.802E-03    -70.8085E-03    -80.4490E-03    -77.8529E-03     311.206E-03    -70.8085E-03    -4.18091E-03     452.630E-03    -225.925E-03    -226.704E-03    -225.743E-03     452.447E-03    -226.704E-03     22.0954E-03    -9.29819E+06    -86.4833E+06    -106.486E+06    -86.4889E+06    -106.480E+06    -9.29819E+06    -94.6551E+03         58.9377
             811     5.58380E-03     35.8951E-03     313.804E-03    -69.6378E-03    -81.6675E-03    -75.2441E-03     307.381E-03    -69.6378E-03     28.0170E-03     452.667E-03    -225.952E-03    -226.715E-03    -225.844E-03     452.559E-03    -226.715E-03     16.8864E-03    -28.0145E+06    -96.3256E+06    -139.698E+06    -96.3272E+06    -139.697E+06    -28.0145E+06     123.701E+03         58.7704
             812     4.78586E-03     35.8784E-03     318.947E-03    -68.6646E-03    -87.8444E-03    -72.7029E-03     303.805E-03    -68.6646E-03    -27.3205E-03     452.755E-03    -226.035E-03    -226.720E-03    -225.979E-03     452.698E-03    -226.720E-03     12.1913E-03    -47.4894E+06    -105.888E+06    -171.896E+06    -105.894E+06    -171.890E+06    -47.4894E+06     109.813E+03         58.6167
             813     3.98800E-03     35.8679E-03     333.880E-03    -67.8606E-03    -103.475E-03    -71.0252E-03     301.430E-03    -67.8606E-03     46.3888E-03     452.860E-03    -226.154E-03    -226.706E-03    -226.128E-03     452.835E-03    -226.706E-03     8.10081E-03    -68.3551E+06    -115.871E+06    -199.486E+06    -115.877E+06    -199.481E+06    -68.3551E+06    -205.469E+03         58.4800
             814     3.19021E-03     35.8630E-03     376.280E-03    -67.2840E-03    -146.150E-03    -68.7403E-03     298.870E-03    -67.2840E-03    -92.3829E-03     452.946E-03    -226.280E-03    -226.666E-03    -226.271E-03     452.937E-03    -226.666E-03     4.67169E-03    -90.3419E+06    -125.084E+06    -218.898E+06    -125.094E+06    -218.888E+06    -90.3419E+06    -188.494E+03         58.3633
             815     2.39280E-03     35.8620E-03     470.295E-03    -66.8300E-03    -240.310E-03    -68.3264E-03     298.311E-03    -66.8300E-03     147.142E-03     452.986E-03    -226.360E-03    -226.626E-03    -226.358E-03     452.984E-03    -226.626E-03     2.25165E-03    -111.422E+06    -132.522E+06    -238.936E+06    -132.533E+06    -238.925E+06    -111.422E+06    -34.8246E+03         58.2693
             816     1.59503E-03     35.8634E-03     669.125E-03    -66.8183E-03    -439.535E-03    -65.9049E-03     295.495E-03    -66.8183E-03    -291.692E-03     453.045E-03    -226.420E-03    -226.625E-03    -226.428E-03     453.045E-03    -226.616E-03     764.611E-06    -128.775E+06    -138.115E+06    -258.808E+06    -138.119E+06    -258.804E+06    -128.775E+06    -164.054E+03         58.1999
             817     797.469E-06     35.8648E-03         1.47671    -476.580E-03    -836.732E-03     342.732E-03     297.245E-03    -476.580E-03     941.566E-03     453.222E-03    -226.415E-03    -226.807E-03    -226.731E-03     453.222E-03    -226.490E-03     357.340E-06    -139.307E+06    -141.700E+06    -277.625E+06    -141.439E+06    -277.611E+06    -139.582E+06    -327.316E+03         58.1564
             818     13.5636E-03     35.0013E-03     341.577E-03    -73.3074E-03    -106.846E-03    -106.822E-03     341.553E-03    -73.3074E-03    -1.07286E-03     454.261E-03    -226.367E-03    -227.894E-03    -224.943E-03     451.508E-03    -226.566E-03     85.8309E-03     114.876E+06     79.2226E+06    -6.65423E+06    -6.64626E+06     79.2147E+06     114.876E+06     146.316E+03         60.5347
             819     12.7669E-03     34.8614E-03     333.608E-03    -70.2152E-03    -101.703E-03    -101.688E-03     333.592E-03    -70.2152E-03     186.529E-06     454.878E-03    -226.636E-03    -228.242E-03    -225.661E-03     452.297E-03    -226.636E-03     82.6920E-03     112.002E+06     72.5378E+06    -15.0334E+06    -15.0188E+06     72.5232E+06     112.002E+06    -241.456E+03         60.3766
             820     11.9693E-03     34.7657E-03     325.556E-03    -67.2299E-03    -96.3373E-03    -96.2477E-03     325.466E-03    -67.2299E-03     5.76535E-03     453.890E-03    -226.654E-03    -227.236E-03    -225.552E-03     452.207E-03    -226.654E-03     67.6288E-03     104.512E+06     66.5856E+06    -23.0350E+06    -23.0184E+06     66.5690E+06     104.512E+06    -345.250E+03         60.2116
             821     11.1711E-03     34.6725E-03     317.463E-03    -64.4102E-03    -90.8234E-03    -90.7289E-03     317.368E-03    -64.4102E-03     5.15438E-03     453.432E-03    -226.560E-03    -226.872E-03    -225.401E-03     452.045E-03    -226.644E-03     61.1840E-03     90.9672E+06     60.1923E+06    -31.3579E+06    -31.3517E+06     60.1861E+06     90.9672E+06    -84.0565E+03         60.0396
             822     10.3726E-03     34.5945E-03     309.503E-03    -61.7299E-03    -85.4568E-03    -85.3813E-03     309.427E-03    -61.7299E-03     3.89570E-03     452.934E-03    -226.304E-03    -226.630E-03    -225.275E-03     451.906E-03    -226.630E-03     52.6967E-03     74.7222E+06     53.0549E+06    -39.4173E+06    -39.4067E+06     53.0443E+06     74.7222E+06    -51.3844E+03         59.8615
             823     9.57406E-03     34.5263E-03     302.023E-03    -59.2071E-03    -80.5040E-03    -80.2572E-03     301.776E-03    -59.2071E-03    -4.71357E-03     452.624E-03    -225.991E-03    -226.633E-03    -225.213E-03     451.846E-03    -226.633E-03     45.8065E-03     59.8594E+06     46.4389E+06    -48.3526E+06    -48.3433E+06     46.4296E+06     59.8594E+06    -88.1186E+03         59.6786
             824     8.77573E-03     34.4683E-03     294.921E-03    -56.8418E-03    -75.6956E-03    -75.3035E-03     294.529E-03    -56.8418E-03     578.327E-06     452.523E-03    -225.856E-03    -226.667E-03    -225.278E-03     451.945E-03    -226.667E-03     39.4704E-03     44.7226E+06     21.8499E+06    -58.0383E+06    -58.0356E+06     21.8472E+06     44.7226E+06    -83.8256E+03         59.4932
             825     7.97745E-03     34.4194E-03     288.308E-03    -54.6539E-03    -71.0807E-03    -70.4001E-03     287.627E-03    -54.6539E-03    -5.87811E-03     452.642E-03    -225.926E-03    -226.716E-03    -225.509E-03     452.225E-03    -226.716E-03     33.5071E-03     27.1841E+06    -23.9397E+06    -67.4131E+06    -67.3861E+06    -23.9667E+06     27.1841E+06    -201.075E+03         59.3080
             826     7.17936E-03     34.3791E-03     283.047E-03    -52.6667E-03    -67.5957E-03    -65.7323E-03     281.184E-03    -52.6667E-03     12.6685E-03     452.749E-03    -226.001E-03    -226.749E-03    -225.712E-03     452.460E-03    -226.749E-03     27.8652E-03     8.95671E+06    -65.1110E+06    -79.8453E+06    -76.9311E+06    -68.0252E+06     8.95671E+06     51.4968E+03         59.1260
             827     6.38141E-03     34.3469E-03     278.505E-03    -50.9012E-03    -64.7543E-03    -61.3514E-03     275.102E-03    -50.9012E-03    -5.65750E-03     452.794E-03    -226.028E-03    -226.765E-03    -225.840E-03     452.606E-03    -226.765E-03     22.4267E-03    -9.39251E+06    -86.4159E+06    -106.325E+06    -86.4848E+06    -106.256E+06    -9.39251E+06     176.321E+03         58.9506
             828     5.58349E-03     34.3228E-03     278.231E-03    -49.3601E-03    -66.0638E-03    -57.6118E-03     269.779E-03    -49.3601E-03     29.0021E-03     452.832E-03    -226.059E-03    -226.772E-03    -225.948E-03     452.721E-03    -226.772E-03     17.1740E-03    -27.9205E+06    -95.9721E+06    -140.076E+06    -95.9734E+06    -140.074E+06    -27.9205E+06    -80.5405E+03         58.7854
             829     4.78566E-03     34.3059E-03     284.850E-03    -48.0530E-03    -73.9940E-03    -54.1024E-03     264.958E-03    -48.0530E-03    -29.8523E-03     452.895E-03    -226.124E-03    -226.771E-03    -226.065E-03     452.836E-03    -226.771E-03     12.3757E-03    -47.3506E+06    -105.719E+06    -171.907E+06    -105.723E+06    -171.904E+06    -47.3506E+06     251.458E+03         58.6336
             830     3.98794E-03     34.2956E-03     303.800E-03    -46.9616E-03    -93.8706E-03    -51.4669E-03     261.396E-03    -46.9616E-03     50.2372E-03     452.950E-03    -226.197E-03    -226.753E-03    -226.171E-03     452.924E-03    -226.753E-03     8.20009E-03    -68.3660E+06    -115.216E+06    -198.860E+06    -115.218E+06    -198.857E+06    -68.3660E+06     293.292E+03         58.4985
             831     3.19029E-03     34.2905E-03     355.131E-03    -46.1355E-03    -145.713E-03    -48.5739E-03     257.991E-03    -46.1355E-03    -98.3712E-03     453.011E-03    -226.291E-03    -226.721E-03    -226.282E-03     453.002E-03    -226.721E-03     4.73655E-03    -90.2938E+06    -124.230E+06    -218.943E+06    -124.236E+06    -218.937E+06    -90.2938E+06    -223.713E+03         58.3833
             832     2.39237E-03     34.2898E-03     463.640E-03    -45.5134E-03    -254.453E-03    -47.2939E-03     256.481E-03    -45.5134E-03     158.337E-03     453.138E-03    -226.444E-03    -226.694E-03    -226.452E-03     453.135E-03    -226.684E-03     2.14412E-03    -110.999E+06    -132.248E+06    -239.154E+06    -132.258E+06    -239.144E+06    -110.999E+06    -295.403E+03         58.2904
             833     1.59490E-03     34.2909E-03     684.880E-03    -45.2678E-03    -476.558E-03    -45.0979E-03     253.420E-03    -45.2678E-03    -313.473E-03     453.228E-03    -226.561E-03    -226.667E-03    -226.603E-03     453.228E-03    -226.625E-03     624.017E-06    -128.498E+06    -138.281E+06    -258.348E+06    -138.286E+06    -258.342E+06    -128.498E+06    -293.484E+03         58.2220
             834     797.585E-06     34.2921E-03         1.54956    -462.399E-03    -923.455E-03     372.037E-03     254.067E-03    -462.399E-03         1.00644     453.153E-03    -226.414E-03    -226.739E-03    -226.739E-03     453.153E-03    -226.414E-03     229.705E-06    -139.511E+06    -142.560E+06    -278.912E+06    -142.298E+06    -278.906E+06    -139.778E+06     285.184E+03         58.1790
             835     13.5689E-03     33.4280E-03     326.837E-03    -59.7982E-03    -105.247E-03    -105.223E-03     326.813E-03    -59.7982E-03    -1.13628E-03     454.711E-03    -226.561E-03    -228.150E-03    -225.472E-03     452.033E-03    -226.561E-03     84.6923E-03     115.339E+06     79.7881E+06    -6.93715E+06    -6.92974E+06     79.7806E+06     115.339E+06     219.689E+03         60.5351
             836     12.7686E-03     33.2914E-03     316.567E-03    -56.1538E-03    -98.4213E-03    -98.4050E-03     316.551E-03    -56.1538E-03     35.8358E-06     454.337E-03    -226.607E-03    -227.729E-03    -225.159E-03     451.788E-03    -226.629E-03     82.1959E-03     113.024E+06     73.8368E+06    -14.2074E+06    -14.1895E+06     73.8189E+06     113.024E+06    -5.04015E+03         60.3776
             837     11.9689E-03     33.1922E-03     306.410E-03    -52.6356E-03    -91.4502E-03    -91.3613E-03     306.321E-03    -52.6356E-03     5.35117E-03     453.439E-03    -226.590E-03    -226.849E-03    -225.087E-03     451.762E-03    -226.675E-03     67.4319E-03     104.240E+06     66.2651E+06    -23.0656E+06    -23.0453E+06     66.2448E+06     104.240E+06    -491.316E+03         60.2135
             838     11.1704E-03     33.1008E-03     296.211E-03    -49.3023E-03    -84.3148E-03    -84.2187E-03     296.115E-03    -49.3023E-03     4.55204E-03     453.242E-03    -226.425E-03    -226.817E-03    -225.165E-03     451.855E-03    -226.690E-03     61.1928E-03     90.4175E+06     59.9861E+06    -31.5330E+06    -31.5246E+06     59.9777E+06     90.4175E+06    -838.363E+03         60.0427
             839     10.3719E-03     33.0217E-03     286.205E-03    -46.1355E-03    -77.3706E-03    -77.2887E-03     286.123E-03    -46.1355E-03     3.49731E-03     452.859E-03    -226.163E-03    -226.695E-03    -225.114E-03     451.809E-03    -226.695E-03     53.2421E-03     74.0291E+06     52.5841E+06    -40.1388E+06    -40.1276E+06     52.5728E+06     74.0291E+06    -436.474E+03         59.8659
             840     9.57358E-03     32.9545E-03     276.818E-03    -43.1531E-03    -70.9226E-03    -70.6429E-03     276.538E-03    -43.1531E-03    -5.14080E-03     452.680E-03    -225.965E-03    -226.715E-03    -225.163E-03     451.878E-03    -226.715E-03     46.5115E-03     59.6414E+06     45.9766E+06    -48.7669E+06    -48.7591E+06     45.9688E+06     59.6414E+06     266.639E+03         59.6847
             841     8.77491E-03     32.8959E-03     267.937E-03    -40.3593E-03    -64.7038E-03    -64.2465E-03     267.480E-03    -40.3593E-03     555.221E-06     452.680E-03    -225.922E-03    -226.758E-03    -225.325E-03     452.083E-03    -226.758E-03     40.1081E-03     45.1686E+06     22.4151E+06    -57.7052E+06    -57.7023E+06     22.4122E+06     45.1686E+06     186.435E+03         59.5011
             842     7.97663E-03     32.8469E-03     259.749E-03    -37.7720E-03    -58.9109E-03    -58.0766E-03     258.915E-03    -37.7720E-03    -6.52251E-03     452.819E-03    -226.009E-03    -226.809E-03    -225.582E-03     452.391E-03    -226.809E-03     33.9287E-03     27.0440E+06    -23.9048E+06    -67.6059E+06    -67.5722E+06    -23.9385E+06     27.0440E+06    -127.915E+03         59.3178
             843     7.17860E-03     32.8063E-03     253.170E-03    -35.4140E-03    -54.4848E-03    -52.2180E-03     250.904E-03    -35.4140E-03     12.5282E-03     452.916E-03    -226.072E-03    -226.844E-03    -225.777E-03     452.621E-03    -226.844E-03     28.1405E-03     8.31439E+06    -65.4976E+06     -80.577E+06    -77.3016E+06    -68.7730E+06     8.31439E+06    -176.644E+03         59.1378
             844     6.38068E-03     32.7743E-03     247.733E-03    -33.3055E-03    -51.0792E-03    -46.7820E-03     243.436E-03    -33.3055E-03    -7.12778E-03     452.973E-03    -226.107E-03    -226.866E-03    -225.914E-03     452.780E-03    -226.866E-03     22.6921E-03    -9.40161E+06    -86.1818E+06    -106.196E+06    -86.3246E+06    -106.053E+06    -9.40161E+06    -82.5157E+03         58.9644
             845     5.58293E-03     32.7499E-03     247.531E-03    -31.4474E-03    -52.7708E-03    -42.0738E-03     236.834E-03    -31.4474E-03     29.4332E-03     453.053E-03    -226.180E-03    -226.873E-03    -226.065E-03     452.938E-03    -226.873E-03     17.5082E-03    -28.1922E+06    -95.9886E+06    -140.142E+06    -95.9906E+06    -140.140E+06    -28.1922E+06     22.1465E+03         58.8009
             846     4.78525E-03     32.7334E-03     256.049E-03    -29.8505E-03    -62.8115E-03    -37.7013E-03     230.938E-03    -29.8505E-03    -32.1068E-03     453.146E-03    -226.282E-03    -226.864E-03    -226.220E-03     453.084E-03    -226.864E-03     12.7262E-03    -47.8982E+06    -105.521E+06    -172.291E+06    -105.525E+06    -172.286E+06    -47.8982E+06    -71.1389E+03         58.6509
             847     3.98755E-03     32.7228E-03     279.168E-03    -28.5169E-03    -87.0371E-03    -34.1423E-03     226.274E-03    -28.5169E-03     52.9307E-03     453.178E-03    -226.341E-03    -226.836E-03    -226.314E-03     453.150E-03    -226.836E-03     8.40987E-03    -68.4630E+06    -114.641E+06    -198.208E+06    -114.644E+06    -198.205E+06    -68.4630E+06    -17.8160E+03         58.5174
             848     3.18981E-03     32.7181E-03     338.397E-03    -27.4671E-03    -147.121E-03    -30.8814E-03     222.157E-03    -27.4671E-03    -102.988E-03     453.203E-03    -226.405E-03    -226.798E-03    -226.396E-03     453.194E-03    -226.798E-03     4.88143E-03    -89.6555E+06    -123.461E+06    -218.792E+06    -123.462E+06    -218.790E+06    -89.6555E+06     118.452E+03         58.4035
             849     2.39253E-03     32.7168E-03     458.275E-03    -26.6486E-03    -267.509E-03    -28.8884E-03     219.655E-03    -26.6486E-03     166.361E-03     453.330E-03    -226.572E-03    -226.757E-03    -226.580E-03     453.327E-03    -226.748E-03     2.34958E-03    -109.965E+06    -131.140E+06    -239.002E+06    -131.144E+06    -238.998E+06    -109.965E+06    -98.4165E+03         58.3117
             850     1.59525E-03     32.7181E-03     696.434E-03    -26.2269E-03    -506.422E-03    -26.4509E-03     216.463E-03    -26.2269E-03    -330.149E-03     453.364E-03    -226.648E-03    -226.716E-03    -226.698E-03     453.364E-03    -226.666E-03     751.071E-06    -127.376E+06    -137.141E+06    -258.866E+06    -137.144E+06    -258.863E+06    -127.376E+06    -172.945E+03         58.2440
             851     797.647E-06     32.7200E-03         1.60092    -445.774E-03    -991.601E-03     393.333E-03     215.989E-03    -445.774E-03         1.05354     453.210E-03    -226.478E-03    -226.732E-03    -226.578E-03     453.210E-03    -226.633E-03     173.425E-06    -137.870E+06    -141.353E+06    -279.662E+06    -140.785E+06    -279.661E+06    -138.439E+06    -103.862E+03         58.2015
             852     13.5659E-03     31.8581E-03     314.694E-03    -48.3236E-03    -104.146E-03    -104.122E-03     314.670E-03    -48.3236E-03    -1.38155E-03     454.507E-03    -226.472E-03    -228.035E-03    -225.198E-03     451.751E-03    -226.553E-03     85.8466E-03      114.56E+06     79.2688E+06    -7.58749E+06    -7.58145E+06     79.2628E+06      114.56E+06    -461.024E+03         60.5379
             853     12.7675E-03     31.7197E-03     302.681E-03    -44.2626E-03    -95.8551E-03    -95.8394E-03     302.665E-03    -44.2626E-03    -180.121E-06     454.252E-03    -226.585E-03    -227.666E-03    -224.963E-03     451.606E-03    -226.643E-03     83.7272E-03     113.213E+06     73.2568E+06    -14.0137E+06    -14.0019E+06     73.2449E+06     113.213E+06    -145.397E+03         60.3811
             854     11.9692E-03     31.6215E-03     290.689E-03    -40.3415E-03    -87.4562E-03    -87.3706E-03     290.604E-03    -40.3415E-03     4.93491E-03     453.196E-03    -226.480E-03    -226.715E-03    -224.754E-03     451.470E-03    -226.715E-03     68.3835E-03     105.724E+06     67.0130E+06    -21.9502E+06    -21.9368E+06     66.9996E+06     105.724E+06     401.106E+03         60.2178
             855     11.1699E-03     31.5285E-03     278.774E-03    -36.6156E-03    -79.0003E-03    -78.9047E-03     278.678E-03    -36.6156E-03     3.92913E-03     453.002E-03    -226.248E-03    -226.754E-03    -224.835E-03     451.590E-03    -226.754E-03     61.6957E-03     91.0077E+06     60.7153E+06    -30.9930E+06    -30.9794E+06     60.7017E+06     91.0077E+06     218.356E+03         60.0480
             856     10.3708E-03     31.4505E-03     267.136E-03    -33.0755E-03    -70.7255E-03    -70.6398E-03     267.051E-03    -33.0755E-03     3.03593E-03     452.794E-03    -226.014E-03    -226.780E-03    -224.956E-03     451.737E-03    -226.780E-03     53.4288E-03     73.4372E+06     52.3837E+06    -40.3009E+06    -40.2899E+06     52.3727E+06     73.4372E+06    -308.345E+03         59.8726
             857     9.57177E-03     31.3817E-03     256.213E-03    -29.7399E-03    -63.0212E-03    -62.7128E-03     255.905E-03    -29.7399E-03    -5.58425E-03     452.751E-03    -225.934E-03    -226.817E-03    -225.129E-03     451.946E-03    -226.817E-03     46.6239E-03     59.1406E+06     45.4262E+06    -49.4593E+06    -49.4442E+06     45.4111E+06     59.1406E+06    -680.267E+03         59.6928
             858     8.77374E-03     31.3233E-03     245.843E-03    -26.6159E-03    -55.6345E-03    -55.1217E-03     245.330E-03    -26.6159E-03     367.431E-06     452.848E-03    -225.979E-03    -226.869E-03    -225.379E-03     452.248E-03    -226.869E-03     40.2160E-03     44.9016E+06     22.1293E+06    -58.3900E+06    -58.3776E+06     22.1169E+06     44.9016E+06    -250.464E+03         59.5108
             859     7.97571E-03     31.2737E-03     236.359E-03    -23.7196E-03    -48.8806E-03    -47.9045E-03     235.383E-03    -23.7196E-03    -7.11268E-03     452.972E-03    -226.046E-03    -226.926E-03    -225.613E-03     452.538E-03    -226.926E-03     34.1727E-03     26.9945E+06    -23.4372E+06    -67.4003E+06    -67.3544E+06    -23.4832E+06     26.9945E+06    -58.3294E+03         59.3292
             860     7.17779E-03     31.2334E-03     228.758E-03    -21.0670E-03    -43.7752E-03    -41.1371E-03     226.119E-03    -21.0670E-03     12.1623E-03     453.097E-03    -226.125E-03    -226.972E-03    -225.823E-03     452.795E-03    -226.972E-03     28.4774E-03     8.65785E+06    -64.9594E+06    -80.2914E+06    -76.6351E+06    -68.6157E+06     8.65785E+06    -410.727E+03         59.1509
             861     6.37992E-03     31.2011E-03     222.730E-03    -18.6748E-03    -40.0172E-03    -34.8469E-03     217.559E-03    -18.6748E-03    -8.38874E-03     453.192E-03    -226.190E-03    -227.002E-03    -225.993E-03     452.994E-03    -227.002E-03     23.0061E-03    -9.67395E+06    -86.5489E+06    -107.108E+06    -86.6407E+06    -107.016E+06    -9.67395E+06    -191.591E+03         58.9792
             862     5.58207E-03     31.1770E-03     222.732E-03    -16.5577E-03    -42.0586E-03    -29.1657E-03     209.839E-03    -16.5577E-03     29.3430E-03     453.291E-03    -226.277E-03    -227.014E-03    -226.158E-03     453.172E-03    -227.014E-03     17.8049E-03    -28.2986E+06    -96.0012E+06    -139.873E+06    -96.0068E+06    -139.868E+06    -28.2986E+06    -82.1970E+03         58.8173
             863     4.78441E-03     31.1599E-03     233.133E-03    -14.7295E-03    -54.2208E-03    -24.0966E-03     203.009E-03    -14.7295E-03    -33.8139E-03     453.428E-03    -226.416E-03    -227.012E-03    -226.352E-03     453.363E-03    -227.012E-03     13.0024E-03    -47.8221E+06    -105.591E+06    -172.306E+06    -105.599E+06    -172.298E+06    -47.8221E+06    -220.183E+03         58.6688
             864     3.98706E-03     31.1498E-03     259.958E-03    -13.1936E-03    -82.3802E-03    -19.8165E-03     197.394E-03    -13.1936E-03     54.5047E-03     453.513E-03    -226.532E-03    -226.982E-03    -226.503E-03     453.484E-03    -226.982E-03     8.68561E-03    -68.4123E+06    -114.971E+06    -198.728E+06    -114.974E+06    -198.725E+06    -68.4123E+06    -5.57962E+03         58.5367
             865     3.18973E-03     31.1451E-03     325.222E-03    -11.9537E-03    -148.720E-03    -16.1941E-03     192.697E-03    -11.9537E-03    -106.019E-03     453.533E-03    -226.607E-03    -226.925E-03    -226.597E-03     453.522E-03    -226.925E-03     5.15936E-03    -90.1032E+06    -123.647E+06    -218.313E+06    -123.648E+06    -218.312E+06    -90.1032E+06    -73.1686E+03         58.4239
             866     2.39203E-03     31.1438E-03     452.734E-03    -10.9449E-03    -277.159E-03    -13.7299E-03     189.305E-03    -10.9449E-03     171.069E-03     453.519E-03    -226.647E-03    -226.872E-03    -226.644E-03     453.516E-03    -226.872E-03     2.59991E-03    -111.391E+06    -131.506E+06    -238.664E+06    -131.509E+06    -238.660E+06    -111.391E+06    -355.201E+03         58.3330
             867     1.59452E-03     31.1450E-03     701.951E-03    -10.3363E-03    -526.771E-03    -10.9403E-03     186.120E-03    -10.3363E-03    -341.067E-03     453.570E-03    -226.706E-03    -226.864E-03    -226.722E-03     453.570E-03    -226.848E-03     932.106E-06    -128.043E+06    -136.754E+06    -260.046E+06    -136.758E+06    -260.041E+06    -128.043E+06    -466.955E+03         58.2660
             868     797.366E-06     31.1475E-03         1.63006    -426.961E-03        -1.03876     406.395E-03     184.903E-03    -426.961E-03         1.08367     453.668E-03    -226.707E-03    -226.961E-03    -226.723E-03     453.668E-03    -226.945E-03     169.617E-06    -137.018E+06    -139.843E+06    -279.678E+06    -139.277E+06    -279.675E+06    -137.587E+06    -462.271E+03         58.2240
             869     13.5669E-03     30.2870E-03     305.797E-03    -39.3443E-03    -103.383E-03    -103.362E-03     305.775E-03    -39.3443E-03    -1.45853E-03     454.048E-03    -226.493E-03    -227.555E-03    -224.752E-03     451.326E-03    -226.574E-03     85.2410E-03     115.148E+06     79.6645E+06    -7.04056E+06    -7.03159E+06     79.6556E+06     115.148E+06    -91.6414E+03         60.5437
             870     12.7673E-03     30.1484E-03     292.442E-03    -35.0218E-03    -93.9932E-03    -93.9781E-03     292.426E-03    -35.0218E-03    -464.907E-06     454.019E-03    -226.434E-03    -227.584E-03    -224.722E-03     451.402E-03    -226.680E-03     83.2587E-03     111.918E+06     72.1033E+06    -15.3162E+06    -15.3063E+06     72.0935E+06     111.918E+06    -325.931E+03         60.3874
             871     11.9675E-03     30.0504E-03     279.136E-03    -30.8469E-03    -84.5676E-03    -84.4877E-03     279.056E-03    -30.8469E-03     4.42356E-03     452.963E-03    -226.191E-03    -226.771E-03    -224.459E-03     451.230E-03    -226.771E-03     68.5024E-03     104.620E+06     66.4247E+06    -23.2203E+06    -23.2061E+06     66.4105E+06     104.620E+06    -380.908E+03         60.2249
             872     11.1686E-03     29.9570E-03     265.946E-03    -26.8662E-03    -75.0953E-03    -75.0029E-03     265.853E-03    -26.8662E-03     3.27069E-03     452.958E-03    -226.122E-03    -226.836E-03    -224.688E-03     451.524E-03    -226.836E-03     62.1553E-03     91.4133E+06     60.4848E+06    -31.2999E+06    -31.2832E+06     60.4682E+06     91.4133E+06     129.791E+03         60.0561
             873     10.3700E-03     29.8781E-03     253.116E-03    -23.0828E-03    -65.7884E-03    -65.7019E-03     253.029E-03    -23.0828E-03     2.53291E-03     452.948E-03    -226.074E-03    -226.875E-03    -225.007E-03     451.881E-03    -226.875E-03     53.6635E-03     74.6969E+06     52.9405E+06    -39.6167E+06    -39.6101E+06     52.9338E+06     74.6969E+06     338.777E+03         59.8818
             874     9.57180E-03     29.8096E-03     241.094E-03    -19.5170E-03    -57.1359E-03    -56.8090E-03     240.767E-03    -19.5170E-03    -5.96283E-03     452.850E-03    -225.937E-03    -226.913E-03    -225.125E-03     452.038E-03    -226.913E-03     46.8199E-03     59.7161E+06     46.1684E+06    -48.5343E+06    -48.5172E+06     46.1514E+06     59.7161E+06    -53.8795E+03         59.7033
             875     8.77302E-03     29.7501E-03     229.659E-03    -16.1744E-03    -48.8945E-03    -48.3487E-03     229.113E-03    -16.1744E-03     53.4630E-06     452.832E-03    -225.854E-03    -226.978E-03    -225.246E-03     452.224E-03    -226.978E-03     40.4705E-03     44.4337E+06     21.9004E+06    -58.2202E+06    -58.1877E+06     21.8679E+06     44.4337E+06    -692.496E+03         59.5227
             876     7.97466E-03     29.7009E-03     219.218E-03    -13.0667E-03    -41.4493E-03    -40.3762E-03     218.145E-03    -13.0667E-03    -7.55727E-03     453.009E-03    -225.949E-03    -227.060E-03    -225.508E-03     452.568E-03    -227.060E-03     34.4977E-03     26.7803E+06    -23.6201E+06    -67.7442E+06    -67.6888E+06    -23.6755E+06     26.7803E+06    -754.221E+03         59.3424
             877     7.17648E-03     29.6600E-03     210.827E-03    -10.2054E-03    -35.8270E-03    -32.9160E-03     207.916E-03    -10.2054E-03     11.7632E-03     453.239E-03    -226.110E-03    -227.129E-03    -225.801E-03     452.930E-03    -227.129E-03     28.8585E-03     8.37303E+06    -65.2594E+06    -81.1157E+06    -77.2186E+06    -69.1565E+06     8.37303E+06    -284.702E+03         59.1656
             878     6.37872E-03     29.6278E-03     204.363E-03    -7.61017E-03    -31.7695E-03    -25.9176E-03     198.511E-03    -7.61017E-03    -9.17803E-03     453.457E-03    -226.283E-03    -227.173E-03    -226.080E-03     453.253E-03    -227.173E-03     23.3860E-03    -9.82860E+06    -86.6740E+06    -107.126E+06    -86.7124E+06    -107.087E+06    -9.82860E+06    -306.678E+03         58.9952
             879     5.58115E-03     29.6034E-03     204.521E-03    -5.31272E-03    -34.0318E-03    -19.4198E-03     189.909E-03    -5.31272E-03     28.8822E-03     453.615E-03    -226.419E-03    -227.196E-03    -226.295E-03     453.491E-03    -227.196E-03     18.1691E-03    -28.3829E+06    -96.5404E+06    -140.080E+06    -96.5589E+06    -140.061E+06    -28.3829E+06    -344.783E+03         58.8347
             880     4.78365E-03     29.5863E-03     216.337E-03    -3.32526E-03    -47.7651E-03    -13.8374E-03     182.410E-03    -3.32526E-03    -34.6011E-03     453.731E-03    -226.529E-03    -227.202E-03    -226.462E-03     453.664E-03    -227.202E-03     13.2723E-03    -48.0661E+06    -106.463E+06    -172.690E+06    -106.472E+06    -172.681E+06    -48.0661E+06    -98.7016E+03         58.6874
             881     3.98608E-03     29.5762E-03     245.680E-03    -1.64757E-03    -78.6638E-03    -9.00989E-03     176.026E-03    -1.64757E-03     55.0570E-03     453.850E-03    -226.665E-03    -227.185E-03    -226.634E-03     453.819E-03    -227.185E-03     8.97576E-03    -68.7918E+06    -116.020E+06    -199.157E+06    -116.022E+06    -199.155E+06    -68.7918E+06    -29.3272E+03         58.5564
             882     3.18874E-03     29.5712E-03     314.398E-03    -259.855E-06    -148.675E-03    -5.20565E-03     170.929E-03    -259.855E-06    -106.966E-03     453.952E-03    -226.822E-03    -227.130E-03    -226.810E-03     453.941E-03    -227.130E-03     5.43342E-03    -90.8510E+06    -124.787E+06    -217.866E+06    -124.790E+06    -217.863E+06    -90.8510E+06     177.748E+03         58.4445
             883     2.39181E-03     29.5706E-03     445.839E-03     856.343E-06    -281.041E-03    -2.07554E-03     166.873E-03     856.343E-06     172.732E-03     453.948E-03    -226.882E-03    -227.066E-03    -226.879E-03     453.945E-03    -227.066E-03     2.64419E-03    -112.808E+06    -132.365E+06    -238.567E+06    -132.371E+06    -238.561E+06    -112.808E+06    -13.8805E+03         58.3544
             884     1.59442E-03     29.5718E-03     699.706E-03     1.60270E-03    -535.407E-03     550.758E-06     163.749E-03     1.60270E-03    -345.054E-03     453.928E-03    -226.887E-03    -227.041E-03    -226.887E-03     453.928E-03    -227.041E-03     802.261E-06    -130.133E+06    -138.151E+06    -260.061E+06    -138.156E+06    -260.056E+06    -130.133E+06    -377.692E+03         58.2880
             885     796.932E-06     29.5736E-03         1.63333    -406.137E-03        -1.06157     409.855E-03     161.914E-03    -406.137E-03         1.09399     454.076E-03    -226.956E-03    -227.120E-03    -227.010E-03     454.076E-03    -227.066E-03    -40.6599E-06    -139.354E+06    -141.959E+06    -280.621E+06    -141.383E+06    -280.619E+06    -139.933E+06    -27.9939E+03         58.2463
             886     13.5665E-03     28.7170E-03     300.657E-03    -33.2389E-03    -103.171E-03    -103.151E-03     300.637E-03    -33.2389E-03    -1.46777E-03     453.900E-03    -226.497E-03    -227.403E-03    -224.564E-03     451.148E-03    -226.584E-03     85.6582E-03     115.438E+06     79.4479E+06    -7.03154E+06    -7.02602E+06     79.4424E+06     115.438E+06     136.415E+03         60.5530
             887     12.7670E-03     28.5780E-03     286.436E-03    -28.8162E-03    -93.0131E-03    -92.9973E-03     286.421E-03    -28.8162E-03    -744.911E-06     453.752E-03    -226.302E-03    -227.450E-03    -224.404E-03     451.112E-03    -226.708E-03     83.5518E-03     112.759E+06       72.73E+06    -14.4440E+06    -14.4365E+06     72.7225E+06     112.759E+06     294.501E+03         60.3973
             888     11.9677E-03     28.4802E-03     272.318E-03    -24.5436E-03    -82.9004E-03    -82.8273E-03     272.245E-03    -24.5436E-03     3.77661E-03     452.812E-03    -225.997E-03    -226.815E-03    -224.268E-03     451.082E-03    -226.815E-03     68.4270E-03     104.449E+06     66.8778E+06    -22.9224E+06    -22.9116E+06     66.8670E+06     104.449E+06    -222.386E+03         60.2354
             889     11.1680E-03     28.3857E-03     258.341E-03    -20.4584E-03    -72.7550E-03    -72.6677E-03     258.253E-03    -20.4584E-03     2.58669E-03     452.859E-03    -225.968E-03    -226.892E-03    -224.533E-03     451.425E-03    -226.892E-03     62.1511E-03     90.0922E+06     60.0787E+06    -32.1192E+06    -32.1043E+06     60.0638E+06     90.0922E+06    -839.572E+03         60.0675
             890     10.3689E-03     28.3055E-03     244.760E-03    -16.5744E-03    -62.7700E-03    -62.6861E-03     244.676E-03    -16.5744E-03     1.95383E-03     452.838E-03    -225.889E-03    -226.949E-03    -224.819E-03     451.768E-03    -226.949E-03     53.7416E-03     73.5451E+06     52.3624E+06    -40.8589E+06    -40.8412E+06     52.3448E+06     73.5451E+06    -758.457E+03         59.8941
             891     9.57011E-03     28.2368E-03     232.083E-03    -12.9122E-03    -53.4878E-03    -53.1587E-03     231.754E-03    -12.9122E-03    -6.25604E-03     452.801E-03    -225.790E-03    -227.011E-03    -224.970E-03     451.981E-03    -227.011E-03     47.0421E-03     59.4311E+06     46.0581E+06    -48.8578E+06    -48.8411E+06     46.0413E+06     59.4311E+06    -166.896E+03         59.7166
             892     8.77176E-03     28.1777E-03     220.047E-03    -9.47634E-03    -44.6944E-03    -44.1485E-03     219.501E-03    -9.47634E-03    -337.598E-06     452.831E-03    -225.731E-03    -227.099E-03    -225.114E-03     452.213E-03    -227.099E-03     40.8044E-03     44.8307E+06     22.5161E+06    -57.6937E+06    -57.6512E+06     22.4736E+06     44.8307E+06     91.2952E+03         59.5370
             893     7.97335E-03     28.1277E-03     209.059E-03    -6.27140E-03    -36.8435E-03    -35.7436E-03     207.959E-03    -6.27140E-03    -7.87338E-03     453.094E-03    -225.890E-03    -227.204E-03    -225.443E-03     452.647E-03    -227.204E-03     34.7119E-03     26.6195E+06    -24.2111E+06     -67.783E+06    -67.7388E+06    -24.2553E+06     26.6195E+06     64.5622E+03         59.3578
             894     7.17535E-03     28.0867E-03     200.083E-03    -3.31003E-03    -30.7685E-03    -27.7741E-03     197.088E-03    -3.31003E-03     11.1866E-03     453.394E-03    -226.102E-03    -227.292E-03    -225.790E-03     453.082E-03    -227.292E-03     28.9384E-03     8.14201E+06    -66.1501E+06    -80.8106E+06    -77.5407E+06      -69.42E+06     8.14201E+06    -63.7399E+03         59.1820
             895     6.37740E-03     28.0538E-03     193.235E-03    -618.330E-06    -26.4119E-03    -20.2904E-03     187.113E-03    -618.330E-06    -9.55379E-03     453.649E-03    -226.293E-03    -227.356E-03    -226.088E-03     453.444E-03    -227.356E-03     23.4582E-03    -10.1169E+06    -87.2476E+06    -106.618E+06    -87.2813E+06    -106.585E+06    -10.1169E+06    -212.840E+03         59.0127
             896     5.57983E-03     28.0292E-03     193.293E-03     1.76831E-03    -28.6487E-03    -13.3319E-03     177.976E-03     1.76831E-03     27.9914E-03     453.898E-03    -226.500E-03    -227.398E-03    -226.375E-03     453.772E-03    -227.398E-03     18.2928E-03    -29.0822E+06    -97.3145E+06    -140.646E+06    -97.3402E+06    -140.620E+06    -29.0822E+06    -235.628E+03         58.8532
             897     4.78242E-03     28.0123E-03     205.586E-03     3.83553E-03    -42.8233E-03    -7.36236E-03     170.125E-03     3.83553E-03    -34.4585E-03     454.104E-03    -226.685E-03    -227.419E-03    -226.617E-03     454.036E-03    -227.419E-03     13.3990E-03    -48.5835E+06    -107.115E+06    -173.007E+06    -107.126E+06    -172.997E+06    -48.5835E+06    -257.693E+03         58.7067
             898     3.98524E-03     28.0019E-03     235.654E-03     5.56583E-03    -74.4798E-03    -2.05788E-03     163.232E-03     5.56583E-03     54.2753E-03     454.244E-03    -226.834E-03    -227.410E-03    -226.802E-03     454.212E-03    -227.410E-03     9.03086E-03    -69.5323E+06    -116.567E+06    -199.229E+06    -116.568E+06    -199.227E+06    -69.5323E+06    -228.697E+03         58.5765
             899     3.18807E-03     27.9969E-03     304.730E-03     7.01235E-03    -145.044E-03     1.68060E-03     158.005E-03     7.01235E-03    -105.434E-03     454.347E-03    -226.972E-03    -227.376E-03    -226.960E-03     454.335E-03    -227.376E-03     5.46324E-03    -91.2846E+06    -125.382E+06    -218.234E+06    -125.390E+06    -218.225E+06    -91.2846E+06    -253.822E+03         58.4654
             900     2.39086E-03     27.9959E-03     435.831E-03     8.16066E-03    -277.142E-03     5.29814E-03     153.390E-03     8.16066E-03     170.912E-03     454.464E-03    -227.131E-03    -227.333E-03    -227.128E-03     454.461E-03    -227.333E-03     2.73893E-03    -111.519E+06    -132.736E+06    -238.890E+06    -132.747E+06    -238.879E+06    -111.519E+06     205.382E+03         58.3759
             901     1.59414E-03     27.9980E-03     687.971E-03     9.07204E-03    -529.785E-03     7.32188E-03     150.865E-03     9.07204E-03    -341.521E-03     454.489E-03    -227.206E-03    -227.284E-03    -227.205E-03     454.489E-03    -227.284E-03     1.03262E-03    -129.359E+06    -138.713E+06    -259.494E+06    -138.721E+06    -259.486E+06    -129.359E+06     798.855E+03         58.3098
             902     797.267E-06     27.9996E-03         1.60457    -381.740E-03        -1.05612     400.726E-03     147.725E-03    -381.740E-03         1.07891     454.503E-03    -227.183E-03    -227.320E-03    -227.237E-03     454.503E-03    -227.266E-03     340.667E-06    -139.733E+06    -143.058E+06    -280.266E+06    -142.485E+06    -280.260E+06    -140.311E+06     476.577E+03         58.2684
             903     13.5661E-03     27.1467E-03     299.602E-03    -30.2743E-03    -103.640E-03    -103.622E-03     299.584E-03    -30.2743E-03    -1.67498E-03     453.635E-03    -226.395E-03    -227.240E-03    -224.275E-03     450.876E-03    -226.601E-03     85.7387E-03     115.190E+06     79.2375E+06    -6.80162E+06    -6.80078E+06     79.2367E+06     115.190E+06    -45.8748E+03         60.5662
             904     12.7665E-03     27.0079E-03     284.997E-03    -25.9143E-03    -92.9912E-03    -92.9759E-03     284.981E-03    -25.9143E-03    -1.07033E-03     453.732E-03    -226.354E-03    -227.378E-03    -224.338E-03     451.078E-03    -226.740E-03     83.7871E-03     113.017E+06     72.7312E+06    -14.0690E+06    -14.0630E+06     72.7252E+06     113.017E+06    -119.491E+03         60.4109
             905     11.9667E-03     26.9092E-03     270.570E-03    -21.7075E-03    -82.5058E-03    -82.4411E-03     270.506E-03    -21.7075E-03     3.17037E-03     452.951E-03    -226.100E-03    -226.851E-03    -224.354E-03     451.205E-03    -226.851E-03     68.7429E-03     105.591E+06     67.4648E+06    -21.9174E+06    -21.9111E+06     67.4585E+06     105.591E+06     146.117E+03         60.2497
             906     11.1679E-03     26.8145E-03     256.371E-03    -17.6767E-03    -72.1031E-03    -72.0230E-03     256.290E-03    -17.6767E-03     1.92891E-03     452.875E-03    -225.948E-03    -226.927E-03    -224.506E-03     451.433E-03    -226.927E-03     62.3132E-03     91.0329E+06     60.8286E+06    -30.6864E+06    -30.6685E+06     60.8107E+06     91.0329E+06     241.684E+03         60.0824
             907     10.3687E-03     26.7339E-03     242.585E-03    -13.8403E-03    -61.8590E-03    -61.7817E-03     242.507E-03    -13.8403E-03     1.34305E-03     452.622E-03    -225.628E-03    -226.994E-03    -224.561E-03     451.555E-03    -226.994E-03     53.6259E-03     73.1782E+06     52.5841E+06    -40.3251E+06    -40.2994E+06     52.5584E+06     73.1782E+06    -321.023E+03         59.9096
             908     9.56970E-03     26.6645E-03     229.692E-03    -10.2168E-03    -52.2964E-03    -51.9824E-03     229.378E-03    -10.2168E-03    -6.49459E-03     452.604E-03    -225.524E-03    -227.080E-03    -224.717E-03     451.797E-03    -227.080E-03     46.6574E-03     58.2159E+06     45.0931E+06    -50.1671E+06    -50.1562E+06     45.0821E+06     58.2159E+06    -684.153E+03         59.7328
             909     8.77077E-03     26.6049E-03     217.447E-03    -6.81587E-03    -43.2102E-03    -42.6977E-03     216.935E-03    -6.81587E-03    -794.005E-06     452.799E-03    -225.605E-03    -227.194E-03    -224.999E-03     452.193E-03    -227.194E-03     40.4122E-03     43.9538E+06     21.4444E+06    -59.5991E+06    -59.5720E+06     21.4173E+06     43.9538E+06    -63.5604E+03         59.5539
             910     7.97237E-03     26.5544E-03     206.298E-03    -3.64165E-03    -35.1199E-03    -34.0700E-03     205.248E-03    -3.64165E-03    -8.09539E-03     453.140E-03    -225.824E-03    -227.316E-03    -225.385E-03     452.700E-03    -227.316E-03     34.4255E-03     26.6554E+06    -23.8777E+06    -68.3954E+06    -68.3614E+06    -23.9117E+06     26.6554E+06     293.125E+03         59.3755
             911     7.17425E-03     26.5128E-03     196.994E-03    -702.783E-06    -28.7611E-03    -25.9416E-03     194.174E-03    -702.783E-06     10.1826E-03     453.493E-03    -226.073E-03    -227.420E-03    -225.767E-03     453.187E-03    -227.420E-03     28.6762E-03     8.30485E+06    -65.9704E+06    -80.8089E+06    -77.7431E+06    -69.0361E+06     8.30485E+06     34.9389E+03         59.2003
             912     6.37653E-03     26.4799E-03     189.856E-03     1.98056E-03    -24.1691E-03    -18.3513E-03     184.038E-03     1.98056E-03    -9.72070E-03     453.780E-03    -226.278E-03    -227.502E-03    -226.078E-03     453.580E-03    -227.502E-03     23.1649E-03    -9.92353E+06    -87.2567E+06    -106.694E+06    -87.2741E+06    -106.677E+06    -9.92353E+06    -14.7187E+03         59.0317
             913     5.57879E-03     26.4548E-03     189.277E-03     4.36860E-03    -25.7623E-03    -11.1757E-03     174.690E-03     4.36860E-03     26.3817E-03     454.063E-03    -226.499E-03    -227.564E-03    -226.378E-03     453.942E-03    -227.564E-03     17.9586E-03    -28.7433E+06    -96.5967E+06    -140.339E+06    -96.6142E+06    -140.321E+06    -28.7433E+06    -139.365E+03         58.8728
             914     4.78145E-03     26.4374E-03     200.664E-03     6.43651E-03    -38.9421E-03    -5.00283E-03     166.725E-03     6.43651E-03    -33.5835E-03     454.367E-03    -226.762E-03    -227.606E-03    -226.697E-03     454.302E-03    -227.606E-03     13.0959E-03    -48.3972E+06    -106.251E+06    -173.120E+06    -106.264E+06    -173.108E+06    -48.3972E+06    -390.747E+03         58.7269
             915     3.98429E-03     26.4270E-03     229.297E-03     8.14181E-03    -69.0453E-03     645.075E-06     159.606E-03     8.14181E-03     51.9196E-03     454.590E-03    -226.974E-03    -227.615E-03    -226.944E-03     454.560E-03    -227.615E-03     8.85517E-03    -68.9275E+06    -115.881E+06    -199.136E+06    -115.888E+06    -199.129E+06    -68.9275E+06    -551.053E+03         58.5971
             916     3.18728E-03     26.4220E-03     295.559E-03     9.56308E-03    -136.822E-03     4.19921E-03     154.537E-03     9.56308E-03    -101.546E-03     454.698E-03    -227.096E-03    -227.602E-03    -227.085E-03     454.687E-03    -227.602E-03     5.31744E-03    -90.4168E+06    -124.879E+06    -218.784E+06    -124.889E+06    -218.774E+06    -90.4168E+06    -585.756E+03         58.4864
             917     2.39035E-03     26.4211E-03     421.598E-03     10.7030E-03    -264.191E-03     7.88907E-03     149.518E-03     10.7030E-03     164.522E-03     454.833E-03    -227.234E-03    -227.599E-03    -227.231E-03     454.830E-03    -227.599E-03     2.61705E-03    -110.963E+06    -132.927E+06    -240.389E+06    -132.938E+06    -240.378E+06    -110.963E+06    -248.568E+03         58.3972
             918     1.59329E-03     26.4225E-03     664.553E-03     11.8805E-03    -507.912E-03     9.04559E-03     147.595E-03     11.8805E-03    -329.476E-03     455.008E-03    -227.403E-03    -227.605E-03    -227.403E-03     455.007E-03    -227.605E-03     913.895E-06    -128.595E+06    -138.879E+06    -259.422E+06    -138.888E+06    -259.413E+06    -128.595E+06     369.166E+03         58.3314
             919     796.462E-06     26.4252E-03         1.54131    -353.644E-03        -1.01897     378.824E-03     143.509E-03    -353.644E-03         1.03758     455.197E-03    -227.482E-03    -227.715E-03    -227.599E-03     455.197E-03    -227.598E-03     468.253E-06    -138.672E+06    -142.400E+06    -278.719E+06    -141.659E+06    -278.712E+06    -139.420E+06     41.9649E+03         58.2901
             920     13.5661E-03     25.5774E-03     302.824E-03    -30.6161E-03    -104.737E-03    -104.720E-03     302.807E-03    -30.6161E-03    -1.73894E-03     453.635E-03    -226.366E-03    -227.268E-03    -224.286E-03     450.893E-03    -226.607E-03     85.4969E-03     115.265E+06     79.4316E+06    -7.05698E+06    -7.05644E+06     79.4310E+06     115.265E+06    -158.171E+03         60.5834
             921     12.7661E-03     25.4379E-03     288.398E-03    -26.4845E-03    -94.0469E-03    -94.0320E-03     288.383E-03    -26.4845E-03    -1.23481E-03     453.759E-03    -226.357E-03    -227.402E-03    -224.396E-03     451.136E-03    -226.741E-03     83.2707E-03     112.628E+06     72.8814E+06    -14.8602E+06    -14.8567E+06     72.8779E+06     112.628E+06    -378.959E+03         60.4286
             922     11.9669E-03     25.3381E-03     274.208E-03    -22.5011E-03    -83.5722E-03    -83.5159E-03     274.151E-03    -22.5011E-03     2.66615E-03     452.892E-03    -226.041E-03    -226.850E-03    -224.327E-03     451.177E-03    -226.850E-03     68.1367E-03     104.939E+06     66.5774E+06    -23.2078E+06    -23.2033E+06     66.5729E+06     104.939E+06    -342.103E+03         60.2678
             923     11.1674E-03     25.2431E-03     260.290E-03    -18.6756E-03    -73.2555E-03    -73.1834E-03     260.218E-03    -18.6756E-03     1.38867E-03     452.780E-03    -225.849E-03    -226.932E-03    -224.430E-03     451.361E-03    -226.932E-03     61.8138E-03     91.1468E+06     60.3876E+06    -31.5705E+06    -31.5578E+06     60.3749E+06     91.1468E+06     249.975E+03         60.1009
             924     10.3684E-03     25.1623E-03     246.817E-03    -15.0320E-03    -63.1277E-03    -63.0595E-03     246.749E-03    -15.0320E-03     756.051E-06     452.565E-03    -225.560E-03    -227.005E-03    -224.508E-03     451.513E-03    -227.005E-03     53.2411E-03     74.4707E+06     53.3110E+06    -40.0345E+06    -40.0180E+06     53.2945E+06     74.4707E+06     715.872E+03         59.9286
             925     9.56929E-03     25.0927E-03     234.198E-03    -11.5849E-03    -53.6377E-03    -53.3539E-03     233.914E-03    -11.5849E-03    -6.65221E-03     452.564E-03    -225.470E-03    -227.094E-03    -224.678E-03     451.772E-03    -227.094E-03     46.2021E-03     59.4223E+06     45.6558E+06    -49.2649E+06    -49.2589E+06     45.6499E+06     59.4223E+06     473.770E+03         59.7521
             926     8.77064E-03     25.0322E-03     222.177E-03    -8.34889E-03    -44.5676E-03    -44.1154E-03     221.724E-03    -8.34889E-03    -1.25995E-03     452.772E-03    -225.564E-03    -227.208E-03    -224.979E-03     452.187E-03    -227.208E-03     39.7102E-03     44.3439E+06     21.0938E+06    -59.0708E+06    -59.0638E+06     21.0868E+06     44.3439E+06    -231.761E+03         59.5736
             927     7.97211E-03     24.9813E-03     211.220E-03    -5.32844E-03    -36.5028E-03    -35.5749E-03     210.292E-03    -5.32844E-03    -8.13615E-03     453.082E-03    -225.749E-03    -227.333E-03    -225.332E-03     452.665E-03    -227.333E-03     33.5055E-03     26.7652E+06    -24.1374E+06    -68.6069E+06    -68.5808E+06    -24.1635E+06     26.7652E+06    -396.985E+03         59.3955
             928     7.17390E-03     24.9390E-03     201.893E-03    -2.52348E-03    -30.0545E-03    -27.6402E-03     199.479E-03    -2.52348E-03     8.85803E-03     453.415E-03    -225.970E-03    -227.445E-03    -225.685E-03     453.130E-03    -227.445E-03     27.6931E-03     8.61456E+06    -65.1134E+06    -81.0757E+06    -77.4525E+06    -68.7366E+06     8.61456E+06    -312.781E+03         59.2206
             929     6.37595E-03     24.9056E-03     194.575E-03     56.1412E-06    -25.2491E-03    -20.2661E-03     189.592E-03     56.1412E-06    -9.61877E-03     453.769E-03    -226.232E-03    -227.537E-03    -226.048E-03     453.585E-03    -227.537E-03     22.1800E-03    -9.36892E+06     -86.556E+06    -106.654E+06    -86.5787E+06    -106.632E+06    -9.36892E+06    -563.630E+03         59.0521
             930     5.57846E-03     24.8802E-03     192.837E-03     2.36421E-03    -25.5815E-03    -13.1137E-03     180.369E-03     2.36421E-03     24.0345E-03     454.057E-03    -226.447E-03    -227.610E-03    -226.338E-03     453.949E-03    -227.610E-03     17.0115E-03    -27.9762E+06    -96.2224E+06    -140.528E+06    -96.2344E+06    -140.516E+06    -27.9762E+06    -395.847E+03         58.8934
             931     4.78098E-03     24.8624E-03     201.935E-03     4.36471E-03    -36.3033E-03    -6.96353E-03     172.596E-03     4.36471E-03    -31.8384E-03     454.335E-03    -226.666E-03    -227.669E-03    -226.609E-03     454.278E-03    -227.669E-03     12.2387E-03    -47.6909E+06    -105.742E+06    -172.859E+06    -105.750E+06    -172.850E+06    -47.6909E+06    -247.543E+03         58.7477
             932     3.98378E-03     24.8517E-03     226.800E-03     6.00307E-03    -62.5281E-03    -1.25567E-03     165.528E-03     6.00307E-03     48.0393E-03     454.624E-03    -226.922E-03    -227.702E-03    -226.897E-03     454.599E-03    -227.702E-03     8.08434E-03    -68.6222E+06    -115.412E+06    -198.924E+06    -115.420E+06    -198.916E+06    -68.6222E+06    -560.212E+03         58.6180
             933     3.18678E-03     24.8465E-03     286.917E-03     7.38417E-03    -124.191E-03     2.01222E-03     160.714E-03     7.38417E-03    -95.3266E-03     454.856E-03    -227.142E-03    -227.714E-03    -227.133E-03     454.848E-03    -227.714E-03     4.66141E-03    -89.8913E+06    -124.630E+06    -219.814E+06    -124.638E+06    -219.805E+06    -89.8913E+06    -570.040E+03         58.5074
             934     2.38985E-03     24.8457E-03     403.074E-03     8.49802E-03    -241.856E-03     5.81578E-03     155.401E-03     8.49802E-03     153.223E-03     455.062E-03    -227.341E-03    -227.720E-03    -227.339E-03     455.059E-03    -227.720E-03     2.11192E-03    -110.530E+06    -132.264E+06    -240.937E+06    -132.270E+06    -240.930E+06    -110.530E+06    -471.472E+03         58.4182
             935     1.59317E-03     24.8468E-03     628.890E-03     9.85159E-03    -468.692E-03     6.23477E-03     153.964E-03     9.85159E-03    -308.079E-03     455.256E-03    -227.527E-03    -227.729E-03    -227.529E-03     455.256E-03    -227.727E-03     371.563E-06    -128.391E+06    -138.051E+06    -259.684E+06    -138.058E+06    -259.678E+06    -128.391E+06    -710.088E+03         58.3525
             936     796.536E-06     24.8490E-03         1.44153    -323.026E-03    -947.775E-03     344.698E-03     149.058E-03    -323.026E-03     967.849E-03     455.442E-03    -227.583E-03    -227.859E-03    -227.800E-03     455.442E-03    -227.642E-03     117.102E-06    -138.900E+06    -142.608E+06    -278.854E+06    -141.868E+06    -278.846E+06    -139.647E+06    -352.292E+03         58.3112
             937     13.5661E-03     24.0073E-03     310.393E-03    -34.3187E-03    -106.496E-03    -106.480E-03     310.376E-03    -34.3187E-03    -1.80456E-03     454.051E-03    -226.457E-03    -227.594E-03    -224.764E-03     451.343E-03    -226.579E-03     85.0578E-03     115.534E+06     79.8008E+06    -7.00488E+06    -7.00420E+06     79.8002E+06     115.534E+06    -10.7691E+03         60.6045
             938     12.7673E-03     23.8673E-03     296.748E-03    -30.5708E-03    -96.2132E-03    -96.1984E-03     296.734E-03    -30.5708E-03    -1.41592E-03     453.899E-03    -226.333E-03    -227.566E-03    -224.639E-03     451.327E-03    -226.687E-03     82.4829E-03     112.794E+06     72.9638E+06    -14.7545E+06    -14.7537E+06      72.963E+06     112.794E+06     18.0415E+03         60.4500
             939     11.9676E-03     23.7678E-03     283.319E-03    -26.9566E-03    -86.1739E-03    -86.1249E-03     283.270E-03    -26.9566E-03     2.17092E-03     452.784E-03    -226.003E-03    -226.781E-03    -224.327E-03     451.109E-03    -226.781E-03     67.3524E-03     104.430E+06     66.2730E+06    -23.3856E+06    -23.3839E+06     66.2713E+06     104.430E+06    -12.1570E+03         60.2895
             940     11.1684E-03     23.6722E-03     270.153E-03    -23.4763E-03    -76.2848E-03    -76.2205E-03     270.089E-03    -23.4763E-03     913.472E-06     452.658E-03    -225.803E-03    -226.856E-03    -224.431E-03     451.287E-03    -226.856E-03     60.7300E-03     90.4435E+06     59.8158E+06    -32.2439E+06    -32.2413E+06     59.8132E+06     90.4435E+06    -253.504E+03         60.1228
             941     10.3690E-03     23.5909E-03     257.423E-03    -20.1634E-03    -66.5491E-03    -66.4903E-03     257.364E-03    -20.1634E-03     211.549E-06     452.517E-03    -225.596E-03    -226.920E-03    -224.598E-03     451.518E-03    -226.920E-03     51.8541E-03     74.1282E+06     52.5887E+06    -41.0229E+06    -41.0143E+06     52.5801E+06     74.1282E+06    -88.2400E+03         59.9506
             942     9.57015E-03     23.5205E-03     245.538E-03    -17.0308E-03    -57.4129E-03    -57.1698E-03     245.295E-03    -17.0308E-03    -6.63753E-03     452.566E-03    -225.575E-03    -226.991E-03    -224.835E-03     451.826E-03    -226.991E-03     44.6508E-03     60.0076E+06     46.0243E+06    -49.3532E+06    -49.3447E+06     46.0158E+06     60.0076E+06     318.026E+03         59.7743
             943     8.77143E-03     23.4595E-03     234.244E-03    -14.0914E-03    -48.7577E-03    -48.3834E-03     233.870E-03    -14.0914E-03    -1.70381E-03     452.720E-03    -225.641E-03    -227.079E-03    -225.104E-03     452.183E-03    -227.079E-03     37.9847E-03     45.4699E+06     22.4271E+06    -57.7636E+06    -57.7624E+06     22.4259E+06     45.4699E+06     161.225E+03         59.5957
             944     7.97317E-03     23.4080E-03     223.907E-03    -11.3389E-03    -41.1343E-03    -40.3832E-03     223.156E-03    -11.3389E-03    -7.89142E-03     452.945E-03    -225.767E-03    -227.178E-03    -225.394E-03     452.572E-03    -227.178E-03     31.6296E-03     27.5000E+06    -23.8025E+06    -67.2752E+06    -67.2548E+06    -23.8229E+06     27.5000E+06    -526.392E+03         59.4175
             945     7.17501E-03     23.3657E-03     214.893E-03    -8.76608E-03    -34.8194E-03    -32.9336E-03     213.007E-03    -8.76608E-03     7.52996E-03     453.177E-03    -225.906E-03    -227.270E-03    -225.659E-03     452.929E-03    -227.270E-03     25.7238E-03     9.33659E+06    -65.5207E+06    -80.3459E+06    -77.0701E+06    -68.7966E+06     9.33659E+06    -821.719E+03         59.2425
             946     6.37708E-03     23.3314E-03     207.566E-03    -6.38293E-03    -29.8179E-03    -25.9684E-03     203.717E-03    -6.38293E-03    -9.05507E-03     453.417E-03    -226.070E-03    -227.347E-03    -225.918E-03     453.264E-03    -227.347E-03     20.1603E-03    -8.96922E+06    -86.7363E+06    -106.711E+06    -86.7807E+06    -106.666E+06    -8.96922E+06    -653.044E+03         59.0738
             947     5.57931E-03     23.3058E-03     204.580E-03    -4.23829E-03    -28.6945E-03    -19.1343E-03     195.020E-03    -4.23829E-03     21.3549E-03     453.663E-03    -226.252E-03    -227.411E-03    -226.166E-03     453.578E-03    -227.411E-03     15.0174E-03    -27.9782E+06    -96.5194E+06    -140.994E+06    -96.5310E+06    -140.983E+06    -27.9782E+06    -713.117E+03         58.9148
             948     4.78175E-03     23.2879E-03     210.498E-03    -2.36956E-03    -36.0061E-03    -13.2725E-03     187.764E-03    -2.36956E-03    -28.9309E-03     453.912E-03    -226.445E-03    -227.467E-03    -226.403E-03     453.870E-03    -227.467E-03     10.4036E-03    -47.5662E+06    -106.406E+06    -173.116E+06    -106.416E+06    -173.107E+06    -47.5662E+06    -590.874E+03         58.7688
             949     3.98435E-03     23.2765E-03     229.507E-03    -828.499E-06    -56.3692E-03    -7.82399E-03     180.962E-03    -828.499E-06     42.8131E-03     454.162E-03    -226.659E-03    -227.504E-03    -226.642E-03     454.146E-03    -227.504E-03     6.37756E-03    -68.6492E+06    -115.763E+06    -198.798E+06    -115.767E+06    -198.794E+06    -68.6492E+06    -323.134E+03         58.6388
             950     3.18711E-03     23.2712E-03     280.075E-03     509.091E-06    -108.492E-03    -4.87762E-03     176.460E-03     509.091E-06    -86.4341E-03     454.432E-03    -226.909E-03    -227.522E-03    -226.905E-03     454.427E-03    -227.522E-03     3.21168E-03    -90.5466E+06    -124.541E+06    -219.762E+06    -124.547E+06    -219.757E+06    -90.5466E+06    -603.518E+03         58.5279
             951     2.39023E-03     23.2698E-03     381.440E-03     1.58369E-03    -211.286E-03    -891.903E-06     171.046E-03     1.58369E-03     137.697E-03     454.696E-03    -227.160E-03    -227.535E-03    -227.160E-03     454.695E-03    -227.535E-03     1.05611E-03    -110.968E+06    -132.367E+06    -241.113E+06    -132.378E+06    -241.102E+06    -110.968E+06    -945.451E+03         58.4385
             952     1.59346E-03     23.2710E-03     582.721E-03     3.00806E-03    -413.280E-03    -1.02583E-03     170.467E-03     3.00806E-03    -277.727E-03     454.916E-03    -227.378E-03    -227.538E-03    -227.380E-03     454.916E-03    -227.536E-03    -111.874E-06    -128.291E+06    -138.179E+06    -260.979E+06    -138.190E+06    -260.968E+06    -128.291E+06    -819.423E+03         58.3726
             953     796.827E-06     23.2730E-03         1.30559    -289.320E-03    -843.701E-03     297.437E-03     164.452E-03    -289.320E-03     868.479E-03     455.041E-03    -227.434E-03    -227.607E-03    -227.534E-03     455.041E-03    -227.507E-03    -54.0837E-06    -138.709E+06    -142.672E+06    -280.599E+06    -141.775E+06    -280.592E+06    -139.612E+06    -27.9720E+03         58.3312
             954     13.5677E-03     22.4359E-03     322.070E-03    -41.2869E-03    -108.811E-03    -108.795E-03     322.055E-03    -41.2869E-03    -1.99696E-03     454.599E-03    -226.531E-03    -228.068E-03    -225.367E-03     451.898E-03    -226.531E-03     85.0418E-03     115.509E+06     79.7337E+06    -6.80980E+06    -6.80869E+06     79.7326E+06     115.509E+06    -39.4945E+03         60.6288
             955     12.7683E-03     22.2971E-03     309.722E-03    -38.0672E-03    -99.2982E-03    -99.2836E-03     309.707E-03    -38.0672E-03    -1.68210E-03     454.339E-03    -226.441E-03    -227.898E-03    -225.183E-03     451.784E-03    -226.601E-03     82.2283E-03     112.800E+06     72.2756E+06    -14.3533E+06    -14.3521E+06     72.2744E+06     112.800E+06     270.817E+03         60.4745
             956     11.9693E-03     22.1973E-03     297.591E-03    -34.9632E-03    -90.1206E-03    -90.0783E-03     297.549E-03    -34.9632E-03     1.64098E-03     453.245E-03    -226.316E-03    -226.929E-03    -224.959E-03     451.609E-03    -226.650E-03     66.5968E-03     104.865E+06     66.6038E+06    -22.5906E+06    -22.5888E+06     66.6021E+06     104.865E+06     379.251E+03         60.3141
             957     11.1701E-03     22.1011E-03     285.681E-03    -31.9641E-03    -81.0519E-03    -80.9956E-03     285.625E-03    -31.9641E-03     438.381E-06     453.002E-03    -226.211E-03    -226.791E-03    -225.031E-03     451.700E-03    -226.668E-03     59.1819E-03     90.7575E+06     60.1706E+06    -31.2305E+06    -31.2288E+06     60.1689E+06     90.7575E+06     287.996E+03         60.1475
             958     10.3715E-03     22.0196E-03     274.182E-03    -29.1123E-03    -72.0527E-03    -72.0021E-03     274.132E-03    -29.1123E-03    -278.169E-06     452.695E-03    -226.025E-03    -226.670E-03    -225.106E-03     451.776E-03    -226.670E-03     49.7421E-03     73.8076E+06     52.5127E+06    -40.1939E+06    -40.1894E+06     52.5081E+06     73.8076E+06     30.5369E+03         59.9752
             959     9.57288E-03     21.9483E-03     263.478E-03    -26.4193E-03    -63.5921E-03    -63.3926E-03     263.278E-03    -26.4193E-03    -6.48034E-03     452.556E-03    -225.878E-03    -226.679E-03    -225.219E-03     451.898E-03    -226.679E-03     42.0805E-03     59.7196E+06     46.2073E+06    -49.2791E+06    -49.2670E+06     46.1952E+06     59.7196E+06    -429.063E+03         59.7987
             960     8.77464E-03     21.8870E-03     253.345E-03    -23.8940E-03    -55.6901E-03    -55.3965E-03     253.051E-03    -23.8940E-03    -2.14273E-03     452.512E-03    -225.805E-03    -226.708E-03    -225.346E-03     452.054E-03    -226.708E-03     35.0411E-03     45.6021E+06     22.8712E+06    -58.5343E+06    -58.5243E+06     22.8612E+06     45.6021E+06    -561.929E+03         59.6198
             961     7.97632E-03     21.8353E-03     244.040E-03    -21.5187E-03    -48.8133E-03    -48.2497E-03     243.476E-03    -21.5187E-03    -7.45386E-03     452.591E-03    -225.845E-03    -226.746E-03    -225.542E-03     452.287E-03    -226.746E-03     28.4638E-03     28.0161E+06    -22.9081E+06    -67.8233E+06    -67.8141E+06    -22.9173E+06     28.0161E+06    -490.545E+03         59.4411
             962     7.17834E-03     21.7925E-03     235.762E-03    -19.2774E-03    -42.9761E-03    -41.6149E-03     234.401E-03    -19.2774E-03     6.22504E-03     452.651E-03    -225.877E-03    -226.774E-03    -225.687E-03     452.461E-03    -226.774E-03     22.4231E-03     9.74474E+06    -65.3499E+06    -80.4948E+06    -77.2665E+06    -68.5782E+06     9.74474E+06    -750.128E+03         59.2656
             963     6.38037E-03     21.7583E-03     228.791E-03    -17.1802E-03    -38.0099E-03    -35.3084E-03     226.090E-03    -17.1802E-03    -8.01632E-03     452.654E-03    -225.861E-03    -226.793E-03    -225.752E-03     452.545E-03    -226.793E-03     16.8550E-03    -8.60924E+06    -86.8776E+06    -106.956E+06    -86.9598E+06    -106.874E+06    -8.60924E+06    -912.986E+03         59.0962
             964     5.58242E-03     21.7324E-03     224.874E-03    -15.2819E-03    -35.6290E-03    -29.0240E-03     218.269E-03    -15.2819E-03     18.4705E-03     452.718E-03    -225.910E-03    -226.808E-03    -225.855E-03     452.664E-03    -226.808E-03     11.7572E-03    -27.5843E+06    -96.7103E+06    -141.227E+06    -96.7267E+06    -141.211E+06    -27.5843E+06    -727.627E+03         58.9365
             965     4.78464E-03     21.7141E-03     227.486E-03    -13.6192E-03    -39.4228E-03    -23.6729E-03     211.736E-03    -13.6192E-03    -25.0667E-03     452.823E-03    -226.004E-03    -226.819E-03    -225.981E-03     452.801E-03    -226.819E-03     7.31717E-03    -47.6286E+06    -106.631E+06    -173.272E+06    -106.639E+06    -173.264E+06    -47.6286E+06    -719.629E+03         58.7898
             966     3.98694E-03     21.7028E-03     239.734E-03    -12.2364E-03    -52.9565E-03    -18.7048E-03     205.483E-03    -12.2364E-03     36.5201E-03     452.932E-03    -226.111E-03    -226.822E-03    -226.104E-03     452.925E-03    -226.822E-03     3.65229E-03    -68.7041E+06    -116.214E+06    -199.171E+06    -116.226E+06    -199.159E+06    -68.7041E+06    -879.703E+03         58.6591
             967     3.18930E-03     21.6970E-03     278.149E-03    -11.0025E-03    -92.7971E-03    -16.1384E-03     201.490E-03    -11.0025E-03    -75.1147E-03     453.079E-03    -226.263E-03    -226.816E-03    -226.261E-03     453.077E-03    -226.816E-03     896.066E-06    -90.6844E+06    -124.877E+06    -219.489E+06    -124.886E+06    -219.479E+06    -90.6844E+06    -803.184E+03         58.5476
             968     2.39171E-03     21.6954E-03     359.820E-03    -9.99813E-03    -175.936E-03    -12.2867E-03     196.171E-03    -9.99813E-03     118.536E-03     453.256E-03    -226.437E-03    -226.820E-03    -226.436E-03     453.255E-03    -226.820E-03    -821.525E-06    -111.873E+06    -132.475E+06    -241.120E+06    -132.485E+06    -241.110E+06    -111.873E+06    -994.990E+03         58.4576
             969     1.59418E-03     21.6965E-03     528.948E-03    -8.48450E-03    -345.811E-03    -13.0024E-03     196.139E-03    -8.48450E-03    -239.457E-03     453.487E-03    -226.649E-03    -226.838E-03    -226.648E-03     453.486E-03    -226.838E-03    -1.41581E-03    -128.767E+06    -138.420E+06    -262.908E+06    -138.434E+06    -262.894E+06    -128.767E+06    -1.03717E+06         58.3913
             970     796.937E-06     21.6978E-03         1.14211    -253.956E-03    -712.898E-03     239.195E-03     190.013E-03    -253.956E-03     747.327E-03     453.671E-03    -226.733E-03    -226.938E-03    -226.732E-03     453.670E-03    -226.938E-03    -1.04291E-03    -138.377E+06    -142.598E+06    -282.515E+06    -141.701E+06    -282.510E+06    -139.280E+06    -339.937E+03         58.3497
             971     13.5674E-03     20.8644E-03     337.588E-03    -51.3160E-03    -111.643E-03    -111.628E-03     337.573E-03    -51.3160E-03    -1.95253E-03     455.343E-03    -226.478E-03    -228.865E-03    -226.184E-03     452.662E-03    -226.478E-03     84.8634E-03     115.159E+06     79.5515E+06    -6.95758E+06    -6.95510E+06     79.5490E+06     115.159E+06    -27.9882E+03         60.6550
             972     12.7694E-03     20.7254E-03     326.989E-03    -48.7538E-03    -103.265E-03    -103.250E-03     326.974E-03    -48.7538E-03    -1.81324E-03     455.347E-03    -226.482E-03    -228.865E-03    -226.362E-03     452.844E-03    -226.482E-03     81.4449E-03     112.541E+06     71.8573E+06    -14.6593E+06    -14.6566E+06     71.8547E+06     112.541E+06    -104.943E+03         60.5009
             973     11.9715E-03     20.6251E-03     316.590E-03    -46.2867E-03    -95.2505E-03    -95.2135E-03     316.553E-03    -46.2867E-03     1.14925E-03     454.320E-03    -226.436E-03    -227.884E-03    -226.324E-03     452.761E-03    -226.436E-03     65.1002E-03     105.167E+06     66.5315E+06    -22.7093E+06    -22.7066E+06     66.5287E+06     105.167E+06     41.6037E+03         60.3405
             974     11.1740E-03     20.5293E-03     306.404E-03    -43.8910E-03    -87.3444E-03    -87.2949E-03     306.355E-03    -43.8910E-03     15.3272E-06     453.845E-03    -226.332E-03    -227.512E-03    -226.295E-03     452.636E-03    -226.341E-03     57.0550E-03     91.4239E+06     60.4943E+06    -31.0578E+06    -31.0554E+06     60.4919E+06     91.4239E+06     58.6203E+03         60.1737
             975     10.3761E-03     20.4474E-03     296.656E-03    -41.6133E-03    -79.5098E-03    -79.4658E-03     296.612E-03    -41.6133E-03    -689.009E-06     453.239E-03    -226.160E-03    -227.079E-03    -226.191E-03     452.415E-03    -226.225E-03     47.0750E-03     75.1274E+06     52.8543E+06    -39.4744E+06    -39.4700E+06       52.85E+06     75.1274E+06    -15.1338E+03         60.0012
             976     9.57853E-03     20.3762E-03     287.575E-03    -39.4599E-03    -72.1123E-03    -71.9504E-03     287.413E-03    -39.4599E-03    -6.29000E-03     452.733E-03    -225.931E-03    -226.802E-03    -226.063E-03     452.172E-03    -226.109E-03     38.7660E-03     61.2090E+06     46.8547E+06    -48.2553E+06    -48.2374E+06     46.8368E+06     61.2090E+06    -3.07577E+03         59.8242
             977     8.78056E-03     20.3149E-03     278.953E-03    -37.4393E-03    -65.2408E-03    -65.0159E-03     278.728E-03    -37.4393E-03    -2.63908E-03     452.339E-03    -225.750E-03    -226.589E-03    -225.964E-03     451.975E-03    -226.011E-03     31.1146E-03     46.6466E+06     23.4823E+06    -57.7794E+06    -57.7602E+06     23.4631E+06     46.6466E+06    -351.400E+03         59.6448
             978     7.98286E-03     20.2632E-03     271.027E-03    -35.5301E-03    -59.3090E-03    -58.9059E-03     270.623E-03    -35.5301E-03    -6.95082E-03     452.061E-03    -225.650E-03    -226.411E-03    -225.921E-03     451.841E-03    -225.920E-03     24.0256E-03     28.6747E+06    -22.3896E+06    -67.6402E+06    -67.6202E+06    -22.4096E+06     28.6747E+06    -735.901E+03         59.4654
             979     7.18499E-03     20.2206E-03     263.897E-03    -33.7088E-03    -54.2199E-03    -53.2973E-03     262.975E-03    -33.7088E-03     4.80204E-03     451.757E-03    -225.531E-03    -226.226E-03    -225.817E-03     451.636E-03    -225.819E-03     17.5839E-03     10.2414E+06    -64.8799E+06    -80.2084E+06    -77.2608E+06    -67.8275E+06     10.2414E+06    -852.730E+03         59.2889
             980     6.38700E-03     20.1868E-03     257.697E-03    -31.9792E-03    -49.6953E-03    -47.9513E-03     255.952E-03    -31.9792E-03    -6.74526E-03     451.409E-03    -225.385E-03    -226.024E-03    -225.640E-03     451.351E-03    -225.711E-03     11.7990E-03    -8.18431E+06    -87.0210E+06    -106.999E+06    -87.1057E+06    -106.914E+06    -8.18431E+06    -925.420E+03         59.1186
             981     5.58890E-03     20.1609E-03     253.416E-03    -30.3975E-03    -46.5831E-03    -42.4512E-03     249.284E-03    -30.3975E-03     15.2394E-03     451.047E-03    -225.267E-03    -225.780E-03    -225.420E-03     451.025E-03    -225.605E-03     6.72064E-03    -27.2655E+06    -96.9907E+06    -141.860E+06    -97.0084E+06    -141.843E+06    -27.2655E+06    -768.112E+03         58.9578
             982     4.79059E-03     20.1430E-03     253.431E-03    -29.0129E-03    -47.4776E-03    -37.7026E-03     243.656E-03    -29.0129E-03    -20.7952E-03     450.745E-03    -225.178E-03    -225.567E-03    -225.230E-03     450.738E-03    -225.508E-03     2.49964E-03    -47.0632E+06    -106.422E+06    -172.698E+06    -106.430E+06    -172.691E+06    -47.0632E+06    -692.475E+03         58.8099
             983     3.99213E-03     20.1317E-03     259.614E-03    -27.8671E-03    -54.7291E-03    -33.3830E-03     238.268E-03    -27.8671E-03     29.4631E-03     450.528E-03    -225.100E-03    -225.429E-03    -225.107E-03     450.525E-03    -225.418E-03    -681.031E-06    -68.5455E+06    -116.211E+06    -198.913E+06    -116.227E+06    -198.897E+06    -68.5455E+06    -1.13113E+06         58.6782
             984     3.19369E-03     20.1259E-03     285.200E-03    -26.8202E-03    -81.5571E-03    -31.3441E-03     234.987E-03    -26.8202E-03    -62.4710E-03     450.379E-03    -225.039E-03    -225.340E-03    -225.034E-03     450.374E-03    -225.340E-03    -2.78320E-03    -90.6314E+06     -125.38E+06    -220.173E+06    -125.404E+06    -220.149E+06    -90.6314E+06    -1.45808E+06         58.5656
             985     2.39521E-03     20.1244E-03     343.867E-03    -25.9263E-03    -141.780E-03    -28.0474E-03     230.134E-03    -25.9263E-03     96.6535E-03     450.362E-03    -225.075E-03    -225.287E-03    -225.075E-03     450.355E-03    -225.280E-03    -3.71808E-03    -111.947E+06    -132.943E+06    -241.526E+06    -132.959E+06    -241.511E+06    -111.947E+06    -1.15587E+06         58.4749
             986     1.59691E-03     20.1251E-03     474.883E-03    -24.4540E-03    -273.298E-03    -28.9203E-03     230.505E-03    -24.4540E-03    -196.032E-03     450.418E-03    -225.157E-03    -225.261E-03    -225.180E-03     450.413E-03    -225.233E-03    -3.50709E-03    -129.663E+06    -138.837E+06    -264.508E+06    -138.846E+06    -264.498E+06    -129.663E+06     -921.24E+03         58.4079
             987     798.571E-06     20.1264E-03     964.737E-03    -221.306E-03    -565.746E-03     174.599E-03     224.393E-03    -221.306E-03     612.992E-03     450.398E-03    -225.115E-03    -225.283E-03    -225.148E-03     450.396E-03    -225.248E-03    -2.39512E-03    -139.634E+06    -143.276E+06    -284.489E+06    -142.592E+06    -284.475E+06    -140.332E+06    -1.00470E+06         58.3658
             988     13.5689E-03     19.2915E-03     356.587E-03    -64.1119E-03    -115.019E-03    -115.004E-03     356.573E-03    -64.1119E-03    -1.84935E-03     456.666E-03    -226.402E-03    -230.265E-03    -227.630E-03     454.031E-03    -226.402E-03     84.2725E-03     115.279E+06     79.8030E+06    -6.92265E+06    -6.91892E+06     79.7993E+06     115.279E+06     239.761E+03         60.6816
             989     12.7720E-03     19.1512E-03     348.104E-03    -62.3107E-03    -108.062E-03    -108.047E-03     348.088E-03    -62.3107E-03    -1.87628E-03     456.751E-03    -226.303E-03    -230.448E-03    -227.992E-03     454.294E-03    -226.303E-03     80.8206E-03     113.069E+06     72.9658E+06    -14.4221E+06    -14.4176E+06     72.9614E+06     113.069E+06    -176.344E+03         60.5274
             990     11.9757E-03     19.0510E-03     339.855E-03    -60.5804E-03    -101.496E-03    -101.463E-03     339.821E-03    -60.5804E-03     750.592E-06     455.781E-03    -226.126E-03    -229.655E-03    -228.161E-03     454.288E-03    -226.126E-03     63.8619E-03     105.373E+06     66.4307E+06    -22.6675E+06    -22.6563E+06     66.4196E+06     105.373E+06    -760.567E+03         60.3669
             991     11.1792E-03     18.9555E-03     331.812E-03    -58.8813E-03    -95.0516E-03    -95.0074E-03     331.768E-03    -58.8813E-03    -297.421E-06     455.198E-03    -225.870E-03    -229.328E-03    -228.206E-03     454.076E-03    -225.870E-03     55.0671E-03     91.4665E+06     60.1276E+06    -30.9294E+06    -30.9186E+06     60.1167E+06     91.4665E+06    -744.131E+03         60.1999
             992     10.3832E-03     18.8741E-03     324.152E-03    -57.2628E-03    -88.6887E-03    -88.6497E-03     324.113E-03    -57.2628E-03    -997.379E-06     454.287E-03    -225.570E-03    -228.717E-03    -227.990E-03     453.559E-03    -225.570E-03     44.2807E-03     75.3481E+06     52.4907E+06    -39.5683E+06    -39.5648E+06     52.4871E+06     75.3481E+06    -561.111E+03         60.0270
             993     9.58663E-03     18.8036E-03     317.047E-03    -55.7256E-03    -82.6785E-03    -82.5477E-03     316.916E-03    -55.7256E-03    -6.02189E-03     453.377E-03    -225.253E-03    -228.124E-03    -227.665E-03     452.918E-03    -225.253E-03     35.0219E-03     61.6703E+06     46.2747E+06    -48.6406E+06    -48.6251E+06     46.2593E+06     61.6703E+06    -225.585E+03         59.8495
             994     8.79017E-03     18.7429E-03     310.339E-03    -54.2752E-03    -77.1579E-03    -76.9867E-03     310.168E-03    -54.2752E-03    -3.06170E-03     452.477E-03    -224.935E-03    -227.542E-03    -227.277E-03     452.212E-03    -224.935E-03     26.3975E-03     47.9220E+06     24.5622E+06    -57.3813E+06    -57.3612E+06     24.5421E+06     47.9220E+06     116.559E+03         59.6693
             995     7.99320E-03     18.6919E-03     304.112E-03    -52.8878E-03    -72.4061E-03    -72.1264E-03     303.833E-03    -52.8878E-03    -6.35035E-03     451.598E-03    -224.613E-03    -226.985E-03    -226.851E-03     451.464E-03    -224.613E-03     18.4091E-03     30.0892E+06    -20.6900E+06    -66.7524E+06    -66.7299E+06    -20.7125E+06     30.0892E+06    -314.508E+03         59.4890
             996     7.19593E-03     18.6504E-03     298.417E-03    -51.5402E-03    -68.2678E-03    -67.6725E-03     297.822E-03    -51.5402E-03     3.35060E-03     450.672E-03    -224.275E-03    -226.397E-03    -226.341E-03     450.617E-03    -224.275E-03     11.2451E-03     11.0221E+06    -64.3725E+06    -79.9095E+06    -76.8805E+06    -67.4015E+06     11.0221E+06    -771.073E+03         59.3115
             997     6.39828E-03     18.6173E-03     293.292E-03    -50.2346E-03    -64.4465E-03    -63.3931E-03     292.239E-03    -50.2346E-03    -5.43744E-03     449.643E-03    -223.927E-03    -225.716E-03    -225.698E-03     449.625E-03    -223.927E-03     4.94274E-03    -7.28516E+06    -86.5460E+06    -106.541E+06    -86.6091E+06    -106.478E+06    -7.28516E+06    -854.883E+03         59.1399
             998     5.60003E-03     18.5930E-03     289.312E-03    -49.0212E-03    -61.2933E-03    -58.9187E-03     286.937E-03    -49.0212E-03     11.9068E-03     448.537E-03    -223.587E-03    -224.949E-03    -224.941E-03     448.529E-03    -223.587E-03    -320.136E-06    -26.3488E+06    -96.4550E+06    -141.711E+06    -96.4828E+06    -141.684E+06    -26.3488E+06    -1.06446E+06         58.9778
             999     4.80111E-03     18.5759E-03     287.943E-03    -47.9574E-03    -60.4201E-03    -54.9283E-03     282.451E-03    -47.9574E-03    -16.4447E-03     447.483E-03    -223.272E-03    -224.211E-03    -224.197E-03     447.469E-03    -223.272E-03    -4.37684E-03    -46.4014E+06    -106.450E+06    -172.724E+06    -106.469E+06    -172.705E+06    -46.4014E+06    -1.01992E+06         58.8285
            1000     4.00172E-03     18.5655E-03     289.866E-03    -47.0870E-03    -63.1479E-03    -51.3980E-03     278.117E-03    -47.0870E-03     22.0943E-03     446.553E-03    -222.962E-03    -223.591E-03    -223.541E-03     446.529E-03    -222.988E-03    -7.09695E-03    -67.7450E+06    -115.783E+06    -197.744E+06    -115.798E+06    -197.729E+06    -67.7450E+06    -1.10122E+06         58.6954
            1001     3.20174E-03     18.5604E-03     304.323E-03    -46.2728E-03    -78.6753E-03    -49.9203E-03     275.568E-03    -46.2728E-03    -49.5879E-03     445.808E-03    -222.689E-03    -223.118E-03    -223.031E-03     445.777E-03    -222.746E-03    -8.37219E-03    -90.2470E+06    -124.917E+06    -220.700E+06    -124.940E+06    -220.677E+06    -90.2470E+06    -1.46104E+06         58.5815
            1002     2.40148E-03     18.5593E-03     340.370E-03    -45.5550E-03    -116.103E-03    -47.2621E-03     271.530E-03    -45.5550E-03     74.0070E-03     445.273E-03    -222.526E-03    -222.748E-03    -222.689E-03     445.246E-03    -222.557E-03    -8.11085E-03    -111.670E+06    -133.132E+06    -243.306E+06    -133.148E+06    -243.290E+06    -111.670E+06    -1.17190E+06         58.4896
            1003     1.60106E-03     18.5599E-03     431.032E-03    -44.2459E-03    -207.034E-03    -48.3166E-03     272.315E-03    -44.2459E-03    -151.740E-03     444.917E-03    -222.421E-03    -222.496E-03    -222.475E-03     444.899E-03    -222.425E-03    -6.48843E-03    -129.428E+06    -139.068E+06    -265.363E+06    -139.071E+06    -265.359E+06    -129.428E+06    -621.232E+03         58.4217
            1004     800.545E-06     18.5622E-03     790.649E-03    -192.816E-03    -418.018E-03     106.379E-03     266.252E-03    -192.816E-03     474.124E-03     444.732E-03    -222.316E-03    -222.416E-03    -222.345E-03     444.725E-03    -222.380E-03    -3.89512E-03    -140.347E+06    -143.244E+06    -286.500E+06    -142.557E+06    -286.488E+06    -141.045E+06    -478.935E+03         58.3791
            1005     13.5701E-03     17.7160E-03     378.333E-03    -79.2610E-03    -118.742E-03    -118.726E-03     378.318E-03    -79.2610E-03    -1.85862E-03     458.146E-03    -226.304E-03    -231.842E-03    -229.215E-03     455.518E-03    -226.304E-03     84.1999E-03     115.730E+06     79.9678E+06    -6.81842E+06    -6.81477E+06     79.9642E+06     115.730E+06    -71.6535E+03         60.7064
            1006     12.7746E-03     17.5750E-03     372.385E-03    -78.2999E-03    -113.486E-03    -113.470E-03     372.369E-03    -78.2999E-03    -1.93029E-03     458.483E-03    -226.086E-03    -232.397E-03    -229.918E-03     456.004E-03    -226.086E-03     81.3191E-03     113.465E+06     73.9064E+06    -14.0310E+06    -14.0267E+06     73.9020E+06     113.465E+06    -161.871E+03         60.5520
            1007     11.9797E-03     17.4739E-03     366.688E-03    -77.3820E-03    -108.656E-03    -108.625E-03     366.657E-03    -77.3820E-03     475.767E-06     457.718E-03    -225.751E-03    -231.967E-03    -230.508E-03     456.259E-03    -225.751E-03     63.2810E-03     105.645E+06     66.8948E+06    -22.3523E+06    -22.3424E+06     66.8849E+06     105.645E+06    -602.934E+03         60.3913
            1008     11.1859E-03     17.3789E-03     361.108E-03    -76.4479E-03    -103.936E-03    -103.895E-03     361.068E-03    -76.4479E-03    -498.090E-06     457.131E-03    -225.288E-03    -231.843E-03    -230.787E-03     456.075E-03    -225.288E-03     53.5185E-03     91.1750E+06     59.6340E+06    -31.3606E+06    -31.3492E+06     59.6226E+06     91.1750E+06    -743.826E+03         60.2240
            1009     10.3918E-03     17.2985E-03     355.804E-03    -75.5501E-03    -99.2699E-03    -99.2343E-03     355.769E-03    -75.5501E-03    -1.15691E-03     456.076E-03    -224.733E-03    -231.344E-03    -230.699E-03     455.432E-03    -224.733E-03     41.6967E-03     74.8895E+06     52.3319E+06    -40.2691E+06    -40.2630E+06     52.3258E+06     74.8895E+06    -705.914E+03         60.0507
            1010     9.59777E-03     17.2291E-03     350.955E-03    -74.6834E-03    -94.8910E-03    -94.7874E-03     350.852E-03    -74.6834E-03    -5.49663E-03     454.767E-03    -224.118E-03    -230.649E-03    -230.283E-03     454.402E-03    -224.118E-03     31.1833E-03     61.5978E+06     46.0125E+06    -49.2065E+06    -49.1948E+06     46.0008E+06     61.5978E+06    -976.647E+03         59.8727
            1011     8.80311E-03     17.1701E-03     346.454E-03    -73.8474E-03    -90.9791E-03    -90.8500E-03     346.325E-03    -73.8474E-03    -3.16747E-03     453.237E-03    -223.465E-03    -229.773E-03    -229.596E-03     453.061E-03    -223.465E-03     21.2309E-03     47.8974E+06     24.4952E+06    -58.6709E+06    -58.6312E+06     24.4554E+06     47.8974E+06    -1.02590E+06         59.6919
            1012     8.00799E-03     17.1212E-03     342.206E-03    -73.0146E-03    -87.6521E-03    -87.4613E-03     342.016E-03    -73.0146E-03    -5.55130E-03     451.560E-03    -222.777E-03    -228.783E-03    -228.720E-03     451.496E-03    -222.777E-03     11.8918E-03     30.6990E+06    -19.4738E+06    -67.7420E+06    -67.7083E+06    -19.5075E+06     30.6990E+06    -591.469E+03         59.5108
            1013     7.21206E-03     17.0817E-03     338.199E-03    -72.1633E-03    -84.7030E-03    -84.3297E-03     337.826E-03    -72.1633E-03     2.13005E-03     449.631E-03    -222.051E-03    -227.580E-03    -227.563E-03     449.615E-03    -222.051E-03     3.56660E-03     12.0757E+06    -63.0700E+06    -79.7813E+06    -76.5760E+06    -66.2754E+06     12.0757E+06    -593.950E+03         59.3322
            1014     6.41504E-03     17.0512E-03     334.417E-03    -71.3003E-03    -81.7915E-03    -81.1865E-03     333.812E-03    -71.3003E-03    -4.05474E-03     447.452E-03    -221.311E-03    -226.141E-03    -226.124E-03     447.435E-03    -221.311E-03    -3.54850E-03    -6.35016E+06    -86.2048E+06    -105.720E+06    -86.2826E+06    -105.642E+06    -6.35016E+06    -972.538E+03         59.1594
            1015     5.61682E-03     17.0294E-03     331.272E-03    -70.4727E-03    -79.1308E-03    -77.8511E-03     329.992E-03    -70.4727E-03     8.92871E-03     445.173E-03    -220.584E-03    -224.589E-03    -224.546E-03     445.131E-03    -220.584E-03    -9.18055E-03    -25.4649E+06    -96.3165E+06    -140.911E+06    -96.3463E+06    -140.881E+06    -25.4649E+06    -1.05722E+06         58.9958
            1016     4.81739E-03     17.0150E-03     329.587E-03    -69.7360E-03    -77.6370E-03    -74.8066E-03     326.757E-03    -69.7360E-03    -12.1033E-03     442.908E-03    -219.897E-03    -223.011E-03    -222.936E-03     442.833E-03    -219.897E-03    -13.1215E-03    -45.8682E+06    -106.008E+06    -172.359E+06    -106.035E+06    -172.331E+06    -45.8682E+06    -1.24310E+06         58.8449
            1017     4.01654E-03     17.0070E-03     329.336E-03    -69.1290E-03    -77.9443E-03    -72.1939E-03     323.586E-03    -69.1290E-03     15.1776E-03     440.764E-03    -219.271E-03    -221.493E-03    -221.396E-03     440.668E-03    -219.271E-03    -15.2835E-03    -67.6722E+06    -115.562E+06    -197.366E+06    -115.587E+06    -197.340E+06    -67.6722E+06    -1.38240E+06         58.7101
            1018     3.21465E-03     17.0039E-03     336.097E-03    -68.5457E-03    -85.4800E-03    -71.1575E-03     321.774E-03    -68.5457E-03    -37.2673E-03     438.911E-03    -218.740E-03    -220.171E-03    -220.073E-03     438.814E-03    -218.740E-03    -15.5126E-03    -90.1458E+06    -124.668E+06    -221.210E+06    -124.682E+06    -221.196E+06    -90.1458E+06    -1.09198E+06         58.5947
            1019     2.41186E-03     17.0041E-03     354.162E-03    -68.0339E-03    -104.638E-03    -69.1453E-03     318.669E-03    -68.0339E-03     52.7668E-03     437.417E-03    -218.327E-03    -219.090E-03    -219.013E-03     437.340E-03    -218.327E-03    -13.8589E-03    -111.646E+06    -132.476E+06    -244.404E+06    -132.484E+06    -244.397E+06    -111.646E+06    -860.154E+03         58.5014
            1020     1.60816E-03     17.0063E-03     407.792E-03    -66.8465E-03    -158.844E-03    -70.7518E-03     319.699E-03    -66.8465E-03    -110.191E-03     436.400E-03    -218.052E-03    -218.348E-03    -218.298E-03     436.354E-03    -218.056E-03    -10.5566E-03    -129.318E+06    -138.721E+06    -266.402E+06    -138.725E+06    -266.398E+06    -129.318E+06    -509.282E+03         58.4324
            1021     804.066E-06     17.0083E-03     642.520E-03    -170.914E-03    -288.646E-03     39.1916E-03     314.682E-03    -170.914E-03     344.619E-03     435.912E-03    -217.819E-03    -218.093E-03    -217.866E-03     435.894E-03    -218.029E-03    -6.27599E-03    -139.769E+06    -142.577E+06    -287.281E+06    -142.583E+06    -287.275E+06    -139.769E+06    -61.9217E+03         58.3891
            1022     13.5716E-03     16.1397E-03     402.244E-03    -96.2534E-03    -122.706E-03    -122.691E-03     402.229E-03    -96.2534E-03    -1.73791E-03     459.709E-03    -226.193E-03    -233.516E-03    -230.894E-03     457.087E-03    -226.193E-03     84.0743E-03     115.735E+06     79.8638E+06    -7.06165E+06    -7.05869E+06     79.8608E+06     115.735E+06    -324.590E+03         60.7275
            1023     12.7772E-03     15.9949E-03     399.084E-03    -96.1843E-03    -119.375E-03    -119.358E-03     399.067E-03    -96.1843E-03    -1.84941E-03     460.480E-03    -225.846E-03    -234.634E-03    -232.127E-03     457.972E-03    -225.846E-03     81.8604E-03     113.482E+06     73.9222E+06    -14.9000E+06    -14.8982E+06     73.9204E+06     113.482E+06    -231.924E+03         60.5729
            1024     11.9851E-03     15.8935E-03     396.144E-03    -96.1299E-03    -116.439E-03    -116.409E-03     396.115E-03    -96.1299E-03     367.063E-06     459.954E-03    -225.330E-03    -234.624E-03    -233.202E-03     458.533E-03    -225.330E-03     62.6765E-03     106.099E+06     67.5303E+06    -23.2248E+06    -23.2235E+06     67.5291E+06     106.099E+06    -220.049E+03         60.4119
            1025     11.1930E-03     15.7987E-03     393.254E-03    -96.0087E-03    -113.618E-03    -113.580E-03     393.216E-03    -96.0087E-03    -550.886E-06     459.575E-03    -224.625E-03    -234.950E-03    -233.949E-03     458.573E-03    -224.625E-03     52.2675E-03     91.9579E+06     60.0685E+06    -31.7618E+06    -31.7554E+06     60.0621E+06     91.9579E+06    -607.023E+03         60.2443
            1026     10.4020E-03     15.7189E-03     390.593E-03    -95.8734E-03    -110.876E-03    -110.842E-03     390.559E-03    -95.8734E-03    -1.10923E-03     458.589E-03    -223.755E-03    -234.834E-03    -234.262E-03     458.016E-03    -223.755E-03     39.3317E-03     75.8680E+06     52.4662E+06    -40.3334E+06    -40.3203E+06     52.4531E+06     75.8680E+06    -1.08887E+06         60.0707
            1027     9.61087E-03     15.6517E-03     388.229E-03    -95.7076E-03    -108.327E-03    -108.245E-03     388.147E-03    -95.7076E-03    -4.75619E-03     457.001E-03    -222.748E-03    -234.253E-03    -233.967E-03     456.715E-03    -222.748E-03     27.4832E-03     62.2687E+06     46.4797E+06    -49.0758E+06    -49.0577E+06     46.4615E+06     62.2687E+06    -1.26774E+06         59.8924
            1028     8.81943E-03     15.5952E-03     386.049E-03    -95.5075E-03    -106.156E-03    -106.058E-03     385.951E-03    -95.5075E-03    -3.02037E-03     454.870E-03    -221.631E-03    -233.239E-03    -233.131E-03     454.762E-03    -221.631E-03     15.9803E-03     48.0922E+06     24.9737E+06    -58.3673E+06    -58.3251E+06     24.9315E+06     48.0922E+06    -1.62913E+06         59.7112
            1029     8.02709E-03     15.5497E-03     383.918E-03    -95.2441E-03    -104.375E-03    -104.246E-03     383.789E-03    -95.2441E-03    -4.58162E-03     452.174E-03    -220.425E-03    -231.749E-03    -231.725E-03     452.150E-03    -220.425E-03     5.02919E-03     30.5568E+06    -19.5333E+06    -68.0543E+06    -67.9500E+06    -19.6377E+06     30.5568E+06    -1.72871E+06         59.5294
            1030     7.23338E-03     15.5144E-03     381.826E-03    -94.8937E-03    -102.831E-03    -102.600E-03     381.595E-03    -94.8937E-03     1.19928E-03     448.862E-03    -219.146E-03    -229.716E-03    -229.693E-03     448.839E-03    -219.146E-03    -4.71081E-03     12.0295E+06    -63.4679E+06    -79.5373E+06    -77.5515E+06    -65.4537E+06     12.0295E+06    -1.25899E+06         59.3500
            1031     6.43777E-03     15.4888E-03     379.661E-03    -94.4627E-03    -101.115E-03    -100.781E-03     379.328E-03    -94.4627E-03    -2.64632E-03     445.092E-03    -217.835E-03    -227.258E-03    -227.182E-03     445.017E-03    -217.835E-03    -12.9079E-03    -6.71370E+06    -86.8880E+06    -104.810E+06    -87.1179E+06    -104.580E+06    -6.71370E+06    -969.383E+03         59.1761
            1032     5.63996E-03     15.4719E-03     377.692E-03    -94.0002E-03    -99.2838E-03    -98.6328E-03     377.041E-03    -94.0002E-03     6.45195E-03     441.085E-03    -216.543E-03    -224.542E-03    -224.391E-03     440.934E-03    -216.543E-03    -19.1421E-03    -25.8107E+06    -96.4398E+06    -139.815E+06    -96.4763E+06    -139.778E+06    -25.8107E+06    -1.13975E+06         59.0112
            1033     4.83977E-03     15.4624E-03     376.355E-03    -93.5647E-03    -97.9456E-03    -96.6015E-03     375.011E-03    -93.5647E-03    -8.12101E-03     437.018E-03    -215.317E-03    -221.700E-03    -221.486E-03     436.803E-03    -215.317E-03    -23.1057E-03    -46.1440E+06    -106.312E+06    -171.523E+06    -106.348E+06    -171.487E+06    -46.1440E+06    -1.29105E+06         58.8587
            1034     4.03738E-03     15.4591E-03     375.539E-03    -93.1925E-03    -97.4418E-03    -94.9177E-03     373.015E-03    -93.1925E-03     9.50729E-03     433.092E-03    -214.200E-03    -218.892E-03    -218.649E-03     432.850E-03    -214.200E-03    -24.6330E-03    -68.4816E+06    -116.399E+06    -197.870E+06    -116.418E+06    -197.851E+06    -68.4816E+06    -1.01368E+06         58.7222
            1035     3.23266E-03     15.4601E-03     378.251E-03    -92.8060E-03    -100.640E-03    -94.3886E-03     372.000E-03    -92.8060E-03    -26.4335E-03     429.573E-03    -213.249E-03    -216.324E-03    -216.099E-03     429.348E-03    -213.249E-03    -23.6426E-03    -91.2337E+06    -125.520E+06    -221.370E+06    -125.526E+06    -221.364E+06    -91.2337E+06    -604.233E+03         58.6050
            1036     2.42599E-03     15.4637E-03     385.304E-03    -92.4283E-03    -108.671E-03    -93.1677E-03     369.801E-03    -92.4283E-03     34.6685E-03     426.742E-03    -212.504E-03    -214.238E-03    -214.070E-03     426.574E-03    -212.504E-03    -20.3302E-03    -112.918E+06    -133.785E+06    -244.960E+06    -133.790E+06    -244.955E+06    -112.918E+06    -296.912E+03         58.5101
            1037     1.61808E-03     15.4682E-03     411.493E-03    -91.4329E-03    -135.245E-03    -94.6487E-03     370.897E-03    -91.4329E-03    -74.1791E-03     424.737E-03    -211.975E-03    -212.761E-03    -212.666E-03     424.641E-03    -211.975E-03    -15.0274E-03    -131.256E+06    -140.328E+06    -266.792E+06    -140.333E+06    -266.788E+06    -131.256E+06     11.3255E+03         58.4399
            1038     809.363E-06     15.4713E-03     540.581E-03    -150.413E-03    -204.452E-03    -20.9602E-03     366.907E-03    -160.230E-03     234.749E-03     423.550E-03    -211.557E-03    -211.993E-03    -211.727E-03     423.515E-03    -211.789E-03    -8.73894E-03    -141.633E+06    -144.398E+06    -287.182E+06    -143.894E+06    -287.174E+06    -142.145E+06    -690.133E+03         58.3957
            1039     13.5731E-03     14.5609E-03     427.664E-03    -114.518E-03    -126.873E-03    -126.857E-03     427.648E-03    -114.518E-03    -1.54550E-03     461.599E-03    -226.072E-03    -235.527E-03    -232.876E-03     458.947E-03    -226.072E-03     84.3695E-03     116.222E+06     80.3508E+06    -6.95917E+06    -6.95757E+06     80.3492E+06     116.222E+06    -58.0824E+03         60.7435
            1040     12.7811E-03     14.4113E-03     427.359E-03    -115.359E-03    -125.554E-03    -125.538E-03     427.343E-03    -115.359E-03    -1.62293E-03     462.730E-03    -225.581E-03    -237.149E-03    -234.556E-03     460.137E-03    -225.581E-03     83.3004E-03     113.836E+06     73.3578E+06    -14.6852E+06    -14.6838E+06     73.3564E+06     113.836E+06    -152.078E+03         60.5886
            1041     11.9902E-03     14.3098E-03     427.300E-03    -116.187E-03    -124.657E-03    -124.629E-03     427.272E-03    -116.187E-03     463.123E-06     462.393E-03    -224.870E-03    -237.523E-03    -236.105E-03     460.975E-03    -224.870E-03     62.8410E-03     107.090E+06     67.8512E+06    -22.5061E+06    -22.5036E+06     67.8487E+06     107.090E+06    -429.649E+03         60.4273
            1042     11.2014E-03     14.2138E-03     427.261E-03    -116.895E-03    -123.867E-03    -123.832E-03     427.227E-03    -116.895E-03    -441.682E-06     462.409E-03    -223.896E-03    -238.513E-03    -237.528E-03     461.424E-03    -223.896E-03     51.9820E-03     93.1603E+06     61.2152E+06    -31.0464E+06    -31.0387E+06     61.2075E+06     93.1603E+06    -769.121E+03         60.2596
            1043     10.4133E-03     14.1349E-03     427.364E-03    -117.535E-03    -123.118E-03    -123.087E-03     427.333E-03    -117.535E-03    -919.961E-06     461.662E-03    -222.666E-03    -238.996E-03    -238.471E-03     461.137E-03    -222.666E-03     37.7334E-03     76.8784E+06     52.8454E+06    -39.8161E+06    -39.7973E+06     52.8267E+06     76.8784E+06    -1.29632E+06         60.0860
            1044     9.62594E-03     14.0696E-03     427.578E-03    -118.063E-03    -122.506E-03    -122.427E-03     427.512E-03    -118.076E-03    -3.97913E-03     459.962E-03    -221.196E-03    -238.766E-03    -238.537E-03     459.732E-03    -221.196E-03     24.4670E-03     62.5898E+06     46.5264E+06    -48.8137E+06    -48.7876E+06     46.5003E+06     62.5898E+06    -1.56631E+06         59.9077
            1045     8.83834E-03     14.0166E-03     427.786E-03    -118.496E-03    -122.146E-03    -122.058E-03     427.711E-03    -118.509E-03    -2.83884E-03     457.216E-03    -219.518E-03    -237.698E-03    -237.634E-03     457.153E-03    -219.518E-03     11.3584E-03     47.9001E+06     25.9126E+06    -58.0987E+06    -58.0635E+06     25.8775E+06     47.9001E+06    -1.63902E+06         59.7264
            1046     8.04971E-03     13.9764E-03     427.833E-03    -118.801E-03    -121.982E-03    -121.895E-03     427.745E-03    -118.801E-03    -3.63457E-03     453.354E-03    -217.676E-03    -235.678E-03    -235.662E-03     453.338E-03    -217.676E-03    -1.18011E-03     29.9277E+06    -18.7978E+06    -67.6713E+06    -67.5720E+06    -18.8971E+06     29.9277E+06    -1.72104E+06         59.5445
            1047     7.25893E-03     13.9479E-03     427.711E-03    -118.930E-03    -121.901E-03    -121.761E-03     427.571E-03    -118.930E-03     419.695E-06     448.470E-03    -215.709E-03    -232.760E-03    -232.691E-03     448.400E-03    -215.709E-03    -12.2656E-03     10.6809E+06    -63.4616E+06    -79.2982E+06    -77.3442E+06    -65.4156E+06     10.6809E+06    -1.69965E+06         59.3647
            1048     6.46537E-03     13.9299E-03     427.268E-03    -118.902E-03    -121.515E-03    -121.340E-03     427.093E-03    -118.902E-03    -1.47044E-03     442.768E-03    -213.683E-03    -229.085E-03    -228.901E-03     442.584E-03    -213.683E-03    -21.5040E-03    -7.98816E+06    -86.4513E+06    -104.328E+06    -86.8500E+06    -103.929E+06    -7.98816E+06    -1.32714E+06         59.1900
            1049     5.66845E-03     13.9212E-03     426.665E-03    -118.764E-03    -120.801E-03    -120.490E-03     426.354E-03    -118.764E-03     4.38882E-03     436.541E-03    -211.681E-03    -224.860E-03    -224.547E-03     436.229E-03    -211.681E-03    -28.2877E-03    -27.1235E+06    -96.7319E+06    -138.699E+06    -96.7708E+06    -138.660E+06    -27.1235E+06    -983.260E+03         59.0239
            1050     4.86783E-03     13.9201E-03     426.134E-03    -118.549E-03    -120.096E-03    -119.473E-03     425.543E-03    -118.582E-03    -4.99489E-03     430.154E-03    -209.784E-03    -220.370E-03    -219.962E-03     429.746E-03    -209.784E-03    -32.2617E-03    -47.5003E+06    -107.177E+06    -171.147E+06    -107.200E+06    -171.124E+06    -47.5003E+06    -721.724E+03         58.8700
            1051     4.06325E-03     13.9248E-03     425.617E-03    -118.367E-03    -119.729E-03    -118.692E-03     424.614E-03    -118.400E-03     5.24392E-03     423.982E-03    -208.062E-03    -215.921E-03    -215.482E-03     423.544E-03    -208.062E-03    -33.2394E-03    -69.0620E+06    -116.948E+06    -198.329E+06    -116.950E+06    -198.327E+06    -69.0620E+06    -248.927E+03         58.7319
            1052     3.25518E-03     13.9329E-03     426.779E-03    -118.151E-03    -121.254E-03    -118.820E-03     424.345E-03    -118.151E-03    -17.8802E-03     418.428E-03    -206.581E-03    -211.847E-03    -211.454E-03     418.034E-03    -206.581E-03    -31.2317E-03    -91.9681E+06    -126.615E+06    -221.346E+06    -126.621E+06    -221.340E+06    -91.9681E+06     337.087E+03         58.6130
            1053     2.44408E-03     13.9422E-03     428.937E-03    -117.848E-03    -124.068E-03    -118.218E-03     423.086E-03    -117.848E-03     20.7686E-03     413.868E-03    -205.399E-03    -208.469E-03    -208.181E-03     413.579E-03    -205.399E-03    -26.4357E-03    -113.905E+06    -135.314E+06    -244.991E+06    -135.327E+06    -244.978E+06    -113.905E+06     935.100E+03         58.5165
            1054     1.63067E-03     13.9503E-03     439.555E-03    -117.101E-03    -134.800E-03    -119.273E-03     424.027E-03    -117.101E-03    -46.3630E-03     410.495E-03    -204.539E-03    -205.956E-03    -205.796E-03     410.334E-03    -204.539E-03    -19.3353E-03    -132.002E+06    -141.339E+06    -265.058E+06    -141.350E+06    -265.046E+06    -132.002E+06     959.479E+03         58.4450
            1055     815.617E-06     13.9564E-03     495.123E-03    -133.623E-03    -173.546E-03    -73.2472E-03     420.878E-03    -159.677E-03     148.199E-03     408.434E-03    -203.975E-03    -204.459E-03    -204.315E-03     408.376E-03    -204.061E-03    -11.0789E-03    -143.378E+06    -145.816E+06    -286.636E+06    -145.320E+06    -286.620E+06    -143.890E+06     289.730E+03         58.3999
            1056     13.5748E-03     12.9793E-03     453.628E-03    -128.520E-03    -135.978E-03    -131.052E-03     453.613E-03    -133.430E-03    -1.28459E-03     463.557E-03    -225.942E-03    -237.616E-03    -234.921E-03     460.863E-03    -225.942E-03     84.7139E-03     116.987E+06     81.0303E+06    -6.49833E+06    -6.49568E+06     81.0277E+06     116.987E+06    -192.486E+03         60.7540
            1057     12.7838E-03     12.8240E-03     456.338E-03    -130.181E-03    -136.909E-03    -131.913E-03     456.322E-03    -135.162E-03    -1.27464E-03     464.938E-03    -225.305E-03    -239.633E-03    -236.924E-03     462.229E-03    -225.305E-03     85.1980E-03     114.827E+06     73.8665E+06    -13.5855E+06    -13.5761E+06     73.8570E+06     114.827E+06    -749.313E+03         60.5990
            1058     11.9962E-03     12.7221E-03     459.234E-03    -131.927E-03    -138.052E-03    -133.103E-03     459.208E-03    -136.850E-03     616.389E-06     464.934E-03    -224.397E-03    -240.536E-03    -239.079E-03     463.476E-03    -224.397E-03     63.9992E-03     107.832E+06     67.7102E+06    -21.7072E+06    -21.6989E+06     67.7019E+06     107.832E+06    -745.041E+03         60.4377
            1059     11.2094E-03     12.6240E-03     462.056E-03    -133.611E-03    -139.142E-03    -134.350E-03     462.025E-03    -138.372E-03    -156.977E-06     465.520E-03    -223.143E-03    -242.377E-03    -241.354E-03     464.498E-03    -223.143E-03     53.1027E-03     93.9166E+06     62.0401E+06    -30.5027E+06    -30.4977E+06     62.0350E+06     93.9166E+06    -632.221E+03         60.2701
            1060     10.4252E-03     12.5450E-03     464.907E-03    -135.290E-03    -140.141E-03    -135.634E-03     464.879E-03    -139.769E-03    -576.108E-06     465.090E-03    -221.526E-03    -243.564E-03    -243.049E-03     464.575E-03    -221.526E-03     37.4775E-03     76.8313E+06     53.5582E+06    -39.4380E+06    -39.4256E+06     53.5458E+06     76.8313E+06    -983.873E+03         60.0968
            1061     9.64188E-03     12.4819E-03     467.687E-03    -136.839E-03    -141.103E-03    -136.896E-03     467.635E-03    -140.993E-03    -3.12633E-03     463.215E-03    -219.560E-03    -243.655E-03    -243.450E-03     463.010E-03    -219.560E-03     22.9750E-03     61.7123E+06     46.4594E+06    -48.5886E+06    -48.5701E+06     46.4409E+06     61.7123E+06    -1.27072E+06         59.9189
            1062     8.85856E-03     12.4333E-03     470.294E-03    -138.393E-03    -142.042E-03    -138.354E-03     470.238E-03    -142.026E-03    -2.59267E-03     459.707E-03    -217.296E-03    -242.410E-03    -242.365E-03     459.662E-03    -217.296E-03     8.55040E-03     46.8714E+06     26.5017E+06    -57.9029E+06    -57.8734E+06     26.4722E+06     46.8714E+06    -1.45630E+06         59.7380
            1063     8.07370E-03     12.4006E-03     472.505E-03    -139.847E-03    -142.898E-03    -139.859E-03     472.447E-03    -142.828E-03    -2.78086E-03     454.582E-03    -214.797E-03    -239.784E-03    -239.761E-03     454.558E-03    -214.797E-03    -5.02653E-03     28.4129E+06    -17.8135E+06    -67.4863E+06    -67.4385E+06    -17.8614E+06     28.4129E+06    -1.35832E+06         59.5564
            1064     7.28627E-03     12.3813E-03     474.262E-03    -141.058E-03    -143.592E-03    -141.184E-03     474.180E-03    -143.384E-03    -203.052E-06     447.984E-03    -212.130E-03    -235.854E-03    -235.741E-03     447.871E-03    -212.130E-03    -16.6735E-03     8.75986E+06    -63.0105E+06    -78.7828E+06    -76.8108E+06    -64.9825E+06     8.75986E+06    -1.02050E+06         59.3766
            1065     6.49500E-03     12.3745E-03     475.473E-03    -141.925E-03    -143.973E-03    -142.101E-03     475.384E-03    -143.708E-03    -686.238E-06     440.225E-03    -209.390E-03    -230.834E-03    -230.574E-03     439.964E-03    -209.390E-03    -26.0768E-03    -10.3640E+06    -86.8722E+06    -104.408E+06    -87.1481E+06    -104.132E+06    -10.3640E+06    -429.523E+03         59.2016
            1066     5.69893E-03     12.3780E-03     476.228E-03    -142.434E-03    -144.059E-03    -142.508E-03     476.088E-03    -143.846E-03     2.71806E-03     431.769E-03    -206.683E-03    -225.086E-03    -224.673E-03     431.356E-03    -206.683E-03    -32.7814E-03    -29.8419E+06    -97.8038E+06    -137.988E+06    -97.8258E+06    -137.966E+06    -29.8419E+06     137.549E+03         59.0348
            1067     4.89753E-03     12.3892E-03     476.757E-03    -142.734E-03    -143.965E-03    -142.595E-03     476.515E-03    -143.862E-03    -2.89317E-03     423.107E-03    -204.115E-03    -218.993E-03    -218.469E-03     422.584E-03    -204.115E-03    -36.6012E-03    -49.9202E+06    -107.959E+06    -170.472E+06    -107.967E+06    -170.464E+06    -49.9202E+06     327.680E+03         58.8797
            1068     4.09096E-03     12.4055E-03     476.926E-03    -142.993E-03    -143.898E-03    -142.726E-03     476.566E-03    -143.805E-03     2.10547E-03     414.723E-03    -201.774E-03    -212.949E-03    -212.394E-03     414.168E-03    -201.774E-03    -37.3099E-03    -71.2693E+06    -118.435E+06    -198.973E+06    -118.463E+06    -198.945E+06    -71.2693E+06     938.632E+03         58.7402
            1069     3.27935E-03     12.4240E-03     477.771E-03    -143.339E-03    -144.507E-03    -143.353E-03     476.918E-03    -143.641E-03    -11.7679E-03     407.117E-03    -199.733E-03    -207.384E-03    -206.889E-03     406.622E-03    -199.733E-03    -34.8323E-03    -93.6473E+06    -128.306E+06    -221.186E+06    -128.353E+06    -221.139E+06    -93.6473E+06     1.82513E+06         58.6198
            1070     2.46355E-03     12.4416E-03     478.344E-03    -143.417E-03    -145.114E-03    -143.170E-03     476.401E-03    -143.417E-03     11.0112E-03     400.712E-03    -198.063E-03    -202.649E-03    -202.286E-03     400.350E-03    -198.063E-03    -29.3951E-03    -115.437E+06    -136.788E+06    -243.541E+06    -136.829E+06    -243.500E+06    -115.437E+06     2.01853E+06         58.5219
            1071     1.64432E-03     12.4561E-03     482.272E-03    -142.819E-03    -149.397E-03    -144.361E-03     477.236E-03    -142.819E-03    -27.1260E-03     395.803E-03    -196.812E-03    -198.991E-03    -198.788E-03     395.600E-03    -196.812E-03    -21.5387E-03    -133.934E+06    -143.255E+06    -262.609E+06    -143.283E+06    -262.580E+06    -133.934E+06     1.81537E+06         58.4492
            1072     822.860E-06     12.4657E-03     500.461E-03    -137.309E-03    -172.339E-03    -117.816E-03     475.313E-03    -166.684E-03     87.7285E-03     392.689E-03    -195.892E-03    -196.797E-03    -196.722E-03     392.614E-03    -195.892E-03    -12.4171E-03    -144.580E+06    -146.859E+06    -283.486E+06    -146.876E+06    -283.468E+06    -144.580E+06     1.36235E+06         58.4033
            1073     13.5769E-03     11.3953E-03     479.254E-03    -135.207E-03    -152.315E-03    -135.192E-03     479.239E-03    -152.315E-03    -927.689E-06     465.494E-03    -225.803E-03    -239.690E-03    -236.933E-03     462.737E-03    -225.803E-03     85.0921E-03     117.854E+06     81.9900E+06    -6.68652E+06    -6.67935E+06     81.9829E+06     117.854E+06    -702.571E+03         60.7608
            1074     12.7882E-03     11.2336E-03     484.939E-03    -138.186E-03    -154.879E-03    -138.172E-03     484.925E-03    -154.879E-03    -866.484E-06     467.088E-03    -225.025E-03    -242.063E-03    -239.197E-03     464.221E-03    -225.025E-03     87.6512E-03     115.438E+06     74.5064E+06    -14.3513E+06    -14.3395E+06     74.4946E+06     115.438E+06    -954.368E+03         60.6059
            1075     12.0011E-03     11.1309E-03     490.738E-03    -141.439E-03    -157.383E-03    -141.414E-03     490.713E-03    -157.383E-03     1.01183E-03     467.533E-03    -223.919E-03    -243.614E-03    -242.095E-03     466.013E-03    -223.919E-03     65.6438E-03     107.625E+06     67.3750E+06    -22.8328E+06    -22.8155E+06     67.3577E+06     107.625E+06    -1.09167E+06         60.4450
            1076     11.2178E-03     11.0285E-03     496.443E-03    -144.812E-03    -159.676E-03    -144.785E-03     496.416E-03    -159.676E-03     545.478E-06     468.602E-03    -222.381E-03    -246.221E-03    -245.144E-03     467.525E-03    -222.381E-03     54.6740E-03     93.2517E+06     61.6477E+06    -30.9859E+06    -30.9714E+06     61.6332E+06     93.2517E+06    -1.02430E+06         60.2780
            1077     10.4368E-03     10.9493E-03     502.008E-03    -148.116E-03    -161.782E-03    -148.093E-03     501.985E-03    -161.782E-03    -45.4676E-06     468.100E-03    -220.395E-03    -247.704E-03    -247.180E-03     467.575E-03    -220.395E-03     37.9898E-03     76.0825E+06     53.4086E+06    -39.3724E+06    -39.3676E+06     53.4039E+06     76.0825E+06    -605.306E+03         60.1054
            1078     9.65730E-03     10.8882E-03     507.283E-03    -151.315E-03    -163.629E-03    -151.277E-03     507.245E-03    -163.629E-03    -2.01604E-03     465.593E-03    -217.997E-03    -247.596E-03    -247.389E-03     465.386E-03    -217.997E-03     23.1846E-03     61.0747E+06     46.8239E+06    -48.1026E+06     -48.096E+06     46.8173E+06     61.0747E+06    -681.160E+03         59.9283
            1079     8.87751E-03     10.8459E-03     512.172E-03    -154.523E-03    -165.194E-03    -154.485E-03     512.135E-03    -165.194E-03    -2.08909E-03     460.939E-03    -215.262E-03    -245.677E-03    -245.631E-03     460.893E-03    -215.262E-03     8.95580E-03     45.4291E+06     26.6147E+06    -57.3280E+06    -57.3196E+06     26.6064E+06     45.4291E+06    -568.780E+03         59.7482
            1080     8.09578E-03     10.8224E-03     516.421E-03    -157.579E-03    -166.440E-03    -157.544E-03     516.385E-03    -166.440E-03    -1.92629E-03     454.342E-03    -212.291E-03    -242.051E-03    -242.033E-03     454.324E-03    -212.291E-03    -3.57354E-03     26.2410E+06    -17.9208E+06    -67.4956E+06    -67.3575E+06    -18.0589E+06     26.2410E+06     404.812E+03         59.5671
            1081     7.31032E-03     10.8158E-03     519.934E-03    -160.319E-03    -167.360E-03    -160.274E-03     519.888E-03    -167.360E-03    -526.777E-06     446.193E-03    -209.167E-03    -237.026E-03    -236.943E-03     446.110E-03    -209.167E-03    -13.7226E-03     5.69774E+06    -63.7932E+06    -80.0402E+06    -78.6258E+06    -65.2076E+06     5.69774E+06     1.60842E+06         59.3874
            1082     6.51975E-03     10.8234E-03     522.690E-03    -162.527E-03    -167.973E-03    -162.484E-03     522.648E-03    -167.973E-03    -185.891E-06     436.955E-03    -205.989E-03    -230.965E-03    -230.774E-03     436.764E-03    -205.989E-03    -21.7198E-03    -14.0667E+06    -88.3932E+06    -104.797E+06    -89.5868E+06    -103.604E+06    -14.0667E+06     2.18630E+06         59.2123
            1083     5.72353E-03     10.8422E-03     524.682E-03    -164.042E-03    -168.334E-03    -163.984E-03     524.624E-03    -168.334E-03     1.46378E-03     427.127E-03    -202.859E-03    -224.268E-03    -223.963E-03     426.822E-03    -202.859E-03    -27.4781E-03    -33.4941E+06    -99.9551E+06    -136.974E+06    -100.127E+06    -136.802E+06    -33.4941E+06     1.95068E+06         59.0450
            1084     4.92130E-03     10.8689E-03     526.230E-03    -165.244E-03    -168.508E-03    -165.152E-03     526.138E-03    -168.508E-03    -1.61981E-03     417.148E-03    -199.878E-03    -217.270E-03    -216.877E-03     416.755E-03    -199.878E-03    -30.9837E-03    -53.4397E+06    -110.926E+06    -169.991E+06    -111.031E+06    -169.886E+06    -53.4397E+06     2.03561E+06         58.8893
            1085     4.11280E-03     10.9000E-03     527.206E-03    -166.179E-03    -168.545E-03    -166.064E-03     527.091E-03    -168.545E-03     52.9529E-06     407.459E-03    -197.131E-03    -210.329E-03    -209.905E-03     407.036E-03    -197.131E-03    -31.8555E-03    -74.5649E+06    -121.432E+06    -198.940E+06    -121.518E+06    -198.854E+06    -74.5649E+06     2.44497E+06         58.7489
            1086     3.29852E-03     10.9316E-03     528.299E-03    -167.275E-03    -168.559E-03    -167.110E-03     528.032E-03    -168.456E-03    -7.74597E-03     398.584E-03    -194.696E-03    -203.888E-03    -203.504E-03     398.200E-03    -194.696E-03    -29.9810E-03    -95.9602E+06    -130.757E+06    -220.129E+06    -130.827E+06    -220.059E+06    -95.9602E+06     2.47897E+06         58.6276
            1087     2.47904E-03     10.9601E-03     528.612E-03    -167.913E-03    -168.439E-03    -167.501E-03     528.049E-03    -168.288E-03     4.50119E-03     390.961E-03    -192.656E-03    -198.305E-03    -198.017E-03     390.673E-03    -192.656E-03    -25.6557E-03    -116.342E+06    -138.661E+06    -241.310E+06    -138.712E+06    -241.259E+06    -116.342E+06     2.26821E+06         58.5287
            1088     1.65542E-03     10.9831E-03     530.300E-03    -167.610E-03    -170.271E-03    -168.700E-03     528.928E-03    -167.808E-03    -14.5491E-03     384.916E-03    -191.076E-03    -193.840E-03    -193.674E-03     384.751E-03    -191.076E-03    -19.0454E-03    -134.459E+06    -144.682E+06    -259.820E+06    -144.712E+06    -259.789E+06    -134.459E+06     1.77428E+06         58.4551
            1089     828.558E-06     10.9981E-03     534.921E-03    -158.093E-03    -183.551E-03    -153.459E-03     527.872E-03    -181.136E-03     49.0665E-03     380.914E-03    -189.713E-03    -191.202E-03    -191.140E-03     380.853E-03    -189.713E-03    -11.0221E-03    -144.896E+06    -147.380E+06    -279.145E+06    -147.374E+06    -279.134E+06    -144.913E+06     949.365E+03         58.4086
            1090     13.5788E-03     9.80876E-03     503.513E-03    -138.909E-03    -170.484E-03    -138.894E-03     503.498E-03    -170.484E-03    -375.478E-06     467.512E-03    -225.666E-03    -241.846E-03    -239.013E-03     464.679E-03    -225.666E-03     85.5793E-03     118.645E+06     82.6515E+06    -6.93368E+06    -6.92633E+06     82.6442E+06     118.645E+06    -746.401E+03         60.7680
            1091     12.7907E-03     9.64030E-03     512.018E-03    -144.014E-03    -173.806E-03    -144.002E-03     512.006E-03    -173.806E-03     173.524E-06     469.607E-03    -224.730E-03    -244.877E-03    -241.842E-03     466.572E-03    -224.730E-03     90.2993E-03     115.773E+06     75.0596E+06    -14.9065E+06    -14.8960E+06     75.0491E+06     115.773E+06    -919.773E+03         60.6139
            1092     12.0074E-03     9.53495E-03     520.749E-03    -149.414E-03    -177.044E-03    -149.393E-03     520.728E-03    -177.044E-03     1.84502E-03     470.319E-03    -223.403E-03    -246.916E-03    -245.335E-03     468.738E-03    -223.403E-03     67.2572E-03     107.273E+06     67.4603E+06    -23.1418E+06    -23.1235E+06      67.442E+06     107.273E+06    -1.17652E+06         60.4540
            1093     11.2264E-03     9.42818E-03     529.190E-03    -154.749E-03    -180.023E-03    -154.727E-03     529.167E-03    -180.023E-03     1.48475E-03     471.013E-03    -221.593E-03    -249.420E-03    -248.296E-03     469.890E-03    -221.593E-03     55.9457E-03     92.1622E+06     60.2549E+06    -31.6350E+06    -31.6134E+06     60.2333E+06     92.1622E+06    -1.36220E+06         60.2882
            1094     10.4484E-03     9.34887E-03     537.337E-03    -160.024E-03    -182.746E-03    -160.007E-03     537.320E-03    -182.746E-03     752.473E-06     469.077E-03    -219.342E-03    -249.735E-03    -249.189E-03     468.532E-03    -219.342E-03     38.9995E-03     75.4318E+06     52.2137E+06    -39.7113E+06    -39.7007E+06     52.2031E+06     75.4318E+06    -880.756E+03         60.1168
            1095     9.67072E-03     9.29158E-03     545.040E-03    -165.144E-03    -185.121E-03    -165.118E-03     545.015E-03    -185.121E-03    -787.027E-06     464.739E-03    -216.745E-03    -247.993E-03    -247.740E-03     464.485E-03    -216.745E-03     26.0932E-03     59.7473E+06     45.7869E+06    -48.3756E+06    -48.3511E+06     45.7624E+06     59.7473E+06     304.994E+03         59.9406
            1096     8.89161E-03     9.25747E-03     551.994E-03    -169.965E-03    -187.129E-03    -169.943E-03     551.972E-03    -187.129E-03    -1.54835E-03     458.415E-03    -213.923E-03    -244.492E-03    -244.393E-03     458.316E-03    -213.923E-03     15.1074E-03     42.4663E+06     24.8829E+06    -58.9217E+06    -58.7506E+06     24.7118E+06     42.4663E+06     2.32556E+06         59.7611
            1097     8.10884E-03     9.24658E-03     558.086E-03    -174.445E-03    -188.747E-03    -174.426E-03     558.066E-03    -188.747E-03    -1.25230E-03     450.690E-03    -210.983E-03    -239.707E-03    -239.666E-03     450.649E-03    -210.983E-03     6.53123E-03     22.8525E+06    -19.0317E+06    -70.9840E+06    -70.3709E+06    -19.6448E+06     22.8525E+06     4.36481E+06         59.5801
            1098     7.32144E-03     9.25431E-03     563.207E-03    -178.428E-03    -189.981E-03    -178.406E-03     563.185E-03    -189.981E-03    -728.700E-06     442.045E-03    -207.984E-03    -234.062E-03    -234.022E-03     442.006E-03    -207.984E-03     84.9320E-06     3.30928E+06    -62.4598E+06    -83.9372E+06    -81.6249E+06    -64.7721E+06     3.30928E+06     5.14192E+06         59.4004
            1099     6.52908E-03     9.27787E-03     567.380E-03    -181.840E-03    -190.855E-03    -181.822E-03     567.362E-03    -190.855E-03    -35.7019E-06     432.890E-03    -204.981E-03    -227.909E-03    -227.846E-03     432.827E-03    -204.981E-03    -4.96081E-03    -15.6925E+06    -88.3448E+06    -106.094E+06    -92.4355E+06    -102.004E+06    -15.6925E+06     4.82922E+06         59.2250
            1100     5.73106E-03     9.31306E-03     570.531E-03    -184.388E-03    -191.424E-03    -184.366E-03     570.509E-03    -191.424E-03     486.579E-06     423.541E-03    -202.033E-03    -221.508E-03    -221.413E-03     423.446E-03    -202.033E-03    -8.99255E-03    -35.1683E+06    -102.735E+06    -135.911E+06    -103.501E+06    -135.145E+06    -35.1683E+06     4.47495E+06         59.0575
            1101     4.92723E-03     9.35608E-03     573.010E-03    -186.409E-03    -191.759E-03    -186.378E-03     572.979E-03    -191.759E-03    -969.936E-06     414.233E-03    -199.208E-03    -215.025E-03    -214.900E-03     414.108E-03    -199.208E-03    -12.1722E-03    -54.8413E+06    -114.226E+06    -168.962E+06    -114.560E+06    -168.628E+06    -54.8413E+06     3.84327E+06         58.9015
            1102     4.11765E-03     9.40294E-03     574.788E-03    -188.009E-03    -191.925E-03    -187.978E-03     574.757E-03    -191.925E-03    -1.16764E-03     405.249E-03    -196.564E-03    -208.685E-03    -208.546E-03     405.109E-03    -196.564E-03    -13.9509E-03    -74.8774E+06    -124.860E+06    -197.415E+06    -124.987E+06    -197.289E+06    -74.8774E+06     2.96356E+06         58.7609
            1103     3.30242E-03     9.44827E-03     576.395E-03    -189.682E-03    -191.936E-03    -189.608E-03     576.321E-03    -191.936E-03    -5.28845E-03     396.936E-03    -194.154E-03    -202.783E-03    -202.650E-03     396.804E-03    -194.154E-03    -14.2673E-03    -95.9977E+06    -134.577E+06    -218.227E+06    -134.635E+06    -218.169E+06    -95.9977E+06     2.07584E+06         58.6394
            1104     2.48231E-03     9.48874E-03     577.134E-03    -190.755E-03    -191.812E-03    -190.618E-03     576.998E-03    -191.812E-03     460.046E-06     389.564E-03    -192.066E-03    -197.499E-03    -197.392E-03     389.458E-03    -192.066E-03    -13.3118E-03    -116.979E+06    -142.706E+06    -239.256E+06    -142.732E+06    -239.229E+06    -116.979E+06     1.16649E+06         58.5404
            1105     1.65773E-03     9.52123E-03     578.265E-03    -190.932E-03    -192.477E-03    -191.680E-03     577.977E-03    -191.441E-03    -6.66623E-03     383.499E-03    -190.410E-03    -193.090E-03    -193.024E-03     383.434E-03    -190.410E-03    -10.5624E-03    -135.495E+06    -148.283E+06    -257.440E+06    -148.298E+06    -257.424E+06    -135.495E+06     295.001E+03         58.4667
            1106     829.877E-06     9.54278E-03     578.744E-03    -183.431E-03    -200.083E-03    -182.953E-03     577.231E-03    -199.047E-03     23.1131E-03     379.409E-03    -188.822E-03    -190.587E-03    -190.562E-03     379.384E-03    -188.822E-03    -6.33572E-03    -147.486E+06    -151.659E+06    -277.864E+06    -151.650E+06    -277.857E+06    -147.503E+06    -146.754E+03         58.4201
            1107     13.5802E-03     8.21850E-03     525.565E-03    -142.366E-03    -187.290E-03    -142.351E-03     525.550E-03    -187.290E-03     779.040E-06     470.101E-03    -225.519E-03    -244.583E-03    -241.681E-03     467.200E-03    -225.519E-03     86.0074E-03     119.451E+06     83.4624E+06    -7.18617E+06    -7.18224E+06     83.4585E+06     119.451E+06    -220.129E+03         60.7828
            1108     12.7958E-03     8.04315E-03     536.850E-03    -149.436E-03    -191.244E-03    -149.424E-03     536.838E-03    -191.244E-03     1.59952E-03     473.061E-03    -224.372E-03    -248.689E-03    -245.520E-03     469.892E-03    -224.372E-03     92.4236E-03     115.824E+06     75.6936E+06    -15.7569E+06    -15.7491E+06     75.6859E+06     115.824E+06    -741.048E+03         60.6305
            1109     12.0139E-03     7.93389E-03     548.162E-03    -156.656E-03    -195.085E-03    -156.638E-03     548.144E-03    -195.085E-03     2.82312E-03     472.939E-03    -222.783E-03    -250.156E-03    -248.593E-03     471.377E-03    -222.783E-03     67.1173E-03     106.801E+06     67.6738E+06    -24.1694E+06    -24.1475E+06     67.6519E+06     106.801E+06    -1.26773E+06         60.4727
            1110     11.2363E-03     7.82369E-03     559.201E-03    -163.992E-03    -198.606E-03    -163.974E-03     559.183E-03    -198.606E-03     2.89739E-03     470.792E-03    -220.780E-03    -250.012E-03    -248.910E-03     469.690E-03    -220.780E-03     55.4815E-03     91.4632E+06     59.3573E+06    -31.8405E+06    -31.8156E+06     59.3324E+06     91.4632E+06    -1.42766E+06         60.3087
            1111     10.4586E-03     7.74893E-03     569.819E-03    -171.194E-03    -201.790E-03    -171.184E-03     569.809E-03    -201.790E-03     1.48893E-03     465.356E-03    -218.536E-03    -246.819E-03    -246.219E-03     464.755E-03    -218.536E-03     41.0502E-03     72.4839E+06     49.2414E+06    -40.7302E+06    -40.6784E+06     49.1896E+06     72.4839E+06     161.508E+03         60.1386
            1112     9.67795E-03     7.69957E-03     579.576E-03    -177.940E-03    -204.563E-03    -177.924E-03     579.560E-03    -204.563E-03    -190.132E-06     458.368E-03    -216.229E-03    -242.139E-03    -241.740E-03     457.969E-03    -216.229E-03     32.8811E-03     55.6133E+06     40.9369E+06    -51.7334E+06    -51.4566E+06     40.6601E+06     55.6133E+06     3.68106E+06         59.9628
            1113     8.89276E-03     7.67758E-03     588.306E-03    -184.158E-03    -206.924E-03    -184.147E-03     588.295E-03    -206.924E-03    -1.61767E-03     450.641E-03    -213.974E-03    -236.667E-03    -236.376E-03     450.350E-03    -213.974E-03     27.1716E-03     39.9824E+06     22.3276E+06    -63.7185E+06    -63.0453E+06     21.6545E+06     39.9824E+06     7.00031E+06         59.7830
            1114     8.10334E-03     7.67931E-03     596.005E-03    -189.901E-03    -208.866E-03    -189.891E-03     595.996E-03    -208.866E-03    -1.34938E-03     442.966E-03    -211.829E-03    -231.137E-03    -230.879E-03     442.708E-03    -211.829E-03     24.1506E-03     23.0762E+06    -17.9368E+06    -75.0995E+06    -73.9692E+06    -19.0671E+06     23.0762E+06     7.56653E+06         59.6014
            1115     7.30975E-03     7.70148E-03     602.539E-03    -194.942E-03    -210.407E-03    -194.933E-03     602.529E-03    -210.407E-03    -1.32447E-03     435.777E-03    -209.779E-03    -225.999E-03    -225.736E-03     435.514E-03    -209.779E-03     22.8028E-03     5.19046E+06    -60.7983E+06    -87.2973E+06    -84.6126E+06    -63.4830E+06     5.19046E+06     6.96353E+06         59.4209
            1116     6.51165E-03     7.73889E-03     607.993E-03    -199.351E-03    -211.577E-03    -199.344E-03     607.986E-03    -211.577E-03    -502.904E-06     429.171E-03    -207.790E-03    -221.381E-03    -221.117E-03     428.907E-03    -207.790E-03     21.4903E-03    -12.8597E+06    -88.5001E+06    -107.555E+06    -95.5116E+06    -100.544E+06    -12.8597E+06     6.58461E+06         59.2449
            1117     5.70984E-03     7.78796E-03     612.348E-03    -202.920E-03    -212.416E-03    -202.913E-03     612.341E-03    -212.416E-03    -448.793E-06     422.984E-03    -205.842E-03    -217.142E-03    -216.901E-03     422.743E-03    -205.842E-03     19.2881E-03    -31.2752E+06    -104.860E+06    -134.376E+06    -106.188E+06    -133.048E+06    -31.2752E+06     5.60758E+06         59.0772
            1118     4.90430E-03     7.84431E-03     615.847E-03    -205.767E-03    -212.988E-03    -205.759E-03     615.839E-03    -212.988E-03    -898.922E-06     417.092E-03    -203.930E-03    -213.162E-03    -212.965E-03     416.895E-03    -203.930E-03     16.0857E-03    -50.7570E+06    -116.240E+06    -166.207E+06    -116.642E+06    -165.806E+06    -50.7570E+06     3.85332E+06         58.9214
            1119     4.09505E-03     7.90382E-03     618.500E-03    -208.123E-03    -213.355E-03    -208.116E-03     618.493E-03    -213.355E-03    -2.10889E-03     411.480E-03    -202.052E-03    -209.427E-03    -209.281E-03     411.334E-03    -202.052E-03     12.5447E-03    -71.6257E+06    -126.766E+06    -195.052E+06    -126.856E+06    -194.962E+06    -71.6257E+06     1.82487E+06         58.7814
            1120     3.28237E-03     7.96029E-03     620.780E-03    -210.318E-03    -213.533E-03    -210.303E-03     620.765E-03    -213.533E-03    -3.63555E-03     406.035E-03    -200.227E-03    -205.808E-03    -205.715E-03     405.942E-03    -200.227E-03     8.59068E-03    -94.0589E+06    -136.114E+06    -216.545E+06    -136.156E+06    -216.503E+06    -94.0589E+06     257.709E+03         58.6607
            1121     2.46612E-03     8.01107E-03     622.215E-03    -211.797E-03    -213.544E-03    -211.773E-03     622.192E-03    -213.544E-03    -1.87829E-03     400.766E-03    -198.551E-03    -202.215E-03    -202.167E-03     400.719E-03    -198.551E-03     4.51409E-03    -117.079E+06    -144.293E+06    -238.134E+06    -144.321E+06    -238.106E+06    -117.079E+06    -929.800E+03         58.5625
            1122     1.64650E-03     8.05231E-03     623.371E-03    -212.551E-03    -213.919E-03    -213.134E-03     623.336E-03    -213.302E-03    -1.68525E-03     396.185E-03    -197.175E-03    -199.010E-03    -198.989E-03     396.164E-03    -197.175E-03     1.78115E-03    -138.154E+06    -150.929E+06    -258.006E+06    -150.954E+06    -257.981E+06    -138.154E+06    -1.51435E+06         58.4895
            1123     824.001E-06     8.07952E-03     623.195E-03    -208.677E-03    -217.302E-03    -209.122E-03     623.023E-03    -216.684E-03     6.05083E-03     393.031E-03    -195.702E-03    -197.329E-03    -197.322E-03     393.024E-03    -195.702E-03     525.223E-06    -151.169E+06    -155.240E+06    -280.746E+06    -155.011E+06    -280.732E+06    -151.411E+06    -1.19857E+06         58.4434
            1124     13.5826E-03     6.62396E-03     544.452E-03    -145.061E-03    -202.090E-03    -145.047E-03     544.438E-03    -202.090E-03     2.51828E-03     474.532E-03    -225.350E-03    -249.182E-03    -246.172E-03     471.521E-03    -225.350E-03     88.4181E-03     119.225E+06     83.2340E+06    -7.80675E+06     -7.7933E+06     83.2205E+06     119.225E+06     435.876E+03         60.8153
            1125     12.8005E-03     6.43896E-03     558.409E-03    -154.148E-03    -206.530E-03    -154.133E-03     558.395E-03    -206.530E-03     4.12213E-03     477.504E-03    -223.900E-03    -253.604E-03    -250.413E-03     474.313E-03    -223.900E-03     92.9198E-03     116.046E+06     75.8250E+06    -15.2437E+06    -15.2309E+06     75.8122E+06     116.046E+06    -824.095E+03         60.6663
            1126     12.0252E-03     6.32601E-03     572.599E-03    -163.688E-03    -210.764E-03    -163.669E-03     572.580E-03    -210.764E-03     4.98978E-03     472.872E-03    -222.086E-03    -250.786E-03    -249.292E-03     471.378E-03    -222.086E-03     65.6732E-03     107.157E+06     67.8749E+06    -22.1344E+06    -22.1092E+06     67.8496E+06     107.157E+06    -1.13828E+06         60.5116
            1127     11.2471E-03     6.22338E-03     586.187E-03    -172.897E-03    -214.587E-03    -172.880E-03     586.170E-03    -214.587E-03     3.76792E-03     465.342E-03    -220.163E-03    -245.179E-03    -244.040E-03     464.203E-03    -220.163E-03     56.3114E-03     88.4105E+06     56.3513E+06    -31.8703E+06    -31.7477E+06     56.2287E+06     88.4105E+06     759.203E+03         60.3495
            1128     10.4628E-03     6.15993E-03     598.402E-03    -181.260E-03    -218.032E-03    -181.256E-03     598.398E-03    -218.032E-03     784.229E-06     455.722E-03    -218.425E-03    -237.298E-03    -236.503E-03     454.928E-03    -218.425E-03     46.6112E-03     68.3327E+06     44.3678E+06    -43.5526E+06    -43.1542E+06     43.9693E+06     68.3327E+06     4.58771E+06         60.1799
            1129     9.67204E-03     6.12327E-03     609.510E-03    -189.071E-03    -221.079E-03    -189.062E-03     609.501E-03    -221.079E-03    -1.12112E-03     446.656E-03    -217.054E-03    -229.602E-03    -228.869E-03     445.923E-03    -217.054E-03     43.8376E-03     56.2273E+06     37.2039E+06    -54.6853E+06    -54.0186E+06     36.5372E+06     56.2273E+06     7.49216E+06         60.0036
            1130     8.87600E-03     6.11417E-03     619.591E-03    -196.366E-03    -223.741E-03    -196.360E-03     619.585E-03    -223.741E-03    -2.73374E-03     439.073E-03    -214.713E-03    -224.360E-03    -222.248E-03     438.326E-03    -216.078E-03     43.3068E-03     46.2343E+06     22.3266E+06    -64.4520E+06    -63.6766E+06     21.5512E+06     46.2343E+06     8.04342E+06         59.8225
            1131     8.07465E-03     6.12819E-03     628.613E-03    -203.108E-03    -226.013E-03    -203.102E-03     628.607E-03    -226.013E-03    -2.49279E-03     433.585E-03    -211.975E-03    -221.610E-03    -217.322E-03     432.772E-03    -215.450E-03     44.5969E-03     30.9541E+06    -16.3525E+06    -74.4037E+06    -73.2585E+06    -17.4977E+06     30.9541E+06     7.48249E+06         59.6393
            1132     7.26962E-03     6.16016E-03     636.448E-03    -209.110E-03    -227.912E-03    -209.104E-03     636.443E-03    -227.912E-03    -2.46737E-03     430.240E-03    -210.602E-03    -219.638E-03    -214.292E-03     429.359E-03    -215.067E-03     46.3170E-03     13.6444E+06    -59.9832E+06    -85.6792E+06    -83.2447E+06    -62.4177E+06     13.6444E+06     6.67889E+06         59.4574
            1133     6.46356E-03     6.20500E-03     643.185E-03    -214.429E-03    -229.460E-03    -214.427E-03     643.183E-03    -229.460E-03    -1.48170E-03     428.538E-03    -210.215E-03    -218.323E-03    -212.845E-03     427.641E-03    -214.796E-03     46.7608E-03    -3.40137E+06    -86.8511E+06    -104.038E+06    -92.9176E+06    -97.9718E+06    -3.40137E+06     4.76851E+06         59.2807
            1134     5.65707E-03     6.26076E-03     648.842E-03    -218.990E-03    -230.677E-03    -218.988E-03     648.840E-03    -230.677E-03    -1.49518E-03     427.793E-03    -210.439E-03    -217.354E-03    -212.427E-03     426.953E-03    -214.526E-03     45.2186E-03    -22.1547E+06    -101.230E+06    -131.308E+06    -101.976E+06    -130.561E+06    -22.1547E+06     2.35033E+06         59.1129
            1135     4.85063E-03     6.32278E-03     653.515E-03    -222.843E-03    -231.595E-03    -222.841E-03     653.513E-03    -231.595E-03    -1.29683E-03     427.546E-03    -211.007E-03    -216.539E-03    -212.653E-03     426.824E-03    -214.172E-03     41.7821E-03    -43.6353E+06    -110.221E+06    -163.933E+06    -110.448E+06    -163.705E+06    -43.6353E+06     313.367E+03         58.9578
            1136     4.04445E-03     6.38761E-03     657.274E-03    -226.011E-03    -232.259E-03    -226.008E-03     657.271E-03    -232.259E-03    -2.99683E-03     427.336E-03    -211.602E-03    -215.734E-03    -213.110E-03     426.771E-03    -213.660E-03     36.8185E-03    -67.6674E+06    -118.722E+06    -193.547E+06    -118.824E+06    -193.445E+06    -67.6674E+06    -1.50556E+06         58.8192
            1137     3.23804E-03     6.44889E-03     660.344E-03    -228.580E-03    -232.712E-03    -228.577E-03     660.341E-03    -232.712E-03    -2.36684E-03     426.571E-03    -211.842E-03    -214.729E-03    -213.206E-03     426.191E-03    -212.985E-03     29.7785E-03    -92.0926E+06    -127.128E+06    -217.232E+06    -127.216E+06    -217.145E+06    -92.0926E+06    -2.61409E+06         58.7002
            1138     2.43073E-03     6.50615E-03     662.512E-03    -230.587E-03    -232.982E-03    -230.579E-03     662.505E-03    -232.982E-03    -3.52881E-03     425.115E-03    -211.662E-03    -213.454E-03    -212.667E-03     424.910E-03    -212.243E-03     21.5177E-03    -114.549E+06    -134.682E+06    -240.200E+06    -134.750E+06    -240.132E+06    -114.549E+06    -2.58268E+06         58.6037
            1139     1.62167E-03     6.55238E-03     664.113E-03    -232.038E-03    -233.271E-03    -232.276E-03     664.090E-03    -233.010E-03     1.78440E-03     423.519E-03    -211.316E-03    -212.203E-03    -211.844E-03     423.426E-03    -211.582E-03     13.9856E-03    -132.510E+06    -140.475E+06    -262.183E+06    -140.508E+06    -262.150E+06    -132.510E+06    -1.76864E+06         58.5322
            1140     811.388E-06     6.58348E-03     664.528E-03    -230.827E-03    -234.807E-03    -230.975E-03     664.414E-03    -234.546E-03    -5.62804E-03     422.336E-03    -210.659E-03    -211.677E-03    -211.575E-03     422.307E-03    -210.732E-03     7.42783E-03    -142.005E+06    -144.220E+06    -285.183E+06    -143.989E+06    -285.173E+06    -142.248E+06    -562.319E+03         58.4871
            1141     13.5825E-03     5.01285E-03     559.941E-03    -147.957E-03    -214.329E-03    -147.917E-03     559.901E-03    -214.329E-03     7.52867E-03     481.605E-03    -225.192E-03    -256.413E-03    -253.233E-03     478.425E-03    -225.192E-03     93.9780E-03     118.773E+06     83.6957E+06    -7.11220E+06    -7.06635E+06     83.6498E+06     118.773E+06    -130.480E+03         60.8781
            1142     12.8120E-03     4.82504E-03     577.839E-03    -160.061E-03    -218.966E-03    -160.020E-03     577.798E-03    -218.966E-03     8.66041E-03     480.736E-03    -223.398E-03    -257.338E-03    -254.321E-03     477.719E-03    -223.398E-03     90.7440E-03     115.029E+06     74.9177E+06    -13.7157E+06    -13.6745E+06     74.8764E+06     115.029E+06    -1.43358E+06         60.7340
            1143     12.0339E-03     4.72284E-03     594.676E-03    -170.990E-03    -223.242E-03    -170.980E-03     594.666E-03    -223.242E-03     4.76860E-03     468.150E-03    -221.562E-03    -246.587E-03    -245.221E-03     466.784E-03    -221.562E-03     62.3704E-03     103.969E+06     63.0856E+06    -22.5812E+06    -22.3353E+06     62.8396E+06     103.969E+06     1.76336E+06         60.5826
            1144     11.2476E-03     4.63669E-03     608.767E-03    -180.239E-03    -227.125E-03    -180.228E-03     608.756E-03    -227.125E-03     1.19068E-03     454.314E-03    -219.844E-03    -234.470E-03    -233.039E-03     453.202E-03    -220.163E-03     55.0873E-03     87.7272E+06     52.5618E+06    -33.8398E+06    -33.2033E+06     51.9253E+06     87.7272E+06     6.30557E+06         60.4217
            1145     10.4523E-03     4.59128E-03     621.412E-03    -188.955E-03    -230.720E-03    -188.952E-03     621.408E-03    -230.720E-03    -2.10050E-03     441.581E-03    -215.969E-03    -225.612E-03    -221.134E-03     440.601E-03    -219.467E-03     50.8690E-03     72.8374E+06     44.3179E+06    -44.0601E+06    -43.3612E+06     43.6190E+06     72.8374E+06     7.44090E+06         60.2517
            1146     9.64779E-03     4.57006E-03     633.292E-03    -197.520E-03    -234.015E-03    -197.513E-03     633.285E-03    -234.015E-03    -3.39817E-03     432.820E-03    -211.324E-03    -221.496E-03    -212.202E-03     431.732E-03    -219.529E-03     52.8292E-03     63.9410E+06     39.5298E+06    -52.0928E+06    -51.6278E+06     39.0648E+06     63.9410E+06     5.58022E+06         60.0737
            1147     8.83605E-03     4.57223E-03     644.397E-03    -205.714E-03    -236.995E-03    -205.707E-03     644.390E-03    -236.995E-03    -4.37414E-03     428.152E-03    -207.906E-03    -220.247E-03    -206.730E-03     426.969E-03    -220.239E-03     54.7054E-03     54.8807E+06     22.3422E+06    -59.7596E+06    -59.4324E+06     22.0151E+06     54.8807E+06     4.53763E+06         59.8906
            1148     8.02168E-03     4.59242E-03     654.601E-03    -213.321E-03    -239.646E-03    -213.316E-03     654.595E-03    -239.646E-03    -3.89940E-03     427.169E-03    -205.747E-03    -221.422E-03    -204.482E-03     425.905E-03    -221.422E-03     56.4826E-03     39.1296E+06    -16.8863E+06    -68.0798E+06    -67.5087E+06    -17.4575E+06     39.1296E+06     4.02721E+06         59.7057
            1149     7.20777E-03     4.62606E-03     663.779E-03    -220.279E-03    -241.970E-03    -220.274E-03     663.774E-03    -241.970E-03    -3.52823E-03     429.010E-03    -206.109E-03    -222.901E-03    -204.783E-03     427.684E-03    -222.901E-03     57.9614E-03     19.8376E+06    -55.6047E+06    -77.9086E+06    -74.5748E+06    -58.9385E+06     19.8376E+06     1.24579E+06         59.5226
            1150     6.39519E-03     4.66927E-03     671.874E-03    -226.620E-03    -243.963E-03    -226.618E-03     671.872E-03    -243.963E-03    -2.36224E-03     432.867E-03    -208.345E-03    -224.522E-03    -207.038E-03     431.560E-03    -224.522E-03     57.8356E-03    -654.164E+03    -76.8062E+06    -98.3249E+06    -80.3410E+06    -94.7901E+06    -654.164E+03    -2.39961E+06         59.3455
            1151     5.58574E-03     4.72182E-03     678.874E-03    -232.227E-03    -245.620E-03    -232.225E-03     678.872E-03    -245.620E-03    -2.32971E-03     438.004E-03    -211.853E-03    -226.151E-03    -210.646E-03     436.797E-03    -226.151E-03     55.9419E-03    -22.0234E+06    -85.5594E+06    -131.637E+06    -86.1625E+06    -131.034E+06    -22.0234E+06    -4.18839E+06         59.1782
            1152     4.77989E-03     4.77951E-03     684.767E-03    -237.005E-03    -246.954E-03    -237.004E-03     684.766E-03    -246.954E-03    -1.75027E-03     443.796E-03    -216.144E-03    -227.653E-03    -215.091E-03     442.744E-03    -227.653E-03     52.6039E-03    -44.3387E+06    -92.7457E+06    -166.655E+06    -92.9944E+06    -166.406E+06    -44.3387E+06    -3.91650E+06         59.0245
            1153     3.97792E-03     4.83971E-03     689.721E-03    -240.912E-03    -248.000E-03    -240.908E-03     689.717E-03    -248.000E-03    -3.51688E-03     449.452E-03    -220.545E-03    -228.907E-03    -219.696E-03     448.603E-03    -228.907E-03     47.5728E-03    -66.7390E+06    -100.633E+06    -196.122E+06    -100.743E+06    -196.011E+06    -66.7390E+06    -2.92082E+06         58.8878
            1154     3.17926E-03     4.89802E-03     693.704E-03    -243.933E-03    -248.813E-03    -243.929E-03     693.700E-03    -248.813E-03    -1.40993E-03     454.201E-03    -224.340E-03    -229.861E-03    -223.745E-03     453.607E-03    -229.861E-03     39.8362E-03    -88.2323E+06    -108.774E+06    -221.439E+06    -108.855E+06    -221.358E+06    -88.2323E+06    -1.83436E+06         58.7710
            1155     2.38286E-03     4.95436E-03     696.741E-03    -246.585E-03    -249.408E-03    -246.566E-03     696.723E-03    -249.408E-03    -4.63221E-03     457.824E-03    -227.276E-03    -230.548E-03    -226.928E-03     457.476E-03    -230.548E-03     30.5221E-03    -105.947E+06    -116.142E+06    -245.105E+06    -116.200E+06    -245.047E+06    -105.947E+06    -583.047E+03         58.6768
            1156     1.58795E-03     4.99997E-03     698.911E-03    -248.536E-03    -249.783E-03    -248.463E-03     698.838E-03    -249.783E-03     4.35795E-03     460.457E-03    -229.433E-03    -231.023E-03    -229.262E-03     460.285E-03    -231.023E-03     21.1220E-03    -117.874E+06    -121.760E+06    -266.555E+06    -121.789E+06    -266.526E+06    -117.874E+06     449.658E+03         58.6071
            1157     793.681E-06     5.03092E-03     700.134E-03    -248.938E-03    -251.012E-03    -248.916E-03     699.736E-03    -250.636E-03    -14.8489E-03     462.143E-03    -230.529E-03    -231.614E-03    -230.711E-03     462.086E-03    -231.375E-03     11.7536E-03    -123.344E+06    -125.788E+06    -286.859E+06    -124.743E+06    -286.849E+06    -124.399E+06     906.422E+03         58.5634
            1158     13.5865E-03     3.37828E-03     574.980E-03    -152.656E-03    -223.140E-03    -152.538E-03     574.862E-03    -223.140E-03     15.6765E-03     493.548E-03    -225.266E-03    -268.282E-03    -264.811E-03     490.077E-03    -225.266E-03     101.845E-03     114.626E+06     81.9205E+06    -7.65420E+06    -7.48240E+06     81.7487E+06     114.626E+06    -1.26311E+06         60.9861
            1159     12.8159E-03     3.21090E-03     596.382E-03    -165.515E-03    -227.566E-03    -165.470E-03     596.337E-03    -227.566E-03     6.59210E-03     481.508E-03    -223.119E-03    -258.389E-03    -255.943E-03     479.062E-03    -223.119E-03     81.0232E-03     111.238E+06     71.1431E+06    -13.6930E+06    -13.3790E+06     70.8291E+06     111.238E+06     2.26166E+06         60.8479
            1160     12.0365E-03     3.12846E-03     611.165E-03    -174.610E-03    -231.706E-03    -174.604E-03     611.159E-03    -231.706E-03    -1.17820E-03     458.988E-03    -221.039E-03    -237.949E-03    -236.404E-03     457.954E-03    -221.550E-03     53.2726E-03     103.195E+06     59.5988E+06    -23.4479E+06    -22.8649E+06     59.0158E+06     103.195E+06     5.87838E+06         60.6989
            1161     11.2417E-03     3.07429E-03     624.234E-03    -183.509E-03    -235.675E-03    -183.501E-03     624.225E-03    -235.675E-03    -3.54310E-03     440.456E-03    -215.684E-03    -224.772E-03    -218.463E-03     439.497E-03    -221.034E-03     50.2375E-03     93.1023E+06     53.3417E+06    -32.6827E+06    -32.0453E+06     52.7043E+06     93.1023E+06     6.69571E+06         60.5376
            1162     10.4297E-03     3.04919E-03     637.088E-03    -192.923E-03    -239.495E-03    -192.914E-03     637.080E-03    -239.495E-03    -5.07478E-03     428.308E-03    -206.740E-03    -221.567E-03    -205.772E-03     427.340E-03    -221.567E-03     49.4774E-03     76.5515E+06     48.9406E+06    -40.3112E+06    -39.9192E+06     48.5487E+06     76.5515E+06     5.01944E+06         60.3660
            1163     9.60909E-03     3.04024E-03     649.707E-03    -202.499E-03    -243.099E-03    -202.491E-03     649.698E-03    -243.099E-03    -5.06006E-03     422.715E-03    -199.714E-03    -223.001E-03    -198.687E-03     421.688E-03    -223.001E-03     50.3059E-03     58.9747E+06     42.5353E+06    -47.9726E+06    -47.8596E+06     43.4421E+06     57.9550E+06      2.9481E+06         60.1863
            1164     8.78642E-03     3.04521E-03     661.848E-03    -211.711E-03    -246.438E-03    -211.703E-03     661.840E-03    -246.438E-03    -5.05356E-03     422.124E-03    -196.955E-03    -225.169E-03    -195.927E-03     421.096E-03    -225.169E-03     49.9804E-03     42.8038E+06     22.5916E+06    -55.6559E+06    -55.4197E+06     23.3752E+06     41.7841E+06     332.027E+03         60.0017
            1165     7.96430E-03     3.06311E-03     673.264E-03    -220.257E-03    -249.487E-03    -220.252E-03     673.259E-03    -249.487E-03    -4.23997E-03     425.535E-03    -197.679E-03    -227.856E-03    -196.652E-03     424.507E-03    -227.856E-03     49.9638E-03     22.2905E+06    -13.1173E+06    -61.6317E+06    -60.2684E+06    -14.4807E+06     22.2905E+06    -3.75753E+06         59.8158
            1166     7.14409E-03     3.08990E-03     683.745E-03    -228.168E-03    -252.235E-03    -228.164E-03     683.741E-03    -252.235E-03    -3.59929E-03     431.799E-03    -200.910E-03    -230.889E-03    -199.876E-03     430.765E-03    -230.889E-03     50.3607E-03     1.36852E+06    -45.9215E+06    -72.6336E+06    -63.1979E+06    -55.3572E+06     1.36852E+06    -7.69236E+06         59.6326
            1167     6.32831E-03     3.12332E-03     693.107E-03    -235.526E-03    -254.661E-03    -235.525E-03     693.106E-03    -254.661E-03    -2.47788E-03     440.124E-03    -205.983E-03    -234.141E-03    -204.992E-03     439.133E-03    -234.141E-03     49.7755E-03    -19.0678E+06    -63.6108E+06    -100.535E+06    -66.9403E+06    -97.2054E+06    -19.0678E+06    -8.70995E+06         59.4561
            1168     5.51764E-03     3.16371E-03     701.328E-03    -242.154E-03    -256.734E-03    -242.153E-03     701.327E-03    -256.734E-03    -2.37083E-03     449.962E-03    -212.483E-03    -237.479E-03    -211.575E-03     449.054E-03    -237.479E-03     48.2418E-03    -37.4371E+06    -71.4842E+06    -139.440E+06    -72.3494E+06    -138.575E+06    -37.4371E+06    -6.41928E+06         59.2901
            1169     4.71309E-03     3.20789E-03     708.349E-03    -247.657E-03    -258.465E-03    -247.656E-03     708.349E-03    -258.465E-03    -1.71626E-03     460.661E-03    -219.913E-03    -240.749E-03    -219.111E-03     459.860E-03    -240.749E-03     45.9561E-03    -53.1309E+06    -78.3274E+06    -174.334E+06    -78.5314E+06    -174.130E+06    -53.1309E+06    -3.23775E+06         59.1383
            1170     3.91497E-03     3.25425E-03     714.379E-03    -252.198E-03    -259.890E-03    -252.194E-03     714.375E-03    -259.890E-03    -3.22913E-03     471.385E-03    -227.576E-03    -243.809E-03    -226.919E-03     470.728E-03    -243.809E-03     42.1816E-03    -66.8166E+06    -84.4842E+06    -202.825E+06    -84.5319E+06    -202.777E+06    -66.8166E+06    -413.337E+03         59.0040
            1171     3.12289E-03     3.30070E-03     719.245E-03    -255.744E-03    -261.058E-03    -255.739E-03     719.240E-03    -261.058E-03    -682.370E-06     481.488E-03    -234.941E-03    -246.547E-03    -234.469E-03     481.017E-03    -246.547E-03     36.0103E-03    -78.6680E+06    -89.8364E+06    -226.832E+06    -89.8957E+06    -226.773E+06    -78.6680E+06     2.03413E+06         58.8898
            1172     2.33646E-03     3.34656E-03     723.190E-03    -258.833E-03    -261.984E-03    -258.810E-03     723.167E-03    -261.984E-03    -4.49776E-03     490.497E-03    -241.642E-03    -248.855E-03    -241.354E-03     490.209E-03    -248.855E-03     28.4373E-03    -88.3787E+06    -94.3890E+06    -248.084E+06    -94.4700E+06    -248.003E+06    -88.3787E+06     3.31111E+06         58.7981
            1173     1.55461E-03     3.38374E-03     725.745E-03    -261.160E-03    -262.673E-03    -261.070E-03     725.655E-03    -262.673E-03     5.24755E-03     497.719E-03    -247.088E-03    -250.630E-03    -246.940E-03     497.570E-03    -250.630E-03     20.2539E-03    -95.3934E+06    -98.2304E+06    -266.512E+06    -98.0242E+06    -266.440E+06    -95.6709E+06     3.34979E+06         58.7307
            1174     776.426E-06     3.40909E-03     727.703E-03    -261.369E-03    -264.908E-03    -263.825E-03     727.188E-03    -261.936E-03    -18.0710E-03     502.543E-03    -250.069E-03    -252.474E-03    -250.018E-03     502.492E-03    -252.474E-03     11.5135E-03    -99.2153E+06    -102.002E+06    -282.939E+06    -100.707E+06    -282.901E+06    -100.548E+06     2.37898E+06         58.6884
            1175     13.5784E-03     1.71983E-03     596.376E-03    -156.264E-03    -227.736E-03    -156.111E-03     596.223E-03    -227.736E-03     16.4311E-03     523.387E-03    -226.362E-03    -297.025E-03    -293.660E-03     520.022E-03    -226.362E-03     102.559E-03     116.696E+06     80.9236E+06    -6.33033E+06    -6.17516E+06     80.7684E+06     116.696E+06     86.2832E+03         61.1582
            1176     12.8196E-03     1.59371E-03     607.920E-03    -164.212E-03    -231.912E-03    -164.198E-03     607.906E-03    -231.912E-03    -812.242E-06     480.717E-03    -223.475E-03    -257.242E-03    -255.817E-03     479.292E-03    -223.475E-03     61.0587E-03     112.936E+06     68.9431E+06    -13.6323E+06    -13.3156E+06     68.6264E+06     112.936E+06     2.80933E+06         61.0236
            1177     12.0309E-03     1.55837E-03     619.059E-03    -172.793E-03    -236.156E-03    -172.786E-03     619.052E-03    -236.156E-03    -4.51509E-03     449.284E-03    -219.361E-03    -229.923E-03    -226.374E-03     448.656E-03    -222.283E-03     40.7458E-03     104.304E+06     59.5030E+06    -21.0551E+06    -20.6703E+06     59.1181E+06     104.304E+06     3.47999E+06         60.8738
            1178     11.2183E-03     1.53583E-03     631.886E-03    -182.893E-03    -240.391E-03    -182.886E-03     631.878E-03    -240.391E-03    -4.64970E-03     431.834E-03    -209.325E-03    -222.509E-03    -208.718E-03     431.227E-03    -222.509E-03     37.8570E-03     88.0198E+06     54.2610E+06    -27.9690E+06    -27.7586E+06     54.0506E+06     88.0198E+06     3.78567E+06         60.7105
            1179     10.3983E-03     1.52414E-03     645.311E-03    -193.667E-03    -244.507E-03    -193.660E-03     645.303E-03    -244.507E-03    -4.51361E-03     422.495E-03    -198.670E-03    -223.825E-03    -198.125E-03     421.950E-03    -223.825E-03     34.0273E-03     66.8175E+06     49.6875E+06    -34.3369E+06    -34.1827E+06     51.5977E+06     64.7532E+06     3.36876E+06         60.5372
            1180     9.57478E-03     1.51981E-03     658.833E-03    -204.490E-03    -248.413E-03    -204.485E-03     658.828E-03    -248.413E-03    -3.90294E-03     419.302E-03    -193.281E-03    -226.021E-03    -192.798E-03     418.819E-03    -226.021E-03     31.4676E-03     48.8014E+06     33.4999E+06    -40.4843E+06    -40.4046E+06     46.4358E+06     35.7858E+06     2.15092E+06         60.3567
            1181     8.74823E-03     1.52301E-03     671.971E-03    -214.725E-03    -252.056E-03    -214.721E-03     671.967E-03    -252.056E-03    -3.49070E-03     420.850E-03    -191.877E-03    -228.973E-03    -191.449E-03     420.422E-03    -228.973E-03     29.5105E-03     32.3080E+06     6.72058E+06    -46.0928E+06    -45.8822E+06     30.6537E+06     8.16419E+06    -1.64305E+06         60.1719
            1182     7.92200E-03     1.53288E-03     684.393E-03    -224.112E-03    -255.417E-03    -224.109E-03     684.390E-03    -255.417E-03    -2.78262E-03     426.517E-03    -193.954E-03    -232.563E-03    -193.553E-03     426.116E-03    -232.563E-03     28.5681E-03     1.10723E+06    -19.6976E+06    -53.6347E+06    -50.9620E+06    -7.55616E+06    -13.7069E+06    -7.79109E+06         59.9865
            1183     7.09961E-03     1.54722E-03     695.839E-03    -232.797E-03    -258.482E-03    -232.795E-03     695.838E-03    -258.482E-03    -2.28394E-03     435.260E-03    -198.626E-03    -236.635E-03    -198.237E-03     434.871E-03    -236.635E-03     28.3766E-03    -27.1071E+06    -43.6449E+06    -72.7714E+06    -56.0933E+06    -58.7014E+06    -28.7288E+06    -9.89311E+06         59.8043
            1184     6.28168E-03     1.56536E-03     706.124E-03    -240.898E-03    -261.223E-03    -240.897E-03     706.123E-03    -261.223E-03    -1.57966E-03     446.246E-03    -205.227E-03    -241.019E-03    -204.859E-03     445.877E-03    -241.019E-03     27.9385E-03    -39.9142E+06    -59.8759E+06    -108.851E+06    -61.9126E+06    -106.814E+06    -39.9142E+06    -6.59104E+06         59.6295
            1185     5.47023E-03     1.58720E-03     715.222E-03    -248.221E-03    -263.603E-03    -248.221E-03     715.222E-03    -263.603E-03    -1.47010E-03     459.000E-03    -213.436E-03    -245.564E-03    -213.095E-03     458.660E-03    -245.564E-03     27.2913E-03    -49.3268E+06    -67.1020E+06    -148.617E+06    -67.3917E+06    -148.327E+06    -49.3268E+06    -3.02039E+06         59.4658
            1186     4.66622E-03     1.61109E-03     723.098E-03    -254.368E-03    -265.620E-03    -254.368E-03     723.097E-03    -265.620E-03    -1.04163E-03     472.857E-03    -222.731E-03    -250.125E-03    -222.423E-03     472.549E-03    -250.125E-03     26.3886E-03    -56.7195E+06    -71.3592E+06    -181.605E+06    -71.3793E+06    -181.585E+06    -56.7195E+06    -624.172E+03         59.3167
            1187     3.87021E-03     1.63640E-03     729.939E-03    -259.387E-03    -267.304E-03    -259.385E-03     729.938E-03    -267.304E-03    -1.97785E-03     487.120E-03    -232.562E-03    -254.558E-03    -232.304E-03     486.862E-03    -254.558E-03     24.5361E-03    -62.8924E+06    -74.0243E+06    -208.604E+06    -74.0466E+06    -208.582E+06    -62.8924E+06     1.29409E+06         59.1855
            1188     3.08238E-03     1.66254E-03     735.425E-03    -263.196E-03    -268.723E-03    -263.193E-03     735.422E-03    -268.723E-03    -216.217E-06     501.272E-03    -242.581E-03    -258.690E-03    -242.393E-03     501.083E-03    -258.690E-03     21.2621E-03    -67.7214E+06    -75.5842E+06    -230.272E+06    -75.6465E+06    -230.209E+06    -67.7214E+06     2.80826E+06         59.0746
            1189     2.30273E-03     1.68822E-03     739.935E-03    -266.548E-03    -269.900E-03    -266.536E-03     739.923E-03    -269.900E-03    -2.77975E-03     514.458E-03    -252.174E-03    -262.284E-03    -252.055E-03     514.340E-03    -262.284E-03     17.1010E-03    -71.9524E+06    -76.3932E+06    -247.031E+06    -76.4716E+06    -246.953E+06    -71.9524E+06     3.31246E+06         58.9859
            1190     1.53061E-03     1.70948E-03     742.718E-03    -269.013E-03    -270.861E-03    -268.967E-03     742.672E-03    -270.861E-03     3.50544E-03     525.272E-03    -260.167E-03    -265.105E-03    -260.106E-03     525.210E-03    -265.105E-03     12.3516E-03    -74.3730E+06    -76.8621E+06    -263.498E+06    -76.6433E+06    -263.439E+06    -74.6505E+06     2.80513E+06         58.9211
            1191     763.587E-06     1.72377E-03     745.047E-03    -268.719E-03    -274.079E-03    -272.978E-03     744.784E-03    -269.558E-03    -11.7910E-03     532.514E-03    -264.374E-03    -268.141E-03    -264.352E-03     532.493E-03    -268.141E-03     7.09789E-03    -75.6052E+06    -78.7245E+06    -275.599E+06    -77.4893E+06    -275.555E+06    -76.8837E+06     2.60602E+06         58.8807
            1192     797.567E-06     87.7428E-03     223.053E-03    -7.57678E-03    -140.660E-03     3.50043E-03     78.8924E-03    -7.57678E-03     155.153E-03     452.995E-03    -226.445E-03    -226.550E-03    -226.476E-03     452.994E-03    -226.519E-03     305.231E-06    -137.823E+06    -142.694E+06    -277.889E+06    -141.502E+06    -277.872E+06    -139.032E+06     306.131E+03         57.2905
            1193     1.59526E-03     87.7409E-03     129.670E-03    -2.11052E-03    -52.8753E-03    -2.46945E-03     79.2642E-03    -2.11052E-03    -37.2172E-03     452.866E-03    -226.354E-03    -226.512E-03    -226.354E-03     452.866E-03    -226.512E-03     620.350E-06    -128.410E+06    -138.542E+06    -258.838E+06    -138.546E+06    -258.833E+06    -128.410E+06    -384.177E+03         57.3588
            1194     2.39310E-03     87.7393E-03     106.879E-03    -2.38676E-03    -29.8894E-03    -3.55764E-03     80.5477E-03    -2.38676E-03     18.0309E-03     452.886E-03    -226.349E-03    -226.537E-03    -226.347E-03     452.884E-03    -226.537E-03     2.14181E-03    -111.132E+06    -131.611E+06    -237.031E+06    -131.617E+06    -237.025E+06    -111.132E+06    -627.109E+03         57.4680
            1195     3.19059E-03     87.7403E-03     94.0235E-03    -2.83618E-03    -16.6379E-03    -4.72275E-03     82.1084E-03    -2.83618E-03    -23.2545E-03     452.919E-03    -226.318E-03    -226.601E-03    -226.310E-03     452.911E-03    -226.601E-03     4.41318E-03    -89.7693E+06    -123.202E+06    -216.386E+06    -123.205E+06    -216.383E+06    -89.7693E+06    -295.812E+03         57.6165
            1196     3.98808E-03     87.7455E-03     88.5504E-03    -3.42870E-03    -10.5653E-03    -6.37859E-03     84.3637E-03    -3.42870E-03     2.19583E-03     452.759E-03    -226.104E-03    -226.655E-03    -226.080E-03     452.736E-03    -226.655E-03     7.70700E-03    -67.4744E+06    -114.310E+06    -196.532E+06    -114.316E+06    -196.526E+06    -67.4744E+06         12.7070         57.8014
            1197     4.78606E-03     87.7560E-03     90.6482E-03    -4.19041E-03    -11.9218E-03    -8.35958E-03     87.0860E-03    -4.19041E-03     292.651E-06     452.601E-03    -225.934E-03    -226.666E-03    -225.881E-03     452.547E-03    -226.666E-03     11.8942E-03    -46.9303E+06    -105.241E+06    -169.578E+06    -105.249E+06    -169.570E+06    -46.9303E+06    -52.3845E+03         58.0188
            1198     5.58404E-03     87.7729E-03     92.2740E-03    -5.12909E-03    -12.7114E-03    -10.8098E-03     90.3723E-03    -5.12909E-03     12.8983E-03     452.570E-03    -225.911E-03    -226.659E-03    -225.807E-03     452.467E-03    -226.659E-03     16.5796E-03    -27.6617E+06    -95.6121E+06    -137.698E+06    -95.6163E+06    -137.694E+06    -27.6617E+06    -296.562E+03         58.2638
            1199     6.38205E-03     87.7971E-03     95.0614E-03    -6.25066E-03    -14.5458E-03    -13.5956E-03     94.1112E-03    -6.25066E-03     7.71232E-03     452.550E-03    -225.898E-03    -226.652E-03    -225.722E-03     452.375E-03    -226.652E-03     21.6472E-03    -9.21522E+06    -86.0898E+06    -104.811E+06    -86.1437E+06    -104.757E+06    -9.21522E+06    -131.394E+03         58.5309
            1200     7.18008E-03     87.8289E-03     99.3299E-03    -7.54749E-03    -17.7102E-03    -16.6804E-03     98.3001E-03    -7.54749E-03     5.87356E-03     452.530E-03    -225.893E-03    -226.637E-03    -225.623E-03     452.260E-03    -226.637E-03     26.9073E-03     8.68095E+06    -64.6554E+06    -79.3469E+06    -76.8377E+06    -67.1646E+06     8.68095E+06     74.3428E+03         58.8137
            1201     7.97823E-03     87.8690E-03     103.281E-03    -9.00855E-03    -20.3897E-03    -20.0033E-03     102.895E-03    -9.00855E-03    -1.10988E-03     452.521E-03    -225.908E-03    -226.613E-03    -225.520E-03     452.133E-03    -226.613E-03     32.3225E-03     27.1441E+06    -22.3911E+06    -67.1473E+06    -67.1429E+06    -22.3955E+06     27.1441E+06     158.145E+03         59.1054
            1202     8.77652E-03     87.9175E-03     108.391E-03    -10.6235E-03    -24.0746E-03    -23.5550E-03     107.871E-03    -10.6235E-03    -3.69061E-03     452.676E-03    -226.087E-03    -226.589E-03    -225.549E-03     452.138E-03    -226.589E-03     38.0940E-03     44.9019E+06     23.6278E+06    -57.6456E+06    -57.6444E+06     23.6266E+06     44.9019E+06     144.115E+03         59.3993
            1203     9.57427E-03     87.9755E-03     113.606E-03    -12.3810E-03    -27.7457E-03    -27.2557E-03     113.116E-03    -12.3810E-03    -3.91512E-03     453.032E-03    -226.352E-03    -226.680E-03    -225.717E-03     452.312E-03    -226.595E-03     44.1123E-03     59.0342E+06     46.9680E+06    -48.5614E+06    -48.5579E+06     46.9646E+06     59.0342E+06    -287.861E+03         59.6882
            1204     10.3720E-03     88.0422E-03     118.685E-03    -14.2671E-03    -31.2246E-03    -31.0595E-03     118.520E-03    -14.2671E-03     2.45962E-03     453.481E-03    -226.524E-03    -226.957E-03    -225.907E-03     452.546E-03    -226.638E-03     50.2904E-03     73.0398E+06     53.8913E+06    -39.4691E+06    -39.4632E+06     53.8854E+06     73.0398E+06    -327.947E+03         59.9658
            1205     11.1687E-03     88.1201E-03     124.425E-03    -16.2761E-03    -35.3011E-03    -34.8951E-03     124.019E-03    -16.2761E-03     7.40787E-03     453.979E-03    -226.648E-03    -227.331E-03    -226.032E-03     452.732E-03    -226.700E-03     57.9391E-03     89.0620E+06     61.3381E+06    -31.0712E+06    -31.0568E+06     61.3237E+06     89.0620E+06     448.302E+03         60.2265
            1206     11.9647E-03     88.2114E-03     129.984E-03    -18.3842E-03    -39.0767E-03    -38.6601E-03     129.568E-03    -18.3842E-03     6.73634E-03     454.064E-03    -226.407E-03    -227.656E-03    -225.817E-03     452.565E-03    -226.747E-03     63.3474E-03     103.217E+06     67.4065E+06    -22.4955E+06    -22.4728E+06     67.3838E+06     103.217E+06     1.16071E+06         60.4657
            1207     12.7609E-03     88.3077E-03     135.325E-03    -20.6216E-03    -42.4706E-03    -42.3487E-03     135.203E-03    -20.6216E-03     874.427E-06     454.407E-03    -226.354E-03    -228.053E-03    -225.215E-03     451.945E-03    -226.731E-03     79.4303E-03     112.233E+06     74.2645E+06    -13.6492E+06    -13.6361E+06     74.2515E+06     112.233E+06     951.495E+03         60.6806
            1208     13.5580E-03     88.4522E-03     140.964E-03    -22.9535E-03    -46.1050E-03    -45.9158E-03     140.775E-03    -22.9535E-03    -1.66021E-03     453.039E-03    -225.553E-03    -227.486E-03    -223.699E-03     450.311E-03    -226.613E-03     84.5930E-03     114.808E+06     80.3380E+06    -6.28530E+06    -6.26821E+06     80.3209E+06     114.808E+06    -81.4824E+03         60.8697
            1209     797.587E-06     89.3146E-03     231.353E-03    -48.1579E-03    -109.652E-03     6.98954E-03     114.712E-03    -48.1579E-03     139.269E-03     452.928E-03    -226.381E-03    -226.548E-03    -226.507E-03     452.928E-03    -226.421E-03     120.616E-06    -138.109E+06    -141.775E+06    -277.561E+06    -141.491E+06    -277.544E+06    -138.411E+06     710.583E+03         57.2582
            1210     1.59531E-03     89.3127E-03     146.719E-03    -20.4966E-03    -52.7794E-03    -20.2051E-03     114.145E-03    -20.4966E-03    -32.0550E-03     452.948E-03    -226.428E-03    -226.520E-03    -226.443E-03     452.948E-03    -226.505E-03     421.445E-06    -126.847E+06    -136.702E+06    -257.388E+06    -136.708E+06    -257.382E+06    -126.847E+06    -581.375E+03         57.3273
            1211     2.39283E-03     89.3114E-03     131.142E-03    -20.5513E-03    -37.1753E-03    -21.3585E-03     115.325E-03    -20.5513E-03     15.6567E-03     452.979E-03    -226.411E-03    -226.568E-03    -226.417E-03     452.978E-03    -226.560E-03     1.93687E-03    -110.743E+06    -131.610E+06    -236.841E+06    -131.617E+06    -236.835E+06    -110.743E+06    -527.888E+03         57.4378
            1212     3.19025E-03     89.3134E-03     122.928E-03    -20.8450E-03    -28.8257E-03    -21.9520E-03     116.054E-03    -20.8450E-03    -21.4806E-03     452.907E-03    -226.285E-03    -226.622E-03    -226.277E-03     452.899E-03    -226.622E-03     4.46775E-03    -90.7449E+06    -124.389E+06    -216.991E+06    -124.391E+06    -216.988E+06    -90.7449E+06    -413.915E+03         57.5881
            1213     3.98801E-03     89.3174E-03     119.896E-03    -21.2393E-03    -25.3828E-03    -23.1491E-03     117.663E-03    -21.2393E-03     1.80203E-03     452.806E-03    -226.140E-03    -226.666E-03    -226.115E-03     452.782E-03    -226.666E-03     7.87900E-03    -69.2404E+06    -115.357E+06    -196.549E+06    -115.371E+06    -196.534E+06    -69.2404E+06    -332.467E+03         57.7754
            1214     4.78595E-03     89.3280E-03     121.354E-03    -21.7582E-03    -26.2383E-03    -24.1677E-03     119.283E-03    -21.7582E-03     1.14236E-03     452.676E-03    -225.992E-03    -226.684E-03    -225.938E-03     452.622E-03    -226.684E-03     11.9578E-03    -48.0670E+06    -105.778E+06    -169.350E+06    -105.796E+06    -169.332E+06    -48.0670E+06    -169.030E+03         57.9956
            1215     5.58395E-03     89.3451E-03     122.503E-03    -22.3957E-03    -26.8684E-03    -25.7122E-03     121.347E-03    -22.3957E-03     12.8746E-03     452.575E-03    -225.893E-03    -226.682E-03    -225.791E-03     452.474E-03    -226.682E-03     16.4205E-03    -28.0907E+06    -96.2899E+06    -137.835E+06    -96.2994E+06    -137.826E+06    -28.0907E+06     139.412E+03         58.2440
            1216     6.38196E-03     89.3692E-03     124.291E-03    -23.1729E-03    -28.0200E-03    -27.3892E-03     123.661E-03    -23.1729E-03     8.31579E-03     452.567E-03    -225.894E-03    -226.673E-03    -225.723E-03     452.395E-03    -226.673E-03     21.4161E-03    -9.44394E+06    -86.6605E+06    -104.820E+06    -86.7413E+06    -104.739E+06    -9.44394E+06     90.2946E+03         58.5149
            1217     7.17997E-03     89.4014E-03     127.119E-03    -24.0874E-03    -30.0949E-03    -29.3928E-03     126.417E-03    -24.0874E-03     6.16513E-03     452.621E-03    -225.961E-03    -226.659E-03    -225.695E-03     452.355E-03    -226.659E-03     26.7362E-03     8.62144E+06    -64.6762E+06    -79.4265E+06    -76.9467E+06    -67.1560E+06     8.62144E+06    -116.873E+03         58.8017
            1218     7.97791E-03     89.4414E-03     129.690E-03    -25.1381E-03    -31.8199E-03    -31.5512E-03     129.421E-03    -25.1381E-03    -519.013E-06     452.698E-03    -226.054E-03    -226.644E-03    -225.667E-03     452.311E-03    -226.644E-03     32.2857E-03     27.0296E+06    -22.5233E+06    -67.1005E+06    -67.0978E+06    -22.5259E+06     27.0296E+06    -169.896E+03         59.0978
            1219     8.77573E-03     89.4904E-03     133.074E-03    -26.3121E-03    -34.1578E-03    -33.7735E-03     132.689E-03    -26.3121E-03    -3.15564E-03     452.783E-03    -226.158E-03    -226.626E-03    -225.611E-03     452.236E-03    -226.626E-03     38.4015E-03     44.7531E+06     23.7132E+06    -57.4369E+06    -57.4349E+06     23.7112E+06     44.7531E+06    -66.0648E+03         59.3960
            1220     9.57393E-03     89.5487E-03     136.500E-03    -27.5970E-03    -36.4544E-03    -36.0850E-03     136.131E-03    -27.5970E-03    -3.33353E-03     453.080E-03    -226.367E-03    -226.714E-03    -225.700E-03     452.329E-03    -226.628E-03     45.0458E-03     58.9598E+06     47.3131E+06    -48.4567E+06    -48.4475E+06     47.3039E+06     58.9598E+06     161.128E+03         59.6892
            1221     10.3716E-03     89.6164E-03     139.821E-03    -28.9839E-03    -38.6446E-03    -38.5097E-03     139.686E-03    -28.9839E-03     2.80376E-03     453.553E-03    -226.572E-03    -226.981E-03    -225.872E-03     452.535E-03    -226.663E-03     52.4619E-03     72.2585E+06     53.1784E+06    -40.3098E+06    -40.2996E+06     53.1682E+06     72.2585E+06     398.948E+03         59.9708
            1222     11.1699E-03     89.6944E-03     143.599E-03    -30.4687E-03    -41.2070E-03    -40.8570E-03     143.249E-03    -30.4687E-03     7.69598E-03     454.074E-03    -226.684E-03    -227.390E-03    -225.944E-03     452.655E-03    -226.711E-03     61.8921E-03     88.2545E+06     60.3457E+06    -31.7620E+06    -31.7484E+06     60.3321E+06     88.2545E+06     637.260E+03         60.2351
            1223     11.9689E-03     89.7865E-03     147.163E-03    -32.0252E-03    -43.4257E-03    -43.0639E-03     146.802E-03    -32.0252E-03     6.95928E-03     454.576E-03    -226.751E-03    -227.825E-03    -226.031E-03     452.782E-03    -226.751E-03     69.8236E-03     103.057E+06     67.4287E+06    -22.6422E+06    -22.6178E+06     67.4043E+06     103.057E+06      486.06E+03         60.4773
            1224     12.7677E-03     89.8831E-03     150.421E-03    -33.6821E-03    -45.2923E-03    -45.1855E-03     150.315E-03    -33.6821E-03     1.10741E-03     455.398E-03    -226.744E-03    -228.654E-03    -225.775E-03     452.519E-03    -226.744E-03     87.1554E-03     112.553E+06     74.9019E+06    -13.5780E+06    -13.5644E+06     74.8883E+06     112.553E+06     128.369E+03         60.6942
            1225     13.5690E-03     90.0226E-03     153.942E-03    -35.4022E-03    -47.3499E-03    -47.1800E-03     153.772E-03    -35.4022E-03    -1.42302E-03     453.747E-03    -225.634E-03    -228.114E-03    -224.088E-03     450.728E-03    -226.640E-03     89.4255E-03     115.288E+06     80.7950E+06    -6.27979E+06    -6.25540E+06     80.7706E+06     115.288E+06    -69.4941E+03         60.8846
            1226     797.676E-06     90.8867E-03     226.520E-03    -51.8594E-03    -101.987E-03     9.79818E-03     152.454E-03    -89.5797E-03     105.626E-03     453.026E-03    -226.413E-03    -226.613E-03    -226.613E-03     453.026E-03    -226.413E-03     206.740E-06    -138.912E+06    -141.165E+06    -276.762E+06    -140.870E+06    -276.754E+06    -139.214E+06     272.494E+03         57.2252
            1227     1.59506E-03     90.8849E-03     166.511E-03    -39.6950E-03    -54.3885E-03    -38.9322E-03     151.054E-03    -39.6950E-03    -21.3753E-03     453.095E-03    -226.493E-03    -226.602E-03    -226.537E-03     453.095E-03    -226.558E-03     557.890E-06    -128.627E+06    -137.984E+06    -257.323E+06    -137.987E+06    -257.320E+06    -128.627E+06     57.6347E+03         57.2952
            1228     2.39245E-03     90.8844E-03     159.685E-03    -39.6036E-03    -47.7337E-03    -40.2413E-03     152.193E-03    -39.6036E-03     10.6515E-03     452.921E-03    -226.307E-03    -226.614E-03    -226.313E-03     452.919E-03    -226.606E-03     2.09215E-03    -110.867E+06    -132.236E+06    -236.738E+06    -132.237E+06    -236.738E+06    -110.867E+06     76.7896E+03         57.4069
            1229     3.19055E-03     90.8848E-03     155.365E-03    -39.7634E-03    -43.2843E-03    -40.0270E-03     152.107E-03    -39.7634E-03    -17.8453E-03     452.766E-03    -226.140E-03    -226.626E-03    -226.131E-03     452.757E-03    -226.626E-03     4.57357E-03    -90.4812E+06    -124.718E+06    -216.618E+06    -124.721E+06    -216.615E+06    -90.4812E+06    -254.187E+03         57.5591
            1230     3.98840E-03     90.8902E-03     154.000E-03    -39.9443E-03    -41.7337E-03    -40.7430E-03     153.009E-03    -39.9443E-03     594.572E-06     452.858E-03    -226.199E-03    -226.659E-03    -226.175E-03     452.834E-03    -226.659E-03     7.95811E-03    -69.0668E+06    -115.557E+06    -196.387E+06    -115.573E+06    -196.372E+06    -69.0668E+06    -557.524E+03         57.7487
            1231     4.78578E-03     90.9003E-03     154.619E-03    -40.2141E-03    -42.0293E-03    -40.9222E-03     153.512E-03    -40.2141E-03     2.69532E-03     452.875E-03    -226.177E-03    -226.698E-03    -226.123E-03     452.821E-03    -226.698E-03     11.9445E-03    -48.1410E+06    -105.987E+06    -169.966E+06    -106.003E+06    -169.950E+06    -48.1410E+06    -255.283E+03         57.9719
            1232     5.58359E-03     90.9173E-03     155.063E-03    -40.4099E-03    -42.2660E-03    -41.4627E-03     154.392E-03    -40.5430E-03     12.4951E-03     452.720E-03    -226.005E-03    -226.714E-03    -225.904E-03     452.618E-03    -226.714E-03     16.4487E-03    -28.3343E+06    -96.4749E+06    -138.037E+06    -96.4854E+06    -138.026E+06    -28.3343E+06     88.0111E+03         58.2236
            1233     6.38154E-03     90.9416E-03     155.642E-03    -40.8288E-03    -42.6056E-03    -42.0615E-03     155.232E-03    -40.9620E-03     9.12123E-03     452.612E-03    -225.902E-03    -226.709E-03    -225.730E-03     452.439E-03    -226.709E-03     21.4614E-03    -9.19305E+06    -86.4896E+06    -103.964E+06    -86.5436E+06    -103.910E+06    -9.19305E+06    -74.7460E+03         58.4983
            1234     7.17958E-03     90.9737E-03     156.861E-03    -41.3162E-03    -43.5150E-03    -42.8834E-03     156.390E-03    -41.4762E-03     6.33848E-03     452.594E-03    -225.905E-03    -226.689E-03    -225.635E-03     452.324E-03    -226.689E-03     26.9245E-03     8.74284E+06    -64.7788E+06    -79.1881E+06    -76.8699E+06    -67.0970E+06     8.74284E+06    -309.937E+03         58.7894
            1235     7.97762E-03     91.0143E-03     157.864E-03    -41.7449E-03    -44.2082E-03    -43.6892E-03     157.684E-03    -42.0836E-03     183.279E-06     452.599E-03    -225.940E-03    -226.659E-03    -225.542E-03     452.201E-03    -226.659E-03     32.7168E-03     26.4762E+06    -22.6161E+06    -67.6883E+06    -67.6824E+06    -22.6220E+06     26.4762E+06    -276.754E+03         59.0898
            1236     8.77587E-03     91.0630E-03     159.474E-03    -42.4054E-03    -45.2585E-03    -44.6073E-03     159.193E-03    -42.7760E-03    -2.70227E-03     452.567E-03    -225.944E-03    -226.622E-03    -225.380E-03     452.002E-03    -226.622E-03     38.9899E-03     43.9609E+06     23.2280E+06    -58.6259E+06    -58.6230E+06     23.2252E+06     43.9609E+06    -16.3647E+03         59.3925
            1237     9.57416E-03     91.1212E-03     161.021E-03    -43.0393E-03    -46.3267E-03    -45.5393E-03     160.745E-03    -43.5506E-03    -2.76264E-03     452.630E-03    -226.034E-03    -226.596E-03    -225.258E-03     451.854E-03    -226.596E-03     45.7376E-03     58.0653E+06     46.5566E+06    -49.4600E+06    -49.4518E+06     46.5484E+06     58.0653E+06     371.133E+03         59.6902
            1238     10.3730E-03     91.1890E-03     162.403E-03    -43.5751E-03    -47.3563E-03    -46.4275E-03     162.296E-03    -44.3967E-03     3.08556E-03     452.837E-03    -226.248E-03    -226.589E-03    -225.215E-03     451.804E-03    -226.589E-03     52.7948E-03     71.6806E+06     53.0999E+06    -40.3410E+06    -40.3337E+06     53.0926E+06     71.6806E+06     444.400E+03         59.9761
            1239     11.1717E-03     91.2664E-03     164.086E-03    -44.2439E-03    -48.5386E-03    -47.1736E-03     163.785E-03    -45.3084E-03     7.99271E-03     453.279E-03    -226.489E-03    -226.791E-03    -225.282E-03     451.883E-03    -226.601E-03     61.3709E-03     88.7629E+06     60.8671E+06    -31.4234E+06    -31.4213E+06     60.8651E+06     88.7629E+06    -65.1014E+03         60.2441
            1240     11.9701E-03     91.3584E-03     165.530E-03    -44.8288E-03    -49.6026E-03    -47.8512E-03     165.217E-03    -46.2665E-03     7.09987E-03     453.720E-03    -226.613E-03    -227.108E-03    -225.409E-03     452.022E-03    -226.613E-03     67.9092E-03     104.117E+06     68.2427E+06    -22.6753E+06    -22.6674E+06     68.2349E+06     104.117E+06    -778.525E+03         60.4894
            1241     12.7685E-03     91.4555E-03     166.661E-03    -45.2251E-03    -50.4760E-03    -48.3115E-03     166.568E-03    -47.2965E-03     1.27019E-03     454.753E-03    -226.593E-03    -228.161E-03    -225.575E-03     452.168E-03    -226.593E-03     82.8231E-03     112.165E+06     74.6932E+06    -14.7221E+06    -14.7134E+06     74.6845E+06     112.165E+06    -437.047E+03         60.7086
            1242     13.5652E-03     91.5920E-03     167.934E-03    -45.6342E-03    -51.4414E-03    -48.5723E-03     167.783E-03    -48.3527E-03    -1.22939E-03     454.684E-03    -226.537E-03    -228.147E-03    -225.452E-03     451.989E-03    -226.537E-03     84.8767E-03     114.228E+06     80.4063E+06    -7.17898E+06    -7.16679E+06     80.3941E+06     114.228E+06     464.741E+03         60.9001
            1243     797.524E-06     92.4590E-03     217.826E-03    -12.2683E-03    -133.682E-03     13.3809E-03     190.614E-03    -132.119E-03     55.8070E-03     453.097E-03    -226.412E-03    -226.684E-03    -226.657E-03     453.096E-03    -226.439E-03     573.107E-06    -139.058E+06    -141.570E+06    -277.079E+06    -141.445E+06    -277.076E+06    -139.187E+06     40.3947E+03         57.1915
            1244     1.59498E-03     92.4577E-03     192.531E-03    -57.8506E-03    -63.0797E-03    -57.8717E-03     188.549E-03    -59.0766E-03    -5.44095E-03     453.011E-03    -226.413E-03    -226.598E-03    -226.442E-03     453.011E-03    -226.569E-03     704.612E-06    -128.396E+06    -138.083E+06    -257.346E+06    -138.086E+06    -257.344E+06    -128.396E+06     70.5245E+03         57.2623
            1245     2.39289E-03     92.4562E-03     191.915E-03    -58.4950E-03    -61.7810E-03    -59.2114E-03     189.681E-03    -58.8307E-03     2.93275E-03     452.899E-03    -226.308E-03    -226.591E-03    -226.306E-03     452.897E-03    -226.591E-03     2.12270E-03    -110.774E+06    -131.939E+06    -236.595E+06    -131.941E+06    -236.593E+06    -110.774E+06    -182.370E+03         57.3753
            1246     3.19039E-03     92.4570E-03     189.761E-03    -58.5160E-03    -59.7171E-03    -58.3478E-03     188.727E-03    -58.8517E-03    -12.7941E-03     452.897E-03    -226.265E-03    -226.632E-03    -226.257E-03     452.889E-03    -226.632E-03     4.48687E-03    -89.0718E+06    -123.796E+06    -215.833E+06    -123.803E+06    -215.826E+06    -89.0718E+06    -161.759E+03         57.5294
            1247     3.98801E-03     92.4625E-03     189.154E-03    -58.3301E-03    -59.2366E-03    -58.4593E-03     188.868E-03    -58.8218E-03    -1.69803E-03     452.871E-03    -226.190E-03    -226.681E-03    -226.165E-03     452.846E-03    -226.681E-03     7.87930E-03    -67.5413E+06    -115.309E+06    -196.474E+06    -115.317E+06    -196.467E+06    -67.5413E+06     48.3755E+03         57.7214
            1248     4.78595E-03     92.4732E-03     188.783E-03    -57.9941E-03    -59.1327E-03    -57.7961E-03     188.283E-03    -58.8302E-03     4.63388E-03     452.836E-03    -226.126E-03    -226.710E-03    -226.071E-03     452.781E-03    -226.710E-03     11.9873E-03    -47.1537E+06    -105.716E+06    -170.094E+06    -105.721E+06    -170.089E+06    -47.1537E+06    -149.660E+03         57.9475
            1249     5.58355E-03     92.4898E-03     188.365E-03    -57.5813E-03    -59.0906E-03    -57.4758E-03     188.017E-03    -58.8476E-03     11.6121E-03     452.765E-03    -226.046E-03    -226.719E-03    -225.941E-03     452.659E-03    -226.719E-03     16.7133E-03    -28.0070E+06    -95.5612E+06    -137.735E+06    -95.5699E+06    -137.726E+06    -28.0070E+06    -537.625E+03         58.2027
            1250     6.38147E-03     92.5139E-03     187.682E-03    -57.1407E-03    -58.9892E-03    -56.9661E-03     187.427E-03    -58.9086E-03     9.85719E-03     452.629E-03    -225.917E-03    -226.713E-03    -225.738E-03     452.451E-03    -226.713E-03     21.8405E-03    -9.43975E+06    -85.7400E+06    -104.078E+06    -85.7534E+06    -104.065E+06    -9.43975E+06    -251.914E+03         58.4812
            1251     7.17957E-03     92.5461E-03     187.289E-03    -56.7912E-03    -59.0946E-03    -56.5737E-03     186.991E-03    -59.0139E-03     6.16961E-03     452.463E-03    -225.777E-03    -226.686E-03    -225.500E-03     452.186E-03    -226.686E-03     27.2782E-03     8.54474E+06    -64.8103E+06    -79.1009E+06    -76.6928E+06    -67.2185E+06     8.54474E+06     207.180E+03         58.7766
            1252     7.97794E-03     92.5864E-03     186.665E-03    -56.2047E-03    -59.1679E-03    -56.0901E-03     186.550E-03    -59.1679E-03     878.689E-06     452.335E-03    -225.697E-03    -226.638E-03    -225.290E-03     451.928E-03    -226.638E-03     33.0624E-03     26.5334E+06    -22.8582E+06    -67.7288E+06    -67.7022E+06    -22.8849E+06     26.5334E+06     442.600E+03         59.0816
            1253     8.77632E-03     92.6353E-03     186.449E-03    -55.8827E-03    -59.3686E-03    -55.6803E-03     186.247E-03    -59.3686E-03    -2.43795E-03     452.295E-03    -225.714E-03    -226.581E-03    -225.145E-03     451.726E-03    -226.581E-03     39.1626E-03     44.2539E+06     23.2521E+06    -58.4097E+06    -58.4029E+06     23.2453E+06     44.2539E+06     324.551E+03         59.3890
            1254     9.57500E-03     92.6930E-03     186.062E-03    -55.3423E-03    -59.6143E-03    -55.1362E-03     185.856E-03    -59.6143E-03    -2.27955E-03     452.422E-03    -225.879E-03    -226.543E-03    -225.106E-03     451.649E-03    -226.543E-03     45.6497E-03     58.4148E+06     46.6248E+06    -49.3000E+06    -49.2968E+06     46.6216E+06     58.4148E+06    -167.873E+03         59.6912
            1255     10.3734E-03     92.7607E-03     185.461E-03    -54.5672E-03    -59.8950E-03    -54.4839E-03     185.378E-03    -59.8950E-03     3.27082E-03     452.746E-03    -226.192E-03    -226.554E-03    -225.200E-03     451.736E-03    -226.536E-03     52.2395E-03     72.2698E+06     53.4338E+06    -40.0482E+06    -40.0390E+06     53.4246E+06     72.2698E+06    -537.345E+03         59.9813
            1256     11.1721E-03     92.8382E-03     185.005E-03    -53.9385E-03    -60.2100E-03    -53.6835E-03     184.750E-03    -60.2100E-03     8.19652E-03     453.262E-03    -226.469E-03    -226.793E-03    -225.350E-03     451.904E-03    -226.554E-03     60.5039E-03     89.3323E+06     61.5143E+06    -30.8298E+06    -30.8207E+06     61.5053E+06     89.3323E+06    -506.160E+03         60.2531
            1257     11.9704E-03     92.9313E-03     184.240E-03    -52.9690E-03    -60.5411E-03    -52.7010E-03     183.972E-03    -60.5411E-03     7.17635E-03     453.649E-03    -226.571E-03    -227.078E-03    -225.416E-03     451.987E-03    -226.571E-03     67.1706E-03     103.980E+06     68.0610E+06    -22.3492E+06    -22.3404E+06     68.0522E+06     103.980E+06    -39.0180E+03         60.5014
            1258     12.7687E-03     93.0275E-03     183.162E-03    -51.6229E-03    -60.9131E-03    -51.5428E-03     183.082E-03    -60.9131E-03     1.47518E-03     454.709E-03    -226.552E-03    -228.157E-03    -225.576E-03     452.128E-03    -226.552E-03     82.6681E-03     111.742E+06     74.2384E+06    -14.6796E+06    -14.6687E+06     74.2275E+06     111.742E+06     175.158E+03         60.7229
            1259     13.5687E-03     93.1655E-03     182.143E-03    -50.3087E-03    -61.2875E-03    -50.1730E-03     182.007E-03    -61.2875E-03    -1.15150E-03     454.851E-03    -226.501E-03    -228.350E-03    -225.616E-03     452.117E-03    -226.501E-03     85.5831E-03     113.958E+06     80.4679E+06    -6.94554E+06    -6.94233E+06     80.4647E+06     113.958E+06    -56.8431E+03         60.9158
            1260     797.523E-06     94.0316E-03     242.187E-03     2.28195E-03    -173.249E-03     16.2077E-03     228.261E-03    -173.249E-03    -7.44353E-03     453.015E-03    -226.385E-03    -226.630E-03    -226.577E-03     453.015E-03    -226.438E-03     679.619E-06    -138.959E+06    -141.573E+06    -276.518E+06    -141.193E+06    -276.500E+06    -139.358E+06    -1.00229E+06         57.1571
            1261     1.59527E-03     94.0296E-03     227.218E-03    -76.7815E-03    -79.4603E-03    -76.3582E-03     225.425E-03    -78.0911E-03     14.9491E-03     452.952E-03    -226.416E-03    -226.536E-03    -226.418E-03     452.952E-03    -226.533E-03     649.280E-06    -127.729E+06    -137.346E+06    -256.783E+06    -137.348E+06    -256.781E+06    -127.729E+06    -453.798E+03         57.2287
            1262     2.39276E-03     94.0284E-03     226.773E-03    -76.6137E-03    -79.0006E-03    -77.5133E-03     226.304E-03    -77.6314E-03    -7.25259E-03     452.996E-03    -226.414E-03    -226.582E-03    -226.415E-03     452.994E-03    -226.579E-03     2.09792E-03    -110.267E+06    -131.552E+06    -236.953E+06    -131.559E+06    -236.946E+06    -110.267E+06    -95.5777E+03         57.3431
            1263     3.19031E-03     94.0299E-03     224.707E-03    -76.3351E-03    -77.5237E-03    -76.1834E-03     224.504E-03    -77.4716E-03    -6.86321E-03     452.979E-03    -226.333E-03    -226.646E-03    -226.325E-03     452.970E-03    -226.646E-03     4.57000E-03    -89.1100E+06    -123.889E+06    -216.402E+06    -123.897E+06    -216.394E+06    -89.1100E+06     421.288E+03         57.4989
            1264     3.98799E-03     94.0346E-03     223.957E-03    -75.7357E-03    -77.2767E-03    -75.7072E-03     223.876E-03    -77.2246E-03    -4.95929E-03     452.827E-03    -226.134E-03    -226.693E-03    -226.109E-03     452.802E-03    -226.693E-03     8.00612E-03    -67.2370E+06    -114.858E+06    -195.661E+06    -114.862E+06    -195.658E+06    -67.2370E+06     182.468E+03         57.6934
            1265     4.78575E-03     94.0455E-03     222.378E-03    -74.3255E-03    -76.9638E-03    -74.1559E-03     222.208E-03    -76.9638E-03     6.69229E-03     452.659E-03    -225.957E-03    -226.701E-03    -225.901E-03     452.602E-03    -226.701E-03     12.1497E-03    -46.9419E+06    -105.198E+06    -169.588E+06    -105.199E+06    -169.587E+06    -46.9419E+06    -203.267E+03         57.9224
            1266     5.58392E-03     94.0622E-03     220.892E-03    -73.1230E-03    -76.6596E-03    -72.9746E-03     220.743E-03    -76.6596E-03     10.0934E-03     452.598E-03    -225.907E-03    -226.691E-03    -225.800E-03     452.491E-03    -226.691E-03     16.8495E-03    -27.6964E+06    -95.6374E+06    -137.625E+06    -95.6435E+06    -137.619E+06    -27.6964E+06    -194.245E+03         58.1812
            1267     6.38180E-03     94.0864E-03     218.936E-03    -71.5290E-03    -76.3520E-03    -71.3738E-03     218.781E-03    -76.3520E-03     10.5278E-03     452.541E-03    -225.865E-03    -226.676E-03    -225.684E-03     452.360E-03    -226.676E-03     22.0083E-03    -9.50744E+06    -86.2617E+06    -104.752E+06    -86.2681E+06    -104.746E+06    -9.50744E+06    -159.460E+03         58.4637
            1268     7.17990E-03     94.1180E-03     217.073E-03    -70.0682E-03    -76.0427E-03    -69.8954E-03     216.900E-03    -76.0427E-03     5.59681E-03     452.408E-03    -225.760E-03    -226.648E-03    -225.481E-03     452.129E-03    -226.648E-03     27.3730E-03     8.50449E+06    -64.6855E+06    -79.5670E+06    -76.6409E+06    -67.6116E+06     8.50449E+06    -30.3543E+03         58.7634
            1269     7.97826E-03     94.1582E-03     214.877E-03    -68.3363E-03    -75.7478E-03    -68.2687E-03     214.809E-03    -75.7478E-03     1.38479E-03     452.266E-03    -225.663E-03    -226.603E-03    -225.259E-03     451.861E-03    -226.603E-03     32.9734E-03     26.9588E+06    -23.2187E+06    -66.9230E+06    -66.8805E+06    -23.2612E+06     26.9588E+06     30.3128E+03         59.0731
            1270     8.77685E-03     94.2071E-03     212.818E-03    -66.6266E-03    -75.4620E-03    -66.4831E-03     212.674E-03    -75.4620E-03    -2.44182E-03     452.240E-03    -225.692E-03    -226.547E-03    -225.132E-03     451.680E-03    -226.547E-03     38.8412E-03     44.9842E+06     23.4521E+06    -56.8818E+06    -56.8673E+06     23.4376E+06     44.9842E+06     220.031E+03         59.3851
            1271     9.57527E-03     94.2649E-03     210.522E-03    -64.6024E-03    -75.1768E-03    -64.4474E-03     210.367E-03    -75.1768E-03    -1.87890E-03     452.453E-03    -225.938E-03    -226.516E-03    -225.180E-03     451.696E-03    -226.516E-03     45.1889E-03     59.6252E+06     47.7711E+06    -47.7757E+06    -47.7693E+06     47.7647E+06     59.6252E+06     43.0709E+03         59.6920
            1272     10.3737E-03     94.3329E-03     207.994E-03    -62.4161E-03    -74.8888E-03    -62.3513E-03     207.929E-03    -74.8888E-03     3.30952E-03     452.831E-03    -226.293E-03    -226.538E-03    -225.308E-03     451.827E-03    -226.519E-03     52.0637E-03     73.3244E+06     53.9768E+06    -39.3973E+06    -39.3881E+06     53.9677E+06     73.3244E+06    -455.289E+03         59.9864
            1273     11.1717E-03     94.4107E-03     205.424E-03    -60.2443E-03    -74.6026E-03    -60.0281E-03     205.208E-03    -74.6026E-03     8.23340E-03     453.267E-03    -226.513E-03    -226.755E-03    -225.370E-03     451.910E-03    -226.540E-03     60.4960E-03     89.1254E+06     61.1457E+06    -31.3111E+06    -31.3024E+06     61.1369E+06     89.1254E+06    -367.383E+03         60.2619
            1274     11.9705E-03     94.5027E-03     202.478E-03    -57.6669E-03    -74.2986E-03    -57.4382E-03     202.249E-03    -74.2986E-03     7.10216E-03     453.422E-03    -226.548E-03    -226.873E-03    -225.220E-03     451.768E-03    -226.548E-03     66.9701E-03     102.850E+06     67.0820E+06    -23.0814E+06    -23.0727E+06     67.0733E+06     102.850E+06     45.3368E+03         60.5135
            1275     12.7695E-03     94.5996E-03     199.211E-03    -54.7539E-03    -74.0038E-03    -54.6846E-03     199.142E-03    -74.0038E-03     1.56888E-03     454.392E-03    -226.519E-03    -227.874E-03    -225.327E-03     451.846E-03    -226.519E-03     82.1201E-03     111.521E+06     74.2888E+06    -14.3695E+06    -14.3589E+06     74.2782E+06     111.521E+06     104.589E+03         60.7374
            1276     13.5676E-03     94.7353E-03     195.992E-03    -51.8995E-03    -73.6912E-03    -51.7776E-03     195.870E-03    -73.6912E-03    -1.13064E-03     454.928E-03    -226.472E-03    -228.457E-03    -225.760E-03     452.232E-03    -226.472E-03     85.0162E-03     114.579E+06     80.8578E+06    -6.42965E+06    -6.42678E+06     80.8550E+06     114.579E+06    -145.286E+03         60.9317
            1277     797.626E-06     95.6031E-03     320.523E-03    -33.7397E-03    -216.387E-03     18.7238E-03     263.551E-03    -211.878E-03    -80.7410E-03     453.068E-03    -226.383E-03    -226.685E-03    -226.435E-03     453.068E-03    -226.632E-03     196.911E-06    -139.128E+06    -143.190E+06    -276.164E+06    -142.955E+06    -276.129E+06    -139.399E+06    -18.6763E+03         57.1220
            1278     1.59520E-03     95.6018E-03     269.514E-03    -95.9060E-03    -103.185E-03    -93.7754E-03     260.188E-03    -95.9896E-03     38.4408E-03     452.939E-03    -226.388E-03    -226.551E-03    -226.390E-03     452.939E-03    -226.548E-03     585.225E-06    -129.081E+06    -139.184E+06    -256.234E+06    -139.187E+06    -256.231E+06    -129.081E+06    -4.47218E+03         57.1944
            1279     2.39269E-03     95.6011E-03     262.728E-03    -94.1065E-03    -98.0170E-03    -94.7235E-03     260.658E-03    -95.3303E-03    -19.1012E-03     452.936E-03    -226.354E-03    -226.582E-03    -226.354E-03     452.934E-03    -226.580E-03     2.23824E-03    -110.838E+06    -132.715E+06    -237.575E+06    -132.726E+06    -237.563E+06    -110.838E+06    -53.2516E+03         57.3101
            1280     3.19038E-03     95.6020E-03     258.750E-03    -93.4489E-03    -94.9751E-03    -92.7855E-03     258.087E-03    -94.9751E-03    -66.1421E-06     452.864E-03    -226.240E-03    -226.623E-03    -226.231E-03     452.855E-03    -226.623E-03     4.75295E-03    -90.1189E+06    -124.200E+06    -216.851E+06    -124.210E+06    -216.841E+06    -90.1189E+06    -60.0891E+03         57.4679
            1281     3.98810E-03     95.6073E-03     257.025E-03    -92.1508E-03    -94.4917E-03    -91.8024E-03     256.676E-03    -94.4917E-03    -8.82818E-03     452.748E-03    -226.090E-03    -226.658E-03    -226.064E-03     452.722E-03    -226.658E-03     8.09113E-03    -68.3192E+06    -114.910E+06    -195.226E+06    -114.912E+06    -195.224E+06    -68.3192E+06     125.128E+03         57.6647
            1282     4.78610E-03     95.6172E-03     254.017E-03    -89.5698E-03    -93.9626E-03    -89.4844E-03     253.931E-03    -93.9626E-03     9.00289E-03     452.585E-03    -225.916E-03    -226.669E-03    -225.859E-03     452.528E-03    -226.669E-03     12.1997E-03    -47.3262E+06    -105.974E+06    -169.217E+06    -105.976E+06    -169.216E+06    -47.3262E+06     101.570E+03         57.8968
            1283     5.58400E-03     95.6345E-03     251.379E-03    -87.3892E-03    -93.3366E-03    -87.3262E-03     251.316E-03    -93.3366E-03     8.28299E-03     452.452E-03    -225.795E-03    -226.656E-03    -225.689E-03     452.345E-03    -226.656E-03     16.8360E-03    -27.4877E+06    -96.2669E+06    -137.907E+06    -96.2678E+06    -137.906E+06    -27.4877E+06     65.9536E+03         58.1591
            1284     6.38222E-03     95.6583E-03     248.183E-03    -84.8934E-03    -92.6592E-03    -84.7850E-03     248.074E-03    -92.6592E-03     11.3006E-03     452.404E-03    -225.770E-03    -226.634E-03    -225.591E-03     452.225E-03    -226.634E-03     21.8680E-03    -8.91581E+06    -86.4465E+06    -104.432E+06    -86.4583E+06    -104.420E+06    -8.91581E+06    -40.4037E+03         58.4457
            1285     7.18037E-03     95.6903E-03     244.901E-03    -82.4389E-03    -91.9474E-03    -82.3494E-03     244.812E-03    -91.9474E-03     4.85486E-03     452.426E-03    -225.818E-03    -226.609E-03    -225.541E-03     452.150E-03    -226.609E-03     27.2431E-03     8.91081E+06    -64.8575E+06    -79.1640E+06    -76.5574E+06    -67.4641E+06     8.91081E+06    -399.768E+03         58.7498
            1286     7.97843E-03     95.7301E-03     241.203E-03    -79.5885E-03    -91.2143E-03    -79.5525E-03     241.167E-03    -91.2143E-03     1.79635E-03     452.406E-03    -225.829E-03    -226.577E-03    -225.430E-03     452.007E-03    -226.577E-03     32.7770E-03     27.0714E+06    -23.0167E+06    -66.8168E+06    -66.7959E+06    -23.0376E+06     27.0714E+06    -567.198E+03         59.0641
            1287     8.77666E-03     95.7789E-03     237.471E-03    -76.6279E-03    -90.4501E-03    -76.5284E-03     237.372E-03    -90.4501E-03    -2.59357E-03     452.354E-03    -225.816E-03    -226.538E-03    -225.261E-03     451.799E-03    -226.538E-03     38.6623E-03     44.5551E+06     23.1008E+06    -57.6929E+06    -57.6685E+06     23.0765E+06     44.5551E+06    -552.187E+03         59.3809
            1288     9.57507E-03     95.8371E-03     233.388E-03    -73.3071E-03    -89.6499E-03    -73.1910E-03     233.272E-03    -89.6499E-03    -1.56958E-03     452.467E-03    -225.954E-03    -226.513E-03    -225.203E-03     451.716E-03    -226.513E-03     45.0166E-03     59.2612E+06     47.6503E+06    -47.9340E+06    -47.9116E+06     47.6279E+06     59.2612E+06    -96.3522E+03         59.6925
            1289     10.3735E-03     95.9047E-03     228.947E-03    -69.7218E-03    -88.8100E-03    -69.6720E-03     228.897E-03    -88.8100E-03     3.18179E-03     452.688E-03    -226.176E-03    -226.512E-03    -225.179E-03     451.692E-03    -226.512E-03     51.8579E-03     72.8866E+06     53.8916E+06    -39.2694E+06    -39.2643E+06     53.8865E+06     72.8866E+06     511.326E+03         59.9913
            1290     11.1726E-03     95.9829E-03     224.379E-03    -66.0309E-03    -87.9332E-03    -65.8460E-03     224.194E-03    -87.9332E-03     8.16728E-03     453.040E-03    -226.399E-03    -226.641E-03    -225.164E-03     451.688E-03    -226.524E-03     60.3778E-03     89.1646E+06     61.0701E+06    -31.1223E+06    -31.1184E+06     61.0661E+06     89.1646E+06     503.265E+03         60.2709
            1291     11.9707E-03     96.0748E-03     219.432E-03    -62.0592E-03    -87.0076E-03    -61.8626E-03     219.236E-03    -87.0076E-03     6.93206E-03     453.362E-03    -226.523E-03    -226.839E-03    -225.185E-03     451.712E-03    -226.527E-03     66.9006E-03     103.571E+06     67.7216E+06    -22.7301E+06    -22.7260E+06     67.7175E+06     103.571E+06    -156.234E+03         60.5257
            1292     12.7695E-03     96.1701E-03     214.129E-03    -57.7296E-03    -86.0660E-03    -57.6695E-03     214.069E-03    -86.0660E-03     1.56993E-03     454.663E-03    -226.506E-03    -228.157E-03    -225.607E-03     452.112E-03    -226.506E-03     82.2037E-03     111.693E+06     74.3068E+06    -14.6970E+06    -14.6872E+06     74.2970E+06     111.693E+06    -527.755E+03         60.7521
            1293     13.5685E-03     96.3088E-03     208.834E-03    -53.3486E-03    -85.0848E-03    -53.2386E-03     208.724E-03    -85.0848E-03    -1.17985E-03     455.108E-03    -226.472E-03    -228.637E-03    -225.929E-03     452.401E-03    -226.472E-03     85.2262E-03     114.567E+06     80.5950E+06    -6.68061E+06    -6.67263E+06     80.5871E+06     114.567E+06    -264.701E+03         60.9478
            1294     797.228E-06     97.1755E-03     425.984E-03    -91.6369E-03    -264.303E-03     23.1358E-03     295.107E-03    -248.200E-03    -159.706E-03     453.181E-03    -226.458E-03    -226.723E-03    -226.479E-03     453.181E-03    -226.702E-03     291.290E-06    -136.863E+06    -142.333E+06    -276.753E+06    -140.459E+06    -276.733E+06    -138.756E+06     693.138E+03         57.0864
            1295     1.59495E-03     97.1738E-03     315.793E-03    -111.899E-03    -134.079E-03    -109.486E-03     291.200E-03    -111.899E-03     63.7857E-03     452.935E-03    -226.354E-03    -226.582E-03    -226.353E-03     452.935E-03    -226.582E-03     702.540E-06    -128.462E+06    -137.774E+06    -256.771E+06    -137.777E+06    -256.768E+06    -128.462E+06     587.510E+03         57.1595
            1296     2.39290E-03     97.1731E-03     297.901E-03    -110.586E-03    -117.261E-03    -110.140E-03     291.322E-03    -111.128E-03    -31.7765E-03     452.787E-03    -226.220E-03    -226.567E-03    -226.218E-03     452.785E-03    -226.567E-03     2.25076E-03    -111.289E+06    -132.348E+06    -236.712E+06    -132.359E+06    -236.701E+06    -111.289E+06     252.742E+03         57.2766
            1297     3.19059E-03     97.1744E-03     290.325E-03    -109.879E-03    -110.670E-03    -107.681E-03     288.070E-03    -110.613E-03     7.44004E-03     452.712E-03    -226.129E-03    -226.583E-03    -226.120E-03     452.703E-03    -226.583E-03     4.71485E-03    -90.4967E+06    -124.718E+06    -216.574E+06    -124.728E+06    -216.565E+06    -90.4967E+06    -342.626E+03         57.4362
            1298     3.98843E-03     97.1792E-03     286.922E-03    -107.182E-03    -109.920E-03    -106.144E-03     285.884E-03    -109.920E-03    -12.9715E-03     452.660E-03    -226.048E-03    -226.612E-03    -226.023E-03     452.635E-03    -226.612E-03     8.06432E-03    -68.5800E+06    -115.720E+06    -195.959E+06    -115.724E+06    -195.955E+06    -68.5800E+06    -199.371E+03         57.6355
            1299     4.78615E-03     97.1895E-03     282.438E-03    -103.361E-03    -109.140E-03    -103.145E-03     282.221E-03    -109.140E-03     11.6364E-03     452.581E-03    -225.951E-03    -226.630E-03    -225.895E-03     452.525E-03    -226.630E-03     12.1341E-03    -47.0636E+06    -105.808E+06    -168.799E+06    -105.810E+06    -168.797E+06    -47.0636E+06     15.4436E+03         57.8706
            1300     5.58423E-03     97.2062E-03     278.700E-03    -100.307E-03    -108.222E-03    -100.229E-03     278.621E-03    -108.222E-03     6.48697E-03     452.467E-03    -225.839E-03    -226.628E-03    -225.734E-03     452.362E-03    -226.628E-03     16.7357E-03    -27.3776E+06    -95.9516E+06    -137.824E+06    -95.9541E+06    -137.821E+06    -27.3776E+06    -148.633E+03         58.1364
            1301     6.38227E-03     97.2303E-03     274.306E-03    -96.9326E-03    -107.214E-03    -96.8257E-03     274.200E-03    -107.214E-03     12.1640E-03     452.401E-03    -225.787E-03    -226.614E-03    -225.611E-03     452.225E-03    -226.614E-03     21.6639E-03    -8.74915E+06    -86.0214E+06    -104.236E+06    -86.0430E+06    -104.215E+06    -8.74915E+06    -150.133E+03         58.4270
            1302     7.18043E-03     97.2622E-03     269.646E-03    -93.4535E-03    -106.131E-03    -93.4152E-03     269.608E-03    -106.131E-03     4.08624E-03     452.401E-03    -225.809E-03    -226.592E-03    -225.537E-03     452.129E-03    -226.592E-03     27.0236E-03     9.11582E+06    -64.5663E+06    -79.0456E+06    -76.6708E+06    -66.9411E+06     9.11582E+06    -38.7355E+03         58.7356
            1303     7.97859E-03     97.3027E-03     264.565E-03    -89.5505E-03    -104.984E-03    -89.5338E-03     264.548E-03    -104.984E-03     2.23696E-03     452.432E-03    -225.866E-03    -226.565E-03    -225.469E-03     452.034E-03    -226.565E-03     32.7115E-03     27.1997E+06    -22.5072E+06    -67.4012E+06    -67.3983E+06    -22.5100E+06     27.1997E+06    -240.022E+03         59.0548
            1304     8.77671E-03     97.3510E-03     259.327E-03    -85.5203E-03    -103.769E-03    -85.4529E-03     259.260E-03    -103.769E-03    -2.80916E-03     452.442E-03    -225.910E-03    -226.533E-03    -225.352E-03     451.885E-03    -226.533E-03     38.7413E-03     44.6044E+06     23.4580E+06    -58.0825E+06    -58.0634E+06     23.4388E+06     44.6044E+06    -594.943E+03         59.3765
            1305     9.57514E-03     97.4091E-03     253.625E-03    -81.0511E-03    -102.487E-03    -80.9665E-03     253.540E-03    -102.487E-03    -1.39310E-03     452.532E-03    -226.019E-03    -226.513E-03    -225.266E-03     451.779E-03    -226.513E-03     45.0721E-03     58.2861E+06     46.5942E+06    -49.1952E+06    -49.1667E+06     46.5657E+06     58.2861E+06    -619.771E+03         59.6928
            1306     10.3736E-03     97.4767E-03     247.456E-03    -76.1614E-03    -101.128E-03    -76.1249E-03     247.420E-03    -101.128E-03     2.87324E-03     452.674E-03    -226.161E-03    -226.513E-03    -225.174E-03     451.687E-03    -226.513E-03     51.6185E-03     71.7798E+06     53.2175E+06    -39.9900E+06    -39.9734E+06     53.2009E+06     71.7798E+06    -291.791E+03         59.9962
            1307     11.1719E-03     97.5541E-03     241.054E-03    -71.1571E-03    -99.6950E-03    -70.9988E-03     240.896E-03    -99.6950E-03     8.00341E-03     452.827E-03    -226.308E-03    -226.519E-03    -224.979E-03     451.497E-03    -226.519E-03     59.8441E-03     88.6500E+06     60.9672E+06    -30.6956E+06    -30.6888E+06     60.9603E+06     88.6500E+06     9.00879E+03         60.2799
            1308     11.9715E-03     97.6462E-03     234.275E-03    -65.9019E-03    -98.1876E-03    -65.7321E-03     234.106E-03    -98.1876E-03     6.63240E-03     453.188E-03    -226.461E-03    -226.727E-03    -225.033E-03     451.550E-03    -226.516E-03     66.6454E-03     104.463E+06     68.4250E+06    -21.5308E+06    -21.5268E+06     68.4211E+06     104.463E+06     206.918E+03         60.5381
            1309     12.7697E-03     97.7429E-03     227.171E-03    -60.3228E-03    -96.6391E-03    -60.2696E-03     227.117E-03    -96.6391E-03     1.51157E-03     454.781E-03    -226.496E-03    -228.285E-03    -225.708E-03     452.204E-03    -226.496E-03     82.5982E-03     113.183E+06     75.3055E+06    -13.3784E+06    -13.3669E+06     75.2940E+06     113.183E+06     49.7727E+03         60.7670
            1310     13.5673E-03     97.8806E-03     220.051E-03    -54.6772E-03    -95.0304E-03    -54.5778E-03     219.952E-03    -95.0304E-03    -1.19810E-03     455.445E-03    -226.470E-03    -228.975E-03    -226.246E-03     452.716E-03    -226.470E-03     85.5524E-03     114.358E+06     80.2106E+06    -6.94127E+06    -6.93064E+06     80.2000E+06     114.358E+06    -169.690E+03         60.9643
            1311     797.774E-06     98.7483E-03     534.891E-03    -153.524E-03    -311.749E-03     28.5931E-03     321.197E-03    -280.173E-03    -240.419E-03     452.960E-03    -226.293E-03    -226.667E-03    -226.647E-03     452.960E-03    -226.313E-03     575.978E-06    -137.996E+06    -142.229E+06    -277.410E+06    -140.344E+06    -277.401E+06    -139.889E+06    -582.211E+03         57.0502
            1312     1.59519E-03     98.7457E-03     362.145E-03    -125.202E-03    -167.764E-03    -122.680E-03     317.060E-03    -125.202E-03     89.5422E-03     452.955E-03    -226.396E-03    -226.560E-03    -226.442E-03     452.955E-03    -226.512E-03     807.349E-06    -128.236E+06    -137.195E+06    -257.599E+06    -137.196E+06    -257.597E+06    -128.236E+06     372.039E+03         57.1241
            1313     2.39268E-03     98.7452E-03     330.249E-03    -124.349E-03    -136.397E-03    -123.037E-03     316.889E-03    -124.349E-03    -44.8358E-03     452.772E-03    -226.229E-03    -226.543E-03    -226.227E-03     452.770E-03    -226.543E-03     2.27269E-03    -110.301E+06    -131.320E+06    -235.992E+06    -131.325E+06    -235.988E+06    -110.301E+06     326.988E+03         57.2425
            1314     3.19064E-03     98.7461E-03     317.920E-03    -123.712E-03    -125.111E-03    -120.345E-03     313.164E-03    -123.722E-03     14.9769E-03     452.645E-03    -226.082E-03    -226.563E-03    -226.074E-03     452.636E-03    -226.563E-03     4.63016E-03    -89.2914E+06    -123.958E+06    -215.546E+06    -123.962E+06    -215.541E+06    -89.2914E+06    -69.8414E+03         57.4039
            1315     3.98848E-03     98.7514E-03     312.474E-03    -120.057E-03    -123.210E-03    -118.305E-03     310.395E-03    -122.883E-03    -17.2621E-03     452.611E-03    -226.020E-03    -226.590E-03    -225.996E-03     452.586E-03    -226.590E-03     7.93157E-03    -67.3961E+06    -114.716E+06    -196.475E+06    -114.718E+06    -196.473E+06    -67.3961E+06    -336.224E+03         57.6057
            1316     4.78648E-03     98.7615E-03     306.544E-03    -115.230E-03    -121.905E-03    -114.708E-03     306.022E-03    -121.905E-03     14.2152E-03     452.570E-03    -225.964E-03    -226.606E-03    -225.909E-03     452.515E-03    -226.606E-03     12.0065E-03    -46.7235E+06    -104.878E+06    -169.204E+06    -104.879E+06    -169.203E+06    -46.7235E+06    -116.239E+03         57.8438
            1317     5.58427E-03     98.7784E-03     301.707E-03    -111.413E-03    -120.749E-03    -111.239E-03     301.533E-03    -120.749E-03     4.51237E-03     452.518E-03    -225.907E-03    -226.611E-03    -225.803E-03     452.414E-03    -226.611E-03     16.6363E-03    -27.3050E+06    -95.4209E+06    -137.055E+06    -95.4235E+06    -137.052E+06    -27.3050E+06    -103.361E+03         58.1132
            1318     6.38224E-03     98.8023E-03     296.238E-03    -107.165E-03    -119.464E-03    -107.025E-03     296.098E-03    -119.464E-03     12.9133E-03     452.464E-03    -225.855E-03    -226.608E-03    -225.679E-03     452.288E-03    -226.608E-03     21.6738E-03    -8.78358E+06    -85.8840E+06    -104.453E+06    -85.9145E+06    -104.422E+06    -8.78358E+06    -196.785E+03         58.4079
            1319     7.18029E-03     98.8344E-03     290.374E-03    -102.712E-03    -118.054E-03    -102.700E-03     290.362E-03    -118.054E-03     3.14073E-03     452.374E-03    -225.784E-03    -226.590E-03    -225.512E-03     452.102E-03    -226.590E-03     27.0306E-03     9.24893E+06    -64.2254E+06    -78.8606E+06    -76.2907E+06    -66.7954E+06     9.24893E+06    -149.441E+03         58.7210
            1320     7.97859E-03     98.8745E-03     284.054E-03    -97.9746E-03    -116.542E-03    -97.9674E-03     284.047E-03    -116.542E-03     2.56290E-03     452.316E-03    -225.759E-03    -226.557E-03    -225.360E-03     451.916E-03    -226.557E-03     32.7573E-03     27.5163E+06    -22.2051E+06    -66.6980E+06    -66.6944E+06    -22.2087E+06     27.5163E+06    -133.736E+03         59.0450
            1321     8.77698E-03     98.9236E-03     277.451E-03    -92.9607E-03    -114.928E-03    -92.9148E-03     277.405E-03    -114.928E-03    -3.19635E-03     452.380E-03    -225.862E-03    -226.517E-03    -225.303E-03     451.820E-03    -226.517E-03     38.8217E-03     44.9856E+06     23.7173E+06    -57.3627E+06    -57.3565E+06     23.7111E+06     44.9856E+06     5.75320E+03         59.3718
            1322     9.57511E-03     98.9812E-03     270.304E-03    -87.4016E-03    -113.208E-03    -87.3395E-03     270.242E-03    -113.208E-03    -1.36202E-03     452.581E-03    -226.080E-03    -226.500E-03    -225.319E-03     451.820E-03    -226.500E-03     45.2961E-03     59.1181E+06     47.2445E+06    -48.3611E+06    -48.3468E+06     47.2302E+06     59.1181E+06    -209.454E+03         59.6931
            1323     10.3734E-03     99.0488E-03     262.690E-03    -81.4957E-03    -111.379E-03    -81.4695E-03     262.663E-03    -111.379E-03     2.44039E-03     452.890E-03    -226.309E-03    -226.581E-03    -225.383E-03     451.894E-03    -226.512E-03     51.8787E-03     72.5762E+06     53.4429E+06    -39.7596E+06    -39.7399E+06     53.4233E+06     72.5762E+06    -890.594E+03         60.0011
            1324     11.1722E-03     99.1256E-03     254.754E-03    -75.4569E-03    -109.451E-03    -75.3220E-03     254.619E-03    -109.451E-03     7.66419E-03     453.303E-03    -226.428E-03    -226.875E-03    -225.450E-03     451.992E-03    -226.541E-03     59.4921E-03     88.7744E+06     60.7451E+06    -31.1164E+06    -31.1003E+06     60.7290E+06     88.7744E+06    -1.13186E+06         60.2889
            1325     11.9705E-03     99.2168E-03     246.374E-03    -69.0618E-03    -107.424E-03    -68.9161E-03     246.229E-03    -107.424E-03     6.24300E-03     453.520E-03    -226.512E-03    -227.008E-03    -225.384E-03     451.947E-03    -226.563E-03     65.3404E-03     103.214E+06     67.3603E+06    -22.6743E+06    -22.6631E+06     67.3490E+06     103.214E+06    -489.088E+03         60.5505
            1326     12.7700E-03     99.3147E-03     237.683E-03    -62.3550E-03    -105.325E-03    -62.3083E-03     237.636E-03    -105.325E-03     1.39561E-03     454.462E-03    -226.547E-03    -227.914E-03    -225.453E-03     452.000E-03    -226.547E-03     80.6225E-03     111.963E+06     74.5807E+06    -14.3011E+06    -14.2938E+06     74.5734E+06     111.963E+06     226.791E+03         60.7820
            1327     13.5691E-03     99.4538E-03     228.986E-03    -55.6570E-03    -103.145E-03    -55.5687E-03     228.897E-03    -103.145E-03    -1.20649E-03     454.979E-03    -226.505E-03    -228.473E-03    -225.804E-03     452.310E-03    -226.505E-03     84.6612E-03     114.667E+06     80.7413E+06    -6.55357E+06    -6.53981E+06     80.7276E+06     114.667E+06     504.721E+03         60.9810
            1328     797.757E-06     100.320E-03     639.133E-03    -214.617E-03    -356.043E-03     34.8725E-03     340.719E-03    -307.119E-03    -318.827E-03     452.837E-03    -226.206E-03    -226.631E-03    -226.600E-03     452.837E-03    -226.237E-03     299.298E-06    -137.950E+06    -142.053E+06    -277.044E+06    -142.091E+06    -277.006E+06    -137.950E+06     168.895E+03         57.0136
            1329     1.59533E-03     100.319E-03     405.277E-03    -135.531E-03    -201.417E-03    -132.934E-03     336.794E-03    -135.531E-03     114.413E-03     452.888E-03    -226.374E-03    -226.513E-03    -226.421E-03     452.887E-03    -226.466E-03     614.552E-06    -126.926E+06    -136.916E+06    -257.685E+06    -136.925E+06    -257.676E+06    -126.926E+06    -637.073E+03         57.0883
            1330     2.39303E-03     100.317E-03     358.004E-03    -134.618E-03    -154.737E-03    -133.052E-03     336.319E-03    -134.618E-03    -57.6489E-03     452.785E-03    -226.275E-03    -226.510E-03    -226.273E-03     452.783E-03    -226.510E-03     2.15591E-03    -110.114E+06    -130.596E+06    -236.182E+06    -130.601E+06    -236.177E+06    -110.114E+06    -236.736E+03         57.2079
            1331     3.19066E-03     100.318E-03     340.367E-03    -133.901E-03    -138.093E-03    -130.177E-03     332.452E-03    -133.901E-03     22.0480E-03     452.659E-03    -226.111E-03    -226.547E-03    -226.103E-03     452.650E-03    -226.547E-03     4.63838E-03    -88.8621E+06    -122.838E+06    -215.004E+06    -122.840E+06    -215.002E+06    -88.8621E+06     92.2004E+03         57.3712
            1332     3.98847E-03     100.323E-03     332.661E-03    -130.207E-03    -133.990E-03    -127.855E-03     329.276E-03    -132.956E-03    -21.6550E-03     452.616E-03    -226.033E-03    -226.583E-03    -226.008E-03     452.591E-03    -226.583E-03     7.94090E-03    -66.9956E+06    -114.134E+06    -196.454E+06    -114.135E+06    -196.453E+06    -66.9956E+06     102.480E+03         57.5753
            1333     4.78629E-03     100.334E-03     325.300E-03    -124.811E-03    -131.839E-03    -123.854E-03     324.343E-03    -131.839E-03     16.3565E-03     452.562E-03    -225.961E-03    -226.601E-03    -225.907E-03     452.508E-03    -226.601E-03     11.9675E-03    -46.6641E+06    -104.926E+06    -169.677E+06    -104.926E+06    -169.677E+06    -46.6641E+06     130.335E+03         57.8164
            1334     5.58433E-03     100.350E-03     319.436E-03    -120.102E-03    -130.498E-03    -119.769E-03     319.103E-03    -130.498E-03     2.23152E-03     452.477E-03    -225.874E-03    -226.603E-03    -225.770E-03     452.373E-03    -226.603E-03     16.6116E-03    -27.0700E+06    -95.2097E+06    -136.449E+06    -95.2107E+06    -136.448E+06    -27.0700E+06     15.5885E+03         58.0894
            1335     6.38235E-03     100.374E-03     313.036E-03    -115.104E-03    -128.978E-03    -114.905E-03     312.838E-03    -128.978E-03     13.3797E-03     452.443E-03    -225.844E-03    -226.599E-03    -225.667E-03     452.266E-03    -226.599E-03     21.7471E-03    -8.52879E+06    -85.5251E+06    -104.121E+06    -85.5491E+06    -104.097E+06    -8.52879E+06    -302.174E+03         58.3883
            1336     7.18045E-03     100.406E-03     306.176E-03    -109.918E-03    -127.294E-03    -109.913E-03     306.170E-03    -127.294E-03     1.92403E-03     452.395E-03    -225.814E-03    -226.582E-03    -225.541E-03     452.123E-03    -226.582E-03     27.0440E-03     9.22925E+06    -64.1105E+06    -78.7387E+06    -75.8746E+06    -66.9745E+06     9.22925E+06    -282.045E+03         58.7061
            1337     7.97869E-03     100.446E-03     298.816E-03    -104.453E-03    -125.473E-03    -104.448E-03     298.811E-03    -125.473E-03     2.61819E-03     452.302E-03    -225.752E-03    -226.550E-03    -225.354E-03     451.904E-03    -226.550E-03     32.6880E-03     27.4199E+06    -22.3860E+06    -66.5695E+06    -66.5681E+06    -22.3874E+06     27.4199E+06     16.0110E+03         59.0350
            1338     8.77706E-03     100.496E-03     291.059E-03    -98.5812E-03    -123.516E-03    -98.5488E-03     291.027E-03    -123.516E-03    -3.75997E-03     452.268E-03    -225.761E-03    -226.508E-03    -225.205E-03     451.713E-03    -226.508E-03     38.6743E-03     45.0790E+06     23.9275E+06    -57.3142E+06    -57.3117E+06     23.9250E+06     45.0790E+06    -121.799E+03         59.3669
            1339     9.57573E-03     100.553E-03     282.751E-03    -92.1910E-03    -121.419E-03    -92.1449E-03     282.705E-03    -121.419E-03    -1.46637E-03     452.493E-03    -226.008E-03    -226.485E-03    -225.254E-03     451.739E-03    -226.485E-03     45.0894E-03     59.4609E+06     47.8567E+06    -47.8927E+06    -47.8853E+06     47.8493E+06     59.4609E+06    -300.366E+03         59.6933
            1340     10.3742E-03     100.621E-03     273.956E-03    -85.5064E-03    -119.190E-03    -85.4879E-03     273.937E-03    -119.190E-03     1.89321E-03     453.010E-03    -226.367E-03    -226.643E-03    -225.510E-03     452.013E-03    -226.503E-03     51.9202E-03     73.5863E+06     54.1716E+06    -38.9565E+06    -38.9404E+06     54.1555E+06     73.5863E+06    -155.900E+03         60.0062
            1341     11.1716E-03     100.699E-03     264.787E-03    -78.6005E-03    -116.838E-03    -78.4851E-03     264.672E-03    -116.838E-03     7.20713E-03     453.809E-03    -226.554E-03    -227.255E-03    -225.912E-03     452.466E-03    -226.554E-03     60.2213E-03     89.7976E+06     61.1513E+06    -30.8417E+06    -30.8241E+06     61.1337E+06     89.7976E+06    -317.595E+03         60.2981
            1342     11.9689E-03     100.790E-03     255.171E-03    -71.3591E-03    -114.366E-03    -71.2338E-03     255.046E-03    -114.366E-03     5.80464E-03     454.341E-03    -226.608E-03    -227.733E-03    -226.094E-03     452.702E-03    -226.608E-03     66.7087E-03     103.114E+06     67.1182E+06    -23.0743E+06    -23.0638E+06     67.1077E+06     103.114E+06    -634.200E+03         60.5632
            1343     12.7658E-03     100.886E-03     245.207E-03    -63.8295E-03    -111.794E-03    -63.7888E-03     245.166E-03    -111.794E-03     1.21525E-03     454.962E-03    -226.618E-03    -228.345E-03    -225.830E-03     452.447E-03    -226.618E-03     81.6257E-03     110.579E+06     73.2394E+06    -15.1771E+06    -15.1741E+06     73.2363E+06     110.579E+06    -426.810E+03         60.7972
            1344     13.5649E-03     101.023E-03     235.150E-03    -56.2359E-03    -109.119E-03    -56.1562E-03     235.070E-03    -109.119E-03    -1.33498E-03     454.291E-03    -226.388E-03    -227.902E-03    -225.026E-03     451.586E-03    -226.560E-03     85.1652E-03     113.965E+06     80.2216E+06    -6.52919E+06    -6.51963E+06      80.212E+06     113.965E+06     314.806E+03         60.9980
            1345     797.429E-06     101.892E-03     734.932E-03    -270.293E-03    -397.024E-03     43.7748E-03     354.033E-03    -330.193E-03    -391.684E-03     452.947E-03    -226.385E-03    -226.562E-03    -226.488E-03     452.947E-03    -226.459E-03     493.171E-06    -136.369E+06    -140.203E+06    -275.491E+06    -139.258E+06    -275.435E+06    -137.371E+06    -119.593E+03         56.9765
            1346     1.59520E-03     101.890E-03     442.964E-03    -142.608E-03    -233.004E-03    -140.137E-03     350.097E-03    -142.608E-03     137.228E-03     452.791E-03    -226.307E-03    -226.484E-03    -226.307E-03     452.791E-03    -226.484E-03     622.962E-06    -126.462E+06    -136.114E+06    -257.331E+06    -136.125E+06    -257.320E+06    -126.462E+06    -369.287E+03         57.0520
            1347     2.39286E-03     101.889E-03     380.188E-03    -141.695E-03    -170.857E-03    -139.940E-03     349.271E-03    -141.695E-03    -69.4542E-03     452.732E-03    -226.239E-03    -226.493E-03    -226.237E-03     452.730E-03    -226.493E-03     2.12109E-03    -109.938E+06    -130.737E+06    -236.742E+06    -130.742E+06    -236.736E+06    -109.938E+06    -113.839E+03         57.1728
            1348     3.19069E-03     101.890E-03     356.800E-03    -140.902E-03    -148.385E-03    -136.854E-03     345.268E-03    -140.902E-03     28.5843E-03     452.674E-03    -226.144E-03    -226.531E-03    -226.135E-03     452.666E-03    -226.531E-03     4.60758E-03    -89.2260E+06    -122.944E+06    -215.757E+06    -122.948E+06    -215.753E+06    -89.2260E+06     364.197E+03         57.3379
            1349     3.98860E-03     101.895E-03     346.564E-03    -137.320E-03    -141.748E-03    -134.328E-03     341.686E-03    -139.862E-03    -25.9520E-03     452.622E-03    -226.047E-03    -226.575E-03    -226.022E-03     452.597E-03    -226.575E-03     7.98334E-03    -66.9888E+06    -114.043E+06    -196.301E+06    -114.046E+06    -196.297E+06    -66.9888E+06     487.794E+03         57.5445
            1350     4.78639E-03     101.906E-03     337.825E-03    -131.541E-03    -138.630E-03    -130.063E-03     336.347E-03    -138.630E-03     18.2297E-03     452.541E-03    -225.945E-03    -226.596E-03    -225.890E-03     452.486E-03    -226.596E-03     12.0326E-03    -46.2440E+06    -104.690E+06    -169.366E+06    -104.692E+06    -169.363E+06    -46.2440E+06     101.864E+03         57.7886
            1351     5.58434E-03     101.922E-03     331.119E-03    -126.014E-03    -137.139E-03    -125.481E-03     330.585E-03    -137.139E-03    -17.4190E-06     452.463E-03    -225.867E-03    -226.596E-03    -225.762E-03     452.359E-03    -226.596E-03     16.6545E-03    -26.7099E+06    -94.6381E+06    -136.341E+06    -94.6419E+06    -136.337E+06    -26.7099E+06    -32.8756E+03         58.0652
            1352     6.38243E-03     101.947E-03     323.952E-03    -120.445E-03    -135.428E-03    -120.171E-03     323.678E-03    -135.428E-03     13.5786E-03     452.428E-03    -225.836E-03    -226.592E-03    -225.660E-03     452.252E-03    -226.592E-03     21.6683E-03    -8.15499E+06    -85.0376E+06    -103.842E+06    -85.0808E+06    -103.799E+06    -8.15499E+06     176.780E+03         58.3682
            1353     7.18053E-03     101.978E-03     316.275E-03    -114.701E-03    -133.524E-03    -114.688E-03     316.261E-03    -133.524E-03     648.515E-06     452.430E-03    -225.852E-03    -226.578E-03    -225.582E-03     452.159E-03    -226.578E-03     26.9503E-03     9.40570E+06    -64.1188E+06    -78.8724E+06    -76.1406E+06    -66.8506E+06     9.40570E+06     57.5536E+03         58.6907
            1354     7.97859E-03     102.019E-03     308.147E-03    -108.631E-03    -131.452E-03    -108.622E-03     308.139E-03    -131.452E-03     2.56362E-03     452.409E-03    -225.855E-03    -226.554E-03    -225.462E-03     452.016E-03    -226.554E-03     32.5314E-03     27.5172E+06    -22.2915E+06    -66.4992E+06    -66.4972E+06    -22.2935E+06     27.5172E+06    -279.166E+03         59.0247
            1355     8.77693E-03     102.067E-03     299.577E-03    -102.193E-03    -129.213E-03    -102.168E-03     299.553E-03    -129.213E-03    -4.37915E-03     452.354E-03    -225.835E-03    -226.520E-03    -225.287E-03     451.807E-03    -226.520E-03     38.4159E-03     45.2151E+06     24.1198E+06    -57.0014E+06    -56.9999E+06     24.1183E+06     45.2151E+06    -249.214E+03         59.3617
            1356     9.57522E-03     102.125E-03     290.427E-03    -95.3138E-03    -126.818E-03    -95.2797E-03     290.393E-03    -126.818E-03    -1.63939E-03     452.487E-03    -225.987E-03    -226.499E-03    -225.246E-03     451.745E-03    -226.499E-03     44.7125E-03     59.3314E+06     47.9177E+06    -48.2023E+06    -48.1972E+06     47.9126E+06     59.3314E+06    -239.645E+03         59.6933
            1357     10.3735E-03     102.193E-03     280.739E-03    -87.9984E-03    -124.270E-03    -87.9857E-03     280.726E-03    -124.270E-03     1.30161E-03     452.771E-03    -226.195E-03    -226.576E-03    -225.275E-03     451.780E-03    -226.505E-03     51.7151E-03     72.7425E+06     53.9492E+06    -39.5275E+06    -39.5117E+06     53.9334E+06     72.7425E+06    -253.251E+03         60.0112
            1358     11.1724E-03     102.272E-03     270.642E-03    -80.4187E-03    -121.574E-03    -80.3186E-03     270.541E-03    -121.574E-03     6.73936E-03     453.276E-03    -226.381E-03    -226.896E-03    -225.379E-03     451.907E-03    -226.528E-03     60.7366E-03     89.2504E+06     60.9417E+06    -30.7275E+06    -30.7158E+06     60.9300E+06     89.2504E+06     143.441E+03         60.3077
            1359     11.9711E-03     102.364E-03     260.104E-03    -72.6065E-03    -118.739E-03    -72.4965E-03     259.994E-03    -118.739E-03     5.29238E-03     453.873E-03    -226.527E-03    -227.346E-03    -225.609E-03     452.160E-03    -226.551E-03     68.1923E-03     104.108E+06     68.0272E+06    -22.0202E+06     -22.017E+06     68.0240E+06     104.108E+06     212.405E+03         60.5766
            1360     12.7696E-03     102.460E-03     249.194E-03    -64.5313E-03    -115.783E-03    -64.4937E-03     249.157E-03    -115.783E-03     1.02943E-03     455.319E-03    -226.552E-03    -228.767E-03    -226.109E-03     452.660E-03    -226.552E-03     84.0449E-03     111.448E+06     73.9863E+06    -14.5799E+06    -14.5769E+06     73.9833E+06     111.448E+06    -133.590E+03         60.8134
            1361     13.5671E-03     102.595E-03     238.201E-03    -56.3821E-03    -112.711E-03    -56.3075E-03     238.126E-03    -112.711E-03    -1.43076E-03     455.052E-03    -226.346E-03    -228.706E-03    -225.742E-03     452.260E-03    -226.518E-03     86.5118E-03     113.152E+06     79.4847E+06    -7.45484E+06    -7.45392E+06     79.4837E+06     113.152E+06    -232.649E+03         61.0157
            1362     797.633E-06     103.464E-03     818.369E-03    -319.348E-03    -432.959E-03     54.7411E-03     359.743E-03    -348.422E-03    -456.277E-03     452.938E-03    -226.401E-03    -226.537E-03    -226.444E-03     452.938E-03    -226.494E-03     379.854E-06    -137.796E+06    -141.753E+06    -275.287E+06    -140.776E+06    -275.262E+06    -138.797E+06    -848.229E+03         56.9391
            1363     1.59529E-03     103.462E-03     473.529E-03    -146.235E-03    -261.135E-03    -143.838E-03     356.231E-03    -146.235E-03     157.672E-03     452.767E-03    -226.290E-03    -226.477E-03    -226.290E-03     452.766E-03    -226.477E-03     639.361E-06    -127.983E+06    -137.636E+06    -257.301E+06    -137.639E+06    -257.298E+06    -127.983E+06     211.429E+03         57.0153
            1364     2.39313E-03     103.461E-03     395.742E-03    -145.306E-03    -183.959E-03    -143.334E-03     355.116E-03    -145.306E-03    -80.0064E-03     452.717E-03    -226.222E-03    -226.495E-03    -226.220E-03     452.715E-03    -226.495E-03     2.10466E-03    -109.040E+06    -131.272E+06    -237.655E+06    -131.282E+06    -237.645E+06    -109.040E+06     491.761E+03         57.1374
            1365     3.19080E-03     103.462E-03     366.361E-03    -144.449E-03    -155.629E-03    -140.209E-03     350.942E-03    -144.449E-03     34.5348E-03     452.685E-03    -226.154E-03    -226.531E-03    -226.146E-03     452.677E-03    -226.531E-03     4.54864E-03    -88.6333E+06    -123.582E+06    -216.399E+06    -123.593E+06    -216.388E+06    -88.6333E+06     547.342E+03         57.3043
            1366     3.98844E-03     103.467E-03     353.549E-03    -141.020E-03    -146.223E-03    -137.416E-03     347.056E-03    -143.334E-03    -29.6790E-03     452.591E-03    -226.023E-03    -226.568E-03    -225.999E-03     452.567E-03    -226.568E-03     7.90744E-03    -67.5800E+06    -114.496E+06    -195.872E+06    -114.499E+06    -195.870E+06    -67.5800E+06     268.131E+03         57.5132
            1367     4.78649E-03     103.478E-03     343.571E-03    -135.033E-03    -142.000E-03    -132.965E-03     341.504E-03    -142.000E-03     20.0315E-03     452.499E-03    -225.912E-03    -226.586E-03    -225.857E-03     452.444E-03    -226.586E-03     11.9975E-03    -46.3954E+06    -104.681E+06    -168.783E+06    -104.683E+06    -168.781E+06    -46.3954E+06     30.5757E+03         57.7603
            1368     5.58444E-03     103.495E-03     336.136E-03    -128.993E-03    -140.394E-03    -128.231E-03     335.373E-03    -140.394E-03    -2.03588E-03     452.498E-03    -225.907E-03    -226.591E-03    -225.803E-03     452.394E-03    -226.591E-03     16.6625E-03    -26.8357E+06    -95.1924E+06    -136.730E+06    -95.1959E+06    -136.727E+06    -26.8357E+06     76.3836E+03         58.0405
            1369     6.38233E-03     103.519E-03     328.442E-03    -123.006E-03    -138.553E-03    -122.643E-03     328.079E-03    -138.553E-03     13.7058E-03     452.501E-03    -225.906E-03    -226.594E-03    -225.731E-03     452.326E-03    -226.594E-03     21.6183E-03    -8.24626E+06    -85.4667E+06    -104.132E+06    -85.5068E+06    -104.092E+06    -8.24626E+06     278.183E+03         58.3478
            1370     7.18045E-03     103.551E-03     320.261E-03    -116.819E-03    -136.491E-03    -116.786E-03     320.228E-03    -136.491E-03    -489.166E-06     452.465E-03    -225.879E-03    -226.586E-03    -225.610E-03     452.196E-03    -226.586E-03     26.8933E-03     9.95367E+06    -63.5671E+06    -78.3011E+06    -75.6413E+06    -66.2269E+06     9.95367E+06     196.157E+03         58.6749
            1371     7.97859E-03     103.591E-03     311.665E-03    -110.465E-03    -134.236E-03    -110.449E-03     311.649E-03    -134.236E-03     2.48362E-03     452.446E-03    -225.881E-03    -226.565E-03    -225.488E-03     452.053E-03    -226.565E-03     32.5288E-03     28.0051E+06    -21.8509E+06    -66.2753E+06    -66.2715E+06    -21.8547E+06     28.0051E+06     17.4861E+03         59.0140
            1372     8.77664E-03     103.639E-03     302.591E-03    -103.761E-03    -131.803E-03    -103.740E-03     302.570E-03    -131.803E-03    -4.99622E-03     452.440E-03    -225.906E-03    -226.534E-03    -225.353E-03     451.887E-03    -226.534E-03     38.6027E-03     45.4346E+06     24.0345E+06    -57.1478E+06    -57.1457E+06     24.0323E+06     45.4346E+06    -26.0615E+03         59.3564
            1373     9.57495E-03     103.698E-03     292.911E-03    -96.5396E-03    -129.197E-03    -96.5141E-03     292.886E-03    -129.197E-03    -1.87842E-03     452.467E-03    -225.955E-03    -226.512E-03    -225.200E-03     451.712E-03    -226.512E-03     45.1037E-03     59.3214E+06     47.9167E+06    -48.1602E+06    -48.1593E+06     47.9159E+06     59.3214E+06      85.561E+03         59.6934
            1374     10.3735E-03     103.765E-03     282.665E-03    -88.8440E-03    -126.419E-03    -88.8355E-03     282.657E-03    -126.419E-03     679.028E-06     452.544E-03    -226.039E-03    -226.505E-03    -225.036E-03     451.541E-03    -226.505E-03     52.0143E-03     72.6889E+06     53.8957E+06    -39.6116E+06    -39.5980E+06     53.8821E+06     72.6889E+06     107.725E+03         60.0163
            1375     11.1722E-03     103.843E-03     271.971E-03    -80.9179E-03    -123.475E-03    -80.8305E-03     271.884E-03    -123.475E-03     6.22552E-03     452.785E-03    -226.271E-03    -226.514E-03    -224.924E-03     451.427E-03    -226.503E-03     60.4788E-03     88.8725E+06     60.6273E+06    -31.3901E+06    -31.3731E+06     60.6103E+06     88.8725E+06    -205.898E+03         60.3175
            1376     11.9715E-03     103.935E-03     260.811E-03    -72.7357E-03    -120.376E-03    -72.6378E-03     260.713E-03    -120.376E-03     4.70414E-03     453.061E-03    -226.466E-03    -226.595E-03    -224.919E-03     451.410E-03    -226.490E-03     66.9043E-03     103.380E+06     67.4944E+06    -22.7490E+06    -22.7435E+06     67.4889E+06     103.380E+06    -117.336E+03         60.5903
            1377     12.7707E-03     104.032E-03     249.285E-03    -64.3043E-03    -117.137E-03    -64.2693E-03     249.250E-03    -117.137E-03     719.618E-06     454.643E-03    -226.464E-03    -228.179E-03    -225.609E-03     452.072E-03    -226.464E-03     82.4840E-03     112.205E+06     74.9021E+06    -13.8617E+06    -13.8576E+06     74.8980E+06     112.205E+06     180.980E+03         60.8301
            1378     13.5690E-03     104.170E-03     237.723E-03    -55.8870E-03    -113.770E-03    -55.8174E-03     237.654E-03    -113.770E-03    -1.56286E-03     455.554E-03    -226.443E-03    -229.111E-03    -226.419E-03     452.862E-03    -226.443E-03     84.9095E-03     113.799E+06     80.2013E+06    -7.04279E+06    -7.03829E+06     80.1968E+06     113.799E+06    -139.465E+03         61.0341
            1379     797.543E-06     105.036E-03     887.876E-03    -353.623E-03    -469.890E-03     66.9152E-03     357.922E-03    -360.475E-03    -511.775E-03     452.884E-03    -226.406E-03    -226.478E-03    -226.406E-03     452.884E-03    -226.478E-03     222.320E-06    -137.623E+06    -142.074E+06    -275.767E+06    -141.442E+06    -275.762E+06    -138.260E+06     315.552E+03         56.9013
            1380     1.59524E-03     105.034E-03     495.907E-03    -146.171E-03    -285.072E-03    -143.769E-03     354.604E-03    -146.171E-03     175.608E-03     452.827E-03    -226.356E-03    -226.471E-03    -226.355E-03     452.826E-03    -226.471E-03     633.266E-06    -127.630E+06    -137.915E+06    -257.407E+06    -137.917E+06    -257.405E+06    -127.630E+06     33.3608E+03         56.9782
            1381     2.39282E-03     105.033E-03     403.781E-03    -145.213E-03    -193.636E-03    -143.062E-03     353.206E-03    -145.213E-03    -89.2857E-03     452.776E-03    -226.268E-03    -226.507E-03    -226.266E-03     452.774E-03    -226.507E-03     2.08061E-03    -109.959E+06    -131.446E+06    -238.620E+06    -131.456E+06    -238.610E+06    -109.959E+06     292.923E+03         57.1016
            1382     3.19064E-03     105.034E-03     368.551E-03    -144.312E-03    -159.454E-03    -139.990E-03     349.087E-03    -144.312E-03     39.7392E-03     452.682E-03    -226.136E-03    -226.547E-03    -226.127E-03     452.674E-03    -226.547E-03     4.49173E-03    -88.4726E+06    -123.023E+06    -216.409E+06    -123.036E+06    -216.396E+06    -88.4726E+06     486.396E+03         57.2702
            1383     3.98860E-03     105.039E-03     353.298E-03    -141.308E-03    -147.113E-03    -137.072E-03     345.105E-03    -143.155E-03    -32.7159E-03     452.594E-03    -226.014E-03    -226.579E-03    -225.991E-03     452.570E-03    -226.579E-03     7.77805E-03    -66.9687E+06    -114.092E+06    -195.482E+06    -114.097E+06    -195.477E+06    -66.9687E+06     369.968E+03         57.4814
            1384     4.78641E-03     105.049E-03     342.215E-03    -135.376E-03    -141.773E-03    -132.658E-03     339.497E-03    -141.773E-03     21.4829E-03     452.524E-03    -225.929E-03    -226.595E-03    -225.875E-03     452.470E-03    -226.595E-03     11.9156E-03    -46.2379E+06    -104.615E+06    -168.717E+06    -104.618E+06    -168.714E+06    -46.2379E+06     311.562E+03         57.7315
            1385     5.58439E-03     105.067E-03     334.218E-03    -128.872E-03    -140.114E-03    -127.850E-03     333.196E-03    -140.114E-03    -3.98235E-03     452.515E-03    -225.913E-03    -226.601E-03    -225.809E-03     452.411E-03    -226.601E-03     16.5991E-03    -26.5565E+06    -95.1639E+06    -136.744E+06    -95.1660E+06    -136.742E+06    -26.5565E+06     252.463E+03         58.0154
            1386     6.38239E-03     105.091E-03     326.299E-03    -122.670E-03    -138.205E-03    -122.207E-03     325.836E-03    -138.205E-03     13.7821E-03     452.526E-03    -225.920E-03    -226.605E-03    -225.746E-03     452.352E-03    -226.605E-03     21.5902E-03    -7.76490E+06    -85.1623E+06    -103.932E+06    -85.1653E+06    -103.929E+06    -7.76490E+06    -1.83400E+03         58.3269
            1387     7.18023E-03     105.123E-03     317.949E-03    -116.333E-03    -136.061E-03    -116.272E-03     317.888E-03    -136.061E-03    -1.61394E-03     452.432E-03    -225.838E-03    -226.594E-03    -225.567E-03     452.161E-03    -226.594E-03     26.9473E-03     9.96014E+06    -63.7582E+06    -78.5931E+06    -75.6114E+06    -66.7398E+06     9.96014E+06     150.670E+03         58.6589
            1388     7.97846E-03     105.163E-03     309.186E-03    -109.963E-03    -133.716E-03    -109.937E-03     309.160E-03    -133.716E-03     2.21616E-03     452.321E-03    -225.758E-03    -226.563E-03    -225.359E-03     451.922E-03    -226.563E-03     32.7467E-03     27.9654E+06    -21.9056E+06    -66.6911E+06    -66.6834E+06    -21.9133E+06     27.9654E+06     529.312E+03         59.0032
            1389     8.77688E-03     105.212E-03     299.896E-03    -103.169E-03    -131.182E-03    -103.147E-03     299.874E-03    -131.182E-03    -5.68576E-03     452.274E-03    -225.755E-03    -226.518E-03    -225.194E-03     451.712E-03    -226.518E-03     38.8883E-03     45.4132E+06     24.3291E+06    -57.5278E+06    -57.5245E+06     24.3258E+06     45.4132E+06     432.137E+03         59.3511
            1390     9.57536E-03     105.269E-03     289.984E-03    -95.7715E-03    -128.459E-03    -95.7515E-03     289.964E-03    -128.459E-03    -2.24373E-03     452.359E-03    -225.871E-03    -226.487E-03    -225.109E-03     451.597E-03    -226.487E-03     45.3155E-03     59.3616E+06     47.8007E+06    -48.5302E+06    -48.5286E+06     47.7991E+06     59.3616E+06     263.929E+03         59.6935
            1391     10.3740E-03     105.337E-03     279.514E-03    -87.9939E-03    -125.548E-03    -87.9879E-03     279.508E-03    -125.548E-03    -40.9046E-06     452.630E-03    -226.147E-03    -226.483E-03    -225.145E-03     451.628E-03    -226.483E-03     52.0109E-03     73.0982E+06     54.1863E+06    -39.4842E+06    -39.4741E+06     54.1763E+06     73.0982E+06     281.627E+03         60.0216
            1392     11.1728E-03     105.414E-03     268.569E-03    -79.9896E-03    -122.459E-03    -79.9132E-03     268.493E-03    -122.459E-03     5.56122E-03     453.021E-03    -226.410E-03    -226.611E-03    -225.183E-03     451.679E-03    -226.496E-03     60.1482E-03     89.3367E+06     61.3347E+06    -30.7087E+06    -30.6851E+06     61.3111E+06     89.3367E+06     350.119E+03         60.3274
            1393     11.9712E-03     105.506E-03     257.167E-03    -71.7175E-03    -119.206E-03    -71.6303E-03     257.080E-03    -119.206E-03     4.06867E-03     453.295E-03    -226.501E-03    -226.794E-03    -225.173E-03     451.674E-03    -226.501E-03     66.3136E-03     103.380E+06     67.5750E+06    -22.6633E+06    -22.6483E+06     67.5601E+06     103.380E+06     79.8908E+03         60.6041
            1394     12.7698E-03     105.603E-03     245.445E-03    -63.2565E-03    -115.795E-03    -63.2241E-03     245.412E-03    -115.795E-03     346.832E-06     454.518E-03    -226.479E-03    -228.039E-03    -225.510E-03     451.989E-03    -226.479E-03     81.7651E-03     111.371E+06     73.8901E+06    -14.5723E+06    -14.5647E+06     73.8826E+06     111.371E+06    -244.481E+03         60.8469
            1395     13.5687E-03     105.743E-03     233.642E-03    -54.7936E-03    -112.248E-03    -54.7277E-03     233.576E-03    -112.248E-03    -1.81672E-03     455.062E-03    -226.445E-03    -228.617E-03    -225.957E-03     452.401E-03    -226.445E-03     84.3601E-03     113.922E+06     80.1190E+06    -6.58667E+06    -6.57764E+06     80.1100E+06     113.922E+06    -363.343E+03         61.0528
            1396     797.741E-06     106.608E-03     943.582E-03    -367.537E-03    -513.247E-03     81.8495E-03     348.485E-03    -367.537E-03    -558.909E-03     452.906E-03    -226.418E-03    -226.489E-03    -226.466E-03     452.906E-03    -226.440E-03     237.034E-06    -137.747E+06    -141.403E+06    -276.551E+06    -140.775E+06    -276.542E+06    -138.383E+06     1.07588E+06         56.8632
            1397     1.59529E-03     106.606E-03     509.558E-03    -142.311E-03    -304.402E-03    -140.104E-03     345.260E-03    -142.311E-03     190.225E-03     452.903E-03    -226.409E-03    -226.494E-03    -226.410E-03     452.902E-03    -226.492E-03     601.765E-06    -126.472E+06    -136.907E+06    -257.252E+06    -136.910E+06    -257.248E+06    -126.472E+06     493.418E+03         56.9409
            1398     2.39296E-03     106.605E-03     404.309E-03    -141.387E-03    -199.817E-03    -139.141E-03     343.633E-03    -141.387E-03    -97.1496E-03     452.801E-03    -226.274E-03    -226.527E-03    -226.272E-03     452.798E-03    -226.527E-03     2.10452E-03    -110.408E+06    -131.461E+06    -238.184E+06    -131.463E+06    -238.181E+06    -110.408E+06    -287.141E+03         57.0653
            1399     3.19061E-03     106.606E-03     363.486E-03    -140.474E-03    -159.912E-03    -136.221E-03     339.794E-03    -140.474E-03     43.9653E-03     452.668E-03    -226.112E-03    -226.556E-03    -226.103E-03     452.659E-03    -226.556E-03     4.54627E-03    -89.9391E+06    -123.371E+06    -217.343E+06    -123.376E+06    -217.338E+06    -89.9391E+06    -110.910E+03         57.2357
            1400     3.98836E-03     106.611E-03     345.807E-03    -138.171E-03    -144.537E-03    -133.395E-03     335.823E-03    -139.329E-03    -35.5639E-03     452.625E-03    -226.037E-03    -226.589E-03    -226.012E-03     452.601E-03    -226.589E-03     7.87599E-03    -67.4245E+06    -114.365E+06    -195.753E+06    -114.370E+06    -195.748E+06    -67.4245E+06     511.985E+03         57.4493
            1401     4.78627E-03     106.622E-03     333.725E-03    -132.606E-03    -137.966E-03    -129.207E-03     330.326E-03    -137.966E-03     22.3428E-03     452.625E-03    -226.011E-03    -226.613E-03    -225.957E-03     452.570E-03    -226.613E-03     11.9764E-03    -46.1209E+06    -104.877E+06    -168.285E+06    -104.880E+06    -168.282E+06    -46.1209E+06     338.477E+03         57.7023
            1402     5.58420E-03     106.639E-03     325.478E-03    -125.685E-03    -136.321E-03    -124.382E-03     324.174E-03    -136.321E-03    -5.88031E-03     452.541E-03    -225.917E-03    -226.624E-03    -225.813E-03     452.437E-03    -226.624E-03     16.5934E-03    -26.1576E+06    -94.6050E+06    -136.620E+06    -94.6071E+06    -136.618E+06    -26.1576E+06     211.451E+03         57.9898
            1403     6.38212E-03     106.663E-03     317.565E-03    -119.462E-03    -134.412E-03    -118.892E-03     316.995E-03    -134.412E-03     13.5358E-03     452.387E-03    -225.772E-03    -226.616E-03    -225.597E-03     452.213E-03    -226.616E-03     21.5857E-03    -7.87794E+06    -85.1484E+06    -104.394E+06    -85.2692E+06    -104.273E+06    -7.87794E+06     537.785E+03         58.3056
            1404     7.18046E-03     106.695E-03     309.251E-03    -113.259E-03    -132.267E-03    -113.165E-03     309.157E-03    -132.267E-03    -2.88071E-03     452.291E-03    -225.703E-03    -226.588E-03    -225.431E-03     452.019E-03    -226.588E-03     27.0163E-03     9.92613E+06    -64.2018E+06    -79.1444E+06    -76.1343E+06    -67.2118E+06     9.92613E+06     610.775E+03         58.6425
            1405     7.97875E-03     106.735E-03     300.610E-03    -106.990E-03    -129.917E-03    -106.953E-03     300.573E-03    -129.917E-03     1.76367E-03     452.207E-03    -225.661E-03    -226.545E-03    -225.262E-03     451.807E-03    -226.545E-03     32.7558E-03     28.0516E+06    -22.1041E+06    -66.5069E+06    -66.4983E+06    -22.1127E+06     28.0516E+06     576.990E+03         58.9921
            1406     8.77724E-03     106.783E-03     291.440E-03    -100.292E-03    -127.367E-03    -100.264E-03     291.413E-03    -127.367E-03    -6.46273E-03     452.126E-03    -225.634E-03    -226.493E-03    -225.077E-03     451.570E-03    -226.493E-03     38.6998E-03     45.4413E+06     24.1863E+06    -57.4218E+06    -57.4148E+06     24.1794E+06     45.4413E+06     716.237E+03         59.3456
            1407     9.57589E-03     106.841E-03     281.620E-03    -93.0490E-03    -124.618E-03    -93.0315E-03     281.603E-03    -124.618E-03    -2.75895E-03     452.359E-03    -225.897E-03    -226.462E-03    -225.144E-03     451.606E-03    -226.462E-03     45.0502E-03     59.9025E+06     48.2749E+06    -48.3035E+06    -48.2990E+06     48.2704E+06     59.9025E+06     609.073E+03         59.6937
            1408     10.3742E-03     106.909E-03     271.238E-03    -85.4253E-03    -121.675E-03    -85.4203E-03     271.233E-03    -121.675E-03    -840.258E-06     452.798E-03    -226.308E-03    -226.490E-03    -225.338E-03     451.805E-03    -226.467E-03     51.7720E-03     73.1238E+06     54.4726E+06    -39.5674E+06    -39.5571E+06     54.4622E+06     73.1238E+06     393.767E+03         60.0271
            1409     11.1722E-03     106.986E-03     260.409E-03    -77.5559E-03    -118.544E-03    -77.4888E-03     260.342E-03    -118.544E-03     4.80190E-03     453.267E-03    -226.495E-03    -226.772E-03    -225.434E-03     451.931E-03    -226.496E-03     60.0429E-03     88.9157E+06     61.2965E+06    -31.2089E+06    -31.1820E+06     61.2696E+06     88.9157E+06     241.785E+03         60.3376
            1410     11.9708E-03     107.078E-03     249.166E-03    -69.5045E-03    -115.244E-03    -69.4261E-03     249.088E-03    -115.244E-03     3.38755E-03     453.614E-03    -226.521E-03    -227.093E-03    -225.458E-03     451.979E-03    -226.521E-03     66.6069E-03     103.802E+06     68.4404E+06    -22.2615E+06    -22.2424E+06     68.4213E+06     103.802E+06     192.827E+03         60.6183
            1411     12.7691E-03     107.175E-03     237.637E-03    -61.3389E-03    -111.776E-03    -61.3072E-03     237.605E-03    -111.776E-03     40.8279E-06     454.640E-03    -226.508E-03    -228.132E-03    -225.560E-03     452.068E-03    -226.508E-03     82.4691E-03     111.802E+06     74.2056E+06    -14.2432E+06    -14.2349E+06     74.1973E+06     111.802E+06    -29.2273E+03         60.8640
            1412     13.5673E-03     107.314E-03     226.088E-03    -53.1907E-03    -108.169E-03    -53.1258E-03     226.023E-03    -108.169E-03    -2.00763E-03     454.925E-03    -226.465E-03    -228.460E-03    -225.730E-03     452.195E-03    -226.465E-03     85.4917E-03     114.085E+06     79.6321E+06    -6.87061E+06    -6.85895E+06     79.6205E+06     114.085E+06    -488.369E+03         61.0719
            1413     797.503E-06     108.180E-03     985.036E-03    -369.769E-03    -554.736E-03     99.1962E-03     331.104E-03    -369.769E-03    -597.101E-03     453.012E-03    -226.468E-03    -226.544E-03    -226.523E-03     453.012E-03    -226.489E-03     320.993E-06    -137.525E+06    -140.424E+06    -277.285E+06    -140.297E+06    -277.278E+06    -137.658E+06     470.596E+03         56.8248
            1414     1.59508E-03     108.178E-03     514.721E-03    -134.842E-03    -319.279E-03    -132.967E-03     328.409E-03    -134.842E-03     201.764E-03     452.936E-03    -226.404E-03    -226.532E-03    -226.404E-03     452.935E-03    -226.531E-03     591.040E-06    -126.084E+06    -135.825E+06    -257.742E+06    -135.831E+06    -257.735E+06    -126.084E+06     346.462E+03         56.9031
            1415     2.39274E-03     108.177E-03     397.767E-03    -134.002E-03    -202.672E-03    -131.753E-03     326.848E-03    -134.002E-03    -103.482E-03     452.786E-03    -226.239E-03    -226.547E-03    -226.237E-03     452.784E-03    -226.547E-03     2.04148E-03    -109.018E+06    -130.454E+06    -236.876E+06    -130.458E+06    -236.872E+06    -109.018E+06     334.053E+03         57.0288
            1416     3.19064E-03     108.178E-03     351.480E-03    -133.129E-03    -157.395E-03    -129.221E-03     323.306E-03    -133.129E-03     47.1368E-03     452.659E-03    -226.094E-03    -226.566E-03    -226.085E-03     452.651E-03    -226.566E-03     4.51037E-03    -89.1831E+06    -123.499E+06    -217.644E+06    -123.502E+06    -217.641E+06    -89.1831E+06    -132.990E+03         57.2008
            1417     3.98858E-03     108.183E-03     331.389E-03    -131.639E-03    -138.858E-03    -126.518E-03     319.463E-03    -132.054E-03    -38.2405E-03     452.637E-03    -226.046E-03    -226.591E-03    -226.021E-03     452.612E-03    -226.591E-03     7.99751E-03    -67.5549E+06    -113.958E+06    -196.274E+06    -113.961E+06    -196.271E+06    -67.5549E+06    -223.660E+03         57.4167
            1418     4.78630E-03     108.194E-03     318.453E-03    -126.674E-03    -130.754E-03    -122.558E-03     314.337E-03    -130.754E-03     22.8622E-03     452.629E-03    -226.015E-03    -226.615E-03    -225.958E-03     452.573E-03    -226.615E-03     12.1722E-03    -46.0657E+06    -103.904E+06    -168.447E+06    -103.918E+06    -168.434E+06    -46.0657E+06     335.626E+03         57.6726
            1419     5.58400E-03     108.211E-03     310.136E-03    -119.621E-03    -129.176E-03    -118.021E-03     308.537E-03    -129.176E-03    -7.60434E-03     452.482E-03    -225.861E-03    -226.622E-03    -225.754E-03     452.376E-03    -226.622E-03     16.8059E-03    -26.4298E+06    -94.8663E+06    -137.308E+06    -94.8998E+06    -137.274E+06    -26.4298E+06     853.466E+03         57.9638
            1420     6.38226E-03     108.235E-03     302.357E-03    -113.505E-03    -127.336E-03    -112.822E-03     301.674E-03    -127.336E-03     12.9631E-03     452.322E-03    -225.715E-03    -226.607E-03    -225.538E-03     452.145E-03    -226.607E-03     21.7576E-03    -7.79558E+06    -85.3547E+06    -104.718E+06    -85.5058E+06    -104.567E+06    -7.79558E+06     752.161E+03         58.2839
            1421     7.18053E-03     108.267E-03     294.300E-03    -107.491E-03    -125.257E-03    -107.355E-03     294.165E-03    -125.257E-03    -4.09779E-03     452.268E-03    -225.691E-03    -226.577E-03    -225.419E-03     451.996E-03    -226.577E-03     26.9995E-03     10.2262E+06    -63.8599E+06    -79.0075E+06    -75.6328E+06    -67.2347E+06     10.2262E+06     740.785E+03         58.6257
            1422     7.97882E-03     108.307E-03     286.041E-03    -101.496E-03    -122.967E-03    -101.446E-03     285.991E-03    -122.967E-03     1.31652E-03     452.212E-03    -225.676E-03    -226.536E-03    -225.283E-03     451.819E-03    -226.536E-03     32.5021E-03     28.1188E+06    -22.5426E+06    -66.6038E+06    -66.5655E+06    -22.5809E+06     28.1188E+06     1.02685E+06         58.9808
            1423     8.77722E-03     108.355E-03     277.285E-03    -95.1824E-03    -120.476E-03    -95.1474E-03     277.250E-03    -120.476E-03    -7.18969E-03     452.193E-03    -225.704E-03    -226.489E-03    -225.156E-03     451.645E-03    -226.489E-03     38.3926E-03     45.8244E+06     24.2385E+06    -57.1850E+06    -57.1706E+06     24.2240E+06     45.8244E+06     955.181E+03         59.3399
            1424     9.57567E-03     108.413E-03     267.919E-03    -88.3864E-03    -117.788E-03    -88.3697E-03     267.903E-03    -117.788E-03    -3.27814E-03     452.397E-03    -225.934E-03    -226.463E-03    -225.188E-03     451.651E-03    -226.463E-03     44.8372E-03     59.9961E+06     48.5766E+06    -47.9483E+06    -47.9424E+06     48.5708E+06     59.9961E+06     698.156E+03         59.6936
            1425     10.3741E-03     108.481E-03     258.012E-03    -81.1651E-03    -114.908E-03    -81.1598E-03     258.007E-03    -114.908E-03    -1.63201E-03     452.731E-03    -226.240E-03    -226.491E-03    -225.273E-03     451.742E-03    -226.468E-03     51.6755E-03     73.3046E+06     54.4227E+06    -39.3061E+06    -39.2972E+06     54.4138E+06     73.3046E+06     715.005E+03         60.0325
            1426     11.1727E-03     108.558E-03     247.663E-03    -73.7206E-03    -111.838E-03    -73.6597E-03     247.602E-03    -111.838E-03     4.07099E-03     453.212E-03    -226.439E-03    -226.772E-03    -225.370E-03     451.864E-03    -226.495E-03     60.2637E-03     89.9294E+06     62.0306E+06    -30.5744E+06    -30.5508E+06     62.0070E+06     89.9294E+06     482.256E+03         60.3481
            1427     11.9710E-03     108.651E-03     236.968E-03    -66.1693E-03    -108.599E-03    -66.0961E-03     236.895E-03    -108.599E-03     2.71692E-03     453.671E-03    -226.517E-03    -227.154E-03    -225.498E-03     452.015E-03    -226.517E-03     67.0466E-03     104.262E+06     68.9334E+06    -22.4235E+06    -22.3988E+06     68.9088E+06     104.262E+06    -159.044E+03         60.6329
            1428     12.7696E-03     108.747E-03     226.027E-03    -58.5483E-03    -105.191E-03    -58.5159E-03     225.995E-03    -105.191E-03    -313.627E-06     454.835E-03    -226.513E-03    -228.322E-03    -225.774E-03     452.287E-03    -226.513E-03     82.2066E-03     112.584E+06     75.0579E+06    -13.8021E+06    -13.7880E+06     75.0438E+06     112.584E+06    -343.997E+03         60.8817
            1429     13.5693E-03     108.885E-03     215.109E-03    -51.0100E-03    -101.646E-03    -50.9460E-03     215.045E-03    -101.646E-03    -2.14178E-03     455.155E-03    -226.485E-03    -228.670E-03    -225.970E-03     452.455E-03    -226.485E-03     85.1088E-03     114.637E+06     79.8386E+06    -6.52895E+06    -6.51038E+06     79.8200E+06     114.637E+06    -19.0901E+03         61.0915
            1430     797.569E-06     109.752E-03         1.01306    -365.923E-03    -589.074E-03     117.002E-03     306.985E-03    -365.923E-03    -626.866E-03     453.029E-03    -226.448E-03    -226.581E-03    -226.531E-03     453.028E-03    -226.498E-03     490.861E-06    -137.408E+06    -139.398E+06    -277.531E+06    -139.252E+06    -277.528E+06    -137.557E+06     151.121E+03         56.7860
            1431     1.59518E-03     109.750E-03     512.493E-03    -124.070E-03    -330.162E-03    -122.387E-03     304.717E-03    -124.070E-03     210.760E-03     452.871E-03    -226.351E-03    -226.519E-03    -226.351E-03     452.870E-03    -226.519E-03     697.959E-06    -127.541E+06    -136.605E+06    -258.199E+06    -136.610E+06    -258.195E+06    -127.541E+06     125.278E+03         56.8650
            1432     2.39290E-03     109.749E-03     384.706E-03    -123.313E-03    -202.769E-03    -121.270E-03     303.207E-03    -123.313E-03    -108.429E-03     452.787E-03    -226.252E-03    -226.535E-03    -226.250E-03     452.785E-03    -226.535E-03     2.16329E-03    -108.931E+06    -130.355E+06    -237.285E+06    -130.359E+06    -237.281E+06    -108.931E+06     420.714E+03         56.9917
            1433     3.19057E-03     109.750E-03     333.031E-03    -122.534E-03    -152.132E-03    -119.126E-03     300.026E-03    -122.534E-03     49.5564E-03     452.730E-03    -226.159E-03    -226.571E-03    -226.151E-03     452.722E-03    -226.571E-03     4.53165E-03    -87.2472E+06    -122.145E+06    -216.353E+06    -122.148E+06    -216.350E+06    -87.2472E+06     122.560E+03         57.1654
            1434     3.98834E-03     109.755E-03     310.676E-03    -121.553E-03    -130.703E-03    -116.605E-03     296.593E-03    -121.568E-03    -40.1914E-03     452.595E-03    -225.998E-03    -226.597E-03    -225.973E-03     452.570E-03    -226.597E-03     7.99058E-03    -66.7582E+06    -113.670E+06    -196.723E+06    -113.679E+06    -196.715E+06    -66.7582E+06     69.2308E+03         57.3836
            1435     4.78631E-03     109.766E-03     296.909E-03    -117.402E-03    -120.922E-03    -113.012E-03     291.970E-03    -120.373E-03     23.2518E-03     452.430E-03    -225.831E-03    -226.599E-03    -225.774E-03     452.373E-03    -226.599E-03     12.2304E-03    -46.6493E+06    -104.638E+06    -170.310E+06    -104.660E+06    -170.288E+06    -46.6493E+06     810.311E+03         57.6425
            1436     5.58457E-03     109.783E-03     288.494E-03    -110.818E-03    -118.912E-03    -108.882E-03     286.558E-03    -118.912E-03    -9.11865E-03     452.366E-03    -225.778E-03    -226.588E-03    -225.671E-03     452.259E-03    -226.588E-03     16.8490E-03    -26.4322E+06    -94.8304E+06    -137.807E+06    -94.8715E+06    -137.766E+06    -26.4322E+06     1.21931E+06         57.9373
            1437     6.38256E-03     109.807E-03     281.049E-03    -104.904E-03    -117.194E-03    -104.094E-03     280.239E-03    -117.194E-03     12.4282E-03     452.362E-03    -225.786E-03    -226.576E-03    -225.608E-03     452.184E-03    -226.576E-03     21.8207E-03    -7.36459E+06    -84.8244E+06    -104.276E+06    -85.0551E+06    -104.046E+06    -7.36459E+06     990.700E+03         58.2618
            1438     7.18053E-03     109.839E-03     273.509E-03    -99.1797E-03    -115.237E-03    -98.9982E-03     273.327E-03    -115.237E-03    -5.08104E-03     452.340E-03    -225.782E-03    -226.558E-03    -225.507E-03     452.065E-03    -226.558E-03     27.1520E-03     10.2370E+06    -64.2297E+06    -79.2392E+06    -75.8899E+06    -67.5790E+06     10.2370E+06     833.119E+03         58.6085
            1439     7.97879E-03     109.879E-03     265.837E-03    -93.7053E-03    -113.070E-03    -93.6393E-03     265.771E-03    -113.070E-03     897.724E-06     452.322E-03    -225.793E-03    -226.528E-03    -225.398E-03     451.926E-03    -226.528E-03     32.6449E-03     28.1153E+06    -23.1848E+06    -66.2398E+06    -66.2029E+06    -23.2217E+06     28.1153E+06     949.139E+03         58.9690
            1440     8.77711E-03     109.927E-03     257.781E-03    -88.0356E-03    -110.716E-03    -87.9908E-03     257.736E-03    -110.716E-03    -7.79187E-03     452.347E-03    -225.854E-03    -226.493E-03    -225.303E-03     451.796E-03    -226.493E-03     38.5246E-03     45.9467E+06     24.4651E+06    -56.6197E+06    -56.5988E+06     24.4443E+06     45.9467E+06     1.14173E+06         59.3339
            1441     9.57544E-03     109.985E-03     249.207E-03    -81.8700E-03    -108.177E-03    -81.8526E-03     249.190E-03    -108.177E-03    -3.71082E-03     452.488E-03    -226.011E-03    -226.476E-03    -225.264E-03     451.741E-03    -226.476E-03     44.8935E-03     60.2733E+06     49.1043E+06    -47.7376E+06    -47.7219E+06     49.0886E+06     60.2733E+06     1.11658E+06         59.6934
            1442     10.3740E-03     110.053E-03     240.152E-03    -75.3494E-03    -105.453E-03    -75.3422E-03     240.144E-03    -105.453E-03    -2.36578E-03     452.753E-03    -226.251E-03    -226.502E-03    -225.287E-03     451.773E-03    -226.485E-03     51.4402E-03     73.5378E+06     54.5760E+06    -39.0418E+06    -39.0358E+06     54.5700E+06     73.5378E+06     658.419E+03         60.0379
            1443     11.1725E-03     110.130E-03     230.682E-03    -68.6442E-03    -102.548E-03    -68.5876E-03     230.625E-03    -102.548E-03     3.31713E-03     453.189E-03    -226.457E-03    -226.732E-03    -225.360E-03     451.873E-03    -226.513E-03     59.5723E-03     90.2479E+06     62.3189E+06    -30.3710E+06    -30.3588E+06     62.3067E+06     90.2479E+06     495.248E+03         60.3585
            1444     11.9714E-03     110.223E-03     220.884E-03    -61.8544E-03    -99.4829E-03    -61.7846E-03     220.814E-03    -99.4829E-03     2.05164E-03     453.559E-03    -226.536E-03    -227.024E-03    -225.410E-03     451.946E-03    -226.536E-03     66.1739E-03     105.539E+06     69.9505E+06    -21.6750E+06    -21.6491E+06     69.9246E+06     105.539E+06     359.080E+03         60.6477
            1445     12.7693E-03     110.320E-03     210.869E-03    -55.0306E-03    -96.2496E-03    -54.9971E-03     210.836E-03    -96.2496E-03    -707.170E-06     454.943E-03    -226.530E-03    -228.413E-03    -225.865E-03     452.395E-03    -226.530E-03     82.1051E-03     112.891E+06     75.3607E+06    -14.2507E+06    -14.2294E+06     75.3393E+06     112.891E+06    -61.1941E+03         60.8997
            1446     13.5656E-03     110.457E-03     200.869E-03    -48.2569E-03    -92.8846E-03    -48.1929E-03     200.805E-03    -92.8846E-03    -2.32582E-03     455.293E-03    -226.503E-03    -228.790E-03    -226.056E-03     452.559E-03    -226.503E-03     85.6716E-03     114.226E+06     79.4705E+06    -7.39861E+06    -7.38283E+06     79.4547E+06     114.226E+06     116.708E+03         61.1115
            1447     797.547E-06     111.324E-03         1.02856    -357.281E-03    -616.153E-03     136.059E-03     276.343E-03    -357.281E-03    -648.063E-03     452.895E-03    -226.361E-03    -226.535E-03    -226.497E-03     452.895E-03    -226.398E-03     458.191E-06    -137.418E+06    -139.207E+06    -277.614E+06    -138.952E+06    -277.607E+06    -137.680E+06    -297.287E+03         56.7468
            1448     1.59526E-03     111.322E-03     503.493E-03    -110.301E-03    -337.771E-03    -108.881E-03     274.603E-03    -110.301E-03     217.118E-03     452.789E-03    -226.327E-03    -226.462E-03    -226.327E-03     452.789E-03    -226.462E-03     688.599E-06    -127.346E+06    -136.385E+06    -258.754E+06    -136.389E+06    -258.750E+06    -127.346E+06     270.994E+03         56.8264
            1449     2.39299E-03     111.321E-03     365.976E-03    -109.660E-03    -200.680E-03    -107.911E-03     273.207E-03    -109.660E-03    -112.038E-03     452.752E-03    -226.259E-03    -226.494E-03    -226.256E-03     452.750E-03    -226.494E-03     2.25335E-03    -108.805E+06    -130.246E+06    -237.842E+06    -130.250E+06    -237.838E+06    -108.805E+06      371.23E+03         56.9543
            1450     3.19067E-03     111.322E-03     309.086E-03    -108.985E-03    -144.445E-03    -106.046E-03     270.686E-03    -108.985E-03     51.5719E-03     452.701E-03    -226.162E-03    -226.540E-03    -226.153E-03     452.692E-03    -226.540E-03     4.69367E-03    -87.6461E+06    -122.527E+06    -216.755E+06    -122.536E+06    -216.746E+06    -87.6461E+06     654.193E+03         57.1296
            1451     3.98839E-03     111.327E-03     284.319E-03    -108.148E-03    -120.506E-03    -103.984E-03     267.798E-03    -108.148E-03    -41.3821E-03     452.558E-03    -225.982E-03    -226.577E-03    -225.956E-03     452.533E-03    -226.577E-03     8.11559E-03    -66.2951E+06    -114.326E+06    -197.449E+06    -114.345E+06    -197.430E+06    -66.2951E+06     1.10586E+06         57.3499
            1452     4.78656E-03     111.337E-03     269.649E-03    -105.093E-03    -108.900E-03    -100.964E-03     263.735E-03    -107.116E-03     23.3239E-03     452.407E-03    -225.825E-03    -226.582E-03    -225.769E-03     452.351E-03    -226.582E-03     12.1722E-03    -45.8418E+06    -104.915E+06    -170.900E+06    -104.932E+06    -170.884E+06    -45.8418E+06     1.04227E+06         57.6118
            1453     5.58459E-03     111.355E-03     261.268E-03    -99.5571E-03    -105.827E-03    -97.2088E-03     258.920E-03    -105.827E-03    -10.4261E-03     452.328E-03    -225.759E-03    -226.569E-03    -225.654E-03     452.224E-03    -226.569E-03     16.6312E-03    -26.2179E+06    -94.5822E+06    -138.378E+06    -94.6091E+06    -138.351E+06    -26.2179E+06     976.550E+03         57.9102
            1454     6.38266E-03     111.379E-03     254.326E-03    -93.9131E-03    -104.280E-03    -92.9478E-03     253.361E-03    -104.280E-03     11.9456E-03     452.293E-03    -225.739E-03    -226.554E-03    -225.564E-03     452.118E-03    -226.554E-03     21.6195E-03    -7.68769E+06    -84.7142E+06    -104.815E+06    -84.9748E+06    -104.554E+06    -7.68769E+06     1.38564E+06         58.2390
            1455     7.18099E-03     111.410E-03     247.486E-03    -88.7496E-03    -102.505E-03    -88.5149E-03     247.252E-03    -102.505E-03    -6.01749E-03     452.313E-03    -225.777E-03    -226.537E-03    -225.503E-03     452.040E-03    -226.537E-03     27.0854E-03     10.5501E+06    -63.8141E+06    -78.8418E+06     -75.488E+06    -67.1678E+06     10.5501E+06     1.44316E+06         58.5908
            1456     7.97907E-03     111.451E-03     240.668E-03    -83.9876E-03    -100.539E-03    -83.9045E-03     240.585E-03    -100.539E-03     363.253E-06     452.399E-03    -225.885E-03    -226.514E-03    -225.486E-03     452.000E-03    -226.514E-03     32.7483E-03     28.2878E+06    -23.2294E+06    -66.3384E+06    -66.2710E+06    -23.2967E+06     28.2878E+06     1.13958E+06         58.9568
            1457     8.77718E-03     111.499E-03     233.574E-03    -79.0957E-03    -98.4011E-03    -79.0375E-03     233.516E-03    -98.4011E-03    -8.35885E-03     452.504E-03    -226.014E-03    -226.491E-03    -225.460E-03     451.950E-03    -226.491E-03     38.6390E-03     45.7285E+06     24.0754E+06    -57.3089E+06    -57.2876E+06     24.0541E+06     45.7285E+06     1.13309E+06         59.3276
            1458     9.57550E-03     111.557E-03     226.052E-03    -73.7606E-03    -96.0946E-03    -73.7408E-03     226.032E-03    -96.0946E-03    -4.16502E-03     452.698E-03    -226.210E-03    -226.489E-03    -225.464E-03     451.953E-03    -226.489E-03     44.8669E-03     60.3265E+06     49.5021E+06    -47.9811E+06    -47.9640E+06     49.4850E+06     60.3265E+06     1.16721E+06         59.6930
            1459     10.3736E-03     111.625E-03     218.137E-03    -68.1619E-03    -93.6188E-03    -68.1512E-03     218.127E-03    -93.6188E-03    -3.09014E-03     453.037E-03    -226.439E-03    -226.599E-03    -225.542E-03     452.058E-03    -226.516E-03     51.4381E-03     73.9239E+06     55.3272E+06    -39.1015E+06    -39.0919E+06     55.3176E+06     73.9239E+06     930.736E+03         60.0432
            1460     11.1717E-03     111.703E-03     209.861E-03    -62.4237E-03    -90.9759E-03    -62.3702E-03     209.807E-03    -90.9759E-03     2.53744E-03     453.517E-03    -226.561E-03    -226.957E-03    -225.642E-03     452.203E-03    -226.561E-03     59.5769E-03     90.3714E+06     62.5026E+06    -30.8927E+06    -30.8859E+06     62.4958E+06     90.3714E+06     459.964E+03         60.3690
            1461     11.9696E-03     111.794E-03     201.281E-03    -56.6185E-03    -88.1883E-03    -56.5506E-03     201.213E-03    -88.1883E-03     1.37728E-03     453.741E-03    -226.594E-03    -227.147E-03    -225.558E-03     452.152E-03    -226.594E-03     65.6806E-03     104.971E+06     69.7144E+06    -22.5004E+06    -22.4874E+06     69.7014E+06     104.971E+06     354.603E+03         60.6625
            1462     12.7690E-03     111.891E-03     192.470E-03    -50.7808E-03    -85.2374E-03    -50.7449E-03     192.434E-03    -85.2374E-03    -1.07345E-03     454.516E-03    -226.579E-03    -227.937E-03    -225.441E-03     452.019E-03    -226.579E-03     81.1710E-03     112.838E+06     75.4005E+06    -14.1967E+06    -14.1822E+06     75.3860E+06     112.838E+06      747.62E+03         60.9179
            1463     13.5697E-03     112.031E-03     183.691E-03    -44.9913E-03    -82.1600E-03    -44.9261E-03     183.626E-03    -82.1600E-03    -2.46675E-03     454.631E-03    -226.521E-03    -228.110E-03    -225.408E-03     451.929E-03    -226.521E-03     85.1062E-03     114.919E+06     80.0800E+06    -6.44318E+06    -6.43019E+06     80.0670E+06     114.919E+06     656.250E+03         61.1319
            1464     797.772E-06     112.896E-03         1.03266    -344.737E-03    -635.711E-03     156.354E-03     240.590E-03    -344.737E-03    -660.983E-03     452.831E-03    -226.334E-03    -226.497E-03    -226.489E-03     452.831E-03    -226.342E-03     419.420E-06    -136.293E+06    -139.768E+06    -277.548E+06    -139.535E+06    -277.533E+06    -136.540E+06    -905.978E+03         56.7072
            1465     1.59539E-03     112.894E-03     488.665E-03    -94.0051E-03    -342.516E-03    -93.0293E-03     239.178E-03    -94.0051E-03     220.719E-03     452.786E-03    -226.333E-03    -226.453E-03    -226.338E-03     452.786E-03    -226.449E-03     532.661E-06    -125.228E+06    -135.370E+06    -260.314E+06    -135.375E+06    -260.309E+06    -125.228E+06     536.651E+03         56.7874
            1466     2.39306E-03     112.893E-03     342.969E-03    -93.5025E-03    -196.917E-03    -91.9107E-03     237.964E-03    -93.5025E-03    -114.206E-03     452.589E-03    -226.127E-03    -226.462E-03    -226.124E-03     452.587E-03    -226.462E-03     2.19987E-03    -108.369E+06    -129.774E+06    -238.494E+06    -129.789E+06    -238.479E+06    -108.369E+06     1.11332E+06         56.9163
            1467     3.19089E-03     112.894E-03     280.858E-03    -92.9199E-03    -135.285E-03    -90.5363E-03     236.110E-03    -92.9199E-03     52.9080E-03     452.522E-03    -226.038E-03    -226.483E-03    -226.029E-03     452.512E-03    -226.483E-03     4.78012E-03    -87.3149E+06    -122.284E+06    -217.936E+06    -122.304E+06    -217.916E+06    -87.3149E+06     1.19784E+06         57.0931
            1468     3.98892E-03     112.899E-03     253.245E-03    -92.2425E-03    -108.556E-03    -89.0610E-03     233.750E-03    -92.2425E-03    -42.3359E-03     452.633E-03    -226.102E-03    -226.532E-03    -226.076E-03     452.608E-03    -226.532E-03     8.10190E-03    -64.8482E+06    -112.758E+06    -198.067E+06    -112.778E+06    -198.047E+06    -64.8482E+06     1.20257E+06         57.3157
            1469     4.78649E-03     112.909E-03     237.576E-03    -90.5137E-03    -94.6138E-03    -86.6171E-03     230.473E-03    -91.4072E-03     23.0859E-03     452.581E-03    -226.013E-03    -226.569E-03    -225.957E-03     452.526E-03    -226.569E-03     12.0818E-03    -44.2866E+06    -103.031E+06    -170.834E+06    -103.066E+06    -170.800E+06    -44.2866E+06     1.38072E+06         57.5803
            1470     5.58439E-03     112.926E-03     229.398E-03    -86.3108E-03    -90.3327E-03    -83.4577E-03     226.545E-03    -90.3327E-03    -11.5817E-03     452.385E-03    -225.811E-03    -226.573E-03    -225.708E-03     452.281E-03    -226.573E-03     16.5831E-03    -25.7733E+06    -93.9547E+06    -138.907E+06    -94.0094E+06    -138.852E+06    -25.7733E+06     1.46633E+06         57.8823
            1471     6.38271E-03     112.950E-03     223.059E-03    -81.0466E-03    -89.0144E-03    -79.8864E-03     221.899E-03    -89.0144E-03     11.1588E-03     452.336E-03    -225.773E-03    -226.563E-03    -225.600E-03     452.164E-03    -226.563E-03     21.4820E-03    -7.47089E+06    -84.1584E+06    -105.891E+06    -84.3851E+06    -105.664E+06    -7.47089E+06     1.62703E+06         58.2155
            1472     7.18075E-03     112.982E-03     217.062E-03    -76.5776E-03    -87.4881E-03    -76.2706E-03     216.755E-03    -87.4881E-03    -7.05688E-03     452.358E-03    -225.810E-03    -226.548E-03    -225.545E-03     452.093E-03    -226.548E-03     26.6838E-03     10.6299E+06    -63.4249E+06    -79.3191E+06    -74.9035E+06    -67.8405E+06     10.6299E+06     2.06519E+06         58.5723
            1473     7.97911E-03     113.023E-03     211.332E-03    -72.6543E-03    -85.7925E-03    -72.5504E-03     211.228E-03    -85.7925E-03    -250.314E-06     452.391E-03    -225.864E-03    -226.528E-03    -225.474E-03     452.002E-03    -226.528E-03     32.3469E-03     28.8781E+06    -22.8098E+06    -66.2760E+06    -66.1243E+06    -22.9616E+06     28.8781E+06     2.14139E+06         58.9440
            1474     8.77727E-03     113.072E-03     205.441E-03    -68.6708E-03    -83.9445E-03    -68.5928E-03     205.363E-03    -83.9445E-03    -8.98437E-03     452.518E-03    -226.013E-03    -226.505E-03    -225.466E-03     451.971E-03    -226.505E-03     38.4002E-03     46.5634E+06     24.4966E+06    -57.1792E+06    -57.1349E+06     24.4523E+06     46.5634E+06     1.64987E+06         59.3207
            1475     9.57517E-03     113.130E-03     199.158E-03    -64.3442E-03    -81.9471E-03    -64.3187E-03     199.132E-03    -81.9471E-03    -4.68316E-03     452.737E-03    -226.235E-03    -226.503E-03    -225.487E-03     451.989E-03    -226.503E-03     44.9176E-03     60.7634E+06     49.5595E+06    -48.0847E+06    -48.0667E+06     49.5414E+06     60.7634E+06     1.12573E+06         59.6923
            1476     10.3733E-03     113.197E-03     192.578E-03    -59.7853E-03    -79.7995E-03    -59.7688E-03     192.562E-03    -79.7995E-03    -3.77508E-03     453.041E-03    -226.447E-03    -226.593E-03    -225.513E-03     452.040E-03    -226.527E-03     51.9912E-03     74.2142E+06     55.7764E+06    -39.1784E+06    -39.1686E+06     55.7667E+06     74.2142E+06     937.353E+03         60.0484
            1477     11.1715E-03     113.275E-03     185.689E-03    -55.1215E-03    -77.4986E-03    -55.0677E-03     185.636E-03    -77.4986E-03     1.80135E-03     453.548E-03    -226.560E-03    -226.988E-03    -225.614E-03     452.178E-03    -226.565E-03     60.7796E-03     90.4899E+06     62.9580E+06    -30.4909E+06    -30.4770E+06     62.9441E+06     90.4899E+06     1.11354E+06         60.3796
            1478     11.9697E-03     113.368E-03     178.554E-03    -50.4493E-03    -75.0683E-03    -50.3800E-03     178.485E-03    -75.0683E-03     769.959E-06     454.091E-03    -226.601E-03    -227.490E-03    -225.816E-03     452.416E-03    -226.601E-03     67.4551E-03     104.959E+06     70.0058E+06    -22.2425E+06    -22.2179E+06     69.9813E+06     104.959E+06     1.04367E+06         60.6777
            1479     12.7667E-03     113.463E-03     171.268E-03    -45.7988E-03    -72.4902E-03    -45.7580E-03     171.227E-03    -72.4902E-03    -1.35344E-03     454.939E-03    -226.601E-03    -228.339E-03    -225.801E-03     452.402E-03    -226.601E-03     82.0598E-03     112.239E+06     74.9262E+06    -14.5372E+06    -14.5183E+06     74.9072E+06     112.239E+06     675.906E+03         60.9365
            1480     13.5647E-03     113.599E-03     164.012E-03    -41.2558E-03    -69.8025E-03    -41.1860E-03     163.942E-03    -69.8025E-03    -2.57045E-03     454.179E-03    -226.366E-03    -227.812E-03    -224.940E-03     451.480E-03    -226.540E-03     85.0203E-03     114.815E+06     80.3894E+06    -6.55579E+06    -6.54638E+06     80.3799E+06     114.815E+06     620.501E+03         61.1526
            1481     797.582E-06     114.468E-03         1.02579    -327.718E-03    -650.002E-03     175.612E-03     200.175E-03    -327.718E-03    -666.847E-03     452.822E-03    -226.313E-03    -226.509E-03    -226.407E-03     452.822E-03    -226.415E-03     432.789E-06    -135.250E+06    -138.923E+06    -278.886E+06    -138.946E+06    -278.863E+06    -135.250E+06     634.618E+03         56.6670
            1482     1.59513E-03     114.466E-03     469.486E-03    -75.8509E-03    -344.877E-03    -74.9540E-03     199.563E-03    -75.8509E-03     222.023E-03     452.715E-03    -226.276E-03    -226.439E-03    -226.280E-03     452.714E-03    -226.434E-03     636.649E-06    -124.422E+06    -135.001E+06    -261.041E+06    -135.007E+06    -261.035E+06    -124.422E+06     562.374E+03         56.7477
            1483     2.39303E-03     114.464E-03     317.115E-03    -75.4050E-03    -192.405E-03    -74.0211E-03     198.732E-03    -75.4050E-03    -115.129E-03     452.558E-03    -226.118E-03    -226.440E-03    -226.116E-03     452.556E-03    -226.440E-03     2.08727E-03    -107.579E+06    -128.631E+06    -240.230E+06    -128.644E+06    -240.217E+06    -107.579E+06      665.96E+03         56.8776
            1484     3.19128E-03     114.465E-03     249.797E-03    -74.9398E-03    -125.661E-03    -73.2426E-03     197.379E-03    -74.9398E-03     53.3188E-03     452.570E-03    -226.100E-03    -226.470E-03    -226.091E-03     452.562E-03    -226.470E-03     4.56028E-03    -86.3980E+06    -120.439E+06    -219.001E+06    -120.484E+06    -218.956E+06    -86.3980E+06     1.58558E+06         57.0560
            1485     3.98881E-03     114.471E-03     218.966E-03    -74.4342E-03    -95.5686E-03    -72.2001E-03     195.597E-03    -74.4342E-03    -43.0494E-03     452.648E-03    -226.121E-03    -226.527E-03    -226.098E-03     452.624E-03    -226.527E-03     7.81856E-03     -64.575E+06    -111.760E+06    -198.783E+06    -111.816E+06    -198.727E+06     -64.575E+06     1.92862E+06         57.2806
            1486     4.78659E-03     114.482E-03     201.950E-03    -73.6518E-03    -79.2045E-03    -70.3778E-03     193.268E-03    -73.7969E-03     22.6920E-03     452.538E-03    -225.974E-03    -226.564E-03    -225.920E-03     452.484E-03    -226.564E-03     11.9082E-03    -44.3486E+06    -102.828E+06    -172.150E+06    -102.893E+06    -172.084E+06    -44.3486E+06     2.03183E+06         57.5481
            1487     5.58462E-03     114.498E-03     193.820E-03    -71.0197E-03    -73.5053E-03    -68.0509E-03     190.307E-03    -72.9602E-03    -12.6437E-03     452.478E-03    -225.904E-03    -226.574E-03    -225.799E-03     452.373E-03    -226.574E-03     16.6591E-03    -25.1297E+06    -93.3370E+06    -139.444E+06    -93.4603E+06    -139.320E+06    -25.1297E+06     2.23149E+06         57.8537
            1488     6.38240E-03     114.522E-03     188.143E-03    -66.7579E-03    -71.9169E-03    -65.3475E-03     186.733E-03    -71.9169E-03     10.1746E-03     452.520E-03    -225.939E-03    -226.580E-03    -225.764E-03     452.344E-03    -226.580E-03     21.6692E-03    -6.78580E+06    -83.6843E+06    -106.708E+06    -84.0541E+06    -106.339E+06    -6.78580E+06     2.32008E+06         58.1912
            1489     7.18040E-03     114.555E-03     183.186E-03    -62.9806E-03    -70.6907E-03    -62.5762E-03     182.782E-03    -70.6907E-03    -7.95653E-03     452.504E-03    -225.926E-03    -226.578E-03    -225.657E-03     452.235E-03    -226.578E-03     26.8689E-03     10.9324E+06    -63.9659E+06    -79.9038E+06    -74.8438E+06    -69.0259E+06     10.9324E+06     2.47765E+06         58.5531
            1490     7.97835E-03     114.595E-03     178.678E-03    -59.9912E-03    -69.3180E-03    -59.8599E-03     178.547E-03    -69.3180E-03    -798.637E-06     452.417E-03    -225.858E-03    -226.559E-03    -225.464E-03     452.023E-03    -226.559E-03     32.5501E-03     29.4960E+06    -22.9889E+06    -65.4568E+06    -65.2326E+06    -23.2132E+06     29.4960E+06     2.70157E+06         58.9304
            1491     8.77668E-03     114.644E-03     174.145E-03    -57.0895E-03    -67.8186E-03    -56.9855E-03     174.041E-03    -67.8186E-03    -9.47479E-03     452.341E-03    -225.817E-03    -226.524E-03    -225.261E-03     451.785E-03    -226.524E-03     38.6788E-03     47.6842E+06     25.2808E+06    -56.0522E+06    -55.9644E+06     25.1930E+06     47.6842E+06     2.47596E+06         59.3133
            1492     9.57530E-03     114.702E-03     169.298E-03    -53.8630E-03    -66.1934E-03    -53.8293E-03     169.265E-03    -66.1934E-03    -5.11209E-03     452.494E-03    -225.993E-03    -226.500E-03    -225.234E-03     451.734E-03    -226.500E-03     45.2349E-03     61.7098E+06     50.3250E+06    -47.4030E+06    -47.3570E+06     50.2790E+06     61.7098E+06     1.94577E+06         59.6912
            1493     10.3738E-03     114.770E-03     164.210E-03    -50.4412E-03    -64.4384E-03    -50.4170E-03     164.185E-03    -64.4384E-03    -4.33123E-03     452.774E-03    -226.271E-03    -226.504E-03    -225.260E-03     451.764E-03    -226.504E-03     52.2258E-03     74.7027E+06     56.0788E+06    -39.1342E+06    -39.1004E+06     56.0450E+06     74.7027E+06     1.57421E+06         60.0535
            1494     11.1725E-03     114.847E-03     158.864E-03    -46.9434E-03    -62.5462E-03    -46.8870E-03     158.808E-03    -62.5462E-03     1.16741E-03     453.141E-03    -226.455E-03    -226.686E-03    -225.242E-03     451.763E-03    -226.520E-03     60.9376E-03     90.6199E+06     62.6014E+06    -30.7732E+06    -30.7520E+06     62.5801E+06     90.6199E+06     1.39079E+06         60.3904
            1495     11.9712E-03     114.940E-03     153.360E-03    -43.5288E-03    -60.5401E-03    -43.4551E-03     153.286E-03    -60.5401E-03     241.626E-06     453.493E-03    -226.439E-03    -227.053E-03    -225.252E-03     451.779E-03    -226.527E-03     68.1754E-03     105.323E+06     70.0912E+06    -22.2043E+06    -22.1746E+06     70.0615E+06     105.323E+06     1.59573E+06         60.6933
            1496     12.7701E-03     115.038E-03     147.773E-03    -40.2339E-03    -58.4036E-03    -40.1863E-03     147.726E-03    -58.4036E-03    -1.57273E-03     454.996E-03    -226.425E-03    -228.571E-03    -225.822E-03     452.335E-03    -226.513E-03     84.0287E-03     113.458E+06     76.3055E+06    -14.2819E+06    -14.2501E+06     76.2737E+06     113.458E+06     1.42534E+06         60.9558
            1497     13.5684E-03     115.172E-03     142.333E-03    -37.0803E-03    -56.1849E-03    -37.0027E-03     142.255E-03    -56.1849E-03    -2.67259E-03     455.323E-03    -226.311E-03    -229.012E-03    -226.062E-03     452.547E-03    -226.485E-03     86.2136E-03     115.399E+06     81.5088E+06    -7.34576E+06    -7.33294E+06     81.4960E+06     115.399E+06     514.952E+03         61.1739
            1498     797.665E-06     116.039E-03         1.00955    -307.230E-03    -658.064E-03     194.077E-03     157.405E-03    -307.230E-03    -665.140E-03     452.735E-03    -226.287E-03    -226.448E-03    -226.287E-03     452.735E-03    -226.448E-03     379.946E-06    -135.278E+06    -138.492E+06    -281.419E+06    -137.814E+06    -281.399E+06    -135.976E+06     1.46459E+06         56.6261
            1499     1.59569E-03     116.038E-03     447.210E-03    -56.3498E-03    -345.527E-03    -55.4799E-03     157.163E-03    -56.3498E-03     221.159E-03     452.630E-03    -226.244E-03    -226.386E-03    -226.243E-03     452.630E-03    -226.386E-03     620.027E-06    -124.563E+06    -134.498E+06    -261.413E+06    -134.513E+06    -261.397E+06    -124.563E+06     849.093E+03         56.7074
            1500     2.39331E-03     116.036E-03     289.670E-03    -55.9774E-03    -188.231E-03    -55.0005E-03     156.439E-03    -55.9774E-03    -114.987E-03     452.770E-03    -226.330E-03    -226.439E-03    -226.330E-03     452.768E-03    -226.438E-03     2.02948E-03    -106.759E+06    -128.445E+06    -241.545E+06    -128.474E+06    -241.517E+06    -106.759E+06      1.1774E+06         56.8382
            1501     3.19054E-03     116.037E-03     217.602E-03    -55.6518E-03    -116.407E-03    -54.5476E-03     155.742E-03    -55.6518E-03     53.2071E-03     452.721E-03    -226.208E-03    -226.513E-03    -226.201E-03     452.712E-03    -226.511E-03     4.56779E-03    -86.4644E+06    -120.968E+06    -220.971E+06    -121.019E+06    -220.920E+06    -86.4644E+06     1.76447E+06         57.0180
            1502     3.98846E-03     116.043E-03     183.186E-03    -55.3043E-03    -82.4714E-03    -53.9480E-03     154.662E-03    -55.3043E-03    -43.1201E-03     452.511E-03    -225.958E-03    -226.553E-03    -225.934E-03     452.487E-03    -226.553E-03     7.88910E-03    -65.3044E+06    -112.254E+06    -200.563E+06    -112.329E+06    -200.489E+06    -65.3044E+06     2.34595E+06         57.2447
            1503     4.78661E-03     116.053E-03     164.141E-03    -54.8701E-03    -63.8669E-03    -52.9260E-03     153.200E-03    -54.8701E-03     22.1415E-03     452.479E-03    -225.910E-03    -226.569E-03    -225.856E-03     452.425E-03    -226.569E-03     11.9162E-03    -44.1654E+06    -102.722E+06    -173.199E+06    -102.821E+06    -173.100E+06    -44.1654E+06     2.57973E+06         57.5150
            1504     5.58458E-03     116.070E-03     155.690E-03    -53.7387E-03    -56.4155E-03    -51.3804E-03     151.203E-03    -54.2868E-03    -13.4392E-03     452.514E-03    -225.937E-03    -226.577E-03    -225.833E-03     452.410E-03    -226.577E-03     16.6331E-03    -24.6099E+06    -93.1485E+06    -140.665E+06    -93.3303E+06    -140.483E+06    -24.6099E+06     2.79708E+06         57.8241
            1505     6.38256E-03     116.095E-03     150.646E-03    -51.2292E-03    -53.6968E-03    -49.6163E-03     148.871E-03    -53.5354E-03     9.38367E-03     452.471E-03    -225.889E-03    -226.582E-03    -225.711E-03     452.294E-03    -226.582E-03     21.7936E-03    -6.24604E+06    -83.5044E+06    -107.774E+06    -84.0711E+06    -107.207E+06    -6.24604E+06     3.02754E+06         58.1660
            1506     7.18054E-03     116.127E-03     146.803E-03    -48.3679E-03    -52.6378E-03    -47.8328E-03     146.267E-03    -52.6378E-03    -8.46830E-03     452.445E-03    -225.871E-03    -226.574E-03    -225.593E-03     452.167E-03    -226.574E-03     27.3069E-03     11.8454E+06    -63.9186E+06    -80.0811E+06    -74.4857E+06    -69.5139E+06     11.8454E+06     3.03797E+06         58.5331
            1507     7.97872E-03     116.167E-03     143.623E-03    -46.3815E-03    -51.6267E-03    -46.2114E-03     143.453E-03    -51.6267E-03    -1.19102E-03     452.382E-03    -225.834E-03    -226.548E-03    -225.427E-03     451.975E-03    -226.548E-03     33.0537E-03     29.9045E+06    -23.6132E+06    -65.4212E+06    -65.1212E+06    -23.9132E+06     29.9045E+06     3.02800E+06         58.9162
            1508     8.77709E-03     116.216E-03     140.585E-03    -44.6666E-03    -50.5218E-03    -44.5282E-03     140.447E-03    -50.5218E-03    -9.69627E-03     452.249E-03    -225.743E-03    -226.506E-03    -225.177E-03     451.683E-03    -226.506E-03     39.0562E-03     47.7420E+06     25.1335E+06    -56.0604E+06    -55.9272E+06     25.0002E+06     47.7420E+06     3.12336E+06         59.3054
            1509     9.57564E-03     116.274E-03     137.298E-03    -42.6162E-03    -49.3180E-03    -42.5721E-03     137.254E-03    -49.3180E-03    -5.35254E-03     452.350E-03    -225.875E-03    -226.475E-03    -225.111E-03     451.586E-03    -226.475E-03     45.3946E-03     62.1716E+06     50.9538E+06    -47.2330E+06    -47.1231E+06     50.8439E+06     62.1716E+06     3.16562E+06         59.6898
            1510     10.3741E-03     116.342E-03     133.866E-03    -40.4277E-03    -48.0070E-03    -40.3927E-03     133.831E-03    -48.0070E-03    -4.74805E-03     452.658E-03    -226.183E-03    -226.475E-03    -225.180E-03     451.655E-03    -226.475E-03     52.0386E-03     75.4778E+06     56.6439E+06    -39.0021E+06    -38.9104E+06     56.5522E+06     75.4778E+06     2.87122E+06         60.0584
            1511     11.1726E-03     116.419E-03     130.262E-03    -38.2492E-03    -46.5826E-03    -38.1863E-03     130.199E-03    -46.5826E-03     625.672E-06     452.958E-03    -226.411E-03    -226.548E-03    -225.119E-03     451.607E-03    -226.488E-03     60.3364E-03     91.4665E+06     63.1768E+06    -30.7679E+06    -30.7024E+06     63.1113E+06     91.4665E+06     2.31640E+06         60.4011
            1512     11.9715E-03     116.511E-03     126.571E-03    -36.2311E-03    -45.0677E-03    -36.1483E-03     126.488E-03    -45.0677E-03    -245.475E-06     453.093E-03    -226.398E-03    -226.694E-03    -224.968E-03     451.454E-03    -226.486E-03     66.6399E-03     105.543E+06     70.0452E+06    -22.9380E+06    -22.9049E+06     70.0122E+06     105.543E+06     1.64422E+06         60.7088
            1513     12.7713E-03     116.607E-03     122.810E-03    -34.3407E-03    -43.4369E-03    -34.2837E-03     122.752E-03    -43.4369E-03    -1.86191E-03     454.443E-03    -226.371E-03    -228.072E-03    -225.470E-03     451.929E-03    -226.459E-03     81.5885E-03     113.680E+06     76.6693E+06    -14.5482E+06    -14.5253E+06     76.6464E+06     113.680E+06     1.34325E+06         60.9750
            1514     13.5697E-03     116.747E-03     119.257E-03    -32.6216E-03    -41.7418E-03    -32.5372E-03     119.173E-03    -41.7418E-03    -2.73276E-03     455.401E-03    -226.434E-03    -228.967E-03    -226.322E-03     452.757E-03    -226.434E-03     84.1991E-03     115.880E+06     83.2613E+06    -6.62201E+06    -6.60391E+06     83.2432E+06     115.880E+06     990.253E+03         61.1954
            1515     797.660E-06     117.611E-03     983.710E-03    -283.964E-03    -658.405E-03     212.000E-03     113.306E-03    -283.964E-03    -655.324E-03     452.709E-03    -226.230E-03    -226.479E-03    -226.420E-03     452.708E-03    -226.289E-03     332.196E-06    -137.088E+06    -140.528E+06    -283.120E+06    -139.839E+06    -283.111E+06    -137.786E+06     378.232E+03         56.5845
            1516     1.59531E-03     117.609E-03     421.894E-03    -35.9799E-03    -344.480E-03    -35.7383E-03     113.152E-03    -35.9799E-03     217.425E-03     452.754E-03    -226.315E-03    -226.439E-03    -226.354E-03     452.754E-03    -226.400E-03     528.121E-06    -125.618E+06    -135.435E+06    -263.326E+06    -135.450E+06    -263.311E+06    -125.618E+06     1.09786E+06         56.6663
            1517     2.39300E-03     117.608E-03     262.098E-03    -35.7997E-03    -184.719E-03    -35.0534E-03     112.432E-03    -35.7997E-03    -113.608E-03     452.766E-03    -226.298E-03    -226.469E-03    -226.297E-03     452.764E-03    -226.467E-03     2.14073E-03    -107.638E+06    -129.671E+06    -243.400E+06    -129.705E+06    -243.366E+06    -107.638E+06     1.84322E+06         56.7980
            1518     3.19076E-03     117.610E-03     186.162E-03    -35.5845E-03    -108.757E-03    -35.0545E-03     112.460E-03    -35.5845E-03     52.6120E-03     452.615E-03    -226.093E-03    -226.522E-03    -226.086E-03     452.606E-03    -226.520E-03     4.70282E-03    -86.1452E+06    -121.597E+06    -222.334E+06    -121.638E+06    -222.293E+06    -86.1452E+06     1.86447E+06         56.9792
            1519     3.98879E-03     117.614E-03     147.791E-03    -35.4084E-03    -70.7655E-03    -35.0482E-03     112.074E-03    -35.4084E-03    -42.5512E-03     452.508E-03    -225.957E-03    -226.551E-03    -225.931E-03     452.483E-03    -226.551E-03     8.10553E-03    -64.3620E+06    -112.154E+06    -202.438E+06    -112.212E+06    -202.380E+06    -64.3620E+06     2.11092E+06         57.2079
            1520     4.78665E-03     117.625E-03     125.965E-03    -35.1992E-03    -49.2932E-03    -34.8206E-03     111.493E-03    -35.1992E-03     21.3849E-03     452.536E-03    -225.968E-03    -226.568E-03    -225.912E-03     452.480E-03    -226.568E-03     12.1373E-03    -43.6828E+06    -102.312E+06    -174.670E+06    -102.433E+06    -174.549E+06    -43.6828E+06     2.82464E+06         57.4808
            1521     5.58438E-03     117.642E-03     116.652E-03    -34.8863E-03    -40.1382E-03    -34.0255E-03     110.539E-03    -34.8863E-03    -13.7783E-03     452.469E-03    -225.891E-03    -226.578E-03    -225.785E-03     452.363E-03    -226.578E-03     16.7400E-03    -24.1753E+06    -92.7254E+06    -142.075E+06    -92.9500E+06    -141.851E+06    -24.1753E+06     3.22474E+06         57.7935
            1522     6.38252E-03     117.667E-03     111.907E-03    -33.9751E-03    -36.0589E-03    -33.1802E-03     109.494E-03    -34.4410E-03     8.78958E-03     452.344E-03    -225.771E-03    -226.573E-03    -225.593E-03     452.166E-03    -226.573E-03     21.8050E-03    -5.53535E+06    -82.7107E+06    -109.107E+06    -83.4106E+06    -108.407E+06    -5.53535E+06     3.50892E+06         58.1399
            1523     7.18091E-03     117.699E-03     109.013E-03    -32.6415E-03    -34.4924E-03    -32.4959E-03     108.266E-03    -33.8905E-03    -8.77272E-03     452.291E-03    -225.740E-03    -226.551E-03    -225.464E-03     452.015E-03    -226.551E-03     27.2008E-03     12.3144E+06    -63.5789E+06    -80.5495E+06    -74.0580E+06    -70.0705E+06     12.3144E+06     3.63952E+06         58.5122
            1524     7.97917E-03     117.739E-03     107.187E-03    -31.6955E-03    -33.8415E-03    -32.0408E-03     106.958E-03    -33.2681E-03    -1.48298E-03     452.288E-03    -225.770E-03    -226.517E-03    -225.370E-03     451.888E-03    -226.517E-03     32.7974E-03     29.9694E+06    -24.6848E+06    -65.4966E+06    -64.9944E+06    -25.1869E+06     29.9694E+06     3.94473E+06         58.9013
            1525     8.77746E-03     117.788E-03     105.757E-03    -30.9080E-03    -33.4308E-03    -31.5577E-03     105.563E-03    -32.5877E-03    -9.79545E-03     452.292E-03    -225.813E-03    -226.479E-03    -225.256E-03     451.735E-03    -226.479E-03     38.7113E-03     47.8034E+06     24.4115E+06    -56.4065E+06    -56.1315E+06     24.1364E+06     47.8034E+06     4.40572E+06         59.2969
            1526     9.57587E-03     117.846E-03     104.114E-03    -29.9310E-03    -32.8642E-03    -30.8918E-03     104.050E-03    -31.8396E-03    -5.56239E-03     452.366E-03    -225.910E-03    -226.456E-03    -225.156E-03     451.613E-03    -226.456E-03     45.0658E-03     62.3762E+06     51.1465E+06    -47.6563E+06    -47.4762E+06     50.9664E+06     62.3762E+06     4.18760E+06         59.6878
            1527     10.3744E-03     117.913E-03     102.457E-03    -28.8694E-03    -32.2479E-03    -30.0513E-03     102.404E-03    -31.0131E-03    -5.08063E-03     452.637E-03    -226.178E-03    -226.460E-03    -225.183E-03     451.643E-03    -226.460E-03     51.8162E-03     75.7559E+06     57.0911E+06    -39.0672E+06    -38.9187E+06     56.9426E+06     75.7559E+06     3.75307E+06         60.0629
            1528     11.1729E-03     117.991E-03     100.718E-03    -27.8089E-03    -31.6256E-03    -29.2561E-03     100.641E-03    -30.1015E-03     111.292E-06     453.111E-03    -226.433E-03    -226.678E-03    -225.299E-03     451.780E-03    -226.481E-03     59.9388E-03     91.7606E+06     64.3213E+06    -30.7545E+06    -30.6360E+06     64.2029E+06     91.7606E+06     3.33411E+06         60.4114
            1529     11.9715E-03     118.082E-03     98.9244E-03    -26.8156E-03    -31.0703E-03    -28.6594E-03     98.8243E-03    -29.1264E-03    -684.675E-06     453.522E-03    -226.501E-03    -227.021E-03    -225.397E-03     451.898E-03    -226.501E-03     66.3686E-03     106.338E+06     71.3723E+06    -22.3265E+06    -22.2272E+06     71.2730E+06     106.338E+06     2.87105E+06         60.7241
            1530     12.7684E-03     118.180E-03     97.1241E-03    -25.8352E-03    -30.5590E-03    -28.2639E-03     97.0503E-03    -28.0565E-03    -2.05800E-03     454.589E-03    -226.486E-03    -228.103E-03    -225.549E-03     452.036E-03    -226.486E-03     82.1499E-03     113.544E+06     76.9370E+06    -14.8561E+06    -14.7915E+06     76.8723E+06     113.544E+06     2.07251E+06         60.9941
            1531     13.5669E-03     118.317E-03     95.4916E-03    -24.9302E-03    -30.0961E-03    -27.9910E-03     95.3936E-03    -26.9372E-03    -2.72227E-03     454.876E-03    -226.442E-03    -228.434E-03    -225.718E-03     452.160E-03    -226.442E-03     85.2823E-03     116.002E+06     84.6097E+06    -7.17955E+06    -7.15608E+06     84.5862E+06     116.002E+06     681.332E+03         61.2170
            1532     797.868E-06     119.182E-03     946.392E-03    -257.829E-03    -651.626E-03     227.267E-03     67.4983E-03    -257.829E-03    -637.099E-03     452.804E-03    -226.258E-03    -226.545E-03    -226.448E-03     452.804E-03    -226.355E-03     321.819E-06    -135.884E+06    -139.494E+06    -284.570E+06    -138.741E+06    -284.559E+06    -136.648E+06     537.799E+03         56.5420
            1533     1.59530E-03     119.181E-03     393.735E-03    -15.4038E-03    -341.058E-03    -15.7610E-03     68.4385E-03    -15.4038E-03     211.115E-03     452.811E-03    -226.332E-03    -226.479E-03    -226.371E-03     452.811E-03    -226.440E-03     761.134E-06    -125.525E+06    -135.503E+06    -265.508E+06    -135.508E+06    -265.504E+06    -125.525E+06     755.569E+03         56.6242
            1534     2.39292E-03     119.180E-03     235.412E-03    -15.3981E-03    -182.028E-03    -14.7984E-03     68.1819E-03    -15.3981E-03    -110.571E-03     452.621E-03    -226.150E-03    -226.471E-03    -226.148E-03     452.619E-03    -226.471E-03     2.29299E-03    -108.135E+06    -129.466E+06    -245.216E+06    -129.477E+06    -245.205E+06    -108.135E+06     1.05309E+06         56.7568
            1535     3.19105E-03     119.181E-03     157.516E-03    -15.3095E-03    -104.267E-03    -15.5904E-03     68.8392E-03    -15.3095E-03     51.0645E-03     452.542E-03    -226.049E-03    -226.493E-03    -226.040E-03     452.534E-03    -226.493E-03     4.60756E-03    -86.6877E+06    -120.983E+06    -223.868E+06    -121.019E+06    -223.832E+06    -86.6877E+06     1.80547E+06         56.9393
            1536     3.98877E-03     119.186E-03     115.606E-03    -15.3493E-03    -62.6429E-03    -16.1345E-03     69.0972E-03    -15.3493E-03    -41.5431E-03     452.574E-03    -226.038E-03    -226.536E-03    -226.013E-03     452.549E-03    -226.536E-03     7.99866E-03    -64.0707E+06    -111.720E+06    -204.149E+06    -111.790E+06    -204.079E+06    -64.0707E+06     2.49079E+06         57.1699
            1537     4.78657E-03     119.197E-03     90.3565E-03    -15.3871E-03    -37.4043E-03    -16.5922E-03     69.5444E-03    -15.3871E-03     20.4290E-03     452.467E-03    -225.909E-03    -226.558E-03    -225.852E-03     452.410E-03    -226.558E-03     12.1973E-03    -43.7924E+06    -102.510E+06    -176.982E+06    -102.646E+06    -176.846E+06    -43.7924E+06     3.02713E+06         57.4456
            1538     5.58478E-03     119.214E-03     79.0862E-03    -15.3597E-03    -26.0083E-03    -16.6245E-03     69.7024E-03    -15.3597E-03    -13.8214E-03     452.390E-03    -225.831E-03    -226.559E-03    -225.725E-03     452.284E-03    -226.559E-03     16.8316E-03    -24.2407E+06    -92.4842E+06    -143.656E+06    -92.7484E+06    -143.392E+06    -24.2407E+06     3.55820E+06         57.7618
            1539     6.38278E-03     119.238E-03     73.6777E-03    -15.2420E-03    -20.5452E-03    -16.7379E-03     69.8704E-03    -15.2420E-03     8.05838E-03     452.390E-03    -225.834E-03    -226.556E-03    -225.656E-03     452.213E-03    -226.556E-03     21.8132E-03    -5.56783E+06    -82.2637E+06    -110.768E+06    -83.0575E+06    -109.974E+06    -5.56783E+06     3.98553E+06         58.1126
            1540     7.18077E-03     119.270E-03     71.2065E-03    -15.0580E-03    -18.2937E-03    -17.0700E-03     69.9828E-03    -15.0580E-03    -9.03521E-03     452.316E-03    -225.776E-03    -226.540E-03    -225.504E-03     452.044E-03    -226.540E-03     27.0475E-03     11.8565E+06    -63.8367E+06    -82.1724E+06    -74.1779E+06    -71.8311E+06     11.8565E+06     4.81738E+06         58.4901
            1541     7.97908E-03     119.311E-03     70.5324E-03    -14.8374E-03    -18.0940E-03    -17.7410E-03     70.1793E-03    -14.8374E-03    -1.85282E-03     452.239E-03    -225.729E-03    -226.510E-03    -225.333E-03     451.843E-03    -226.510E-03     32.6270E-03     29.6976E+06    -25.7744E+06    -66.7941E+06    -65.7509E+06    -26.8176E+06     29.6976E+06     5.41923E+06         58.8853
            1542     8.77740E-03     119.360E-03     70.7033E-03    -14.5929E-03    -18.7736E-03    -18.4565E-03     70.3861E-03    -14.5929E-03    -9.88077E-03     452.253E-03    -225.782E-03    -226.471E-03    -225.227E-03     451.698E-03    -226.471E-03     38.6648E-03     47.9477E+06     23.8520E+06    -57.0417E+06    -56.6509E+06     23.4612E+06     47.9477E+06     5.38585E+06         59.2874
            1543     9.57569E-03     119.418E-03     70.7427E-03    -14.3165E-03    -19.2231E-03    -19.1154E-03     70.6350E-03    -14.3165E-03    -5.79515E-03     452.374E-03    -225.928E-03    -226.446E-03    -225.176E-03     451.622E-03    -226.446E-03     45.0274E-03     62.3774E+06     51.2713E+06    -47.8598E+06    -47.5802E+06     50.9916E+06     62.3774E+06     5.20864E+06         59.6851
            1544     10.3743E-03     119.485E-03     70.8952E-03    -13.9965E-03    -19.7607E-03    -19.6711E-03     70.8056E-03    -13.9965E-03    -5.39909E-03     452.617E-03    -226.166E-03    -226.450E-03    -225.169E-03     451.619E-03    -226.450E-03     51.8837E-03     75.7395E+06     57.3410E+06    -39.5591E+06    -39.3087E+06     57.0905E+06     75.7395E+06     4.85133E+06         60.0669
            1545     11.1728E-03     119.563E-03     70.9927E-03    -13.6199E-03    -20.3817E-03    -20.2733E-03     70.8843E-03    -13.6199E-03    -387.451E-06     453.153E-03    -226.400E-03    -226.753E-03    -225.331E-03     451.803E-03    -226.473E-03     60.3304E-03     92.1135E+06     65.3355E+06    -31.1818E+06    -30.9905E+06     65.1441E+06     92.1135E+06     4.21206E+06         60.4215
            1546     11.9707E-03     119.655E-03     71.1496E-03    -13.2066E-03    -21.2345E-03    -21.1043E-03     71.0194E-03    -13.2066E-03    -1.02285E-03     453.530E-03    -226.491E-03    -227.039E-03    -225.380E-03     451.872E-03    -226.491E-03     67.0741E-03     106.335E+06     72.3215E+06    -22.9155E+06    -22.7852E+06     72.1911E+06     106.335E+06     3.39189E+06         60.7394
            1547     12.7708E-03     119.752E-03     71.3553E-03    -12.7251E-03    -22.2776E-03    -22.1765E-03     71.2541E-03    -12.7251E-03    -2.12058E-03     454.668E-03    -226.482E-03    -228.186E-03    -225.607E-03     452.089E-03    -226.482E-03     82.6457E-03     115.442E+06     79.5657E+06    -13.9146E+06    -13.8448E+06     79.4960E+06     115.442E+06     2.25413E+06         61.0134
            1548     13.5705E-03     119.889E-03     71.7337E-03    -12.2114E-03    -23.4866E-03    -23.3648E-03     71.6119E-03    -12.2114E-03    -2.68070E-03     455.231E-03    -226.451E-03    -228.780E-03    -226.056E-03     452.508E-03    -226.451E-03     85.4481E-03     117.985E+06     87.3041E+06    -6.61260E+06    -6.57813E+06     87.2697E+06     117.985E+06     1.00708E+06         61.2387
            1549     797.431E-06     120.754E-03     898.733E-03    -230.101E-03    -635.652E-03     239.784E-03     23.2966E-03    -230.101E-03    -610.088E-03     452.861E-03    -226.337E-03    -226.524E-03    -226.380E-03     452.860E-03    -226.481E-03     541.467E-06    -134.070E+06    -138.390E+06    -286.542E+06    -137.634E+06    -286.533E+06    -134.835E+06     826.512E+03         56.4983
            1550     1.59533E-03     120.753E-03     363.656E-03     4.72501E-03    -334.705E-03     4.27147E-03     24.6794E-03     4.72501E-03     202.107E-03     452.682E-03    -226.246E-03    -226.436E-03    -226.246E-03     452.682E-03    -226.436E-03     766.231E-06    -124.246E+06    -134.053E+06    -266.888E+06    -134.063E+06    -266.878E+06    -124.246E+06     993.792E+03         56.5809
            1551     2.39328E-03     120.752E-03     210.282E-03     4.61582E-03    -180.905E-03     4.67538E-03     24.7018E-03     4.61582E-03    -105.877E-03     452.613E-03    -226.170E-03    -226.443E-03    -226.168E-03     452.611E-03    -226.443E-03     2.23193E-03    -107.106E+06    -128.287E+06    -246.583E+06    -128.306E+06    -246.564E+06    -107.106E+06     1.40083E+06         56.7143
            1552     3.19085E-03     120.753E-03     133.670E-03     4.49301E-03    -104.245E-03     3.24210E-03     26.1831E-03     4.49301E-03     48.5991E-03     452.605E-03    -226.125E-03    -226.480E-03    -226.117E-03     452.596E-03    -226.480E-03     4.69499E-03    -87.1304E+06    -120.928E+06    -226.416E+06    -120.967E+06    -226.376E+06    -87.1304E+06     1.94752E+06         56.8981
            1553     3.98869E-03     120.758E-03     90.4921E-03     4.21833E-03    -60.9705E-03     2.32001E-03     27.2016E-03     4.21833E-03    -40.0013E-03     452.534E-03    -226.009E-03    -226.524E-03    -225.984E-03     452.509E-03    -226.524E-03     8.04213E-03    -65.7687E+06    -112.265E+06    -206.262E+06    -112.344E+06    -206.183E+06    -65.7687E+06     2.66784E+06         57.1306
            1554     4.78679E-03     120.769E-03     62.5727E-03     3.92913E-03    -32.8105E-03     1.11915E-03     28.6430E-03     3.92913E-03     19.2621E-03     452.424E-03    -225.878E-03    -226.546E-03    -225.822E-03     452.368E-03    -226.546E-03     12.1172E-03    -44.5643E+06    -102.714E+06    -178.874E+06    -102.851E+06    -178.737E+06    -44.5643E+06     3.14746E+06         57.4089
            1555     5.58478E-03     120.786E-03     48.3436E-03     3.66230E-03    -18.2264E-03     274.996E-06     29.8422E-03     3.66230E-03    -13.6974E-03     452.361E-03    -225.815E-03    -226.547E-03    -225.710E-03     452.257E-03    -226.547E-03     16.6975E-03    -24.8075E+06    -92.5704E+06    -146.088E+06    -92.8815E+06    -145.776E+06    -24.8075E+06     3.83579E+06         57.7287
            1556     6.38282E-03     120.810E-03     40.4623E-03     3.44527E-03    -10.0506E-03    -791.735E-06     31.2034E-03     3.44527E-03     7.15185E-03     452.363E-03    -225.820E-03    -226.543E-03    -225.643E-03     452.186E-03    -226.543E-03     21.7584E-03    -6.54052E+06    -82.5940E+06    -113.958E+06    -83.7158E+06    -112.836E+06    -6.54052E+06     4.98036E+06         58.0839
            1557     7.18090E-03     120.843E-03     36.0982E-03     3.25747E-03    -5.55759E-03    -2.05913E-03     32.5998E-03     3.25747E-03    -9.11507E-03     452.334E-03    -225.803E-03    -226.531E-03    -225.529E-03     452.060E-03    -226.531E-03     27.1320E-03     11.2494E+06    -65.0159E+06    -84.6379E+06    -74.8735E+06    -74.7803E+06     11.2494E+06     5.91116E+06         58.4668
            1558     7.97908E-03     120.883E-03     35.2221E-03     3.07632E-03    -4.75691E-03    -3.75992E-03     34.2251E-03     3.07632E-03    -2.22123E-03     452.240E-03    -225.737E-03    -226.504E-03    -225.337E-03     451.841E-03    -226.504E-03     32.7685E-03     29.9385E+06    -26.8967E+06    -66.7775E+06    -65.2591E+06    -28.4151E+06     29.9385E+06     6.52772E+06         58.8681
            1559     8.77758E-03     120.932E-03     36.8544E-03     2.88732E-03    -6.50014E-03    -5.63531E-03     35.9895E-03     2.88732E-03    -9.80946E-03     452.161E-03    -225.701E-03    -226.460E-03    -225.143E-03     451.603E-03    -226.460E-03     38.7545E-03     48.2767E+06     23.6423E+06    -56.9726E+06    -56.3375E+06     23.0072E+06     48.2767E+06     6.63723E+06         59.2770
            1560     9.57624E-03     120.990E-03     38.1930E-03     2.69521E-03    -7.83368E-03    -7.56426E-03     37.9236E-03     2.69521E-03    -5.86989E-03     452.323E-03    -225.892E-03    -226.431E-03    -225.138E-03     451.569E-03    -226.431E-03     45.0742E-03     62.5640E+06     51.2352E+06    -48.3405E+06    -47.9471E+06     50.8418E+06     62.5640E+06     6.23835E+06         59.6817
            1561     10.3746E-03     121.057E-03     40.0638E-03     2.51075E-03    -9.67593E-03    -9.48052E-03     39.8684E-03     2.51075E-03    -5.60205E-03     452.634E-03    -226.200E-03    -226.434E-03    -225.203E-03     451.637E-03    -226.434E-03     51.8669E-03     75.6226E+06     57.6400E+06    -39.6741E+06    -39.3186E+06     57.2845E+06     75.6226E+06     5.86473E+06         60.0703
            1562     11.1733E-03     121.135E-03     42.0121E-03     2.35034E-03    -11.6808E-03    -11.4779E-03     41.8093E-03     2.35034E-03    -775.149E-06     453.064E-03    -226.397E-03    -226.667E-03    -225.257E-03     451.714E-03    -226.456E-03     60.3224E-03     92.4006E+06     66.5816E+06    -31.0575E+06    -30.7833E+06     66.3073E+06     92.4006E+06     5.12441E+06         60.4313
            1563     11.9724E-03     121.227E-03     44.0491E-03     2.19945E-03    -13.8982E-03    -13.6935E-03     43.8445E-03     2.19945E-03    -1.23780E-03     453.633E-03    -226.485E-03    -227.148E-03    -225.521E-03     452.006E-03    -226.485E-03     66.4647E-03     108.121E+06     75.0204E+06    -22.4382E+06    -22.3005E+06     74.8826E+06     108.121E+06     3.49231E+06         60.7547
            1564     12.7698E-03     121.322E-03     46.1617E-03     2.09040E-03    -16.2982E-03    -16.1392E-03     46.0027E-03     2.09040E-03    -2.18401E-03     455.004E-03    -226.494E-03    -228.510E-03    -225.990E-03     452.484E-03    -226.494E-03     81.6687E-03     116.470E+06     81.3438E+06    -14.1972E+06    -14.1395E+06     81.2861E+06     116.470E+06     2.17657E+06         61.0327
            1565     13.5660E-03     121.463E-03     48.5141E-03     1.99048E-03    -18.9008E-03    -18.7423E-03     48.3555E-03     1.99048E-03    -2.59154E-03     455.010E-03    -226.468E-03    -228.542E-03    -225.829E-03     452.297E-03    -226.468E-03     85.3408E-03     118.496E+06     88.9855E+06    -7.11815E+06    -7.07693E+06     88.9443E+06     118.496E+06     1.75811E+06         61.2605
            1566     797.761E-06     122.326E-03     840.010E-03    -201.723E-03    -608.440E-03     249.860E-03    -18.2905E-03    -201.723E-03    -572.693E-03     452.703E-03    -226.120E-03    -226.584E-03    -226.536E-03     452.703E-03    -226.167E-03     787.791E-06    -135.335E+06    -140.283E+06    -288.536E+06    -138.897E+06    -288.534E+06    -136.723E+06     379.734E+03         56.4531
            1567     1.59542E-03     122.324E-03     331.459E-03     23.7501E-03    -325.200E-03     22.9006E-03    -16.6415E-03     23.7501E-03     189.400E-03     452.652E-03    -226.252E-03    -226.400E-03    -226.273E-03     452.651E-03    -226.379E-03     791.413E-06    -125.475E+06    -135.091E+06    -268.608E+06    -135.103E+06    -268.597E+06    -125.475E+06     1.06351E+06         56.5361
            1568     2.39315E-03     122.323E-03     187.717E-03     23.4591E-03    -181.202E-03     23.0151E-03    -16.5005E-03     23.4591E-03    -99.6920E-03     452.615E-03    -226.197E-03    -226.418E-03    -226.195E-03     452.613E-03    -226.418E-03     2.27970E-03    -107.935E+06    -128.991E+06    -249.272E+06    -129.032E+06    -249.232E+06    -107.935E+06     2.05129E+06         56.6702
            1569     3.19100E-03     122.325E-03     116.011E-03     23.1518E-03    -109.112E-03     21.1031E-03    -14.2041E-03     23.1518E-03     45.4858E-03     452.570E-03    -226.103E-03    -226.467E-03    -226.094E-03     452.561E-03    -226.467E-03     4.75105E-03    -86.9453E+06    -121.465E+06    -228.294E+06    -121.531E+06    -228.228E+06    -86.9453E+06     2.61120E+06         56.8552
            1570     3.98892E-03     122.330E-03     75.5512E-03     22.6705E-03    -68.2477E-03     19.7540E-03    -12.4505E-03     22.6705E-03    -37.7100E-03     452.537E-03    -226.024E-03    -226.513E-03    -225.999E-03     452.511E-03    -226.513E-03     8.07975E-03    -65.6640E+06    -112.576E+06    -208.142E+06    -112.656E+06    -208.062E+06    -65.6640E+06     2.75074E+06         57.0896
            1571     4.78668E-03     122.341E-03     48.9927E-03     22.1429E-03    -41.2901E-03     17.8153E-03    -10.1127E-03     22.1429E-03     17.8504E-03     452.464E-03    -225.925E-03    -226.539E-03    -225.869E-03     452.408E-03    -226.539E-03     12.1290E-03    -44.8561E+06    -102.405E+06    -181.006E+06    -102.561E+06    -180.850E+06    -44.8561E+06     3.32122E+06         57.3706
            1572     5.58463E-03     122.358E-03     35.0955E-03     21.2839E-03    -26.5298E-03     16.2367E-03    -7.98032E-03     21.5933E-03    -13.2135E-03     452.321E-03    -225.780E-03    -226.541E-03    -225.674E-03     452.214E-03    -226.541E-03     16.8007E-03    -25.9507E+06    -93.3739E+06    -149.660E+06    -93.7795E+06    -149.255E+06    -25.9507E+06     4.48480E+06         57.6939
            1573     6.38285E-03     122.382E-03     27.7522E-03     19.3514E-03    -17.2113E-03     14.3165E-03    -5.48211E-03     21.0579E-03     6.33632E-03     452.223E-03    -225.694E-03    -226.529E-03    -225.515E-03     452.044E-03    -226.529E-03     21.9169E-03    -7.45989E+06    -83.5453E+06    -117.400E+06    -84.7512E+06    -116.195E+06    -7.45989E+06     5.57245E+06         58.0536
            1574     7.18114E-03     122.414E-03     24.2631E-03     16.4267E-03    -10.9025E-03     12.1257E-03    -2.85475E-03     20.5163E-03    -8.87422E-03     452.248E-03    -225.740E-03    -226.508E-03    -225.463E-03     451.971E-03    -226.508E-03     27.2774E-03     10.9568E+06    -66.1114E+06    -86.1857E+06    -74.8861E+06    -77.4110E+06     10.9568E+06     6.30862E+06         58.4420
            1575     7.97939E-03     122.454E-03     23.1020E-03     14.1259E-03    -7.69598E-03     9.43265E-03     151.935E-06     19.9474E-03    -2.32553E-03     452.295E-03    -225.814E-03    -226.481E-03    -225.414E-03     451.895E-03    -226.481E-03     32.8121E-03     29.0628E+06    -29.4376E+06    -67.8074E+06    -65.7978E+06    -31.4473E+06     29.0628E+06     7.33314E+06         58.8496
            1576     8.77764E-03     122.503E-03     23.8443E-03     12.2706E-03    -6.90647E-03     6.47407E-03     3.39802E-03     19.3364E-03    -9.40429E-03     452.206E-03    -225.761E-03    -226.445E-03    -225.208E-03     451.653E-03    -226.445E-03     38.6009E-03     47.7032E+06     22.8874E+06    -57.9974E+06    -57.1217E+06     22.0117E+06     47.7032E+06     7.96510E+06         59.2654
            1577     9.57611E-03     122.561E-03     24.3165E-03     10.0366E-03    -5.41449E-03     3.36024E-03     6.88947E-03     18.6889E-03    -5.72472E-03     452.301E-03    -225.881E-03    -226.420E-03    -225.132E-03     451.553E-03    -226.420E-03     44.9201E-03     62.5102E+06     51.7777E+06    -48.7585E+06    -48.1857E+06     51.2049E+06     62.5102E+06     7.50787E+06         59.6773
            1578     10.3747E-03     122.629E-03     25.2021E-03     8.24973E-03    -4.73112E-03     177.773E-06     10.5275E-03     18.0154E-03    -5.49405E-03     452.720E-03    -226.234E-03    -226.486E-03    -225.305E-03     451.733E-03    -226.428E-03     51.6228E-03     75.6800E+06     58.2505E+06    -40.0444E+06    -39.5955E+06     57.8015E+06     75.6800E+06     6.57782E+06         60.0731
            1579     11.1730E-03     122.706E-03     26.1778E-03     7.35664E-03    -5.08391E-03    -3.15437E-03     14.2738E-03     17.3312E-03    -954.929E-06     453.238E-03    -226.447E-03    -226.791E-03    -225.442E-03     451.906E-03    -226.464E-03     59.9335E-03     93.1115E+06     68.2925E+06    -31.3429E+06    -31.0414E+06     67.9909E+06     93.1115E+06     5.43328E+06         60.4406
            1580     11.9708E-03     122.799E-03     27.1564E-03     8.22656E-03    -7.31418E-03    -6.66499E-03     18.1053E-03     16.6285E-03    -1.35524E-03     453.653E-03    -226.500E-03    -227.153E-03    -225.510E-03     452.010E-03    -226.500E-03     66.7806E-03     109.199E+06     76.9936E+06    -22.6299E+06    -22.3984E+06     76.7621E+06     109.199E+06     4.67922E+06         60.7696
            1581     12.7689E-03     122.897E-03     28.1764E-03     10.2297E-03    -10.7814E-03    -10.4000E-03     22.0852E-03     15.9395E-03    -2.17518E-03     454.798E-03    -226.497E-03    -228.301E-03    -225.704E-03     452.201E-03    -226.497E-03     82.8811E-03     117.289E+06     83.2857E+06    -15.0052E+06    -14.8494E+06     83.1299E+06     117.289E+06     3.66824E+06         61.0520
            1582     13.5696E-03     123.033E-03     29.3301E-03     12.4075E-03    -14.5581E-03    -14.3119E-03     26.2583E-03     15.2331E-03    -2.44718E-03     454.729E-03    -226.451E-03    -228.278E-03    -225.510E-03     451.961E-03    -226.451E-03     86.1065E-03     119.946E+06     91.8063E+06    -7.50201E+06    -7.45716E+06     91.7614E+06     119.946E+06     1.87906E+06         61.2827
            1583     797.895E-06     123.897E-03     769.033E-03    -172.672E-03    -570.371E-03     255.734E-03    -57.0711E-03    -172.672E-03    -524.195E-03     452.561E-03    -226.076E-03    -226.485E-03    -226.454E-03     452.561E-03    -226.106E-03     431.850E-06    -136.829E+06    -140.379E+06    -290.872E+06    -139.005E+06    -290.858E+06    -138.218E+06     318.836E+03         56.4060
            1584     1.59557E-03     123.896E-03     296.985E-03     41.0161E-03    -312.027E-03     39.2845E-03    -54.3262E-03     41.0161E-03     173.369E-03     452.592E-03    -226.250E-03    -226.342E-03    -226.271E-03     452.592E-03    -226.320E-03     820.556E-06    -126.852E+06    -136.502E+06    -271.573E+06    -136.528E+06    -271.547E+06    -126.852E+06     1.58692E+06         56.4894
            1585     2.39321E-03     123.895E-03     167.863E-03     40.4806E-03    -182.012E-03     39.8849E-03    -54.0341E-03     40.4806E-03    -91.6248E-03     452.574E-03    -226.192E-03    -226.383E-03    -226.189E-03     452.572E-03    -226.383E-03     2.40457E-03    -108.708E+06    -130.522E+06    -251.910E+06    -130.567E+06    -251.864E+06    -108.708E+06     2.19998E+06         56.6243
            1586     3.19110E-03     123.896E-03     104.585E-03     40.0865E-03    -118.176E-03     37.5621E-03    -51.1537E-03     40.0865E-03     41.6105E-03     452.504E-03    -226.069E-03    -226.435E-03    -226.060E-03     452.495E-03    -226.435E-03     4.83914E-03    -87.7937E+06    -122.591E+06    -230.035E+06    -122.659E+06    -229.967E+06    -87.7937E+06     2.63426E+06         56.8105
            1587     3.98885E-03     123.902E-03     70.4500E-03     39.4534E-03    -83.6317E-03     35.6820E-03    -48.8637E-03     39.4534E-03    -34.7240E-03     452.463E-03    -225.981E-03    -226.482E-03    -225.955E-03     452.436E-03    -226.482E-03     8.24242E-03    -66.1387E+06    -113.647E+06    -209.668E+06    -113.738E+06    -209.577E+06    -66.1387E+06     2.93152E+06         57.0467
            1588     4.78680E-03     123.912E-03     49.0597E-03     38.7213E-03    -61.6437E-03     33.1306E-03    -45.7145E-03     38.7213E-03     16.2258E-03     452.345E-03    -225.841E-03    -226.504E-03    -225.783E-03     452.286E-03    -226.504E-03     12.3825E-03    -46.1290E+06    -104.635E+06    -184.417E+06    -104.837E+06    -184.215E+06    -46.1290E+06     3.79544E+06         57.3303
            1589     5.58497E-03     123.929E-03     40.1945E-03     36.0098E-03    -50.1333E-03     30.8627E-03    -42.7151E-03     37.9232E-03    -12.3244E-03     452.243E-03    -225.740E-03    -226.503E-03    -225.630E-03     452.133E-03    -226.503E-03     17.1009E-03    -26.8524E+06    -94.8086E+06    -153.330E+06    -95.2721E+06    -152.866E+06    -26.8524E+06     5.00412E+06         57.6572
            1590     6.38310E-03     123.954E-03     37.0992E-03     31.3784E-03    -42.4078E-03     28.1448E-03    -39.1743E-03     37.0992E-03     5.60946E-03     452.233E-03    -225.739E-03    -226.494E-03    -225.556E-03     452.050E-03    -226.494E-03     22.1000E-03    -8.20534E+06    -84.2607E+06    -120.050E+06    -85.4778E+06    -118.833E+06    -8.20534E+06     5.83067E+06         58.0216
            1591     7.18141E-03     123.986E-03     36.2311E-03     26.2795E-03    -36.5715E-03     25.0992E-03    -35.3912E-03     36.2311E-03    -8.37359E-03     452.261E-03    -225.781E-03    -226.480E-03    -225.504E-03     451.983E-03    -226.480E-03     27.3023E-03     9.69129E+06    -68.0237E+06    -88.6202E+06    -76.1031E+06    -80.5408E+06     9.69129E+06     6.77156E+06         58.4155
            1592     7.97959E-03     124.027E-03     35.2992E-03     21.8812E-03    -31.5197E-03     21.4590E-03    -31.0976E-03     35.2992E-03    -2.24703E-03     452.284E-03    -225.826E-03    -226.458E-03    -225.426E-03     451.885E-03    -226.458E-03     32.7812E-03     27.5543E+06    -32.7980E+06    -69.5644E+06    -66.9693E+06    -35.3930E+06     27.5543E+06     7.96897E+06         58.8296
            1593     8.77775E-03     124.075E-03     34.2882E-03     18.0274E-03    -27.0129E-03     17.4780E-03    -26.4635E-03     34.2882E-03    -8.78264E-03     452.281E-03    -225.854E-03    -226.427E-03    -225.299E-03     451.726E-03    -226.427E-03     38.6491E-03     46.8081E+06     21.3719E+06    -58.6584E+06    -57.5649E+06     20.2785E+06     46.8081E+06     8.77533E+06         59.2525
            1594     9.57620E-03     124.133E-03     33.2051E-03     13.5544E-03    -21.7841E-03     13.2528E-03    -21.4825E-03     33.2051E-03    -5.44458E-03     452.431E-03    -226.018E-03    -226.412E-03    -225.266E-03     451.679E-03    -226.412E-03     45.0338E-03     62.0187E+06     52.1457E+06    -49.4067E+06    -48.6736E+06     51.4127E+06     62.0187E+06     8.59394E+06         59.6719
            1595     10.3746E-03     124.201E-03     32.0635E-03     9.57732E-03    -16.9480E-03     8.93321E-03    -16.3039E-03     32.0635E-03    -5.16999E-03     452.757E-03    -226.270E-03    -226.488E-03    -225.332E-03     451.762E-03    -226.430E-03     51.8506E-03     75.8704E+06     59.4516E+06    -40.9554E+06    -40.3459E+06     58.8422E+06     75.8704E+06     7.74387E+06         60.0751
            1596     11.1727E-03     124.279E-03     30.8804E-03     6.45019E-03    -12.9666E-03     4.46369E-03    -10.9801E-03     30.8804E-03    -1.02406E-03     453.145E-03    -226.427E-03    -226.718E-03    -225.323E-03     451.786E-03    -226.464E-03     60.5129E-03     93.5961E+06     70.1767E+06    -32.6303E+06    -32.1926E+06     69.7391E+06     93.5961E+06     6.58392E+06         60.4496
            1597     11.9715E-03     124.371E-03     29.6524E-03     5.08826E-03    -10.7906E-03    -201.506E-06    -5.50080E-03     29.6524E-03    -1.34860E-03     453.246E-03    -226.480E-03    -226.766E-03    -225.087E-03     451.567E-03    -226.480E-03     67.4584E-03     109.476E+06     78.5273E+06    -23.9415E+06    -23.6605E+06     78.2462E+06     109.476E+06     5.08196E+06         60.7846
            1598     12.7715E-03     124.467E-03     28.4127E-03     4.76770E-03    -9.71149E-03    -5.10369E-03     159.892E-06     28.4127E-03    -2.06722E-03     454.386E-03    -226.456E-03    -227.930E-03    -225.332E-03     451.787E-03    -226.456E-03     82.9582E-03     118.957E+06     86.4365E+06    -14.9658E+06    -14.7697E+06     86.2404E+06     118.957E+06     4.14287E+06         61.0717
            1599     13.5683E-03     124.606E-03     27.1359E-03     7.14390E-03    -11.3202E-03    -10.1706E-03     5.99431E-03     27.1359E-03    -2.31855E-03     454.863E-03    -226.407E-03    -228.456E-03    -225.720E-03     452.127E-03    -226.407E-03     85.5958E-03     121.604E+06     95.5602E+06    -7.38171E+06    -7.28919E+06     95.4676E+06     121.604E+06     2.39024E+06         61.3052
            1600     797.567E-06     125.468E-03     689.210E-03    -144.532E-03    -522.367E-03     257.410E-03    -90.5674E-03    -144.532E-03    -467.092E-03     452.512E-03    -226.099E-03    -226.413E-03    -226.104E-03     452.512E-03    -226.408E-03     459.994E-06    -137.237E+06    -140.398E+06    -294.736E+06    -140.419E+06    -294.715E+06    -137.237E+06     799.026E+03         56.3565
            1601     1.59559E-03     125.467E-03     261.635E-03     55.9804E-03    -295.049E-03     53.9763E-03    -87.3903E-03     55.9804E-03     154.830E-03     452.389E-03    -226.118E-03    -226.271E-03    -226.118E-03     452.389E-03    -226.271E-03     1.01920E-03    -126.765E+06    -136.733E+06    -274.489E+06    -136.768E+06    -274.455E+06    -126.765E+06     2.14911E+06         56.4404
            1602     2.39349E-03     125.467E-03     150.327E-03     55.3222E-03    -182.952E-03     54.3886E-03    -87.0131E-03     55.3222E-03    -81.8221E-03     452.445E-03    -226.134E-03    -226.311E-03    -226.131E-03     452.442E-03    -226.311E-03     2.59056E-03    -108.218E+06    -130.141E+06    -254.361E+06    -130.192E+06    -254.310E+06    -108.218E+06     2.39179E+06         56.5759
            1603     3.19118E-03     125.468E-03     98.0023E-03     54.8220E-03    -129.768E-03     51.9224E-03    -83.6877E-03     54.8220E-03     36.9856E-03     452.385E-03    -226.020E-03    -226.365E-03    -226.010E-03     452.375E-03    -226.365E-03     5.06744E-03    -87.9139E+06    -122.160E+06    -232.457E+06    -122.247E+06    -232.370E+06    -87.9139E+06     2.98306E+06         56.7634
            1604     3.98923E-03     125.473E-03     71.5486E-03     54.0742E-03    -102.800E-03     49.7183E-03    -80.9694E-03     54.0742E-03    -31.2350E-03     452.242E-03    -225.837E-03    -226.405E-03    -225.809E-03     452.214E-03    -226.405E-03     8.50582E-03    -66.4088E+06    -113.704E+06    -211.202E+06    -113.822E+06    -211.083E+06    -66.4088E+06     3.38666E+06         57.0015
            1605     4.78736E-03     125.484E-03     56.4049E-03     52.2953E-03    -86.0285E-03     46.6321E-03    -77.1471E-03     53.1867E-03     14.3625E-03     452.236E-03    -225.805E-03    -226.431E-03    -225.745E-03     452.176E-03    -226.431E-03     12.5877E-03    -45.4341E+06    -104.276E+06    -188.298E+06    -104.481E+06    -188.094E+06    -45.4341E+06     4.01373E+06         57.2878
            1606     5.58544E-03     125.501E-03     52.3000E-03     47.3684E-03    -77.1314E-03     43.7005E-03    -73.3452E-03     52.1817E-03    -11.2034E-03     452.288E-03    -225.845E-03    -226.443E-03    -225.735E-03     452.178E-03    -226.443E-03     17.1424E-03    -26.5531E+06    -94.1208E+06    -157.422E+06    -94.6694E+06    -156.873E+06    -26.5531E+06     5.46922E+06         57.6184
            1607     6.38353E-03     125.525E-03     51.1009E-03     41.7167E-03    -70.3603E-03     40.2177E-03    -68.8613E-03     51.1009E-03     4.79560E-03     452.332E-03    -225.882E-03    -226.450E-03    -225.699E-03     452.149E-03    -226.450E-03     22.1099E-03    -8.71251E+06    -83.9758E+06    -122.502E+06    -85.3340E+06    -121.144E+06    -8.71251E+06     6.55757E+06         57.9874
            1608     7.18136E-03     125.558E-03     49.9347E-03     36.9582E-03    -64.5632E-03     36.4358E-03    -64.0409E-03     49.9347E-03    -7.78487E-03     452.323E-03    -225.869E-03    -226.454E-03    -225.590E-03     452.044E-03    -226.454E-03     27.3630E-03     8.95032E+06     -69.131E+06    -90.9396E+06    -76.0019E+06    -84.0687E+06     8.95032E+06     7.35239E+06         58.3871
            1609     7.97960E-03     125.598E-03     48.6705E-03     32.1155E-03    -58.7578E-03     31.9639E-03    -58.6062E-03     48.6705E-03    -2.27144E-03     452.232E-03    -225.794E-03    -226.438E-03    -225.393E-03     451.831E-03    -226.438E-03     32.8566E-03     26.7419E+06    -35.8476E+06    -70.2594E+06    -66.6467E+06    -39.4604E+06     26.7419E+06     8.51976E+06         58.8078
            1610     8.77815E-03     125.647E-03     47.2938E-03     27.3008E-03    -52.9655E-03     27.0815E-03    -52.7461E-03     47.2938E-03    -8.12093E-03     452.217E-03    -225.813E-03    -226.404E-03    -225.253E-03     451.657E-03    -226.404E-03     38.8097E-03     46.0439E+06     18.5737E+06    -59.0868E+06    -57.7320E+06     17.2189E+06     46.0439E+06     9.67497E+06         59.2382
            1611     9.57630E-03     125.705E-03     45.8117E-03     22.0005E-03    -46.5487E-03     21.8855E-03    -46.4338E-03     45.8117E-03    -5.14664E-03     452.424E-03    -226.036E-03    -226.388E-03    -225.272E-03     451.660E-03    -226.388E-03     45.3788E-03     61.5859E+06     52.0273E+06    -50.5808E+06    -49.5885E+06     51.0351E+06     61.5859E+06     9.96449E+06         59.6655
            1612     10.3745E-03     125.773E-03     44.2399E-03     16.7349E-03    -40.0728E-03     16.5921E-03    -39.9300E-03     44.2399E-03    -4.87695E-03     452.633E-03    -226.232E-03    -226.401E-03    -225.218E-03     451.619E-03    -226.401E-03     52.3025E-03     75.5832E+06     60.8411E+06    -42.1146E+06    -41.3040E+06     60.0305E+06     75.5832E+06     9.03872E+06         60.0765
            1613     11.1735E-03     125.851E-03     42.6006E-03     11.3826E-03    -33.4625E-03     11.1790E-03    -33.2590E-03     42.6006E-03    -1.07323E-03     452.893E-03    -226.348E-03    -226.544E-03    -225.102E-03     451.528E-03    -226.426E-03     60.6308E-03     94.1802E+06     72.7728E+06    -33.1158E+06    -32.5606E+06     72.2177E+06     94.1802E+06     7.58729E+06         60.4583
            1614     11.9725E-03     125.942E-03     40.8963E-03     5.95855E-03    -26.7761E-03     5.56386E-03    -26.3814E-03     40.8963E-03    -1.29007E-03     453.218E-03    -226.442E-03    -226.777E-03    -225.123E-03     451.565E-03    -226.442E-03     66.9680E-03     110.455E+06     81.1526E+06    -24.5196E+06    -24.1585E+06     80.7916E+06     110.455E+06     5.85056E+06         60.7996
            1615     12.7700E-03     126.039E-03     39.1578E-03     276.678E-06    -19.8847E-03    -321.121E-06    -19.2869E-03     39.1578E-03    -1.94466E-03     454.406E-03    -226.423E-03    -227.983E-03    -225.395E-03     451.818E-03    -226.423E-03     82.7059E-03     119.390E+06     88.8858E+06    -16.3466E+06    -16.1248E+06     88.6640E+06     119.390E+06     4.16855E+06         61.0914
            1616     13.5704E-03     126.178E-03     37.3644E-03    -2.72800E-03    -15.6245E-03    -6.38336E-03    -11.9691E-03     37.3644E-03    -2.10335E-03     454.573E-03    -226.372E-03    -228.201E-03    -225.450E-03     451.822E-03    -226.372E-03     85.8053E-03     122.780E+06     99.2925E+06    -7.77336E+06    -7.69333E+06     99.2125E+06     122.780E+06     2.10749E+06         61.3280
            1617     797.967E-06     127.039E-03     604.145E-03    -118.665E-03    -466.166E-03     256.022E-03    -118.043E-03    -118.665E-03    -403.072E-03     452.277E-03    -225.937E-03    -226.340E-03    -226.061E-03     452.277E-03    -226.216E-03     751.466E-06    -136.428E+06    -140.321E+06    -299.086E+06    -139.709E+06    -299.074E+06    -137.051E+06     1.23496E+06         56.3043
            1618     1.59580E-03     127.038E-03     226.841E-03     68.2748E-03    -275.161E-03     66.5941E-03    -114.914E-03     68.2748E-03     134.002E-03     452.251E-03    -226.047E-03    -226.203E-03    -226.082E-03     452.250E-03    -226.168E-03     1.15109E-03    -125.827E+06    -135.089E+06    -277.390E+06    -135.118E+06    -277.361E+06    -125.827E+06     1.90813E+06         56.3885
            1619     2.39375E-03     127.038E-03     135.230E-03     67.6281E-03    -183.522E-03     66.2706E-03    -114.563E-03     67.6281E-03    -71.1470E-03     452.163E-03    -225.961E-03    -226.202E-03    -225.958E-03     452.160E-03    -226.202E-03     2.70514E-03    -109.247E+06    -129.724E+06    -256.963E+06    -129.776E+06    -256.912E+06    -109.247E+06     2.42858E+06         56.5248
            1620     3.19171E-03     127.039E-03     94.3374E-03     66.9950E-03    -141.582E-03     63.6266E-03    -110.872E-03     66.9950E-03     31.8191E-03     452.092E-03    -225.851E-03    -226.241E-03    -225.841E-03     452.081E-03    -226.241E-03     5.20026E-03    -88.6397E+06    -122.357E+06    -235.749E+06    -122.448E+06    -235.657E+06    -88.6397E+06     3.08781E+06         56.7135
            1621     3.98976E-03     127.044E-03     75.3843E-03     65.7451E-03    -121.445E-03     61.3110E-03    -107.759E-03     66.1320E-03    -27.3003E-03     452.117E-03    -225.831E-03    -226.286E-03    -225.802E-03     452.088E-03    -226.286E-03     8.62670E-03    -66.6032E+06    -113.188E+06    -213.477E+06    -113.354E+06    -213.311E+06    -66.6032E+06     3.97817E+06         56.9536
            1622     4.78785E-03     127.055E-03     65.7883E-03     62.3095E-03    -108.569E-03     57.7901E-03    -103.377E-03     65.1158E-03     12.3329E-03     452.252E-03    -225.911E-03    -226.341E-03    -225.850E-03     452.191E-03    -226.341E-03     12.6879E-03    -45.3508E+06    -103.363E+06    -191.824E+06    -103.650E+06    -191.538E+06    -45.3508E+06     4.88553E+06         57.2426
            1623     5.58567E-03     127.072E-03     63.9368E-03     56.4444E-03    -101.056E-03     54.3213E-03    -98.9328E-03     63.9368E-03    -9.91764E-03     452.333E-03    -225.953E-03    -226.380E-03    -225.842E-03     452.221E-03    -226.380E-03     17.2394E-03    -26.8260E+06    -93.8160E+06    -161.148E+06    -94.3672E+06    -160.596E+06    -26.8260E+06     5.72960E+06         57.5769
            1624     6.38354E-03     127.097E-03     62.6356E-03     50.9897E-03    -94.4681E-03     50.1907E-03    -93.6691E-03     62.6356E-03     3.91125E-03     452.273E-03    -225.875E-03    -226.398E-03    -225.688E-03     452.087E-03    -226.398E-03     22.3298E-03    -9.45961E+06    -83.7111E+06    -125.731E+06    -85.0315E+06    -124.411E+06    -9.45961E+06     6.76483E+06         57.9508
            1625     7.18181E-03     127.130E-03     61.2083E-03     46.0287E-03    -88.2551E-03     45.7541E-03    -87.9805E-03     61.2083E-03    -7.04238E-03     452.193E-03    -225.791E-03    -226.402E-03    -225.505E-03     451.907E-03    -226.402E-03     27.7218E-03     7.88623E+06    -69.9216E+06    -94.4241E+06    -75.9766E+06    -88.3691E+06     7.88623E+06     8.18793E+06         58.3565
            1626     7.98000E-03     127.170E-03     59.6521E-03     40.6991E-03    -81.6474E-03     40.6279E-03    -81.5763E-03     59.6521E-03    -2.30834E-03     452.155E-03    -225.770E-03    -226.385E-03    -225.356E-03     451.740E-03    -226.385E-03     33.3770E-03     25.7426E+06    -38.5994E+06    -72.5009E+06    -67.3363E+06    -43.7640E+06     25.7426E+06     9.73464E+06         58.7843
            1627     8.77815E-03     127.219E-03     57.9587E-03     35.1964E-03    -74.8539E-03     35.0676E-03    -74.7251E-03     57.9587E-03    -7.39430E-03     452.153E-03    -225.802E-03    -226.351E-03    -225.225E-03     451.576E-03    -226.351E-03     39.4066E-03     44.5684E+06     14.3059E+06    -61.2887E+06    -59.2740E+06     12.2911E+06     44.5684E+06     11.5127E+06         59.2225
            1628     9.57698E-03     127.277E-03     56.1356E-03     29.2136E-03    -67.4775E-03     29.1394E-03    -67.4033E-03     56.1356E-03    -4.80167E-03     452.266E-03    -225.936E-03    -226.330E-03    -225.160E-03     451.490E-03    -226.330E-03     45.7492E-03     61.0111E+06     52.1665E+06    -52.3526E+06    -50.9129E+06     50.7268E+06     61.0111E+06     12.1267E+06         59.6580
            1629     10.3757E-03     127.345E-03     54.1970E-03     23.1386E-03    -59.8977E-03     23.0527E-03    -59.8117E-03     54.1970E-03    -4.52885E-03     452.511E-03    -226.157E-03    -226.354E-03    -225.152E-03     451.494E-03    -226.342E-03     52.4068E-03     76.1581E+06     64.2487E+06    -43.4263E+06    -42.4507E+06     63.2731E+06     76.1581E+06     10.0427E+06         60.0772
            1630     11.1740E-03     127.422E-03     52.1658E-03     16.9518E-03    -52.1199E-03     16.8282E-03    -51.9963E-03     52.1658E-03    -1.07052E-03     452.968E-03    -226.333E-03    -226.635E-03    -225.222E-03     451.597E-03    -226.375E-03     60.7924E-03     94.6651E+06     74.8912E+06    -34.4075E+06    -33.8485E+06     74.3322E+06     94.6651E+06     7.75097E+06         60.4667
            1631     11.9721E-03     127.515E-03     50.0506E-03     10.6377E-03    -44.1577E-03     10.4532E-03    -43.9732E-03     50.0506E-03    -1.20447E-03     453.297E-03    -226.401E-03    -226.897E-03    -225.228E-03     451.628E-03    -226.401E-03     67.2810E-03     110.701E+06     82.7130E+06    -25.5202E+06    -25.0755E+06     82.2683E+06     110.701E+06     6.88618E+06         60.8145
            1632     12.7717E-03     127.610E-03     47.8779E-03     4.01237E-03    -35.8864E-03     3.82210E-03    -35.6962E-03     47.8779E-03    -1.79030E-03     454.202E-03    -226.384E-03    -227.818E-03    -225.201E-03     451.585E-03    -226.384E-03     83.1200E-03     120.980E+06     92.4247E+06    -16.5207E+06    -16.2815E+06     92.1855E+06     120.980E+06     4.48033E+06         61.1114
            1633     13.5693E-03     127.749E-03     45.6343E-03    -2.50353E-03    -27.7079E-03    -3.02659E-03    -27.1849E-03     45.6343E-03    -1.86278E-03     454.406E-03    -226.328E-03    -228.078E-03    -225.287E-03     451.616E-03    -226.328E-03     86.3970E-03     125.914E+06     104.389E+06    -7.09276E+06    -7.06118E+06     104.358E+06     125.914E+06     1.36475E+06         61.3511
            1634     798.113E-06     128.610E-03     515.779E-03    -93.8787E-03    -405.319E-03     250.416E-03    -139.957E-03    -93.8787E-03    -334.199E-03     452.009E-03    -225.908E-03    -226.101E-03    -226.088E-03     452.008E-03    -225.921E-03     632.998E-06    -138.097E+06    -141.198E+06    -301.401E+06    -140.580E+06    -301.396E+06    -138.720E+06     837.996E+03         56.2488
            1635     1.59595E-03     128.609E-03     192.771E-03     77.7373E-03    -253.543E-03     75.7274E-03    -136.499E-03     77.7373E-03     111.751E-03     451.996E-03    -225.928E-03    -226.068E-03    -225.963E-03     451.995E-03    -226.032E-03     1.16498E-03    -128.828E+06    -137.391E+06    -281.785E+06    -137.417E+06    -281.759E+06    -128.828E+06     1.60661E+06         56.3334
            1636     2.39386E-03     128.608E-03     122.401E-03     76.9996E-03    -182.771E-03     75.5914E-03    -135.961E-03     76.9996E-03    -59.7810E-03     451.826E-03    -225.767E-03    -226.059E-03    -225.763E-03     451.823E-03    -226.059E-03     2.75830E-03    -111.957E+06    -132.051E+06    -259.621E+06    -132.112E+06    -259.560E+06    -111.957E+06     2.66454E+06         56.4705
            1637     3.19231E-03     128.609E-03     92.0773E-03     76.3033E-03    -151.525E-03     72.5259E-03    -131.973E-03     76.3033E-03     26.2346E-03     451.820E-03    -225.727E-03    -226.094E-03    -225.715E-03     451.809E-03    -226.094E-03     5.28300E-03    -90.9128E+06    -124.613E+06    -238.326E+06    -124.701E+06    -238.238E+06    -90.9128E+06     3.04915E+06         56.6605
            1638     3.99035E-03     128.616E-03     79.8837E-03     73.8388E-03    -136.933E-03     70.0005E-03    -128.539E-03     75.3286E-03    -22.9184E-03     452.013E-03    -225.858E-03    -226.156E-03    -225.828E-03     451.984E-03    -226.156E-03     8.75730E-03    -69.6798E+06    -115.838E+06    -217.656E+06    -116.022E+06    -217.472E+06    -69.6798E+06     4.17506E+06         56.9025
            1639     4.78812E-03     128.626E-03     74.1877E-03     69.2561E-03    -126.727E-03     66.2152E-03    -123.686E-03     74.1877E-03     10.3231E-03     452.142E-03    -225.912E-03    -226.230E-03    -225.848E-03     452.078E-03    -226.230E-03     12.9611E-03    -48.9410E+06    -106.336E+06    -194.481E+06    -106.642E+06    -194.176E+06    -48.9410E+06     5.10495E+06         57.1944
            1640     5.58615E-03     128.644E-03     72.8622E-03     63.6083E-03    -119.983E-03     62.4065E-03    -118.781E-03     72.8622E-03    -8.37172E-03     452.120E-03    -225.838E-03    -226.282E-03    -225.721E-03     452.003E-03    -226.282E-03     17.6494E-03    -29.0670E+06    -96.1784E+06    -164.003E+06    -96.6539E+06    -163.527E+06    -29.0670E+06     5.46651E+06         57.5326
            1641     6.38428E-03     128.668E-03     71.3832E-03     58.2318E-03    -113.378E-03     57.8016E-03    -112.948E-03     71.3832E-03     3.17914E-03     452.031E-03    -225.730E-03    -226.302E-03    -225.536E-03     451.838E-03    -226.302E-03     22.7643E-03    -10.9707E+06    -85.6705E+06    -130.782E+06    -86.9829E+06    -129.469E+06    -10.9707E+06     6.89934E+06         57.9115
            1642     7.18251E-03     128.701E-03     69.7454E-03     53.0079E-03    -106.754E-03     52.8637E-03    -106.610E-03     69.7454E-03    -6.00686E-03     451.997E-03    -225.697E-03    -226.300E-03    -225.402E-03     451.702E-03    -226.300E-03     28.1474E-03     6.07859E+06    -72.4385E+06    -98.9998E+06    -78.0370E+06    -93.4014E+06     6.07859E+06     8.79203E+06         58.3236
            1643     7.98100E-03     128.741E-03     67.9544E-03     47.3036E-03    -99.5289E-03     47.2723E-03    -99.4976E-03     67.9544E-03    -2.03654E-03     452.037E-03    -225.752E-03    -226.286E-03    -225.330E-03     451.616E-03    -226.286E-03     33.6717E-03     23.6420E+06    -42.9120E+06    -76.0578E+06    -69.3038E+06    -49.6659E+06     23.6420E+06     10.8927E+06         58.7587
            1644     8.77964E-03     128.791E-03     66.0081E-03     41.3454E-03    -91.9882E-03     41.2632E-03    -91.9059E-03     66.0081E-03    -6.40482E-03     452.036E-03    -225.776E-03    -226.260E-03    -225.192E-03     451.451E-03    -226.260E-03     39.6665E-03     42.9257E+06     8.94195E+06    -63.4233E+06    -60.5577E+06     6.07626E+06     42.9257E+06     13.4698E+06         59.2051
            1645     9.57763E-03     128.849E-03     63.9137E-03     34.8626E-03    -83.8776E-03     34.8072E-03    -83.8223E-03     63.9137E-03    -4.27422E-03     452.142E-03    -225.905E-03    -226.237E-03    -225.116E-03     451.353E-03    -226.237E-03     46.0989E-03     60.3838E+06     52.1008E+06    -53.7953E+06    -51.7648E+06     50.2756E+06     60.1785E+06     14.3800E+06         59.6493
            1646     10.3761E-03     128.916E-03     61.6815E-03     28.1649E-03    -75.4580E-03     28.1057E-03    -75.3987E-03     61.6815E-03    -3.91116E-03     452.514E-03    -226.157E-03    -226.358E-03    -225.233E-03     451.483E-03    -226.251E-03     52.7572E-03     75.9063E+06     69.4754E+06    -45.0576E+06    -43.6818E+06     68.3049E+06     75.7010E+06     12.2537E+06         60.0770
            1647     11.1747E-03     128.994E-03     59.3327E-03     21.3469E-03    -66.7904E-03     21.2550E-03    -66.6985E-03     59.3327E-03    -922.853E-06     453.031E-03    -226.302E-03    -226.729E-03    -225.346E-03     451.647E-03    -226.302E-03     61.0706E-03     94.4380E+06     78.7808E+06    -36.4989E+06    -35.7974E+06     78.0793E+06     94.4380E+06     8.61199E+06         60.4745
            1648     11.9737E-03     129.086E-03     56.8808E-03     14.4286E-03    -57.9032E-03     14.3044E-03    -57.7791E-03     56.8808E-03    -989.148E-06     453.399E-03    -226.349E-03    -227.050E-03    -225.383E-03     451.732E-03    -226.349E-03     67.2649E-03     111.643E+06     85.1390E+06    -26.5276E+06    -26.2350E+06     84.8465E+06     111.643E+06     5.28112E+06         60.8292
            1649     12.7717E-03     129.182E-03     54.3496E-03     7.25635E-03    -48.6982E-03     7.13217E-03    -48.5740E-03     54.3496E-03    -1.53986E-03     454.343E-03    -226.356E-03    -227.987E-03    -225.456E-03     451.812E-03    -226.356E-03     81.8822E-03     123.454E+06     96.3434E+06    -16.4138E+06    -16.3004E+06     96.2300E+06     123.454E+06     2.96433E+06         61.1313
            1650     13.5726E-03     129.319E-03     51.7328E-03    -33.6273E-06    -39.3796E-03    -272.264E-06    -39.1409E-03     51.7328E-03    -1.64326E-03     454.220E-03    -226.245E-03    -227.976E-03    -225.202E-03     451.517E-03    -226.314E-03     85.1072E-03     128.586E+06     108.509E+06    -7.49765E+06    -7.45685E+06     108.469E+06     128.586E+06     1.62084E+06         61.3744
            1651     797.940E-06     130.180E-03     429.132E-03    -70.9956E-03    -343.565E-03     240.556E-03    -154.989E-03    -70.9956E-03    -265.478E-03     451.672E-03    -225.773E-03    -225.899E-03    -225.829E-03     451.672E-03    -225.843E-03     854.630E-06    -141.952E+06    -145.566E+06    -304.535E+06    -145.014E+06    -304.523E+06    -142.517E+06     913.898E+03         56.1896
            1652     1.59619E-03     130.179E-03     160.814E-03     84.1320E-03    -230.739E-03     81.5697E-03    -151.494E-03     84.1320E-03     89.2310E-03     451.536E-03    -225.688E-03    -225.848E-03    -225.687E-03     451.536E-03    -225.848E-03     1.33654E-03    -132.226E+06    -142.117E+06    -284.878E+06    -142.139E+06    -284.855E+06    -132.226E+06     1.50083E+06         56.2747
            1653     2.39465E-03     130.178E-03     111.092E-03     83.2343E-03    -180.104E-03     81.6943E-03    -150.706E-03     83.2343E-03    -47.7801E-03     451.546E-03    -225.674E-03    -225.873E-03    -225.670E-03     451.543E-03    -225.873E-03     2.91304E-03    -114.843E+06    -135.425E+06    -263.327E+06    -135.479E+06    -263.273E+06    -114.843E+06     2.33268E+06         56.4126
            1654     3.19255E-03     130.180E-03     90.1431E-03     82.4850E-03    -158.157E-03     78.4886E-03    -146.502E-03     82.4850E-03     20.4933E-03     451.651E-03    -225.713E-03    -225.939E-03    -225.701E-03     451.639E-03    -225.939E-03     5.52963E-03    -93.6847E+06    -127.317E+06    -241.015E+06    -127.438E+06    -240.894E+06    -93.6847E+06     3.55687E+06         56.6039
            1655     3.99069E-03     130.186E-03     83.2869E-03     78.8061E-03    -147.753E-03     75.7550E-03    -142.851E-03     81.4360E-03    -18.3758E-03     451.740E-03    -225.718E-03    -226.021E-03    -225.687E-03     451.708E-03    -226.021E-03     9.07810E-03    -72.0568E+06    -118.727E+06    -221.182E+06    -118.906E+06    -221.003E+06    -72.0568E+06     4.20004E+06         56.8479
            1656     4.78886E-03     130.198E-03     80.2009E-03     73.4972E-03    -139.448E-03     71.7938E-03    -137.744E-03     80.2009E-03     8.43323E-03     451.758E-03    -225.673E-03    -226.085E-03    -225.605E-03     451.690E-03    -226.085E-03     13.3615E-03    -51.3298E+06    -109.027E+06    -196.521E+06    -109.272E+06    -196.276E+06    -51.3298E+06     4.53578E+06         57.1429
            1657     5.58698E-03     130.215E-03     78.7651E-03     68.4136E-03    -133.134E-03     67.7683E-03    -132.489E-03     78.7651E-03    -6.55159E-03     451.735E-03    -225.611E-03    -226.124E-03    -225.488E-03     451.612E-03    -226.124E-03     18.0984E-03    -31.6667E+06    -99.1300E+06    -167.384E+06    -99.5778E+06    -166.937E+06    -31.6667E+06     5.30543E+06         57.4852
            1658     6.38533E-03     130.240E-03     77.1540E-03     63.0742E-03    -126.498E-03     62.8555E-03    -126.279E-03     77.1540E-03     2.63985E-03     451.750E-03    -225.605E-03    -226.145E-03    -225.405E-03     451.550E-03    -226.145E-03     23.1437E-03    -13.2182E+06    -88.6986E+06    -136.136E+06    -89.8911E+06    -134.944E+06    -13.2182E+06     6.82846E+06         57.8695
            1659     7.18368E-03     130.271E-03     75.3648E-03     57.7514E-03    -119.630E-03     57.6830E-03    -119.561E-03     75.3648E-03    -4.74617E-03     451.821E-03    -225.670E-03    -226.152E-03    -225.365E-03     451.517E-03    -226.152E-03     28.5816E-03     4.34722E+06    -75.3189E+06    -103.259E+06    -80.0688E+06    -98.5094E+06     4.34722E+06     8.76603E+06         58.2881
            1660     7.98182E-03     130.313E-03     73.4090E-03     51.8420E-03    -112.040E-03     51.8317E-03    -112.030E-03     73.4090E-03    -1.53430E-03     451.939E-03    -225.788E-03    -226.151E-03    -225.354E-03     451.505E-03    -226.151E-03     34.2068E-03     21.7385E+06    -48.2373E+06    -78.8172E+06    -70.5761E+06    -56.4784E+06     21.7385E+06     10.8850E+06         58.7309
            1661     8.77989E-03     130.361E-03     71.2810E-03     45.5476E-03    -103.986E-03     45.4948E-03    -103.933E-03     71.2810E-03    -5.13767E-03     451.984E-03    -225.845E-03    -226.139E-03    -225.252E-03     451.391E-03    -226.139E-03     39.9704E-03     40.6757E+06     1.01475E+06    -64.3612E+06    -60.9391E+06    -2.40741E+06     40.6757E+06     13.9308E+06         59.1858
            1662     9.57918E-03     130.420E-03     68.9850E-03     38.7042E-03    -95.2949E-03     38.6610E-03    -95.2518E-03     68.9850E-03    -3.52043E-03     452.092E-03    -225.969E-03    -226.124E-03    -225.177E-03     451.300E-03    -226.123E-03     46.2143E-03     60.9422E+06     48.4964E+06    -54.3443E+06    -51.8380E+06     48.4890E+06     58.4432E+06     15.8402E+06         59.6389
            1663     10.3777E-03     130.488E-03     66.5307E-03     31.5923E-03    -86.2987E-03     31.5481E-03    -86.2544E-03     66.5307E-03    -3.13949E-03     452.422E-03    -226.134E-03    -226.288E-03    -225.244E-03     451.386E-03    -226.143E-03     52.8796E-03     77.8340E+06     72.8334E+06    -44.8918E+06    -43.2364E+06     73.6769E+06     75.3351E+06     13.8650E+06         60.0757
            1664     11.1757E-03     130.566E-03     63.9397E-03     24.3923E-03    -77.0546E-03     24.3157E-03    -76.9780E-03     63.9397E-03    -620.747E-06     452.908E-03    -226.206E-03    -226.702E-03    -225.303E-03     451.509E-03    -226.206E-03     61.3818E-03     96.0893E+06     85.4040E+06    -34.9477E+06    -34.0585E+06     84.5147E+06     96.0893E+06     9.96698E+06         60.4817
            1665     11.9736E-03     130.658E-03     61.2310E-03     17.1012E-03    -67.5325E-03     17.0036E-03    -67.4350E-03     61.2310E-03    -652.608E-06     453.409E-03    -226.265E-03    -227.144E-03    -225.421E-03     451.686E-03    -226.265E-03     68.3477E-03     114.713E+06     92.2143E+06    -25.4620E+06    -25.1393E+06     91.8915E+06     114.713E+06     5.39674E+06         60.8437
            1666     12.7720E-03     130.755E-03     58.4245E-03     9.58405E-03    -57.7178E-03     9.48798E-03    -57.6217E-03     58.4245E-03    -1.21151E-03     454.748E-03    -226.290E-03    -228.458E-03    -225.803E-03     452.092E-03    -226.290E-03     83.8745E-03     125.643E+06     99.4214E+06    -16.4456E+06    -16.3973E+06     99.3730E+06     125.643E+06     2.12915E+06         61.1513
            1667     13.5676E-03     130.890E-03     55.5202E-03     1.96251E-03    -47.7680E-03     1.80087E-03    -47.6063E-03     55.5202E-03    -1.31521E-03     454.378E-03    -226.189E-03    -228.189E-03    -225.303E-03     451.562E-03    -226.259E-03     86.7949E-03     129.669E+06     109.939E+06    -7.63914E+06    -7.61353E+06     109.913E+06     129.669E+06     1.28619E+06         61.3978
            1668     798.403E-06     131.750E-03     348.677E-03    -52.2262E-03    -283.780E-03     227.763E-03    -162.867E-03    -52.2262E-03    -197.870E-03     451.164E-03    -225.477E-03    -225.687E-03    -225.610E-03     451.164E-03    -225.554E-03     937.722E-06    -144.637E+06    -148.140E+06    -308.560E+06    -147.586E+06    -308.549E+06    -145.202E+06     686.894E+03         56.1265
            1669     1.59680E-03     131.748E-03     133.106E-03     87.1482E-03    -207.665E-03     84.7438E-03    -159.303E-03     87.1482E-03     67.0869E-03     451.086E-03    -225.481E-03    -225.605E-03    -225.480E-03     451.085E-03    -225.605E-03     1.38789E-03    -133.415E+06    -143.186E+06    -286.967E+06    -143.220E+06    -286.932E+06    -133.415E+06     1.73350E+06         56.2120
            1670     2.39488E-03     131.748E-03     101.054E-03     86.2291E-03    -175.219E-03     84.3214E-03    -158.486E-03     86.2291E-03    -35.9875E-03     451.198E-03    -225.542E-03    -225.655E-03    -225.538E-03     451.193E-03    -225.655E-03     3.21828E-03    -116.552E+06    -138.117E+06    -266.931E+06    -138.170E+06    -266.877E+06    -116.552E+06     2.42824E+06         56.3508
            1671     3.19325E-03     131.750E-03     87.8641E-03     85.1202E-03    -160.544E-03     81.2418E-03    -154.196E-03     85.3942E-03     15.1227E-03     451.326E-03    -225.584E-03    -225.743E-03    -225.569E-03     451.312E-03    -225.743E-03     5.97243E-03    -95.9292E+06    -130.021E+06    -244.636E+06    -130.122E+06    -244.535E+06    -95.9292E+06     3.20709E+06         56.5435
            1672     3.99139E-03     131.756E-03     84.7109E-03     80.8215E-03    -153.046E-03     78.6019E-03    -150.425E-03     84.3097E-03    -13.9811E-03     451.324E-03    -225.492E-03    -225.832E-03    -225.457E-03     451.289E-03    -225.832E-03     9.52051E-03    -73.0742E+06    -120.059E+06    -223.296E+06    -120.215E+06    -223.140E+06    -73.0742E+06     3.90151E+06         56.7897
            1673     4.78976E-03     131.767E-03     83.0384E-03     75.3792E-03    -146.123E-03     74.5213E-03    -145.265E-03     83.0384E-03     6.58448E-03     451.261E-03    -225.377E-03    -225.884E-03    -225.305E-03     451.190E-03    -225.884E-03     13.7450E-03    -52.4638E+06    -110.735E+06    -199.229E+06    -110.977E+06    -198.986E+06    -52.4638E+06     4.51728E+06         57.0878
            1674     5.58833E-03     131.785E-03     81.5418E-03     70.6392E-03    -140.166E-03     70.3347E-03    -139.861E-03     81.5418E-03    -4.63689E-03     451.355E-03    -225.439E-03    -225.916E-03    -225.311E-03     451.227E-03    -225.916E-03     18.4857E-03    -33.2605E+06    -100.866E+06     -170.57E+06    -101.281E+06    -170.154E+06    -33.2605E+06     5.25833E+06         57.4344
            1675     6.38660E-03     131.810E-03     79.8523E-03     65.4282E-03    -133.575E-03     65.3322E-03    -133.479E-03     79.8523E-03     2.16530E-03     451.527E-03    -225.579E-03    -225.948E-03    -225.373E-03     451.321E-03    -225.948E-03     23.4529E-03    -15.0666E+06    -90.4283E+06    -139.803E+06    -91.2920E+06    -138.939E+06    -15.0666E+06     6.07145E+06         57.8242
            1676     7.18497E-03     131.842E-03     77.9738E-03     60.1050E-03    -126.617E-03     60.0780E-03    -126.590E-03     77.9738E-03    -3.49993E-03     451.605E-03    -225.632E-03    -225.972E-03    -225.323E-03     451.296E-03    -225.972E-03     28.7868E-03     2.00657E+06    -78.1812E+06    -107.798E+06    -81.4603E+06    -104.518E+06     2.00657E+06     7.77563E+06         58.2496
            1677     7.98357E-03     131.883E-03     75.9185E-03     54.1541E-03    -118.866E-03     54.1513E-03    -118.863E-03     75.9185E-03    -1.07140E-03     451.697E-03    -225.714E-03    -225.984E-03    -225.271E-03     451.254E-03    -225.984E-03     34.5251E-03     19.3510E+06    -53.5046E+06    -81.8201E+06    -71.7925E+06    -63.5323E+06     19.3510E+06     10.3392E+06         58.7004
            1678     8.78217E-03     131.933E-03     73.6780E-03     47.6942E-03    -110.536E-03     47.6576E-03    -110.499E-03     73.6780E-03    -3.83874E-03     451.950E-03    -225.883E-03    -226.067E-03    -225.355E-03     451.342E-03    -225.986E-03     40.4852E-03     37.7666E+06    -8.02659E+06    -65.8497E+06    -62.1926E+06    -11.6837E+06     37.7666E+06     13.3619E+06         59.1642
            1679     9.57957E-03     131.991E-03     71.2525E-03     40.6681E-03    -101.565E-03     40.6322E-03    -101.529E-03     71.2525E-03    -2.71126E-03     452.111E-03    -225.978E-03    -226.133E-03    -225.315E-03     451.299E-03    -225.984E-03     46.7842E-03     62.1586E+06     42.6235E+06    -54.8369E+06    -52.5048E+06     46.0456E+06     56.4044E+06     14.8073E+06         59.6268
            1680     10.3780E-03     132.060E-03     68.6524E-03     33.3768E-03    -92.2630E-03     33.3399E-03    -92.2261E-03     68.6524E-03    -2.37589E-03     452.212E-03    -226.013E-03    -226.199E-03    -225.140E-03     451.153E-03    -226.013E-03     53.4552E-03     81.2955E+06     74.2857E+06     -43.755E+06    -42.3158E+06     78.6006E+06     75.5414E+06     13.1447E+06         60.0731
            1681     11.1771E-03     132.137E-03     65.9006E-03     26.0177E-03    -82.7049E-03     25.9473E-03    -82.6346E-03     65.9006E-03    -254.539E-06     452.584E-03    -226.080E-03    -226.504E-03    -225.080E-03     451.160E-03    -226.080E-03     61.9210E-03     97.7758E+06     90.4006E+06    -33.6089E+06    -32.7024E+06     89.4941E+06     97.7758E+06     10.3902E+06         60.4879
            1682     11.9765E-03     132.230E-03     63.0206E-03     18.5940E-03    -72.8915E-03     18.5083E-03    -72.8057E-03     63.0206E-03    -266.118E-06     452.916E-03    -226.132E-03    -226.784E-03    -225.034E-03     451.165E-03    -226.132E-03     68.8642E-03     118.219E+06     100.164E+06    -24.2297E+06    -23.7363E+06     99.6707E+06     118.219E+06     7.48044E+06         60.8577
            1683     12.7754E-03     132.326E-03     60.0297E-03     11.0195E-03    -62.8410E-03     10.9374E-03    -62.7589E-03     60.0297E-03    -894.169E-06     454.196E-03    -226.139E-03    -228.056E-03    -225.356E-03     451.495E-03    -226.139E-03     84.5385E-03     128.845E+06     104.918E+06    -15.4305E+06    -15.2558E+06     104.743E+06     128.845E+06     3.93748E+06         61.1713
            1684     13.5768E-03     132.464E-03     56.9382E-03     3.37156E-03    -52.7064E-03     3.24262E-03    -52.5775E-03     56.9382E-03    -1.01994E-03     454.949E-03    -226.120E-03    -228.829E-03    -226.012E-03     452.132E-03    -226.120E-03     86.7387E-03     130.904E+06     111.721E+06    -7.86343E+06    -7.84461E+06     111.702E+06     130.904E+06     1.12590E+06         61.4214
            1685     798.413E-06     133.318E-03     277.097E-03    -36.5101E-03    -229.348E-03     211.318E-03    -163.569E-03    -36.5101E-03    -132.667E-03     450.650E-03    -225.222E-03    -225.428E-03    -225.407E-03     450.650E-03    -225.242E-03     877.213E-06    -145.299E+06    -149.282E+06    -311.713E+06    -148.357E+06    -311.694E+06    -146.244E+06     1.02543E+06         56.0590
            1686     1.59697E-03     133.317E-03     109.795E-03     86.7961E-03    -185.475E-03     84.4353E-03    -160.115E-03     86.7961E-03     46.3558E-03     450.638E-03    -225.265E-03    -225.373E-03    -225.280E-03     450.636E-03    -225.357E-03     1.46210E-03    -135.658E+06    -145.548E+06    -290.987E+06    -145.600E+06    -290.935E+06    -135.658E+06     2.35054E+06         56.1450
            1687     2.39571E-03     133.317E-03     92.6586E-03     85.3799E-03    -167.406E-03     83.9501E-03    -159.201E-03     85.8831E-03    -24.9760E-03     450.636E-03    -225.226E-03    -225.410E-03    -225.220E-03     450.631E-03    -225.410E-03     3.49733E-03    -117.627E+06    -139.547E+06    -269.385E+06    -139.616E+06    -269.315E+06    -117.627E+06     2.98097E+06         56.2846
            1688     3.19403E-03     133.319E-03     85.3179E-03     83.5452E-03    -158.033E-03     80.8520E-03    -155.056E-03     85.0343E-03     10.3030E-03     450.696E-03    -225.222E-03    -225.474E-03    -225.206E-03     450.680E-03    -225.474E-03     6.43103E-03    -97.0957E+06    -131.785E+06    -247.048E+06    -131.870E+06    -246.963E+06    -97.0957E+06     3.07066E+06         56.4788
            1689     3.99253E-03     133.326E-03     83.9420E-03     79.5329E-03    -152.467E-03     78.3342E-03    -151.268E-03     83.9420E-03    -9.63553E-03     450.773E-03    -225.223E-03    -225.550E-03    -225.185E-03     450.735E-03    -225.550E-03     10.0024E-03    -75.1177E+06    -122.538E+06    -225.691E+06    -122.652E+06    -225.576E+06    -75.1177E+06     3.34938E+06         56.7274
            1690     4.79110E-03     133.336E-03     82.6743E-03     74.7334E-03    -146.498E-03     74.3720E-03    -146.136E-03     82.6743E-03     4.88983E-03     450.859E-03    -225.243E-03    -225.615E-03    -225.166E-03     450.782E-03    -225.615E-03     14.2070E-03    -53.9725E+06    -112.397E+06    -201.434E+06    -112.559E+06    -201.272E+06    -53.9725E+06     3.68616E+06         57.0287
            1691     5.58958E-03     133.355E-03     81.1732E-03     70.2784E-03    -140.919E-03     70.1648E-03    -140.806E-03     81.1732E-03    -2.81916E-03     451.002E-03    -225.336E-03    -225.667E-03    -225.201E-03     450.868E-03    -225.667E-03     18.9416E-03    -34.8484E+06    -101.880E+06    -173.347E+06    -102.178E+06    -173.049E+06    -34.8484E+06     4.37255E+06         57.3798
            1692     6.38804E-03     133.380E-03     79.4645E-03     65.2404E-03    -134.529E-03     65.2087E-03    -134.498E-03     79.4645E-03     1.81582E-03     451.230E-03    -225.513E-03    -225.717E-03    -225.298E-03     451.015E-03    -225.717E-03     23.9594E-03    -16.7440E+06    -91.4110E+06    -143.274E+06    -92.0955E+06    -142.589E+06    -16.7440E+06     5.56014E+06         57.7754
            1693     7.18625E-03     133.413E-03     77.5552E-03     59.9643E-03    -127.587E-03     59.9554E-03    -127.578E-03     77.5552E-03    -2.24997E-03     451.427E-03    -225.625E-03    -225.802E-03    -225.343E-03     451.109E-03    -225.766E-03     29.2321E-03     337.365E+03    -80.3132E+06    -112.129E+06    -82.4170E+06    -110.026E+06     337.365E+03     6.99896E+06         58.2078
            1694     7.98459E-03     133.454E-03     75.4583E-03     54.0943E-03    -119.839E-03     54.0903E-03    -119.835E-03     75.4583E-03    -599.016E-06     451.517E-03    -225.658E-03    -225.858E-03    -225.267E-03     451.064E-03    -225.797E-03     34.8673E-03     17.1962E+06    -58.7635E+06    -84.1928E+06    -72.6863E+06    -70.2700E+06     17.1962E+06     8.81744E+06         58.6670
            1695     8.78300E-03     133.504E-03     73.1706E-03     47.7465E-03    -111.551E-03     47.7159E-03    -111.520E-03     73.1706E-03    -2.60535E-03     451.611E-03    -225.698E-03    -225.914E-03    -225.180E-03     450.987E-03    -225.807E-03     40.9799E-03     35.4416E+06    -16.6738E+06    -65.7790E+06    -62.6216E+06    -19.8312E+06     35.4416E+06     11.2051E+06         59.1401
            1696     9.58207E-03     133.563E-03     70.6925E-03     40.7961E-03    -102.646E-03     40.7622E-03    -102.612E-03     70.6925E-03    -1.91618E-03     451.778E-03    -225.749E-03    -226.030E-03    -225.139E-03     450.940E-03    -225.801E-03     47.5260E-03     63.0399E+06     37.7749E+06    -54.3564E+06    -52.4805E+06     43.5588E+06     55.3802E+06     12.9936E+06         59.6127
            1697     10.3806E-03     133.630E-03     68.0319E-03     33.5551E-03    -93.3493E-03     33.5221E-03    -93.3162E-03     68.0319E-03    -1.52294E-03     452.200E-03    -225.835E-03    -226.365E-03    -225.278E-03     451.113E-03    -225.835E-03     54.1784E-03     82.8063E+06     74.6999E+06    -44.2272E+06    -42.9837E+06     81.5410E+06     74.7217E+06     12.4643E+06         60.0689
            1698     11.1790E-03     133.708E-03     65.2116E-03     26.2798E-03    -83.8016E-03     26.2138E-03    -83.7355E-03     65.2116E-03     171.076E-06     452.745E-03    -225.932E-03    -226.813E-03    -225.399E-03     451.331E-03    -225.932E-03     61.7675E-03     97.7012E+06     92.7552E+06    -34.7397E+06    -33.8405E+06     92.2809E+06     97.2763E+06     10.5266E+06         60.4930
            1699     11.9773E-03     133.800E-03     62.2595E-03     19.0015E-03    -74.0647E-03     18.9237E-03    -73.9870E-03     62.2595E-03     165.488E-06     452.927E-03    -226.017E-03    -226.909E-03    -225.231E-03     451.248E-03    -226.017E-03     67.4633E-03     119.120E+06     105.303E+06    -25.3337E+06    -24.7863E+06     104.755E+06     119.120E+06     8.19588E+06         60.8707
            1700     12.7764E-03     133.897E-03     59.1882E-03     11.6174E-03    -64.1035E-03     11.5457E-03    -64.0317E-03     59.1882E-03    -542.253E-06     454.105E-03    -226.052E-03    -228.053E-03    -225.501E-03     451.554E-03    -226.052E-03     82.2212E-03     130.945E+06     111.322E+06    -15.9470E+06    -15.6974E+06     111.072E+06     130.945E+06     5.21237E+06         61.1904
            1701     13.5730E-03     134.034E-03     56.0141E-03     4.16858E-03    -54.0766E-03     4.05657E-03    -53.9646E-03     56.0141E-03    -759.249E-06     454.928E-03    -226.057E-03    -228.871E-03    -226.173E-03     452.230E-03    -226.057E-03     85.0458E-03     133.343E+06     116.285E+06    -7.77822E+06    -7.71279E+06     116.220E+06     133.343E+06     2.26203E+06         61.4443
            1702     798.944E-06     134.886E-03     219.022E-03    -23.9775E-03    -184.406E-03     191.661E-03    -157.045E-03    -23.9775E-03    -75.9825E-03     449.898E-03    -224.899E-03    -224.999E-03    -224.950E-03     449.898E-03    -224.947E-03     1.21482E-03    -147.918E+06    -151.279E+06    -314.629E+06    -150.357E+06    -314.607E+06    -148.862E+06     460.556E+03         55.9865
            1703     1.59747E-03     134.885E-03     91.0214E-03     83.2345E-03    -164.390E-03     80.7977E-03    -154.166E-03     83.2345E-03     28.1104E-03     449.926E-03    -224.920E-03    -225.006E-03    -224.934E-03     449.924E-03    -224.990E-03     2.02813E-03    -137.073E+06    -146.452E+06    -294.952E+06    -146.487E+06    -294.917E+06    -137.073E+06     1.49109E+06         56.0731
            1704     2.39610E-03     134.884E-03     84.8463E-03     81.0315E-03    -156.142E-03     80.5008E-03    -153.085E-03     82.3203E-03    -14.8264E-03     449.905E-03    -224.863E-03    -225.042E-03    -224.855E-03     449.898E-03    -225.042E-03     4.14898E-03    -119.319E+06    -139.706E+06    -271.996E+06    -139.757E+06    -271.945E+06    -119.319E+06     2.44356E+06         56.2137
            1705     3.19523E-03     134.887E-03     81.5153E-03     78.6360E-03    -150.264E-03     77.5852E-03    -149.213E-03     81.5153E-03     6.03856E-03     449.944E-03    -224.840E-03    -225.105E-03    -224.820E-03     449.925E-03    -225.105E-03     7.01541E-03    -98.5017E+06    -132.238E+06    -250.006E+06    -132.343E+06    -249.900E+06    -98.5017E+06     3.46365E+06         56.4095
            1706     3.99412E-03     134.894E-03     80.4604E-03     75.4672E-03    -145.981E-03     75.0548E-03    -145.569E-03     80.4604E-03    -5.40406E-03     450.138E-03    -224.954E-03    -225.185E-03    -224.911E-03     450.095E-03    -225.185E-03     10.5524E-03    -76.4056E+06    -123.490E+06    -226.558E+06    -123.613E+06    -226.435E+06    -76.4056E+06     3.53756E+06         56.6604
            1707     4.79268E-03     134.906E-03     79.2267E-03     71.4916E-03    -140.743E-03     71.3797E-03    -140.631E-03     79.2267E-03     3.70046E-03     450.430E-03    -225.144E-03    -225.286E-03    -225.067E-03     450.347E-03    -225.280E-03     14.8218E-03    -54.8124E+06    -113.423E+06    -201.874E+06    -113.518E+06    -201.779E+06    -54.8124E+06     2.83736E+06         56.9652
            1708     5.59118E-03     134.924E-03     77.7680E-03     67.3458E-03    -135.486E-03     67.3209E-03    -135.461E-03     77.7680E-03    -1.01096E-03     450.628E-03    -225.252E-03    -225.375E-03    -225.115E-03     450.484E-03    -225.369E-03     19.5537E-03    -35.9778E+06    -103.415E+06    -176.158E+06    -103.556E+06    -176.016E+06    -35.9778E+06     3.03958E+06         57.3209
            1709     6.38980E-03     134.950E-03     76.0907E-03     62.4814E-03    -129.376E-03     62.4730E-03    -129.367E-03     76.0907E-03     1.78285E-03     450.798E-03    -225.357E-03    -225.441E-03    -225.130E-03     450.571E-03    -225.441E-03     24.6324E-03    -18.1173E+06    -92.8471E+06    -147.037E+06    -93.2790E+06    -146.605E+06    -18.1173E+06     4.26296E+06         57.7225
            1710     7.18840E-03     134.983E-03     74.2021E-03     57.3767E-03    -122.655E-03     57.3693E-03    -122.648E-03     74.2021E-03    -763.996E-06     451.117E-03    -225.487E-03    -225.630E-03    -225.276E-03     450.781E-03    -225.506E-03     30.0007E-03    -653.636E+03    -81.6238E+06    -115.108E+06    -82.8189E+06    -113.913E+06    -653.636E+03     5.42369E+06         58.1624
            1711     7.98666E-03     135.024E-03     72.1225E-03     51.7565E-03    -115.164E-03     51.7447E-03    -115.152E-03     72.1225E-03     144.142E-06     451.411E-03    -225.563E-03    -225.848E-03    -225.374E-03     450.937E-03    -225.563E-03     35.6918E-03     16.2340E+06    -62.8871E+06    -84.7258E+06    -72.4302E+06    -75.1827E+06     16.2340E+06     6.76906E+06         58.6303
            1712     8.78518E-03     135.074E-03     69.8546E-03     45.7074E-03    -107.159E-03     45.6764E-03    -107.128E-03     69.8546E-03    -1.23358E-03     451.501E-03    -225.550E-03    -225.951E-03    -225.261E-03     450.864E-03    -225.602E-03     41.4491E-03     34.0790E+06    -24.1763E+06    -64.8566E+06    -62.3355E+06    -26.6973E+06     34.0790E+06     8.77820E+06         59.1132
            1713     9.58382E-03     135.133E-03     67.3994E-03     39.0997E-03    -98.5818E-03     39.0639E-03    -98.5460E-03     67.3994E-03    -924.713E-06     451.638E-03    -225.566E-03    -226.071E-03    -225.188E-03     450.807E-03    -225.619E-03     47.3344E-03     60.6607E+06     33.5686E+06    -53.9853E+06    -52.5179E+06     38.2222E+06     54.5397E+06     11.2416E+06         59.5962
            1714     10.3825E-03     135.202E-03     64.7630E-03     32.1669E-03    -89.6463E-03     32.1337E-03    -89.6130E-03     64.7630E-03    -488.630E-06     452.198E-03    -225.667E-03    -226.531E-03    -225.460E-03     451.127E-03    -225.667E-03     53.7769E-03     83.0697E+06     73.7595E+06    -44.5838E+06    -43.3362E+06     81.8222E+06     73.7595E+06     12.4965E+06         60.0628
            1715     11.1802E-03     135.280E-03     61.9664E-03     25.2419E-03    -80.5000E-03     25.1761E-03    -80.4342E-03     61.9664E-03     741.299E-06     453.066E-03    -225.790E-03    -227.276E-03    -225.868E-03     451.658E-03    -225.790E-03     61.6772E-03     98.3517E+06     93.2584E+06    -35.6268E+06    -34.6600E+06     95.4809E+06     95.1624E+06     10.9908E+06         60.4966
            1716     11.9781E-03     135.372E-03     59.0423E-03     18.3730E-03    -71.1637E-03     18.2971E-03    -71.0878E-03     59.0423E-03     679.277E-06     453.621E-03    -225.930E-03    -227.691E-03    -226.009E-03     451.939E-03    -225.930E-03     67.6031E-03     118.105E+06     109.340E+06    -25.5795E+06    -25.0268E+06     108.788E+06     118.105E+06     8.36312E+06         60.8827
            1717     12.7757E-03     135.468E-03     55.9956E-03     11.3902E-03    -61.5963E-03     11.3227E-03    -61.5288E-03     55.9956E-03    -105.693E-06     454.670E-03    -226.018E-03    -228.651E-03    -226.047E-03     452.065E-03    -226.018E-03     83.0538E-03     131.649E+06     116.026E+06    -16.1575E+06    -15.8747E+06     115.743E+06     131.649E+06     5.86508E+06         61.2089
            1718     13.5750E-03     135.608E-03     52.8435E-03     4.34719E-03    -51.9442E-03     4.24271E-03    -51.8398E-03     52.8435E-03    -402.967E-06     454.066E-03    -225.931E-03    -228.135E-03    -225.251E-03     451.270E-03    -226.019E-03     86.5618E-03     135.285E+06     121.375E+06    -7.56370E+06    -7.46041E+06     121.271E+06     135.285E+06     3.29885E+06         61.4671
            1719     799.096E-06     136.452E-03     177.408E-03    -16.4862E-03    -150.905E-03     170.238E-03    -144.267E-03    -15.9536E-03    -28.5961E-03     448.721E-03    -224.300E-03    -224.421E-03    -224.358E-03     448.720E-03    -224.362E-03     1.60434E-03    -148.726E+06    -151.796E+06    -314.187E+06    -151.813E+06    -314.169E+06    -148.726E+06    -294.505E+03         55.9080
            1720     1.59863E-03     136.451E-03     77.7914E-03     75.9877E-03    -144.089E-03     74.6983E-03    -141.662E-03     76.6540E-03     12.8628E-03     448.779E-03    -224.372E-03    -224.407E-03    -224.371E-03     448.776E-03    -224.405E-03     2.54517E-03    -138.740E+06    -147.058E+06    -297.923E+06    -147.067E+06    -297.914E+06    -138.740E+06    -464.406E+03         55.9952
            1721     2.39794E-03     136.451E-03     76.3354E-03     74.0799E-03    -141.248E-03     73.9267E-03    -140.601E-03     75.8418E-03    -6.03864E-03     448.941E-03    -224.431E-03    -224.510E-03    -224.450E-03     448.932E-03    -224.482E-03     4.84832E-03    -121.987E+06    -140.897E+06    -275.796E+06    -140.928E+06    -275.766E+06    -121.987E+06     1.54218E+06         56.1369
            1722     3.19674E-03     136.454E-03     75.0595E-03     71.7049E-03    -137.303E-03     71.4990E-03    -137.097E-03     75.0595E-03     2.65967E-03     449.197E-03    -224.504E-03    -224.693E-03    -224.571E-03     449.173E-03    -224.603E-03     7.80446E-03    -100.143E+06    -132.899E+06    -252.933E+06    -132.967E+06    -252.865E+06    -100.143E+06     2.66244E+06         56.3345
            1723     3.99572E-03     136.461E-03     74.0828E-03     69.2260E-03    -133.792E-03     69.1488E-03    -133.715E-03     74.0828E-03    -1.69574E-03     449.505E-03    -224.659E-03    -224.846E-03    -224.722E-03     449.455E-03    -224.733E-03     11.3504E-03    -78.0058E+06    -123.480E+06    -226.960E+06    -123.567E+06    -226.873E+06    -78.0058E+06     2.80702E+06         56.5880
            1724     4.79462E-03     136.474E-03     72.9286E-03     65.7892E-03    -129.212E-03     65.7623E-03    -129.185E-03     72.9286E-03     3.02817E-03     449.870E-03    -224.859E-03    -225.011E-03    -224.902E-03     449.778E-03    -224.876E-03     15.5705E-03    -55.7784E+06    -113.706E+06    -201.413E+06    -113.788E+06    -201.331E+06    -55.7784E+06     2.61513E+06         56.8964
            1725     5.59329E-03     136.492E-03     71.5482E-03     61.8965E-03    -124.264E-03     61.8865E-03    -124.254E-03     71.5482E-03     942.674E-06     450.236E-03    -225.017E-03    -225.220E-03    -225.067E-03     450.084E-03    -225.017E-03     20.1540E-03    -35.3888E+06    -103.795E+06    -177.481E+06    -103.872E+06    -177.404E+06    -35.3888E+06     2.19406E+06         57.2570
            1726     6.39184E-03     136.518E-03     69.9439E-03     57.3420E-03    -118.504E-03     57.3255E-03    -118.487E-03     69.9439E-03     2.10365E-03     450.507E-03    -225.124E-03    -225.384E-03    -225.143E-03     450.273E-03    -225.130E-03     25.0428E-03    -17.8423E+06    -93.3274E+06    -149.015E+06    -93.4301E+06    -148.912E+06    -17.8423E+06     2.09594E+06         57.6650
            1727     7.19051E-03     136.552E-03     68.1290E-03     52.5617E-03    -112.226E-03     52.5411E-03    -112.206E-03     68.1290E-03     887.097E-06     450.824E-03    -225.218E-03    -225.606E-03    -225.260E-03     450.484E-03    -225.225E-03     30.2111E-03    -1.48961E+06    -82.5630E+06    -117.292E+06    -82.9238E+06    -116.931E+06    -1.48961E+06     2.77820E+06         58.1127
            1728     7.98906E-03     136.594E-03     66.1267E-03     47.3396E-03    -105.226E-03     47.3119E-03    -105.198E-03     66.1267E-03     1.23326E-03     451.212E-03    -225.312E-03    -225.900E-03    -225.430E-03     450.742E-03    -225.312E-03     35.5704E-03     15.0127E+06    -66.5411E+06    -86.1726E+06    -72.9126E+06    -79.8011E+06     15.0127E+06     4.48098E+06         58.5898
            1729     8.78717E-03     136.644E-03     63.9437E-03     41.7337E-03    -97.6923E-03     41.6945E-03    -97.6531E-03     63.9437E-03     404.552E-06     451.587E-03    -225.391E-03    -226.195E-03    -225.559E-03     450.950E-03    -225.391E-03     41.4094E-03     32.5032E+06    -31.1429E+06    -65.3094E+06    -63.4016E+06    -33.0506E+06     32.5032E+06     6.88045E+06         59.0831
            1730     9.58500E-03     136.704E-03     61.5813E-03     35.6312E-03    -89.6749E-03     35.5895E-03    -89.6331E-03     61.5813E-03     314.454E-06     451.837E-03    -225.453E-03    -226.384E-03    -225.538E-03     450.992E-03    -225.453E-03     47.7444E-03     54.9149E+06     28.4378E+06    -55.6501E+06    -54.3402E+06     29.6439E+06     52.3989E+06     10.3301E+06         59.5771
            1731     10.3830E-03     136.773E-03     59.0451E-03     29.2542E-03    -81.3851E-03     29.2146E-03    -81.3455E-03     59.0451E-03     681.000E-06     452.105E-03    -225.514E-03    -226.591E-03    -225.490E-03     451.003E-03    -225.514E-03     54.5151E-03     81.1809E+06     70.6814E+06    -46.5303E+06    -45.2767E+06     79.9273E+06     70.6814E+06     12.4269E+06         60.0549
            1732     11.1819E-03     136.853E-03     56.3537E-03     22.8909E-03    -72.9078E-03     22.8193E-03    -72.8362E-03     56.3537E-03     1.45256E-03     452.927E-03    -225.630E-03    -227.296E-03    -225.839E-03     451.469E-03    -225.630E-03     62.7399E-03     101.447E+06     91.0779E+06    -36.8498E+06    -35.9367E+06     100.357E+06     91.2546E+06     10.9070E+06         60.4995
            1733     11.9795E-03     136.945E-03     53.5420E-03     16.6065E-03    -64.2530E-03     16.5250E-03    -64.1714E-03     53.5420E-03     1.27968E-03     453.662E-03    -225.786E-03    -227.876E-03    -226.133E-03     451.919E-03    -225.786E-03     68.8336E-03     117.046E+06     110.365E+06    -27.2484E+06    -26.7431E+06     112.068E+06     114.838E+06     8.09561E+06         60.8949
            1734     12.7771E-03     137.042E-03     50.6125E-03     10.2735E-03    -55.3918E-03     10.2060E-03    -55.3243E-03     50.6125E-03     345.668E-06     454.092E-03    -225.883E-03    -228.209E-03    -225.514E-03     451.396E-03    -225.883E-03     84.4096E-03     131.438E+06     119.254E+06    -17.3240E+06    -17.0371E+06     118.967E+06     131.438E+06     5.96766E+06         61.2285
            1735     13.5753E-03     137.177E-03     47.5836E-03     3.86260E-03    -46.4722E-03     3.75671E-03    -46.3663E-03     47.5836E-03    -75.4808E-06     453.407E-03    -225.775E-03    -227.632E-03    -224.652E-03     450.514E-03    -225.862E-03     87.9380E-03     137.321E+06     126.889E+06    -8.15320E+06    -8.02701E+06     126.763E+06     137.321E+06     3.66925E+06         61.4915
            1736     800.038E-06     138.016E-03     149.632E-03    -12.0317E-03    -127.491E-03     146.704E-03    -125.625E-03    -10.9703E-03     10.3037E-03     447.172E-03    -223.508E-03    -223.664E-03    -223.613E-03     447.171E-03    -223.557E-03     1.89055E-03    -147.801E+06    -152.552E+06    -311.916E+06    -151.403E+06    -311.890E+06    -148.976E+06    -259.623E+03         55.8216
            1737     1.59964E-03     138.015E-03     67.5228E-03     66.2525E-03    -123.940E-03     65.7736E-03    -123.386E-03     67.4475E-03     824.932E-06     447.485E-03    -223.668E-03    -223.817E-03    -223.800E-03     447.482E-03    -223.681E-03     3.04295E-03    -138.244E+06    -148.512E+06    -298.604E+06    -148.524E+06    -298.592E+06    -138.244E+06    -796.847E+03         55.9095
            1738     2.39925E-03     138.016E-03     66.7953E-03     65.0508E-03    -122.580E-03     64.9209E-03    -122.375E-03     66.7200E-03     875.257E-06     447.868E-03    -223.837E-03    -224.031E-03    -224.020E-03     447.857E-03    -223.837E-03     5.28753E-03    -122.225E+06    -141.995E+06    -279.259E+06    -142.013E+06    -279.240E+06    -122.225E+06    -363.974E+03         56.0525
            1739     3.19895E-03     138.020E-03     65.9906E-03     62.8762E-03    -119.440E-03     62.7800E-03    -119.344E-03     65.9906E-03     301.289E-06     448.306E-03    -224.018E-03    -224.288E-03    -224.261E-03     448.279E-03    -224.018E-03     8.39561E-03    -101.581E+06    -133.198E+06    -254.906E+06    -133.215E+06    -254.888E+06    -101.581E+06     781.321E+03         56.2520
            1740     3.99793E-03     138.027E-03     65.1010E-03     60.8208E-03    -116.309E-03     60.7696E-03    -116.258E-03     65.1010E-03     1.39081E-03     448.811E-03    -224.212E-03    -224.599E-03    -224.543E-03     448.755E-03    -224.212E-03     12.1056E-03    -79.9051E+06    -124.321E+06    -227.923E+06    -124.341E+06    -227.903E+06    -79.9051E+06     1.24432E+06         56.5084
            1741     4.79684E-03     138.040E-03     64.0549E-03     57.8244E-03    -112.270E-03     57.7664E-03    -112.212E-03     64.0549E-03     2.63088E-03     449.337E-03    -224.416E-03    -224.921E-03    -224.821E-03     449.237E-03    -224.416E-03     16.2797E-03    -57.8294E+06    -114.529E+06    -201.787E+06    -114.570E+06    -201.747E+06    -57.8294E+06     1.61731E+06         56.8209
            1742     5.59554E-03     138.060E-03     62.7886E-03     54.2327E-03    -107.812E-03     54.1811E-03    -107.760E-03     62.7886E-03     2.82832E-03     449.903E-03    -224.622E-03    -225.281E-03    -225.120E-03     449.743E-03    -224.622E-03     20.6892E-03    -36.3249E+06    -104.123E+06    -176.797E+06    -104.156E+06    -176.763E+06    -36.3249E+06     1.43324E+06         57.1869
            1743     6.39399E-03     138.087E-03     61.3031E-03     50.1263E-03    -102.588E-03     50.0778E-03    -102.540E-03     61.3031E-03     2.64566E-03     450.461E-03    -224.811E-03    -225.650E-03    -225.409E-03     450.221E-03    -224.811E-03     25.3679E-03    -17.7804E+06    -94.2158E+06    -149.042E+06    -94.2320E+06    -149.025E+06    -17.7804E+06     889.195E+03         57.6017
            1744     7.19217E-03     138.121E-03     59.6175E-03     45.7957E-03    -96.8646E-03     45.7465E-03    -96.8154E-03     59.6175E-03     2.51680E-03     450.847E-03    -224.974E-03    -225.873E-03    -225.531E-03     450.505E-03    -224.974E-03     30.2918E-03    -1.86865E+06    -84.6359E+06    -118.812E+06    -84.6857E+06    -118.762E+06    -1.86865E+06     960.646E+03         58.0579
            1745     7.99034E-03     138.163E-03     57.7524E-03     41.0872E-03    -90.5023E-03     41.0331E-03    -90.4483E-03     57.7524E-03     2.45034E-03     451.104E-03    -225.105E-03    -225.999E-03    -225.530E-03     450.636E-03    -225.105E-03     35.4988E-03     13.6537E+06    -71.6066E+06    -87.4208E+06    -74.7473E+06    -84.2802E+06     13.6537E+06     1.89492E+06         58.5451
            1746     8.78873E-03     138.214E-03     55.7170E-03     36.0886E-03    -83.6896E-03     36.0298E-03    -83.6307E-03     55.7170E-03     2.09463E-03     451.349E-03    -225.206E-03    -226.142E-03    -225.506E-03     450.712E-03    -225.206E-03     41.3946E-03     30.4495E+06    -39.5317E+06    -65.6830E+06    -64.6118E+06    -40.6028E+06     30.4495E+06     4.62054E+06         59.0498
            1747     9.58720E-03     138.275E-03     53.5146E-03     30.6170E-03    -76.4575E-03     30.5618E-03    -76.4023E-03     53.5146E-03     1.62554E-03     451.484E-03    -225.272E-03    -226.212E-03    -225.357E-03     450.629E-03    -225.272E-03     47.9938E-03     50.1501E+06     19.0693E+06    -55.7365E+06    -54.5076E+06     18.4345E+06     49.5560E+06     9.49067E+06         59.5561
            1748     10.3857E-03     138.344E-03     51.1489E-03     24.9218E-03    -68.9840E-03     24.8678E-03    -68.9300E-03     51.1489E-03     1.88888E-03     451.596E-03    -225.313E-03    -226.283E-03    -225.144E-03     450.457E-03    -225.313E-03     55.3815E-03     81.7337E+06     65.2888E+06    -46.6664E+06    -45.3384E+06     77.3710E+06     68.3235E+06     12.6511E+06         60.0465
            1749     11.1835E-03     138.424E-03     48.6351E-03     19.2779E-03    -61.3623E-03     19.1934E-03    -61.2778E-03     48.6351E-03     2.23167E-03     452.010E-03    -225.388E-03    -226.622E-03    -225.048E-03     450.436E-03    -225.388E-03     65.0196E-03     107.067E+06     89.0631E+06    -37.4371E+06    -36.5632E+06     106.193E+06     89.0631E+06     10.8175E+06         60.5031
            1750     11.9818E-03     138.518E-03     46.0085E-03     13.7335E-03    -53.6237E-03     13.6391E-03    -53.5293E-03     46.0085E-03     1.90242E-03     452.817E-03    -225.506E-03    -227.312E-03    -225.379E-03     450.884E-03    -225.506E-03     72.3304E-03     118.075E+06     111.098E+06    -27.9429E+06    -27.4738E+06     115.817E+06     112.887E+06     7.86813E+06         60.9092
            1751     12.7807E-03     138.612E-03     43.2758E-03     8.21800E-03    -45.7540E-03     8.14527E-03    -45.6812E-03     43.2758E-03     820.484E-06     454.206E-03    -225.613E-03    -228.593E-03    -225.848E-03     451.461E-03    -225.613E-03     85.5806E-03     130.932E+06     122.179E+06    -19.2611E+06    -19.0008E+06     121.919E+06     130.932E+06     5.22852E+06         61.2509
            1752     13.5824E-03     138.745E-03     40.4616E-03     2.70646E-03    -37.9052E-03     2.59013E-03    -37.7889E-03     40.4616E-03     244.629E-06     453.831E-03    -225.647E-03    -228.184E-03    -225.357E-03     451.004E-03    -225.647E-03     87.0147E-03     138.860E+06     131.171E+06    -9.82838E+06    -9.73759E+06     131.396E+06     138.544E+06     2.70485E+06         61.5189
            1753     800.660E-06     139.577E-03     131.112E-03    -9.51721E-03    -110.565E-03     121.869E-03    -101.851E-03    -8.98849E-03     37.7302E-03     445.603E-03    -222.736E-03    -222.867E-03    -222.829E-03     445.601E-03    -222.772E-03     1.96676E-03    -150.210E+06    -156.736E+06    -311.021E+06    -155.602E+06    -310.980E+06    -151.386E+06     448.325E+03         55.7242
            1754     1.60119E-03     139.578E-03     57.6519E-03     55.4889E-03    -103.073E-03     54.3573E-03    -100.307E-03     56.0176E-03    -7.74542E-03     446.120E-03    -222.939E-03    -223.182E-03    -223.177E-03     446.115E-03    -222.939E-03     3.51531E-03    -138.966E+06    -150.633E+06    -296.678E+06    -150.642E+06    -296.669E+06    -138.966E+06    -525.252E+03         55.8130
            1755     2.40103E-03     139.579E-03     55.9592E-03     54.2912E-03    -100.307E-03     53.8240E-03    -99.2131E-03     55.3325E-03     6.24320E-03     446.785E-03    -223.177E-03    -223.608E-03    -223.594E-03     446.771E-03    -223.177E-03     5.91516E-03    -121.690E+06    -144.011E+06    -278.873E+06    -144.037E+06    -278.846E+06    -121.690E+06    -1.60158E+06         55.9576
            1756     3.20050E-03     139.584E-03     54.6894E-03     52.3691E-03    -97.1286E-03     51.8858E-03    -96.6452E-03     54.6894E-03    -1.13384E-03     447.390E-03    -223.428E-03    -223.963E-03    -223.931E-03     447.359E-03    -223.428E-03     9.03147E-03    -102.655E+06    -135.497E+06    -256.098E+06    -135.536E+06    -256.060E+06    -102.655E+06    -1.49867E+06         56.1595
            1757     4.00017E-03     139.593E-03     53.8855E-03     50.3460E-03    -94.1644E-03     50.0979E-03    -93.9163E-03     53.8855E-03     4.08482E-03     448.093E-03    -223.685E-03    -224.409E-03    -224.347E-03     448.032E-03    -223.685E-03     12.7102E-03    -81.2862E+06    -125.623E+06    -229.164E+06    -125.647E+06    -229.140E+06    -81.2862E+06    -667.480E+03         56.4194
            1758     4.79909E-03     139.607E-03     52.9488E-03     47.8117E-03    -90.5825E-03     47.6382E-03    -90.4089E-03     52.9488E-03     2.60962E-03     448.857E-03    -223.954E-03    -224.903E-03    -224.796E-03     448.750E-03    -223.954E-03     16.8214E-03    -59.8023E+06    -115.407E+06    -202.919E+06    -115.418E+06    -202.907E+06    -59.8023E+06    -180.868E+03         56.7366
            1759     5.59772E-03     139.628E-03     51.8258E-03     44.7021E-03    -86.7475E-03     44.5615E-03    -86.6070E-03     51.8258E-03     4.45004E-03     449.611E-03    -224.225E-03    -225.386E-03    -225.216E-03     449.441E-03    -224.225E-03     21.3101E-03    -38.6438E+06    -104.998E+06    -176.156E+06    -105.010E+06    -176.144E+06    -38.6438E+06     99.0539E+03         57.1088
            1760     6.39595E-03     139.655E-03     50.5014E-03     41.0963E-03    -82.2314E-03     40.9880E-03    -82.1231E-03     50.5014E-03     3.41672E-03     450.348E-03    -224.489E-03    -225.860E-03    -225.606E-03     450.095E-03    -224.489E-03     26.0516E-03    -18.2663E+06    -94.7051E+06    -148.186E+06    -94.7183E+06    -148.172E+06    -18.2663E+06    -82.5299E+03         57.5315
            1761     7.19381E-03     139.690E-03     48.9928E-03     37.3486E-03    -77.2158E-03     37.2459E-03    -77.1130E-03     48.9928E-03     4.14068E-03     450.871E-03    -224.721E-03    -226.151E-03    -225.794E-03     450.515E-03    -224.721E-03     30.9635E-03    -1.00450E+06    -84.6829E+06    -119.631E+06    -84.6919E+06    -119.622E+06    -1.00450E+06    -190.216E+03         57.9973
            1762     7.99190E-03     139.733E-03     47.3222E-03     33.3165E-03    -71.6818E-03     33.2154E-03    -71.5807E-03     47.3222E-03     3.72398E-03     451.117E-03    -224.901E-03    -226.217E-03    -225.731E-03     450.632E-03    -224.901E-03     36.1505E-03     13.8718E+06    -73.9556E+06    -88.0366E+06    -75.2096E+06    -86.7825E+06     13.8718E+06     260.845E+03         58.4958
            1763     8.79005E-03     139.784E-03     45.4983E-03     29.0413E-03    -65.7869E-03     28.9393E-03    -65.6850E-03     45.4983E-03     3.70563E-03     451.173E-03    -225.028E-03    -226.145E-03    -225.500E-03     450.527E-03    -225.028E-03     41.7027E-03     29.1520E+06    -47.0645E+06    -65.5325E+06    -65.2161E+06    -47.3809E+06     29.1520E+06     1.91081E+06         59.0134
            1764     9.58857E-03     139.844E-03     43.5223E-03     24.3311E-03    -59.5271E-03     24.2403E-03    -59.4362E-03     43.5223E-03     2.97356E-03     451.067E-03    -225.097E-03    -225.970E-03    -225.125E-03     450.222E-03    -225.097E-03     47.6974E-03     46.0693E+06     5.75533E+06    -55.9538E+06    -55.2086E+06     5.01016E+06     46.0693E+06     6.45300E+06         59.5336
            1765     10.3876E-03     139.913E-03     41.3965E-03     19.4256E-03    -53.0552E-03     19.3353E-03    -52.9649E-03     41.3965E-03     3.14960E-03     450.714E-03    -225.048E-03    -225.666E-03    -224.500E-03     449.612E-03    -225.111E-03     54.4356E-03     82.3601E+06     57.6724E+06    -46.0242E+06    -44.9682E+06     72.5919E+06     66.3846E+06     10.8732E+06         60.0383
            1766     11.1879E-03     139.993E-03     39.1340E-03     14.6398E-03    -46.4979E-03     14.5191E-03    -46.3773E-03     39.1340E-03     3.08894E-03     450.439E-03    -224.943E-03    -225.496E-03    -223.800E-03     448.929E-03    -225.129E-03     63.4933E-03     111.387E+06     88.8058E+06    -36.2330E+06    -35.3363E+06     110.490E+06     88.8058E+06     10.9715E+06         60.5088
            1767     11.9891E-03     140.086E-03     36.7656E-03     10.0021E-03    -39.8805E-03     9.87294E-03    -39.7513E-03     36.7656E-03     2.58282E-03     451.035E-03    -225.043E-03    -225.992E-03    -223.934E-03     449.110E-03    -225.176E-03     71.9540E-03     121.041E+06     112.180E+06    -26.8881E+06    -26.3263E+06     119.913E+06     112.746E+06     8.51951E+06         60.9271
            1768     12.7870E-03     140.187E-03     34.2952E-03     5.40796E-03    -33.1881E-03     5.30961E-03    -33.0898E-03     34.2952E-03     1.36591E-03     453.714E-03    -225.239E-03    -228.475E-03    -225.553E-03     450.802E-03    -225.249E-03     87.9228E-03     133.835E+06     126.906E+06    -18.4107E+06    -18.1326E+06     128.318E+06     132.145E+06     5.54570E+06         61.2783
            1769     13.5790E-03     140.318E-03     31.7684E-03     972.847E-06    -26.6561E-03     817.395E-06    -26.5007E-03     31.7684E-03     640.515E-06     454.818E-03    -225.327E-03    -229.491E-03    -226.455E-03     451.782E-03    -225.327E-03     90.1361E-03     140.523E+06     135.210E+06    -9.40262E+06    -9.30041E+06     135.747E+06     139.883E+06     2.39953E+06         61.5523
            1770     801.002E-06     141.136E-03     118.699E-03    -10.9789E-03    -95.9021E-03     97.2535E-03    -74.4568E-03    -10.9789E-03     54.6500E-03     444.197E-03    -221.899E-03    -222.298E-03    -222.295E-03     444.195E-03    -221.899E-03     2.53643E-03    -153.736E+06    -162.025E+06    -311.721E+06    -159.127E+06    -311.688E+06    -156.668E+06     941.312E+03         55.6114
            1771     1.60194E-03     141.137E-03     49.1646E-03     42.7960E-03    -80.8565E-03     41.5727E-03    -73.2645E-03     42.7960E-03    -12.7863E-03     444.756E-03    -222.241E-03    -222.515E-03    -222.508E-03     444.749E-03    -222.241E-03     4.12514E-03    -142.502E+06    -154.246E+06    -294.275E+06    -154.249E+06    -294.272E+06    -142.502E+06    -22.7854E+03         55.7014
            1772     2.40259E-03     141.141E-03     44.1106E-03     41.8360E-03    -75.1150E-03     40.7392E-03    -72.1198E-03     42.2123E-03     10.3598E-03     445.550E-03    -222.511E-03    -223.040E-03    -223.022E-03     445.533E-03    -222.511E-03     6.68174E-03    -123.544E+06    -147.677E+06    -275.195E+06    -147.702E+06    -275.170E+06    -123.544E+06    -1.36279E+06         55.8481
            1773     3.20270E-03     141.146E-03     41.6112E-03     40.5044E-03    -71.2254E-03     39.2328E-03    -69.9539E-03     41.6112E-03    -1.48069E-03     446.502E-03    -222.831E-03    -223.671E-03    -223.632E-03     446.463E-03    -222.831E-03     9.98161E-03    -102.713E+06    -139.241E+06    -254.213E+06    -139.321E+06    -254.133E+06    -102.713E+06    -2.90122E+06         56.0533
            1774     4.00197E-03     141.157E-03     40.8989E-03     38.3668E-03    -68.2814E-03     37.7120E-03    -67.6266E-03     40.8989E-03     6.47740E-03     447.439E-03    -223.166E-03    -224.272E-03    -224.200E-03     447.366E-03    -223.166E-03     13.7733E-03    -82.0470E+06    -128.834E+06    -229.685E+06    -128.965E+06    -229.554E+06    -82.0470E+06    -3.28002E+06         56.3176
            1775     4.80112E-03     141.172E-03     40.0783E-03     36.1478E-03    -65.1522E-03     35.7612E-03    -64.7656E-03     40.0783E-03     3.24410E-03     448.376E-03    -223.502E-03    -224.874E-03    -224.755E-03     448.257E-03    -223.502E-03     17.7739E-03    -61.4088E+06    -117.950E+06    -202.965E+06    -118.119E+06    -202.797E+06    -61.4088E+06    -3.12819E+06         56.6406
            1776     5.59978E-03     141.194E-03     39.1082E-03     33.5773E-03    -61.9084E-03     33.2693E-03    -61.6005E-03     39.1082E-03     6.09243E-03     449.252E-03    -223.832E-03    -225.420E-03    -225.235E-03     449.067E-03    -223.832E-03     22.2180E-03    -40.6590E+06    -106.563E+06    -176.087E+06    -106.786E+06    -175.863E+06    -40.6590E+06    -3.10390E+06         57.0204
            1777     6.39805E-03     141.224E-03     37.9676E-03     30.5799E-03    -58.1524E-03     30.3518E-03    -57.9243E-03     37.9676E-03     4.58114E-03     449.961E-03    -224.138E-03    -225.822E-03    -225.551E-03     449.690E-03    -224.138E-03     26.9400E-03    -20.5796E+06    -95.0710E+06    -148.537E+06    -95.2667E+06    -148.341E+06    -20.5796E+06    -2.63583E+06         57.4526
            1778     7.19630E-03     141.259E-03     36.6708E-03     27.5549E-03    -54.0719E-03     27.3344E-03    -53.8514E-03     36.6708E-03     5.91177E-03     450.587E-03    -224.410E-03    -226.176E-03    -225.798E-03     450.208E-03    -224.410E-03     31.8790E-03    -1.98448E+06    -84.3302E+06    -120.465E+06    -84.4848E+06    -120.310E+06    -1.98448E+06    -1.90489E+06         57.9300
            1779     7.99404E-03     141.303E-03     35.2390E-03     24.3210E-03    -49.5650E-03     24.1055E-03    -49.3494E-03     35.2390E-03     5.26723E-03     451.026E-03    -224.635E-03    -226.391E-03    -225.883E-03     450.518E-03    -224.635E-03     37.0116E-03     14.4207E+06    -73.3927E+06    -89.0048E+06    -74.0761E+06    -88.3214E+06     14.4207E+06    -1.05092E+06         58.4419
            1780     8.79206E-03     141.353E-03     33.6779E-03     20.8697E-03    -44.7188E-03     20.6516E-03    -44.5007E-03     33.6779E-03     5.48817E-03     451.146E-03    -224.802E-03    -226.344E-03    -225.674E-03     450.475E-03    -224.802E-03     42.4956E-03     28.9308E+06    -50.6492E+06    -66.6267E+06    -65.0618E+06    -52.2141E+06     28.9308E+06     623.321E+03         58.9745
            1781     9.59029E-03     141.413E-03     31.9842E-03     17.0383E-03    -39.5591E-03     16.8352E-03    -39.3560E-03     31.9842E-03     4.55839E-03     451.056E-03    -224.903E-03    -226.153E-03    -225.285E-03     450.188E-03    -224.903E-03     48.3702E-03     43.9401E+06    -4.95760E+06    -56.6108E+06    -56.3334E+06    -5.23497E+06     43.9401E+06     3.33835E+06         59.5107
            1782     10.3889E-03     141.482E-03     30.1602E-03     13.0720E-03    -34.2893E-03     12.8681E-03    -34.0854E-03     30.1602E-03     4.58955E-03     450.693E-03    -224.872E-03    -225.821E-03    -224.671E-03     449.606E-03    -224.935E-03     54.1029E-03     79.1405E+06     48.7546E+06    -47.2382E+06    -46.7626E+06     64.4828E+06     62.9367E+06     6.92725E+06         60.0315
            1783     11.1882E-03     141.559E-03     28.2175E-03     9.28955E-03    -29.0320E-03     9.03904E-03    -28.7815E-03     28.2175E-03     4.10189E-03     450.535E-03    -224.785E-03    -225.750E-03    -224.173E-03     449.143E-03    -224.971E-03     61.1327E-03     110.165E+06     84.4781E+06    -37.2335E+06    -36.5787E+06     109.510E+06     84.4781E+06     9.53002E+06         60.5173
            1784     11.9877E-03     141.652E-03     26.1827E-03     5.67793E-03    -23.7451E-03     5.42847E-03    -23.4957E-03     26.1827E-03     3.39404E-03     450.052E-03    -224.583E-03    -225.469E-03    -223.344E-03     448.367E-03    -225.023E-03     67.2862E-03     123.463E+06     108.823E+06    -28.2009E+06    -27.6175E+06     122.879E+06     108.823E+06     8.85898E+06         60.9492
            1785     12.7907E-03     141.754E-03     24.0472E-03     2.20020E-03    -18.4212E-03     1.95703E-03    -18.1781E-03     24.0472E-03     1.95558E-03     450.895E-03    -224.627E-03    -226.268E-03    -223.183E-03     448.220E-03    -225.037E-03     83.4847E-03     138.984E+06     131.446E+06    -18.0182E+06    -17.7290E+06     136.958E+06     133.183E+06     6.01819E+06         61.3118
            1786     13.5966E-03     141.893E-03     21.8620E-03    -763.443E-06    -13.6351E-03    -1.42602E-03    -12.9725E-03     21.8620E-03     966.817E-06     453.152E-03    -224.946E-03    -228.206E-03    -225.240E-03     450.279E-03    -225.038E-03     87.2207E-03     143.684E+06     140.929E+06    -7.91016E+06    -7.80737E+06     141.794E+06     142.717E+06     2.58325E+06         61.5934
            1787     802.019E-06     142.693E-03     108.902E-03    -15.1832E-03    -80.7254E-03     72.4718E-03    -44.2949E-03    -15.1832E-03     64.2458E-03     442.776E-03    -221.117E-03    -221.659E-03    -221.656E-03     442.773E-03    -221.117E-03     2.99529E-03    -157.312E+06    -164.462E+06    -312.168E+06    -161.537E+06    -312.160E+06    -160.244E+06    -445.595E+03         55.4775
            1788     1.60316E-03     142.695E-03     42.1522E-03     28.3562E-03    -58.0800E-03     27.4005E-03    -43.3282E-03     28.3562E-03    -14.8123E-03     443.279E-03    -221.509E-03    -221.770E-03    -221.760E-03     443.269E-03    -221.509E-03     5.01289E-03    -147.725E+06    -157.814E+06    -292.662E+06    -157.823E+06    -292.652E+06    -147.725E+06    -529.600E+03         55.5693
            1789     2.40419E-03     142.700E-03     32.7465E-03     27.8139E-03    -48.4520E-03     26.4842E-03    -42.2174E-03     27.8417E-03     13.1672E-03     444.192E-03    -221.790E-03    -222.402E-03    -222.377E-03     444.166E-03    -221.790E-03     8.09894E-03    -126.986E+06    -150.902E+06    -271.543E+06    -150.921E+06    -271.524E+06    -126.986E+06    -1.34209E+06         55.7191
            1790     3.20454E-03     142.708E-03     28.3169E-03     27.0749E-03    -43.2841E-03     25.2868E-03    -40.4645E-03     27.2855E-03    -670.728E-06     445.458E-03    -222.168E-03    -223.290E-03    -223.240E-03     445.407E-03    -222.168E-03     11.4857E-03    -103.601E+06    -141.959E+06    -249.375E+06    -142.060E+06    -249.275E+06    -103.601E+06    -2.98653E+06         55.9286
            1791     4.00440E-03     142.720E-03     27.1850E-03     25.2335E-03    -40.0966E-03     24.2000E-03    -38.5469E-03     26.6688E-03     8.53818E-03     446.665E-03    -222.587E-03    -224.078E-03    -223.989E-03     446.576E-03    -222.587E-03     15.2958E-03    -81.3787E+06    -131.742E+06    -226.591E+06    -132.026E+06    -226.306E+06    -81.3787E+06    -4.99717E+06         56.1989
            1792     4.80347E-03     142.737E-03     25.9798E-03     23.6099E-03    -37.2415E-03     22.6895E-03    -36.3211E-03     25.9798E-03     4.45333E-03     447.758E-03    -222.991E-03    -224.767E-03    -224.624E-03     447.614E-03    -222.991E-03     19.4944E-03    -61.4072E+06    -120.521E+06    -200.907E+06    -121.047E+06    -200.381E+06    -61.4072E+06    -6.24199E+06         56.5296
            1793     5.60197E-03     142.761E-03     25.1687E-03     21.5096E-03    -34.5908E-03     20.7435E-03    -33.8246E-03     25.1687E-03     7.98806E-03     448.723E-03    -223.369E-03    -225.354E-03    -225.140E-03     448.509E-03    -223.369E-03     23.8778E-03    -42.8192E+06    -109.226E+06    -175.046E+06    -109.984E+06    -174.288E+06    -42.8192E+06    -6.77480E+06         56.9192
            1794     6.40044E-03     142.791E-03     24.2255E-03     19.2060E-03    -31.6132E-03     18.6008E-03    -31.0079E-03     24.2255E-03     6.17590E-03     449.457E-03    -223.713E-03    -225.744E-03    -225.443E-03     449.156E-03    -223.713E-03     28.3980E-03    -24.6983E+06    -98.0307E+06    -149.899E+06    -99.0213E+06    -148.908E+06    -24.6983E+06    -6.56486E+06         57.3633
            1795     7.19860E-03     142.828E-03     23.1632E-03     16.9751E-03    -28.5670E-03     16.3431E-03    -27.9350E-03     23.1632E-03     7.88823E-03     450.000E-03    -224.010E-03    -225.990E-03    -225.578E-03     449.588E-03    -224.010E-03     33.2557E-03    -6.28852E+06    -86.3454E+06    -122.282E+06    -87.4931E+06    -121.134E+06    -6.28852E+06    -5.68510E+06         57.8549
            1796     7.99684E-03     142.872E-03     21.9938E-03     14.6670E-03    -25.2550E-03     13.9367E-03    -24.5247E-03     21.9938E-03     7.21339E-03     450.409E-03    -224.252E-03    -226.157E-03    -225.604E-03     449.857E-03    -224.252E-03     38.5300E-03     11.0034E+06    -74.8113E+06    -92.6796E+06    -76.2661E+06    -91.2248E+06     11.0034E+06    -4.06762E+06         58.3831
            1797     8.79480E-03     142.923E-03     20.7233E-03     12.1977E-03    -21.6195E-03     11.4043E-03    -20.8261E-03     20.7233E-03     7.62374E-03     450.675E-03    -224.437E-03    -226.238E-03    -225.507E-03     449.944E-03    -224.437E-03     44.3569E-03     27.0812E+06    -52.9950E+06    -69.2456E+06    -65.6353E+06    -56.6053E+06     27.0812E+06    -1.73630E+06         58.9336
            1798     9.59313E-03     142.983E-03     19.3474E-03     9.57923E-03    -17.9204E-03     8.57688E-03    -16.9180E-03     19.3474E-03     6.52217E-03     450.788E-03    -224.562E-03    -226.226E-03    -225.270E-03     449.832E-03    -224.562E-03     50.7183E-03     43.3497E+06    -11.1187E+06    -55.5183E+06    -55.2522E+06    -11.3848E+06     43.3497E+06     957.509E+03         59.4887
            1799     10.3917E-03     143.051E-03     17.8650E-03     6.88631E-03    -14.1997E-03     5.64568E-03    -12.9591E-03     17.8650E-03     6.27598E-03     450.962E-03    -224.632E-03    -226.330E-03    -225.112E-03     449.743E-03    -224.632E-03     57.2444E-03     73.0096E+06     43.1006E+06    -46.0919E+06    -45.7935E+06     54.2270E+06     61.5848E+06     5.32535E+06         60.0284
            1800     11.1898E-03     143.129E-03     16.2843E-03     5.12054E-03    -11.2786E-03     2.88424E-03    -9.04225E-03     16.2843E-03     5.34369E-03     451.475E-03    -224.708E-03    -226.767E-03    -225.159E-03     449.867E-03    -224.708E-03     65.6519E-03     106.083E+06     80.1819E+06    -38.2715E+06    -37.7268E+06     105.539E+06     80.1819E+06     8.76606E+06         60.5317
            1801     11.9876E-03     143.222E-03     14.6375E-03     4.55537E-03    -9.38849E-03     395.121E-06    -5.22824E-03     14.6375E-03     4.33864E-03     451.328E-03    -224.519E-03    -226.808E-03    -224.615E-03     449.442E-03    -224.827E-03     71.2133E-03     127.102E+06     103.687E+06    -29.2653E+06    -28.8070E+06     126.644E+06     103.687E+06     7.87628E+06         60.9789
            1802     12.7865E-03     143.314E-03     13.6124E-03     3.33577E-03    -7.36351E-03    -1.86360E-03    -1.45773E-03     12.9060E-03     2.62316E-03     451.787E-03    -224.525E-03    -227.262E-03    -224.036E-03     448.961E-03    -224.925E-03     85.8177E-03     143.008E+06     131.739E+06    -17.9265E+06    -17.7295E+06     142.811E+06     131.739E+06     4.73751E+06         61.3535
            1803     13.5836E-03     143.458E-03     13.5065E-03     2.04930E-03    -6.23632E-03    -4.00859E-03     2.20050E-03     11.1276E-03     1.33615E-03     451.516E-03    -224.547E-03    -226.968E-03    -223.661E-03     448.589E-03    -224.928E-03     87.5576E-03      147.17E+06     144.371E+06    -8.20136E+06    -8.15874E+06     147.076E+06     144.422E+06     1.74367E+06         61.6436
            1804     801.848E-06     144.248E-03     100.315E-03    -21.0647E-03    -64.5823E-03     47.8838E-03    -12.1512E-03    -21.0647E-03     66.1284E-03     441.018E-03    -220.344E-03    -220.673E-03    -220.665E-03     441.012E-03    -220.347E-03     3.69072E-03    -160.680E+06    -167.599E+06    -311.073E+06    -165.084E+06    -311.044E+06    -163.223E+06    -1.57996E+06         55.3158
            1805     1.60449E-03     144.250E-03     39.1271E-03     13.1301E-03    -38.5358E-03     12.2100E-03    -11.6187E-03     13.1301E-03    -14.4897E-03     441.475E-03    -220.614E-03    -220.860E-03    -220.842E-03     441.458E-03    -220.617E-03     6.24588E-03    -151.682E+06    -161.724E+06    -290.112E+06    -161.739E+06    -290.098E+06    -151.682E+06    -1.28815E+06         55.4104
            1806     2.40635E-03     144.257E-03     26.2732E-03     12.6699E-03    -25.1779E-03     11.7031E-03    -10.6078E-03     12.6699E-03     14.8568E-03     442.594E-03    -220.910E-03    -221.685E-03    -221.646E-03     442.556E-03    -220.910E-03     9.93679E-03    -131.273E+06    -154.469E+06    -268.108E+06    -154.528E+06    -268.050E+06    -131.273E+06    -2.22214E+06         55.5645
            1807     3.20720E-03     144.267E-03     20.1270E-03     12.2176E-03    -18.7374E-03     10.7287E-03    -9.33919E-03     12.2176E-03     817.318E-06     444.008E-03    -221.333E-03    -222.675E-03    -222.602E-03     443.935E-03    -221.333E-03     13.7124E-03    -107.308E+06    -144.926E+06    -243.911E+06    -145.104E+06    -243.733E+06    -107.308E+06    -3.86540E+06         55.7802
            1808     4.00705E-03     144.281E-03     17.3935E-03     11.2377E-03    -14.8015E-03     9.96751E-03    -7.84965E-03     11.7119E-03     10.3237E-03     445.465E-03    -221.814E-03    -223.651E-03    -223.531E-03     445.345E-03    -221.814E-03     17.7188E-03    -83.0403E+06    -133.940E+06    -220.512E+06    -134.390E+06    -220.061E+06    -83.0403E+06    -5.96972E+06         56.0587
            1809     4.80654E-03     144.301E-03     15.8405E-03     10.4493E-03    -12.2981E-03     9.04295E-03    -6.21946E-03     11.1682E-03     6.02014E-03     446.746E-03    -222.288E-03    -224.458E-03    -224.275E-03     446.563E-03    -222.288E-03     22.0135E-03     -61.477E+06    -122.735E+06    -196.534E+06    -123.641E+06    -195.628E+06     -61.477E+06    -7.89514E+06         56.3998
            1810     5.60564E-03     144.326E-03     15.8728E-03     9.24372E-03    -11.3838E-03     7.66472E-03    -4.47434E-03     10.5423E-03     9.86927E-03     447.782E-03    -222.720E-03    -225.063E-03    -224.800E-03     447.520E-03    -222.720E-03     26.4360E-03    -42.7741E+06    -111.294E+06    -172.324E+06    -112.766E+06    -170.852E+06    -42.7741E+06    -9.14159E+06         56.8022
            1811     6.40396E-03     144.357E-03     15.5059E-03     7.95771E-03    -10.0072E-03     6.19088E-03    -2.54944E-03     9.81492E-03     8.06496E-03     448.580E-03    -223.098E-03    -225.483E-03    -225.120E-03     448.218E-03    -223.098E-03     31.1252E-03    -25.7928E+06    -99.3367E+06    -149.017E+06    -101.589E+06    -146.764E+06    -25.7928E+06    -10.0373E+06         57.2615
            1812     7.20235E-03     144.395E-03     16.0001E-03     6.70021E-03    -9.41906E-03     4.68211E-03    -400.599E-06     8.99976E-03     10.0308E-03     449.031E-03    -223.409E-03    -225.622E-03    -225.135E-03     448.545E-03    -223.409E-03     36.0843E-03    -9.64567E+06    -87.3893E+06    -124.426E+06    -90.6357E+06    -121.179E+06    -9.64567E+06    -10.0831E+06         57.7708
            1813     8.00102E-03     144.439E-03     16.0950E-03     5.42568E-03    -8.35010E-03     3.11320E-03     1.95084E-03     8.10650E-03     9.44230E-03     449.288E-03    -223.652E-03    -225.636E-03    -224.995E-03     448.647E-03    -223.652E-03     41.4359E-03     6.61120E+06    -74.5425E+06    -98.5625E+06    -79.7469E+06    -93.3581E+06     6.61120E+06    -9.11535E+06         58.3190
            1814     8.80013E-03     144.491E-03     16.4809E-03     4.05639E-03    -7.42986E-03     1.52523E-03     4.44144E-03     7.14072E-03     9.96722E-03     449.612E-03    -223.836E-03    -225.776E-03    -224.941E-03     448.778E-03    -223.836E-03     47.3256E-03     23.3566E+06    -54.0948E+06    -74.8857E+06    -68.4041E+06    -60.5764E+06     23.3566E+06    -7.33381E+06         58.8911
            1815     9.59904E-03     144.551E-03     16.5526E-03     2.68264E-03    -6.36400E-03    -260.251E-06     7.03193E-03     6.09957E-03     8.75124E-03     449.985E-03    -223.974E-03    -226.011E-03    -224.937E-03     448.912E-03    -223.974E-03     53.7085E-03     40.6726E+06    -17.1749E+06    -58.0668E+06    -56.8847E+06    -18.3570E+06     40.6726E+06    -3.91010E+06         59.4685
            1816     10.3983E-03     144.619E-03     16.7721E-03     1.25193E-03    -5.54293E-03    -2.11203E-03     9.61539E-03     4.97773E-03     8.17470E-03     450.476E-03    -224.075E-03    -226.401E-03    -225.038E-03     449.113E-03    -224.075E-03     60.5865E-03     62.9027E+06     36.6880E+06    -46.2860E+06    -45.8595E+06     39.8610E+06     59.3030E+06     2.59406E+06         60.0302
            1817     11.1976E-03     144.699E-03     16.7659E-03     607.884E-06    -5.23244E-03    -3.74623E-03     12.1065E-03     3.78112E-03     6.83673E-03     451.160E-03    -224.165E-03    -226.994E-03    -225.231E-03     449.396E-03    -224.165E-03     68.8954E-03     103.191E+06     77.1141E+06    -36.3977E+06    -35.9183E+06     101.717E+06     78.1083E+06     7.95743E+06         60.5539
            1818     11.9974E-03     144.791E-03     16.7502E-03     1.06627E-03    -5.91668E-03    -5.05031E-03     14.4055E-03     2.54462E-03     5.42716E-03     452.196E-03    -224.337E-03    -227.859E-03    -225.794E-03     450.131E-03    -224.337E-03     74.8178E-03     135.143E+06     102.380E+06    -26.4630E+06    -26.1289E+06     134.809E+06     102.380E+06     6.66685E+06         61.0185
            1819     12.7952E-03     144.887E-03     17.2190E-03     736.875E-06    -6.24234E-03    -6.06663E-03     16.5295E-03     1.25061E-03     3.39851E-03     453.918E-03    -224.572E-03    -229.345E-03    -226.225E-03     450.797E-03    -224.572E-03     90.8431E-03     145.967E+06     130.536E+06    -17.1326E+06    -17.0424E+06     145.877E+06     130.536E+06     3.52448E+06         61.4064
            1820     13.5953E-03     145.029E-03     18.6276E-03    -60.2076E-06    -7.06048E-03    -6.89194E-03     18.4590E-03    -60.2076E-06     1.86010E-03     452.736E-03    -224.412E-03    -228.324E-03    -224.856E-03     449.556E-03    -224.700E-03     91.6741E-03     149.788E+06     145.039E+06    -8.80368E+06    -8.76000E+06     149.745E+06     145.039E+06     1.74693E+06         61.7050
            1821     803.659E-06     145.799E-03     95.7998E-03    -29.4114E-03    -50.2159E-03     24.8324E-03     20.7516E-03    -29.4114E-03     61.9051E-03     438.225E-03    -218.861E-03    -219.364E-03    -219.352E-03     438.215E-03    -218.863E-03     5.00948E-03    -161.951E+06    -168.832E+06    -306.057E+06    -166.373E+06    -305.972E+06    -164.495E+06    -2.91227E+06         55.1196
            1822     1.60645E-03     145.802E-03     46.1559E-03    -2.45814E-03    -28.2028E-03    -2.88244E-03     20.8355E-03    -2.45814E-03    -12.3153E-03     439.203E-03    -219.303E-03    -219.900E-03    -219.869E-03     439.174E-03    -219.306E-03     8.40897E-03    -152.212E+06    -162.013E+06    -286.711E+06    -162.130E+06    -286.594E+06    -152.212E+06    -3.19730E+06         55.2179
            1823     2.40869E-03     145.811E-03     34.6675E-03    -2.76855E-03    -16.5474E-03    -3.46129E-03     21.5813E-03    -2.76855E-03     15.7364E-03     440.434E-03    -219.705E-03    -220.729E-03    -220.666E-03     440.372E-03    -219.705E-03     12.5538E-03    -133.566E+06    -154.719E+06    -264.315E+06    -154.862E+06    -264.172E+06    -133.566E+06    -3.73320E+06         55.3781
            1824     3.21047E-03     145.824E-03     29.6691E-03    -3.11166E-03    -11.2114E-03    -3.90842E-03     22.3661E-03    -3.11166E-03     2.78692E-03     441.828E-03    -220.169E-03    -221.659E-03    -221.549E-03     441.717E-03    -220.169E-03     16.8345E-03    -110.039E+06    -145.730E+06    -238.772E+06    -145.996E+06    -238.506E+06    -110.039E+06    -4.81331E+06         55.6025
            1825     4.01158E-03     145.841E-03     27.6043E-03    -3.46874E-03    -8.59634E-03    -4.34689E-03     23.3548E-03    -3.46874E-03     11.9658E-03     443.458E-03    -220.679E-03    -222.780E-03    -222.605E-03     443.283E-03    -220.679E-03     21.3732E-03    -85.1816E+06    -135.613E+06    -213.378E+06    -136.267E+06    -212.725E+06    -85.1816E+06    -6.79701E+06         55.8922
            1826     4.81137E-03     145.862E-03     26.7647E-03    -3.84303E-03    -7.16352E-03    -4.71967E-03     24.3209E-03    -3.84303E-03     7.96708E-03     444.991E-03    -221.208E-03    -223.783E-03    -223.528E-03     444.736E-03    -221.208E-03     25.9109E-03    -61.3321E+06    -123.757E+06    -189.950E+06    -125.189E+06    -188.519E+06    -61.3321E+06    -9.30726E+06         56.2473
            1827     5.61061E-03     145.889E-03     27.5191E-03    -4.26234E-03    -7.66814E-03    -5.48474E-03     25.3357E-03    -4.26234E-03     11.6938E-03     446.133E-03    -221.695E-03    -224.438E-03    -224.086E-03     445.782E-03    -221.695E-03     30.4962E-03    -41.0662E+06    -111.237E+06    -168.118E+06    -113.676E+06    -165.680E+06    -41.0662E+06    -11.2750E+06         56.6663
            1828     6.41008E-03     145.922E-03     27.8123E-03    -4.75739E-03    -7.74779E-03    -6.38034E-03     26.4448E-03    -4.75739E-03     10.2274E-03     446.957E-03    -222.106E-03    -224.852E-03    -224.385E-03     446.491E-03    -222.106E-03     35.2212E-03    -24.5816E+06    -99.0851E+06    -146.139E+06    -102.845E+06    -142.380E+06    -24.5816E+06    -12.4248E+06         57.1452
            1829     7.20926E-03     145.960E-03     29.2213E-03    -5.31704E-03    -8.72539E-03    -7.17662E-03     27.6726E-03    -5.31704E-03     12.3550E-03     447.584E-03    -222.446E-03    -225.138E-03    -224.537E-03     446.983E-03    -222.446E-03     40.0616E-03    -9.41881E+06    -86.2905E+06    -124.121E+06    -92.3688E+06    -118.042E+06    -9.41881E+06    -13.4331E+06         57.6765
            1830     8.00848E-03     146.004E-03     30.1785E-03    -5.92513E-03    -9.08432E-03    -7.87860E-03     28.9728E-03    -5.92513E-03     11.9047E-03     448.164E-03    -222.729E-03    -225.435E-03    -224.673E-03     447.402E-03    -222.729E-03     45.1520E-03     5.70149E+06    -71.2475E+06    -102.372E+06    -81.5108E+06    -92.1083E+06     5.70149E+06    -14.0214E+06         58.2487
            1831     8.80769E-03     146.057E-03     31.5365E-03    -6.57765E-03    -9.79897E-03    -8.57010E-03     30.3077E-03    -6.57765E-03     12.4435E-03     448.824E-03    -222.973E-03    -225.851E-03    -224.908E-03     447.882E-03    -222.973E-03     50.3107E-03     21.2079E+06    -51.6247E+06    -81.6518E+06    -70.6498E+06    -62.6267E+06     21.2079E+06    -13.2889E+06         58.8462
            1832     9.60709E-03     146.117E-03     32.4471E-03    -7.27881E-03    -10.1831E-03    -9.34287E-03     31.6069E-03    -7.27881E-03     11.1159E-03     449.617E-03    -223.191E-03    -226.426E-03    -225.279E-03     448.470E-03    -223.191E-03     55.5644E-03     37.0699E+06    -21.5806E+06    -63.6658E+06    -59.5977E+06    -25.6487E+06     37.0699E+06    -10.4582E+06         59.4494
            1833     10.4060E-03     146.187E-03     33.5225E-03    -7.94467E-03    -10.9106E-03    -10.0933E-03     32.7931E-03    -8.03259E-03     10.2556E-03     450.528E-03    -223.396E-03    -227.132E-03    -225.745E-03     449.141E-03    -223.396E-03     61.1889E-03     54.3442E+06     23.8138E+06    -49.0664E+06    -48.1609E+06     22.9084E+06     54.3442E+06    -3.96679E+06         60.0359
            1834     11.2044E-03     146.267E-03     34.2481E-03    -8.45927E-03    -11.3761E-03    -10.5626E-03     33.8077E-03    -8.83241E-03     8.53688E-03     451.438E-03    -223.582E-03    -227.856E-03    -226.160E-03     449.742E-03    -223.582E-03     67.6987E-03     100.840E+06     67.8838E+06    -36.9718E+06    -36.7216E+06     94.0471E+06     74.4264E+06     2.92049E+06         60.5824
            1835     12.0020E-03     146.360E-03     34.8890E-03    -8.66522E-03    -11.9657E-03    -10.6566E-03     34.5614E-03    -9.64664E-03     6.67670E-03     452.433E-03    -223.836E-03    -228.596E-03    -226.643E-03     450.479E-03    -223.836E-03     72.8276E-03     139.894E+06     98.9619E+06    -26.7074E+06    -26.5594E+06     139.746E+06     98.9619E+06     4.71625E+06         61.0666
            1836     12.7991E-03     146.460E-03     35.2144E-03    -8.71695E-03    -12.3342E-03    -10.4544E-03     35.1050E-03    -10.4873E-03     4.27665E-03     453.711E-03    -224.157E-03    -229.553E-03    -226.710E-03     450.867E-03    -224.157E-03     87.0554E-03     148.019E+06     127.461E+06    -17.5601E+06    -17.4481E+06     147.907E+06     127.461E+06     3.85108E+06         61.4696
            1837     13.5959E-03     146.594E-03     35.4405E-03    -8.73298E-03    -12.7038E-03    -10.0436E-03     35.3587E-03    -11.3113E-03     2.35568E-03     453.610E-03    -224.393E-03    -229.216E-03    -226.320E-03     450.713E-03    -224.393E-03     87.9633E-03     153.074E+06     146.166E+06    -8.81320E+06    -8.74343E+06     153.004E+06     146.166E+06     2.74897E+06         61.7778
            1838     805.208E-06     147.344E-03     98.0583E-03    -34.9606E-03    -45.3115E-03     3.07879E-03     52.9134E-03    -38.2061E-03     54.8563E-03     434.280E-03    -216.860E-03    -217.420E-03    -217.403E-03     434.263E-03    -216.860E-03     6.22621E-03    -160.753E+06    -166.525E+06    -296.505E+06    -165.596E+06    -296.418E+06    -161.769E+06    -2.21648E+06         54.8826
            1839     1.60954E-03     147.351E-03     64.1365E-03    -17.6652E-03    -29.1968E-03    -17.7619E-03     52.7016E-03    -17.6652E-03    -8.83067E-03     435.575E-03    -217.386E-03    -218.189E-03    -218.139E-03     435.525E-03    -217.386E-03     11.0166E-03    -149.477E+06    -160.282E+06    -281.395E+06    -160.493E+06    -281.185E+06    -149.477E+06    -4.92257E+06         54.9860
            1840     2.41307E-03     147.362E-03     57.9184E-03    -17.8691E-03    -23.0665E-03    -18.3134E-03     53.1652E-03    -17.8691E-03     16.1272E-03     437.005E-03    -217.863E-03    -219.142E-03    -219.036E-03     436.900E-03    -217.863E-03     16.2925E-03    -131.712E+06    -153.254E+06    -260.407E+06    -153.591E+06    -260.070E+06    -131.712E+06    -5.75081E+06         55.1546
            1841     3.21593E-03     147.376E-03     55.4379E-03    -18.1077E-03    -20.2583E-03    -18.2571E-03     53.4367E-03    -18.1077E-03     5.42278E-03     438.619E-03    -218.384E-03    -220.235E-03    -220.055E-03     438.439E-03    -218.384E-03     21.4474E-03    -109.169E+06    -144.061E+06    -234.042E+06    -144.533E+06    -233.570E+06    -109.169E+06    -6.24850E+06         55.3906
            1842     4.01789E-03     147.396E-03     55.2761E-03    -18.0836E-03    -19.8141E-03    -18.1953E-03     53.8774E-03    -18.3037E-03     13.7232E-03     440.374E-03    -218.947E-03    -221.426E-03    -221.156E-03     440.103E-03    -218.947E-03     26.4634E-03    -84.0041E+06    -133.867E+06    -206.243E+06    -134.675E+06    -205.435E+06    -84.0041E+06    -7.37577E+06         55.6952
            1843     4.81928E-03     147.421E-03     55.0303E-03    -18.2752E-03    -19.2024E-03    -18.1798E-03     54.2278E-03    -18.4953E-03     10.4328E-03     442.113E-03    -219.526E-03    -222.587E-03    -222.214E-03     441.740E-03    -219.526E-03     31.2401E-03    -59.9232E+06    -122.562E+06    -181.860E+06    -124.276E+06    -180.147E+06    -59.9232E+06    -9.65342E+06         56.0685
            1844     5.61990E-03     147.449E-03     55.4668E-03    -18.5110E-03    -19.5165E-03    -18.4380E-03     54.5943E-03    -18.7170E-03     13.9159E-03     443.680E-03    -220.087E-03    -223.593E-03    -223.106E-03     443.194E-03    -220.087E-03     35.8373E-03    -38.9101E+06    -110.365E+06    -161.569E+06    -113.660E+06    -158.275E+06    -38.9101E+06    -12.2865E+06         56.5090
            1845     6.41975E-03     147.483E-03     55.6458E-03    -18.6681E-03    -19.6812E-03    -18.6597E-03     54.9419E-03    -18.9858E-03     12.8891E-03     444.983E-03    -220.597E-03    -224.386E-03    -223.778E-03     444.375E-03    -220.597E-03     40.1771E-03    -21.8944E+06    -97.4922E+06    -141.883E+06    -103.254E+06    -136.121E+06    -21.8944E+06    -14.5112E+06         57.0121
            1846     7.21958E-03     147.522E-03     56.1031E-03    -18.8221E-03    -20.0682E-03    -18.7669E-03     55.2699E-03    -19.2903E-03     15.0357E-03     446.249E-03    -221.059E-03    -225.191E-03    -224.457E-03     445.516E-03    -221.059E-03     44.2631E-03    -6.88403E+06    -83.1621E+06    -121.658E+06    -92.4723E+06    -112.348E+06    -6.88403E+06    -16.0967E+06         57.5701
            1847     8.01896E-03     147.568E-03     56.3599E-03    -18.8426E-03    -20.2569E-03    -18.6910E-03     55.5697E-03    -19.6183E-03     14.7907E-03     447.591E-03    -221.496E-03    -226.096E-03    -225.226E-03     446.721E-03    -221.496E-03     48.3325E-03     7.22938E+06    -67.1965E+06    -103.001E+06    -82.3046E+06    -87.8932E+06     7.22938E+06    -17.1706E+06         58.1708
            1848     8.81762E-03     147.622E-03     56.6268E-03    -18.7755E-03    -20.5003E-03    -18.4888E-03     55.8027E-03    -19.9630E-03     15.2313E-03     448.909E-03    -221.916E-03    -226.993E-03    -225.969E-03     447.885E-03    -221.916E-03     52.5378E-03     20.6430E+06    -49.0443E+06    -85.7066E+06    -72.4628E+06    -62.2881E+06     20.6430E+06    -17.1411E+06         58.7977
            1849     9.61534E-03     147.684E-03     56.5500E-03    -18.6381E-03    -20.6401E-03    -18.2980E-03     55.8978E-03    -20.3279E-03     13.7581E-03     450.277E-03    -222.321E-03    -227.956E-03    -226.749E-03     449.070E-03    -222.321E-03     57.1235E-03     34.8166E+06    -22.3290E+06    -69.4993E+06    -62.3826E+06    -29.4457E+06     34.8166E+06    -15.6459E+06         59.4303
            1850     10.4125E-03     147.755E-03     56.3261E-03    -18.3766E-03    -20.8878E-03    -17.9806E-03     55.7580E-03    -20.7156E-03     12.5799E-03     451.627E-03    -222.715E-03    -228.913E-03    -227.486E-03     450.201E-03    -222.715E-03     62.1912E-03     49.8785E+06     12.7620E+06    -54.1810E+06    -51.3440E+06     9.92494E+06     49.8785E+06    -11.8073E+06         60.0450
            1851     11.2090E-03     147.837E-03     55.7102E-03    -17.7042E-03    -21.1178E-03    -17.3251E-03     55.3311E-03    -21.1178E-03     10.4280E-03     452.746E-03    -223.069E-03    -229.677E-03    -227.939E-03     451.009E-03    -223.069E-03     68.6649E-03     93.5339E+06     55.6919E+06    -40.6643E+06    -39.9529E+06     79.3950E+06     69.1194E+06     -4.2887E+06         60.6174
            1852     12.0055E-03     147.932E-03     54.8692E-03    -16.5464E-03    -21.5051E-03    -16.2793E-03     54.6021E-03    -21.5051E-03     8.14962E-03     453.387E-03    -223.438E-03    -229.949E-03    -227.962E-03     451.401E-03    -223.438E-03     73.5630E-03     136.094E+06     93.1308E+06    -29.8000E+06    -29.7222E+06     136.016E+06     93.1308E+06     1.95640E+06         61.1238
            1853     12.8027E-03     148.031E-03     53.7409E-03    -15.0267E-03    -21.8857E-03    -14.9206E-03     53.6348E-03    -21.8857E-03     5.36073E-03     454.059E-03    -223.825E-03    -230.234E-03    -227.430E-03     451.254E-03    -223.825E-03     86.6115E-03     149.856E+06     119.343E+06    -20.0197E+06    -19.9262E+06     149.763E+06     119.343E+06     3.41091E+06         61.5443
            1854     13.6013E-03     148.166E-03     52.3938E-03    -13.3687E-03    -22.2266E-03    -13.3086E-03     52.3337E-03    -22.2266E-03     2.93167E-03     453.962E-03    -224.145E-03    -229.817E-03    -226.912E-03     451.056E-03    -224.145E-03     88.3732E-03     157.128E+06     143.779E+06    -8.84380E+06    -8.78745E+06     156.375E+06     144.476E+06     1.95487E+06         61.8640
            1855     806.977E-06     148.884E-03     106.993E-03    -38.1418E-03    -49.4479E-03    -17.0024E-03     82.7690E-03    -46.3637E-03     45.8068E-03     429.056E-03    -214.407E-03    -214.650E-03    -214.614E-03     429.028E-03    -214.413E-03     8.03812E-03    -159.718E+06    -164.707E+06    -288.653E+06    -163.538E+06    -288.618E+06    -160.922E+06    -1.15337E+06         54.6007
            1856     1.61371E-03     148.892E-03     87.6097E-03    -31.8071E-03    -37.0994E-03    -31.9706E-03     82.4809E-03    -31.8071E-03    -4.65157E-03     430.061E-03    -214.725E-03    -215.337E-03    -215.257E-03     429.981E-03    -214.725E-03     13.9065E-03    -145.351E+06    -159.242E+06    -272.753E+06    -159.405E+06    -272.590E+06    -145.351E+06    -3.87638E+06         54.7107
            1857     2.41979E-03     148.905E-03     84.8895E-03    -31.8940E-03    -34.3105E-03    -32.0510E-03     82.7144E-03    -31.9784E-03     16.4411E-03     431.739E-03    -215.170E-03    -216.568E-03    -216.401E-03     431.571E-03    -215.170E-03     20.4350E-03    -125.598E+06    -151.694E+06    -253.646E+06    -152.143E+06    -253.196E+06    -125.598E+06    -6.56443E+06         54.8901
            1858     3.22462E-03     148.923E-03     83.5374E-03    -32.0236E-03    -32.8162E-03    -31.7773E-03     82.5829E-03    -32.1080E-03     8.53350E-03     433.858E-03    -215.745E-03    -218.114E-03    -217.833E-03     433.578E-03    -215.745E-03     26.7526E-03    -104.440E+06    -142.049E+06    -229.455E+06    -142.792E+06    -228.712E+06    -104.440E+06    -7.92793E+06         55.1410
            1859     4.02834E-03     148.946E-03     83.4241E-03    -31.6185E-03    -32.7678E-03    -31.3609E-03     82.5823E-03    -32.1836E-03     15.8209E-03     436.075E-03    -216.404E-03    -219.672E-03    -219.265E-03     435.668E-03    -216.404E-03     32.4177E-03    -80.9376E+06    -130.928E+06    -201.140E+06    -131.935E+06    -200.133E+06    -80.9376E+06    -8.22791E+06         55.4645
            1860     4.83105E-03     148.973E-03     83.0394E-03    -31.4172E-03    -32.3142E-03    -30.9196E-03     82.4571E-03    -32.2294E-03     13.4693E-03     438.341E-03    -217.106E-03    -221.235E-03    -220.701E-03     437.806E-03    -217.106E-03     37.3323E-03    -56.8202E+06    -119.641E+06    -173.869E+06    -121.427E+06    -172.083E+06    -56.8202E+06    -9.35458E+06         55.8606
            1861     5.63266E-03     149.005E-03     82.9370E-03    -31.3194E-03    -32.3658E-03    -30.7136E-03     82.2464E-03    -32.2810E-03     16.6883E-03     440.716E-03    -217.830E-03    -222.886E-03    -222.228E-03     440.058E-03    -217.830E-03     41.6199E-03    -34.8846E+06    -107.115E+06    -152.273E+06    -110.913E+06    -148.475E+06    -34.8846E+06    -12.1858E+06         56.3274
            1862     6.43332E-03     149.041E-03     82.5299E-03    -30.9650E-03    -32.3513E-03    -30.3220E-03     81.8868E-03    -32.3513E-03     16.1697E-03     443.140E-03    -218.562E-03    -224.578E-03    -223.801E-03     442.363E-03    -218.562E-03     45.4080E-03    -16.8802E+06    -93.3788E+06    -134.717E+06    -100.159E+06    -127.937E+06    -16.8802E+06    -15.0846E+06         56.8599
            1863     7.23259E-03     149.083E-03     82.2051E-03    -30.5201E-03    -32.4259E-03    -29.7499E-03     81.4349E-03    -32.4259E-03     18.2849E-03     445.546E-03    -219.289E-03    -226.257E-03    -225.365E-03     444.654E-03    -219.289E-03     48.8426E-03    -2.60278E+06    -78.9337E+06    -117.018E+06    -90.2617E+06    -105.690E+06    -2.60278E+06    -16.9735E+06         57.4497
            1864     8.03049E-03     149.132E-03     81.6225E-03    -29.7508E-03    -32.4965E-03    -28.9789E-03     80.8507E-03    -32.4965E-03     18.1864E-03     447.764E-03    -220.011E-03    -227.754E-03    -226.748E-03     446.759E-03    -220.011E-03     52.0121E-03     10.2498E+06    -62.9065E+06    -100.312E+06    -80.9712E+06    -82.2468E+06     10.2498E+06    -18.3663E+06         58.0839
            1865     8.82761E-03     149.187E-03     80.8502E-03    -28.7303E-03    -32.5532E-03    -27.9284E-03     80.0483E-03    -32.5532E-03     18.4784E-03     449.676E-03    -220.711E-03    -228.964E-03    -227.828E-03     448.539E-03    -220.711E-03     55.4341E-03     22.7108E+06     -44.988E+06    -85.9749E+06    -71.6846E+06    -59.2783E+06     22.7108E+06    -19.2328E+06         58.7453
            1866     9.62433E-03     149.252E-03     79.6954E-03    -27.4713E-03    -32.5962E-03    -26.7993E-03     79.0234E-03    -32.5962E-03     16.8547E-03     451.316E-03    -221.363E-03    -229.952E-03    -228.638E-03     450.001E-03    -221.363E-03     59.7256E-03     35.3827E+06    -20.4692E+06    -71.3795E+06    -62.1321E+06    -29.7166E+06     35.3827E+06    -18.8504E+06         59.4124
            1867     10.4201E-03     149.326E-03     78.2688E-03    -26.0917E-03    -32.6294E-03    -25.5167E-03     77.6938E-03    -32.6294E-03     15.2424E-03     452.685E-03    -221.961E-03    -230.725E-03    -229.182E-03     451.142E-03    -221.961E-03     64.8132E-03     48.2704E+06     8.82755E+06    -57.9838E+06    -53.0476E+06     3.89131E+06     48.2704E+06    -16.9094E+06         60.0607
            1868     11.2158E-03     149.409E-03     76.4137E-03    -24.2668E-03    -32.6471E-03    -23.8684E-03     76.0153E-03    -32.6471E-03     12.6246E-03     453.711E-03    -222.471E-03    -231.240E-03    -229.358E-03     451.829E-03    -222.471E-03     71.5805E-03     80.3510E+06     48.0795E+06    -45.0269E+06    -43.0565E+06     62.6328E+06     63.8272E+06    -11.3251E+06         60.6640
            1869     12.0113E-03     149.505E-03     74.2408E-03    -22.0729E-03    -32.6225E-03    -21.8014E-03     73.9694E-03    -32.6225E-03     9.88748E-03     454.308E-03    -222.942E-03    -231.366E-03    -229.227E-03     452.169E-03    -222.942E-03     76.4525E-03     125.632E+06     86.5240E+06    -32.0717E+06    -31.7787E+06     125.339E+06     86.5240E+06    -3.37278E+06         61.1972
            1870     12.8063E-03     149.603E-03     71.6891E-03    -19.4825E-03    -32.5613E-03    -19.3615E-03     71.5681E-03    -32.5613E-03     6.61943E-03     455.302E-03    -223.415E-03    -231.887E-03    -228.980E-03     452.395E-03    -223.415E-03     88.4833E-03     151.376E+06     112.095E+06    -20.5287E+06    -20.4486E+06     151.296E+06     112.095E+06    -878.093E+03         61.6386
            1871     13.6027E-03     149.735E-03     68.8239E-03    -16.6529E-03    -32.4370E-03    -16.5984E-03     68.7694E-03    -32.4370E-03     3.59407E-03     455.275E-03    -223.869E-03    -231.405E-03    -228.469E-03     452.339E-03    -223.869E-03     88.9718E-03     158.147E+06     140.070E+06    -9.08494E+06    -9.05026E+06     156.733E+06      141.45E+06    -836.241E+03         61.9722
            1872     809.847E-06     150.414E-03     121.054E-03    -44.5044E-03    -56.0119E-03    -33.8675E-03     109.402E-03    -54.9969E-03     36.5284E-03     421.785E-03    -210.757E-03    -211.028E-03    -210.977E-03     421.741E-03    -210.763E-03     10.0178E-03    -157.299E+06    -162.245E+06    -284.431E+06    -162.071E+06    -284.417E+06    -157.488E+06    -663.146E+03         54.2725
            1873     1.61959E-03     150.423E-03     111.337E-03    -44.4933E-03    -46.7295E-03    -44.3875E-03     108.995E-03    -44.4933E-03    -423.483E-06     422.831E-03    -211.073E-03    -211.758E-03    -211.634E-03     422.707E-03    -211.073E-03     17.1926E-03    -142.629E+06    -156.327E+06    -264.498E+06    -156.410E+06    -264.415E+06    -142.629E+06    -2.49230E+06         54.3907
            1874     2.42849E-03     150.439E-03     110.166E-03    -44.3044E-03    -45.7862E-03    -44.3940E-03     109.035E-03    -44.5650E-03     16.8350E-03     424.854E-03    -211.567E-03    -213.287E-03    -213.035E-03     424.602E-03    -211.567E-03     24.9414E-03    -119.719E+06    -148.530E+06    -243.680E+06    -148.874E+06    -243.336E+06    -119.719E+06    -5.35497E+06         54.5832
            1875     3.23616E-03     150.461E-03     109.358E-03    -44.3611E-03    -44.8149E-03    -43.9575E-03     108.761E-03    -44.6217E-03     11.7720E-03     427.560E-03    -212.259E-03    -215.301E-03    -214.895E-03     427.154E-03    -212.259E-03     32.0305E-03    -95.8689E+06    -138.546E+06    -223.263E+06    -139.281E+06    -222.528E+06    -95.8689E+06    -7.72481E+06         54.8521
            1876     4.04222E-03     150.487E-03     109.139E-03    -43.8724E-03    -44.8168E-03    -43.4083E-03     108.482E-03    -44.6236E-03     18.0829E-03     430.614E-03    -213.071E-03    -217.543E-03    -216.971E-03     430.042E-03    -213.071E-03     38.2626E-03    -74.1086E+06    -127.182E+06    -196.439E+06    -128.505E+06    -195.116E+06    -74.1086E+06    -9.16986E+06         55.1984
            1877     4.84655E-03     150.519E-03     108.503E-03    -43.1051E-03    -44.5752E-03    -42.5447E-03     107.943E-03    -44.5752E-03     16.8688E-03     433.971E-03    -213.983E-03    -219.988E-03    -219.255E-03     433.238E-03    -213.983E-03     43.5794E-03    -52.0028E+06    -114.400E+06    -167.503E+06    -116.660E+06    -165.243E+06    -52.0028E+06    -10.4772E+06         55.6217
            1878     5.64916E-03     150.555E-03     107.922E-03    -42.4953E-03    -44.4905E-03    -41.8103E-03     107.237E-03    -44.4905E-03     19.7968E-03     437.599E-03    -214.990E-03    -222.609E-03    -221.737E-03     436.727E-03    -214.990E-03     47.8227E-03    -30.1440E+06    -101.676E+06    -143.669E+06    -105.566E+06    -139.779E+06    -30.1440E+06    -11.8736E+06         56.1196
            1879     6.44961E-03     150.596E-03     107.025E-03    -41.6680E-03    -44.3941E-03    -40.9681E-03     106.325E-03    -44.3941E-03     19.8600E-03     441.392E-03    -216.063E-03    -225.330E-03    -224.335E-03     440.398E-03    -216.063E-03     51.3455E-03    -11.3091E+06    -88.6739E+06    -125.482E+06    -95.4422E+06    -118.714E+06    -11.3091E+06    -14.0395E+06         56.6867
            1880     7.24800E-03     150.643E-03     106.050E-03    -40.6457E-03    -44.2761E-03    -39.8093E-03     105.213E-03    -44.2761E-03     21.9897E-03     444.981E-03    -217.159E-03    -227.821E-03    -226.713E-03     443.872E-03    -217.159E-03     54.4670E-03     3.56629E+06    -73.6571E+06    -109.970E+06    -85.6845E+06    -97.9429E+06     3.56629E+06    -16.6335E+06         57.3141
            1881     8.04490E-03     150.696E-03     104.705E-03    -39.1844E-03    -44.1185E-03    -38.3280E-03     103.849E-03    -44.1185E-03     21.9982E-03     448.085E-03    -218.238E-03    -229.847E-03    -228.628E-03     446.866E-03    -218.238E-03     57.3473E-03     16.0216E+06    -57.4868E+06    -94.5836E+06    -76.1782E+06    -75.8922E+06     16.0216E+06    -18.3630E+06         57.9882
            1882     8.84032E-03     150.755E-03     103.071E-03    -37.4514E-03    -43.9124E-03    -36.5676E-03     102.188E-03    -43.9124E-03     22.1453E-03     450.665E-03    -219.269E-03    -231.396E-03    -230.054E-03     449.324E-03    -219.269E-03     60.3682E-03     27.8476E+06    -39.6474E+06    -81.4374E+06    -67.0577E+06    -54.0271E+06     27.8476E+06    -19.5369E+06         58.6910
            1883     9.63475E-03     150.821E-03     100.960E-03    -35.3881E-03    -43.6595E-03    -34.6252E-03     100.197E-03    -43.6595E-03     20.3291E-03     452.550E-03    -220.212E-03    -232.337E-03    -230.841E-03     451.054E-03    -220.212E-03     63.8790E-03     38.9979E+06    -17.8186E+06     -69.092E+06    -59.0187E+06    -27.8919E+06     38.9979E+06    -19.8446E+06         59.4000
            1884     10.4296E-03     150.897E-03     98.4998E-03    -33.1374E-03    -43.3641E-03    -32.4903E-03     97.8527E-03    -43.3641E-03     18.3133E-03     453.811E-03    -221.049E-03    -232.762E-03    -231.076E-03     452.125E-03    -221.049E-03     67.9267E-03     51.3767E+06     8.57276E+06    -56.9968E+06    -50.8424E+06     2.41837E+06     51.3767E+06    -18.6412E+06         60.0893
            1885     11.2242E-03     150.982E-03     95.6043E-03    -30.4649E-03    -43.0251E-03    -30.0023E-03     95.1416E-03    -43.0251E-03     15.2323E-03     454.636E-03    -221.743E-03    -232.893E-03    -230.910E-03     452.653E-03    -221.743E-03     73.6415E-03     72.8463E+06     46.8060E+06    -45.2630E+06    -42.2642E+06     52.0818E+06     64.5718E+06    -15.4872E+06         60.7310
            1886     12.0193E-03     151.078E-03     92.2787E-03    -27.3529E-03    -42.6216E-03    -27.0459E-03     91.9718E-03    -42.6216E-03     11.9155E-03     455.138E-03    -222.339E-03    -232.799E-03    -230.588E-03     452.927E-03    -222.339E-03     77.8605E-03     115.830E+06     84.2271E+06    -33.0789E+06    -32.0544E+06     114.806E+06     84.2271E+06    -10.9061E+06         61.2977
            1887     12.8150E-03     151.178E-03     88.5115E-03    -23.8104E-03    -42.1595E-03    -23.6625E-03     88.3636E-03    -42.1595E-03     8.05359E-03     456.888E-03    -222.936E-03    -233.952E-03    -230.959E-03     453.896E-03    -222.936E-03     90.0244E-03     148.091E+06     109.549E+06    -21.4342E+06    -21.0354E+06     147.692E+06     109.549E+06    -7.19877E+06         61.7660
            1888     13.6082E-03     151.312E-03     84.3209E-03    -19.9741E-03    -41.6130E-03    -19.9183E-03     84.2651E-03    -41.6130E-03     4.31062E-03     457.851E-03    -223.567E-03    -234.284E-03    -231.301E-03     454.869E-03    -223.567E-03     89.9227E-03     155.686E+06     136.933E+06    -11.2491E+06    -11.1240E+06     152.021E+06     140.472E+06    -3.64064E+06         62.1176
            1889     814.026E-06     151.930E-03     137.269E-03    -53.0902E-03    -62.8064E-03    -47.9933E-03     132.096E-03    -62.7310E-03     28.7835E-03     412.371E-03    -205.861E-03    -206.510E-03    -206.447E-03     412.308E-03    -205.861E-03     11.6901E-03    -155.386E+06    -161.594E+06    -281.754E+06    -159.990E+06    -281.744E+06    -157.001E+06    -314.247E+03         53.9009
            1890     1.62737E-03     151.942E-03     132.666E-03    -55.3359E-03    -56.1480E-03    -55.0478E-03     131.600E-03    -55.3704E-03     3.62071E-03     414.055E-03    -206.443E-03    -207.613E-03    -207.434E-03     413.876E-03    -206.443E-03     20.5065E-03    -141.145E+06    -154.463E+06    -257.664E+06    -154.534E+06    -257.593E+06    -141.145E+06    -2.29997E+06         54.0284
            1891     2.43960E-03     151.961E-03     132.208E-03    -55.0741E-03    -56.0790E-03    -55.1143E-03     131.546E-03    -55.3768E-03     17.3735E-03     416.729E-03    -207.134E-03    -209.595E-03    -209.239E-03     416.373E-03    -207.134E-03     29.4663E-03    -116.554E+06      -145.8E+06    -234.286E+06    -146.083E+06    -234.002E+06    -116.554E+06    -4.69658E+06         54.2358
            1892     3.25008E-03     151.988E-03     131.618E-03    -54.9496E-03    -55.4198E-03    -54.4998E-03     131.143E-03    -55.3943E-03     14.9999E-03     420.209E-03    -208.041E-03    -212.167E-03    -211.604E-03     419.645E-03    -208.041E-03     37.4497E-03    -89.4769E+06    -134.391E+06    -214.884E+06    -135.176E+06    -214.100E+06    -89.4769E+06    -7.60663E+06         54.5251
            1893     4.05861E-03     152.019E-03     131.254E-03    -54.2875E-03    -55.3559E-03    -53.7040E-03     130.645E-03    -55.3304E-03     20.4261E-03     424.367E-03    -209.103E-03    -215.264E-03    -214.487E-03     423.590E-03    -209.103E-03     44.3395E-03    -65.9583E+06    -121.585E+06    -189.654E+06    -123.234E+06    -188.004E+06    -65.9583E+06    -10.1073E+06         54.8973
            1894     4.86483E-03     152.057E-03     130.399E-03    -53.2155E-03    -55.1963E-03    -52.6040E-03     129.787E-03    -55.1963E-03     20.3540E-03     429.127E-03    -210.317E-03    -218.810E-03    -217.833E-03     428.150E-03    -210.317E-03     50.1028E-03    -45.3643E+06    -108.754E+06    -161.535E+06    -111.504E+06    -158.785E+06    -45.3643E+06    -11.5576E+06         55.3515
            1895     5.66808E-03     152.100E-03     129.458E-03    -52.2180E-03    -55.0036E-03    -51.4658E-03     128.706E-03    -55.0036E-03     23.1668E-03     434.299E-03    -211.690E-03    -222.609E-03    -221.468E-03     433.158E-03    -211.690E-03     54.5591E-03    -24.7627E+06    -95.6702E+06    -138.157E+06    -99.8110E+06    -134.016E+06    -24.7627E+06    -12.3994E+06         55.8849
            1896     6.46855E-03     152.148E-03     128.181E-03    -50.9707E-03    -54.7676E-03    -50.1591E-03     127.369E-03    -54.7676E-03     23.7880E-03     439.420E-03    -213.167E-03    -226.253E-03    -224.980E-03     438.147E-03    -213.167E-03     58.0527E-03    -5.11385E+06    -81.7395E+06    -116.997E+06    -88.7183E+06    -110.019E+06    -5.11385E+06    -13.6930E+06         56.4919
            1897     7.26640E-03     152.202E-03     126.670E-03    -49.4568E-03    -54.4779E-03    -48.4960E-03     125.709E-03    -54.4779E-03     25.9219E-03     444.043E-03    -214.673E-03    -229.371E-03    -227.992E-03     442.665E-03    -214.673E-03     60.7866E-03     11.3403E+06    -67.1115E+06    -100.843E+06    -78.5348E+06    -89.4200E+06     11.3403E+06    -15.7737E+06         57.1631
            1898     8.06204E-03     152.260E-03     124.712E-03    -47.4415E-03    -54.1170E-03    -46.4416E-03     123.712E-03    -54.1170E-03     26.1012E-03     448.015E-03    -216.135E-03    -231.880E-03    -230.400E-03     446.535E-03    -216.135E-03     63.2919E-03     24.0687E+06    -51.8742E+06    -87.2060E+06    -69.2622E+06    -69.8180E+06     24.0687E+06    -17.3582E+06         57.8847
            1899     8.85620E-03     152.324E-03     122.412E-03    -45.1133E-03    -53.6777E-03    -44.0854E-03     121.384E-03    -53.6777E-03     26.1427E-03     451.348E-03    -217.515E-03    -233.833E-03    -232.244E-03     449.758E-03    -217.515E-03     65.8641E-03     35.1879E+06    -34.9979E+06    -74.2322E+06    -61.0455E+06    -48.1846E+06     35.1879E+06    -18.2294E+06         58.6376
            1900     9.64927E-03     152.393E-03     119.597E-03    -42.4352E-03    -53.1642E-03    -41.5334E-03     118.695E-03    -53.1642E-03     24.1034E-03     453.910E-03    -218.787E-03    -235.123E-03    -233.408E-03     452.194E-03    -218.787E-03     68.6226E-03     46.1198E+06    -14.1972E+06    -63.0636E+06    -53.5071E+06    -23.7538E+06     46.1198E+06    -19.0224E+06         59.3979
            1901     10.4412E-03     152.471E-03     116.344E-03    -39.4684E-03    -52.5808E-03    -38.7032E-03     115.579E-03    -52.5808E-03     21.7445E-03     455.551E-03    -219.923E-03    -235.628E-03    -233.761E-03     453.684E-03    -219.923E-03     71.6965E-03     57.8239E+06     9.88870E+06    -52.5501E+06    -45.7507E+06     3.08925E+06     57.8239E+06    -19.1428E+06         60.1378
            1902     11.2338E-03     152.556E-03     112.572E-03    -36.0468E-03    -51.9272E-03    -35.4855E-03     112.011E-03    -51.9272E-03     18.1726E-03     456.561E-03    -220.883E-03    -235.679E-03    -233.576E-03     454.458E-03    -220.883E-03     76.1219E-03     74.2185E+06     50.2213E+06    -40.6013E+06    -36.4888E+06     49.1375E+06     71.1897E+06    -18.0081E+06         60.8274
            1903     12.0266E-03     152.653E-03     108.312E-03    -32.1697E-03    -51.1899E-03    -31.8034E-03     107.946E-03    -51.1899E-03     14.2270E-03     457.309E-03    -221.715E-03    -235.594E-03    -233.342E-03     455.057E-03    -221.715E-03     78.8720E-03     111.399E+06     90.8288E+06    -29.0895E+06    -27.1514E+06     109.461E+06     90.8288E+06    -15.7385E+06         61.4366
            1904     12.8192E-03     152.754E-03     103.595E-03    -27.8499E-03    -50.3764E-03    -27.6613E-03     103.407E-03    -50.3764E-03     9.72068E-03     458.959E-03    -222.495E-03    -236.464E-03    -233.520E-03     456.014E-03    -222.495E-03     89.6710E-03     140.337E+06     111.244E+06    -18.6013E+06    -17.8248E+06     139.560E+06     111.244E+06    -10.4253E+06         61.9393
            1905     13.6128E-03     152.892E-03     98.3836E-03    -23.1416E-03    -49.4611E-03    -23.0794E-03     98.3215E-03    -49.4611E-03     5.13718E-03     460.185E-03    -223.286E-03    -236.899E-03    -234.014E-03     457.301E-03    -223.286E-03     88.6917E-03     149.325E+06     131.087E+06    -9.57996E+06    -9.40615E+06     142.465E+06     137.773E+06    -4.89572E+06         62.3149
            1906     818.575E-06     153.431E-03     152.319E-03    -61.8328E-03    -68.6140E-03    -59.8033E-03     150.201E-03    -68.5258E-03     22.1368E-03     401.883E-03    -200.433E-03    -201.450E-03    -201.366E-03     401.800E-03    -200.433E-03     13.2201E-03    -153.977E+06    -158.050E+06    -275.730E+06    -156.348E+06    -275.610E+06    -155.800E+06    -2.88658E+06         53.4931
            1907     1.63614E-03     153.446E-03     150.360E-03    -64.1930E-03    -64.6799E-03    -64.1210E-03     149.836E-03    -64.2275E-03     7.32298E-03     404.249E-03    -201.276E-03    -202.974E-03    -202.735E-03     404.011E-03    -201.276E-03     23.4654E-03    -139.755E+06    -151.499E+06    -250.918E+06    -151.732E+06    -250.685E+06    -139.755E+06    -4.36399E+06         53.6304
            1908     2.45190E-03     153.470E-03     150.186E-03    -63.9966E-03    -64.6296E-03    -63.8795E-03     149.704E-03    -64.2655E-03     18.3284E-03     407.682E-03    -202.178E-03    -205.503E-03    -205.033E-03     407.211E-03    -202.178E-03     33.5547E-03    -114.591E+06    -141.840E+06    -226.762E+06    -142.309E+06    -226.292E+06    -114.591E+06    -6.00950E+06         53.8536
            1909     3.26589E-03     153.502E-03     149.578E-03    -63.5889E-03    -64.2301E-03    -63.1120E-03     149.101E-03    -64.2301E-03     18.2488E-03     412.142E-03    -203.322E-03    -208.820E-03    -208.073E-03     411.395E-03    -203.322E-03     42.7662E-03    -86.8843E+06    -130.040E+06    -204.848E+06    -131.189E+06    -203.698E+06    -86.8843E+06    -8.80637E+06         54.1649
            1910     4.07709E-03     153.541E-03     148.993E-03    -62.6497E-03    -64.0867E-03    -62.0008E-03     148.344E-03    -64.0867E-03     23.1380E-03     417.725E-03    -204.702E-03    -213.023E-03    -211.997E-03     416.699E-03    -204.702E-03     50.6076E-03    -60.2604E+06    -116.393E+06    -181.503E+06    -118.753E+06    -179.143E+06    -60.2604E+06    -11.8190E+06         54.5648
            1911     4.88491E-03     153.587E-03     148.006E-03    -61.4666E-03    -63.8561E-03    -60.7513E-03     147.290E-03    -63.8561E-03     24.0164E-03     424.007E-03    -206.299E-03    -217.708E-03    -216.439E-03     422.737E-03    -206.299E-03     56.8730E-03    -37.3593E+06    -102.013E+06    -156.078E+06    -105.613E+06    -152.479E+06    -37.3593E+06    -13.2901E+06         55.0523
            1912     5.68919E-03     153.639E-03     146.839E-03    -60.2482E-03    -63.5613E-03    -59.3653E-03     145.956E-03    -63.5613E-03     26.9431E-03     430.548E-03    -208.070E-03    -222.478E-03    -221.008E-03     429.078E-03    -208.070E-03     61.7621E-03    -17.4163E+06    -87.9486E+06    -133.316E+06    -93.0012E+06    -128.263E+06    -17.4163E+06    -14.0949E+06         55.6248
            1913     6.48961E-03     153.697E-03     145.266E-03    -58.6197E-03    -63.1990E-03    -57.6386E-03     144.285E-03    -63.1990E-03     28.0678E-03     436.869E-03    -209.948E-03    -226.921E-03    -225.302E-03     435.249E-03    -209.948E-03     65.3650E-03     1.74515E+06    -73.8495E+06    -111.373E+06    -81.1361E+06    -104.086E+06     1.74515E+06    -14.5707E+06         56.2764
            1914     7.28696E-03     153.758E-03     143.392E-03    -56.6971E-03    -62.7526E-03    -55.5514E-03     142.246E-03    -62.7526E-03     30.1835E-03     442.581E-03    -211.850E-03    -230.732E-03    -229.007E-03     440.857E-03    -211.850E-03     67.9387E-03     18.7954E+06    -60.4308E+06    -92.9475E+06    -70.5474E+06    -82.8309E+06     18.7954E+06    -14.9104E+06         56.9978
            1915     8.08183E-03     153.823E-03     141.031E-03    -54.3221E-03    -62.2134E-03    -53.1227E-03     139.832E-03    -62.2134E-03     30.4890E-03     447.598E-03    -213.702E-03    -233.896E-03    -232.087E-03     445.789E-03    -213.702E-03     70.0317E-03     32.2209E+06    -46.7823E+06    -78.8547E+06    -61.5843E+06    -64.0527E+06     32.2209E+06    -15.6844E+06         57.7745
            1916     8.87462E-03     153.892E-03     138.271E-03    -51.5537E-03    -61.5774E-03    -50.3227E-03     137.040E-03    -61.5774E-03     30.4630E-03     451.759E-03    -215.452E-03    -236.307E-03    -234.422E-03     449.874E-03    -215.452E-03     71.8583E-03     43.7455E+06    -29.5993E+06    -65.7944E+06    -53.2308E+06    -42.1629E+06     43.7455E+06    -16.8441E+06         58.5864
            1917     9.66571E-03     153.967E-03     134.961E-03    -48.3694E-03    -60.8452E-03    -47.2748E-03     133.867E-03    -60.8452E-03     28.2187E-03     454.977E-03    -217.068E-03    -237.909E-03    -235.936E-03     453.004E-03    -217.068E-03     73.7717E-03     53.9662E+06    -11.7470E+06    -54.4309E+06    -45.6750E+06    -20.5030E+06     53.9662E+06    -16.9423E+06         59.4083
            1918     10.4563E-03     154.047E-03     131.149E-03    -44.8432E-03    -60.0204E-03    -43.9162E-03     130.222E-03    -60.0204E-03     25.4598E-03     457.359E-03    -218.527E-03    -238.832E-03    -236.737E-03     455.264E-03    -218.527E-03     76.2247E-03     65.5681E+06     13.1477E+06    -44.9354E+06    -38.9951E+06     7.20737E+06     65.5681E+06    -16.9654E+06         60.2100
            1919     11.2461E-03     154.134E-03     126.766E-03    -40.8286E-03    -59.1043E-03    -40.1354E-03     126.073E-03    -59.1043E-03     21.3799E-03     459.206E-03    -219.800E-03    -239.406E-03    -237.084E-03     456.884E-03    -219.800E-03     80.3398E-03     79.5369E+06     57.1591E+06    -36.3487E+06    -31.9835E+06     53.8798E+06     78.4509E+06    -19.2362E+06         60.9583
            1920     12.0358E-03     154.233E-03     121.844E-03    -36.3367E-03    -58.0881E-03    -35.8875E-03     121.395E-03    -58.0881E-03     16.7800E-03     460.664E-03    -220.941E-03    -239.723E-03    -237.247E-03     458.188E-03    -220.941E-03     83.1069E-03     106.388E+06     96.1312E+06    -26.1820E+06    -23.4914E+06     103.697E+06     96.1312E+06    -17.9579E+06         61.6196
            1921     12.8251E-03     154.336E-03     116.433E-03    -31.4110E-03    -56.9776E-03    -31.1687E-03     116.190E-03    -56.9776E-03     11.5559E-03     462.695E-03    -221.983E-03    -240.713E-03    -237.543E-03     459.526E-03    -221.983E-03     93.6183E-03     128.377E+06     110.875E+06    -16.1466E+06    -15.1671E+06     127.398E+06     110.875E+06    -11.1915E+06         62.1645
            1922     13.6140E-03     154.473E-03     110.478E-03    -26.0408E-03    -55.7523E-03    -25.9687E-03     110.406E-03    -55.7523E-03     5.99605E-03     463.895E-03    -222.991E-03    -240.903E-03    -237.862E-03     460.853E-03    -222.991E-03     91.5129E-03     140.500E+06     123.680E+06    -7.27200E+06    -7.06224E+06     131.802E+06     132.169E+06    -4.54080E+06         62.5688
            1923     822.930E-06     154.916E-03     164.323E-03    -68.9902E-03    -73.9338E-03    -68.2401E-03     163.484E-03    -73.8456E-03     17.2817E-03     391.614E-03    -195.264E-03    -196.351E-03    -196.246E-03     391.510E-03    -195.264E-03     14.5881E-03    -149.070E+06    -152.231E+06    -262.569E+06    -152.330E+06    -262.262E+06    -149.278E+06    -5.13564E+06         53.0609
            1924     1.64467E-03     154.935E-03     163.472E-03    -70.9403E-03    -71.3547E-03    -70.8826E-03     163.139E-03    -71.0789E-03     10.4375E-03     394.246E-03    -196.153E-03    -198.094E-03    -197.794E-03     393.947E-03    -196.153E-03     25.9860E-03    -135.730E+06    -146.061E+06    -242.500E+06    -146.790E+06    -241.771E+06    -135.730E+06    -7.93559E+06         53.2079
            1925     2.46474E-03     154.965E-03     163.262E-03    -70.6681E-03    -71.2276E-03    -70.4083E-03     162.814E-03    -71.0400E-03     19.8640E-03     398.398E-03    -197.162E-03    -201.236E-03    -200.646E-03     397.808E-03    -197.162E-03     37.1717E-03    -112.634E+06    -136.383E+06    -220.077E+06    -137.499E+06    -218.961E+06    -112.634E+06    -9.24238E+06         53.4470
            1926     3.28214E-03     155.003E-03     162.658E-03    -70.0887E-03    -70.9121E-03    -69.5412E-03     162.111E-03    -70.9121E-03     21.5894E-03     404.061E-03    -198.529E-03    -205.532E-03    -204.599E-03     403.128E-03    -198.529E-03     47.3872E-03    -84.1434E+06    -124.362E+06    -194.789E+06    -126.320E+06    -192.831E+06    -84.1434E+06    -11.1341E+06         53.7802
            1927     4.09610E-03     155.052E-03     161.926E-03    -69.1247E-03    -70.6890E-03    -68.3712E-03     161.173E-03    -70.6890E-03     26.2791E-03     410.886E-03    -200.221E-03    -210.665E-03    -209.387E-03     409.608E-03    -200.221E-03     56.1500E-03    -55.7203E+06    -110.357E+06    -172.188E+06    -113.818E+06    -168.727E+06    -55.7203E+06    -13.9417E+06         54.2082
            1928     4.90563E-03     155.109E-03     160.820E-03    -67.7558E-03    -70.3726E-03    -66.8768E-03     159.941E-03    -70.3726E-03     28.0460E-03     418.343E-03    -202.157E-03    -216.186E-03    -214.591E-03     416.748E-03    -202.157E-03     63.3833E-03    -31.5309E+06    -95.6966E+06    -150.933E+06    -100.830E+06    -145.799E+06    -31.5309E+06    -15.8261E+06         54.7304
            1929     5.71101E-03     155.172E-03     159.519E-03    -66.3122E-03    -69.9701E-03    -65.2341E-03     158.440E-03    -69.9701E-03     31.1089E-03     425.958E-03    -204.258E-03    -221.700E-03    -219.835E-03     424.093E-03    -204.258E-03     69.2466E-03    -11.3631E+06    -81.7297E+06    -129.274E+06    -88.3265E+06    -122.677E+06    -11.3631E+06    -16.2769E+06         55.3442
            1930     6.51255E-03     155.240E-03     157.791E-03    -64.4984E-03    -69.4851E-03    -63.2840E-03     156.577E-03    -69.4851E-03     32.6743E-03     433.356E-03    -206.458E-03    -226.898E-03    -224.841E-03     431.299E-03    -206.458E-03     73.4378E-03     6.70964E+06    -68.3394E+06    -108.546E+06    -76.4721E+06    -100.413E+06     6.70964E+06    -16.0184E+06         56.0442
            1931     7.31030E-03     155.310E-03     155.773E-03    -62.3548E-03    -68.9050E-03    -60.9470E-03     154.365E-03    -68.9050E-03     34.9019E-03     440.328E-03    -208.694E-03    -231.634E-03    -229.455E-03     438.150E-03    -208.694E-03     76.2633E-03     22.8824E+06    -55.9131E+06    -89.5254E+06    -65.8205E+06    -79.6180E+06     22.8824E+06    -15.1897E+06         56.8208
            1932     8.10458E-03     155.385E-03     153.240E-03    -59.7309E-03    -68.2216E-03    -58.2649E-03     151.774E-03    -68.2216E-03     35.1909E-03     446.608E-03    -210.907E-03    -235.700E-03    -233.444E-03     444.351E-03    -210.907E-03     78.2219E-03     37.2568E+06    -42.5382E+06    -72.7059E+06    -56.2193E+06    -59.0248E+06     37.2568E+06    -14.6575E+06         57.6590
            1933     8.89589E-03     155.461E-03     150.222E-03    -56.6740E-03    -67.4297E-03    -55.1769E-03     148.725E-03    -67.4297E-03     35.0480E-03     451.812E-03    -213.029E-03    -238.783E-03    -236.481E-03     449.510E-03    -213.029E-03     79.5036E-03     48.9876E+06    -27.5099E+06    -58.8257E+06    -48.3191E+06    -38.0165E+06     48.9876E+06    -14.3496E+06         58.5379
            1934     9.68570E-03     155.541E-03     146.586E-03    -53.0758E-03    -66.5252E-03    -51.7314E-03     145.242E-03    -66.5252E-03     32.5889E-03     455.949E-03    -215.010E-03    -240.939E-03    -238.601E-03     453.611E-03    -215.010E-03     80.5148E-03     58.6535E+06    -11.5018E+06    -48.1331E+06    -41.3754E+06    -18.2595E+06     58.6535E+06    -13.9541E+06         59.4301
            1935     10.4741E-03     155.625E-03     142.431E-03    -49.0932E-03    -65.5095E-03    -47.9552E-03     141.293E-03    -65.5095E-03     29.4189E-03     459.299E-03    -216.826E-03    -242.473E-03    -240.083E-03     456.910E-03    -216.826E-03     81.7119E-03     70.7078E+06     16.8193E+06    -38.9528E+06    -34.5431E+06     12.4096E+06     70.7078E+06    -14.2291E+06         60.3027
            1936     11.2618E-03     155.716E-03     137.722E-03    -44.6480E-03    -64.3861E-03    -43.7836E-03     136.858E-03    -64.3861E-03     24.8326E-03     462.108E-03    -218.456E-03    -243.652E-03    -241.107E-03     459.563E-03    -218.456E-03     84.5726E-03     86.2420E+06     63.0767E+06    -32.0681E+06    -29.2350E+06     62.7504E+06     83.7352E+06    -15.3563E+06         61.1185
            1937     12.0489E-03     155.818E-03     132.431E-03    -39.7165E-03    -63.1500E-03    -39.1592E-03     131.873E-03    -63.1500E-03     19.5219E-03     464.329E-03    -219.952E-03    -244.377E-03    -241.754E-03     461.706E-03    -219.952E-03     86.0602E-03     103.479E+06     97.2516E+06    -26.9216E+06    -24.6308E+06     101.188E+06     97.2516E+06    -16.3079E+06         61.8394
            1938     12.8359E-03     155.924E-03     126.654E-03    -34.3855E-03    -61.8050E-03    -34.0748E-03     126.343E-03    -61.8050E-03     13.5441E-03     466.954E-03    -221.326E-03    -245.628E-03    -242.392E-03     463.717E-03    -221.326E-03     95.3088E-03     114.278E+06     106.664E+06    -19.5969E+06    -18.3305E+06     112.805E+06     106.871E+06    -12.3118E+06         62.4317
            1939     13.6221E-03     156.064E-03     120.341E-03    -28.6308E-03    -60.3379E-03    -28.5435E-03     120.253E-03    -60.3379E-03     6.96978E-03     468.763E-03    -222.643E-03    -246.120E-03    -243.041E-03     465.684E-03    -222.643E-03     92.7584E-03     130.594E+06     116.905E+06    -10.4692E+06    -10.1686E+06     120.291E+06     126.908E+06    -5.39271E+06         62.8671
            1940     826.664E-06     156.387E-03     172.007E-03    -74.3100E-03    -77.8591E-03    -73.9211E-03     171.618E-03    -77.8591E-03     14.9251E-03     382.740E-03    -190.847E-03    -191.893E-03    -191.776E-03     382.623E-03    -190.847E-03     15.3364E-03    -140.831E+06    -145.251E+06    -246.744E+06    -145.015E+06    -246.450E+06    -141.360E+06    -4.82091E+06         52.6215
            1941     1.65252E-03     156.409E-03     171.388E-03    -75.4503E-03    -75.8710E-03    -75.2319E-03     171.106E-03    -75.8079E-03     13.0854E-03     385.423E-03    -191.713E-03    -193.709E-03    -193.375E-03     385.088E-03    -191.713E-03     27.1758E-03    -126.863E+06    -139.713E+06    -229.912E+06    -140.635E+06    -228.990E+06    -126.863E+06    -8.67075E+06         52.7776
            1942     2.47648E-03     156.444E-03     171.050E-03    -75.0939E-03    -75.6597E-03    -74.6769E-03     170.570E-03    -75.5966E-03     21.6261E-03     390.114E-03    -192.769E-03    -197.344E-03    -196.677E-03     389.447E-03    -192.769E-03     39.1686E-03    -106.274E+06    -130.856E+06    -210.710E+06    -132.863E+06    -208.703E+06    -106.274E+06    -12.0782E+06         53.0313
            1943     3.29691E-03     156.493E-03     170.456E-03    -74.4407E-03    -75.3563E-03    -73.7804E-03     169.796E-03    -75.3563E-03     24.8883E-03     396.438E-03    -194.252E-03    -202.186E-03    -201.112E-03     395.364E-03    -194.252E-03     50.4104E-03    -80.9669E+06    -118.311E+06    -186.234E+06    -121.469E+06    -183.077E+06    -80.9669E+06    -14.0430E+06         53.3853
            1944     4.11308E-03     156.552E-03     169.734E-03    -73.5472E-03    -75.0493E-03    -72.6423E-03     168.829E-03    -75.0493E-03     29.5907E-03     403.705E-03    -196.076E-03    -207.629E-03    -206.117E-03     402.192E-03    -196.076E-03     60.5430E-03    -53.5085E+06    -104.933E+06    -163.302E+06    -109.536E+06    -158.699E+06    -53.5085E+06    -15.4819E+06         53.8406
            1945     4.92568E-03     156.620E-03     168.594E-03    -72.1556E-03    -74.6569E-03    -71.0629E-03     167.502E-03    -74.6569E-03     32.1973E-03     411.707E-03    -198.138E-03    -213.569E-03    -211.623E-03     409.762E-03    -198.138E-03     69.4735E-03    -28.7331E+06    -91.7046E+06    -144.131E+06    -98.1072E+06    -137.728E+06    -28.7331E+06    -17.0165E+06         54.3972
            1946     5.73365E-03     156.696E-03     167.232E-03    -70.5013E-03    -74.1619E-03    -69.1706E-03     165.902E-03    -74.1619E-03     35.4287E-03     420.133E-03    -200.379E-03    -219.754E-03    -217.437E-03     417.815E-03    -200.379E-03     76.7300E-03    -8.58916E+06    -78.7326E+06    -125.864E+06    -86.7718E+06    -117.825E+06    -8.58916E+06    -17.5957E+06         55.0531
            1947     6.53704E-03     156.775E-03     165.518E-03    -68.5482E-03    -73.5672E-03    -67.0429E-03     164.013E-03    -73.5672E-03     37.3424E-03     428.604E-03    -202.751E-03    -225.853E-03    -223.260E-03     426.011E-03    -202.751E-03     82.0685E-03     7.90144E+06    -67.0710E+06    -107.127E+06    -76.3341E+06    -97.8639E+06     7.90144E+06    -16.7722E+06         55.8032
            1948     7.33591E-03     156.858E-03     163.506E-03    -66.3389E-03    -72.8741E-03    -64.6033E-03     161.770E-03    -72.8741E-03     39.7346E-03     436.937E-03    -205.218E-03    -231.719E-03    -228.953E-03     434.171E-03    -205.218E-03     85.6688E-03     22.7212E+06    -56.0494E+06    -88.8927E+06    -66.7423E+06    -78.1999E+06     22.7212E+06    -15.1583E+06         56.6378
            1949     8.13046E-03     156.943E-03     160.940E-03    -63.5736E-03    -72.0763E-03    -61.7745E-03     159.141E-03    -72.0763E-03     39.9989E-03     444.576E-03    -207.720E-03    -236.856E-03    -234.011E-03     441.732E-03    -207.720E-03     87.7194E-03     36.4036E+06    -44.0570E+06    -71.7038E+06    -58.3437E+06    -57.4171E+06     36.4036E+06    -13.2459E+06         57.5414
            1950     8.92171E-03     157.029E-03     157.875E-03    -60.3336E-03    -71.1644E-03    -58.5102E-03     156.052E-03    -71.1644E-03     39.6834E-03     451.203E-03    -210.182E-03    -241.021E-03    -238.169E-03     448.350E-03    -210.182E-03     88.5665E-03     48.2844E+06    -29.4933E+06    -57.8085E+06    -50.8256E+06    -36.4762E+06     48.2844E+06    -11.6596E+06         58.4917
            1951     9.70977E-03     157.117E-03     154.149E-03    -56.4774E-03    -70.1318E-03    -54.8333E-03     152.505E-03    -70.1318E-03     36.9643E-03     456.955E-03    -212.547E-03    -244.409E-03    -241.577E-03     454.124E-03    -212.547E-03     88.8454E-03     58.9353E+06    -10.5221E+06    -47.7773E+06    -43.5193E+06    -14.7801E+06     58.9353E+06    -11.3869E+06         59.4590
            1952     10.4955E-03     157.208E-03     149.886E-03    -52.1447E-03    -68.9765E-03    -50.7491E-03     148.490E-03    -68.9765E-03     33.4380E-03     461.839E-03    -214.784E-03    -247.055E-03    -244.248E-03     459.033E-03    -214.784E-03     88.9450E-03     71.4978E+06     20.1688E+06    -39.6962E+06    -36.8288E+06     17.3015E+06     71.4978E+06    -12.1147E+06         60.4068
            1953     11.2794E-03     157.303E-03     145.088E-03    -47.3849E-03    -67.7000E-03    -46.3115E-03     144.015E-03    -67.7000E-03     28.3673E-03     465.882E-03    -216.855E-03    -249.027E-03    -246.162E-03     463.017E-03    -216.855E-03     90.2803E-03     87.8040E+06     66.2336E+06    -31.3270E+06    -29.6986E+06     66.8274E+06     85.5817E+06    -11.7731E+06         61.2937
            1954     12.0619E-03     157.410E-03     139.728E-03    -42.2065E-03    -66.3032E-03    -41.5175E-03     139.039E-03    -66.3032E-03     22.3182E-03     469.131E-03    -218.790E-03    -250.340E-03    -247.487E-03     466.277E-03    -218.790E-03     90.3629E-03     104.417E+06     100.272E+06    -23.9450E+06    -22.8271E+06     103.299E+06     100.272E+06    -10.9505E+06         62.0771
            1955     12.8427E-03     157.517E-03     133.958E-03    -36.7109E-03    -64.7903E-03    -36.3175E-03     133.565E-03    -64.7903E-03     15.6410E-03     472.538E-03    -220.586E-03    -251.952E-03    -248.572E-03     469.157E-03    -220.586E-03     98.2770E-03     110.111E+06     105.302E+06    -17.7539E+06    -16.5016E+06     105.972E+06     108.188E+06    -11.2289E+06         62.7178
            1956     13.6237E-03     157.661E-03     127.698E-03    -30.7833E-03    -63.1537E-03    -30.6750E-03     127.590E-03    -63.1537E-03     8.02712E-03     474.583E-03    -222.270E-03    -252.313E-03    -249.159E-03     471.430E-03    -222.270E-03     94.6335E-03     123.770E+06     108.087E+06    -7.89689E+06    -7.19045E+06     107.380E+06     123.770E+06    -7.76287E+06         63.1838
            1957     829.317E-06     157.845E-03     174.486E-03    -77.6980E-03    -79.3412E-03    -77.5148E-03     174.272E-03    -79.3101E-03     13.3217E-03     376.535E-03    -187.698E-03    -188.837E-03    -188.722E-03     376.421E-03    -187.698E-03     15.0926E-03    -137.892E+06    -142.919E+06    -232.784E+06    -142.627E+06    -232.547E+06    -138.421E+06    -4.06557E+06         52.1996
            1958     1.65783E-03     157.871E-03     174.074E-03    -78.0240E-03    -78.3357E-03    -77.7645E-03     173.783E-03    -78.3045E-03     15.3555E-03     379.232E-03    -188.613E-03    -190.618E-03    -190.279E-03     378.892E-03    -188.613E-03     27.0857E-03    -121.942E+06    -135.778E+06    -215.534E+06    -136.610E+06    -214.702E+06    -121.942E+06    -7.66295E+06         52.3633
            1959     2.48397E-03     157.914E-03     173.736E-03    -77.5260E-03    -78.0360E-03    -76.9860E-03     173.196E-03    -78.0360E-03     23.2424E-03     383.653E-03    -189.631E-03    -194.022E-03    -193.321E-03     382.952E-03    -189.631E-03     39.7754E-03    -99.4803E+06    -126.704E+06    -197.617E+06    -128.746E+06    -195.574E+06    -99.4803E+06    -11.4931E+06         52.6297
            1960     3.30731E-03     157.971E-03     173.062E-03    -76.8071E-03    -77.7034E-03    -76.0156E-03     172.270E-03    -77.7034E-03     27.7536E-03     389.306E-03    -190.966E-03    -198.340E-03    -197.169E-03     388.135E-03    -190.966E-03     52.1026E-03    -77.1515E+06    -116.298E+06    -177.219E+06    -119.992E+06    -173.524E+06    -77.1515E+06    -14.2021E+06         53.0021
            1961     4.12785E-03     158.040E-03     172.303E-03    -75.8801E-03    -77.3033E-03    -74.7954E-03     171.218E-03    -77.3033E-03     32.6944E-03     396.179E-03    -192.580E-03    -203.600E-03    -201.884E-03     394.464E-03    -192.580E-03     63.8300E-03    -53.9824E+06    -105.031E+06    -156.074E+06    -110.235E+06    -150.870E+06    -53.9824E+06    -15.2601E+06         53.4825
            1962     4.94398E-03     158.120E-03     171.267E-03    -74.6138E-03    -76.8249E-03    -73.2825E-03     169.936E-03    -76.8249E-03     35.9598E-03     404.190E-03    -194.471E-03    -209.720E-03    -207.445E-03     401.916E-03    -194.471E-03     74.4291E-03    -30.7365E+06    -93.6820E+06    -137.325E+06    -100.426E+06    -130.581E+06    -30.7365E+06    -15.5456E+06         54.0716
            1963     5.75572E-03     158.208E-03     170.002E-03    -72.9534E-03    -76.2500E-03    -71.3282E-03     168.376E-03    -76.2500E-03     39.5361E-03     412.983E-03    -196.608E-03    -216.375E-03    -213.598E-03     410.206E-03    -196.608E-03     83.2883E-03    -10.8099E+06    -82.7191E+06    -121.167E+06    -91.3229E+06    -112.563E+06    -10.8099E+06    -15.7773E+06         54.7681
            1964     6.56242E-03     158.301E-03     168.385E-03    -70.8655E-03    -75.5644E-03    -69.0194E-03     166.539E-03    -75.5644E-03     41.7988E-03     422.411E-03    -198.961E-03    -223.449E-03    -220.265E-03     419.226E-03    -198.961E-03     90.3418E-03     4.84374E+06    -72.5107E+06    -105.924E+06    -82.6474E+06    -95.7876E+06     4.84374E+06    -15.1274E+06         55.5672
            1965     7.36379E-03     158.398E-03     166.447E-03    -68.5479E-03    -74.7695E-03    -66.4414E-03     164.341E-03    -74.7695E-03     44.2151E-03     432.027E-03    -201.504E-03    -230.523E-03    -227.069E-03     428.573E-03    -201.504E-03     95.2811E-03     18.3491E+06    -62.1935E+06    -90.0476E+06    -74.5986E+06    -77.6424E+06     18.3491E+06    -13.2420E+06         56.4592
            1966     8.15982E-03     158.496E-03     163.935E-03    -65.7282E-03    -73.8683E-03    -63.5469E-03     161.754E-03    -73.8683E-03     44.5046E-03     441.328E-03    -204.186E-03    -237.142E-03    -233.581E-03     437.767E-03    -204.186E-03     97.8945E-03     31.4402E+06    -48.6004E+06    -75.0867E+06    -66.6387E+06    -57.0484E+06     31.4402E+06    -11.6702E+06         57.4277
            1967     8.95094E-03     158.594E-03     160.970E-03    -62.4249E-03    -72.8562E-03    -60.2248E-03     158.770E-03    -72.8562E-03     44.0595E-03     450.065E-03    -206.942E-03    -243.123E-03    -239.591E-03     446.533E-03    -206.942E-03     98.5571E-03     43.9378E+06    -30.1333E+06    -62.7215E+06    -58.0068E+06    -34.8480E+06     43.9378E+06    -11.0072E+06         58.4488
            1968     9.73793E-03     158.693E-03     157.392E-03    -58.4427E-03    -71.7256E-03    -56.4547E-03     155.404E-03    -71.7256E-03     41.0993E-03     457.995E-03    -209.710E-03    -248.285E-03    -244.873E-03     454.583E-03    -209.710E-03     97.8452E-03     56.1553E+06    -7.84591E+06    -52.3291E+06    -49.2700E+06    -10.9050E+06     56.1553E+06    -11.0897E+06         59.4900
            1969     10.5212E-03     158.793E-03     153.289E-03    -53.9284E-03    -70.4703E-03    -52.2404E-03     151.601E-03    -70.4703E-03     37.2154E-03     464.849E-03    -212.428E-03    -252.421E-03    -249.160E-03     461.588E-03    -212.428E-03     96.4460E-03     70.7713E+06     24.1432E+06    -42.5910E+06     -40.367E+06     21.9191E+06     70.7713E+06    -11.6627E+06         60.5111
            1970     11.3013E-03     158.897E-03     148.686E-03    -49.0255E-03    -69.0900E-03    -47.7169E-03     147.377E-03    -69.0900E-03     31.7240E-03     470.437E-03    -215.016E-03    -255.421E-03    -252.234E-03     467.250E-03    -215.016E-03     95.9719E-03     89.0019E+06     68.7240E+06    -33.2072E+06    -31.6270E+06     69.9227E+06     86.2231E+06    -12.5300E+06         61.4668
            1971     12.0797E-03     159.008E-03     143.570E-03    -43.7684E-03    -67.5900E-03    -42.9313E-03     142.733E-03    -67.5900E-03     24.9523E-03     474.788E-03    -217.467E-03    -257.321E-03    -254.264E-03     471.731E-03    -217.467E-03     94.3852E-03     105.142E+06     100.697E+06    -23.0736E+06    -21.6125E+06     102.429E+06     101.949E+06    -12.3397E+06         62.3096
            1972     12.8571E-03     159.123E-03     138.135E-03    -38.3043E-03    -65.9739E-03    -37.8217E-03     137.653E-03    -65.9739E-03     17.6708E-03     478.889E-03    -219.749E-03    -259.140E-03    -255.661E-03     475.410E-03    -219.749E-03     100.750E-03     111.283E+06     103.597E+06    -13.1715E+06    -11.8826E+06     102.722E+06     110.868E+06    -9.98606E+06         62.9957
            1973     13.6323E-03     159.269E-03     132.269E-03    -32.4373E-03    -64.2394E-03    -32.3028E-03     132.135E-03    -64.2394E-03     9.02916E-03     481.296E-03    -221.857E-03    -259.440E-03    -256.241E-03     478.097E-03    -221.857E-03     96.2444E-03     120.627E+06     98.4786E+06    -6.67360E+06    -6.06879E+06     97.8738E+06     120.627E+06    -6.37222E+06         63.4891
            1974     830.473E-06     159.298E-03     171.932E-03    -78.5961E-03    -79.6287E-03    -78.4789E-03     171.784E-03    -79.5975E-03     12.0687E-03     373.686E-03    -186.355E-03    -187.331E-03    -187.224E-03     373.579E-03    -186.355E-03     14.4942E-03    -136.605E+06    -141.631E+06    -221.691E+06    -140.942E+06    -221.533E+06    -137.452E+06    -2.48295E+06         51.8299
            1975     1.65982E-03     159.327E-03     171.746E-03    -78.7273E-03    -78.9452E-03    -78.4310E-03     171.418E-03    -78.9140E-03     16.9955E-03     375.696E-03    -187.060E-03    -188.636E-03    -188.297E-03     375.358E-03    -187.060E-03     26.8150E-03    -124.929E+06    -138.015E+06    -203.525E+06    -138.547E+06    -202.993E+06    -124.929E+06    -5.36733E+06         51.9994
            1976     2.48798E-03     159.375E-03     171.460E-03    -78.1736E-03    -78.6080E-03    -77.5520E-03     170.839E-03    -78.6080E-03     24.7974E-03     378.818E-03    -187.773E-03    -191.046E-03    -190.324E-03     378.097E-03    -187.773E-03     40.0466E-03    -103.157E+06    -132.370E+06    -186.530E+06    -133.458E+06    -185.442E+06    -103.157E+06    -7.20942E+06         52.2758
            1977     3.31469E-03     159.438E-03     170.848E-03    -77.4608E-03    -78.2073E-03    -76.5266E-03     169.914E-03    -78.2073E-03     30.1328E-03     383.170E-03    -188.707E-03    -194.463E-03    -193.227E-03     381.934E-03    -188.707E-03     53.0215E-03    -78.7243E+06    -124.061E+06    -166.129E+06    -126.572E+06    -163.618E+06    -78.7243E+06    -9.47961E+06         52.6633
            1978     4.13875E-03     159.516E-03     170.078E-03    -76.5818E-03    -77.7331E-03    -75.2905E-03     168.787E-03    -77.7331E-03     35.5091E-03     389.071E-03    -189.901E-03    -199.170E-03    -197.314E-03     387.215E-03    -189.901E-03     65.7289E-03    -57.1373E+06    -114.876E+06    -148.954E+06    -119.115E+06    -144.715E+06    -57.1373E+06    -11.0512E+06         53.1647
            1979     4.95937E-03     159.607E-03     169.112E-03    -75.2980E-03    -77.1743E-03    -73.6974E-03     167.512E-03    -77.1743E-03     39.3071E-03     396.341E-03    -191.394E-03    -204.948E-03    -202.428E-03     393.822E-03    -191.394E-03     77.5107E-03    -37.2784E+06    -105.007E+06    -132.383E+06    -111.283E+06    -126.107E+06    -37.2784E+06    -10.9349E+06         53.7816
            1980     5.77567E-03     159.707E-03     167.990E-03    -73.6684E-03    -76.5118E-03    -71.7126E-03     166.034E-03    -76.5118E-03     43.1994E-03     404.958E-03    -193.200E-03    -211.758E-03    -208.582E-03     401.781E-03    -193.200E-03     88.1599E-03    -18.2872E+06    -92.6036E+06    -117.578E+06    -103.327E+06    -106.854E+06    -18.2872E+06    -11.0568E+06         54.5136
            1981     6.58688E-03     159.815E-03     166.522E-03    -71.5529E-03    -75.7334E-03    -69.3197E-03     164.289E-03    -75.7334E-03     45.8221E-03     414.905E-03    -195.329E-03    -219.575E-03    -215.825E-03     411.154E-03    -195.329E-03     97.1572E-03    -2.34106E+06    -80.7900E+06    -106.800E+06    -95.3129E+06    -92.2775E+06    -2.34106E+06    -11.6244E+06         55.3564
            1982     7.39199E-03     159.927E-03     164.722E-03    -69.1379E-03    -74.8385E-03    -66.6190E-03     162.203E-03    -74.8385E-03     48.1823E-03     425.706E-03    -197.773E-03    -227.933E-03    -223.789E-03     421.562E-03    -197.773E-03     103.649E-03     11.3943E+06    -67.2512E+06    -94.6838E+06    -86.1484E+06    -75.7866E+06     11.3943E+06    -12.0127E+06         56.3001
            1983     8.19104E-03     160.041E-03     162.359E-03    -66.2710E-03    -73.8362E-03    -63.6783E-03     159.766E-03    -73.8362E-03     48.3612E-03     437.092E-03    -200.514E-03    -236.578E-03    -232.270E-03     432.784E-03    -200.514E-03     107.285E-03     25.2817E+06    -47.9416E+06    -81.6346E+06    -75.6749E+06    -53.9013E+06     25.2817E+06    -12.5467E+06         57.3274
            1984     8.98321E-03     160.156E-03     159.582E-03    -62.9469E-03    -72.7299E-03    -60.3417E-03     156.977E-03    -72.7299E-03     47.8027E-03     448.597E-03    -203.514E-03    -245.083E-03    -240.856E-03     444.370E-03    -203.514E-03     107.869E-03     38.7291E+06    -25.8997E+06    -69.9007E+06    -65.0701E+06    -30.7304E+06     38.7291E+06    -13.6403E+06         58.4121
            1985     9.76854E-03     160.269E-03     156.275E-03    -58.9305E-03    -71.5133E-03    -56.5714E-03     153.916E-03    -71.5133E-03     44.6642E-03     459.308E-03    -206.697E-03    -252.611E-03    -248.647E-03     455.344E-03    -206.697E-03     105.876E-03     52.2654E+06    -2.12921E+06    -58.5023E+06    -54.1562E+06    -6.47525E+06     52.2654E+06    -14.8896E+06         59.5191
            1986     10.5481E-03     160.383E-03     152.532E-03    -54.4019E-03    -70.1817E-03    -52.4079E-03     150.538E-03    -70.1817E-03     40.3910E-03     468.396E-03    -209.941E-03    -258.456E-03    -254.831E-03     464.772E-03    -209.941E-03     102.332E-03     68.1862E+06     29.8342E+06    -46.6608E+06    -42.9977E+06     26.1711E+06     68.1862E+06    -15.9830E+06         60.6051
            1987     11.3235E-03     160.497E-03     148.410E-03    -49.5392E-03    -68.7350E-03    -47.9825E-03     146.854E-03    -68.7350E-03     34.6323E-03     475.586E-03    -213.102E-03    -262.484E-03    -259.116E-03     472.218E-03    -213.102E-03     99.4787E-03     90.6090E+06     71.8969E+06    -34.5687E+06    -31.8845E+06     74.1682E+06     85.6535E+06    -16.5461E+06         61.6214
            1988     12.0956E-03     160.617E-03     143.841E-03    -44.3599E-03    -67.1794E-03    -43.3686E-03     142.850E-03    -67.1794E-03     27.1852E-03     481.026E-03    -216.119E-03    -264.907E-03    -261.791E-03     477.911E-03    -216.119E-03     96.1585E-03     105.503E+06     98.3987E+06    -24.3684E+06    -22.1704E+06     101.156E+06     100.547E+06    -16.3697E+06         62.5163
            1989     12.8650E-03     160.737E-03     139.039E-03    -39.0629E-03    -65.5157E-03    -38.4923E-03     138.469E-03    -65.5157E-03     19.4441E-03     485.490E-03    -218.919E-03    -266.571E-03    -263.165E-03     482.084E-03    -218.919E-03     100.753E-03     106.933E+06     95.9559E+06    -15.0781E+06    -13.4702E+06     94.3480E+06     106.933E+06    -11.9377E+06         63.2418
            1990     13.6356E-03     160.887E-03     133.909E-03    -33.4559E-03    -63.7448E-03    -33.2899E-03     133.743E-03    -63.7448E-03     9.90163E-03     487.574E-03    -221.475E-03    -266.099E-03    -263.002E-03     484.477E-03    -221.475E-03     95.6502E-03     116.752E+06     87.0685E+06    -6.66040E+06    -6.05032E+06     86.4584E+06     116.752E+06    -4.15116E+06         63.7584
            1991     829.934E-06     160.749E-03     164.954E-03    -77.8306E-03    -78.8668E-03    -77.6770E-03     164.800E-03    -78.8668E-03     12.1684E-03     372.771E-03    -186.122E-03    -186.649E-03    -186.537E-03     372.659E-03    -186.122E-03     14.7290E-03    -148.110E+06    -152.412E+06    -218.135E+06    -151.750E+06    -217.949E+06    -148.958E+06     68.4105E+03         51.5611
            1992     1.66008E-03     160.780E-03     164.732E-03    -77.7481E-03    -78.0615E-03    -77.3717E-03     164.356E-03    -78.0615E-03     18.2136E-03     373.754E-03    -186.428E-03    -187.325E-03    -186.977E-03     373.406E-03    -186.428E-03     27.1506E-03    -135.383E+06    -150.674E+06    -200.314E+06    -151.195E+06    -199.793E+06    -135.383E+06     1.45174E+06         51.7340
            1993     2.48995E-03     160.830E-03     164.473E-03    -77.2463E-03    -77.6440E-03    -76.5197E-03     163.746E-03    -77.6440E-03     26.3012E-03     375.604E-03    -186.759E-03    -188.844E-03    -188.113E-03     374.872E-03    -186.759E-03     40.1378E-03    -114.586E+06    -147.208E+06    -181.089E+06    -148.143E+06    -180.153E+06    -114.586E+06     578.615E+03         52.0164
            1994     3.31895E-03     160.897E-03     164.093E-03    -76.6761E-03    -77.1768E-03    -75.5740E-03     162.991E-03    -77.1768E-03     32.2640E-03     378.719E-03    -187.282E-03    -191.437E-03    -190.179E-03     377.461E-03    -187.282E-03     53.1331E-03    -90.5681E+06    -139.363E+06    -160.474E+06    -142.634E+06    -157.203E+06    -90.5681E+06    -789.512E+03         52.4134
            1995     4.14597E-03     160.982E-03     163.517E-03    -75.9491E-03    -76.6535E-03    -74.4231E-03     161.991E-03    -76.6535E-03     37.9822E-03     383.205E-03    -188.053E-03    -195.152E-03    -193.239E-03     381.293E-03    -188.053E-03     66.1400E-03    -66.6038E+06    -127.931E+06    -146.553E+06    -136.313E+06    -138.171E+06    -66.6038E+06    -2.74090E+06         52.9285
            1996     4.97061E-03     161.081E-03     162.679E-03    -74.6875E-03    -76.0402E-03    -72.7735E-03     160.765E-03    -76.0402E-03     42.3303E-03     389.248E-03    -189.091E-03    -200.157E-03    -197.508E-03     386.599E-03    -189.091E-03     78.6685E-03    -46.4855E+06    -115.009E+06    -134.506E+06    -128.307E+06    -121.207E+06    -46.4855E+06    -5.30130E+06         53.5645
            1997     5.79189E-03     161.192E-03     161.687E-03    -72.9669E-03    -75.3013E-03    -70.6388E-03     159.359E-03    -75.3013E-03     46.3910E-03     397.213E-03    -190.461E-03    -206.752E-03    -203.341E-03     393.802E-03    -190.461E-03     90.3985E-03    -27.8562E+06    -97.2585E+06    -121.740E+06    -118.057E+06    -100.941E+06    -27.8562E+06    -7.26349E+06         54.3218
            1998     6.60806E-03     161.314E-03     160.349E-03    -70.8018E-03    -74.4292E-03    -68.1536E-03     157.701E-03    -74.4292E-03     49.1199E-03     407.134E-03    -192.240E-03    -214.893E-03    -210.791E-03     403.031E-03    -192.240E-03     100.642E-03    -10.8169E+06    -79.7891E+06    -111.233E+06    -106.644E+06    -84.3790E+06    -10.8169E+06    -10.5693E+06         55.1968
            1999     7.41822E-03     161.444E-03     158.713E-03    -68.3894E-03    -73.4364E-03    -65.4332E-03     155.756E-03    -73.4364E-03     51.3829E-03     418.998E-03    -194.472E-03    -224.526E-03    -219.930E-03     414.402E-03    -194.472E-03     108.358E-03     4.21828E+06    -62.4262E+06    -100.842E+06    -94.0291E+06    -69.2391E+06     4.21828E+06    -14.6023E+06         56.1796
            2000     8.22029E-03     161.577E-03     156.586E-03    -65.4822E-03    -72.3383E-03    -62.4616E-03     153.566E-03    -72.3383E-03     51.3823E-03     432.453E-03    -197.184E-03    -235.269E-03    -230.463E-03     427.647E-03    -197.184E-03     112.876E-03     19.1462E+06    -40.3976E+06    -88.4501E+06    -80.9902E+06    -47.8575E+06     19.1462E+06    -17.3310E+06         57.2519
            2001     9.01345E-03     161.713E-03     154.068E-03    -62.1145E-03    -71.1414E-03    -59.1182E-03     151.072E-03    -71.1414E-03     50.4860E-03     446.610E-03    -200.353E-03    -246.257E-03    -241.544E-03     441.897E-03    -200.353E-03     113.849E-03     33.9261E+06    -16.6886E+06    -75.6165E+06    -68.2060E+06    -24.0991E+06     33.9261E+06    -19.4378E+06         58.3860
            2002     9.79744E-03     161.847E-03     151.070E-03    -58.1109E-03    -69.8456E-03    -55.4012E-03     148.360E-03    -69.8456E-03     47.1661E-03     460.251E-03    -203.885E-03    -256.366E-03    -251.990E-03     455.876E-03    -203.885E-03     111.569E-03     48.4310E+06     6.81858E+06    -63.3499E+06    -55.9900E+06    -541.369E+03     48.4310E+06    -21.4187E+06         59.5446
            2003     10.5736E-03     161.978E-03     147.747E-03    -53.6014E-03    -68.4508E-03    -51.3299E-03     145.475E-03    -68.4508E-03     42.4981E-03     472.045E-03    -207.617E-03    -264.428E-03    -260.532E-03     468.149E-03    -207.617E-03     106.752E-03     64.8801E+06     38.2800E+06    -51.0361E+06    -44.4602E+06     31.7040E+06     64.8801E+06    -22.9324E+06         60.6821
            2004     11.3439E-03     162.105E-03     144.208E-03    -48.8320E-03    -66.9584E-03    -47.0507E-03     142.427E-03    -66.9584E-03     36.6303E-03     481.117E-03    -211.343E-03    -269.774E-03    -266.312E-03     477.656E-03    -211.343E-03     101.684E-03     88.4884E+06     74.2726E+06    -38.2852E+06    -33.4077E+06     75.8873E+06     81.9963E+06    -23.1034E+06         61.7467
            2005     12.1110E-03     162.235E-03     140.346E-03    -43.8106E-03    -65.3753E-03    -42.6802E-03     139.216E-03    -65.3753E-03     28.6605E-03     487.279E-03    -214.927E-03    -272.352E-03    -269.274E-03     484.202E-03    -214.927E-03     96.3948E-03     102.780E+06     91.2689E+06    -26.6736E+06    -23.6285E+06     94.7159E+06     96.2875E+06    -18.8588E+06         62.6838
            2006     12.8767E-03     162.363E-03     136.431E-03    -38.7978E-03    -63.7001E-03    -38.1529E-03     135.786E-03    -63.7001E-03     20.6989E-03     491.543E-03    -218.217E-03    -273.326E-03    -270.021E-03     488.238E-03    -218.217E-03     100.050E-03     100.414E+06     82.5066E+06    -18.0367E+06    -16.4533E+06     80.9232E+06     100.414E+06    -12.0028E+06         63.4420
            2007     13.6400E-03     162.516E-03     132.378E-03    -33.5863E-03    -61.9366E-03    -33.3840E-03     132.175E-03    -61.9366E-03     10.5185E-03     492.729E-03    -221.167E-03    -271.562E-03    -268.538E-03     489.706E-03    -221.167E-03     95.2204E-03     112.231E+06     73.7450E+06    -10.3258E+06    -9.42186E+06     72.8410E+06     112.231E+06    -6.14267E+06         63.9778
            2008     830.589E-06     162.199E-03     153.651E-03    -75.9658E-03    -76.5733E-03    -76.0179E-03     153.480E-03    -76.3505E-03     12.2928E-03     372.085E-03    -185.935E-03    -186.150E-03    -186.030E-03     371.973E-03    -185.943E-03     14.6837E-03    -189.981E+06    -195.318E+06    -222.377E+06    -196.167E+06    -220.988E+06    -190.521E+06     1.15797E+06         51.4547
            2009     1.66096E-03     162.231E-03     153.529E-03    -75.7226E-03    -75.9678E-03    -75.2987E-03     153.089E-03    -75.9519E-03     19.3798E-03     372.647E-03    -186.036E-03    -186.612E-03    -186.273E-03     372.309E-03    -186.036E-03     26.7935E-03    -171.191E+06    -183.745E+06    -208.443E+06    -188.164E+06    -204.024E+06    -171.191E+06     3.10662E+06         51.6272
            2010     2.49126E-03     162.281E-03     153.452E-03    -75.2589E-03    -75.5079E-03    -74.4068E-03     152.599E-03    -75.5079E-03     27.6276E-03     373.925E-03    -186.209E-03    -187.716E-03    -187.001E-03     373.210E-03    -186.209E-03     39.5299E-03    -143.482E+06    -167.381E+06    -188.845E+06    -177.085E+06    -179.141E+06    -143.482E+06     3.52139E+06         51.9094
            2011     3.32088E-03     162.352E-03     153.263E-03    -74.8156E-03    -75.0124E-03    -73.5171E-03     151.962E-03    -75.0091E-03     34.1406E-03     376.114E-03    -186.524E-03    -189.591E-03    -188.362E-03     374.886E-03    -186.524E-03     52.3097E-03    -112.964E+06    -151.922E+06    -168.697E+06    -164.788E+06    -155.830E+06    -112.964E+06      2.7504E+06         52.3069
            2012     4.14997E-03     162.440E-03     152.988E-03    -74.1750E-03    -74.4589E-03    -72.3908E-03     151.201E-03    -74.4556E-03     39.9895E-03     379.405E-03    -187.004E-03    -192.401E-03    -190.540E-03     377.544E-03    -187.004E-03     64.8619E-03    -83.0825E+06    -132.126E+06    -151.646E+06    -151.102E+06    -132.670E+06    -83.0825E+06     1.11737E+06         52.8240
            2013     4.97767E-03     162.545E-03     152.477E-03    -73.0567E-03    -73.8081E-03    -70.8070E-03     150.228E-03    -73.8081E-03     44.6959E-03     384.462E-03    -187.722E-03    -196.741E-03    -194.155E-03     381.876E-03    -187.722E-03     77.1695E-03    -57.4208E+06    -113.350E+06    -138.243E+06    -137.811E+06    -113.781E+06    -57.4208E+06    -2.33757E+06         53.4646
            2014     5.80201E-03     162.666E-03     151.717E-03    -71.3669E-03    -73.0282E-03    -68.6598E-03     149.010E-03    -73.0282E-03     48.7370E-03     391.661E-03    -188.775E-03    -202.886E-03    -199.557E-03     388.333E-03    -188.775E-03     88.6063E-03    -36.1875E+06    -91.1900E+06    -126.349E+06    -124.802E+06    -92.7366E+06    -36.1875E+06    -7.11498E+06         54.2301
            2015     6.62219E-03     162.801E-03     150.556E-03    -69.1237E-03    -72.1011E-03    -66.0852E-03     147.518E-03    -72.1011E-03     51.2484E-03     401.286E-03    -190.275E-03    -211.011E-03    -207.011E-03     397.286E-03    -190.275E-03     98.5862E-03    -17.5895E+06    -66.4714E+06    -115.368E+06    -111.111E+06    -70.7289E+06    -17.5895E+06    -13.3859E+06         55.1176
            2016     7.43563E-03     162.948E-03     149.066E-03    -66.5917E-03    -71.0385E-03    -63.2579E-03     145.732E-03    -71.0385E-03     53.1362E-03     413.522E-03    -192.319E-03    -221.202E-03    -216.697E-03     409.016E-03    -192.319E-03     106.544E-03    -1.20893E+06    -46.3485E+06    -105.987E+06    -96.7111E+06    -55.6245E+06    -1.20893E+06    -21.3058E+06         56.1179
            2017     8.24039E-03     163.103E-03     147.096E-03    -63.5964E-03    -69.8616E-03    -60.2179E-03     143.718E-03    -69.8616E-03     52.8863E-03     427.883E-03    -194.945E-03    -232.938E-03    -228.160E-03     423.105E-03    -194.945E-03     111.962E-03     14.7641E+06    -24.4417E+06    -94.3835E+06    -80.6393E+06    -38.1859E+06     14.7641E+06    -27.6582E+06         57.2133
            2018     9.03520E-03     163.263E-03     144.793E-03    -60.1492E-03    -68.5847E-03    -56.8588E-03     141.503E-03    -68.5847E-03     51.4798E-03     443.578E-03    -198.134E-03    -245.444E-03    -240.658E-03     438.793E-03    -198.134E-03     114.420E-03     30.8163E+06    -2.55799E+06    -79.1472E+06    -63.7485E+06    -17.9567E+06     30.8163E+06    -30.2178E+06         58.3758
            2019     9.81978E-03     163.422E-03     142.116E-03    -56.1100E-03    -67.2153E-03    -53.1520E-03     139.158E-03    -67.2153E-03     47.9613E-03     459.452E-03    -201.811E-03    -257.641E-03    -253.135E-03     454.947E-03    -201.811E-03     113.258E-03     47.0144E+06     17.8773E+06    -62.3789E+06    -48.0676E+06     3.56608E+06     47.0144E+06    -30.0476E+06         59.5674
            2020     10.5942E-03     163.576E-03     139.159E-03    -51.5589E-03    -65.7592E-03    -49.1141E-03     136.714E-03    -65.7592E-03     42.8863E-03     473.957E-03    -205.826E-03    -268.131E-03    -264.112E-03     469.938E-03    -205.826E-03     108.825E-03     64.0389E+06     43.9620E+06    -45.9462E+06    -35.5144E+06     33.5302E+06     64.0389E+06    -27.9595E+06         60.7402
            2021     11.3602E-03     163.723E-03     136.142E-03    -46.8419E-03    -64.2234E-03    -44.9286E-03     134.229E-03    -64.2234E-03     37.0299E-03     485.496E-03    -209.961E-03    -275.535E-03    -272.031E-03     481.992E-03    -209.961E-03     102.966E-03     84.0758E+06     73.2612E+06    -33.4036E+06    -27.8561E+06     71.6418E+06     80.1477E+06    -22.8098E+06         61.8400
            2022     12.1210E-03     163.863E-03     132.998E-03    -41.9646E-03    -62.6197E-03    -40.7549E-03     131.789E-03    -62.6197E-03     28.8044E-03     492.712E-03    -214.002E-03    -278.710E-03    -275.709E-03     489.710E-03    -214.002E-03     95.9442E-03     96.6816E+06     84.0987E+06    -26.0077E+06    -23.2124E+06     85.2315E+06     92.7535E+06    -17.2840E+06         62.8097
            2023     12.8802E-03     163.997E-03     130.056E-03    -37.2453E-03    -60.9472E-03    -36.5659E-03     129.377E-03    -60.9472E-03     20.9628E-03     496.215E-03    -217.690E-03    -278.524E-03    -275.418E-03     493.108E-03    -217.690E-03     97.7367E-03     96.2462E+06     72.0196E+06    -19.5658E+06    -16.5043E+06     68.9581E+06     96.2462E+06    -14.5897E+06         63.5942
            2024     13.6434E-03     164.150E-03     127.274E-03    -32.5532E-03    -59.2116E-03    -32.3176E-03     127.038E-03    -59.2116E-03     10.6275E-03     496.192E-03    -220.942E-03    -275.249E-03    -272.413E-03     493.355E-03    -220.942E-03     92.8079E-03     111.335E+06     61.9842E+06    -8.71710E+06    -6.48202E+06     59.7491E+06     111.335E+06    -9.12227E+06         64.1467
            2025     830.143E-06     163.649E-03     138.693E-03    -73.2391E-03    -73.5930E-03    -73.2840E-03     138.515E-03    -73.3701E-03     11.7969E-03     372.221E-03    -186.034E-03    -186.187E-03    -186.082E-03     372.124E-03    -186.042E-03     13.6913E-03    -210.912E+06    -270.138E+06    -274.578E+06    -272.483E+06    -214.485E+06    -268.659E+06    -5.08795E+06         51.5741
            2026     1.66048E-03     163.681E-03     138.835E-03    -73.0437E-03    -73.1789E-03    -72.5975E-03     138.331E-03    -73.1210E-03     20.0325E-03     372.812E-03    -186.142E-03    -186.670E-03    -186.379E-03     372.521E-03    -186.142E-03     24.8257E-03    -192.110E+06    -247.051E+06    -260.821E+06    -258.642E+06    -198.314E+06    -243.026E+06    -10.4349E+06         51.7406
            2027     2.49082E-03     163.732E-03     139.062E-03    -72.6750E-03    -72.8055E-03    -71.7855E-03     138.091E-03    -72.7239E-03     28.3670E-03     373.829E-03    -186.324E-03    -187.505E-03    -186.887E-03     373.211E-03    -186.324E-03     36.7029E-03    -164.098E+06    -213.346E+06    -241.284E+06    -237.320E+06    -174.729E+06    -206.679E+06    -14.0784E+06         52.0135
            2028     3.32105E-03     163.804E-03     139.178E-03    -72.2405E-03    -72.3590E-03    -70.8638E-03     137.690E-03    -72.2485E-03     35.1447E-03     375.574E-03    -186.596E-03    -188.978E-03    -187.918E-03     374.514E-03    -186.596E-03     48.4611E-03    -130.568E+06    -178.409E+06    -216.318E+06    -210.467E+06    -150.750E+06    -164.077E+06    -17.2285E+06         52.3985
            2029     4.15054E-03     163.894E-03     139.216E-03    -71.6528E-03    -71.7886E-03    -69.7121E-03     137.182E-03    -71.6952E-03     41.0898E-03     378.620E-03    -187.024E-03    -191.596E-03    -190.001E-03     377.025E-03    -187.024E-03     59.8628E-03    -101.539E+06    -141.060E+06    -188.596E+06    -180.445E+06    -128.958E+06    -121.793E+06    -19.4395E+06         52.9010
            2030     4.97824E-03     164.004E-03     139.062E-03    -70.6623E-03    -71.0618E-03    -68.1536E-03     136.531E-03    -71.0393E-03     45.7074E-03     383.354E-03    -187.699E-03    -195.654E-03    -193.468E-03     381.167E-03    -187.699E-03     70.7067E-03    -75.0902E+06    -107.002E+06    -160.339E+06    -150.175E+06    -108.434E+06    -83.8223E+06    -20.4135E+06         53.5253
            2031     5.80349E-03     164.133E-03     138.631E-03    -69.0951E-03    -70.2519E-03    -66.0932E-03     135.629E-03    -70.2519E-03     49.4950E-03     390.158E-03    -188.717E-03    -201.441E-03    -198.658E-03     387.375E-03    -188.717E-03     80.6562E-03    -48.5974E+06    -76.2014E+06    -134.398E+06    -122.752E+06    -85.5972E+06    -50.8480E+06    -21.7535E+06         54.2741
            2032     6.62381E-03     164.280E-03     137.785E-03    -66.8730E-03    -69.3166E-03    -63.5498E-03     134.461E-03    -69.3166E-03     51.6908E-03     399.336E-03    -190.173E-03    -209.164E-03    -205.834E-03     396.007E-03    -190.173E-03     89.4915E-03    -22.2432E+06    -46.1913E+06    -111.790E+06    -98.9636E+06    -59.0179E+06    -22.2432E+06    -24.1792E+06         55.1462
            2033     7.43775E-03     164.444E-03     136.480E-03    -64.1551E-03    -68.2341E-03    -60.6075E-03     132.932E-03    -68.2341E-03     52.8436E-03     410.769E-03    -192.134E-03    -218.635E-03    -214.850E-03     406.984E-03    -192.134E-03     97.0907E-03     481.314E+03    -23.1640E+06    -95.4908E+06    -79.8117E+06    -38.8431E+06     481.314E+03    -28.9610E+06         56.1344
            2034     8.24409E-03     164.620E-03     134.593E-03    -60.9201E-03    -67.0189E-03    -57.3851E-03     131.058E-03    -67.0189E-03     52.0807E-03     424.287E-03    -194.628E-03    -229.660E-03    -225.558E-03     420.186E-03    -194.628E-03     103.063E-03     17.6063E+06     -5.7341E+06    -85.7266E+06    -66.1319E+06    -25.3288E+06     17.6063E+06    -34.2915E+06         57.2235
            2035     9.04148E-03     164.805E-03     132.338E-03    -57.2120E-03    -65.6876E-03    -53.8463E-03     128.972E-03    -65.6876E-03     50.0555E-03     439.528E-03    -197.649E-03    -241.880E-03    -237.647E-03     435.296E-03    -197.649E-03     106.928E-03     32.0047E+06     10.3816E+06    -77.1008E+06    -56.2158E+06    -10.5034E+06     32.0047E+06    -37.1839E+06         58.3880
            2036     9.82815E-03     164.992E-03     129.761E-03    -52.9315E-03    -64.2521E-03    -49.9495E-03     126.779E-03    -64.2521E-03     46.2307E-03     455.701E-03    -201.162E-03    -254.539E-03    -250.394E-03     451.556E-03    -201.162E-03     108.093E-03     45.3458E+06     26.0364E+06    -67.3800E+06    -47.8621E+06     6.51853E+06     45.3458E+06    -37.8368E+06         59.5908
            2037     10.6041E-03     165.173E-03     126.974E-03    -48.2012E-03    -62.7258E-03    -45.7965E-03     124.570E-03    -62.7258E-03     40.7403E-03     471.593E-03    -205.078E-03    -266.515E-03    -262.660E-03     467.738E-03    -205.078E-03     106.332E-03     60.0414E+06     44.2754E+06    -53.6359E+06    -38.4197E+06     29.0592E+06     60.0414E+06    -35.0390E+06         60.7837
            2038     11.3705E-03     165.344E-03     124.356E-03    -43.4563E-03    -61.1283E-03    -41.5961E-03     122.496E-03    -61.1283E-03     35.0242E-03     485.506E-03    -209.243E-03    -276.263E-03    -272.798E-03     482.041E-03    -209.243E-03     102.445E-03     76.8350E+06     64.0026E+06    -35.3588E+06    -26.3092E+06      54.953E+06     76.8350E+06    -26.4725E+06         61.9098
            2039     12.1298E-03     165.500E-03     121.849E-03    -38.6759E-03    -59.4835E-03    -37.5156E-03     120.689E-03    -59.4835E-03     26.8876E-03     495.039E-03    -213.429E-03    -281.610E-03    -278.650E-03     492.079E-03    -213.429E-03     95.5544E-03     93.6763E+06     79.4103E+06    -18.4846E+06    -14.5048E+06     75.4305E+06     93.6763E+06    -16.9851E+06         62.9074
            2040     12.8871E-03     165.638E-03     119.795E-03    -34.1925E-03    -57.7977E-03    -33.5585E-03     119.161E-03    -57.7977E-03     19.5683E-03     499.433E-03    -217.336E-03    -282.096E-03    -279.142E-03     496.479E-03    -217.336E-03     95.7559E-03     98.9141E+06     69.3926E+06    -11.1222E+06    -8.32724E+06     66.5977E+06     98.9141E+06    -11.9935E+06         63.7175
            2041     13.6441E-03     165.790E-03     118.300E-03    -30.0442E-03    -56.0789E-03    -29.8011E-03     118.057E-03    -56.0789E-03     9.88980E-03     498.388E-03    -220.799E-03    -277.589E-03    -274.927E-03     495.726E-03    -220.799E-03     90.2036E-03     111.800E+06     47.1550E+06    -8.35352E+06    -5.83765E+06     44.6391E+06     111.800E+06    -7.94623E+06         64.2874
            2042     829.192E-06     165.101E-03     121.606E-03    -70.7083E-03    -70.8889E-03    -70.5151E-03     121.413E-03    -70.8889E-03     11.7877E-03     376.466E-03    -188.071E-03    -188.395E-03    -188.191E-03     376.402E-03    -188.210E-03     11.0732E-03    -179.291E+06    -283.442E+06    -291.872E+06    -288.182E+06    -181.873E+06    -284.551E+06    -14.9771E+06         51.9607
            2043     1.65798E-03     165.133E-03     121.888E-03    -70.4802E-03    -70.5885E-03    -70.0134E-03     121.350E-03    -70.5178E-03     19.6803E-03     377.185E-03    -188.343E-03    -188.843E-03    -188.657E-03     377.000E-03    -188.343E-03     19.5057E-03    -159.200E+06    -260.924E+06    -282.447E+06    -275.031E+06    -166.616E+06    -260.924E+06    -27.8924E+06         52.1142
            2044     2.48648E-03     165.185E-03     122.292E-03    -70.1403E-03    -70.2621E-03    -69.2114E-03     121.253E-03    -70.1518E-03     27.9929E-03     378.040E-03    -188.602E-03    -189.438E-03    -189.055E-03     377.657E-03    -188.602E-03     28.4208E-03    -136.590E+06    -227.361E+06    -269.642E+06    -256.179E+06    -150.053E+06    -227.361E+06    -39.1271E+06         52.3660
            2045     3.31498E-03     165.256E-03     122.757E-03    -69.6868E-03    -69.8170E-03    -68.2219E-03     121.174E-03    -69.6983E-03     34.6049E-03     379.580E-03    -188.916E-03    -190.664E-03    -190.009E-03     378.925E-03    -188.916E-03     37.4489E-03    -111.301E+06    -190.255E+06    -251.806E+06    -232.789E+06    -130.318E+06    -190.255E+06    -47.3434E+06         52.7224
            2046     4.14248E-03     165.350E-03     123.154E-03    -69.1057E-03    -69.2627E-03    -67.0536E-03     121.001E-03    -69.1611E-03     40.3778E-03     382.593E-03    -189.421E-03    -193.172E-03    -192.181E-03     381.602E-03    -189.421E-03     46.4928E-03    -88.7082E+06    -152.138E+06    -231.571E+06    -206.380E+06    -113.899E+06    -152.138E+06    -54.0229E+06         53.1893
            2047     4.96779E-03     165.464E-03     123.292E-03    -68.0427E-03    -68.5446E-03    -65.4291E-03     120.655E-03    -68.5221E-03     44.5557E-03     387.241E-03    -190.210E-03    -197.030E-03    -195.675E-03     385.885E-03    -190.210E-03     54.9232E-03    -68.2781E+06    -117.018E+06    -208.899E+06    -177.615E+06    -99.5623E+06    -117.018E+06    -58.3521E+06         53.7721
            2048     5.78972E-03     165.601E-03     123.129E-03    -66.3411E-03    -67.7476E-03    -63.2742E-03     120.063E-03    -67.7476E-03     47.7741E-03     393.515E-03    -191.337E-03    -202.178E-03    -200.443E-03     391.779E-03    -191.337E-03     62.9201E-03    -44.5017E+06    -86.2738E+06    -182.501E+06    -147.778E+06    -81.4700E+06    -84.0292E+06    -59.1621E+06         54.4750
            2049     6.60732E-03     165.759E-03     122.497E-03    -63.9962E-03    -66.8214E-03    -60.6575E-03     119.158E-03    -66.8214E-03     49.4486E-03     401.422E-03    -192.836E-03    -208.586E-03    -206.470E-03     399.306E-03    -192.836E-03     70.5298E-03    -17.8422E+06    -55.6811E+06    -153.266E+06    -118.967E+06    -57.3170E+06    -50.5052E+06    -57.3005E+06         55.2994
            2050     7.41975E-03     165.936E-03     121.363E-03    -61.0930E-03    -65.7445E-03    -57.6315E-03     117.902E-03    -65.7445E-03     49.7746E-03     411.070E-03    -194.729E-03    -216.341E-03    -213.862E-03     408.591E-03    -194.729E-03     77.6375E-03     4.40915E+06    -26.0621E+06    -125.306E+06    -93.5429E+06    -34.8448E+06    -18.5713E+06    -53.5668E+06         56.2420
            2051     8.22579E-03     166.131E-03     119.620E-03    -57.5425E-03    -64.5228E-03    -54.1818E-03     116.260E-03    -64.5228E-03     48.3289E-03     422.489E-03    -197.027E-03    -225.462E-03    -222.674E-03     419.700E-03    -197.027E-03     83.9313E-03     19.0557E+06    -420.700E+03    -102.256E+06    -72.1352E+06    -20.8743E+06     9.38865E+06    -49.4864E+06         57.2921
            2052     9.02400E-03     166.337E-03     117.318E-03    -53.3636E-03    -63.1611E-03    -50.2736E-03     114.228E-03    -63.1611E-03     45.5091E-03     435.292E-03    -199.709E-03    -235.583E-03    -232.568E-03     432.277E-03    -199.709E-03     89.0531E-03     33.7610E+06     19.1972E+06     -82.788E+06    -54.0125E+06    -8.33600E+06     32.5187E+06    -45.8558E+06         58.4298
            2053     9.81455E-03     166.549E-03     114.634E-03    -48.6590E-03    -61.6671E-03    -45.9938E-03     111.968E-03    -61.6671E-03     41.3249E-03     449.167E-03    -202.743E-03    -246.425E-03    -243.279E-03     446.022E-03    -202.743E-03     92.8561E-03     51.0604E+06     32.4835E+06    -64.2169E+06    -39.1297E+06     7.39620E+06     51.0604E+06    -41.5515E+06         59.6230
            2054     10.5962E-03     166.759E-03     111.782E-03    -43.5884E-03    -60.0601E-03    -41.5256E-03     109.719E-03    -60.0601E-03     35.4954E-03     463.901E-03    -206.104E-03    -257.797E-03    -254.646E-03     460.751E-03    -206.104E-03     94.8551E-03     66.4759E+06     45.2108E+06    -47.5648E+06    -27.6790E+06     25.3250E+06     66.4759E+06    -37.2646E+06         60.8261
            2055     11.3682E-03     166.956E-03     109.215E-03    -38.6026E-03    -58.3692E-03    -37.0638E-03     107.676E-03    -58.3692E-03     29.9116E-03     478.581E-03    -209.763E-03    -268.818E-03    -265.800E-03     475.564E-03    -209.763E-03     94.6160E-03     80.0900E+06     51.7947E+06    -33.6938E+06    -19.4617E+06     37.5626E+06     80.0900E+06    -31.3021E+06         61.9794
            2056     12.1315E-03     167.135E-03     107.008E-03    -33.7564E-03    -56.6307E-03    -32.8303E-03     106.082E-03    -56.6307E-03     22.2994E-03     490.849E-03    -213.592E-03    -277.257E-03    -274.622E-03     488.214E-03    -213.592E-03     89.5981E-03     93.8877E+06     62.6421E+06    -19.7931E+06    -13.0623E+06     55.9114E+06     93.8877E+06    -20.7027E+06         63.0139
            2057     12.8882E-03     167.284E-03     105.590E-03    -29.4326E-03    -54.8695E-03    -28.9536E-03     105.110E-03    -54.8695E-03     15.9651E-03     498.040E-03    -217.343E-03    -280.697E-03    -278.167E-03     495.510E-03    -217.343E-03     88.4702E-03     98.6478E+06     54.5919E+06    -8.13132E+06    -6.44626E+06     52.9068E+06     98.6478E+06    -8.37787E+06         63.8601
            2058     13.6469E-03     167.433E-03     105.165E-03    -25.7080E-03    -53.1055E-03    -25.5070E-03     104.964E-03    -53.1055E-03     7.99177E-03     497.452E-03    -220.784E-03    -276.668E-03    -274.419E-03     495.203E-03    -220.784E-03     82.7899E-03     115.396E+06     38.4718E+06    -4.86620E+06    -793.434E+03     34.3991E+06     115.396E+06    -349.192E+03         64.4586
            2059     824.345E-06     166.564E-03     103.978E-03    -69.3359E-03    -69.7801E-03    -69.5408E-03     103.794E-03    -69.3906E-03     11.1300E-03     390.876E-03    -195.249E-03    -195.627E-03    -195.335E-03     390.857E-03    -195.522E-03     4.37076E-03    -124.682E+06    -192.962E+06    -203.178E+06    -197.770E+06    -129.473E+06    -193.578E+06    -17.2703E+06         52.5997
            2060     1.64815E-03     166.596E-03     104.247E-03    -69.1872E-03    -69.3413E-03    -68.7207E-03     103.752E-03    -69.3127E-03     17.8823E-03     391.360E-03    -195.500E-03    -195.860E-03    -195.678E-03     391.305E-03    -195.627E-03     6.56827E-03    -104.078E+06    -179.267E+06    -205.122E+06    -193.182E+06    -116.018E+06    -179.267E+06    -31.5840E+06         52.7331
            2061     2.47176E-03     166.648E-03     104.705E-03    -68.6674E-03    -68.9813E-03    -67.7236E-03     103.732E-03    -68.9526E-03     25.7056E-03     391.978E-03    -195.725E-03    -196.254E-03    -195.937E-03     391.866E-03    -195.928E-03     9.52471E-03    -83.8934E+06    -157.201E+06    -205.909E+06    -184.573E+06    -105.230E+06    -157.201E+06    -45.5056E+06         52.9521
            2062     3.29467E-03     166.721E-03     105.269E-03    -68.0240E-03    -68.5074E-03    -66.5624E-03     103.796E-03    -68.4959E-03     31.6792E-03     393.336E-03    -196.264E-03    -197.072E-03    -196.796E-03     393.140E-03    -196.344E-03     12.9520E-03    -63.1198E+06    -133.057E+06    -203.286E+06    -173.021E+06    -93.3845E+06    -133.057E+06    -56.8048E+06         53.2635
            2063     4.11628E-03     166.817E-03     105.818E-03    -67.0539E-03    -67.9647E-03    -65.0849E-03     103.837E-03    -67.9531E-03     36.7180E-03     395.604E-03    -196.954E-03    -198.649E-03    -198.349E-03     395.303E-03    -196.954E-03     16.6308E-03    -42.9973E+06    -109.630E+06    -198.166E+06    -159.949E+06    -81.2139E+06    -109.630E+06    -65.9757E+06         53.6741
            2064     4.93554E-03     166.936E-03     106.117E-03    -65.5752E-03    -67.3026E-03    -63.1809E-03     103.723E-03    -67.3026E-03     40.2272E-03     398.878E-03    -197.800E-03    -201.078E-03    -200.663E-03     398.463E-03    -197.800E-03     20.7279E-03    -26.7626E+06    -87.9241E+06    -193.281E+06    -146.365E+06    -73.6783E+06    -87.9241E+06    -74.0161E+06         54.1906
            2065     5.75144E-03     167.079E-03     106.086E-03    -63.4717E-03    -66.5195E-03    -60.7480E-03     103.362E-03    -66.5195E-03     42.5976E-03     403.077E-03    -198.878E-03    -204.199E-03    -203.653E-03     402.531E-03    -198.878E-03     25.7719E-03    -11.8366E+06    -67.8748E+06    -185.684E+06    -132.027E+06    -65.4938E+06    -67.8748E+06    -79.4067E+06         54.8195
            2066     6.56419E-03     167.245E-03     105.488E-03    -60.6552E-03    -65.5850E-03    -57.7743E-03     102.607E-03    -65.5850E-03     43.3498E-03     408.143E-03    -200.176E-03    -207.966E-03    -207.267E-03     407.443E-03    -200.176E-03     31.7003E-03     4.21688E+06    -46.4954E+06    -171.786E+06    -116.563E+06    -51.0057E+06    -46.4954E+06    -80.7104E+06         55.5661
            2067     7.37306E-03     167.433E-03     104.300E-03    -57.2290E-03    -64.4926E-03    -54.3440E-03     101.415E-03    -64.4926E-03     42.7476E-03     414.348E-03    -201.701E-03    -212.647E-03    -211.771E-03     413.472E-03    -201.701E-03     38.5686E-03     17.2647E+06    -22.1685E+06    -152.582E+06    -99.0243E+06    -36.2931E+06    -22.1685E+06    -78.0030E+06         56.4325
            2068     8.17711E-03     167.640E-03     102.468E-03    -53.0941E-03    -63.2383E-03    -50.3955E-03     99.7697E-03    -63.2383E-03     40.5537E-03     421.733E-03    -203.443E-03    -218.290E-03    -217.203E-03     420.646E-03    -203.443E-03     46.3852E-03     24.6383E+06     2.73307E+06    -130.834E+06    -80.3278E+06    -25.8678E+06     2.73307E+06    -72.2495E+06         57.4157
            2069     8.97662E-03     167.862E-03     100.016E-03    -48.2534E-03    -61.8150E-03    -45.9053E-03     97.6679E-03    -61.8150E-03     36.9252E-03     430.208E-03    -205.371E-03    -224.837E-03    -223.505E-03     428.875E-03    -205.371E-03     54.6878E-03     33.3572E+06     21.7873E+06    -108.631E+06    -62.7313E+06    -16.1447E+06     25.3893E+06    -64.9662E+06         58.5046
            2070     9.77075E-03     168.092E-03     97.1804E-03    -43.0047E-03    -60.2253E-03    -41.0778E-03     95.2536E-03    -60.2253E-03     32.4840E-03     440.050E-03    -207.482E-03    -232.568E-03    -230.965E-03     438.446E-03    -207.482E-03     62.9253E-03     48.1094E+06     33.6402E+06    -85.8278E+06    -47.0697E+06    -3.15828E+06     46.1497E+06    -56.5478E+06         59.6758
            2071     10.5596E-03     168.324E-03     94.1270E-03    -37.5158E-03    -58.4897E-03    -36.1232E-03     92.7345E-03    -58.4897E-03     26.6838E-03     451.633E-03    -209.812E-03    -241.821E-03    -239.976E-03     449.789E-03    -209.812E-03     69.8781E-03     64.8906E+06     41.1207E+06    -63.0541E+06    -35.0354E+06     13.1020E+06     64.8906E+06    -45.8574E+06         60.8893
            2072     11.3420E-03     168.547E-03     91.2838E-03    -32.1786E-03    -56.6404E-03    -31.2257E-03     90.3308E-03    -56.6404E-03     21.3520E-03     464.664E-03    -212.439E-03    -252.224E-03    -250.242E-03     462.681E-03    -212.439E-03     74.3471E-03     83.7701E+06     35.7651E+06    -43.6756E+06    -26.8679E+06     18.9574E+06     83.7701E+06    -32.2529E+06         62.0851
            2073     12.1158E-03     168.753E-03     88.9040E-03    -27.1274E-03    -54.7185E-03    -26.6016E-03     88.3782E-03    -54.7185E-03     14.8306E-03     477.629E-03    -215.296E-03    -262.333E-03    -260.425E-03     475.721E-03    -215.296E-03     74.4866E-03     96.5283E+06     39.6878E+06    -28.2278E+06    -21.0306E+06     32.4906E+06     96.5283E+06    -18.6929E+06         63.1843
            2074     12.8814E-03     168.924E-03     87.5168E-03    -22.7305E-03    -52.7658E-03    -22.4895E-03     87.2758E-03    -52.7658E-03     10.0250E-03     487.561E-03    -218.257E-03    -269.305E-03    -267.400E-03     485.657E-03    -218.257E-03     75.5369E-03     96.5774E+06     31.2073E+06    -18.7273E+06    -17.0862E+06     29.5663E+06     96.5774E+06    -7.45076E+06         64.1001
            2075     13.6420E-03     169.072E-03     87.4903E-03    -19.2228E-03    -50.8239E-03    -19.1119E-03     87.3794E-03    -50.8239E-03     4.69155E-03     489.110E-03    -221.140E-03    -267.971E-03    -266.285E-03     487.425E-03    -221.140E-03     70.8172E-03     115.036E+06     29.6118E+06    -15.7956E+06    -11.6559E+06     25.4720E+06     115.036E+06    -1.01862E+06         64.7528
            2076     812.051E-06     168.058E-03     88.2681E-03    -71.1678E-03    -72.1227E-03    -71.7846E-03     88.1489E-03    -71.3867E-03     8.50556E-03     423.900E-03    -211.684E-03    -212.217E-03    -211.625E-03     423.841E-03    -212.217E-03    -8.04545E-03    -64.4678E+06    -88.7001E+06    -104.375E+06    -91.8238E+06    -77.4924E+06    -88.2262E+06    -13.7449E+06         53.3843
            2077     1.62382E-03     168.091E-03     88.2844E-03    -70.7468E-03    -71.4487E-03    -70.4345E-03     87.9721E-03    -71.4487E-03     13.2325E-03     423.822E-03    -211.598E-03    -212.223E-03    -211.405E-03     423.628E-03    -212.223E-03    -16.6755E-03    -46.1054E+06    -75.4486E+06    -107.841E+06    -88.4180E+06    -65.5284E+06    -75.4486E+06    -25.9316E+06         53.4930
            2078     2.43548E-03     168.142E-03     88.4231E-03    -69.6527E-03    -71.0207E-03    -69.0276E-03     87.7980E-03    -71.0207E-03     19.3015E-03     424.034E-03    -211.511E-03    -212.523E-03    -211.110E-03     423.633E-03    -212.523E-03    -24.4171E-03    -28.2234E+06    -56.9963E+06    -111.228E+06    -81.9182E+06    -57.5336E+06    -56.9963E+06    -37.5280E+06         53.6721
            2079     3.24582E-03     168.216E-03     88.5549E-03    -68.1191E-03    -70.4817E-03    -67.1690E-03     87.6048E-03    -70.4817E-03     23.7693E-03     424.596E-03    -211.574E-03    -213.022E-03    -210.941E-03     423.935E-03    -212.994E-03    -31.2563E-03    -11.8494E+06    -39.0531E+06    -113.513E+06    -74.4461E+06    -50.9166E+06    -39.0531E+06    -47.6442E+06         53.9284
            2080     4.05430E-03     168.312E-03     88.6898E-03    -66.1069E-03    -69.8210E-03    -64.8279E-03     87.4108E-03    -69.8210E-03     27.5046E-03     424.918E-03    -211.217E-03    -213.701E-03    -210.388E-03     423.975E-03    -213.587E-03    -37.0787E-03     1.90885E+06    -23.5585E+06    -113.895E+06    -66.9308E+06    -45.0554E+06    -23.5585E+06    -55.3351E+06         54.2693
            2081     4.86160E-03     168.433E-03     88.6780E-03    -63.5659E-03    -69.0297E-03    -62.0353E-03     87.1474E-03    -69.0297E-03     29.8506E-03     424.814E-03    -210.300E-03    -214.513E-03    -209.378E-03     423.609E-03    -214.230E-03    -40.9947E-03     13.3788E+06    -10.0182E+06    -113.061E+06    -60.3288E+06    -40.6899E+06    -8.68200E+06    -60.6901E+06         54.7035
            2082     5.66814E-03     168.577E-03     88.3441E-03    -60.4835E-03    -68.1023E-03    -58.7853E-03     86.6459E-03    -68.1023E-03     31.0429E-03     424.642E-03    -209.152E-03    -215.490E-03    -208.338E-03     423.231E-03    -214.893E-03    -42.5522E-03     24.0287E+06     419.828E+03    -112.631E+06    -55.6167E+06    -37.8333E+06     5.26741E+06    -64.7246E+06         55.2406
            2083     6.47307E-03     168.746E-03     87.4357E-03    -56.7112E-03    -67.0252E-03    -54.9809E-03     85.7053E-03    -67.0252E-03     30.7908E-03     424.439E-03    -207.795E-03    -216.644E-03    -207.366E-03     422.913E-03    -215.547E-03    -41.5307E-03     34.0938E+06     8.63362E+06    -110.774E+06    -52.6396E+06    -31.4511E+06     16.0445E+06    -67.5271E+06         55.8907
            2084     7.27673E-03     168.937E-03     85.8673E-03    -52.1890E-03    -65.7740E-03    -50.5347E-03     84.2130E-03    -65.7740E-03     29.3932E-03     424.087E-03    -206.105E-03    -217.983E-03    -206.392E-03     422.563E-03    -216.171E-03    -37.3657E-03     40.7638E+06     14.2685E+06    -107.436E+06    -51.4715E+06    -25.2429E+06     24.3111E+06    -67.6996E+06         56.6633
            2085     8.08001E-03     169.149E-03     83.6070E-03    -46.9714E-03    -64.3240E-03    -45.5000E-03     82.1357E-03    -64.3240E-03     26.8805E-03     423.806E-03    -204.247E-03    -219.560E-03    -205.660E-03     422.394E-03    -216.734E-03    -29.8518E-03     44.3345E+06     17.9657E+06    -104.364E+06    -52.5330E+06    -21.6274E+06     32.0962E+06    -65.4002E+06         57.5649
            2086     8.88266E-03     169.377E-03     80.7852E-03    -41.2372E-03    -62.6630E-03    -40.0481E-03     79.5961E-03    -62.6630E-03     23.2709E-03     424.295E-03    -202.757E-03    -221.537E-03    -205.854E-03     423.077E-03    -217.223E-03    -19.1625E-03     47.6842E+06     21.5998E+06    -99.9589E+06    -54.5026E+06    -17.1309E+06     40.9586E+06    -61.2644E+06         58.5962
            2087     9.68478E-03     169.617E-03     77.6256E-03    -35.2757E-03    -60.7959E-03    -34.3812E-03     76.7311E-03    -60.7959E-03     19.2500E-03     426.515E-03    -202.249E-03    -224.265E-03    -207.853E-03     425.528E-03    -217.675E-03    -5.35567E-03     54.3715E+06     26.4880E+06    -92.9883E+06    -55.0474E+06    -9.49323E+06     52.4119E+06    -56.0994E+06         59.7456
            2088     10.4840E-03     169.864E-03     74.2192E-03    -29.3036E-03    -58.7438E-03    -28.7319E-03     73.6476E-03    -58.7438E-03     14.3880E-03     431.229E-03    -203.285E-03    -227.944E-03    -212.300E-03     430.459E-03    -218.159E-03     11.4036E-03     64.9314E+06     27.3676E+06    -82.0622E+06    -52.1820E+06    -2.51267E+06     64.9314E+06    -48.3457E+06         60.9824
            2089     11.2783E-03     170.108E-03     70.9508E-03    -23.6779E-03    -56.5423E-03    -23.3502E-03     70.6231E-03    -56.5423E-03     10.0765E-03     438.876E-03    -206.517E-03    -232.359E-03    -219.384E-03     438.164E-03    -218.781E-03     29.8154E-03     80.6048E+06     18.6842E+06    -66.4027E+06    -44.3209E+06    -3.39757E+06     80.6048E+06    -36.8913E+06         62.2481
            2090     12.0681E-03     170.336E-03     68.0991E-03    -18.5073E-03    -54.2383E-03    -18.3524E-03     67.9442E-03    -54.2383E-03     5.45288E-03     449.614E-03    -212.474E-03    -237.140E-03    -229.094E-03     448.697E-03    -219.603E-03     46.6761E-03     98.7052E+06     25.6728E+06    -44.3561E+06    -29.7415E+06     11.0581E+06     98.7052E+06    -26.0907E+06         63.4527
            2091     12.8522E-03     170.534E-03     66.0733E-03    -13.9954E-03    -51.8869E-03    -13.9382E-03     66.0161E-03    -51.8869E-03     2.73297E-03     461.813E-03    -218.777E-03    -243.036E-03    -239.775E-03     460.491E-03    -220.716E-03     60.4755E-03     108.356E+06     23.5895E+06    -28.5158E+06    -11.9658E+06     7.03948E+06     108.356E+06    -11.7617E+06         64.4821
            2092     13.6323E-03     170.692E-03     65.4374E-03    -10.4945E-03    -49.5539E-03    -10.4600E-03     65.4029E-03    -49.5539E-03     636.147E-06     469.539E-03    -222.086E-03    -247.453E-03    -246.138E-03     468.224E-03    -222.086E-03     61.0587E-03     122.150E+06     31.9759E+06    -16.7034E+06     1.52032E+06     13.7521E+06     122.150E+06    -1.65854E+06         65.2215
            2093     788.089E-06     169.621E-03     80.6700E-03    -80.9048E-03    -81.9570E-03    -81.1911E-03     80.6098E-03    -81.6104E-03     2.62855E-03     486.704E-03    -242.618E-03    -244.086E-03    -242.755E-03     486.359E-03    -243.604E-03    -27.9246E-03     19.2618E+06     13.6687E+06    -38.8186E+06     13.1848E+06    -33.9143E+06     14.8414E+06    -10.8183E+06         54.0875
            2094     1.57660E-03     169.652E-03     79.8852E-03    -79.4930E-03    -81.2902E-03    -79.3719E-03     79.7641E-03    -81.2902E-03     1.66046E-03     485.392E-03    -241.857E-03    -243.535E-03    -240.834E-03     484.369E-03    -243.535E-03    -50.7661E-03     27.7008E+06     20.8372E+06    -37.5447E+06     14.3660E+06    -26.1107E+06     22.7379E+06    -17.5876E+06         54.1734
            2095     2.36414E-03     169.703E-03     78.7745E-03    -76.8799E-03    -80.6432E-03    -76.6466E-03     78.5412E-03    -80.6432E-03     3.33449E-03     484.636E-03    -241.063E-03    -243.573E-03    -238.972E-03     482.544E-03    -243.573E-03    -73.5866E-03     38.1274E+06     27.6989E+06    -38.3611E+06     14.8925E+06    -21.8988E+06     34.4716E+06    -23.1955E+06         54.3162
            2096     3.15091E-03     169.775E-03     77.4823E-03    -73.2535E-03    -79.7605E-03    -72.8861E-03     77.1149E-03    -79.7605E-03     3.86183E-03     482.982E-03    -239.230E-03    -243.752E-03    -235.773E-03     479.525E-03    -243.752E-03    -94.7357E-03     49.3781E+06     32.5117E+06    -38.6829E+06     14.5212E+06    -17.9806E+06     46.6663E+06    -27.8676E+06         54.5222
            2097     3.93754E-03     169.869E-03     76.0818E-03    -68.8347E-03    -78.6439E-03    -68.3332E-03     75.5804E-03    -78.6439E-03     4.68612E-03     480.146E-03    -236.268E-03    -243.878E-03    -231.254E-03     475.131E-03    -243.878E-03    -113.602E-03     60.1573E+06     34.7476E+06    -41.1999E+06     12.6641E+06    -17.1058E+06     58.1467E+06    -31.2745E+06         54.7994
            2098     4.72481E-03     169.983E-03     74.3913E-03    -63.6531E-03    -77.3052E-03    -63.0409E-03     73.7790E-03    -77.3052E-03     4.77339E-03     476.007E-03    -232.145E-03    -243.862E-03    -225.476E-03     469.339E-03    -243.862E-03    -129.767E-03     68.0652E+06     35.2026E+06    -43.2822E+06     9.72178E+06    -16.8939E+06     67.1577E+06    -32.9812E+06         55.1581
            2099     5.51292E-03     170.120E-03     72.2917E-03    -57.9159E-03    -75.7512E-03    -57.2358E-03     71.6116E-03    -75.7512E-03     4.64221E-03     470.302E-03    -226.651E-03    -243.651E-03    -218.379E-03     462.030E-03    -243.651E-03    -142.511E-03     74.5660E+06     34.5836E+06    -43.5456E+06     5.90873E+06    -14.8707E+06     74.5660E+06    -34.1920E+06         55.6108
            2100     6.30290E-03     170.280E-03     69.7338E-03    -51.6746E-03    -73.9844E-03    -50.9786E-03     69.0378E-03    -73.9844E-03     4.22644E-03     463.032E-03    -219.844E-03    -243.188E-03    -210.183E-03     453.371E-03    -243.188E-03    -151.107E-03      80.559E+06     32.6473E+06    -43.7101E+06     1.13059E+06    -12.1934E+06      80.559E+06    -34.6615E+06         56.1726
            2101     7.09581E-03     170.462E-03     66.7231E-03    -44.9427E-03    -71.9891E-03    -44.2813E-03     66.0617E-03    -71.9891E-03     3.62649E-03     454.144E-03    -211.734E-03    -242.410E-03    -201.037E-03     443.447E-03    -242.410E-03    -155.003E-03     84.8638E+06     29.0013E+06    -43.5752E+06    -4.46542E+06    -10.1085E+06     84.8638E+06    -33.5676E+06         56.8595
            2102     7.89272E-03     170.663E-03     63.3532E-03    -37.8972E-03    -69.7497E-03    -37.3151E-03     62.7711E-03    -69.7497E-03     2.96979E-03     443.823E-03    -202.559E-03    -241.264E-03    -191.321E-03     432.586E-03    -241.264E-03    -153.706E-03     88.7070E+06     24.5141E+06    -43.6484E+06    -9.45868E+06    -9.67560E+06     88.7070E+06    -31.3131E+06         57.6874
            2103     8.69554E-03     170.882E-03     59.7460E-03    -30.8271E-03    -67.2683E-03    -30.3538E-03     59.2727E-03    -67.2683E-03     2.01794E-03     432.798E-03    -193.066E-03    -239.731E-03    -181.861E-03     421.592E-03    -239.731E-03    -147.021E-03     93.7483E+06     21.3044E+06    -41.8714E+06    -12.6116E+06    -7.95541E+06     93.7483E+06    -29.1053E+06         58.6678
            2104     9.50417E-03     171.116E-03     56.0183E-03    -24.0504E-03    -64.5647E-03    -23.6893E-03     55.6573E-03    -64.5647E-03     964.604E-06     421.706E-03    -183.896E-03    -237.810E-03    -173.378E-03     411.188E-03    -237.810E-03    -134.221E-03     99.0425E+06     18.7261E+06    -38.7560E+06    -14.9883E+06    -5.04163E+06     99.0425E+06    -25.9096E+06         59.8014
            2105     10.3204E-03     171.361E-03     52.1875E-03    -17.7522E-03    -61.6722E-03    -17.4861E-03     51.9215E-03    -61.6722E-03    -578.105E-06     411.572E-03    -176.055E-03    -235.516E-03    -166.868E-03     402.385E-03    -235.516E-03    -114.211E-03     102.955E+06     17.4138E+06    -36.0047E+06    -16.8724E+06    -1.71851E+06     102.955E+06    -23.3677E+06         61.0686
            2106     11.1452E-03     171.611E-03     48.5001E-03    -12.1457E-03    -58.6382E-03    -11.9602E-03     48.3146E-03    -58.6382E-03    -1.66521E-03     404.557E-03    -171.608E-03    -232.949E-03    -164.108E-03     397.057E-03    -232.949E-03    -88.1603E-03     102.778E+06     13.0422E+06    -39.1210E+06    -18.9887E+06    -7.09014E+06     102.778E+06    -21.2971E+06         62.4139
            2107     11.9744E-03     171.856E-03     45.1898E-03    -7.28557E-03    -55.5217E-03    -7.13678E-03     45.0410E-03    -55.5217E-03    -2.81234E-03     402.828E-03    -172.507E-03    -230.321E-03    -166.895E-03     397.216E-03    -230.321E-03    -58.3625E-03     109.447E+06     20.6672E+06    -35.5266E+06    -18.0653E+06     3.20585E+06     109.447E+06    -19.5511E+06         63.7350
            2108     12.8003E-03     172.082E-03     42.4697E-03    -3.24322E-03    -52.3914E-03    -3.14319E-03     42.3697E-03    -52.3914E-03    -2.76826E-03     406.514E-03    -176.998E-03    -229.516E-03    -175.194E-03     403.041E-03    -227.848E-03    -25.6432E-03     109.129E+06     14.0007E+06    -39.1994E+06    -10.7403E+06    -14.4584E+06     109.129E+06    -13.7986E+06         64.8864
            2109     13.6145E-03     172.266E-03     40.5340E-03     18.0760E-06    -49.3195E-03     68.9114E-06     40.4832E-03    -49.3195E-03    -2.09478E-03     410.336E-03    -179.229E-03    -231.107E-03    -183.375E-03     408.894E-03    -225.520E-03     6.12758E-03     105.711E+06     28.4236E+06    -29.2699E+06     1.28796E+06    -2.13423E+06     105.711E+06    -5.52556E+06         65.7172


