********************************************************************************
Field Output Report, written Tue May  6 03:46:31 2025

Source 1
---------

   ODB: D:/AISI_1020/Vel_5_updated/1020_2a_32_rd_1000_cal_0_v_5_f_025.odb
   Step: Step-1
   Frame: Increment  16313337: Step Time =    2.084

Loc 1 : Nodal values from source 1

Output sorted by column "Node Label".

Field Output reported at nodes for region: DIE_2A_32_D0_36-1.Region_1
   Computation algorithm: EXTRAPOLATE_COMPUTE_AVERAGE
   Averaged at nodes
   Averaging regions: ODB_REGIONS

      Node Label     COORD.COOR1     COORD.COOR2
                          @Loc 1          @Loc 1
-------------------------------------------------
               1     20.6653E-03     137.937E-03


Field Output reported at nodes for region: DIE_2A_32_D0_36-1.Region_2
   Computation algorithm: EXTRAPOLATE_COMPUTE_AVERAGE
   Averaged at nodes
   Averaging regions: ODB_REGIONS

      Node Label     COORD.COOR1     COORD.COOR2
                          @Loc 1          @Loc 1
-------------------------------------------------
               1     20.6653E-03     137.937E-03


Field Output reported at nodes for part: WIRE_1-1
   Computation algorithm: EXTRAPOLATE_COMPUTE_AVERAGE
   Averaged at nodes
   Averaging regions: ODB_REGIONS

      Node Label     COORD.COOR1     COORD.COOR2    ER.Max. Prin    ER.Mid. Prin    ER.Min. Prin         ER.ER11         ER.ER22         ER.ER33         ER.ER12    PE.Max. Prin    PE.Mid. Prin    PE.Min. Prin         PE.PE11         PE.PE22         PE.PE33         PE.PE12     S.Max. Prin     S.Mid. Prin     S.Min. Prin           S.S11           S.S22           S.S33           S.S12            TEMP
                          @Loc 1          @Loc 1          @Loc 1          @Loc 1          @Loc 1          @Loc 1          @Loc 1          @Loc 1          @Loc 1          @Loc 1          @Loc 1          @Loc 1          @Loc 1          @Loc 1          @Loc 1          @Loc 1          @Loc 1          @Loc 1          @Loc 1          @Loc 1          @Loc 1          @Loc 1          @Loc 1          @Loc 1
-----------------------------------------------------------------------------------------------------------------------------------------------------------------------------------------------------------------------------------------------------------------------------------------------------------------------------------------------------------------------------------------------------------------
               1     16.0105E-03     70.3665E-03         1.16510     274.606E-03        -3.21704         1.16510        -3.21704     274.606E-03    -6.19118E-03     234.796E-03    -116.861E-03    -117.935E-03    -116.325E-03     234.260E-03    -117.935E-03     27.4349E-03     119.416E+06     112.726E+06    -2.92678E+06    -2.92349E+06     119.413E+06     112.726E+06     2.93272E+03         52.2266
               2    -2.04374E-06     69.4690E-03         1.04205        -1.06915        -1.68526        -1.27601        -1.47840         1.04205    -564.860E-03     236.916E-03    -118.178E-03    -118.738E-03    -118.176E-03     236.914E-03    -118.738E-03    -1.67028E-03    -107.592E+06    -111.853E+06    -281.991E+06    -110.103E+06    -281.981E+06    -109.351E+06    -1.03213E+06         42.3120
               3     1.42405E-06    -13.8778E-18         2.80602         2.79483        -7.43883         2.79483        -7.43883         2.80602     7.29390E-03     451.303E-03    -224.923E-03    -226.380E-03    -226.379E-03     451.302E-03    -224.923E-03     1.60730E-03    -95.4659E+06    -95.7494E+06    -259.782E+06    -95.4722E+06    -259.776E+06    -95.7494E+06    -1.01371E+06         44.6542
               4     15.4412E-03    -13.8778E-18         2.20892         1.59426        -6.35438         1.57281        -6.33293         2.20892    -824.785E-03     428.195E-03    -144.409E-03    -283.786E-03    -246.715E-03     391.124E-03    -144.409E-03     316.351E-03     138.595E+06     107.312E+06    -3.29990E+06    -3.11247E+06     107.125E+06     138.595E+06    -4.54942E+06         49.1473
               5     15.7998E-03     141.101E-03         1.03381    -213.951E-03    -377.192E-03    -224.562E-03    -366.580E-03         1.03381     80.4902E-03     66.7847E-03     53.0814E-03    -119.866E-03     66.5751E-03     53.2909E-03    -119.866E-03     3.36282E-03     33.7229E+06     11.8628E+06    -55.4968E+06     18.8600E+06     26.7257E+06    -55.4968E+06    -10.1980E+06         48.2295
               6     7.17363E-06     136.444E-03     261.720E-03     259.754E-03    -117.997E-03     259.150E-03    -117.392E-03     261.720E-03     30.2059E-03     119.307E-03    -57.2539E-03    -62.0527E-03    -61.8811E-03     119.135E-03    -57.2539E-03    -11.1507E-03     66.6977E+06     60.2352E+06    -13.0896E+06     56.0694E+06    -8.92379E+06     66.6977E+06    -16.9736E+06         26.4052
               7     15.1203E-03     70.3322E-03         1.10415     255.043E-03        -3.13276         1.10415        -3.13276     255.043E-03    -1.11476E-03     246.856E-03    -117.419E-03    -129.437E-03    -117.161E-03     235.117E-03    -117.956E-03     106.706E-03     119.622E+06     113.401E+06    -6.60015E+06    -6.59775E+06     119.620E+06     113.401E+06    -217.043E+03         52.0921
               8     14.2298E-03     70.1081E-03     984.404E-03     219.343E-03        -2.96989     984.399E-03        -2.96989     219.343E-03    -3.59974E-03     249.332E-03    -118.016E-03    -131.316E-03    -116.211E-03     234.227E-03    -118.016E-03     143.719E-03     117.553E+06     112.168E+06    -14.5308E+06    -14.5291E+06     115.043E+06     114.678E+06    -386.001E+03         51.7572
               9     13.3403E-03     69.9891E-03     869.035E-03     187.154E-03        -2.81561     869.012E-03        -2.81559     187.154E-03    -16.9214E-03     242.400E-03    -118.077E-03    -124.323E-03    -114.666E-03     232.743E-03    -118.077E-03     116.580E-03     113.471E+06     106.928E+06    -23.3578E+06    -23.3566E+06     106.927E+06     113.471E+06    -228.432E+03         51.2951
              10     12.4508E-03     69.8317E-03     758.712E-03     156.691E-03        -2.66873     758.648E-03        -2.66867     156.691E-03    -28.5734E-03     242.087E-03    -118.071E-03    -124.016E-03    -114.400E-03     232.471E-03    -118.071E-03     116.215E-03     104.300E+06     95.8906E+06    -33.2227E+06    -33.2204E+06     100.264E+06     99.9247E+06    -106.718E+03         50.7167
              11     11.5603E-03     69.7142E-03     653.563E-03     127.587E-03        -2.52889     653.325E-03        -2.52865     127.587E-03    -51.5351E-03     237.589E-03    -117.969E-03    -119.620E-03    -113.989E-03     231.958E-03    -117.969E-03     88.1512E-03     91.8369E+06     65.8028E+06    -42.9461E+06    -42.9424E+06     91.8332E+06     65.8028E+06    -228.460E+03         50.0378
              12     10.6707E-03     69.6305E-03     552.879E-03     98.1073E-03        -2.39372     552.594E-03        -2.39344     98.1073E-03    -57.1623E-03     235.357E-03    -117.325E-03    -118.031E-03    -114.355E-03     232.252E-03    -117.898E-03     65.0675E-03     62.3569E+06     30.6075E+06    -50.3897E+06    -50.3841E+06     62.3512E+06     30.6075E+06     34.5112E+03         49.2796
              13     9.78094E-03     69.5709E-03     456.959E-03     68.7442E-03        -2.26398     456.566E-03        -2.26359     68.7442E-03    -62.5353E-03     234.667E-03    -116.701E-03    -117.965E-03    -115.067E-03     233.032E-03    -117.965E-03     47.2401E-03     19.7752E+06    -21.3587E+06    -57.8161E+06    -57.0211E+06    -12.0634E+06     9.68484E+06     432.517E+03         48.4661
              14     8.89118E-03     69.5283E-03     365.756E-03     40.1916E-03        -2.14064     365.417E-03        -2.14031     40.1916E-03    -53.1008E-03     234.802E-03    -116.730E-03    -118.073E-03    -115.830E-03     233.903E-03    -118.073E-03     35.1883E-03    -3.72424E+06    -63.4655E+06    -94.4450E+06    -63.5361E+06    -94.3745E+06    -3.72424E+06     450.852E+03         47.6235
              15     8.00187E-03     69.4977E-03     280.435E-03     13.0301E-03        -2.02496     280.239E-03        -2.02476     13.0301E-03    -39.8185E-03     234.955E-03    -116.808E-03    -118.147E-03    -116.310E-03     234.457E-03    -118.147E-03     26.0780E-03    -13.7975E+06    -68.6201E+06    -149.702E+06    -68.6333E+06    -149.689E+06    -13.7975E+06     531.564E+03         46.7781
              16     7.11239E-03     69.4771E-03     201.770E-03    -12.4249E-03        -1.91806     201.549E-03        -1.91784    -12.4249E-03    -42.4613E-03     235.175E-03    -116.972E-03    -118.202E-03    -116.727E-03     234.930E-03    -118.202E-03     18.2278E-03    -24.1479E+06    -74.0525E+06    -192.293E+06    -74.0617E+06    -192.284E+06    -24.1479E+06     154.828E+03         45.9553
              17     6.22268E-03     69.4646E-03     129.940E-03    -35.8706E-03        -1.82049     129.872E-03        -1.82042    -35.8706E-03    -20.0229E-03     235.490E-03    -117.268E-03    -118.222E-03    -117.159E-03     235.381E-03    -118.222E-03     12.0860E-03    -37.0648E+06    -80.3049E+06    -224.486E+06    -80.3107E+06    -224.480E+06    -37.0648E+06    -146.248E+03         45.1783
              18     5.33384E-03     69.4578E-03     66.2790E-03    -56.9846E-03        -1.73332     66.1286E-03        -1.73317    -56.9846E-03    -26.2345E-03     235.625E-03    -117.400E-03    -118.225E-03    -117.359E-03     235.584E-03    -118.225E-03     7.33647E-03    -48.2202E+06    -86.3475E+06    -241.588E+06    -86.3697E+06    -241.566E+06    -48.2202E+06    -485.851E+03         44.4675
              19     4.44506E-03     69.4552E-03     10.8919E-03    -75.5251E-03        -1.65777     10.6668E-03        -1.65755    -75.5251E-03    -38.2781E-03     235.855E-03    -117.652E-03    -118.203E-03    -117.642E-03     235.845E-03    -118.203E-03     3.30068E-03    -61.5570E+06    -92.7877E+06    -252.379E+06    -92.8193E+06    -252.347E+06    -61.5570E+06    -1.49430E+06         43.8397
              20     3.55565E-03     69.4580E-03    -35.9137E-03    -91.1704E-03        -1.59418    -36.1982E-03        -1.59389    -91.1704E-03    -40.2206E-03     236.039E-03    -117.893E-03    -118.146E-03    -117.892E-03     236.037E-03    -118.146E-03     648.557E-06    -76.9541E+06    -98.3948E+06    -262.326E+06    -98.4106E+06    -262.310E+06    -76.9541E+06    -1.31646E+06         43.3086
              21     2.66653E-03     69.4602E-03    -70.5681E-03    -103.784E-03        -1.54532    -71.6746E-03        -1.54421    -103.784E-03    -75.0305E-03     235.865E-03    -117.732E-03    -118.133E-03    -117.731E-03     235.865E-03    -118.133E-03    -442.649E-06    -88.2852E+06    -102.959E+06    -270.256E+06    -102.964E+06    -270.250E+06    -88.2852E+06    -21.3509E+03         42.8842
              22     1.77803E-03     69.4635E-03    -97.6099E-03    -112.720E-03        -1.50915    -100.151E-03        -1.50661    -112.720E-03     16.2470E-03     235.968E-03    -117.741E-03    -118.227E-03    -117.740E-03     235.967E-03    -118.227E-03    -740.649E-06    -98.7880E+06    -106.658E+06    -276.969E+06    -106.670E+06    -276.957E+06    -98.7880E+06     783.952E+03         42.5735
              23     888.611E-06     69.4672E-03     465.443E-03    -592.621E-03        -1.58906    -695.229E-03        -1.48399     462.982E-03    -215.375E-03     236.562E-03    -118.042E-03    -118.521E-03    -118.040E-03     236.561E-03    -118.521E-03    -1.15598E-03    -105.713E+06    -109.917E+06    -280.681E+06    -109.050E+06    -280.668E+06    -106.593E+06    -13.7321E+03         42.3797
              24     1.51574E-06     68.2024E-03         1.44205        -1.13733        -2.01421        -1.28256        -1.86898         1.44205    -635.982E-03     237.418E-03    -118.201E-03    -119.217E-03    -118.939E-03     237.416E-03    -118.477E-03    -1.16589E-03    -107.924E+06    -110.584E+06    -279.498E+06    -107.926E+06    -279.496E+06    -110.584E+06     250.089E+03         42.3793
              25    -223.638E-09     66.9338E-03         1.82318        -1.11464        -2.41563        -1.22065        -2.30963         1.82318    -699.934E-03     235.735E-03    -117.272E-03    -118.463E-03    -118.463E-03     235.735E-03    -117.272E-03    -861.053E-06    -111.215E+06    -114.659E+06    -281.451E+06    -113.761E+06    -281.448E+06    -112.115E+06     199.353E+03         42.4462
              26     1.04679E-06     65.6705E-03         2.18185        -1.01539        -2.87264        -1.09673        -2.79131         2.18185    -751.808E-03     234.596E-03    -116.602E-03    -117.994E-03    -117.992E-03     234.594E-03    -116.602E-03     271.125E-06    -109.438E+06    -114.887E+06    -283.104E+06    -111.984E+06    -283.102E+06    -112.343E+06     136.691E+03         42.5125
              27     579.857E-09     64.4094E-03         2.51307    -845.607E-03        -3.36872    -911.319E-03        -3.30300         2.51307    -797.764E-03     236.610E-03    -117.333E-03    -119.277E-03    -119.271E-03     236.604E-03    -117.333E-03    -947.458E-06    -108.223E+06    -113.526E+06    -281.599E+06    -110.644E+06    -281.576E+06    -111.128E+06    -1.01267E+06         42.5781
              28     1.20318E-06     63.1432E-03         2.80263    -603.806E-03        -3.88330    -657.978E-03        -3.82913         2.80263    -830.749E-03     237.602E-03    -118.258E-03    -119.344E-03    -119.337E-03     237.595E-03    -118.258E-03    -2.89751E-03    -111.895E+06    -115.486E+06    -286.981E+06    -114.321E+06    -286.954E+06    -113.088E+06    -2.03905E+06         42.6431
              29    -1.08804E-06     61.8740E-03         3.03086    -298.264E-03        -4.40309    -342.701E-03        -4.35865         3.03086    -845.067E-03     236.168E-03    -118.023E-03    -118.144E-03    -118.102E-03     236.164E-03    -118.062E-03    -2.35982E-03    -112.728E+06    -114.187E+06    -290.142E+06    -113.000E+06    -290.136E+06    -113.921E+06    -725.048E+03         42.7077
              30     1.00279E-06     60.6097E-03         3.19676     54.8134E-03        -4.91602     17.6378E-03        -4.87885         3.19676    -853.559E-03     235.726E-03    -117.458E-03    -118.268E-03    -118.226E-03     235.723E-03    -117.497E-03    -964.491E-06    -112.153E+06    -113.114E+06    -287.921E+06    -112.436E+06    -287.905E+06    -112.848E+06     1.17566E+06         42.7717
              31     349.098E-09     59.3446E-03         3.30731     445.186E-03        -5.41097     413.294E-03        -5.37908         3.30731    -859.445E-03     235.866E-03    -117.186E-03    -118.680E-03    -118.674E-03     235.860E-03    -117.186E-03    -1.58790E-03    -110.082E+06    -112.487E+06    -284.663E+06    -111.810E+06    -284.645E+06    -110.776E+06     824.499E+03         42.8353
              32     927.501E-09     58.0806E-03         3.36345     860.381E-03        -5.87363     832.876E-03        -5.84612         3.36345    -857.012E-03     235.083E-03    -116.769E-03    -118.314E-03    -118.308E-03     235.076E-03    -116.769E-03    -2.88081E-03    -110.116E+06    -112.939E+06    -283.169E+06    -111.829E+06    -283.168E+06    -111.228E+06    -438.552E+03         42.8986
              33     506.573E-09     56.8198E-03         3.37045         1.28180        -6.29464         1.25795        -6.27080         3.37045    -847.004E-03     236.426E-03    -117.482E-03    -118.944E-03    -118.942E-03     236.424E-03    -117.482E-03    -1.44262E-03    -111.623E+06    -113.016E+06    -278.454E+06    -111.910E+06    -278.448E+06    -112.735E+06     645.647E+03         42.9613
              34     616.609E-09     55.5462E-03         3.32275         1.70492        -6.66399         1.68432        -6.64339         3.32275    -827.960E-03     237.926E-03    -118.634E-03    -119.291E-03    -119.291E-03     237.925E-03    -118.634E-03    -352.257E-06    -112.429E+06    -113.405E+06    -279.613E+06    -112.735E+06    -279.588E+06    -113.124E+06    -542.360E+03         43.0233
              35    -606.683E-09     54.2798E-03         3.21562         2.12104        -6.97081         2.10347        -6.95324         3.21562    -797.049E-03     236.713E-03    -118.010E-03    -118.703E-03    -118.702E-03     236.712E-03    -118.010E-03    -694.355E-06    -110.188E+06    -111.355E+06    -278.837E+06    -110.738E+06    -278.760E+06    -110.883E+06     934.773E+03         43.0847
              36     1.79540E-06     53.0167E-03         3.06477         2.50507        -7.20657         2.49000        -7.19149         3.06477    -763.691E-03     235.983E-03    -117.442E-03    -118.542E-03    -118.539E-03     235.981E-03    -117.442E-03     10.7609E-06    -114.556E+06    -115.177E+06    -281.503E+06    -115.087E+06    -281.444E+06    -114.705E+06     2.06726E+06         43.1454
              37    -1.05629E-06     51.7479E-03         2.99462         2.73023        -7.36522         2.83420        -7.35222         2.87766    -727.095E-03     235.901E-03    -117.631E-03    -118.270E-03    -118.054E-03     235.900E-03    -117.845E-03     762.691E-06    -114.213E+06    -114.714E+06    -283.492E+06    -114.223E+06    -283.481E+06    -114.714E+06    -1.03783E+06         43.2056
              38     658.039E-09     50.4848E-03         3.14784         2.65506        -7.44711         3.13654        -7.43581         2.65506    -691.370E-03     235.336E-03    -117.094E-03    -118.242E-03    -118.027E-03     235.336E-03    -117.309E-03    -611.106E-06    -115.009E+06    -116.270E+06    -282.730E+06    -115.034E+06    -282.704E+06    -116.270E+06     213.630E+03         43.2649
              39     974.365E-09     49.2237E-03         3.38593         2.41312        -7.45257         3.37563        -7.44228         2.41312    -667.462E-03     235.761E-03    -117.209E-03    -118.551E-03    -118.548E-03     235.757E-03    -117.209E-03    -1.89321E-03    -116.044E+06    -117.840E+06    -282.600E+06    -116.960E+06    -282.571E+06    -116.952E+06     81.5625E+03         43.3234
              40    -260.907E-09     47.9588E-03         3.55479         2.15755        -7.38120         3.54519        -7.37160         2.15755    -647.698E-03     236.305E-03    -117.668E-03    -118.636E-03    -118.631E-03     236.299E-03    -117.668E-03    -2.71487E-03    -112.868E+06    -115.534E+06    -281.745E+06    -113.769E+06    -281.731E+06    -114.646E+06    -1.17343E+06         43.3810
              41     1.20976E-06     46.6893E-03         3.66495         1.88564        -7.23294         3.65560        -7.22359         1.88564    -638.208E-03     235.593E-03    -117.156E-03    -118.437E-03    -118.435E-03     235.591E-03    -117.156E-03    -1.18056E-03    -112.693E+06    -116.766E+06    -284.279E+06    -114.989E+06    -284.278E+06    -114.471E+06     203.459E+03         43.4381
              42     85.0607E-09     45.4262E-03         3.71246         1.60248        -7.01068         3.70297        -7.00118         1.60248    -637.950E-03     235.322E-03    -116.880E-03    -118.442E-03    -118.440E-03     235.319E-03    -116.880E-03    -1.34225E-03    -109.586E+06    -113.949E+06    -281.976E+06    -111.883E+06    -281.973E+06    -111.654E+06    -33.3642E+03         43.4948
              43     1.35746E-06     44.1666E-03         3.68462         1.31815        -6.72347         3.67440        -6.71325         1.31815    -651.371E-03     236.389E-03    -117.659E-03    -118.730E-03    -118.494E-03     236.383E-03    -117.889E-03    -2.98457E-03    -112.816E+06    -115.986E+06    -281.953E+06    -113.920E+06    -281.951E+06    -114.884E+06    -579.898E+03         43.5508
              44    -1.78051E-06     42.8969E-03         3.59075         1.03758        -6.37507         3.57951        -6.36383         1.03758    -668.707E-03     236.764E-03    -118.234E-03    -118.530E-03    -118.225E-03     236.755E-03    -118.530E-03    -3.52827E-03    -114.195E+06    -116.204E+06    -281.966E+06    -115.297E+06    -281.966E+06    -115.102E+06    -186.997E+03         43.6061
              45     1.61904E-06     41.6300E-03         3.44737     761.632E-03        -5.97615         3.43448        -5.96326     761.632E-03    -695.159E-03     236.059E-03    -117.522E-03    -118.536E-03    -118.465E-03     236.053E-03    -117.588E-03    -2.13008E-03    -108.498E+06    -109.991E+06    -280.122E+06    -108.522E+06    -280.098E+06    -109.991E+06     1.47712E+06         43.6607
              46     42.4020E-09     40.3650E-03         3.24884     498.641E-03        -5.54138         3.23363        -5.52617     498.641E-03    -729.539E-03     235.804E-03    -117.330E-03    -118.474E-03    -118.474E-03     235.804E-03    -117.330E-03    -793.436E-06    -109.617E+06    -113.562E+06    -280.731E+06    -113.015E+06    -280.693E+06    -110.202E+06     413.901E+03         43.7144
              47     327.084E-09     39.0997E-03         3.01146     248.343E-03        -5.08132         2.99337        -5.06323     248.343E-03    -762.429E-03     236.723E-03    -118.012E-03    -118.711E-03    -118.710E-03     236.722E-03    -118.012E-03    -264.836E-06    -112.495E+06    -118.486E+06    -280.382E+06    -115.904E+06    -280.333E+06    -115.126E+06    -2.76093E+06         43.7670
              48     517.731E-09     37.8319E-03         2.74870     13.3055E-03        -4.60359         2.72716        -4.58205     13.3055E-03    -793.031E-03     237.503E-03    -117.619E-03    -119.884E-03    -119.878E-03     237.498E-03    -117.619E-03    -1.59338E-03    -112.238E+06    -115.007E+06    -279.322E+06    -112.280E+06    -279.281E+06    -115.007E+06    -1.05959E+06         43.8178
              49     2.57825E-06     36.5676E-03         2.45022    -196.013E-03        -4.12582         2.42432        -4.09993    -196.013E-03    -820.843E-03     236.513E-03    -117.292E-03    -119.220E-03    -119.215E-03     236.507E-03    -117.292E-03    -2.29097E-03    -113.296E+06    -114.697E+06    -283.146E+06    -113.317E+06    -283.126E+06    -114.697E+06    -459.250E+03         43.8659
              50    -2.31673E-06     35.3019E-03         2.13255    -380.076E-03        -3.65810         2.10175        -3.62730    -380.076E-03    -840.370E-03     235.649E-03    -117.347E-03    -118.302E-03    -117.511E-03     235.648E-03    -118.137E-03    -1.37524E-03    -112.535E+06    -116.704E+06    -284.281E+06    -115.457E+06    -284.265E+06    -113.798E+06    -841.738E+03         43.9102
              51     925.853E-09     34.0347E-03         1.83138    -547.256E-03        -3.20743         1.79468        -3.17073    -547.256E-03    -853.666E-03     236.000E-03    -117.053E-03    -118.946E-03    -118.155E-03     235.998E-03    -117.843E-03    -1.52374E-03    -110.253E+06    -115.938E+06    -281.594E+06    -113.160E+06    -281.593E+06    -113.032E+06     251.865E+03         43.9498
              52     982.817E-09     32.7726E-03         1.53829    -687.890E-03        -2.79235         1.49399        -2.74805    -687.890E-03    -868.328E-03     235.840E-03    -117.193E-03    -118.647E-03    -118.639E-03     235.832E-03    -117.193E-03    -2.78057E-03    -111.398E+06    -114.962E+06    -279.775E+06    -112.193E+06    -279.765E+06    -114.177E+06     860.941E+03         43.9834
              53    -390.689E-09     31.5089E-03         1.25723    -800.487E-03        -2.42349         1.20499        -2.37125    -800.487E-03    -867.887E-03     235.246E-03    -117.344E-03    -117.902E-03    -117.892E-03     235.236E-03    -117.344E-03    -3.65782E-03    -116.193E+06    -117.236E+06    -282.943E+06    -117.016E+06    -282.904E+06    -116.451E+06     2.44289E+06         44.0094
              54     734.531E-09     30.2429E-03         1.01268    -888.608E-03        -2.11139     951.290E-03        -2.05000    -888.608E-03    -864.130E-03     236.202E-03    -117.896E-03    -118.306E-03    -118.102E-03     236.199E-03    -118.098E-03    -1.59913E-03    -117.331E+06    -117.727E+06    -282.464E+06    -117.579E+06    -282.354E+06    -117.589E+06    -1.01543E+06         44.0260
              55    -1.10889E-06     28.9754E-03     798.473E-03    -939.310E-03        -1.85772     728.310E-03        -1.78755    -939.310E-03    -849.960E-03     236.794E-03    -118.137E-03    -118.658E-03    -118.450E-03     236.788E-03    -118.338E-03    -2.26562E-03    -112.541E+06    -113.814E+06    -275.794E+06    -112.763E+06    -275.710E+06    -113.676E+06    -2.10498E+06         44.0308
              56     1.62806E-06     27.7106E-03     617.545E-03    -954.735E-03        -1.66894     542.456E-03        -1.59385    -954.735E-03    -814.190E-03     235.251E-03    -116.728E-03    -118.523E-03    -118.516E-03     235.245E-03    -116.728E-03    -2.86707E-03    -116.515E+06    -117.992E+06    -277.961E+06    -116.519E+06    -277.957E+06    -117.992E+06     782.290E+03         44.0217
              57     970.516E-09     26.4467E-03     468.770E-03    -934.272E-03        -1.55044     393.224E-03        -1.47490    -934.272E-03    -766.186E-03     234.124E-03    -116.078E-03    -118.046E-03    -117.552E-03     234.123E-03    -116.570E-03    -886.662E-06    -118.673E+06    -120.736E+06    -280.663E+06    -120.409E+06    -280.647E+06    -119.016E+06     1.39962E+06         43.9965
              58    -1.84433E-06     25.1836E-03     356.857E-03    -877.372E-03        -1.49720     287.688E-03        -1.42803    -877.372E-03    -702.490E-03     234.627E-03    -116.681E-03    -117.946E-03    -117.452E-03     234.625E-03    -117.173E-03    -1.00263E-03    -115.025E+06    -118.040E+06    -282.058E+06    -116.778E+06    -282.025E+06    -116.320E+06    -184.479E+03         43.9536
              59     3.17783E-06     23.9193E-03     287.887E-03    -786.280E-03        -1.51626     231.131E-03        -1.45951    -786.280E-03    -628.558E-03     234.990E-03    -116.678E-03    -118.312E-03    -118.310E-03     234.989E-03    -116.678E-03    -553.977E-06    -121.244E+06    -122.683E+06    -284.186E+06    -121.362E+06    -284.068E+06    -122.683E+06     1.53073E+06         43.8922
              60    -1.66988E-06     22.6539E-03     255.191E-03    -655.215E-03        -1.61205     213.921E-03        -1.57078    -655.215E-03    -544.830E-03     233.617E-03    -116.210E-03    -117.407E-03    -117.071E-03     233.617E-03    -116.546E-03     92.9998E-06    -122.227E+06    -123.148E+06    -284.824E+06    -123.116E+06    -284.713E+06    -122.371E+06     3.80091E+06         43.8125
              61     1.05711E-06     21.3935E-03     268.080E-03    -488.878E-03        -1.78155     241.698E-03        -1.75516    -488.878E-03    -456.750E-03     232.672E-03    -115.807E-03    -116.865E-03    -116.529E-03     232.672E-03    -116.143E-03    -203.006E-06    -116.343E+06    -117.318E+06    -282.183E+06    -117.330E+06    -282.170E+06    -116.343E+06     897.067E+03         43.7166
              62     206.403E-09     20.1350E-03     323.651E-03    -288.371E-03        -2.02710     308.301E-03        -2.01175    -288.371E-03    -371.323E-03     232.177E-03    -115.582E-03    -116.594E-03    -116.302E-03     232.174E-03    -115.872E-03    -1.32713E-03    -116.971E+06    -117.310E+06    -281.965E+06    -117.214E+06     -281.92E+06    -117.112E+06    -2.05128E+06         43.6086
              63    -758.984E-09     18.8740E-03     419.113E-03    -59.9926E-03        -2.33795     411.202E-03        -2.33004    -59.9926E-03    -288.242E-03     228.722E-03    -113.986E-03    -114.736E-03    -114.439E-03     228.715E-03    -114.276E-03    -3.08145E-03    -123.312E+06    -125.681E+06    -288.383E+06    -123.362E+06    -288.334E+06    -125.681E+06    -2.56821E+06         43.4945
              64     1.51602E-06     17.6212E-03     554.198E-03     186.096E-03        -2.70211     550.381E-03        -2.69829     186.096E-03    -216.733E-03     223.460E-03    -111.063E-03    -112.397E-03    -112.390E-03     223.453E-03    -111.063E-03    -2.97328E-03    -122.338E+06    -124.644E+06    -281.582E+06    -122.682E+06    -281.237E+06    -124.644E+06     4.48606E+06         43.3820
              65     9.70407E-09     16.3766E-03     712.230E-03     450.597E-03        -3.10971     710.500E-03        -3.10798     450.597E-03    -158.240E-03     218.220E-03    -107.996E-03    -110.225E-03    -108.861E-03     218.213E-03    -109.352E-03    -3.01875E-03    -121.539E+06    -122.296E+06    -271.363E+06    -122.559E+06    -271.023E+06    -121.617E+06     5.00822E+06         43.2804
              66    -2.48196E-06     15.1360E-03     898.372E-03     720.199E-03        -3.54820     897.649E-03        -3.54747     720.199E-03    -108.463E-03     210.448E-03    -104.277E-03    -106.171E-03    -104.255E-03     210.427E-03    -106.171E-03    -4.94175E-03    -121.326E+06    -122.146E+06    -270.909E+06    -122.169E+06    -270.746E+06    -121.467E+06    -3.64957E+06         43.1991
              67     1.45182E-06     13.9072E-03         1.10625     987.724E-03        -4.00612         1.10596        -4.00583     987.724E-03    -75.5203E-03     198.011E-03    -98.4339E-03    -99.5771E-03    -99.0150E-03     197.987E-03    -98.9716E-03    -5.28349E-03    -126.173E+06    -126.662E+06    -276.492E+06    -126.397E+06    -276.268E+06    -126.662E+06    -5.64386E+06         43.1467
              68    -388.371E-09     12.6981E-03         1.32071         1.25027        -4.46945         1.32057        -4.46932         1.25027    -52.8154E-03     181.857E-03    -90.0488E-03    -91.8083E-03    -91.7790E-03     181.828E-03    -90.0488E-03    -5.43052E-03    -131.048E+06    -131.937E+06    -282.798E+06    -131.667E+06    -282.719E+06    -131.397E+06    -912.740E+03         43.1291
              69     2.46394E-06     11.5091E-03         1.54045         1.49738        -4.92224         1.54039        -4.92218         1.49738    -39.2676E-03     163.921E-03    -81.3012E-03    -82.6194E-03    -82.4181E-03     163.883E-03    -81.4654E-03    -6.04161E-03    -122.269E+06    -125.531E+06    -273.434E+06    -122.961E+06    -273.282E+06    -124.991E+06     4.29743E+06         43.1499
              70    -2.85065E-06     10.3468E-03         1.75466         1.72858        -5.35531         1.75463        -5.35528         1.72858    -26.4353E-03     147.405E-03    -73.5741E-03    -73.8311E-03    -73.4896E-03     147.321E-03    -73.8311E-03    -8.04794E-03    -116.783E+06    -119.898E+06    -263.172E+06    -117.374E+06    -262.974E+06    -119.504E+06     5.28090E+06         43.2102
              71     2.52201E-06     9.19794E-03         1.95467         1.94226        -5.76175         1.95465        -5.76174         1.94226    -18.2818E-03     135.695E-03    -67.3431E-03    -68.3514E-03    -68.1726E-03     135.609E-03    -67.4360E-03    -7.96394E-03    -108.142E+06    -111.613E+06    -258.895E+06    -111.717E+06    -258.790E+06    -108.142E+06     446.570E+03         43.3089
              72    -832.026E-09     8.05779E-03         2.13951         2.13423        -6.13253         2.13951        -6.13252         2.13423    -11.7761E-03     135.487E-03    -66.6984E-03    -68.7883E-03    -68.7715E-03     135.470E-03    -66.6984E-03    -2.78953E-03    -102.175E+06    -106.452E+06    -253.897E+06    -106.497E+06    -253.852E+06    -102.175E+06    -1.15031E+06         43.4429
              73     3.03512E-06     6.91175E-03         2.31200         2.30297        -6.46699         2.31200        -6.46699         2.30297    -4.81850E-03     157.718E-03    -77.5846E-03    -80.1335E-03    -80.0966E-03     157.681E-03    -77.5846E-03     4.19310E-03    -92.4952E+06    -95.4942E+06    -245.249E+06    -95.5475E+06    -245.196E+06    -92.4952E+06     2.50324E+06         43.6088
              74    -451.831E-09     5.72232E-03         2.46350         2.45541        -6.76670         2.46350        -6.76669         2.45541    -1.18946E-03     206.807E-03    -102.520E-03    -104.286E-03    -103.792E-03     206.704E-03    -102.912E-03     11.2902E-03    -82.7221E+06    -87.6887E+06    -241.902E+06    -84.5768E+06    -241.847E+06    -85.8890E+06     2.64105E+06         43.8043
              75    -212.778E-09     4.45671E-03         2.59471         2.58934        -7.02817         2.59471        -7.02817         2.58934     8.09812E-03     279.468E-03    -138.844E-03    -140.625E-03    -138.667E-03     279.291E-03    -140.625E-03     17.1738E-03    -90.6166E+06    -95.6969E+06    -253.788E+06    -92.5363E+06    -253.781E+06    -93.7836E+06      641.65E+03         44.0268
              76    -2.04635E-06     3.07951E-03         2.70476         2.69703        -7.24146         2.70114        -7.24145         2.70064     13.8962E-03     363.675E-03    -180.391E-03    -183.284E-03    -180.218E-03     363.503E-03    -183.284E-03     18.9791E-03    -94.6142E+06    -98.6353E+06    -259.614E+06    -96.5295E+06    -259.612E+06     -96.722E+06     327.518E+03         44.2712
              77    -480.169E-09     1.57362E-03         2.77889         2.76968        -7.38653         2.76968        -7.38653         2.77889     13.2853E-03     428.773E-03    -213.270E-03    -215.502E-03    -213.936E-03     428.710E-03    -214.774E-03     9.48695E-03    -94.4765E+06    -96.7260E+06    -259.663E+06    -94.4816E+06    -259.658E+06    -96.7260E+06    -105.965E+03         44.5261
              78     795.878E-06    -13.8778E-18         2.80064         2.78976        -7.42959         2.78976        -7.42959         2.80064     4.17292E-03     447.997E-03    -222.823E-03    -225.174E-03    -223.531E-03     447.976E-03    -224.446E-03     6.01615E-03    -88.3688E+06    -93.4264E+06    -255.223E+06    -93.3034E+06    -255.205E+06    -88.5105E+06    -1.62277E+06         44.6804
              79     1.59175E-03    -13.8778E-18         2.79095         2.77351        -7.40540         2.77351        -7.40540         2.79095     1.83972E-03     437.908E-03    -215.604E-03    -222.303E-03    -215.504E-03     437.808E-03    -222.303E-03     15.3386E-03    -80.8408E+06    -87.9617E+06    -248.971E+06    -87.9830E+06    -248.950E+06    -80.8408E+06    -436.912E+03         44.7557
              80     2.39671E-03    -13.8778E-18         2.78065         2.74456        -7.36746         2.74455        -7.36746         2.78065     4.52247E-03     421.310E-03    -203.157E-03    -218.152E-03    -202.913E-03     421.065E-03    -218.152E-03     24.2675E-03    -79.5303E+06    -84.7381E+06    -247.057E+06    -84.7512E+06    -247.044E+06    -79.5303E+06    -97.6942E+03         44.8776
              81     3.21537E-03    -13.8778E-18         2.76667         2.70355        -7.31389         2.70355        -7.31389         2.76667     6.25221E-03     400.291E-03    -187.738E-03    -212.553E-03    -187.321E-03     399.874E-03    -212.553E-03     31.0644E-03    -77.1831E+06    -83.3693E+06    -243.814E+06    -83.3773E+06    -243.806E+06    -77.1831E+06    -565.726E+03         45.0462
              82     4.04884E-03    -13.8778E-18         2.74860         2.65023        -7.24452         2.65023        -7.24451         2.74860     8.84765E-03     377.352E-03    -171.403E-03    -205.948E-03    -170.844E-03     376.792E-03    -205.948E-03     34.9435E-03    -74.1349E+06    -80.9265E+06    -238.756E+06    -80.9389E+06    -238.743E+06    -74.1349E+06    -752.034E+03         45.2606
              83     4.89785E-03    -13.8778E-18         2.72620         2.58361        -7.15843         2.58361        -7.15843         2.72620     12.2523E-03     353.901E-03    -155.133E-03    -198.768E-03    -154.476E-03     353.244E-03    -198.768E-03     36.5069E-03    -69.8125E+06    -78.8967E+06    -236.129E+06    -78.9179E+06    -236.108E+06    -69.8125E+06    -1.82402E+06         45.5184
              84     5.76093E-03    -13.8778E-18         2.69928         2.50427        -7.05595         2.50427        -7.05595         2.69928     15.7137E-03     330.978E-03    -139.687E-03    -191.291E-03    -138.950E-03     330.241E-03    -191.291E-03     37.1807E-03    -68.0548E+06    -74.9518E+06    -234.466E+06    -75.1084E+06    -234.309E+06    -68.0548E+06    -4.30553E+06         45.8165
              85     6.63729E-03    -13.8778E-18         2.66784         2.41253        -6.93783         2.41252        -6.93782         2.66784     20.2126E-03     309.367E-03    -125.654E-03    -183.713E-03    -124.847E-03     308.559E-03    -183.713E-03     37.4154E-03    -64.2813E+06     -75.116E+06    -224.121E+06    -66.3172E+06    -223.506E+06    -73.6951E+06    -9.45384E+06         46.1500
              86     7.52615E-03    -13.8778E-18         2.63193         2.30910        -6.80539         2.30908        -6.80537         2.63193     24.6833E-03     289.713E-03    -113.504E-03    -176.209E-03    -112.631E-03     288.840E-03    -176.209E-03     37.4610E-03    -51.9371E+06    -86.1970E+06    -186.884E+06    -53.4648E+06    -185.356E+06    -86.1970E+06    -13.7287E+06         46.5118
              87     8.42459E-03    -13.8778E-18         2.59165         2.19389        -6.65981         2.19386        -6.65978         2.59165     31.6326E-03     272.550E-03    -103.522E-03    -169.027E-03    -102.591E-03     271.618E-03    -169.027E-03     37.3755E-03    -39.2140E+06    -86.3090E+06    -123.255E+06    -41.0275E+06    -116.934E+06    -90.8168E+06    -11.7443E+06         46.8923
              88     9.33183E-03    -13.8778E-18         2.54713         2.06740        -6.50303         2.06736        -6.50299         2.54713     38.5588E-03     258.202E-03    -95.8111E-03    -162.391E-03    -94.7899E-03     257.181E-03    -162.391E-03     37.9329E-03    -5.30714E+06    -55.8484E+06    -73.8021E+06    -34.3500E+06    -26.8055E+06    -73.8021E+06    -3.72834E+06         47.2800
              89     10.2431E-03    -13.8778E-18         2.49857         1.93121        -6.33874         1.93114        -6.33867         2.49857     49.2913E-03     246.914E-03    -90.3820E-03    -156.532E-03    -89.2717E-03     245.803E-03    -156.532E-03     38.6300E-03     47.6453E+06    -6.12063E+06    -46.3908E+06    -32.8649E+06     47.5652E+06    -19.5665E+06    -1.70803E+06         47.6622
              90     11.1613E-03    -13.8778E-18         2.44635         1.78845        -6.17417         1.78834        -6.17406         2.44635     58.2615E-03     239.365E-03    -87.8769E-03    -151.488E-03    -86.6740E-03     238.162E-03    -151.488E-03     39.5871E-03     85.7366E+06     59.0502E+06    -26.3046E+06    -26.1812E+06     84.4004E+06     60.2630E+06    -3.65317E+06         48.0260
              91     12.0770E-03    -13.8778E-18         2.39109         1.64271        -6.01870         1.64250        -6.01849         2.39109     77.0263E-03     237.290E-03    -90.1428E-03    -147.148E-03    -88.6412E-03     235.789E-03    -147.148E-03     44.1284E-03     123.806E+06     103.575E+06    -13.3431E+06    -13.2871E+06     103.519E+06     123.806E+06    -2.39583E+06         48.3592
              92     12.9874E-03    -13.8778E-18         2.33402         1.50794        -5.90051         1.50775        -5.90033         2.33402     70.7520E-03     244.041E-03    -100.362E-03    -143.679E-03    -98.0026E-03     241.681E-03    -143.679E-03     56.4429E-03     156.717E+06     117.580E+06    -990.128E+03    -653.043E+03     117.243E+06     156.717E+06     3.68031E+06         48.6510
              93     13.8801E-03    -13.8778E-18         2.27787         1.40804        -5.86300         1.40782        -5.86278         2.27787     74.9303E-03     277.466E-03    -124.626E-03    -152.840E-03    -126.921E-03     268.660E-03    -141.739E-03     114.023E-03     154.333E+06     119.149E+06    -3.56141E+06    -2.01668E+06     117.605E+06     154.333E+06     13.0664E+06         48.8917
              94     14.6902E-03    -13.8778E-18         2.22970         1.48190        -6.11179         1.47099        -6.10088         2.22970    -360.821E-03     366.476E-03    -142.843E-03    -223.633E-03    -197.784E-03     340.628E-03    -142.843E-03     239.629E-03     140.897E+06     110.190E+06    -7.64392E+06    -6.33299E+06     108.879E+06     140.897E+06     6.36406E+06         49.0726
              95     15.6612E-03     1.61944E-03         2.21060         1.49666        -5.88605         1.46184        -5.85123         2.21060    -983.522E-03     372.863E-03    -140.033E-03    -232.830E-03    -197.412E-03     337.445E-03    -140.033E-03     283.564E-03     131.054E+06     112.116E+06    -7.23376E+06    -6.87624E+06     111.759E+06     131.054E+06     1.82723E+06         49.1060
              96     15.7956E-03     2.94675E-03         2.19659         1.32949        -5.25545         1.29508        -5.22104         2.19659    -932.529E-03     297.096E-03    -132.503E-03    -164.593E-03    -129.693E-03     262.196E-03    -132.503E-03     243.624E-03     128.472E+06     122.520E+06    -4.41692E+06    -3.69264E+06     124.452E+06     125.816E+06     9.57658E+06         49.0620
              97     15.8803E-03     4.15438E-03         2.14589         1.22056        -4.99553         1.20498        -4.97995         2.14589    -614.337E-03     282.802E-03    -126.310E-03    -156.491E-03    -133.616E-03     259.927E-03    -126.310E-03     183.973E-03     129.382E+06     125.362E+06    -1.26116E+06    -625.357E+03     128.746E+06     125.362E+06     8.84841E+06         49.0815
              98     15.9409E-03     5.49386E-03         2.06294         1.17943        -4.84007         1.17196        -4.83260         2.06294    -414.968E-03     291.770E-03    -121.563E-03    -170.208E-03    -162.209E-03     283.772E-03    -121.563E-03     119.680E-03     128.053E+06     125.968E+06    -2.33439E+06    -2.12579E+06     127.123E+06     126.690E+06     4.83908E+06         49.1420
              99     15.9770E-03     6.83398E-03         1.95481         1.17709        -4.74311         1.17413        -4.74016         1.95481    -255.733E-03     293.583E-03    -118.989E-03    -174.594E-03    -169.404E-03     288.393E-03    -118.989E-03     97.4892E-03     128.786E+06     126.451E+06    -2.00447E+06    -1.96827E+06     126.415E+06     128.786E+06     1.89765E+06         49.2303
             100     15.9927E-03     8.17643E-03         1.82551         1.18925        -4.67158         1.18825        -4.67058         1.82551    -148.046E-03     288.572E-03    -117.808E-03    -170.764E-03    -166.974E-03     284.782E-03    -117.808E-03     83.0682E-03     125.847E+06     122.779E+06    -3.41863E+06    -3.41169E+06     122.772E+06     125.847E+06     932.396E+03         49.3381
             101     16.0020E-03     9.50245E-03         1.68091         1.21170        -4.60119         1.21137        -4.60086         1.68091    -84.5034E-03     279.989E-03    -117.431E-03    -162.558E-03    -159.237E-03     276.667E-03    -117.431E-03     76.3862E-03     125.159E+06     121.787E+06    -2.77310E+06    -2.76084E+06     121.775E+06     125.159E+06    -216.266E+03         49.4588
             102     16.0040E-03     10.8162E-03         1.52617         1.23397        -4.52250         1.23386        -4.52239         1.52617    -48.4348E-03     271.351E-03    -117.407E-03    -153.944E-03    -150.986E-03     268.393E-03    -117.407E-03     70.6759E-03     123.939E+06     120.629E+06    -3.31784E+06    -3.30949E+06     120.620E+06     123.939E+06    -798.028E+03         49.5875
             103     16.0059E-03     12.1155E-03         1.36619         1.25615        -4.43508         1.25611        -4.43504         1.36619    -31.2040E-03     263.218E-03    -117.517E-03    -145.701E-03    -143.209E-03     260.726E-03    -117.517E-03     63.5962E-03     121.630E+06     119.514E+06    -3.16391E+06    -3.16336E+06     119.514E+06     121.630E+06    -246.642E+03         49.7208
             104     16.0059E-03     13.4040E-03         1.28522         1.19570        -4.33974         1.27534        -4.33971         1.20555    -23.3626E-03     254.815E-03    -117.679E-03    -137.136E-03    -135.193E-03     252.872E-03    -117.679E-03     54.9510E-03     120.177E+06     119.242E+06    -3.12153E+06    -3.12108E+06     119.454E+06     119.964E+06    -149.999E+03         49.8563
             105     16.0072E-03     14.6836E-03         1.29296         1.04863        -4.24212         1.29295        -4.24210         1.04863    -19.0058E-03     246.675E-03    -117.855E-03    -128.820E-03    -127.327E-03     245.182E-03    -117.855E-03     47.2025E-03     120.308E+06     119.835E+06    -2.91564E+06    -2.91195E+06     120.305E+06     119.835E+06     491.392E+03         49.9922
             106     16.0073E-03     15.9524E-03         1.30855     899.273E-03        -4.14642         1.30854        -4.14641     899.273E-03    -15.4548E-03     240.713E-03    -117.975E-03    -122.738E-03    -121.585E-03     239.560E-03    -117.975E-03     40.7884E-03     120.953E+06     119.557E+06    -2.69914E+06    -2.69282E+06     120.947E+06     119.557E+06     880.854E+03         50.1272
             107     16.0083E-03     17.2188E-03         1.32278     760.828E-03        -4.05735         1.32278        -4.05734     760.828E-03    -12.6310E-03     237.556E-03    -118.032E-03    -119.524E-03    -118.631E-03     236.663E-03    -118.032E-03     35.6279E-03     120.232E+06     118.227E+06    -3.14239E+06    -3.13839E+06     120.229E+06     118.227E+06     693.332E+03         50.2601
             108     16.0076E-03     18.4853E-03         1.33505     636.471E-03        -3.97685         1.33504        -3.97684     636.471E-03    -11.5741E-03     236.022E-03    -117.752E-03    -118.270E-03    -117.225E-03     235.279E-03    -118.054E-03     32.3673E-03     120.543E+06     118.239E+06    -3.72071E+06    -3.71461E+06     120.537E+06     118.239E+06     834.969E+03         50.3893
             109     16.0092E-03     19.7476E-03         1.34548     529.218E-03        -3.90574         1.34548        -3.90573     529.218E-03    -10.9100E-03     234.851E-03    -116.807E-03    -118.043E-03    -116.239E-03     234.282E-03    -118.043E-03     28.1310E-03     121.755E+06     119.123E+06    -3.43226E+06    -3.42445E+06     121.747E+06     119.123E+06     108.903E+03         50.5132
             110     16.0093E-03     21.0107E-03         1.35417     441.630E-03        -3.84817         1.35417        -3.84817     441.630E-03    -8.94908E-03     234.369E-03    -116.358E-03    -118.011E-03    -115.894E-03     233.905E-03    -118.011E-03     25.4884E-03     121.620E+06     118.482E+06    -2.86059E+06    -2.85746E+06     121.617E+06     118.482E+06    -378.152E+03         50.6300
             111     16.0099E-03     22.2778E-03         1.36097     375.836E-03        -3.80609         1.36096        -3.80609     375.836E-03    -6.60092E-03     234.589E-03    -116.610E-03    -117.979E-03    -116.130E-03     234.109E-03    -117.979E-03     25.9531E-03     121.422E+06     117.293E+06    -3.76890E+06    -3.76874E+06     121.422E+06     117.293E+06     142.163E+03         50.7382
             112     16.0101E-03     23.5441E-03         1.36595     333.514E-03        -3.78001         1.36595        -3.78001     333.514E-03    -3.98114E-03     234.614E-03    -116.643E-03    -117.972E-03    -116.137E-03     234.109E-03    -117.972E-03     26.6302E-03     122.005E+06     117.289E+06    -4.03695E+06    -4.03545E+06     122.003E+06     117.289E+06     380.132E+03         50.8367
             113     16.0097E-03     24.8102E-03         1.36926     315.701E-03        -3.77218         1.36926        -3.77218     315.701E-03    -1.97587E-03     234.869E-03    -116.877E-03    -117.992E-03    -116.351E-03     234.343E-03    -117.992E-03     27.1723E-03     122.992E+06     118.679E+06    -2.26353E+06    -2.26211E+06     122.991E+06     118.679E+06     334.641E+03         50.9250
             114     16.0089E-03     26.0768E-03         1.37018     322.857E-03        -3.78235         1.37018        -3.78235     322.857E-03    -4.18572E-03     235.011E-03    -116.980E-03    -118.030E-03    -116.471E-03     234.501E-03    -118.030E-03     26.7629E-03     122.744E+06     119.012E+06    -2.65054E+06    -2.65051E+06     122.744E+06     119.012E+06     21.0137E+03         51.0033
             115     16.0085E-03     27.3415E-03         1.36800     354.931E-03        -3.80533         1.36800        -3.80533     354.931E-03    -8.58979E-03     234.034E-03    -116.000E-03    -118.034E-03    -115.513E-03     233.547E-03    -118.034E-03     26.0998E-03     121.236E+06     117.066E+06    -4.66055E+06    -4.66007E+06     121.235E+06     117.066E+06     156.923E+03         51.0720
             116     16.0113E-03     28.6027E-03         1.36370     411.007E-03        -3.84288         1.36370        -3.84287     411.007E-03    -8.40249E-03     233.702E-03    -115.709E-03    -117.993E-03    -115.272E-03     233.265E-03    -117.993E-03     24.6580E-03     122.151E+06     117.241E+06    -3.79091E+06    -3.78432E+06     122.144E+06     117.241E+06    -447.945E+03         51.1321
             117     16.0090E-03     29.8704E-03         1.35777     489.499E-03        -3.89931         1.35776        -3.89931     489.499E-03    -5.84588E-03     234.451E-03    -116.475E-03    -117.976E-03    -116.041E-03     234.017E-03    -117.976E-03     24.6401E-03     122.673E+06     117.084E+06    -2.60453E+06    -2.59812E+06     122.667E+06     117.084E+06    -484.612E+03         51.1845
             118     16.0103E-03     31.1372E-03         1.35032     588.536E-03        -3.96965         1.35032        -3.96965     588.536E-03    -4.52888E-03     234.540E-03    -116.546E-03    -117.994E-03    -116.038E-03     234.033E-03    -117.994E-03     26.6642E-03     121.660E+06     116.157E+06    -2.98864E+06    -2.97743E+06     121.649E+06     116.157E+06    -689.454E+03         51.2303
             119     16.0086E-03     32.4032E-03         1.34163     705.672E-03        -4.05315         1.34162        -4.05315     705.672E-03    -4.50790E-03     235.117E-03    -117.093E-03    -118.024E-03    -116.573E-03     234.598E-03    -118.024E-03     27.0166E-03     120.466E+06     116.829E+06    -4.34732E+06    -4.33505E+06     120.454E+06     116.829E+06    -535.815E+03         51.2709
             120     16.0084E-03     33.6688E-03         1.33064     837.968E-03        -4.14557         1.33063        -4.14557     837.968E-03    -8.13514E-03     234.904E-03    -116.852E-03    -118.052E-03    -116.398E-03     234.450E-03    -118.052E-03     25.2249E-03     121.069E+06     117.789E+06    -2.97202E+06    -2.96390E+06     121.061E+06     117.789E+06     937.284E+03         51.3074
             121     16.0094E-03     34.9320E-03         1.31813     981.925E-03        -4.24023         1.31813        -4.24022     981.925E-03    -7.89583E-03     233.390E-03    -115.342E-03    -118.049E-03    -114.826E-03     232.874E-03    -118.049E-03     26.6491E-03     120.561E+06     116.342E+06    -3.13526E+06    -3.12842E+06     120.554E+06     116.342E+06     577.130E+03         51.3408
             122     16.0103E-03     36.2017E-03         1.30545         1.13367        -4.34509         1.30545        -4.34509         1.13367    -3.30781E-03     234.466E-03    -116.415E-03    -118.050E-03    -115.840E-03     233.880E-03    -118.041E-03     28.6194E-03     119.346E+06     116.273E+06    -4.29808E+06    -4.29642E+06     119.345E+06     116.273E+06    -382.260E+03         51.3721
             123     16.0064E-03     37.4640E-03         1.33363         1.24755        -4.45362         1.29156        -4.45362         1.28961    -6.30631E-03     235.185E-03    -117.120E-03    -118.065E-03    -116.661E-03     234.716E-03    -118.055E-03     25.6095E-03     120.261E+06     117.344E+06    -2.70755E+06    -2.70492E+06     120.258E+06     117.344E+06    -58.7192E+03         51.4017
             124     16.0110E-03     38.7267E-03         1.44580         1.27639        -4.55238         1.27639        -4.55238         1.44580    -8.16907E-03     233.454E-03    -115.412E-03    -118.041E-03    -114.962E-03     233.003E-03    -118.041E-03     25.0121E-03     119.803E+06     116.091E+06    -2.57256E+06    -2.56992E+06     119.800E+06     116.091E+06    -58.4601E+03         51.4303
             125     16.0092E-03     39.9959E-03         1.59793         1.26129        -4.65157         1.26129        -4.65157         1.59793    -4.33843E-03     233.782E-03    -115.756E-03    -118.026E-03    -115.214E-03     233.240E-03    -118.026E-03     27.4913E-03     119.472E+06     116.215E+06    -4.07744E+06    -4.07539E+06     119.469E+06     116.215E+06    -480.922E+03         51.4584
             126     16.0090E-03     41.2606E-03         1.74227         1.24689        -4.74673         1.24689        -4.74673         1.74227    -5.07796E-03     234.927E-03    -116.911E-03    -118.016E-03    -116.356E-03     234.372E-03    -118.016E-03     27.9371E-03     121.127E+06     117.503E+06    -2.53811E+06    -2.53765E+06     121.127E+06     117.503E+06    -184.454E+03         51.4861
             127     16.0099E-03     42.5228E-03         1.87526         1.23254        -4.82862         1.23254        -4.82861         1.87526    -5.81273E-03     234.908E-03    -116.913E-03    -117.995E-03    -116.424E-03     234.420E-03    -117.995E-03     26.1710E-03     120.309E+06     115.950E+06    -2.74505E+06    -2.73901E+06     120.303E+06     115.950E+06     594.260E+03         51.5139
             128     16.0090E-03     43.7945E-03         1.99322         1.21917        -4.90136         1.21917        -4.90136         1.99322    -4.08700E-03     234.856E-03    -116.837E-03    -118.019E-03    -116.285E-03     234.304E-03    -118.019E-03     27.7032E-03     119.161E+06     115.340E+06    -4.05030E+06    -4.04279E+06     119.154E+06     115.340E+06     309.732E+03         51.5416
             129     16.0088E-03     45.0587E-03         2.09307         1.20698        -4.96152         1.20698        -4.96152         2.09307    -6.49524E-03     234.736E-03    -116.686E-03    -118.050E-03    -116.126E-03     234.176E-03    -118.050E-03     27.8982E-03     118.020E+06     114.100E+06    -4.37164E+06    -4.36341E+06     118.011E+06     114.100E+06     341.445E+03         51.5696
             130     16.0082E-03     46.3213E-03         2.17223         1.19497        -5.00133         1.19497        -5.00133         2.17223    -9.40036E-03     234.246E-03    -116.195E-03    -118.051E-03    -115.703E-03     233.754E-03    -118.051E-03     26.2223E-03     119.873E+06     116.463E+06    -2.56922E+06    -2.56245E+06     119.866E+06     116.463E+06     628.029E+03         51.5982
             131     16.0107E-03     47.5868E-03         2.22846         1.18396        -5.02381         1.18396        -5.02380         2.22846    -8.48462E-03     234.607E-03    -116.580E-03    -118.028E-03    -116.026E-03     234.054E-03    -118.028E-03     27.8530E-03     121.315E+06     118.735E+06    -1.45371E+06    -1.45366E+06     121.315E+06     118.735E+06    -65.2323E+03         51.6273
             132     16.0077E-03     48.8592E-03         2.26026         1.17481        -5.03111         1.17480        -5.03111         2.26026    -10.1652E-03     234.324E-03    -116.300E-03    -118.024E-03    -115.730E-03     233.754E-03    -118.024E-03     28.2541E-03     116.258E+06     113.399E+06    -6.04356E+06    -6.04126E+06     116.255E+06     113.399E+06     320.246E+03         51.6567
             133     16.0111E-03     50.1145E-03         2.26680         1.16655        -5.01324         1.16654        -5.01324         2.26680    -10.5817E-03     232.973E-03    -114.964E-03    -118.009E-03    -114.479E-03     232.488E-03    -118.009E-03     25.8811E-03     117.881E+06     115.203E+06    -4.05289E+06    -4.04639E+06     117.875E+06     115.203E+06    -136.490E+03         51.6867
             134     16.0107E-03     51.3772E-03         2.24747         1.15977        -4.97790         1.15977        -4.97790         2.24747    -3.07762E-03     234.474E-03    -116.304E-03    -118.170E-03    -116.127E-03     234.081E-03    -117.954E-03     23.4562E-03     120.999E+06     118.433E+06    -1.58213E+06    -1.57782E+06     120.995E+06     118.433E+06    -572.484E+03         51.7171
             135     16.0092E-03     52.6506E-03         2.20249         1.15652        -4.93233         1.15652        -4.93233         2.20249    -215.732E-06     235.996E-03    -117.793E-03    -118.203E-03    -117.598E-03     235.585E-03    -117.987E-03     24.0885E-03     120.046E+06     116.455E+06    -3.08528E+06    -3.08487E+06     120.046E+06     116.455E+06     81.3437E+03         51.7476
             136     16.0076E-03     53.9162E-03         2.13307         1.15443        -4.86483         1.15442        -4.86483         2.13307    -6.19544E-03     234.607E-03    -116.550E-03    -118.056E-03    -116.092E-03     234.149E-03    -118.056E-03     25.3507E-03     117.962E+06     113.176E+06    -4.66202E+06    -4.66165E+06     117.962E+06     113.176E+06     182.138E+03         51.7784
             137     16.0099E-03     55.1775E-03         2.04082         1.15180        -4.77314         1.15180        -4.77313         2.04082    -8.52245E-03     233.640E-03    -115.598E-03    -118.042E-03    -115.151E-03     233.192E-03    -118.042E-03     24.9795E-03     118.652E+06     114.178E+06    -3.54640E+06    -3.54368E+06     118.649E+06     114.178E+06    -369.337E+03         51.8101
             138     16.0096E-03     56.4437E-03         1.92766         1.15067        -4.66860         1.15067        -4.66860         1.92766    -5.34527E-03     234.530E-03    -116.526E-03    -118.003E-03    -116.075E-03     234.079E-03    -118.003E-03     25.1438E-03     120.114E+06     117.070E+06    -1.64379E+06    -1.63822E+06     120.108E+06     117.070E+06    -823.466E+03         51.8422
             139     16.0093E-03     57.7129E-03         1.79624         1.15137        -4.55390         1.15137        -4.55390         1.79624    -5.83091E-03     234.840E-03    -116.833E-03    -118.007E-03    -116.324E-03     234.331E-03    -118.007E-03     26.7293E-03     118.589E+06     115.960E+06    -2.99850E+06    -2.99519E+06     118.586E+06     115.960E+06    -254.689E+03         51.8746
             140     16.0095E-03     58.9778E-03         1.64993         1.15243        -4.42375         1.15242        -4.42375         1.64993    -7.98566E-03     233.676E-03    -115.671E-03    -118.005E-03    -115.132E-03     233.137E-03    -118.005E-03     27.4356E-03     117.797E+06     114.322E+06    -3.33797E+06    -3.33575E+06     117.795E+06     114.322E+06     491.170E+03         51.9075
             141     16.0113E-03     60.2389E-03         1.49205         1.15450        -4.28483         1.15450        -4.28483         1.49205    -3.92422E-03     233.779E-03    -115.804E-03    -117.975E-03    -115.243E-03     233.218E-03    -117.975E-03     27.9775E-03     117.391E+06     113.298E+06    -3.42521E+06    -3.42321E+06     117.389E+06     113.298E+06     442.470E+03         51.9408
             142     16.0090E-03     61.5107E-03         1.32598         1.15811        -4.14701         1.15811        -4.14701         1.32598    -2.01423E-03     235.220E-03    -117.224E-03    -117.996E-03    -116.650E-03     234.647E-03    -117.996E-03     28.4059E-03     117.699E+06     113.091E+06    -3.12845E+06    -3.12798E+06     117.698E+06     113.091E+06     238.528E+03         51.9743
             143     16.0078E-03     62.7732E-03         1.20181         1.11536        -4.00282         1.16120        -4.00281         1.15596    -7.55237E-03     234.623E-03    -116.597E-03    -118.027E-03    -116.130E-03     234.157E-03    -118.027E-03     25.4507E-03     116.462E+06     110.948E+06    -4.60388E+06    -4.60334E+06     116.461E+06     110.948E+06     254.937E+03         52.0083
             144     16.0111E-03     64.0292E-03         1.16347     986.290E-03        -3.85256         1.16347        -3.85255     986.290E-03    -8.86853E-03     233.746E-03    -115.750E-03    -117.997E-03    -115.404E-03     233.400E-03    -117.997E-03     21.9708E-03     118.178E+06     112.728E+06    -3.25979E+06    -3.25876E+06     118.177E+06     112.728E+06    -82.0170E+03         52.0431
             145     16.0092E-03     65.3041E-03         1.16535     820.688E-03        -3.70919         1.16535        -3.70919     820.688E-03    -6.65664E-03     234.555E-03    -116.581E-03    -117.973E-03    -116.116E-03     234.089E-03    -117.973E-03     25.2541E-03     119.880E+06     114.531E+06    -1.86960E+06    -1.86884E+06     119.879E+06     114.531E+06    -194.909E+03         52.0785
             146     16.0102E-03     66.5708E-03         1.16647     663.089E-03        -3.57098         1.16646        -3.57098     663.089E-03    -7.32088E-03     234.176E-03    -116.202E-03    -117.973E-03    -115.647E-03     233.620E-03    -117.973E-03     27.8498E-03     119.275E+06     113.251E+06    -3.49792E+06    -3.49627E+06     119.273E+06     113.251E+06    -300.777E+03         52.1144
             147     16.0107E-03     67.8298E-03         1.16705     517.369E-03        -3.44037         1.16705        -3.44037     517.369E-03    -6.56307E-03     233.824E-03    -115.861E-03    -117.963E-03    -115.412E-03     233.375E-03    -117.963E-03     25.0146E-03     119.458E+06     113.868E+06    -3.38532E+06    -3.38264E+06     119.455E+06     113.868E+06    -569.838E+03         52.1511
             148     16.0099E-03     69.0967E-03         1.16700     386.841E-03        -3.32284         1.16700        -3.32284     386.841E-03    -5.30705E-03     234.604E-03    -116.654E-03    -117.949E-03    -116.192E-03     234.141E-03    -117.949E-03     25.4027E-03     119.564E+06     114.017E+06    -3.07356E+06    -3.07091E+06     119.562E+06     114.017E+06    -566.743E+03         52.1885
             149     16.0104E-03     71.6282E-03         1.16128     183.323E-03        -3.12430         1.16128        -3.12430     183.323E-03    -5.52514E-03     234.278E-03    -116.363E-03    -117.916E-03    -115.880E-03     233.796E-03    -117.916E-03     25.9435E-03     117.792E+06     111.164E+06    -4.08877E+06    -4.08680E+06     117.790E+06     111.164E+06     452.619E+03         52.2655
             150     16.0118E-03     72.8930E-03         1.15659     114.885E-03        -3.05026         1.15659        -3.05025     114.885E-03    -3.16670E-03     234.403E-03    -116.482E-03    -117.922E-03    -116.047E-03     233.969E-03    -117.922E-03     24.6676E-03     119.389E+06     113.416E+06    -2.66175E+06    -2.65864E+06     119.386E+06     113.416E+06    -280.349E+03         52.3050
             151     16.0089E-03     74.1618E-03         1.14997     70.7581E-03        -2.99504         1.14997        -2.99504     70.7581E-03    -3.90433E-03     234.730E-03    -116.792E-03    -117.938E-03    -116.288E-03     234.226E-03    -117.938E-03     26.5482E-03     117.773E+06     112.059E+06    -3.86009E+06    -3.84162E+06     117.754E+06     112.059E+06     559.459E+03         52.3450
             152     16.0117E-03     75.4267E-03         1.14075     52.0269E-03        -2.95481         1.14074        -2.95480     52.0269E-03    -6.15306E-03     234.238E-03    -116.308E-03    -117.929E-03    -115.785E-03     233.714E-03    -117.929E-03     27.0568E-03     116.867E+06     111.204E+06    -4.08123E+06    -4.05086E+06     116.837E+06     111.204E+06     31.6283E+03         52.3857
             153     16.0103E-03     76.6891E-03         1.12950     58.9556E-03        -2.93220         1.12949        -2.93220     58.9556E-03    -6.25648E-03     234.084E-03    -116.183E-03    -117.901E-03    -115.727E-03     233.627E-03    -117.901E-03     25.2546E-03     117.507E+06     112.187E+06    -3.45113E+06    -3.42994E+06     117.486E+06     112.187E+06    -315.952E+03         52.4272
             154     16.0124E-03     77.9552E-03         1.11665     91.0193E-03        -2.92764         1.11664        -2.92764     91.0193E-03    -5.40291E-03     233.517E-03    -115.630E-03    -117.887E-03    -115.157E-03     233.044E-03    -117.887E-03     25.6486E-03     118.503E+06     112.571E+06    -2.80140E+06    -2.79479E+06     118.496E+06     112.571E+06     535.994E+03         52.4692
             155     16.0115E-03     79.2220E-03         1.10168     147.088E-03        -2.94017         1.10168        -2.94017     147.088E-03    -5.05217E-03     233.164E-03    -115.283E-03    -117.882E-03    -114.697E-03     232.578E-03    -117.882E-03     28.5188E-03     118.221E+06     112.421E+06    -2.69068E+06    -2.69054E+06     118.220E+06     112.421E+06    -109.608E+03         52.5118
             156     16.0124E-03     80.4847E-03         1.08481     225.484E-03        -2.96806         1.08481        -2.96805     225.484E-03    -4.32605E-03     233.427E-03    -115.563E-03    -117.865E-03    -115.000E-03     232.865E-03    -117.865E-03     27.9000E-03     115.545E+06     111.742E+06    -4.42282E+06    -4.41800E+06     115.541E+06     111.742E+06     517.433E+03         52.5552
             157     16.0122E-03     81.7460E-03         1.06693     323.998E-03        -3.01138         1.06693        -3.01138     323.998E-03    -3.21350E-03     234.043E-03    -116.187E-03    -117.856E-03    -115.729E-03     233.585E-03    -117.856E-03     25.3072E-03     118.106E+06     114.144E+06    -2.39734E+06    -2.39063E+06     118.099E+06     114.144E+06     197.674E+03         52.5993
             158     16.0113E-03     83.0131E-03         1.04753     440.017E-03        -3.06711         1.04753        -3.06711     440.017E-03    -4.43208E-03     234.835E-03    -116.993E-03    -117.842E-03    -116.492E-03     234.333E-03    -117.842E-03     26.4995E-03     118.630E+06     113.724E+06    -2.56422E+06    -2.56231E+06     118.628E+06     113.724E+06    -303.692E+03         52.6444
             159     16.0127E-03     84.2818E-03         1.02608     570.399E-03        -3.12930         1.02608        -3.12930     570.399E-03    -5.38632E-03     234.362E-03    -116.548E-03    -117.813E-03    -115.991E-03     233.805E-03    -117.813E-03     27.9417E-03     117.622E+06     111.564E+06    -3.93714E+06    -3.93336E+06     117.618E+06     111.564E+06    -444.153E+03         52.6905
             160     16.0130E-03     85.5433E-03         1.00373     711.416E-03        -3.19904         1.00373        -3.19904     711.416E-03    -3.15793E-03     233.721E-03    -115.914E-03    -117.807E-03    -115.405E-03     233.213E-03    -117.807E-03     26.6287E-03     118.425E+06     111.893E+06    -3.50358E+06    -3.49974E+06     118.421E+06     111.893E+06    -548.830E+03         52.7374
             161     16.0125E-03     86.8093E-03     981.474E-03     859.201E-03        -3.27512     981.474E-03        -3.27512     859.201E-03    -386.758E-06     233.985E-03    -116.165E-03    -117.819E-03    -115.655E-03     233.474E-03    -117.819E-03     26.6806E-03     119.576E+06     112.981E+06    -3.02623E+06    -3.02436E+06     119.575E+06     112.981E+06     262.965E+03         52.7849
             162     16.0123E-03     88.0745E-03         1.02788     940.983E-03        -3.35383     958.991E-03        -3.35383         1.00987     1.04493E-03     235.026E-03    -117.174E-03    -117.852E-03    -116.677E-03     234.517E-03    -117.840E-03     26.7261E-03     120.729E+06     114.362E+06    -2.76186E+06    -2.75881E+06     120.726E+06     114.362E+06     610.931E+03         52.8330
             163     16.0104E-03     89.3410E-03         1.15937     936.269E-03        -3.43118     936.269E-03        -3.43118         1.15937     367.645E-06     235.017E-03    -117.113E-03    -117.904E-03    -116.672E-03     234.564E-03    -117.892E-03     25.2496E-03     120.990E+06     114.698E+06    -2.72106E+06    -2.71499E+06     120.984E+06     114.698E+06     824.851E+03         52.8817
             164     16.0113E-03     90.6061E-03         1.30353     913.120E-03        -3.50235     913.120E-03        -3.50234         1.30353    -2.45924E-03     234.046E-03    -116.111E-03    -117.935E-03    -115.629E-03     233.564E-03    -117.935E-03     25.9353E-03     119.531E+06     112.295E+06    -4.71785E+06    -4.71188E+06     119.525E+06     112.295E+06     276.643E+03         52.9310
             165     16.0102E-03     91.8711E-03         1.43840     889.368E-03        -3.56349     889.366E-03        -3.56349         1.43840    -5.78485E-03     233.752E-03    -115.836E-03    -117.916E-03    -115.355E-03     233.271E-03    -117.916E-03     25.9016E-03     120.763E+06     113.237E+06    -4.08067E+06    -4.07819E+06     120.761E+06     113.237E+06    -556.412E+03         52.9814
             166     16.0133E-03     93.1311E-03         1.56025     865.996E-03        -3.61213     865.994E-03        -3.61213         1.56025    -4.60902E-03     233.828E-03    -115.977E-03    -117.850E-03    -115.554E-03     233.404E-03    -117.850E-03     24.3099E-03     124.759E+06     115.859E+06    -1.69698E+06    -1.68849E+06     124.750E+06     115.859E+06    -963.671E+03         53.0326
             167     16.0121E-03     94.4008E-03         1.66565     844.085E-03        -3.65283     844.085E-03        -3.65283         1.66565    -1.78285E-03     234.485E-03    -116.644E-03    -117.841E-03    -116.169E-03     234.011E-03    -117.841E-03     25.7234E-03     125.192E+06     115.886E+06    -3.00201E+06    -2.99069E+06     125.180E+06     115.886E+06    -160.264E+03         53.0843
             168     16.0110E-03     95.6714E-03         1.75166     823.896E-03        -3.67935     823.895E-03        -3.67935         1.75166    -3.11348E-03     233.885E-03    -116.004E-03    -117.880E-03    -115.366E-03     233.246E-03    -117.880E-03     29.7837E-03     125.069E+06     114.981E+06    -3.73013E+06    -3.71409E+06     125.053E+06     114.981E+06     1.39200E+06         53.1365
             169     16.0134E-03     96.9303E-03         1.81571     804.507E-03        -3.68570     804.506E-03        -3.68570         1.81571    -3.18891E-03     233.368E-03    -115.496E-03    -117.872E-03    -114.825E-03     232.697E-03    -117.872E-03     30.5601E-03     126.120E+06     115.189E+06    -3.07871E+06    -3.06043E+06     126.101E+06     115.189E+06     1.51799E+06         53.1897
             170     16.0112E-03     98.1975E-03         1.85572     786.381E-03        -3.67654     786.381E-03        -3.67654         1.85572    -2.91903E-03     234.464E-03    -116.610E-03    -117.854E-03    -116.024E-03     233.878E-03    -117.854E-03     28.6481E-03     128.326E+06     117.957E+06    -3.07315E+06    -3.06664E+06     128.320E+06     117.957E+06     549.595E+03         53.2436
             171     16.0128E-03     99.4593E-03         1.87028     769.811E-03        -3.64635     769.810E-03        -3.64635         1.87028    -4.74471E-03     234.122E-03    -116.294E-03    -117.828E-03    -115.808E-03     233.635E-03    -117.828E-03     26.0434E-03     128.657E+06     116.288E+06    -3.47939E+06    -3.47876E+06     128.657E+06     116.288E+06     87.8188E+03         53.2981
             172     16.0132E-03     100.722E-03         1.85850     754.020E-03        -3.59520     754.019E-03        -3.59520         1.85850    -4.26915E-03     233.496E-03    -115.703E-03    -117.793E-03    -115.240E-03     233.034E-03    -117.793E-03     25.3646E-03     128.187E+06     112.825E+06    -5.07754E+06    -5.07704E+06     128.186E+06     112.825E+06     189.736E+03         53.3531
             173     16.0131E-03     101.992E-03         1.82020     740.371E-03        -3.52700     740.369E-03        -3.52700         1.82020    -4.25442E-03     233.877E-03    -116.086E-03    -117.791E-03    -115.517E-03     233.308E-03    -117.791E-03     28.1570E-03     131.231E+06     115.797E+06    -1.88991E+06    -1.88741E+06     131.228E+06     115.797E+06    -395.198E+03         53.4082
             174     16.0131E-03     103.255E-03         1.75600     728.581E-03        -3.43812     728.578E-03        -3.43811         1.75600    -6.42417E-03     233.531E-03    -115.765E-03    -117.766E-03    -115.216E-03     232.982E-03    -117.766E-03     27.5922E-03     129.105E+06     113.807E+06    -2.74284E+06    -2.73655E+06     129.099E+06     113.807E+06     98.0502E+03         53.4631
             175     16.0149E-03     104.515E-03         1.66698     717.479E-03        -3.32884     717.476E-03        -3.32884         1.66698    -7.61154E-03     233.140E-03    -115.419E-03    -117.720E-03    -114.971E-03     232.691E-03    -117.720E-03     24.9805E-03     130.096E+06     113.975E+06    -2.98590E+06    -2.98105E+06     130.091E+06     113.975E+06     767.152E+03         53.5169
             176     16.0145E-03     105.782E-03         1.55474     707.990E-03        -3.20402     707.985E-03        -3.20402         1.55474    -8.61494E-03     233.644E-03    -115.960E-03    -117.684E-03    -115.480E-03     233.165E-03    -117.684E-03     25.8534E-03     134.811E+06     116.809E+06    -1.50998E+06    -1.50793E+06     134.809E+06     116.809E+06     528.581E+03         53.5680
             177     16.0153E-03     107.048E-03         1.42156     700.636E-03        -3.06481     700.628E-03        -3.06480         1.42156    -11.2704E-03     233.637E-03    -115.983E-03    -117.654E-03    -115.500E-03     233.154E-03    -117.654E-03     25.9370E-03     134.144E+06     114.538E+06    -4.43840E+06    -4.43226E+06     134.138E+06     114.538E+06     859.057E+03         53.6143
             178     16.0156E-03     108.308E-03         1.27030     694.316E-03        -2.91204     694.299E-03        -2.91203         1.27030    -15.5438E-03     232.999E-03    -115.376E-03    -117.623E-03    -114.945E-03     232.569E-03    -117.623E-03     24.4689E-03     136.290E+06     114.979E+06    -4.64307E+06    -4.63653E+06     136.284E+06     114.979E+06     913.149E+03         53.6530
             179     16.0170E-03     109.574E-03         1.10434     688.477E-03        -2.74757     688.443E-03        -2.74754         1.10434    -21.1562E-03     232.091E-03    -114.527E-03    -117.564E-03    -114.039E-03     231.603E-03    -117.564E-03     25.9238E-03     139.648E+06     116.842E+06    -2.57269E+06    -2.56943E+06     139.645E+06     116.842E+06     678.396E+03         53.6802
             180     16.0193E-03     110.836E-03     927.392E-03     683.425E-03        -2.57443     683.366E-03        -2.57437     927.392E-03    -27.5795E-03     230.949E-03    -113.488E-03    -117.461E-03    -112.976E-03     230.437E-03    -117.461E-03     26.5298E-03     140.990E+06     119.498E+06    -2.27683E+06    -2.27476E+06     140.988E+06     119.498E+06     234.333E+03         53.6906
             181     16.0223E-03     112.092E-03     756.697E-03     665.551E-03        -2.39650     678.820E-03        -2.39640     743.324E-03    -35.3206E-03     230.135E-03    -112.847E-03    -117.288E-03    -112.378E-03     229.666E-03    -117.288E-03     25.3493E-03     142.348E+06     122.670E+06    -3.26113E+06    -3.25907E+06     142.346E+06     122.670E+06     239.423E+03         53.6779
             182     16.0269E-03     113.355E-03     674.284E-03     556.314E-03        -2.21647     674.087E-03        -2.21627     556.314E-03    -46.8611E-03     228.441E-03    -111.407E-03    -117.034E-03    -110.820E-03     227.854E-03    -117.034E-03     28.0587E-03     142.409E+06     124.414E+06    -3.89269E+06    -3.89063E+06     142.407E+06     124.414E+06     492.557E+03         53.6360
             183     16.0340E-03     114.614E-03     668.850E-03     370.934E-03        -2.03493     668.492E-03        -2.03457     370.934E-03    -61.4677E-03     224.817E-03    -108.199E-03    -116.618E-03    -107.325E-03     223.943E-03    -116.618E-03     33.8959E-03     141.387E+06     125.608E+06    -2.91487E+06    -2.87275E+06     141.345E+06     125.608E+06     1.84482E+06         53.5626
             184     16.0477E-03     115.860E-03     662.637E-03     191.464E-03        -1.85656     662.031E-03        -1.85596     191.464E-03    -77.3514E-03     221.449E-03    -105.497E-03    -115.951E-03    -104.519E-03     220.470E-03    -115.951E-03     35.7081E-03     140.586E+06     125.401E+06    -5.52750E+06    -5.48429E+06     140.543E+06     125.401E+06     1.40345E+06         53.4633
             185     16.0599E-03     117.107E-03     654.199E-03     21.8595E-03        -1.68461     653.113E-03        -1.68352     21.8595E-03    -99.2479E-03     218.764E-03    -103.808E-03    -114.956E-03    -102.699E-03     217.655E-03    -114.956E-03     37.6104E-03     139.522E+06     126.613E+06    -2.51362E+06    -2.48322E+06     139.491E+06     126.613E+06     1.07491E+06         53.3579
             186     16.0871E-03     118.343E-03     642.132E-03    -133.532E-03        -1.51393     640.277E-03        -1.51207    -133.532E-03    -125.157E-03     213.492E-03    -100.097E-03    -113.395E-03    -98.7469E-03     212.142E-03    -113.395E-03     41.0387E-03     135.454E+06     120.443E+06    -5.65008E+06    -5.61633E+06     135.420E+06     120.443E+06     1.97982E+06         53.2865
             187     16.1234E-03     119.573E-03     626.426E-03    -270.852E-03        -1.34499     623.938E-03        -1.34250    -270.852E-03    -139.695E-03     209.078E-03    -97.9820E-03    -111.096E-03    -96.3491E-03     207.445E-03    -111.096E-03     44.5506E-03     131.027E+06     109.219E+06    -1.98477E+06    -1.97924E+06     131.021E+06     109.219E+06     365.396E+03         53.3039
             188     16.1677E-03     120.799E-03     609.306E-03    -388.202E-03        -1.18776     606.954E-03        -1.18541    -388.202E-03    -129.825E-03     213.993E-03    -102.744E-03    -111.249E-03    -104.138E-03     212.452E-03    -108.314E-03     43.9391E-03     124.505E+06     92.2173E+06    -3.65278E+06    -3.56861E+06     124.420E+06     92.2173E+06    -2.63549E+06         53.4618
             189     16.1983E-03     122.049E-03     593.429E-03    -485.077E-03        -1.05517     591.859E-03        -1.05360    -485.077E-03    -100.871E-03     231.713E-03    -105.817E-03    -125.896E-03    -124.967E-03     230.784E-03    -105.817E-03     35.7195E-03     109.026E+06     79.7348E+06    -2.87617E+06    -2.70487E+06     108.854E+06     79.7348E+06    -4.33244E+06         53.7951
             190     16.2108E-03     123.332E-03     578.434E-03    -559.874E-03    -949.377E-03     577.533E-03    -948.476E-03    -559.874E-03    -73.7615E-03     256.821E-03    -104.158E-03    -152.663E-03    -152.079E-03     256.237E-03    -104.158E-03     30.8077E-03     86.2223E+06     76.5823E+06    -8.56264E+06    -7.58559E+06     85.2453E+06     76.5823E+06    -8.71063E+06         54.3165
             191     16.2151E-03     124.651E-03     561.448E-03    -608.945E-03    -860.936E-03     560.816E-03    -860.304E-03    -608.945E-03    -59.9059E-03     279.708E-03    -103.243E-03    -176.465E-03    -175.807E-03     279.050E-03    -103.243E-03     34.5295E-03     90.1592E+06     60.1235E+06    -1.10497E+06     161.776E+03     59.9022E+06     89.1138E+06    -8.64963E+06         55.0106
             192     16.2181E-03     125.999E-03     538.835E-03    -628.358E-03    -784.948E-03     538.264E-03    -784.377E-03    -628.358E-03    -54.9777E-03     297.621E-03    -102.677E-03    -194.944E-03    -194.032E-03     296.709E-03    -102.677E-03     42.2895E-03     90.9811E+06     29.3014E+06    -9.81264E+06    -7.02955E+06     26.5183E+06     90.9811E+06    -9.94403E+06         55.8298
             193     16.2185E-03     127.358E-03     510.422E-03    -615.217E-03    -723.161E-03     509.850E-03    -722.589E-03    -615.217E-03    -53.1048E-03     314.160E-03    -102.180E-03    -211.980E-03    -210.862E-03     313.042E-03    -102.180E-03     48.4455E-03     88.5650E+06     27.6507E+06    -33.6474E+06     402.738E+03     -6.3995E+06     88.5650E+06    -9.72221E+06         56.7063
             194     16.2212E-03     128.745E-03     476.350E-03    -567.863E-03    -677.466E-03     475.761E-03    -676.877E-03    -567.863E-03    -52.1105E-03     329.595E-03    -101.750E-03    -227.845E-03    -226.550E-03     328.300E-03    -101.750E-03     53.6521E-03     81.1866E+06     2.95591E+06    -37.7253E+06    -3.05973E+06    -31.7096E+06     81.1866E+06    -5.87169E+06         57.5610
             195     16.2184E-03     130.155E-03     434.696E-03    -485.350E-03    -646.839E-03     434.038E-03    -646.181E-03    -485.350E-03    -53.2407E-03     344.698E-03    -101.390E-03    -243.308E-03    -241.465E-03     342.855E-03    -101.390E-03     65.3350E-03     76.8056E+06     1.45485E+06    -68.9076E+06    -4.99232E+06    -62.4604E+06     76.8056E+06    -9.84045E+06         58.3086
             196     16.2227E-03     131.578E-03     386.622E-03    -366.982E-03    -630.469E-03     385.934E-03    -629.782E-03    -366.982E-03    -52.8559E-03     364.829E-03    -100.858E-03    -263.970E-03    -261.237E-03     362.096E-03    -100.858E-03     82.5760E-03     75.2544E+06     17.9142E+06    -71.3297E+06     9.78945E+06    -63.2050E+06     75.2544E+06     6.79684E+06         58.8517
             197     16.2191E-03     133.063E-03     329.157E-03    -213.921E-03    -625.342E-03     328.442E-03    -624.627E-03    -213.921E-03    -52.1454E-03     374.265E-03    -100.518E-03    -273.747E-03    -270.527E-03     371.045E-03    -100.518E-03     91.1237E-03     32.5531E+06     -112.76E+03    -95.4513E+06    -15.2099E+06    -80.3542E+06     32.5531E+06    -8.79572E+06         59.0385
             198     16.2193E-03     134.518E-03     259.036E-03    -28.7407E-03    -620.439E-03     258.271E-03    -619.674E-03    -28.7407E-03    -51.8480E-03     374.151E-03    -100.326E-03    -273.825E-03    -267.356E-03     367.682E-03    -100.326E-03     124.604E-03     12.8446E+06     11.5361E+06    -136.600E+06     3.65070E+06    -128.715E+06     12.8446E+06    -15.5597E+06         58.6805
             199     16.2381E-03     135.969E-03     261.124E-03     100.175E-03    -604.403E-03     174.531E-03    -603.917E-03     186.282E-03    -37.5939E-03     379.866E-03    -99.9968E-03    -279.869E-03    -271.271E-03     371.268E-03    -99.9968E-03     149.296E-03     51.1213E+06      -953.1E+03    -156.225E+06    -3.70119E+06    -153.477E+06     51.1213E+06    -7.39736E+06         57.5322
             200     16.2323E-03     137.463E-03     426.194E-03     72.0127E-03    -566.353E-03     71.8767E-03    -566.217E-03     426.194E-03    -6.68384E-03     372.876E-03    -100.217E-03    -272.659E-03    -260.915E-03     361.132E-03    -100.217E-03     168.987E-03     77.0898E+06     21.4650E+06    -145.634E+06     10.7114E+06    -134.880E+06     77.0898E+06     13.5372E+06         55.2826
             201     16.2339E-03     138.912E-03     675.897E-03    -46.9686E-03    -493.534E-03    -47.9114E-03    -492.591E-03     675.897E-03     30.4867E-03     315.230E-03    -102.310E-03    -212.921E-03    -187.711E-03     290.020E-03    -102.310E-03     215.559E-03     78.3232E+06     26.9493E+06    -86.9365E+06     -453.85E+03    -59.5334E+06     78.3232E+06     33.3660E+06         52.1491
             202     16.2226E-03     140.181E-03     917.095E-03    -161.576E-03    -412.068E-03    -167.796E-03    -405.848E-03     917.095E-03     65.0171E-03     167.336E-03    -25.4928E-03    -141.844E-03    -31.3933E-03     143.360E-03    -111.967E-03     118.681E-03     60.3242E+06     2.20851E+06    -52.8993E+06    -13.2940E+06     7.21303E+06     15.7143E+06     1.69181E+06         49.3423
             203     14.8106E-03     140.712E-03         1.02405    -155.823E-03    -397.214E-03    -180.567E-03    -372.470E-03         1.02405     144.701E-03     95.3987E-03     26.6876E-03    -122.086E-03     35.7458E-03     86.3406E-03    -122.086E-03    -21.7820E-03     74.2868E+06     10.3993E+06    -56.8514E+06     440.748E+03    -2.28290E+06     29.6769E+06     11.3532E+06         48.0385
             204     13.9057E-03     140.270E-03     992.712E-03    -37.3439E-03    -422.524E-03    -96.0421E-03    -363.826E-03     992.712E-03     275.433E-03     135.587E-03    -11.4786E-03    -124.108E-03    -7.62245E-03     131.731E-03    -124.108E-03    -46.2006E-03     112.425E+06     28.7210E+06    -49.0400E+06    -20.3103E+06      -8.751E+03     112.425E+06    -1.05508E+06         47.3279
             205     13.0419E-03     139.765E-03     942.230E-03     85.9791E-03    -432.539E-03    -10.9096E-03    -335.650E-03     942.230E-03     403.960E-03     140.249E-03    -16.9331E-03    -123.315E-03    -13.0428E-03     136.358E-03    -123.315E-03    -48.2957E-03     76.6849E+06     13.2152E+06    -44.4076E+06    -23.7794E+06    -7.41305E+06     76.6849E+06    -21.6380E+06         45.9577
             206     12.1615E-03     139.284E-03     879.452E-03     205.548E-03    -439.001E-03     73.6879E-03    -307.141E-03     879.452E-03     519.882E-03     140.204E-03    -17.9994E-03    -122.205E-03    -11.9076E-03     134.112E-03    -122.205E-03    -60.7158E-03     65.7681E+06     1.04374E+06    -40.5415E+06    -26.4314E+06    -13.0663E+06     65.7681E+06    -11.5238E+06         44.1396
             207     11.2895E-03     138.820E-03     805.715E-03     313.183E-03    -436.514E-03     152.219E-03    -275.549E-03     805.715E-03     615.649E-03     161.864E-03    -41.9654E-03    -119.899E-03    -29.7961E-03     149.695E-03    -119.899E-03    -95.8071E-03     80.2859E+06     17.5102E+06    -34.5264E+06    -21.5236E+06     4.50741E+06     80.2859E+06    -19.2900E+06         42.2432
             208     10.4548E-03     138.375E-03     723.836E-03     407.554E-03    -422.449E-03     228.887E-03    -243.783E-03     723.836E-03     682.250E-03     186.928E-03    -71.7870E-03    -115.141E-03    -51.2907E-03     166.431E-03    -115.141E-03    -139.591E-03     72.7647E+06     1.31840E+06    -33.5892E+06    -13.3240E+06    -18.9468E+06     72.7647E+06    -15.8427E+06         40.4170
             209     9.65051E-03     137.976E-03     641.965E-03     480.156E-03    -399.811E-03     300.917E-03    -220.572E-03     641.965E-03     708.518E-03     202.289E-03    -93.6410E-03    -108.648E-03    -69.5177E-03     178.166E-03    -108.648E-03    -161.895E-03     79.1629E+06     1.09657E+06    -22.5240E+06    -9.35202E+06    -12.0754E+06     79.1629E+06    -9.73262E+06         38.6155
             210     8.84530E-03     137.633E-03     568.489E-03     520.047E-03    -371.441E-03     358.420E-03    -207.717E-03     566.393E-03     690.842E-03     208.647E-03    -99.9997E-03    -108.648E-03    -84.9333E-03     186.368E-03    -101.434E-03    -161.510E-03     81.8314E+06     5.79806E+06    -16.9775E+06    -6.06215E+06    -5.11730E+06     81.8314E+06    -10.4605E+06         36.8033
             211     8.03091E-03     137.341E-03     532.327E-03     499.815E-03    -337.744E-03     394.679E-03    -200.096E-03     499.815E-03     634.188E-03     207.598E-03    -94.0605E-03    -113.537E-03    -95.3730E-03     189.434E-03    -94.0605E-03    -148.049E-03     75.3251E+06     8.98882E+06    -17.1053E+06    -776.557E+03    -7.33991E+06     75.3251E+06    -12.5299E+06         35.0115
             212     7.20401E-03     137.104E-03     515.741E-03     443.254E-03    -301.343E-03     408.287E-03    -193.889E-03     443.254E-03     551.354E-03     200.481E-03    -86.9125E-03    -113.568E-03    -100.086E-03     186.999E-03    -86.9125E-03    -126.879E-03     76.7645E+06     15.6894E+06    -15.4851E+06     7.00898E+06    -6.80467E+06     76.7645E+06    -12.9948E+06         33.2997
             213     6.35821E-03     136.913E-03     481.020E-03     396.451E-03    -264.815E-03     402.287E-03    -186.083E-03     396.451E-03     457.277E-03     188.077E-03    -80.2141E-03    -107.862E-03    -98.6690E-03     178.883E-03    -80.2141E-03    -102.303E-03     82.8240E+06     18.3150E+06    -10.8805E+06     12.9954E+06    -5.56086E+06     82.8240E+06    -11.0814E+06         31.7248
             214     5.49275E-03     136.761E-03     437.020E-03     358.337E-03    -229.627E-03     382.704E-03    -175.312E-03     358.337E-03     363.716E-03     172.404E-03    -74.0971E-03    -98.3072E-03    -92.4112E-03     166.508E-03    -74.0971E-03    -78.6553E-03     77.6034E+06     20.5888E+06    -7.77612E+06     15.5900E+06    -2.77736E+06     77.6034E+06    -10.5577E+06         30.3273
             215     4.61068E-03     136.648E-03     390.954E-03     327.910E-03    -197.947E-03     355.641E-03    -162.634E-03     327.910E-03     278.445E-03     156.038E-03    -68.7396E-03    -87.2982E-03    -83.8612E-03     152.601E-03    -68.7396E-03    -56.9456E-03     57.7952E+06     24.0808E+06    -4.97903E+06     19.2257E+06    -123.930E+03     57.7952E+06    -10.6535E+06         29.1326
             216     3.70902E-03     136.560E-03     348.393E-03     304.128E-03    -171.053E-03     327.049E-03    -149.709E-03     304.128E-03     205.017E-03     141.038E-03    -64.4218E-03    -76.6159E-03    -74.7177E-03     139.140E-03    -64.4218E-03    -40.2678E-03     49.0358E+06     34.1057E+06    -6.31497E+06     29.4261E+06    -1.63532E+06     49.0358E+06    -12.0628E+06         28.1536
             217     2.79145E-03     136.500E-03     312.647E-03     286.021E-03    -148.688E-03     300.851E-03    -136.892E-03     286.021E-03     144.156E-03     129.341E-03    -61.2014E-03    -68.1393E-03    -67.1109E-03     128.312E-03    -61.2014E-03    -27.9905E-03     57.2926E+06     39.2915E+06    -8.20694E+06     37.3060E+06    -6.22148E+06     57.2926E+06    -9.25427E+06         27.3941
             218     1.86760E-03     136.455E-03     286.451E-03     272.705E-03    -131.349E-03     281.116E-03    -126.014E-03     272.705E-03     91.2526E-03     120.027E-03    -58.3976E-03    -61.6299E-03    -60.2731E-03     119.554E-03    -59.2813E-03    -18.2575E-03     59.7172E+06     47.4209E+06    -1.73553E+06     45.5198E+06     165.505E+03     59.7172E+06    -9.28774E+06         26.8516
             219     932.367E-06     136.433E-03     268.946E-03     263.439E-03    -121.110E-03     266.284E-03    -119.430E-03     264.421E-03     48.2007E-03     117.508E-03    -57.1125E-03    -60.3957E-03    -59.2704E-03     117.267E-03    -57.9963E-03    -12.9030E-03     62.4633E+06     57.8376E+06    -6.27207E+06     54.3454E+06    -2.77988E+06     62.4633E+06    -14.5444E+06         26.5196
             220    -2.80042E-06     135.303E-03     265.248E-03     143.237E-03    -48.4912E-03     143.933E-03     74.6931E-03     141.367E-03     37.0041E-03     97.9824E-03    -46.9277E-03    -51.0547E-03    -49.1958E-03     97.8511E-03    -48.6553E-03    -8.78469E-03     37.6625E+06     26.4257E+06    -33.4976E+06     31.7452E+06    -30.8116E+06     29.6570E+06    -12.7870E+06         26.2229
             221    -682.294E-09     134.225E-03     459.906E-03    -95.4202E-03    -99.9299E-03    -95.7895E-03     458.617E-03    -98.2722E-03     44.3555E-03     60.6416E-03    -29.3784E-03    -31.2631E-03    -29.3318E-03     60.5949E-03    -31.2631E-03    -3.60486E-03    -13.4294E+06    -23.6045E+06    -70.9938E+06    -17.0835E+06    -69.5094E+06    -21.4348E+06    -8.82683E+06         25.7749
             222     405.571E-09     133.180E-03     829.852E-03    -333.334E-03    -336.759E-03    -336.343E-03     829.436E-03    -333.334E-03     41.7120E-03     35.1936E-03    -17.4118E-03    -17.7818E-03    -17.6236E-03     35.1925E-03    -17.5689E-03    -359.038E-06    -73.7910E+06    -84.6820E+06    -118.129E+06    -86.8875E+06    -107.202E+06    -82.5123E+06    -13.4879E+06         25.2728
             223     22.0998E-09     132.158E-03         1.16756    -555.471E-03    -557.552E-03    -557.065E-03         1.16738    -555.785E-03     32.8704E-03     20.3660E-03    -10.0632E-03    -10.3028E-03    -10.3028E-03     20.3660E-03    -10.0632E-03     50.6954E-06    -137.635E+06    -172.138E+06    -183.610E+06    -172.300E+06    -146.791E+06    -174.292E+06    -14.3092E+06         24.9151
             224    -19.4171E-09     131.142E-03         1.45951    -754.521E-03    -754.922E-03    -754.553E-03         1.45945    -754.834E-03     20.3220E-03     13.6330E-03    -6.66842E-03    -6.96461E-03    -6.63771E-03     13.5757E-03    -6.93796E-03     1.45366E-03    -168.944E+06    -238.079E+06    -241.391E+06    -237.988E+06    -170.193E+06    -240.233E+06    -3.37726E+06         24.8364
             225    -619.454E-09     130.130E-03         1.69878    -924.318E-03    -926.789E-03    -926.780E-03         1.69877    -924.318E-03     7.43333E-03     16.1737E-03    -7.76674E-03    -8.40698E-03    -8.00342E-03     16.0397E-03    -8.03628E-03     3.59471E-03    -170.120E+06    -246.821E+06    -251.006E+06    -246.566E+06    -171.534E+06    -249.848E+06     8.48729E+06         25.1032
             226     1.14810E-06     129.112E-03         1.88359        -1.06466        -1.06852        -1.06704         1.88359        -1.06613    -2.71564E-03     29.0891E-03    -14.2593E-03    -14.8298E-03    -14.6924E-03     28.9517E-03    -14.2593E-03     4.79412E-03    -126.776E+06    -164.402E+06    -179.276E+06    -168.303E+06    -134.722E+06    -167.429E+06     14.4496E+06         25.7295
             227    -782.608E-09     128.075E-03         2.01023        -1.17185        -1.18006        -1.17183         2.01022        -1.18006    -12.4315E-03     49.9154E-03    -24.7228E-03    -25.1926E-03    -25.0416E-03     49.7643E-03    -24.7228E-03     6.72854E-03    -79.4313E+06    -88.0913E+06    -101.747E+06    -91.4670E+06    -89.7117E+06    -88.0913E+06     10.9758E+06         26.6944
             228     1.12538E-06     127.007E-03         2.07367        -1.24319        -1.26020        -1.24316         2.07363        -1.26020    -20.5313E-03     74.9792E-03    -36.8517E-03    -38.1275E-03    -37.8906E-03     74.7423E-03    -36.8517E-03     10.3375E-03    -51.9672E+06    -61.2404E+06    -75.0828E+06    -59.9888E+06    -71.9531E+06    -56.3485E+06     5.66214E+06         27.9509
             229     591.613E-09     125.915E-03         2.06956        -1.27533        -1.30667        -1.27528         2.06951        -1.30667    -25.7240E-03     101.362E-03    -49.7903E-03    -51.5718E-03    -51.3530E-03     101.143E-03    -49.7903E-03     11.2359E-03    -23.1753E+06    -29.9384E+06    -69.4648E+06    -29.0282E+06    -68.5036E+06    -25.0466E+06    -617.224E+03         29.4279
             230     734.477E-09     124.797E-03         1.99501        -1.25808        -1.32491        -1.25800         1.99493        -1.32491    -31.6051E-03     129.002E-03    -63.9778E-03    -65.0241E-03    -64.9189E-03     128.897E-03    -63.9778E-03     8.76411E-03     1.05171E+06    -1.88827E+06    -75.7058E+06     690.146E+03    -75.3443E+06    -1.88827E+06    -3.37695E+06         31.0351
             231    -256.346E-09     123.647E-03         1.84585        -1.18604        -1.31700        -1.18590         1.84571        -1.31700    -40.1741E-03     157.875E-03    -78.5463E-03    -79.3290E-03    -78.7668E-03     157.825E-03    -79.0585E-03     6.73519E-03     7.25274E+06     4.74872E+06    -83.7204E+06     5.16875E+06    -83.0718E+06     6.18408E+06    -5.32693E+06         32.6717
             232    -661.019E-09     122.454E-03         1.61778        -1.05327        -1.28511        -1.05300         1.61751        -1.28511    -51.9364E-03     181.866E-03    -90.3028E-03    -91.5637E-03    -91.0299E-03     181.845E-03    -90.8149E-03     4.59046E-03     1.05284E+06    -4.84341E+06    -96.9128E+06    -1.15580E+06    -96.1396E+06    -3.40806E+06    -7.79143E+06         34.2340
             233     1.96370E-06     121.244E-03         1.31438    -855.044E-03        -1.23323    -854.465E-03         1.31380        -1.23323    -68.2602E-03     199.955E-03    -99.3194E-03    -100.635E-03    -100.617E-03     199.936E-03    -99.3194E-03     4.62199E-03    -7.12122E+06    -15.6056E+06    -113.649E+06    -11.3919E+06    -113.402E+06    -11.5821E+06    -5.02545E+06         35.6301
             234    -892.286E-09     120.015E-03     936.575E-03    -597.633E-03        -1.15956    -596.222E-03     935.164E-03        -1.15956    -87.8252E-03     214.662E-03    -106.985E-03    -107.677E-03    -107.538E-03     214.648E-03    -107.109E-03     3.08233E-03    -17.8468E+06    -27.5003E+06    -132.516E+06    -22.1158E+06    -132.270E+06    -23.4767E+06    -5.19649E+06         36.8016
             235     600.664E-09     118.764E-03     495.794E-03    -292.979E-03        -1.06123    -287.165E-03     489.980E-03        -1.06123    -109.517E-03     223.691E-03    -110.861E-03    -112.831E-03    -112.706E-03     223.691E-03    -110.985E-03     803.538E-06    -34.6959E+06    -45.6055E+06    -158.450E+06    -40.2798E+06    -158.145E+06    -40.3259E+06    -5.95125E+06         37.7284
             236     2.75870E-06     117.515E-03     255.497E-03    -204.961E-03    -937.684E-03     59.0000E-03    -8.46417E-03    -937.684E-03    -128.866E-03     228.993E-03    -112.829E-03    -116.165E-03    -116.164E-03     228.992E-03    -112.829E-03     309.437E-06    -58.2434E+06    -66.8383E+06    -180.762E+06    -63.9892E+06    -180.296E+06    -61.5587E+06    -7.34742E+06         38.4240
             237    -141.390E-09     116.255E-03     426.027E-03    -488.654E-03    -852.169E-03     419.738E-03    -551.021E-03    -783.512E-03    -140.312E-03     231.861E-03    -114.950E-03    -116.910E-03    -116.439E-03     231.859E-03    -115.420E-03    -1.42238E-03    -69.6737E+06    -73.9164E+06    -198.515E+06    -70.9354E+06    -198.181E+06    -72.9890E+06    -5.97685E+06         38.9246
             238    -690.482E-09     114.992E-03     787.324E-03    -596.485E-03        -1.12488     784.506E-03        -1.12206    -596.485E-03    -141.345E-03     233.197E-03    -115.950E-03    -117.247E-03    -116.776E-03     233.195E-03    -116.419E-03    -886.124E-06    -80.3154E+06    -81.8022E+06    -218.777E+06    -81.3703E+06    -218.649E+06    -80.8748E+06    -4.16435E+06         39.2753
             239     2.15492E-06     113.729E-03         1.14821    -381.255E-03        -1.71363         1.14665        -1.71207    -381.255E-03    -130.317E-03     234.268E-03    -116.550E-03    -117.718E-03    -117.716E-03     234.266E-03    -116.550E-03    -1.04701E-03    -96.2334E+06    -97.4323E+06    -236.292E+06    -96.3124E+06    -236.213E+06    -97.4323E+06    -2.52143E+06         39.5199
             240    -1.56926E-06     112.468E-03         1.48745    -137.579E-03        -2.31107         1.48663        -2.31025    -137.579E-03    -108.410E-03     234.595E-03    -116.884E-03    -117.711E-03    -117.221E-03     234.592E-03    -117.371E-03    -2.01168E-03    -115.610E+06    -116.606E+06    -252.640E+06    -115.992E+06    -252.615E+06    -116.250E+06    -1.47074E+06         39.6942
             241     699.791E-09     111.204E-03         1.79947     131.294E-03        -2.90436         1.79914        -2.90403     131.294E-03    -74.5161E-03     235.839E-03    -117.075E-03    -118.764E-03    -118.275E-03     235.837E-03    -117.563E-03    -1.29016E-03    -118.376E+06    -119.877E+06    -259.629E+06    -118.765E+06    -259.595E+06    -119.521E+06    -541.896E+03         39.8253
             242     1.41620E-06     109.932E-03         2.07901     418.135E-03        -3.47716         2.07894        -3.47709     418.135E-03    -32.5546E-03     235.887E-03    -117.165E-03    -118.722E-03    -118.719E-03     235.884E-03    -117.165E-03     989.460E-06    -119.733E+06    -121.985E+06    -268.909E+06    -120.909E+06    -268.840E+06    -120.879E+06    -1.37954E+06         39.9320
             243    -777.288E-09     108.670E-03         2.32131     710.190E-03        -4.01767         2.32125        -4.01761     710.190E-03     21.8485E-03     234.637E-03    -116.370E-03    -118.268E-03    -118.264E-03     234.633E-03    -116.370E-03     664.927E-06    -125.520E+06    -126.972E+06    -282.780E+06    -127.034E+06    -282.718E+06    -125.520E+06    -1.93040E+06         40.0258
             244     3.51744E-06     107.409E-03         2.52177     995.622E-03        -4.51311         2.52153        -4.51287     995.622E-03     79.5303E-03     234.541E-03    -116.351E-03    -118.190E-03    -118.189E-03     234.540E-03    -116.351E-03    -527.806E-06    -121.516E+06    -122.857E+06    -287.321E+06    -121.892E+06    -287.291E+06    -122.511E+06    -1.37022E+06         40.1135
             245    -3.00331E-06     106.148E-03         2.67738         1.26508        -4.95239         2.67660        -4.95162         1.26508     148.601E-03     234.826E-03    -116.798E-03    -118.028E-03    -117.092E-03     234.823E-03    -117.731E-03    -1.12622E-03    -120.105E+06    -122.567E+06    -289.961E+06    -120.136E+06    -289.930E+06    -122.567E+06    -1.33528E+06         40.1992
             246     1.31143E-06     104.879E-03         2.80399         1.50461        -5.32855         2.80244        -5.32700         1.50461     223.473E-03     234.787E-03    -116.750E-03    -118.037E-03    -117.099E-03     234.782E-03    -117.684E-03    -120.629E-06    -120.248E+06    -122.184E+06     -293.66E+06    -120.723E+06    -293.655E+06    -121.714E+06     865.715E+03         40.2845
             247    -687.473E-09     103.617E-03         2.89602         1.71057        -5.63433         2.89332        -5.63162         1.71057     300.958E-03     234.729E-03    -116.943E-03    -117.786E-03    -117.783E-03     234.726E-03    -116.943E-03     729.509E-06    -122.028E+06    -123.011E+06    -297.287E+06    -122.545E+06    -297.240E+06    -122.540E+06     2.53723E+06         40.3696
             248     1.54436E-06     102.354E-03         2.95409         1.87070        -5.86867         2.94985        -5.86443         1.87070     385.337E-03     234.637E-03    -116.669E-03    -117.968E-03    -117.968E-03     234.636E-03    -116.669E-03    -457.894E-06    -118.067E+06    -118.672E+06    -294.442E+06    -118.208E+06    -294.395E+06    -118.579E+06     2.60647E+06         40.4539
             249    -105.595E-09     101.091E-03         2.98660         1.97483        -6.02225         2.98056        -6.01621         1.97483     464.806E-03     234.833E-03    -116.899E-03    -117.934E-03    -117.931E-03     234.830E-03    -116.899E-03    -1.39987E-03    -111.941E+06    -112.847E+06    -286.524E+06    -112.857E+06    -286.514E+06    -111.941E+06     32.0154E+03         40.5367
             250     498.880E-09     99.8315E-03         2.98855         2.02273        -6.09388         2.98041        -6.08574         2.02273     542.551E-03     236.430E-03    -117.941E-03    -118.489E-03    -118.485E-03     236.426E-03    -117.941E-03    -2.32636E-03    -110.858E+06    -113.929E+06    -282.154E+06    -111.681E+06    -282.144E+06    -113.116E+06         840.812         40.6176
             251     39.9881E-09     98.5600E-03         2.96069         2.01305        -6.08338         2.95050        -6.07319         2.01305     606.034E-03     237.073E-03    -118.365E-03    -118.708E-03    -118.706E-03     237.071E-03    -118.365E-03    -1.30887E-03    -110.247E+06    -114.147E+06    -277.810E+06    -111.901E+06    -277.798E+06    -112.505E+06     1.42729E+06         40.6963
             252     5.99194E-09     97.2909E-03         2.91615         1.94150        -5.99065         2.90414        -5.97864         1.94150     653.148E-03     235.610E-03    -117.021E-03    -118.589E-03    -118.588E-03     235.609E-03    -117.021E-03     443.595E-06    -111.755E+06    -114.270E+06    -278.223E+06    -114.311E+06    -278.183E+06    -111.755E+06    -879.533E+03         40.7728
             253     2.74985E-06     96.0294E-03         2.85574         1.80658        -5.81848         2.84239        -5.80514         1.80658     679.664E-03     235.274E-03    -116.449E-03    -118.825E-03    -118.823E-03     235.272E-03    -116.449E-03     385.154E-06    -111.606E+06    -114.165E+06    -284.989E+06    -112.512E+06    -284.956E+06    -113.291E+06    -1.53908E+06         40.8470
             254    -1.31192E-06     94.7694E-03         2.76605         1.62053        -5.57727         2.75190        -5.56311         1.62053     686.517E-03     236.342E-03    -117.601E-03    -118.740E-03    -118.425E-03     236.339E-03    -117.914E-03    -1.65225E-03    -109.635E+06    -112.316E+06    -285.026E+06    -110.633E+06    -285.023E+06    -111.321E+06     592.018E+03         40.9190
             255     752.791E-09     93.4990E-03         2.66393         1.38474        -5.27261         2.64924        -5.25793         1.38474     682.044E-03     236.345E-03    -117.072E-03    -119.274E-03    -118.954E-03     236.339E-03    -117.385E-03    -2.95489E-03    -112.160E+06    -113.327E+06    -282.497E+06    -113.172E+06    -282.480E+06    -112.332E+06    -630.901E+03         40.9894
             256     2.58181E-06     92.2358E-03         2.54648         1.10875        -4.91673         2.53223        -4.90247         1.10875     651.690E-03     236.025E-03    -116.847E-03    -119.178E-03    -119.172E-03     236.019E-03    -116.847E-03    -1.04331E-03    -108.994E+06    -109.925E+06    -279.068E+06    -109.768E+06    -279.052E+06    -109.166E+06    -893.999E+03         41.0584
             257    -1.78930E-06     90.9703E-03         2.40524     806.194E-03        -4.51497         2.39159        -4.50131     806.194E-03     614.038E-03     236.050E-03    -117.757E-03    -118.293E-03    -118.286E-03     236.043E-03    -117.757E-03    -1.26226E-03    -105.104E+06    -106.970E+06    -274.079E+06    -105.865E+06    -274.076E+06    -106.211E+06     647.620E+03         41.1268
             258     1.92126E-06     89.7021E-03         2.25118     483.858E-03        -4.07799         2.23817        -4.06499     483.858E-03     573.296E-03     235.023E-03    -117.420E-03    -117.603E-03    -117.505E-03     235.014E-03    -117.509E-03    -677.513E-06    -107.318E+06    -108.869E+06    -276.726E+06    -107.321E+06    -276.723E+06    -108.869E+06     336.380E+03         41.1952
             259    -2.09698E-06     88.4420E-03         2.07911     159.781E-03        -3.62139         2.06684        -3.60912     159.781E-03     528.172E-03     235.094E-03    -117.428E-03    -117.666E-03    -117.424E-03     235.091E-03    -117.666E-03     577.257E-06    -108.485E+06    -109.196E+06    -278.023E+06    -108.486E+06    -278.022E+06    -109.196E+06    -409.335E+03         41.2642
             260     1.81559E-06     87.1739E-03         1.89303    -154.431E-03        -3.15543         1.88107        -3.14346    -154.431E-03     490.823E-03     236.503E-03    -117.270E-03    -119.233E-03    -119.081E-03     236.501E-03    -117.419E-03     218.423E-06    -110.131E+06    -110.692E+06    -276.401E+06    -110.199E+06    -276.333E+06    -110.692E+06     2.05191E+06         41.3339
             261     1.39207E-06     85.9085E-03         1.68156    -441.214E-03        -2.69600         1.67018        -2.68462    -441.214E-03     445.765E-03     236.326E-03    -117.144E-03    -119.183E-03    -118.956E-03     236.325E-03    -117.369E-03     1.11408E-03    -110.647E+06    -111.061E+06    -278.057E+06    -110.853E+06    -277.972E+06    -110.940E+06     1.13317E+06         41.4044
             262    -1.80077E-06     84.6433E-03         1.44735    -686.462E-03        -2.25430         1.43630        -2.24325    -686.462E-03     403.366E-03     234.457E-03    -117.094E-03    -117.362E-03    -117.136E-03     234.456E-03    -117.320E-03    -632.100E-06    -110.537E+06    -110.896E+06    -279.565E+06    -110.699E+06    -279.524E+06    -110.774E+06     156.855E+03         41.4752
             263     1.86190E-06     83.3838E-03         1.20840    -888.503E-03        -1.84646         1.19768        -1.83573    -888.503E-03     361.083E-03     234.398E-03    -116.100E-03    -118.298E-03    -118.297E-03     234.397E-03    -116.100E-03    -594.963E-06    -111.094E+06    -111.936E+06    -280.594E+06    -111.732E+06    -280.561E+06    -111.331E+06     2.33318E+06         41.5465
             264     1.96928E-06     82.1180E-03     952.731E-03        -1.03422        -1.47750     942.902E-03        -1.46767        -1.03422     308.298E-03     236.312E-03    -116.463E-03    -119.849E-03    -119.849E-03     236.312E-03    -116.463E-03     275.230E-06    -107.893E+06    -109.530E+06    -277.023E+06    -109.566E+06    -276.986E+06    -107.893E+06    -530.579E+03         41.6182
             265     220.853E-09     80.8517E-03     678.039E-03        -1.04995        -1.21902     669.584E-03        -1.14806        -1.11246     248.379E-03     236.039E-03    -117.344E-03    -118.694E-03    -118.571E-03     236.035E-03    -117.464E-03    -1.40322E-03    -107.543E+06    -109.158E+06    -274.877E+06    -108.618E+06    -274.833E+06    -108.127E+06    -2.67950E+06         41.6898
             266    -460.235E-09     79.5907E-03     393.495E-03    -895.066E-03        -1.12030     387.500E-03    -889.071E-03        -1.12030     175.227E-03     235.361E-03    -117.322E-03    -118.039E-03    -117.318E-03     235.357E-03    -118.039E-03    -1.97494E-03    -112.362E+06    -114.327E+06    -281.025E+06    -112.380E+06    -281.007E+06    -114.327E+06    -1.51016E+06         41.7609
             267    -628.117E-09     78.3240E-03     109.753E-03    -697.415E-03        -1.05665     107.027E-03    -694.689E-03        -1.05665     92.2448E-03     236.726E-03    -117.520E-03    -119.206E-03    -118.605E-03     236.722E-03    -118.117E-03    -1.94161E-03    -114.598E+06    -116.288E+06    -284.096E+06    -114.626E+06    -284.068E+06    -116.288E+06    -1.80695E+06         41.8313
             268     2.53846E-06     77.0563E-03    -166.751E-03    -575.968E-03    -920.093E-03    -168.434E-03    -574.285E-03    -920.093E-03     2.85587E-03     237.180E-03    -117.467E-03    -119.713E-03    -119.710E-03     237.177E-03    -117.467E-03    -1.20361E-03    -111.697E+06    -114.285E+06    -281.126E+06    -114.029E+06    -281.072E+06    -112.006E+06    -14.8819E+03         41.9012
             269    -464.096E-09     75.7887E-03    -389.544E-03    -564.253E-03    -727.593E-03    -435.885E-03    -533.638E-03    -711.866E-03    -94.0557E-03     235.888E-03    -117.323E-03    -118.565E-03    -118.564E-03     235.887E-03    -117.323E-03    -387.686E-06    -111.846E+06    -116.584E+06    -282.920E+06    -114.154E+06    -282.891E+06    -114.306E+06     1.98253E+06         41.9706
             270     572.925E-09     74.5259E-03    -384.676E-03    -571.387E-03    -740.081E-03    -681.363E-03    -572.529E-03    -442.253E-03    -193.712E-03     234.838E-03    -117.288E-03    -117.550E-03    -117.549E-03     234.837E-03    -117.288E-03    -268.987E-06    -115.088E+06    -118.382E+06    -284.732E+06    -115.939E+06    -284.715E+06    -117.548E+06     1.58131E+06         42.0395
             271    -257.099E-09     73.2610E-03    -121.782E-03    -614.667E-03    -973.174E-03    -896.549E-03    -691.291E-03    -121.782E-03    -293.757E-03     234.728E-03    -116.950E-03    -117.777E-03    -117.777E-03     234.727E-03    -116.950E-03     356.169E-06    -113.754E+06    -115.734E+06    -281.921E+06    -115.760E+06    -281.895E+06    -113.754E+06     102.273E+03         42.1083
             272     1.41623E-06     71.9975E-03     237.246E-03    -760.003E-03        -1.19662        -1.07166    -884.965E-03     237.246E-03    -390.517E-03     235.059E-03    -116.355E-03    -118.704E-03    -118.703E-03     235.058E-03    -116.355E-03    -902.631E-06    -114.042E+06    -117.867E+06    -283.336E+06    -115.204E+06    -283.320E+06    -116.720E+06    -380.487E+03         42.1767
             273     1.55841E-06     70.7380E-03     630.818E-03    -926.683E-03        -1.42372        -1.20104        -1.14936     630.818E-03    -484.298E-03     235.827E-03    -116.922E-03    -118.905E-03    -118.620E-03     235.825E-03    -117.206E-03    -1.48950E-03    -110.845E+06    -116.026E+06    -283.780E+06    -113.360E+06    -283.767E+06    -113.524E+06    -295.155E+03         42.2446
             274     15.1211E-03     69.0701E-03         1.11363     371.397E-03        -3.25064         1.11363        -3.25064     371.397E-03    -2.49865E-03     246.565E-03    -117.329E-03    -129.236E-03    -116.840E-03     234.816E-03    -117.976E-03     105.766E-03     119.126E+06     113.577E+06    -7.21676E+06    -7.21491E+06     119.125E+06     113.577E+06    -385.691E+03         52.0551
             275     14.2301E-03     68.8419E-03         1.00953     344.430E-03        -3.11264         1.00952        -3.11263     344.430E-03    -7.85245E-03     249.514E-03    -118.037E-03    -131.477E-03    -116.350E-03     234.387E-03    -118.037E-03     143.738E-03     116.702E+06     112.161E+06    -15.0891E+06    -15.0868E+06     114.934E+06     113.927E+06    -335.978E+03         51.7237
             276     13.3409E-03     68.7227E-03     910.458E-03     321.115E-03        -2.98383     910.423E-03        -2.98380     321.115E-03    -22.2606E-03     242.738E-03    -118.084E-03    -124.655E-03    -115.034E-03     233.117E-03    -118.084E-03     116.448E-03     113.353E+06     106.924E+06    -23.3113E+06    -23.3095E+06     106.923E+06     113.353E+06    -213.094E+03         51.2675
             277     12.4511E-03     68.5667E-03     816.741E-03     299.098E-03        -2.86234     816.654E-03        -2.86225     299.098E-03    -34.9090E-03     241.881E-03    -118.079E-03    -123.802E-03    -114.146E-03     232.226E-03    -118.079E-03     116.438E-03     104.663E+06     95.7863E+06    -32.6618E+06    -32.6585E+06     99.9971E+06     100.449E+06     467.352E+03         50.6966
             278     11.5606E-03     68.4504E-03     728.283E-03     278.032E-03        -2.74752     728.004E-03        -2.74724     278.032E-03    -59.0590E-03     237.447E-03    -117.997E-03    -119.451E-03    -113.739E-03     231.735E-03    -117.997E-03     88.7181E-03     92.3900E+06     66.1914E+06    -41.8611E+06    -41.8467E+06     92.3756E+06     66.1914E+06     765.747E+03         50.0265
             279     10.6699E-03     68.3644E-03     643.993E-03     255.877E-03        -2.63651     643.663E-03        -2.63618     255.877E-03    -65.0682E-03     235.568E-03    -117.515E-03    -118.053E-03    -114.511E-03     232.442E-03    -117.931E-03     65.2642E-03     62.0076E+06     30.1802E+06    -50.2482E+06    -50.2326E+06     61.9920E+06     30.1802E+06     469.574E+03         49.2780
             280     9.78063E-03     68.3058E-03     563.835E-03     233.085E-03        -2.52964     563.400E-03        -2.52921     233.085E-03    -70.7091E-03     234.872E-03    -116.883E-03    -117.989E-03    -115.242E-03     233.231E-03    -117.989E-03     47.4182E-03     19.3700E+06    -21.0844E+06    -57.9088E+06    -56.7389E+06    -12.4114E+06     9.52707E+06     403.111E+03         48.4748
             281     8.89103E-03     68.2633E-03     487.520E-03     210.411E-03        -2.42747     487.146E-03        -2.42710     210.411E-03    -61.0222E-03     234.736E-03    -116.639E-03    -118.097E-03    -115.724E-03     233.821E-03    -118.097E-03     35.4669E-03    -3.48148E+06    -61.8062E+06    -94.8103E+06    -61.8766E+06    -94.7399E+06    -3.48148E+06     137.580E+03         47.6422
             282     8.00119E-03     68.2326E-03     416.103E-03     188.506E-03        -2.33122     415.872E-03        -2.33099     188.506E-03    -47.9726E-03     234.928E-03    -116.741E-03    -118.187E-03    -116.240E-03     234.427E-03    -118.187E-03     26.1573E-03    -13.4521E+06    -67.9338E+06    -149.684E+06    -67.9355E+06    -149.683E+06    -13.4521E+06    -332.756E+03         46.8062
             283     7.11169E-03     68.2121E-03     350.256E-03     167.691E-03        -2.24200     350.002E-03        -2.24174     167.691E-03    -50.2838E-03     235.289E-03    -117.035E-03    -118.254E-03    -116.790E-03     235.044E-03    -118.254E-03     18.2564E-03    -22.8133E+06    -74.5551E+06    -192.329E+06    -74.5562E+06    -192.328E+06    -22.8133E+06    -278.021E+03         45.9920
             284     6.22296E-03     68.1991E-03     289.789E-03     148.248E-03        -2.16013     289.700E-03        -2.16004     148.248E-03    -27.6222E-03     235.522E-03    -117.246E-03    -118.277E-03    -117.138E-03     235.415E-03    -118.277E-03     12.0138E-03    -35.5321E+06    -80.3661E+06    -224.238E+06    -80.3785E+06    -224.225E+06    -35.5321E+06    -341.139E+03         45.2227
             285     5.33368E-03     68.1925E-03     235.800E-03     130.510E-03        -2.08646     235.658E-03        -2.08632     130.510E-03    -32.2271E-03     235.627E-03    -117.350E-03    -118.277E-03    -117.309E-03     235.586E-03    -118.277E-03     7.37408E-03    -49.5797E+06    -86.0403E+06    -240.626E+06    -86.0698E+06    -240.597E+06    -49.5797E+06    -740.634E+03         44.5183
             286     4.44379E-03     68.1907E-03     188.905E-03     114.771E-03        -2.02241     188.665E-03        -2.02217     114.771E-03    -45.9309E-03     235.915E-03    -117.647E-03    -118.268E-03    -117.635E-03     235.903E-03    -118.268E-03     3.63970E-03    -64.3462E+06    -92.1557E+06    -253.004E+06    -92.1762E+06    -252.983E+06    -64.3462E+06    -974.833E+03         43.8959
             287     3.55558E-03     68.1912E-03     148.550E-03     101.358E-03        -1.96801     148.317E-03        -1.96778     101.358E-03    -43.9802E-03     236.183E-03    -117.955E-03    -118.229E-03    -117.953E-03     236.182E-03    -118.229E-03     681.069E-06    -79.5020E+06    -98.4614E+06    -263.848E+06    -98.4668E+06    -263.843E+06    -79.5020E+06    -930.369E+03         43.3689
             288     2.66715E-03     68.1962E-03     119.123E-03     90.3713E-03        -1.92586     118.051E-03        -1.92479     90.3713E-03    -83.7227E-03     236.047E-03    -117.821E-03    -118.225E-03    -117.821E-03     236.046E-03    -118.225E-03    -709.568E-06    -90.6186E+06    -103.001E+06    -271.845E+06    -103.004E+06    -271.842E+06    -90.6186E+06    -513.328E+03         42.9476
             289     1.77637E-03     68.1987E-03     95.5963E-03     82.6963E-03        -1.89490     92.8663E-03        -1.89217     82.6963E-03     21.5491E-03     236.115E-03    -117.758E-03    -118.358E-03    -117.757E-03     236.114E-03    -118.358E-03    -705.294E-06    -99.7981E+06    -106.298E+06    -277.619E+06    -106.301E+06    -277.616E+06    -99.7981E+06    -493.950E+03         42.6390
             290     888.036E-06     68.2001E-03     762.389E-03    -528.699E-03        -1.94761    -601.697E-03        -1.87322     760.993E-03    -234.663E-03     236.891E-03    -118.049E-03    -118.842E-03    -118.418E-03     236.890E-03    -118.472E-03    -820.151E-06    -106.272E+06    -109.470E+06    -279.450E+06    -108.143E+06    -279.446E+06    -107.602E+06    -270.791E+03         42.4465
             291     15.1197E-03     67.8061E-03         1.12321     506.480E-03        -3.38314         1.12321        -3.38314     506.480E-03    -3.63801E-03     246.673E-03    -116.940E-03    -129.734E-03    -116.933E-03     234.924E-03    -117.990E-03     105.843E-03     119.162E+06     114.002E+06    -7.20633E+06    -7.20454E+06     119.161E+06     114.002E+06    -141.400E+03         52.0189
             292     14.2299E-03     67.5758E-03         1.03777     488.965E-03        -3.27435         1.03776        -3.27434     488.965E-03    -10.1973E-03     249.705E-03    -118.045E-03    -131.660E-03    -116.475E-03     234.520E-03    -118.045E-03     144.266E-03     116.347E+06     112.347E+06    -14.8605E+06    -14.8582E+06     114.710E+06     113.981E+06    -13.9018E+03         51.6910
             293     13.3402E-03     67.4565E-03     957.379E-03     475.074E-03        -3.17403     957.334E-03        -3.17398     475.074E-03    -26.4277E-03     242.270E-03    -118.109E-03    -124.162E-03    -114.507E-03     232.615E-03    -118.109E-03     116.554E-03     113.139E+06     106.632E+06    -23.2374E+06    -23.2343E+06     106.629E+06     113.139E+06    -374.763E+03         51.2402
             294     12.4498E-03     67.3024E-03     882.703E-03     462.028E-03        -3.08101     882.600E-03        -3.08091     462.028E-03    -39.8406E-03     241.936E-03    -118.128E-03    -123.807E-03    -114.157E-03     232.285E-03    -118.128E-03     116.422E-03     104.200E+06     95.9421E+06    -32.5523E+06    -32.5485E+06     99.3241E+06     100.814E+06     94.6751E+03         50.6766
             295     11.5593E-03     67.1853E-03     813.092E-03     449.547E-03        -2.99425     812.790E-03        -2.99395     449.547E-03    -64.8981E-03     237.816E-03    -118.034E-03    -119.782E-03    -114.049E-03     232.082E-03    -118.034E-03     88.9829E-03     91.7745E+06     66.1547E+06    -41.2456E+06    -41.2332E+06     91.7621E+06     66.1547E+06     989.010E+03         50.0152
             296     10.6700E-03     67.0990E-03     747.143E-03     435.297E-03        -2.91009     746.787E-03        -2.90974     435.297E-03    -71.2736E-03     235.675E-03    -117.467E-03    -118.208E-03    -114.601E-03     232.557E-03    -117.956E-03     65.1492E-03     62.3244E+06     30.7937E+06    -48.2156E+06    -48.2006E+06     62.3095E+06     30.7937E+06     846.936E+03         49.2765
             297     9.78009E-03     67.0401E-03     684.493E-03     419.637E-03        -2.82835     684.042E-03        -2.82790     419.637E-03    -77.1489E-03     234.790E-03    -116.773E-03    -118.017E-03    -115.168E-03     233.185E-03    -118.017E-03     46.8718E-03     19.5510E+06    -20.0420E+06    -56.1520E+06    -54.9358E+06    -11.9616E+06     10.2542E+06     373.982E+03         48.4833
             298     8.89054E-03     66.9984E-03     624.836E-03     403.409E-03        -2.74970     624.448E-03        -2.74931     403.409E-03    -67.3734E-03     234.746E-03    -116.614E-03    -118.132E-03    -115.713E-03     233.844E-03    -118.132E-03     35.2548E-03    -3.33739E+06    -61.5044E+06    -94.5627E+06    -61.5459E+06    -94.5212E+06    -3.33739E+06     274.985E+03         47.6606
             299     8.00106E-03     66.9676E-03     568.997E-03     387.369E-03        -2.67538     568.747E-03        -2.67513     387.369E-03    -54.5811E-03     235.022E-03    -116.809E-03    -118.213E-03    -116.306E-03     234.519E-03    -118.213E-03     26.1791E-03    -15.2940E+06    -67.7546E+06    -149.910E+06    -67.7572E+06    -149.907E+06    -15.2940E+06    -35.2735E+03         46.8340
             300     7.11194E-03     66.9465E-03     517.495E-03     371.794E-03        -2.60616     517.226E-03        -2.60589     371.794E-03    -56.7864E-03     235.284E-03    -116.999E-03    -118.285E-03    -116.753E-03     235.038E-03    -118.285E-03     18.2981E-03    -24.0282E+06    -73.4546E+06    -192.409E+06    -73.4593E+06    -192.405E+06    -24.0282E+06    -531.931E+03         46.0284
             301     6.22233E-03     66.9339E-03     469.871E-03     356.936E-03        -2.54207     469.767E-03        -2.54197     356.936E-03    -34.1404E-03     235.565E-03    -117.232E-03    -118.333E-03    -117.122E-03     235.455E-03    -118.333E-03     12.1394E-03    -33.9544E+06    -79.3288E+06    -223.894E+06    -79.3434E+06    -223.879E+06    -33.9544E+06    -1.13725E+06         45.2666
             302     5.33282E-03     66.9278E-03     427.131E-03     343.154E-03        -2.48404     426.992E-03        -2.48390     343.154E-03    -37.5713E-03     235.862E-03    -117.542E-03    -118.320E-03    -117.502E-03     235.822E-03    -118.320E-03     7.09647E-03    -49.5922E+06    -85.8229E+06    -241.473E+06    -85.8378E+06    -241.458E+06    -49.5922E+06    -721.020E+03         44.5687
             303     4.44454E-03     66.9246E-03     390.056E-03     330.718E-03        -2.43333     389.807E-03        -2.43308     330.718E-03    -52.8896E-03     235.871E-03    -117.559E-03    -118.312E-03    -117.550E-03     235.862E-03    -118.312E-03     3.21257E-03    -64.4534E+06    -91.5587E+06    -253.961E+06    -91.5664E+06    -253.954E+06    -64.4534E+06     45.0184E+03         43.9516
             304     3.55482E-03     66.9265E-03     357.626E-03     319.979E-03        -2.38966     357.417E-03        -2.38945     319.979E-03    -47.1827E-03     236.055E-03    -117.721E-03    -118.334E-03    -117.720E-03     236.054E-03    -118.334E-03     729.870E-06    -78.0190E+06    -97.5707E+06    -264.049E+06    -97.5752E+06    -264.045E+06    -78.0190E+06    -254.517E+03         43.4287
             305     2.66549E-03     66.9298E-03     334.369E-03     311.067E-03        -2.35584     333.322E-03        -2.35480     311.067E-03    -91.6668E-03     236.640E-03    -118.057E-03    -118.583E-03    -118.344E-03     236.639E-03    -118.295E-03    -860.140E-06    -89.6910E+06    -103.033E+06    -272.347E+06    -103.048E+06    -272.331E+06    -89.6910E+06    -1.05518E+06         43.0105
             306     1.77856E-03     66.9342E-03     316.102E-03     304.597E-03        -2.33101     313.282E-03        -2.32819     304.597E-03     26.3407E-03     236.557E-03    -117.907E-03    -118.650E-03    -118.426E-03     236.556E-03    -118.130E-03    -1.52653E-03    -97.6135E+06    -106.736E+06    -278.084E+06    -106.755E+06    -278.064E+06    -97.6135E+06    -699.096E+03         42.7043
             307     888.606E-06     66.9339E-03         1.06445    -406.242E-03        -2.36761    -459.308E-03        -2.31276         1.06267    -251.742E-03     235.952E-03    -117.478E-03    -118.474E-03    -118.305E-03     235.951E-03    -117.646E-03    -1.15596E-03    -105.831E+06    -111.473E+06    -280.671E+06    -111.029E+06    -280.665E+06    -106.281E+06     146.739E+03         42.5130
             308     15.1194E-03     66.5369E-03         1.13277     657.090E-03        -3.52876         1.13277        -3.52875     657.090E-03    -4.61875E-03     246.501E-03    -117.117E-03    -129.384E-03    -116.918E-03     234.921E-03    -118.003E-03     106.241E-03     119.472E+06     114.387E+06    -6.61959E+06    -6.61832E+06     119.471E+06     114.387E+06    -10.4660E+03         51.9834
             309     14.2310E-03     66.3121E-03         1.06823     649.458E-03        -3.45105         1.06821        -3.45104     649.458E-03    -12.2126E-03     249.195E-03    -118.071E-03    -131.124E-03    -116.048E-03     234.119E-03    -118.071E-03     143.962E-03     116.937E+06     112.878E+06    -14.2601E+06    -14.2590E+06     114.949E+06     114.864E+06     98.3576E+03         51.6589
             310     13.3393E-03     66.1915E-03         1.00900     645.325E-03        -3.38243         1.00894        -3.38238     645.325E-03    -29.3056E-03     242.198E-03    -118.150E-03    -124.048E-03    -114.332E-03     232.482E-03    -118.150E-03     117.017E-03     112.659E+06     106.046E+06    -23.5183E+06    -23.5116E+06     106.039E+06     112.659E+06     155.889E+03         51.2134
             311     12.4492E-03     66.0371E-03     955.149E-03     641.668E-03        -3.32038     955.036E-03        -3.32027     641.668E-03    -43.2254E-03     242.217E-03    -118.165E-03    -124.051E-03    -114.512E-03     232.678E-03    -118.165E-03     115.827E-03     103.055E+06     95.8083E+06    -32.6237E+06    -32.6151E+06     98.4199E+06     100.434E+06    -71.8011E+03         50.6570
             312     11.5599E-03     65.9196E-03     906.089E-03     638.092E-03        -3.26368     905.777E-03        -3.26337     638.092E-03    -69.3464E-03     237.997E-03    -118.053E-03    -119.944E-03    -114.279E-03     232.331E-03    -118.053E-03     88.5421E-03     90.8509E+06     66.4714E+06    -41.2827E+06    -41.2797E+06     90.8480E+06     66.4714E+06    -150.547E+03         50.0044
             313     10.6698E-03     65.8334E-03     859.901E-03     632.059E-03        -3.20813     859.538E-03        -3.20777     632.059E-03    -76.0275E-03     235.599E-03    -117.402E-03    -118.196E-03    -114.524E-03     232.488E-03    -117.965E-03     65.0811E-03     62.3657E+06     30.4143E+06    -48.8529E+06    -48.8448E+06     62.3576E+06     30.4143E+06     704.232E+03         49.2752
             314     9.78037E-03     65.7748E-03     816.109E-03     623.931E-03        -3.15340     815.659E-03        -3.15295     623.931E-03    -82.1721E-03     234.756E-03    -116.724E-03    -118.032E-03    -115.127E-03     233.160E-03    -118.032E-03     46.6919E-03     20.5732E+06    -19.8624E+06    -56.3145E+06    -54.7773E+06    -11.2077E+06     10.3813E+06     670.971E+03         48.4918
             315     8.89034E-03     65.7338E-03     774.495E-03     614.599E-03        -3.10019     774.108E-03        -3.09981     614.599E-03    -72.4129E-03     234.814E-03    -116.669E-03    -118.145E-03    -115.782E-03     233.927E-03    -118.145E-03     34.9886E-03    -3.38135E+06    -60.1506E+06    -94.3310E+06    -60.1954E+06    -94.2862E+06    -3.38135E+06    -92.9532E+03         47.6789
             316     8.00083E-03     65.7018E-03     735.486E-03     604.869E-03        -3.04952     735.232E-03        -3.04926     604.869E-03    -59.7387E-03     234.990E-03    -116.763E-03    -118.227E-03    -116.266E-03     234.493E-03    -118.227E-03     26.0318E-03    -15.1131E+06    -64.7330E+06    -150.134E+06    -64.7489E+06    -150.118E+06    -15.1131E+06    -653.928E+03         46.8616
             317     7.11127E-03     65.6817E-03     699.406E-03     594.997E-03        -3.00193     699.135E-03        -3.00165     594.997E-03    -62.0135E-03     235.277E-03    -116.965E-03    -118.312E-03    -116.724E-03     235.036E-03    -118.312E-03     18.0886E-03    -22.8357E+06    -69.9584E+06    -192.244E+06    -69.9704E+06    -192.232E+06    -22.8357E+06    -759.777E+03         46.0644
             318     6.22183E-03     65.6688E-03     665.919E-03     585.236E-03        -2.95763     665.807E-03        -2.95752     585.236E-03    -39.3194E-03     235.757E-03    -117.392E-03    -118.365E-03    -117.286E-03     235.650E-03    -118.365E-03     11.9448E-03    -31.2603E+06    -76.7298E+06    -224.476E+06    -76.7351E+06    -224.471E+06    -31.2603E+06    -302.405E+03         45.3101
             319     5.33369E-03     65.6611E-03     635.802E-03     575.880E-03        -2.91705     635.670E-03        -2.91692     575.880E-03    -41.4230E-03     235.948E-03    -117.597E-03    -118.350E-03    -117.560E-03     235.910E-03    -118.350E-03     6.84777E-03    -45.3263E+06    -84.2287E+06    -242.989E+06    -84.2323E+06    -242.986E+06    -45.3263E+06    -177.664E+03         44.6187
             320     4.44418E-03     65.6602E-03     609.441E-03     567.152E-03        -2.88087     609.197E-03        -2.88063     567.152E-03    -57.9951E-03     235.915E-03    -117.581E-03    -118.333E-03    -117.573E-03     235.907E-03    -118.333E-03     3.05006E-03    -60.8429E+06    -91.5579E+06    -254.731E+06    -91.5627E+06    -254.726E+06    -60.8429E+06     92.6073E+03         44.0067
             321     3.55474E-03     65.6615E-03     586.300E-03     559.479E-03        -2.84945     586.110E-03        -2.84926     559.479E-03    -48.9785E-03     236.173E-03    -117.837E-03    -118.336E-03    -117.835E-03     236.172E-03    -118.336E-03     448.544E-06    -73.5400E+06    -96.5315E+06    -262.788E+06    -96.5335E+06    -262.786E+06    -73.5400E+06     236.931E+03         43.4879
             322     2.66638E-03     65.6631E-03     570.023E-03     553.031E-03        -2.82570     569.010E-03        -2.82469     553.031E-03    -98.1443E-03     236.620E-03    -118.070E-03    -118.550E-03    -118.357E-03     236.620E-03    -118.263E-03    -960.691E-06    -87.0385E+06    -101.725E+06    -272.061E+06    -101.739E+06    -272.047E+06    -87.0385E+06    -712.595E+03         43.0729
             323     1.77790E-03     65.6666E-03     558.146E-03     547.873E-03        -2.80824     555.315E-03        -2.80541     547.873E-03     30.8635E-03     236.624E-03    -117.936E-03    -118.688E-03    -118.636E-03     236.623E-03    -117.987E-03    -1.34424E-03    -98.8459E+06    -107.413E+06    -279.962E+06    -107.441E+06    -279.935E+06    -98.8459E+06    -980.560E+03         42.7689
             324     890.993E-06     65.6715E-03         1.36675    -234.865E-03        -2.83625    -274.404E-03        -2.79372         1.36376    -264.354E-03     235.498E-03    -117.194E-03    -118.304E-03    -118.302E-03     235.496E-03    -117.194E-03    -598.175E-06    -105.953E+06    -112.297E+06    -282.215E+06    -110.859E+06    -282.200E+06    -107.406E+06    -214.805E+03         42.5789
             325     15.1209E-03     65.2716E-03         1.14286     819.637E-03        -3.68385         1.14286        -3.68385     819.637E-03    -5.60258E-03     246.359E-03    -117.320E-03    -129.040E-03    -116.450E-03     234.466E-03    -118.016E-03     106.125E-03     119.213E+06     114.207E+06    -6.34669E+06    -6.34598E+06     119.212E+06     114.207E+06     26.9418E+03         51.9486
             326     14.2282E-03     65.0479E-03         1.10075     822.075E-03        -3.63983         1.10073        -3.63982     822.075E-03    -13.7431E-03     249.347E-03    -118.112E-03    -131.235E-03    -115.874E-03     233.985E-03    -118.112E-03     144.774E-03     116.850E+06     111.902E+06    -14.6168E+06    -14.6128E+06     114.230E+06     114.518E+06     321.242E+03         51.6272
             327     13.3387E-03     64.9261E-03         1.06381     827.906E-03        -3.60432         1.06376        -3.60426     827.906E-03    -30.7235E-03     242.777E-03    -118.183E-03    -124.594E-03    -114.923E-03     233.105E-03    -118.183E-03     116.837E-03     113.260E+06     106.040E+06    -23.0097E+06    -22.9995E+06     106.030E+06     113.260E+06     360.352E+03         51.1871
             328     12.4495E-03     64.7705E-03         1.03216     833.777E-03        -3.57475         1.03204        -3.57463     833.777E-03    -45.7427E-03     242.388E-03    -118.166E-03    -124.222E-03    -114.700E-03     232.866E-03    -118.166E-03     115.719E-03     103.488E+06     95.3985E+06    -32.6602E+06    -32.6509E+06     98.8740E+06     100.003E+06    -41.4940E+03         50.6380
             329     11.5597E-03     64.6544E-03         1.00486     839.194E-03        -3.54954         1.00455        -3.54923     839.194E-03    -72.6391E-03     237.961E-03    -118.050E-03    -119.912E-03    -114.316E-03     232.366E-03    -118.050E-03     88.0065E-03     90.4435E+06     66.7717E+06    -42.1285E+06    -42.1257E+06     90.4407E+06     66.7717E+06    -166.327E+03         49.9940
             330     10.6698E-03     64.5682E-03     979.576E-03     841.498E-03        -3.52396     979.216E-03        -3.52360     841.498E-03    -79.6035E-03     235.415E-03    -117.330E-03    -118.085E-03    -114.364E-03     232.331E-03    -117.967E-03     64.7930E-03     62.0229E+06     31.0001E+06    -49.6257E+06    -49.6105E+06     62.0077E+06     31.0001E+06    -195.253E+03         49.2740
             331     9.77955E-03     64.5095E-03     955.854E-03     841.141E-03        -3.49772     955.418E-03        -3.49728     841.141E-03    -85.8996E-03     234.726E-03    -116.691E-03    -118.035E-03    -115.104E-03     233.139E-03    -118.035E-03     46.5314E-03     20.7985E+06    -19.9963E+06    -56.9907E+06    -54.9435E+06    -11.2079E+06     9.96284E+06    -546.141E+03         48.5002
             332     8.89068E-03     64.4680E-03     933.187E-03     838.974E-03        -3.47120     932.812E-03        -3.47082     838.974E-03    -76.0384E-03     234.856E-03    -116.705E-03    -118.151E-03    -115.823E-03     233.974E-03    -118.151E-03     34.9055E-03    -2.85489E+06    -59.8110E+06    -94.1468E+06    -59.8798E+06    -94.0780E+06    -2.85489E+06    -690.795E+03         47.6969
             333     8.00109E-03     64.4373E-03     911.840E-03     835.819E-03        -3.44535     911.593E-03        -3.44511     835.819E-03    -63.4105E-03     235.056E-03    -116.832E-03    -118.224E-03    -116.338E-03     234.561E-03    -118.224E-03     25.9266E-03    -15.4952E+06    -65.9412E+06    -150.005E+06    -65.9577E+06    -149.988E+06    -15.4952E+06    -1.05796E+06         46.8889
             334     7.11140E-03     64.4163E-03     892.223E-03     831.948E-03        -3.42078     891.961E-03        -3.42052     831.948E-03    -65.6894E-03     235.420E-03    -117.135E-03    -118.285E-03    -116.902E-03     235.187E-03    -118.285E-03     17.7883E-03    -24.9716E+06    -71.9907E+06    -193.199E+06    -72.0057E+06    -193.184E+06    -24.9716E+06    -993.457E+03         46.1002
             335     6.22281E-03     64.4028E-03     873.729E-03     827.550E-03        -3.39727     873.618E-03        -3.39716     827.550E-03    -42.6881E-03     235.603E-03    -117.269E-03    -118.334E-03    -117.167E-03     235.501E-03    -118.334E-03     11.6956E-03    -32.9218E+06    -78.2445E+06    -226.345E+06    -78.2555E+06    -226.334E+06    -32.9218E+06     239.005E+03         45.3533
             336     5.33295E-03     64.3960E-03     856.933E-03     822.874E-03        -3.37495     856.815E-03        -3.37484     822.874E-03    -43.4278E-03     235.728E-03    -117.371E-03    -118.357E-03    -117.335E-03     235.692E-03    -118.357E-03     6.75758E-03    -43.7605E+06    -84.8801E+06    -243.076E+06    -84.8868E+06    -243.069E+06    -43.7605E+06     868.685E+03         44.6680
             337     4.44388E-03     64.3951E-03     842.178E-03     818.166E-03        -3.35483     841.951E-03        -3.35461     818.166E-03    -61.0692E-03     236.182E-03    -117.858E-03    -118.324E-03    -117.849E-03     236.173E-03    -118.324E-03     3.12564E-03    -59.7084E+06    -91.0947E+06    -253.984E+06    -91.0969E+06    -253.981E+06    -59.7084E+06     105.514E+03         44.0612
             338     3.55598E-03     64.3948E-03     829.065E-03     813.778E-03        -3.33705     828.894E-03        -3.33688     813.778E-03    -49.4762E-03     236.320E-03    -118.070E-03    -118.250E-03    -118.068E-03     236.318E-03    -118.250E-03     631.750E-06    -74.7085E+06    -96.7704E+06    -263.632E+06    -96.7748E+06    -263.628E+06    -74.7085E+06    -542.764E+03         43.5466
             339     2.66682E-03     64.3986E-03     819.932E-03     809.890E-03        -3.32348     818.978E-03        -3.32253     809.890E-03    -102.322E-03     236.018E-03    -117.788E-03    -118.230E-03    -117.788E-03     236.018E-03    -118.230E-03    -518.115E-06    -87.1352E+06    -102.915E+06    -271.549E+06    -102.937E+06    -271.527E+06    -87.1352E+06     624.341E+03         43.1347
             340     1.77742E-03     64.4005E-03     814.032E-03     806.533E-03        -3.31348     811.281E-03        -3.31073     806.533E-03     35.0462E-03     236.227E-03    -117.767E-03    -118.460E-03    -117.947E-03     236.226E-03    -118.279E-03    -874.670E-06    -101.342E+06    -108.324E+06    -280.717E+06    -108.354E+06    -280.687E+06    -101.342E+06     85.2107E+03         42.8327
             341     887.697E-06     64.4059E-03         1.66206    -20.3050E-03        -3.33861    -51.9583E-03        -3.30392         1.65903    -276.531E-03     236.599E-03    -117.622E-03    -118.977E-03    -118.771E-03     236.595E-03    -117.824E-03    -1.08135E-03    -107.903E+06    -111.800E+06    -283.050E+06    -110.370E+06    -283.028E+06    -109.356E+06    -1.37814E+06         42.6440
             342     15.1192E-03     64.0162E-03         1.15276     990.213E-03        -3.84521         1.15276        -3.84521     990.213E-03    -5.91166E-03     246.765E-03    -116.914E-03    -129.851E-03    -116.744E-03     234.781E-03    -118.037E-03     105.453E-03     118.805E+06     113.932E+06    -6.71944E+06    -6.71859E+06     118.805E+06     113.932E+06     41.1018E+03         51.9143
             343     14.2279E-03     63.7774E-03         1.13377         1.00275        -3.83586         1.13375        -3.83585         1.00275    -13.3899E-03     249.781E-03    -118.116E-03    -131.665E-03    -116.368E-03     234.485E-03    -118.116E-03     144.177E-03     117.907E+06     112.938E+06    -13.7454E+06    -13.7416E+06     115.082E+06     115.759E+06     478.254E+03         51.5963
             344     13.3400E-03     63.6621E-03         1.12010         1.01850        -3.83417         1.12004        -3.83412         1.01850    -32.1718E-03     242.546E-03    -118.174E-03    -124.372E-03    -114.800E-03     232.974E-03    -118.174E-03     115.929E-03     113.847E+06     106.280E+06    -22.5942E+06    -22.5873E+06     106.273E+06     113.847E+06     411.954E+03         51.1615
             345     12.4491E-03     63.5039E-03         1.11181         1.03379        -3.83824         1.11170        -3.83812         1.03379    -47.7245E-03     242.419E-03    -118.163E-03    -124.256E-03    -114.662E-03     232.824E-03    -118.163E-03     116.052E-03     103.295E+06     95.4874E+06    -32.7620E+06    -32.7560E+06     98.5427E+06     100.234E+06     370.196E+03         50.6193
             346     11.5603E-03     63.3886E-03         1.10704         1.04810        -3.84528         1.10673        -3.84497         1.04810    -75.0367E-03     237.911E-03    -118.047E-03    -119.864E-03    -114.318E-03     232.365E-03    -118.047E-03     87.6264E-03     90.5836E+06     67.2093E+06    -41.6022E+06    -41.5979E+06     90.5793E+06     67.2093E+06     146.338E+03         49.9835
             347     10.6701E-03     63.3038E-03         1.10477         1.05742        -3.85057         1.10314        -3.85022         1.05870    -82.0398E-03     235.475E-03    -117.328E-03    -118.146E-03    -114.429E-03     232.390E-03    -117.960E-03     64.8422E-03     62.3906E+06     31.7421E+06    -48.3902E+06    -48.3734E+06     62.3738E+06     31.7421E+06    -988.386E+03         49.2727
             348     9.78054E-03     63.2438E-03         1.10366         1.06303        -3.85367         1.10014        -3.85325         1.06613    -88.2425E-03     234.631E-03    -116.599E-03    -118.032E-03    -115.004E-03     233.036E-03    -118.032E-03     46.6267E-03     20.8984E+06    -19.9333E+06    -57.0127E+06    -54.7062E+06    -11.9043E+06     10.5629E+06    -1.13379E+06         48.5085
             349     8.89017E-03     63.2033E-03         1.10150         1.06717        -3.85465         1.09710        -3.85430         1.07121    -78.0924E-03     234.861E-03    -116.709E-03    -118.151E-03    -115.831E-03     233.982E-03    -118.151E-03     34.8267E-03    -2.70523E+06    -61.3086E+06    -94.6362E+06    -61.3753E+06    -94.5696E+06    -2.70523E+06    -356.389E+03         47.7146
             350     8.00075E-03     63.1716E-03         1.09874         1.07053        -3.85448         1.09432        -3.85424         1.07471    -65.4764E-03     235.236E-03    -117.027E-03    -118.209E-03    -116.535E-03     234.744E-03    -118.209E-03     25.9179E-03    -15.3171E+06    -67.5421E+06    -148.922E+06    -67.5445E+06    -148.920E+06    -15.3171E+06    -265.210E+03         46.9157
             351     7.11235E-03     63.1507E-03         1.09575         1.07310        -3.85340         1.09173        -3.85316         1.07688    -67.3585E-03     235.377E-03    -117.130E-03    -118.247E-03    -116.891E-03     235.138E-03    -118.247E-03     18.0370E-03    -27.1714E+06    -74.2053E+06    -193.882E+06    -74.2130E+06    -193.875E+06    -27.1714E+06    -761.924E+03         46.1354
             352     6.22261E-03     63.1377E-03         1.09212         1.07445        -3.85093         1.08861        -3.85083         1.07786    -43.9828E-03     235.464E-03    -117.169E-03    -118.295E-03    -117.065E-03     235.360E-03    -118.295E-03     11.7741E-03    -36.3281E+06    -79.7767E+06    -228.555E+06    -79.8100E+06    -228.522E+06    -36.3281E+06    -987.574E+03         45.3958
             353     5.33328E-03     63.1317E-03         1.08834         1.07522        -3.84764         1.08553        -3.84754         1.07793    -43.6205E-03     235.731E-03    -117.407E-03    -118.324E-03    -117.371E-03     235.695E-03    -118.324E-03     6.79187E-03    -45.0934E+06    -84.3386E+06    -243.938E+06    -84.3675E+06    -243.909E+06    -45.0934E+06    -417.454E+03         44.7167
             354     4.44454E-03     63.1280E-03         1.08471         1.07546        -3.84403         1.08264        -3.84382         1.07734    -62.1272E-03     235.998E-03    -117.685E-03    -118.313E-03    -117.675E-03     235.989E-03    -118.313E-03     3.37585E-03    -58.3965E+06    -89.7785E+06    -252.983E+06    -89.7810E+06    -252.980E+06    -58.3965E+06     59.3599E+03         44.1150
             355     3.55527E-03     63.1301E-03         1.08098         1.07499        -3.83961         1.07953        -3.83946         1.07629    -48.5884E-03     236.171E-03    -117.889E-03    -118.282E-03    -117.888E-03     236.170E-03    -118.282E-03     1.05695E-03    -74.1432E+06    -96.3514E+06    -264.333E+06    -96.3645E+06    -264.320E+06    -74.1432E+06     193.122E+03         43.6045
             356     2.66638E-03     63.1329E-03         1.07861         1.07441        -3.83643         1.07718        -3.83555         1.07496    -104.530E-03     236.158E-03    -117.876E-03    -118.282E-03    -117.875E-03     236.157E-03    -118.282E-03    -711.823E-06    -86.8535E+06    -101.960E+06    -272.760E+06    -102.000E+06    -272.720E+06    -86.8535E+06     413.337E+03         43.1957
             357     1.77674E-03     63.1370E-03         1.07705         1.07376        -3.83430         1.07440        -3.83166         1.07376     39.7229E-03     236.199E-03    -117.789E-03    -118.411E-03    -117.787E-03     236.197E-03    -118.411E-03    -1.24507E-03    -97.1191E+06    -106.325E+06    -279.138E+06    -106.365E+06    -279.099E+06    -97.1191E+06     639.855E+03         42.8959
             358     888.350E-06     63.1373E-03         1.93929     234.739E-03        -3.85802     207.205E-03        -3.82915         1.93796    -283.421E-03     236.978E-03    -118.043E-03    -118.935E-03    -118.582E-03     236.974E-03    -118.392E-03    -1.91556E-03    -106.738E+06    -112.172E+06    -284.797E+06    -111.600E+06    -284.773E+06    -107.334E+06    -588.781E+03         42.7086
             359     15.1182E-03     62.7433E-03         1.20506         1.12141        -4.01028         1.16156        -4.01028         1.16492    -5.41419E-03     247.296E-03    -117.322E-03    -129.974E-03    -117.733E-03     235.770E-03    -118.037E-03     105.275E-03     119.130E+06     114.295E+06    -6.60325E+06    -6.59536E+06     119.122E+06     114.295E+06    -391.783E+03         51.8807
             360     14.2325E-03     62.5161E-03         1.21501         1.13856        -4.03383         1.16628        -4.03381         1.18727    -14.4263E-03     249.481E-03    -118.069E-03    -131.412E-03    -116.493E-03     234.562E-03    -118.069E-03     143.115E-03     118.013E+06     113.296E+06    -13.7361E+06    -13.7266E+06     115.364E+06     115.936E+06    -212.665E+03         51.5662
             361     13.3384E-03     62.3959E-03         1.22911         1.16051        -4.06722         1.17707        -4.06717         1.21250    -33.6706E-03     242.053E-03    -118.134E-03    -123.919E-03    -114.259E-03     232.393E-03    -118.134E-03     116.470E-03     113.515E+06     105.563E+06    -22.8446E+06    -22.8394E+06     105.557E+06     113.515E+06     773.922E+03         51.1365
             362     12.4500E-03     62.2381E-03         1.24536         1.18385        -4.10490         1.19218        -4.10479         1.23691    -48.7060E-03     242.113E-03    -118.157E-03    -123.956E-03    -114.400E-03     232.558E-03    -118.157E-03     115.773E-03     103.987E+06     96.6160E+06    -31.4102E+06    -31.4038E+06     98.6675E+06     101.929E+06     586.075E+03         50.6009
             363     11.5592E-03     62.1233E-03         1.26223         1.20793        -4.14436         1.21005        -4.14407         1.25982    -75.9603E-03     237.724E-03    -118.056E-03    -119.668E-03    -114.115E-03     232.172E-03    -118.056E-03     87.5986E-03     91.2132E+06     68.6633E+06    -39.7961E+06    -39.7912E+06     91.2083E+06     68.6633E+06    -197.097E+03         49.9730
             364     10.6700E-03     62.0377E-03         1.27857         1.22871        -4.18061         1.22844        -4.18029         1.27851    -82.8212E-03     235.538E-03    -117.370E-03    -118.168E-03    -114.470E-03     232.447E-03    -117.977E-03     64.9474E-03     62.5991E+06     33.0106E+06    -47.0219E+06    -47.0165E+06     62.5938E+06     33.0106E+06    -653.309E+03         49.2711
             365     9.77979E-03     61.9796E-03         1.29355         1.24686        -4.21312         1.24648        -4.21274         1.29355    -88.7107E-03     234.760E-03    -116.713E-03    -118.047E-03    -115.094E-03     233.141E-03    -118.047E-03     47.0041E-03     21.0378E+06    -18.6785E+06    -57.1859E+06    -53.7866E+06    -12.9813E+06     11.9413E+06    -376.780E+03         48.5162
             366     8.89060E-03     61.9374E-03         1.30574         1.26380        -4.24193         1.26348        -4.24161         1.30574    -78.1465E-03     234.947E-03    -116.789E-03    -118.158E-03    -115.891E-03     234.049E-03    -118.158E-03     35.2187E-03    -1.51344E+06    -59.9340E+06    -95.1161E+06    -59.9447E+06    -95.1054E+06    -1.51344E+06    -136.203E+03         47.7318
             367     8.00170E-03     61.9061E-03         1.31577         1.27959        -4.26761         1.27939        -4.26741         1.31577    -65.4676E-03     235.148E-03    -116.923E-03    -118.225E-03    -116.415E-03     234.640E-03    -118.225E-03     26.3367E-03    -13.1123E+06    -65.8290E+06    -149.092E+06    -65.8338E+06    -149.087E+06    -13.1123E+06     194.326E+03         46.9418
             368     7.11156E-03     61.8855E-03         1.32382         1.29396        -4.28998         1.29375        -4.28976         1.32382    -66.9252E-03     235.356E-03    -117.080E-03    -118.276E-03    -116.831E-03     235.107E-03    -118.276E-03     18.4273E-03    -24.5277E+06    -71.5215E+06    -192.990E+06    -71.5274E+06    -192.984E+06    -24.5277E+06    -51.2874E+03         46.1697
             369     6.22252E-03     61.8729E-03         1.33007         1.30613        -4.30868         1.30604        -4.30860         1.33007    -43.4699E-03     235.689E-03    -117.384E-03    -118.305E-03    -117.274E-03     235.579E-03    -118.305E-03     12.1189E-03    -36.2385E+06    -77.8967E+06    -228.234E+06    -77.9249E+06    -228.205E+06    -36.2385E+06    -1.66305E+06         45.4374
             370     5.33387E-03     61.8655E-03         1.33478         1.31664        -4.32402         1.31655        -4.32394         1.33478    -42.3937E-03     235.812E-03    -117.506E-03    -118.306E-03    -117.466E-03     235.772E-03    -118.306E-03     7.25001E-03    -47.4421E+06    -84.3286E+06    -245.766E+06    -84.3628E+06    -245.731E+06    -47.4421E+06    -1.97496E+06         44.7647
             371     4.44422E-03     61.8639E-03         1.33816         1.32546        -4.33630         1.32528        -4.33613         1.33816    -61.6141E-03     235.864E-03    -117.560E-03    -118.304E-03    -117.549E-03     235.853E-03    -118.304E-03     3.44174E-03    -59.8976E+06    -90.3968E+06    -254.775E+06    -90.4065E+06    -254.765E+06    -59.8976E+06    -280.894E+03         44.1683
             372     3.55469E-03     61.8642E-03         1.34041         1.33213        -4.34532         1.33200        -4.34519         1.34041    -46.4745E-03     236.129E-03    -117.822E-03    -118.308E-03    -117.820E-03     236.128E-03    -118.308E-03     569.290E-06    -72.7045E+06    -95.9211E+06    -264.362E+06    -95.9308E+06    -264.352E+06    -72.7045E+06     1.00360E+06         43.6619
             373     2.66623E-03     61.8669E-03         1.34204         1.33779        -4.35248         1.33737        -4.35167         1.34164    -105.336E-03     236.435E-03    -118.100E-03    -118.335E-03    -118.163E-03     236.433E-03    -118.270E-03    -1.29542E-03    -85.1638E+06    -100.905E+06    -273.494E+06    -100.926E+06    -273.472E+06    -85.1638E+06     346.938E+03         43.2562
             374     1.77839E-03     61.8716E-03         1.34291         1.34167        -4.35792         1.33972        -4.35538         1.34233     44.4153E-03     236.383E-03    -118.017E-03    -118.366E-03    -118.203E-03     236.381E-03    -118.178E-03    -1.38774E-03    -96.8917E+06    -106.305E+06    -279.050E+06    -106.329E+06    -279.026E+06    -96.8917E+06     580.261E+03         42.9586
             375     888.576E-06     61.8721E-03         2.18694     522.192E-03        -4.38140     498.427E-03        -4.35744         2.18676    -282.144E-03     236.185E-03    -117.928E-03    -118.258E-03    -118.089E-03     236.183E-03    -118.094E-03    -1.49150E-03    -107.097E+06    -111.522E+06    -284.801E+06    -110.940E+06    -284.788E+06    -107.693E+06     500.864E+03         42.7727
             376     15.1210E-03     61.4717E-03         1.33973         1.17089        -4.17297         1.17089        -4.17297         1.33973    -4.68608E-03     246.623E-03    -117.621E-03    -129.002E-03    -117.231E-03     235.238E-03    -118.007E-03     105.537E-03     118.087E+06     113.195E+06    -7.22409E+06    -7.19948E+06     118.062E+06     113.195E+06    -1.11409E+06         51.8477
             377     14.2289E-03     61.2538E-03         1.37129         1.19976        -4.23177         1.19975        -4.23175         1.37129    -16.0087E-03     249.195E-03    -118.050E-03    -131.145E-03    -116.288E-03     234.338E-03    -118.050E-03     143.002E-03     116.624E+06     110.937E+06    -14.9186E+06    -14.8905E+06     113.497E+06     114.035E+06    -747.756E+03         51.5362
             378     13.3415E-03     61.1297E-03         1.40530         1.23379        -4.29852         1.23374        -4.29846         1.40530    -33.0387E-03     242.463E-03    -118.119E-03    -124.344E-03    -114.542E-03     232.662E-03    -118.119E-03     117.523E-03     114.484E+06     105.854E+06    -22.1876E+06    -22.1822E+06     105.849E+06     114.484E+06     771.062E+03         51.1117
             379     12.4496E-03     60.9744E-03         1.43823         1.27180        -4.36879         1.27170        -4.36869         1.43823    -47.8427E-03     241.850E-03    -118.145E-03    -123.704E-03    -114.093E-03     232.239E-03    -118.145E-03     116.045E-03     105.551E+06     97.6751E+06    -30.6638E+06    -30.6600E+06     100.015E+06     103.207E+06    -88.7983E+03         50.5826
             380     11.5600E-03     60.8569E-03         1.46923         1.31228        -4.43985         1.31202        -4.43959         1.46923    -74.7113E-03     237.521E-03    -117.981E-03    -119.540E-03    -113.897E-03     231.959E-03    -118.062E-03     87.5337E-03     91.6977E+06     69.1277E+06    -39.5531E+06    -39.5479E+06     91.6925E+06     69.1277E+06    -754.912E+03         49.9625
             381     10.6695E-03     60.7734E-03         1.49560         1.35243        -4.50649         1.35214        -4.50620         1.49560    -81.2565E-03     235.368E-03    -117.330E-03    -118.038E-03    -114.305E-03     232.300E-03    -117.994E-03     64.7550E-03     61.7749E+06     32.0372E+06    -47.2100E+06    -47.2016E+06     61.7665E+06     32.0372E+06    -113.017E+03         49.2692
             382     9.77991E-03     60.7135E-03         1.51790         1.39138        -4.56787         1.39105        -4.56754         1.51790    -86.7307E-03     234.846E-03    -116.774E-03    -118.071E-03    -115.140E-03     233.212E-03    -118.071E-03     47.2070E-03     20.5126E+06    -19.2725E+06    -57.5349E+06    -53.7098E+06    -13.5860E+06     11.0010E+06     104.602E+03         48.5235
             383     8.89033E-03     60.6724E-03         1.53686         1.42812        -4.62386         1.42784        -4.62358         1.53686    -75.9595E-03     234.876E-03    -116.686E-03    -118.190E-03    -115.772E-03     233.962E-03    -118.190E-03     35.5696E-03    -2.21429E+06    -59.6848E+06    -95.3748E+06    -59.7197E+06    -95.3398E+06    -2.21429E+06    -126.122E+03         47.7482
             384     8.00012E-03     60.6408E-03         1.55312         1.46220        -4.67473         1.46202        -4.67455         1.55312    -63.5787E-03     235.177E-03    -116.909E-03    -118.269E-03    -116.383E-03     234.652E-03    -118.269E-03     26.7407E-03    -14.3969E+06    -65.6417E+06    -149.995E+06    -65.6485E+06    -149.988E+06    -14.3969E+06     240.568E+03         46.9670
             385     7.11134E-03     60.6204E-03         1.56685         1.49329        -4.72025         1.49311        -4.72006         1.56685    -64.8731E-03     235.600E-03    -117.287E-03    -118.313E-03    -117.039E-03     235.352E-03    -118.313E-03     18.3808E-03    -25.4656E+06    -71.0717E+06    -192.350E+06    -71.0787E+06    -192.343E+06    -25.4656E+06     113.257E+03         46.2032
             386     6.22238E-03     60.6065E-03         1.57815         1.52058        -4.75965         1.52050        -4.75958         1.57815    -41.3586E-03     235.765E-03    -117.429E-03    -118.336E-03    -117.322E-03     235.657E-03    -118.336E-03     11.9950E-03    -36.0942E+06    -77.4636E+06    -226.793E+06    -77.4699E+06    -226.787E+06    -36.0942E+06    -464.163E+03         45.4784
             387     5.33294E-03     60.6010E-03         1.58729         1.54418        -4.79285         1.54412        -4.79279         1.58729    -39.7915E-03     235.961E-03    -117.631E-03    -118.330E-03    -117.592E-03     235.922E-03    -118.330E-03     7.21370E-03    -47.8296E+06    -85.2384E+06    -246.722E+06    -85.2496E+06    -246.711E+06    -47.8296E+06    -923.198E+03         44.8121
             388     4.44431E-03     60.5978E-03         1.59448         1.56435        -4.82035         1.56420        -4.82020         1.59448    -60.1156E-03     236.201E-03    -117.925E-03    -118.276E-03    -117.914E-03     236.190E-03    -118.276E-03     3.31282E-03    -61.6091E+06    -92.0216E+06    -256.643E+06    -92.0360E+06    -256.628E+06    -61.6091E+06    -840.964E+03         44.2211
             389     3.55622E-03     60.5991E-03         1.59987         1.58045        -4.84218         1.58033        -4.84207         1.59987    -44.2527E-03     236.181E-03    -117.972E-03    -118.209E-03    -117.971E-03     236.180E-03    -118.209E-03     369.947E-06    -74.1949E+06    -97.3902E+06    -266.048E+06    -97.3969E+06    -266.041E+06    -74.1949E+06    -160.123E+03         43.7190
             390     2.66658E-03     60.6015E-03         1.60356         1.59376        -4.85948         1.59300        -4.85873         1.60356    -105.291E-03     236.156E-03    -117.941E-03    -118.216E-03    -118.004E-03     236.154E-03    -118.151E-03    -1.35652E-03    -85.5061E+06    -102.400E+06    -274.065E+06    -102.404E+06    -274.061E+06    -85.5061E+06     636.310E+03         43.3164
             391     1.77743E-03     60.6051E-03         1.60593         1.60346        -4.87232         1.60116        -4.86991         1.60581     47.8633E-03     236.163E-03    -117.923E-03    -118.240E-03    -118.108E-03     236.161E-03    -118.053E-03    -1.29866E-03    -97.2748E+06    -106.961E+06    -278.460E+06    -106.967E+06    -278.454E+06    -97.2748E+06     937.459E+03         43.0209
             392     890.033E-06     60.6080E-03         2.40181     830.723E-03        -4.89661     810.593E-03        -4.87636         2.40170    -280.397E-03     235.916E-03    -117.666E-03    -118.250E-03    -118.172E-03     235.914E-03    -117.742E-03    -734.811E-06    -107.432E+06    -111.085E+06    -283.277E+06    -110.748E+06    -283.267E+06    -107.779E+06     1.02038E+06         42.8362
             393     15.1195E-03     60.2127E-03         1.51022         1.18011        -4.33049         1.18011        -4.33049         1.51022    -4.20843E-03     246.225E-03    -116.927E-03    -129.299E-03    -116.491E-03     234.503E-03    -118.012E-03     106.797E-03     117.909E+06     113.433E+06    -7.40138E+06    -7.38350E+06     117.892E+06     113.433E+06    -451.510E+03         51.8151
             394     14.2302E-03     59.9839E-03         1.55031         1.23256        -4.42464         1.23254        -4.42463         1.55031    -13.3379E-03     249.643E-03    -118.079E-03    -131.563E-03    -116.520E-03     234.599E-03    -118.079E-03     143.435E-03     116.793E+06     111.077E+06    -15.3427E+06    -15.3062E+06     113.470E+06     114.363E+06    -1.16478E+06         51.5064
             395     13.3392E-03     59.8665E-03         1.59231         1.28851        -4.52285         1.28846        -4.52281         1.59231    -30.4687E-03     242.721E-03    -118.135E-03    -124.586E-03    -114.863E-03     232.998E-03    -118.135E-03     116.946E-03     114.924E+06     105.614E+06    -23.0050E+06    -22.9809E+06     105.590E+06     114.924E+06    -802.307E+03         51.0868
             396     12.4499E-03     59.7083E-03         1.63286         1.34863        -4.62422         1.34855        -4.62414         1.63286    -44.8733E-03     241.847E-03    -118.151E-03    -123.696E-03    -113.992E-03     232.143E-03    -118.151E-03     116.568E-03     106.167E+06     96.9599E+06    -31.3629E+06    -31.3567E+06     100.138E+06     102.983E+06    -609.665E+03         50.5643
             397     11.5596E-03     59.5923E-03         1.67120         1.41063        -4.72516         1.41040        -4.72494         1.67120    -71.2365E-03     237.397E-03    -117.995E-03    -119.401E-03    -113.696E-03     231.772E-03    -118.077E-03     88.0387E-03     91.3315E+06     67.7997E+06      -40.28E+06    -40.2722E+06     91.3238E+06     67.7997E+06    -289.313E+03         49.9518
             398     10.6694E-03     59.5084E-03         1.70464         1.47159        -4.82050         1.47134        -4.82025         1.70464    -77.2619E-03     235.468E-03    -117.416E-03    -118.052E-03    -114.316E-03     232.335E-03    -118.019E-03     65.4136E-03     61.2776E+06     30.3656E+06    -48.4071E+06    -48.3920E+06     61.2625E+06     30.3656E+06     52.1264E+03         49.2670
             399     9.77931E-03     59.4478E-03         1.73368         1.53048        -4.90940         1.53020        -4.90912         1.73368    -82.5357E-03     234.913E-03    -116.813E-03    -118.100E-03    -115.173E-03     233.273E-03    -118.100E-03     47.2274E-03     20.7548E+06    -20.0306E+06    -58.0787E+06    -54.4019E+06    -13.1432E+06     10.1906E+06    -292.631E+03         48.5303
             400     8.88950E-03     59.4076E-03         1.75892         1.58596        -4.99126         1.58573        -4.99103         1.75892    -71.5999E-03     235.000E-03    -116.783E-03    -118.217E-03    -115.900E-03     234.117E-03    -118.217E-03     34.9320E-03    -2.37922E+06    -59.1843E+06    -95.9670E+06    -59.2354E+06    -95.9159E+06    -2.37922E+06    -631.314E+03         47.7642
             401     8.00032E-03     59.3754E-03         1.78103         1.63751        -5.06613         1.63736        -5.06598         1.78103    -59.5953E-03     235.339E-03    -117.054E-03    -118.286E-03    -116.553E-03     234.839E-03    -118.286E-03     26.1435E-03    -13.3438E+06    -63.6375E+06    -150.385E+06    -63.6534E+06    -150.369E+06    -13.3438E+06    -590.008E+03         46.9919
             402     7.11134E-03     59.3536E-03         1.80012         1.68464        -5.13339         1.68449        -5.13324         1.80012    -61.1118E-03     235.602E-03    -117.263E-03    -118.339E-03    -117.027E-03     235.365E-03    -118.339E-03     17.8751E-03    -21.9177E+06    -69.4931E+06    -193.651E+06    -69.5012E+06    -193.643E+06    -21.9177E+06     327.142E+03         46.2363
             403     6.22220E-03     59.3421E-03         1.81621         1.72632        -5.19228         1.72626        -5.19223         1.81621    -38.1872E-03     235.809E-03    -117.444E-03    -118.365E-03    -117.344E-03     235.709E-03    -118.365E-03     11.5875E-03    -31.7604E+06    -76.8577E+06    -226.783E+06    -76.8859E+06    -226.755E+06    -31.7604E+06     1.54963E+06         45.5189
             404     5.33331E-03     59.3346E-03         1.82957         1.76257        -5.24300         1.76252        -5.24296         1.82957    -36.3664E-03     236.040E-03    -117.701E-03    -118.338E-03    -117.663E-03     236.001E-03    -118.338E-03     7.10410E-03    -45.5933E+06    -84.2183E+06    -245.361E+06    -84.2406E+06    -245.339E+06    -45.5933E+06     794.764E+03         44.8591
             405     4.44481E-03     59.3321E-03         1.84040         1.79360        -5.28536         1.79347        -5.28523         1.84040    -57.6446E-03     236.230E-03    -117.962E-03    -118.268E-03    -117.951E-03     236.219E-03    -118.268E-03     3.58189E-03    -61.1587E+06    -91.4459E+06    -257.141E+06    -91.4525E+06    -257.134E+06    -61.1587E+06    -476.124E+03         44.2734
             406     3.55547E-03     59.3335E-03         1.84878         1.81862        -5.31917         1.81852        -5.31907         1.84878    -41.8505E-03     236.299E-03    -118.069E-03    -118.230E-03    -118.130E-03     236.297E-03    -118.167E-03     831.877E-06    -75.3518E+06    -97.7442E+06    -267.572E+06    -97.7576E+06    -267.559E+06    -75.3518E+06    -812.381E+03         43.7755
             407     2.66746E-03     59.3364E-03         1.85484         1.83866        -5.34580         1.83796        -5.34510         1.85484    -104.909E-03     236.094E-03    -117.968E-03    -118.126E-03    -118.028E-03     236.092E-03    -118.064E-03    -1.11684E-03    -86.7625E+06    -101.828E+06    -274.666E+06    -101.837E+06    -274.657E+06    -86.7625E+06    -614.400E+03         43.3761
             408     1.77832E-03     59.3405E-03         1.85886         1.85385        -5.36565         1.85169        -5.36339         1.85874     49.8934E-03     235.905E-03    -117.869E-03    -118.036E-03    -117.901E-03     235.903E-03    -118.002E-03    -1.52103E-03    -95.5339E+06    -104.980E+06    -278.647E+06    -104.983E+06    -278.644E+06    -95.5339E+06     1.02695E+03         43.0828
             409     887.673E-06     59.3424E-03         2.58385         1.15245        -5.39228         1.13505        -5.37477         2.58374    -279.407E-03     235.897E-03    -117.530E-03    -118.367E-03    -118.307E-03     235.893E-03    -117.587E-03    -1.37264E-03    -104.778E+06    -109.859E+06    -282.615E+06    -109.522E+06    -282.605E+06    -105.125E+06     557.066E+03         42.8994
             410     15.1186E-03     58.9467E-03         1.67216         1.18821        -4.48317         1.18821        -4.48317         1.67216    -4.66093E-03     246.613E-03    -116.874E-03    -129.739E-03    -116.771E-03     234.813E-03    -118.041E-03     107.076E-03     118.644E+06     115.348E+06    -7.00372E+06    -6.99966E+06     118.640E+06     115.348E+06     609.922E+03         51.7828
             411     14.2287E-03     58.7174E-03         1.71992         1.26229        -4.60697         1.26229        -4.60696         1.71992    -10.1789E-03     249.705E-03    -118.103E-03    -131.603E-03    -116.565E-03     234.667E-03    -118.103E-03     143.233E-03     118.000E+06     113.211E+06    -14.1415E+06    -14.1143E+06     114.741E+06     116.442E+06    -848.932E+03         51.4770
             412     13.3405E-03     58.6011E-03         1.76897         1.34028        -4.73556         1.34025        -4.73553         1.76897    -26.9051E-03     242.471E-03    -118.157E-03    -124.314E-03    -114.654E-03     232.811E-03    -118.157E-03     116.400E-03     114.410E+06     105.083E+06    -23.3534E+06    -23.3149E+06     105.045E+06     114.410E+06    -2.15149E+06         51.0621
             413     12.4498E-03     58.4433E-03         1.81614         1.42121        -4.86538         1.42114        -4.86531         1.81614    -40.4640E-03     241.862E-03    -118.181E-03    -123.681E-03    -113.963E-03     232.144E-03    -118.181E-03     116.622E-03     104.242E+06     95.6341E+06    -33.0311E+06    -33.0165E+06     98.1316E+06     101.729E+06    -1.10915E+06         50.5459
             414     11.5586E-03     58.3286E-03         1.86085         1.50329        -4.99386         1.50311        -4.99367         1.86085    -66.0320E-03     237.514E-03    -118.116E-03    -119.398E-03    -113.763E-03     231.879E-03    -118.116E-03     88.1977E-03     90.4676E+06     68.6194E+06    -41.1156E+06    -41.1073E+06     90.4593E+06     68.6194E+06    -242.861E+03         49.9409
             415     10.6685E-03     58.2418E-03         1.90056         1.58351        -5.11576         1.58331        -5.11556         1.90056    -71.4402E-03     235.759E-03    -117.568E-03    -118.191E-03    -114.594E-03     232.647E-03    -118.053E-03     65.0911E-03     61.8310E+06     33.2961E+06    -48.1140E+06    -48.0984E+06     61.8155E+06     33.2961E+06    -660.719E+03         49.2646
             416     9.77927E-03     58.1832E-03         1.93560         1.66063        -5.22976         1.66041        -5.22953         1.93560    -76.4004E-03     235.079E-03    -116.970E-03    -118.109E-03    -115.388E-03     233.497E-03    -118.109E-03     46.4842E-03     21.7312E+06    -18.0937E+06    -57.7313E+06    -54.0002E+06    -12.6259E+06     12.5323E+06    -1.23842E+06         48.5370
             417     8.89014E-03     58.1410E-03         1.96654         1.73335        -5.33510         1.73316        -5.33492         1.96654    -65.3030E-03     235.182E-03    -116.978E-03    -118.204E-03    -116.114E-03     234.318E-03    -118.204E-03     34.5621E-03    -544.335E+03    -59.5589E+06    -96.7884E+06    -59.7520E+06    -96.5953E+06    -544.335E+03    -1.15393E+06         47.7801
             418     8.00128E-03     58.1101E-03         1.99398         1.80084        -5.43179         1.80073        -5.43168         1.99398    -53.8034E-03     235.253E-03    -116.994E-03    -118.259E-03    -116.503E-03     234.761E-03    -118.259E-03     25.9547E-03    -12.5199E+06    -66.3997E+06    -151.720E+06    -66.4158E+06    -151.704E+06    -12.5199E+06    -458.681E+03         47.0165
             419     7.11144E-03     58.0885E-03         2.01799         1.86273        -5.51932         1.86261        -5.51920         2.01799    -55.7286E-03     235.387E-03    -117.070E-03    -118.317E-03    -116.833E-03     235.150E-03    -118.317E-03     17.8467E-03    -22.1884E+06    -72.4309E+06    -195.574E+06    -72.4400E+06    -195.564E+06    -22.1884E+06     431.408E+03         46.2691
             420     6.22238E-03     58.0762E-03         2.03857         1.91795        -5.59659         1.91791        -5.59655         2.03857    -33.5566E-03     235.782E-03    -117.438E-03    -118.345E-03    -117.339E-03     235.684E-03    -118.345E-03     11.5699E-03    -32.4815E+06    -77.8061E+06    -227.686E+06    -77.8350E+06    -227.657E+06    -32.4815E+06     1.54844E+06         45.5590
             421     5.33356E-03     58.0690E-03         2.05594         1.96606        -5.66336         1.96602        -5.66332         2.05594    -32.0303E-03     235.945E-03    -117.628E-03    -118.317E-03    -117.590E-03     235.906E-03    -118.317E-03     7.07894E-03    -46.0252E+06    -83.8753E+06    -243.287E+06    -83.9197E+06    -243.242E+06    -46.0252E+06     1.91906E+06         44.9055
             422     4.44390E-03     58.0670E-03         2.07023         2.00740        -5.71983         2.00729        -5.71972         2.07023    -54.6035E-03     236.042E-03    -117.768E-03    -118.273E-03    -117.758E-03     236.032E-03    -118.273E-03     3.48500E-03    -61.2904E+06    -90.2790E+06    -255.838E+06    -90.3048E+06    -255.812E+06    -61.2904E+06     480.755E+03         44.3251
             423     3.55574E-03     58.0671E-03         2.08150         2.04104        -5.76591         2.04096        -5.76582         2.08150    -39.4400E-03     236.144E-03    -117.857E-03    -118.287E-03    -117.918E-03     236.142E-03    -118.225E-03     807.660E-06    -76.9513E+06    -96.6674E+06    -268.098E+06    -96.6802E+06    -268.085E+06    -76.9513E+06    -614.411E+03         43.8314
             424     2.66666E-03     58.0713E-03         2.08990         2.06739        -5.80164         2.06674        -5.80100         2.08990    -103.551E-03     236.245E-03    -117.964E-03    -118.280E-03    -118.080E-03     236.244E-03    -118.164E-03    -553.508E-06    -89.2668E+06    -102.114E+06    -274.970E+06    -102.130E+06    -274.955E+06    -89.2668E+06    -1.09356E+06         43.4352
             425     1.77793E-03     58.0755E-03         2.09558         2.08786        -5.82786         2.08574        -5.82574         2.09558     51.6908E-03     236.347E-03    -118.002E-03    -118.344E-03    -118.341E-03     236.346E-03    -118.005E-03    -874.044E-06    -98.9129E+06    -106.356E+06    -280.268E+06    -106.364E+06    -280.260E+06    -98.9129E+06    -635.349E+03         43.1443
             426     890.699E-06     58.0776E-03         2.73059         1.47846        -5.85615         1.46324        -5.84093         2.73059    -275.880E-03     235.712E-03    -117.327E-03    -118.385E-03    -118.381E-03     235.708E-03    -117.327E-03    -1.96973E-03    -106.403E+06    -110.414E+06    -283.137E+06    -109.860E+06    -283.135E+06    -106.959E+06    -99.8170E+03         42.9622
             427     15.1200E-03     57.6810E-03         1.82191         1.19680        -4.62638         1.19680        -4.62638         1.82191    -4.52538E-03     246.749E-03    -117.451E-03    -129.297E-03    -116.895E-03     234.934E-03    -118.039E-03     106.614E-03     119.641E+06     117.005E+06    -5.93923E+06    -5.93277E+06     119.634E+06     117.005E+06     428.223E+03         51.7509
             428     14.2303E-03     57.4526E-03         1.87610         1.29080        -4.77701         1.29080        -4.77701         1.87610    -9.53940E-03     249.116E-03    -118.120E-03    -130.995E-03    -115.805E-03     233.926E-03    -118.120E-03     143.915E-03     118.498E+06     113.467E+06    -13.8258E+06    -13.8132E+06     114.776E+06     117.177E+06     276.732E+03         51.4480
             429     13.3384E-03     57.3350E-03         1.93103         1.38864        -4.93244         1.38862        -4.93242         1.93103    -22.9049E-03     242.433E-03    -118.204E-03    -124.229E-03    -114.483E-03     232.687E-03    -118.204E-03     117.036E-03     114.105E+06     105.029E+06    -24.1464E+06    -24.1287E+06     105.011E+06     114.105E+06    -857.076E+03         51.0375
             430     12.4485E-03     57.1790E-03         1.98371         1.48821        -5.08756         1.48816        -5.08751         1.98371    -35.0954E-03     242.333E-03    -118.219E-03    -124.114E-03    -114.470E-03     232.689E-03    -118.219E-03     116.307E-03     103.169E+06     96.1348E+06    -34.1297E+06    -34.0938E+06     97.7662E+06     101.502E+06    -1.60115E+06         50.5275
             431     11.5590E-03     57.0630E-03         2.03367         1.58818        -5.24011         1.58804        -5.23997         2.03367    -59.7753E-03     237.971E-03    -118.123E-03    -119.848E-03    -114.273E-03     232.396E-03    -118.123E-03     87.8556E-03     89.9250E+06     69.8757E+06    -42.0580E+06    -42.0144E+06     89.8815E+06     69.8757E+06    -2.05905E+06         49.9303
             432     10.6697E-03     56.9761E-03         2.07862         1.68554        -5.38520         1.68538        -5.38505         2.07862    -64.4999E-03     235.802E-03    -117.533E-03    -118.269E-03    -114.697E-03     232.727E-03    -118.030E-03     64.7282E-03     61.6136E+06     34.1017E+06    -48.7422E+06    -48.7147E+06     61.5862E+06     34.1017E+06    -1.70350E+06         49.2625
             433     9.78000E-03     56.9172E-03         2.11879         1.77871        -5.52120         1.77853        -5.52103         2.11879    -68.8597E-03     235.009E-03    -116.935E-03    -118.074E-03    -115.359E-03     233.434E-03    -118.074E-03     46.4227E-03     21.2423E+06    -19.1950E+06    -58.1623E+06    -55.1904E+06    -13.0369E+06     12.1123E+06    -1.13376E+06         48.5437
             434     8.89059E-03     56.8756E-03         2.15469         1.86661        -5.64738         1.86647        -5.64723         2.15469    -57.5254E-03     235.040E-03    -116.869E-03    -118.172E-03    -115.991E-03     234.163E-03    -118.172E-03     34.8240E-03    -1.58895E+06    -61.6384E+06    -97.7261E+06    -61.8181E+06    -97.5463E+06    -1.58895E+06    -671.266E+03         47.7955
             435     8.00081E-03     56.8446E-03         2.18682         1.94831        -5.76350         1.94822        -5.76342         2.18682    -46.5040E-03     235.164E-03    -116.931E-03    -118.232E-03    -116.436E-03     234.668E-03    -118.232E-03     26.0157E-03    -13.5042E+06    -67.6095E+06    -152.555E+06    -67.6172E+06    -152.547E+06    -13.5042E+06    -295.801E+03         47.0405
             436     7.11190E-03     56.8236E-03         2.21523         2.02341        -5.86895         2.02333        -5.86886         2.21523    -48.9119E-03     235.383E-03    -117.097E-03    -118.286E-03    -116.856E-03     235.141E-03    -118.286E-03     18.1018E-03    -23.9136E+06    -73.1792E+06    -196.773E+06    -73.1862E+06    -196.766E+06    -23.9136E+06     19.6788E+03         46.3011
             437     6.22254E-03     56.8103E-03         2.23991         2.09074        -5.96276         2.09072        -5.96274         2.23991    -27.3284E-03     235.730E-03    -117.419E-03    -118.311E-03    -117.316E-03     235.627E-03    -118.311E-03     11.6941E-03    -34.4784E+06    -79.3639E+06    -229.560E+06    -79.3757E+06    -229.548E+06    -34.4784E+06     955.796E+03         45.5983
             438     5.33332E-03     56.8039E-03         2.26096         2.14964        -6.04460         2.14962        -6.04458         2.26096    -26.4878E-03     235.895E-03    -117.618E-03    -118.277E-03    -117.583E-03     235.860E-03    -118.277E-03     6.70730E-03    -47.7761E+06    -85.4992E+06    -242.572E+06    -85.5309E+06    -242.540E+06    -47.7761E+06     1.78146E+06         44.9512
             439     4.44504E-03     56.8011E-03         2.27846         2.20052        -6.11415         2.20043        -6.11406         2.27846    -50.3431E-03     235.771E-03    -117.523E-03    -118.248E-03    -117.514E-03     235.762E-03    -118.248E-03     3.23461E-03    -63.5651E+06    -91.2440E+06    -253.695E+06    -91.2810E+06    -253.658E+06    -63.5651E+06     1.22532E+06         44.3761
             440     3.55517E-03     56.8024E-03         2.29247         2.24219        -6.17094         2.24211        -6.17087         2.29247    -36.3736E-03     235.862E-03    -117.576E-03    -118.286E-03    -117.575E-03     235.860E-03    -118.286E-03     706.437E-06    -77.0324E+06    -96.4613E+06    -267.769E+06    -96.4807E+06    -267.750E+06    -77.0324E+06     209.236E+03         43.8866
             441     2.66563E-03     56.8061E-03         2.30316         2.27484        -6.21543         2.27426        -6.21485         2.30316    -100.751E-03     236.347E-03    -117.984E-03    -118.363E-03    -118.038E-03     236.347E-03    -118.309E-03    -739.207E-06    -89.4649E+06    -102.376E+06    -275.715E+06    -102.401E+06    -275.690E+06    -89.4649E+06     264.846E+03         43.4937
             442     1.77741E-03     56.8084E-03         2.31044         2.30036        -6.24859         2.29841        -6.24664         2.31044     53.4080E-03     236.508E-03    -117.939E-03    -118.569E-03    -118.243E-03     236.507E-03    -118.263E-03    -1.06438E-03    -101.224E+06    -108.590E+06    -281.473E+06    -108.615E+06    -281.448E+06    -101.224E+06     222.980E+03         43.2051
             443     888.398E-06     56.8128E-03         2.84181         1.79660        -6.27851         1.78331        -6.26522         2.84181    -270.451E-03     236.398E-03    -117.558E-03    -118.840E-03    -118.540E-03     236.397E-03    -117.857E-03    -1.26469E-03    -108.673E+06    -112.314E+06    -281.905E+06    -111.764E+06    -281.899E+06    -109.229E+06     201.141E+03         43.0244
             444     15.1206E-03     56.4172E-03         1.95604         1.20605        -4.75548         1.20605        -4.75548         1.95604    -3.61174E-03     246.487E-03    -117.308E-03    -129.179E-03    -116.476E-03     234.522E-03    -118.047E-03     106.445E-03     119.392E+06     116.672E+06    -6.23492E+06    -6.22789E+06     119.385E+06     116.672E+06     112.304E+03         51.7194
             445     14.2274E-03     56.1890E-03         2.01522         1.31813        -4.93164         1.31813        -4.93164         2.01522    -6.88714E-03     249.232E-03    -118.153E-03    -131.080E-03    -115.668E-03     233.821E-03    -118.153E-03     144.891E-03     117.843E+06     112.620E+06    -14.9465E+06    -14.9406E+06     113.812E+06     116.645E+06     843.120E+03         51.4192
             446     13.3380E-03     56.0692E-03         2.07470         1.43242        -5.10922         1.43241        -5.10920         2.07470    -18.1789E-03     242.713E-03    -118.236E-03    -124.477E-03    -114.892E-03     233.128E-03    -118.236E-03     116.331E-03     115.828E+06     106.080E+06    -23.5175E+06    -23.5141E+06     106.076E+06     115.828E+06     69.1063E+03         51.0133
             447     12.4488E-03     55.9126E-03         2.13161         1.54815        -5.28569         1.54812        -5.28566         2.13161    -29.1847E-03     242.534E-03    -118.214E-03    -124.319E-03    -114.909E-03     233.124E-03    -118.214E-03     115.084E-03     105.600E+06     97.5051E+06    -32.8364E+06    -32.8012E+06     99.8429E+06     103.227E+06    -1.68558E+06         50.5096
             448     11.5597E-03     55.7968E-03         2.18556         1.66338        -5.45841         1.66327        -5.45830         2.18556    -52.8811E-03     238.076E-03    -118.077E-03    -119.999E-03    -114.479E-03     232.556E-03    -118.077E-03     87.4518E-03     89.7577E+06     68.1995E+06    -42.3542E+06    -42.2916E+06     89.6950E+06     68.1995E+06    -2.81001E+06         49.9199
             449     10.6697E-03     55.7111E-03         2.23459         1.77517        -5.62279         1.77505        -5.62267         2.23459    -56.6645E-03     235.632E-03    -117.393E-03    -118.239E-03    -114.589E-03     232.565E-03    -117.976E-03     64.6945E-03     59.3274E+06     31.3336E+06    -50.0161E+06    -49.9769E+06     59.2882E+06     31.3336E+06    -2.03322E+06         49.2604
             450     9.77994E-03     55.6513E-03         2.27891         1.88204        -5.77733         1.88191        -5.77720         2.27891    -60.3830E-03     234.786E-03    -116.749E-03    -118.037E-03    -115.166E-03     233.203E-03    -118.037E-03     46.4448E-03     19.6108E+06    -20.9743E+06    -58.5968E+06    -56.5318E+06    -14.2307E+06     10.8022E+06    -661.696E+03         48.5501
             451     8.89033E-03     55.6106E-03         2.31891         1.98298        -5.92118         1.98288        -5.92108         2.31891    -48.7210E-03     234.921E-03    -116.774E-03    -118.147E-03    -115.910E-03     234.057E-03    -118.147E-03     34.5551E-03    -1.69974E+06    -62.0888E+06    -97.3860E+06    -62.1094E+06    -97.3654E+06    -1.69974E+06    -531.434E+03         47.8105
             452     8.00132E-03     55.5789E-03         2.35496         2.07683        -6.05393         2.07678        -6.05388         2.35496    -37.7144E-03     235.119E-03    -116.909E-03    -118.210E-03    -116.423E-03     234.634E-03    -118.210E-03     25.7296E-03    -13.6072E+06    -67.6687E+06    -152.924E+06    -67.6830E+06    -152.910E+06    -13.6072E+06    -995.873E+03         47.0639
             453     7.11171E-03     55.5584E-03         2.38711         2.16321        -6.17481         2.16315        -6.17476         2.38711    -40.5079E-03     235.346E-03    -117.079E-03    -118.267E-03    -116.842E-03     235.109E-03    -118.267E-03     17.9936E-03    -23.9059E+06    -74.4642E+06    -198.852E+06    -74.4727E+06    -198.843E+06    -23.9059E+06     32.9325E+03         46.3324
             454     6.22272E-03     55.5448E-03         2.41529         2.24103        -6.28295         2.24102        -6.28294         2.41529    -19.5884E-03     235.621E-03    -117.329E-03    -118.291E-03    -117.222E-03     235.513E-03    -118.291E-03     12.0056E-03    -35.0337E+06    -80.2457E+06    -230.291E+06    -80.2648E+06    -230.272E+06    -35.0337E+06     637.972E+03         45.6369
             455     5.33423E-03     55.5380E-03         2.43954         2.30943        -6.37778         2.30942        -6.37777         2.43954    -19.5583E-03     235.762E-03    -117.494E-03    -118.269E-03    -117.454E-03     235.723E-03    -118.269E-03     7.10634E-03    -48.6550E+06    -85.0489E+06    -242.594E+06    -85.0646E+06    -242.578E+06    -48.6550E+06     287.770E+03         44.9960
             456     4.44434E-03     55.5366E-03         2.45986         2.36847        -6.45846         2.36840        -6.45839         2.45986    -43.8258E-03     235.761E-03    -117.494E-03    -118.267E-03    -117.484E-03     235.751E-03    -118.267E-03     3.32307E-03    -62.1200E+06    -90.4583E+06    -254.048E+06    -90.4753E+06    -254.031E+06    -62.1200E+06     1.29332E+06         44.4262
             457     3.55501E-03     55.5378E-03         2.47631         2.41725        -6.52491         2.41720        -6.52485         2.47631    -31.3838E-03     236.010E-03    -117.716E-03    -118.294E-03    -117.714E-03     236.009E-03    -118.294E-03     789.071E-06    -74.6472E+06    -96.1766E+06    -266.489E+06    -96.2103E+06    -266.455E+06    -74.6472E+06     1.64652E+06         43.9410
             458     2.66672E-03     55.5394E-03         2.48904         2.45569        -6.57739         2.45517        -6.57687         2.48904    -96.2625E-03     236.243E-03    -117.919E-03    -118.324E-03    -117.918E-03     236.242E-03    -118.324E-03    -924.148E-06    -86.4382E+06    -101.939E+06    -275.482E+06    -101.973E+06    -275.449E+06    -86.4382E+06     1.39175E+06         43.5513
             459     1.77750E-03     55.5436E-03         2.49782         2.48525        -6.61617         2.48347        -6.61439         2.49782     54.5379E-03     236.240E-03    -117.780E-03    -118.460E-03    -117.778E-03     236.238E-03    -118.460E-03    -1.67116E-03    -97.8875E+06    -106.743E+06    -280.763E+06    -106.775E+06    -280.731E+06    -97.8875E+06     1.32942E+06         43.2650
             460     887.541E-06     55.5476E-03         2.91195         2.10146        -6.64810         2.08991        -6.63654         2.91195    -262.576E-03     237.099E-03    -118.160E-03    -118.939E-03    -118.488E-03     237.098E-03    -118.610E-03    -969.465E-06    -107.571E+06    -110.896E+06    -281.060E+06    -110.576E+06    -281.033E+06    -107.918E+06     169.759E+03         43.0859
             461     15.1180E-03     55.1540E-03         2.07128         1.21462        -4.86994         1.21462        -4.86994         2.07128    -2.48422E-03     246.657E-03    -116.862E-03    -129.795E-03    -116.753E-03     234.837E-03    -118.084E-03     106.119E-03     118.621E+06     115.709E+06    -7.18777E+06    -7.18304E+06     118.616E+06     115.709E+06     275.334E+03         51.6882
             462     14.2289E-03     54.9242E-03         2.13404         1.34131        -5.06522         1.34131        -5.06522         2.13404    -1.94169E-03     250.202E-03    -118.150E-03    -132.052E-03    -116.855E-03     235.005E-03    -118.150E-03     144.273E-03     118.797E+06     114.020E+06    -14.4832E+06    -14.4792E+06     114.691E+06     118.122E+06     597.800E+03         51.3910
             463     13.3392E-03     54.8019E-03         2.19656         1.46991        -5.26113         1.46991        -5.26112         2.19656    -13.0634E-03     242.775E-03    -118.181E-03    -124.594E-03    -115.209E-03     233.390E-03    -118.181E-03     115.166E-03     118.068E+06     107.734E+06    -22.0833E+06    -22.0728E+06     107.724E+06     118.068E+06    -615.797E+03         50.9899
             464     12.4501E-03     54.6472E-03         2.25630         1.59932        -5.45499         1.59930        -5.45497         2.25630    -22.8882E-03     242.026E-03    -118.147E-03    -123.879E-03    -114.587E-03     232.734E-03    -118.147E-03     114.317E-03     107.190E+06     97.8381E+06    -31.3899E+06    -31.3720E+06     100.940E+06     104.070E+06    -1.15686E+06         50.4923
             465     11.5599E-03     54.5307E-03         2.31294         1.72708        -5.64376         1.72700        -5.64368         2.31294    -45.3179E-03     237.701E-03    -118.019E-03    -119.681E-03    -114.183E-03     232.203E-03    -118.019E-03     87.1376E-03     89.8344E+06     66.9645E+06    -41.8336E+06    -41.8078E+06     89.8086E+06     66.9645E+06    -915.219E+03         49.9097
             466     10.6707E-03     54.4459E-03         2.36486         1.85055        -5.82344         1.85046        -5.82335         2.36486    -48.0168E-03     235.370E-03    -117.282E-03    -118.088E-03    -114.386E-03     232.323E-03    -117.937E-03     64.5162E-03     58.0969E+06     29.6608E+06    -51.1382E+06    -51.1128E+06     58.0715E+06     29.6608E+06    -1.08901E+06         49.2580
             467     9.78057E-03     54.3864E-03         2.41224         1.96853        -5.99283         1.96844        -5.99274         2.41224    -50.9193E-03     234.638E-03    -116.622E-03    -118.017E-03    -115.007E-03     233.024E-03    -118.017E-03     46.9154E-03     18.8799E+06    -21.5948E+06    -60.2271E+06    -57.6170E+06    -15.5191E+06     10.1940E+06    -1.16518E+06         48.5561
             468     8.89119E-03     54.3448E-03         2.45535         2.08010        -6.15091         2.08002        -6.15083         2.45535    -38.8390E-03     234.898E-03    -116.763E-03    -118.135E-03    -115.874E-03     234.009E-03    -118.135E-03     35.0192E-03    -1.94083E+06    -63.1614E+06    -97.4643E+06    -63.3197E+06     -97.306E+06    -1.94083E+06    -894.193E+03         47.8250
             469     8.00144E-03     54.3140E-03         2.49443         2.18386        -6.29699         2.18383        -6.29695         2.49443    -27.8741E-03     235.122E-03    -116.923E-03    -118.199E-03    -116.427E-03     234.626E-03    -118.199E-03     26.0303E-03    -14.3660E+06    -69.8711E+06    -154.091E+06    -69.8834E+06    -154.079E+06    -14.3660E+06    -159.831E+03         47.0868
             470     7.11233E-03     54.2930E-03         2.52947         2.27950        -6.43041         2.27946        -6.43038         2.52947    -30.8804E-03     235.277E-03    -117.024E-03    -118.253E-03    -116.780E-03     235.032E-03    -118.253E-03     18.2721E-03    -25.0808E+06    -75.6980E+06    -198.942E+06    -75.7166E+06    -198.923E+06    -25.0808E+06    -169.727E+03         46.3631
             471     6.22282E-03     54.2799E-03         2.56038         2.36593        -6.55005         2.36592        -6.55005         2.56038    -10.1183E-03     235.401E-03    -117.113E-03    -118.288E-03    -117.001E-03     235.290E-03    -118.288E-03     12.1702E-03    -37.5988E+06    -81.7805E+06    -229.822E+06    -81.8021E+06    -229.800E+06    -37.5988E+06    -985.547E+03         45.6745
             472     5.33271E-03     54.2728E-03         2.58715         2.44195        -6.65516         2.44194        -6.65515         2.58715    -10.8830E-03     235.652E-03    -117.350E-03    -118.301E-03    -117.310E-03     235.611E-03    -118.301E-03     7.21086E-03    -51.3207E+06    -87.8806E+06    -244.247E+06    -87.8879E+06    -244.239E+06    -51.3207E+06    -506.185E+03         45.0399
             473     4.44426E-03     54.2712E-03         2.60973         2.50767        -6.74504         2.50762        -6.74500         2.60973    -35.5832E-03     236.152E-03    -117.819E-03    -118.333E-03    -117.851E-03     236.142E-03    -118.291E-03     3.18673E-03    -62.1479E+06    -92.4374E+06    -255.324E+06    -92.4445E+06    -255.317E+06    -62.1479E+06     295.141E+03         44.4754
             474     3.55572E-03     54.2722E-03         2.62812         2.56221        -6.81955         2.56217        -6.81951         2.62812    -25.3851E-03     236.165E-03    -117.870E-03    -118.295E-03    -117.911E-03     236.165E-03    -118.254E-03     626.403E-06    -73.4590E+06    -97.1927E+06    -266.229E+06    -97.2212E+06    -266.200E+06    -73.4590E+06     1.46820E+06         43.9947
             475     2.66626E-03     54.2740E-03         2.64245         2.60486        -6.87808         2.60441        -6.87763         2.64245    -89.8054E-03     235.948E-03    -117.664E-03    -118.284E-03    -117.663E-03     235.946E-03    -118.284E-03    -989.790E-06    -85.1848E+06    -102.505E+06    -274.238E+06    -102.527E+06    -274.216E+06    -85.1848E+06     1.30657E+06         43.6083
             476     1.77682E-03     54.2793E-03         2.65258         2.63767        -6.92126         2.63607        -6.91966         2.65258     56.4597E-03     236.377E-03    -117.872E-03    -118.505E-03    -118.004E-03     236.375E-03    -118.371E-03    -1.44186E-03    -97.0652E+06    -107.394E+06    -279.893E+06    -107.423E+06    -279.863E+06    -97.0652E+06    -107.030E+03         43.3244
             477     888.887E-06     54.2799E-03         2.93607         2.38656        -6.95511         2.37663        -6.94517         2.93607    -249.995E-03     236.749E-03    -118.058E-03    -118.691E-03    -118.539E-03     236.748E-03    -118.209E-03    -798.856E-06    -106.657E+06    -110.615E+06    -280.170E+06    -110.336E+06    -280.103E+06    -107.005E+06     390.233E+03         43.1468
             478     15.1179E-03     53.8866E-03         2.16492         1.22216        -4.96690         1.22216        -4.96690         2.16492    -7.94843E-06     247.393E-03    -117.313E-03    -130.080E-03    -117.857E-03     235.923E-03    -118.066E-03     105.077E-03     118.861E+06     116.067E+06    -7.32367E+06    -7.32048E+06     118.858E+06     116.067E+06     31.0314E+03         51.6577
             479     14.2298E-03     53.6568E-03         2.22976         1.36021        -5.17497         1.36021        -5.17497         2.22976     965.305E-06     250.145E-03    -118.081E-03    -132.063E-03    -117.202E-03     235.283E-03    -118.081E-03     143.090E-03     120.079E+06     115.138E+06    -13.5414E+06    -13.5337E+06     115.532E+06     119.677E+06    -439.852E+03         51.3635
             480     13.3415E-03     53.5362E-03         2.29378         1.50085        -5.38524         1.50085        -5.38524         2.29378    -8.36912E-03     242.297E-03    -118.107E-03    -124.190E-03    -114.662E-03     232.768E-03    -118.107E-03     115.817E-03     118.105E+06     107.884E+06    -22.0237E+06    -22.0099E+06      107.87E+06     118.105E+06    -723.059E+03         50.9668
             481     12.4508E-03     53.3824E-03         2.35490         1.64059        -5.59177         1.64058        -5.59176         2.35490    -15.8766E-03     241.832E-03    -118.100E-03    -123.732E-03    -114.251E-03     232.351E-03    -118.100E-03     115.359E-03     105.765E+06     97.4782E+06    -32.1161E+06    -32.1065E+06     100.074E+06     103.159E+06    -186.928E+03         50.4750
             482     11.5609E-03     53.2653E-03         2.41288         1.77771        -5.79204         1.77766        -5.79199         2.41288    -36.6905E-03     237.526E-03    -117.984E-03    -119.542E-03    -113.936E-03     231.940E-03    -118.004E-03     87.7631E-03     89.5234E+06     68.2405E+06    -41.6159E+06    -41.6131E+06     89.5206E+06     68.2405E+06     549.114E+03         49.8992
             483     10.6702E-03     53.1812E-03         2.46644         1.91011        -5.98290         1.91005        -5.98285         2.46644    -38.3222E-03     235.193E-03    -117.228E-03    -117.965E-03    -114.163E-03     232.106E-03    -117.943E-03     64.8993E-03     59.4310E+06     32.1361E+06    -49.5293E+06    -49.5230E+06     59.4247E+06     32.1361E+06     57.5103E+03         49.2553
             484     9.78011E-03     53.1215E-03         2.51571         2.03643        -6.16309         2.03637        -6.16303         2.51571    -40.4795E-03     234.576E-03    -116.544E-03    -118.032E-03    -114.890E-03     232.922E-03    -118.032E-03     47.5293E-03     19.4731E+06    -20.3766E+06    -60.1607E+06    -56.2242E+06    -15.6957E+06     10.8557E+06    -954.692E+03         48.5616
             485     8.89002E-03     53.0795E-03         2.56085         2.15590        -6.33164         2.15585        -6.33159         2.56085    -27.9465E-03     234.909E-03    -116.751E-03    -118.158E-03    -115.833E-03     233.990E-03    -118.158E-03     35.5702E-03    -2.36834E+06    -62.4483E+06    -98.8024E+06    -62.6037E+06    -98.6469E+06    -2.36834E+06    -909.833E+03         47.8389
             486     8.00118E-03     53.0483E-03         2.60195         2.26725        -6.48765         2.26723        -6.48763         2.60195    -16.8980E-03     235.267E-03    -117.040E-03    -118.228E-03    -116.536E-03     234.764E-03    -118.228E-03     26.1972E-03    -13.0606E+06    -67.7765E+06    -154.821E+06    -67.8038E+06    -154.794E+06    -13.0606E+06    -671.877E+03         47.1089
             487     7.11164E-03     53.0281E-03         2.63892         2.36991        -6.63018         2.36989        -6.63016         2.63892    -20.2592E-03     235.405E-03    -117.126E-03    -118.279E-03    -116.881E-03     235.160E-03    -118.279E-03     18.2869E-03    -22.0199E+06    -73.0505E+06    -198.478E+06    -73.0875E+06    -198.441E+06    -22.0199E+06    -589.745E+03         46.3930
             488     6.22251E-03     53.0145E-03         2.67167         2.46271        -6.75813         2.46270        -6.75813         2.67167     272.068E-06     235.573E-03    -117.265E-03    -118.308E-03    -117.159E-03     235.466E-03    -118.308E-03     11.8019E-03    -33.3404E+06    -80.4631E+06    -229.926E+06    -80.4851E+06    -229.904E+06    -33.3404E+06    -9.63239E+03         45.7117
             489     5.33365E-03     53.0086E-03         2.70016         2.54430        -6.87088         2.54430        -6.87088         2.70016    -1.65742E-03     235.783E-03    -117.494E-03    -118.288E-03    -117.460E-03     235.748E-03    -118.288E-03     6.70668E-03    -48.8988E+06    -88.3849E+06    -244.816E+06    -88.3908E+06    -244.810E+06    -48.8988E+06     54.3185E+03         45.0833
             490     4.44421E-03     53.0043E-03         2.72431         2.61490        -6.96751         2.61488        -6.96748         2.72431    -26.5754E-03     235.963E-03    -117.673E-03    -118.291E-03    -117.706E-03     235.955E-03    -118.249E-03     3.02995E-03    -64.9896E+06    -94.9495E+06    -255.735E+06    -94.9529E+06    -255.731E+06    -64.9896E+06    -540.607E+03         44.5242
             491     3.55592E-03     53.0068E-03         2.74402         2.67346        -7.04735         2.67343        -7.04732         2.74402    -18.8922E-03     236.046E-03    -117.773E-03    -118.273E-03    -117.814E-03     236.045E-03    -118.231E-03     630.713E-06    -76.9993E+06    -100.375E+06    -268.064E+06    -100.386E+06    -268.053E+06    -76.9993E+06    -123.181E+03         44.0478
             492     2.66662E-03     53.0101E-03         2.75945         2.71902        -7.11008         2.71865        -7.10970         2.75945    -82.2971E-03     236.150E-03    -117.852E-03    -118.298E-03    -117.942E-03     236.148E-03    -118.206E-03    -864.268E-06    -88.8167E+06    -105.535E+06    -272.809E+06    -105.544E+06    -272.799E+06    -88.8167E+06     14.7173E+03         43.6648
             493     1.77779E-03     53.0126E-03         2.77033         2.75451        -7.15669         2.75309        -7.15527         2.77033     58.1731E-03     236.288E-03    -117.913E-03    -118.376E-03    -118.137E-03     236.287E-03    -118.150E-03    -1.23231E-03    -100.031E+06    -109.535E+06    -278.802E+06    -109.555E+06    -278.782E+06    -100.031E+06    -1.39371E+06         43.3833
             494     889.237E-06     53.0140E-03         2.91965         2.63772        -7.19146         2.62914        -7.18287         2.91965    -237.713E-03     236.150E-03    -117.686E-03    -118.464E-03    -118.369E-03     236.149E-03    -117.780E-03    -360.458E-06    -109.094E+06    -113.133E+06    -282.817E+06    -113.107E+06    -282.770E+06    -109.169E+06    -101.717E+03         43.2071
             495     15.1212E-03     52.6181E-03         2.23493         1.22960        -5.04122         1.22960        -5.04122         2.23493     2.84530E-03     247.355E-03    -117.891E-03    -129.464E-03    -117.758E-03     235.746E-03    -117.988E-03     104.707E-03     119.570E+06     116.752E+06    -6.61619E+06    -6.61049E+06     119.564E+06     116.752E+06    -547.765E+03         51.6278
             496     14.2325E-03     52.3917E-03         2.30025         1.37711        -5.26089         1.37710        -5.26089         2.30025     3.15678E-03     249.194E-03    -118.035E-03    -131.159E-03    -115.987E-03     234.021E-03    -118.035E-03     144.294E-03     118.770E+06     113.364E+06    -13.8434E+06    -13.8332E+06     114.376E+06     117.747E+06    -934.764E+03         51.3361
             497     13.3398E-03     52.2724E-03         2.36418         1.52509        -5.47972         1.52509        -5.47972         2.36418    -2.28763E-03     242.283E-03    -118.116E-03    -124.167E-03    -114.332E-03     232.448E-03    -118.116E-03     117.667E-03     116.312E+06     106.458E+06    -22.9590E+06    -22.9528E+06     106.452E+06     116.312E+06    -40.8835E+03         50.9435
             498     12.4499E-03     52.1159E-03         2.42520         1.67116        -5.69334         1.67116        -5.69334         2.42520    -7.53716E-03     242.014E-03    -118.135E-03    -123.879E-03    -114.234E-03     232.369E-03    -118.135E-03     116.309E-03     104.897E+06     97.6213E+06    -32.9297E+06    -32.9269E+06     99.4228E+06     103.093E+06     566.619E+03         50.4572
             499     11.5598E-03     52.0010E-03         2.48309         1.81424        -5.90027         1.81421        -5.90024         2.48309    -26.8664E-03     237.610E-03    -118.032E-03    -119.578E-03    -113.901E-03     231.953E-03    -118.052E-03     88.4063E-03     89.8175E+06     69.7322E+06    -41.6151E+06    -41.6084E+06     89.8108E+06     69.7322E+06     57.7355E+03         49.8883
             500     10.6701E-03     51.9159E-03         2.53698         1.95235        -6.09777         1.95232        -6.09774         2.53698    -27.4207E-03     235.512E-03    -117.448E-03    -118.064E-03    -114.382E-03     232.371E-03    -117.988E-03     65.4160E-03     60.0648E+06     34.0648E+06    -48.7723E+06    -48.7638E+06     60.0563E+06     34.0648E+06     14.1868E+03         49.2522
             501     9.77992E-03     51.8570E-03         2.58691         2.08408        -6.28439         2.08405        -6.28436         2.58691    -28.8839E-03     234.859E-03    -116.804E-03    -118.055E-03    -115.172E-03     233.227E-03    -118.055E-03     47.2245E-03     20.0181E+06    -18.9563E+06    -58.8015E+06    -55.1925E+06    -14.8462E+06     12.2990E+06     93.2555E+03         48.5669
             502     8.89046E-03     51.8139E-03         2.63291         2.20872        -6.45927         2.20868        -6.45923         2.63291    -16.2357E-03     234.921E-03    -116.754E-03    -118.167E-03    -115.859E-03     234.027E-03    -118.167E-03     35.0904E-03    -1.22214E+06    -61.4618E+06    -98.7236E+06    -61.4745E+06    -98.7109E+06    -1.22214E+06    -512.437E+03         47.8526
             503     8.00071E-03     51.7828E-03         2.67496         2.32497        -6.62137         2.32496        -6.62135         2.67496    -5.22542E-03     235.275E-03    -117.039E-03    -118.236E-03    -116.555E-03     234.791E-03    -118.236E-03     25.6671E-03    -12.2758E+06    -68.7409E+06    -154.725E+06    -68.7652E+06    -154.701E+06    -12.2758E+06    -979.779E+03         47.1308
             504     7.11209E-03     51.7624E-03         2.71291         2.43197        -6.76958         2.43196        -6.76957         2.71291    -9.17444E-03     235.503E-03    -117.230E-03    -118.273E-03    -117.001E-03     235.274E-03    -118.273E-03     17.6305E-03    -23.1157E+06    -76.3693E+06    -200.054E+06    -76.3957E+06    -200.027E+06    -23.1157E+06    -537.808E+03         46.4227
             505     6.22282E-03     51.7495E-03         2.74663         2.52882        -6.90279         2.52882        -6.90278         2.74663     10.9730E-03     235.665E-03    -117.391E-03    -118.274E-03    -117.287E-03     235.562E-03    -118.274E-03     11.8125E-03    -35.0924E+06    -81.9653E+06    -230.842E+06    -81.9786E+06    -230.829E+06    -35.0924E+06     450.508E+03         45.7484
             506     5.33407E-03     51.7420E-03         2.77603         2.61404        -7.02007         2.61404        -7.02007         2.77603     7.49457E-03     235.758E-03    -117.508E-03    -118.251E-03    -117.468E-03     235.719E-03    -118.251E-03     7.12206E-03    -47.0966E+06    -87.2954E+06    -243.582E+06    -87.3004E+06    -243.577E+06    -47.0966E+06     130.987E+03         45.1263
             507     4.44529E-03     51.7405E-03         2.80101         2.68753        -7.12038         2.68751        -7.12036         2.80101    -17.4600E-03     235.649E-03    -117.403E-03    -118.245E-03    -117.394E-03     235.639E-03    -118.245E-03     3.33930E-03    -61.9084E+06    -94.1679E+06    -255.948E+06    -94.1693E+06    -255.947E+06    -61.9084E+06    -293.445E+03         44.5724
             508     3.55462E-03     51.7413E-03         2.82148         2.74839        -7.20334         2.74837        -7.20332         2.82148    -12.4156E-03     236.016E-03    -117.766E-03    -118.250E-03    -117.765E-03     236.015E-03    -118.250E-03     848.814E-06    -77.2841E+06    -100.850E+06    -268.356E+06    -100.854E+06    -268.352E+06    -77.2841E+06    -541.621E+03         44.1002
             509     2.66662E-03     51.7440E-03         2.83752         2.79574        -7.26847         2.79543        -7.26816         2.83752    -74.9751E-03     236.419E-03    -118.134E-03    -118.285E-03    -118.255E-03     236.419E-03    -118.163E-03    -601.907E-06    -91.2832E+06    -105.411E+06    -272.420E+06    -105.421E+06    -272.410E+06    -91.2832E+06    -1.19280E+06         43.7207
             510     1.77841E-03     51.7472E-03         2.84876         2.83255        -7.31675         2.83130        -7.31549         2.84876     58.5995E-03     236.152E-03    -117.936E-03    -118.216E-03    -118.121E-03     236.151E-03    -118.030E-03    -1.08471E-03    -102.640E+06    -108.722E+06    -279.575E+06    -108.733E+06    -279.564E+06    -102.640E+06    -675.675E+03         43.4416
             511     888.451E-06     51.7503E-03         2.92384         2.78959        -7.35117         2.84063        -7.34373         2.86536    -225.308E-03     235.905E-03    -117.714E-03    -118.191E-03    -117.989E-03     235.904E-03    -117.915E-03    -170.896E-06    -109.868E+06    -112.478E+06    -285.196E+06    -112.237E+06    -285.186E+06    -110.119E+06    -515.582E+03         43.2667
             512     15.1224E-03     51.3557E-03         2.27969         1.23723        -5.09334         1.23722        -5.09334         2.27969     4.01371E-03     246.583E-03    -117.160E-03    -129.424E-03    -116.588E-03     234.573E-03    -117.985E-03     105.952E-03     119.608E+06     116.510E+06    -6.16510E+06    -6.15837E+06     119.602E+06     116.510E+06    -804.419E+03         51.5980
             513     14.2276E-03     51.1275E-03         2.34385         1.39038        -5.32070         1.39037        -5.32070         2.34385     9.21147E-03     249.473E-03    -118.069E-03    -131.404E-03    -115.874E-03     233.944E-03    -118.069E-03     145.567E-03     116.806E+06     111.440E+06    -15.0755E+06    -15.0699E+06     113.249E+06     114.991E+06    -303.598E+03         51.3086
             514     13.3394E-03     51.0065E-03         2.40611         1.54128        -5.54200         1.54128        -5.54200         2.40611     5.57390E-03     242.438E-03    -118.162E-03    -124.276E-03    -114.569E-03     232.731E-03    -118.162E-03     116.933E-03     115.689E+06     105.767E+06    -23.5434E+06    -23.5417E+06     105.765E+06     115.689E+06     264.330E+03         50.9202
             515     12.4493E-03     50.8506E-03         2.46552         1.69034        -5.75783         1.69034        -5.75782         2.46552     2.02789E-03     241.750E-03    -118.193E-03    -123.557E-03    -114.011E-03     232.204E-03    -118.193E-03     115.653E-03     106.152E+06     98.2913E+06    -32.5616E+06    -32.5573E+06     99.7765E+06     104.662E+06    -24.1052E+03         50.4395
             516     11.5590E-03     50.7361E-03         2.52192         1.83590        -5.96635         1.83588        -5.96633         2.52192    -16.0666E-03     237.727E-03    -118.111E-03    -119.616E-03    -113.986E-03     232.097E-03    -118.111E-03     88.2242E-03     90.1036E+06     69.9787E+06    -41.6098E+06    -41.5956E+06     90.0893E+06     69.9787E+06    -5.84277E+03         49.8773
             517     10.6688E-03     50.6501E-03         2.57482         1.97630        -6.16546         1.97628        -6.16544         2.57482    -15.5723E-03     235.961E-03    -117.684E-03    -118.277E-03    -114.804E-03     232.831E-03    -118.027E-03     65.3599E-03     59.9062E+06     33.6647E+06    -49.4966E+06    -49.4824E+06     59.8920E+06     33.6647E+06     210.864E+03         49.2490
             518     9.78026E-03     50.5908E-03         2.62415         2.11027        -6.35397         2.11025        -6.35396         2.62415    -16.4021E-03     235.222E-03    -117.157E-03    -118.065E-03    -115.536E-03     233.601E-03    -118.065E-03     47.1236E-03     20.5871E+06    -19.3207E+06    -58.5685E+06    -56.3224E+06    -13.9604E+06     12.9808E+06     295.905E+03         48.5721
             519     8.89082E-03     50.5492E-03         2.66986         2.23697        -6.53089         2.23694        -6.53086         2.66986    -3.96532E-03     235.044E-03    -116.897E-03    -118.147E-03    -115.999E-03     234.147E-03    -118.147E-03     35.1812E-03    -1.75434E+06    -62.7342E+06    -98.3836E+06    -62.7788E+06    -98.3389E+06    -1.75434E+06     304.548E+03         47.8663
             520     8.00158E-03     50.5172E-03         2.71180         2.35520        -6.69505         2.35518        -6.69504         2.71180     6.64848E-03     235.126E-03    -116.915E-03    -118.211E-03    -116.419E-03     234.631E-03    -118.211E-03     26.0023E-03    -13.3167E+06    -69.1468E+06    -155.046E+06    -69.1493E+06    -155.044E+06    -13.3167E+06     283.073E+03         47.1526
             521     7.11214E-03     50.4966E-03         2.74981         2.46394        -6.84526         2.46394        -6.84526         2.74981     1.76525E-03     235.486E-03    -117.224E-03    -118.262E-03    -116.987E-03     235.249E-03    -118.262E-03     17.9064E-03    -22.7627E+06    -75.7372E+06    -200.421E+06    -75.7469E+06    -200.412E+06    -22.7627E+06     190.603E+03         46.4520
             522     6.22314E-03     50.4847E-03         2.78368         2.56240        -6.98023         2.56239        -6.98022         2.78368     21.5748E-03     235.577E-03    -117.319E-03    -118.258E-03    -117.213E-03     235.471E-03    -118.258E-03     11.9891E-03    -37.0084E+06    -83.0696E+06    -230.813E+06    -83.0873E+06    -230.795E+06    -37.0084E+06    -498.711E+03         45.7846
             523     5.33349E-03     50.4764E-03         2.81328         2.64907        -7.09905         2.64906        -7.09904         2.81328     16.5646E-03     235.552E-03    -117.293E-03    -118.259E-03    -117.252E-03     235.511E-03    -118.259E-03     7.18780E-03    -49.0389E+06    -89.2574E+06    -243.510E+06    -89.2697E+06    -243.497E+06    -49.0389E+06    -1.02158E+06         45.1685
             524     4.44387E-03     50.4759E-03         2.83850         2.72357        -7.20075         2.72356        -7.20074         2.83850    -8.78350E-03     235.932E-03    -117.600E-03    -118.332E-03    -117.662E-03     235.923E-03    -118.260E-03     3.31628E-03    -60.9348E+06    -95.0555E+06    -256.527E+06    -95.0596E+06    -256.523E+06    -60.9348E+06    -348.993E+03         44.6199
             525     3.55602E-03     50.4758E-03         2.85922         2.78541        -7.28489         2.78540        -7.28488         2.85922    -6.53351E-03     236.109E-03    -117.840E-03    -118.270E-03    -117.910E-03     236.108E-03    -118.198E-03     716.263E-06    -78.7485E+06    -100.941E+06    -267.250E+06    -100.948E+06    -267.243E+06    -78.7485E+06    -566.672E+03         44.1521
             526     2.66660E-03     50.4779E-03         2.87547         2.83341        -7.35069         2.83315        -7.35043         2.87547    -67.7799E-03     236.077E-03    -117.907E-03    -118.170E-03    -117.937E-03     236.076E-03    -118.139E-03    -870.087E-06    -93.2690E+06    -105.326E+06    -273.100E+06    -105.338E+06    -273.088E+06    -93.2690E+06    -1.06453E+06         43.7759
             527     1.77738E-03     50.4822E-03         2.88710         2.86975        -7.39915         2.86864        -7.39804         2.88710     58.9860E-03     236.270E-03    -117.963E-03    -118.307E-03    -118.224E-03     236.269E-03    -118.045E-03    -1.28375E-03    -103.501E+06    -110.650E+06    -281.382E+06    -110.659E+06    -281.373E+06    -103.501E+06     50.7591E+03         43.4990
             528     889.832E-06     50.4847E-03         3.01976         2.77032        -7.43334         3.01022        -7.42684         2.77337    -213.519E-03     235.869E-03    -117.532E-03    -118.337E-03    -118.229E-03     235.868E-03    -117.639E-03    -960.521E-06    -111.405E+06    -115.180E+06    -284.863E+06    -114.565E+06    -284.847E+06    -112.035E+06     540.581E+03         43.3256
             529     15.1165E-03     50.0917E-03         2.29802         1.24366        -5.12669         1.24365        -5.12668         2.29802     3.46332E-03     246.388E-03    -116.520E-03    -129.868E-03    -116.701E-03     234.743E-03    -118.043E-03     105.853E-03     119.356E+06     116.255E+06    -7.00623E+06    -7.00135E+06     119.351E+06     116.255E+06    -392.394E+03         51.5684
             530     14.2306E-03     49.8611E-03         2.35948         1.39728        -5.35151         1.39727        -5.35150         2.35948     15.4562E-03     249.854E-03    -118.097E-03    -131.758E-03    -116.705E-03     234.801E-03    -118.097E-03     143.775E-03     118.430E+06     113.334E+06    -14.4393E+06    -14.4366E+06     115.093E+06     116.668E+06    -98.9006E+03         51.2817
             531     13.3400E-03     49.7410E-03         2.41859         1.54906        -5.57111         1.54905        -5.57111         2.41859     13.2528E-03     241.985E-03    -118.166E-03    -123.819E-03    -114.249E-03     232.415E-03    -118.166E-03     115.971E-03     116.176E+06     106.322E+06    -23.0067E+06    -23.0047E+06     106.320E+06     116.176E+06    -8.75563E+03         50.8975
             532     12.4490E-03     49.5870E-03         2.47496         1.69780        -5.78402         1.69780        -5.78401         2.47496     11.8544E-03     241.649E-03    -118.210E-03    -123.439E-03    -113.924E-03     232.133E-03    -118.210E-03     115.499E-03     105.819E+06     98.1126E+06    -32.5854E+06    -32.5816E+06     99.2948E+06     104.633E+06    -379.628E+03         50.4222
             533     11.5585E-03     49.4701E-03         2.52846         1.84234        -5.98900         1.84233        -5.98899         2.52846    -4.95095E-03     238.023E-03    -118.126E-03    -119.897E-03    -114.292E-03     232.418E-03    -118.126E-03     87.9775E-03     89.6163E+06     70.9723E+06    -41.9424E+06    -41.9331E+06     89.6070E+06     70.9723E+06     225.728E+03         49.8669
             534     10.6698E-03     49.3841E-03         2.57904         1.98153        -6.18483         1.98152        -6.18482         2.57904    -3.37861E-03     235.965E-03    -117.580E-03    -118.385E-03    -114.898E-03     232.923E-03    -118.025E-03     64.4783E-03     59.8748E+06     34.8136E+06    -49.3672E+06    -49.3576E+06     59.8652E+06     34.8136E+06     495.736E+03         49.2462
             535     9.77955E-03     49.3249E-03         2.62659         2.11433        -6.37054         2.11432        -6.37053         2.62659    -3.74675E-03     235.037E-03    -116.980E-03    -118.058E-03    -115.396E-03     233.453E-03    -118.058E-03     46.5558E-03     20.7059E+06    -19.0810E+06    -58.2772E+06    -55.8956E+06    -13.8593E+06     13.1026E+06     298.669E+03         48.5773
             536     8.89068E-03     49.2833E-03         2.67091         2.23982        -6.54501         2.23979        -6.54498         2.67091     8.52247E-03     235.014E-03    -116.867E-03    -118.148E-03    -115.978E-03     234.126E-03    -118.148E-03     35.0516E-03    -1.24144E+06    -61.7877E+06    -98.1216E+06    -61.8327E+06    -98.0767E+06    -1.24144E+06     257.795E+03         47.8796
             537     8.00114E-03     49.2525E-03         2.71176         2.35691        -6.70692         2.35689        -6.70690         2.71176     18.7687E-03     235.122E-03    -116.912E-03    -118.210E-03    -116.408E-03     234.618E-03    -118.210E-03     26.2036E-03    -13.5629E+06    -67.3821E+06    -155.071E+06    -67.3858E+06    -155.067E+06    -13.5629E+06     293.131E+03         47.1739
             538     7.11159E-03     49.2313E-03         2.74893         2.46466        -6.85520         2.46465        -6.85519         2.74893     12.6919E-03     235.413E-03    -117.131E-03    -118.282E-03    -116.890E-03     235.171E-03    -118.282E-03     18.0996E-03    -20.4353E+06    -72.8404E+06    -200.865E+06    -72.8471E+06    -200.858E+06    -20.4353E+06     528.070E+03         46.4808
             539     6.22288E-03     49.2184E-03         2.78220         2.56231        -6.98878         2.56228        -6.98875         2.78220     31.7085E-03     235.667E-03    -117.367E-03    -118.300E-03    -117.263E-03     235.563E-03    -118.300E-03     11.7570E-03    -30.7382E+06    -79.4938E+06    -229.273E+06    -79.5168E+06    -229.250E+06    -30.7382E+06     343.103E+03         45.8203
             540     5.33373E-03     49.2131E-03         2.81139         2.64837        -7.10650         2.64835        -7.10648         2.81139     25.2349E-03     235.738E-03    -117.485E-03    -118.252E-03    -117.448E-03     235.701E-03    -118.252E-03     6.91923E-03    -49.6740E+06    -88.0080E+06    -243.149E+06    -88.0294E+06    -243.128E+06    -49.6740E+06    -267.301E+03         45.2104
             541     4.44482E-03     49.2090E-03         2.83635         2.72212        -7.20733         2.72212        -7.20732         2.83635    -567.233E-06     235.987E-03    -117.721E-03    -118.266E-03    -117.783E-03     235.977E-03    -118.194E-03     3.35011E-03    -68.0802E+06    -95.1637E+06    -257.644E+06    -95.1732E+06    -257.635E+06    -68.0802E+06    -712.277E+03         44.6670
             542     3.55597E-03     49.2104E-03         2.85694         2.78363        -7.29093         2.78363        -7.29092         2.85694    -985.476E-06     236.099E-03    -117.853E-03    -118.246E-03    -117.972E-03     236.097E-03    -118.126E-03     678.089E-06    -80.7434E+06    -99.9060E+06    -266.322E+06    -99.9169E+06    -266.311E+06    -80.7434E+06    -656.366E+03         44.2034
             543     2.66685E-03     49.2139E-03         2.87315         2.83139        -7.35668         2.83117        -7.35646         2.87315    -61.3803E-03     235.935E-03    -117.804E-03    -118.130E-03    -117.851E-03     235.934E-03    -118.083E-03    -990.436E-06    -91.1738E+06    -105.772E+06    -274.422E+06    -105.779E+06    -274.415E+06    -91.1738E+06     136.967E+03         43.8303
             544     1.77795E-03     49.2160E-03         2.88490         2.86712        -7.40520         2.86611        -7.40419         2.88490     59.7136E-03     236.024E-03    -117.802E-03    -118.222E-03    -117.969E-03     236.023E-03    -118.054E-03    -1.24313E-03    -100.593E+06    -110.973E+06    -281.983E+06    -110.975E+06    -281.980E+06    -100.593E+06     576.461E+03         43.5556
             545     888.846E-06     49.2192E-03         3.13777         2.64792        -7.43905         3.12839        -7.43312         2.65137    -206.461E-03     235.979E-03    -117.516E-03    -118.463E-03    -118.354E-03     235.977E-03    -117.623E-03    -1.42685E-03    -109.944E+06    -115.230E+06    -283.515E+06    -114.790E+06    -283.500E+06    -110.398E+06     244.230E+03         43.3836
             546     15.1201E-03     48.8192E-03         2.28971         1.24989        -5.13928         1.24988        -5.13927         2.28971     3.44584E-03     246.615E-03    -117.193E-03    -129.422E-03    -117.004E-03     235.059E-03    -118.055E-03     106.323E-03     119.253E+06     116.705E+06    -7.73076E+06    -7.72897E+06     119.251E+06     116.705E+06     18.4893E+03         51.5393
             547     14.2303E-03     48.5977E-03         2.34701         1.40037        -5.35547         1.40036        -5.35546         2.34701     18.0754E-03     249.395E-03    -118.118E-03    -131.278E-03    -116.211E-03     234.328E-03    -118.118E-03     144.039E-03     119.437E+06     114.984E+06    -14.4112E+06    -14.4082E+06     116.099E+06     118.319E+06    -366.537E+03         51.2551
             548     13.3392E-03     48.4760E-03         2.40157         1.54919        -5.56769         1.54918        -5.56768         2.40157     20.2257E-03     242.316E-03    -118.192E-03    -124.124E-03    -114.364E-03     232.556E-03    -118.192E-03     117.313E-03     115.618E+06     106.436E+06    -24.0988E+06    -24.0950E+06     106.433E+06     115.618E+06    -222.078E+03         50.8749
             549     12.4489E-03     48.3227E-03         2.45346         1.69385        -5.77212         1.69383        -5.77210         2.45346     21.0017E-03     242.404E-03    -118.207E-03    -124.197E-03    -114.635E-03     232.842E-03    -118.207E-03     115.989E-03     105.280E+06     98.0669E+06    -33.2515E+06    -33.2495E+06     99.4321E+06     103.913E+06     125.487E+03         50.4053
             550     11.5598E-03     48.2032E-03         2.50271         1.83374        -5.96838         1.83373        -5.96837         2.50271     5.79206E-03     238.280E-03    -118.084E-03    -120.196E-03    -114.621E-03     232.705E-03    -118.084E-03     87.7808E-03     89.5477E+06     70.5824E+06    -42.0349E+06    -42.0336E+06     89.5464E+06     70.5824E+06    -89.2991E+03         49.8569
             551     10.6699E-03     48.1187E-03         2.54972         1.96818        -6.15601         1.96817        -6.15600         2.54972     8.32925E-03     235.674E-03    -117.439E-03    -118.236E-03    -114.694E-03     232.669E-03    -117.974E-03     64.0771E-03     59.5254E+06     34.1982E+06    -49.4572E+06    -49.4526E+06     59.5208E+06     34.1982E+06    -129.094E+03         49.2436
             552     9.78087E-03     48.0594E-03         2.59433         2.09632        -6.33413         2.09631        -6.33412         2.59433     8.52277E-03     234.736E-03    -116.712E-03    -118.025E-03    -115.143E-03     233.168E-03    -118.025E-03     46.2679E-03     20.5495E+06    -19.0720E+06    -58.3095E+06    -55.6209E+06    -14.0316E+06     12.8205E+06     311.336E+03         48.5825
             553     8.89047E-03     48.0184E-03         2.63621         2.21730        -6.50159         2.21727        -6.50155         2.63621     20.7245E-03     234.817E-03    -116.681E-03    -118.136E-03    -115.814E-03     233.950E-03    -118.136E-03     34.6064E-03    -882.833E+03    -61.9739E+06    -98.0182E+06    -62.0335E+06    -97.9586E+06    -882.833E+03     489.184E+03         47.8928
             554     8.00123E-03     47.9867E-03         2.67500         2.33021        -6.65714         2.33017        -6.65710         2.67500     30.7062E-03     235.128E-03    -116.931E-03    -118.197E-03    -116.444E-03     234.641E-03    -118.197E-03     25.7694E-03    -14.5280E+06    -68.7045E+06    -155.114E+06    -68.7149E+06    -155.104E+06    -14.5280E+06     562.622E+03         47.1949
             555     7.11234E-03     47.9662E-03         2.71050         2.43412        -6.79982         2.43410        -6.79980         2.71050     23.6325E-03     235.273E-03    -117.014E-03    -118.259E-03    -116.782E-03     235.041E-03    -118.259E-03     17.7564E-03    -24.0572E+06    -75.5085E+06    -200.419E+06    -75.5114E+06    -200.416E+06    -24.0572E+06     10.1751E+03         46.5093
             556     6.22237E-03     47.9532E-03         2.74247         2.52839        -6.92873         2.52835        -6.92868         2.74247     41.7040E-03     235.570E-03    -117.272E-03    -118.298E-03    -117.171E-03     235.468E-03    -118.298E-03     11.6956E-03    -32.7556E+06    -81.2560E+06    -229.288E+06    -81.2677E+06    -229.276E+06    -32.7556E+06     57.9105E+03         45.8555
             557     5.33386E-03     47.9466E-03         2.77065         2.61199        -7.04269         2.61196        -7.04266         2.77065     33.7812E-03     235.940E-03    -117.695E-03    -118.245E-03    -117.656E-03     235.901E-03    -118.245E-03     7.14401E-03    -49.4133E+06    -86.2268E+06    -242.745E+06    -86.2388E+06    -242.733E+06    -49.4133E+06     676.924E+03         45.2517
             558     4.44498E-03     47.9446E-03         2.79487         2.68349        -7.14068         2.68349        -7.14068         2.79487     7.22817E-03     235.930E-03    -117.755E-03    -118.175E-03    -117.743E-03     235.919E-03    -118.175E-03     3.66186E-03    -66.8570E+06    -92.1168E+06    -256.494E+06    -92.1244E+06    -256.486E+06    -66.8570E+06     33.0999E+03         44.7134
             559     3.55546E-03     47.9448E-03         2.81500         2.74322        -7.22232         2.74321        -7.22232         2.81500     4.21814E-03     236.066E-03    -117.885E-03    -118.181E-03    -117.931E-03     236.064E-03    -118.133E-03     843.298E-06    -76.7363E+06    -98.1310E+06    -266.810E+06    -98.1384E+06    -266.802E+06    -76.7363E+06    -231.908E+03         44.2538
             560     2.66740E-03     47.9480E-03         2.83094         2.79011        -7.28674         2.78991        -7.28654         2.83094    -55.4652E-03     236.149E-03    -117.977E-03    -118.172E-03    -118.098E-03     236.148E-03    -118.050E-03    -1.14770E-03    -86.0488E+06    -103.444E+06    -274.948E+06    -103.447E+06    -274.945E+06    -86.0488E+06     216.552E+03         43.8839
             561     1.77804E-03     47.9524E-03         2.84246         2.82532        -7.33406         2.82438        -7.33313         2.84246     60.7896E-03     235.760E-03    -117.694E-03    -118.066E-03    -117.767E-03     235.759E-03    -117.992E-03    -1.29302E-03    -98.0304E+06    -108.534E+06    -281.944E+06    -108.536E+06    -281.942E+06    -98.0304E+06     142.566E+03         43.6115
             562     888.677E-06     47.9531E-03         3.20093         2.49918        -7.36746         3.19225        -7.36192         2.50231    -200.539E-03     235.919E-03    -117.600E-03    -118.319E-03    -118.081E-03     235.916E-03    -117.835E-03    -1.73271E-03    -107.961E+06    -113.323E+06    -282.932E+06    -112.441E+06    -282.925E+06    -108.850E+06    -598.427E+03         43.4407
             563     15.1198E-03     47.5589E-03         2.25540         1.25694        -5.12872         1.25693        -5.12871         2.25540     5.38343E-03     246.476E-03    -117.342E-03    -129.134E-03    -116.544E-03     234.611E-03    -118.066E-03     107.205E-03     119.599E+06     117.808E+06    -7.00820E+06    -7.00733E+06     119.598E+06     117.808E+06     137.176E+03         51.5106
             564     14.2270E-03     47.3300E-03         2.30708         1.40111        -5.33410         1.40109        -5.33408         2.30708     21.7329E-03     249.234E-03    -118.149E-03    -131.085E-03    -115.914E-03     234.063E-03    -118.149E-03     143.674E-03     116.941E+06     112.851E+06    -16.2732E+06    -16.2685E+06     113.348E+06     116.440E+06     122.635E+03         51.2288
             565     13.3379E-03     47.2124E-03         2.35567         1.54203        -5.53225         1.54200        -5.53222         2.35567     26.4807E-03     242.806E-03    -118.213E-03    -124.593E-03    -115.009E-03     233.222E-03    -118.213E-03     116.199E-03     115.363E+06     106.242E+06    -24.5182E+06    -24.5112E+06     106.235E+06     115.363E+06    -166.183E+03         50.8527
             566     12.4491E-03     47.0539E-03         2.40176         1.67886        -5.72306         1.67883        -5.72303         2.40176     29.2418E-03     242.777E-03    -118.186E-03    -124.591E-03    -115.043E-03     233.229E-03    -118.186E-03     115.974E-03     105.743E+06     98.0664E+06    -33.3326E+06    -33.3279E+06     100.207E+06     103.598E+06    -363.831E+03         50.3888
             567     11.5604E-03     46.9383E-03         2.44556         1.81052        -5.90564         1.81050        -5.90563         2.44556     15.5049E-03     238.096E-03    -118.043E-03    -120.053E-03    -114.497E-03     232.540E-03    -118.043E-03     87.6983E-03     89.5658E+06     68.8184E+06    -42.0648E+06    -42.0620E+06     89.5630E+06     68.8184E+06    -528.708E+03         49.8469
             568     10.6707E-03     46.8529E-03         2.48789         1.93689        -6.08045         1.93686        -6.08043         2.48789     18.9463E-03     235.478E-03    -117.412E-03    -118.065E-03    -114.456E-03     232.406E-03    -117.950E-03     64.7623E-03     58.7923E+06     32.8412E+06    -49.4275E+06    -49.4248E+06     58.7896E+06     32.8412E+06    -525.310E+03         49.2409
             569     9.78026E-03     46.7946E-03         2.52846         2.05707        -6.24640         2.05705        -6.24637         2.52846     19.8651E-03     234.850E-03    -116.837E-03    -118.012E-03    -115.231E-03     233.243E-03    -118.012E-03     46.7965E-03     20.0131E+06    -19.1305E+06    -58.8469E+06    -55.6319E+06    -14.9968E+06     12.6643E+06     220.202E+03         48.5875
             570     8.89132E-03     46.7530E-03         2.56686         2.17034        -6.40251         2.17029        -6.40246         2.56686     32.1043E-03     234.897E-03    -116.786E-03    -118.111E-03    -115.909E-03     234.021E-03    -118.111E-03     34.8039E-03    -1.19770E+06    -61.8377E+06    -98.4832E+06    -61.9256E+06    -98.3952E+06    -1.19770E+06     1.08714E+06         47.9059
             571     8.00168E-03     46.7217E-03         2.60267         2.27625        -6.54787         2.27619        -6.54781         2.60267     41.7952E-03     234.991E-03    -116.817E-03    -118.174E-03    -116.324E-03     234.499E-03    -118.174E-03     25.9056E-03    -14.0633E+06    -67.7349E+06    -154.989E+06    -67.7573E+06    -154.966E+06    -14.0633E+06     1.27889E+06         47.2158
             572     7.11200E-03     46.7008E-03         2.63564         2.37378        -6.68153         2.37375        -6.68149         2.63564     34.1482E-03     235.226E-03    -117.001E-03    -118.225E-03    -116.766E-03     234.992E-03    -118.225E-03     17.8268E-03    -25.9864E+06    -73.6452E+06    -198.102E+06    -73.6565E+06    -198.091E+06    -25.9864E+06     391.628E+03         46.5375
             573     6.22313E-03     46.6888E-03         2.66555         2.46225        -6.80264         2.46218        -6.80257         2.66555     51.4418E-03     235.507E-03    -117.239E-03    -118.267E-03    -117.136E-03     235.403E-03    -118.267E-03     11.8396E-03    -35.4922E+06    -80.2802E+06    -229.253E+06    -80.2941E+06    -229.239E+06    -35.4922E+06    -1.17453E+06         45.8904
             574     5.33334E-03     46.6805E-03         2.69210         2.54113        -6.91012         2.54108        -6.91007         2.69210     42.5206E-03     235.818E-03    -117.547E-03    -118.272E-03    -117.507E-03     235.779E-03    -118.272E-03     7.08091E-03    -44.7983E+06    -86.5304E+06    -244.046E+06    -86.5446E+06    -244.031E+06    -44.7983E+06    -727.227E+03         45.2923
             575     4.44462E-03     46.6793E-03         2.71509         2.60885        -7.00294         2.60884        -7.00293         2.71509     15.1059E-03     236.065E-03    -117.848E-03    -118.217E-03    -117.839E-03     236.055E-03    -118.217E-03     3.28531E-03    -58.9111E+06    -92.4538E+06    -255.411E+06    -92.4601E+06    -255.405E+06    -58.9111E+06     778.715E+03         44.7589
             576     3.55614E-03     46.6796E-03         2.73432         2.66572        -7.08036         2.66572        -7.08036         2.73432     10.2321E-03     235.996E-03    -117.855E-03    -118.142E-03    -117.854E-03     235.995E-03    -118.142E-03     834.031E-06    -75.2389E+06    -98.7929E+06    -267.231E+06    -98.7990E+06    -267.225E+06    -75.2389E+06     286.336E+03         44.3035
             577     2.66664E-03     46.6823E-03         2.74959         2.71085        -7.14170         2.71067        -7.14152         2.74959    -49.2808E-03     236.067E-03    -117.894E-03    -118.172E-03    -118.001E-03     236.065E-03    -118.064E-03    -973.704E-06    -88.6830E+06    -103.571E+06    -274.643E+06    -103.572E+06    -274.642E+06    -88.6830E+06    -356.552E+03         43.9368
             578     1.77862E-03     46.6875E-03         2.76083         2.74390        -7.18723         2.74299        -7.18632         2.76083     63.0731E-03     236.020E-03    -117.823E-03    -118.198E-03    -118.068E-03     236.019E-03    -117.950E-03    -1.41867E-03    -99.4695E+06    -107.960E+06    -281.260E+06    -107.960E+06    -281.260E+06    -99.4695E+06    -193.573E+03         43.6667
             579     889.074E-06     46.6897E-03         3.21520         2.32178        -7.21958         3.20602        -7.21416         2.32554    -197.643E-03     235.691E-03    -117.392E-03    -118.299E-03    -118.170E-03     235.689E-03    -117.519E-03    -1.08202E-03    -108.294E+06    -113.720E+06    -284.288E+06    -112.832E+06    -284.287E+06    -109.183E+06    -42.1004E+03         43.4974
             580     15.1179E-03     46.2949E-03         2.19600         1.26282        -5.09727         1.26281        -5.09725         2.19600     7.59275E-03     246.871E-03    -117.152E-03    -129.719E-03    -117.049E-03     235.130E-03    -118.080E-03     106.320E-03     119.447E+06     117.377E+06    -6.68816E+06    -6.68240E+06     119.441E+06     117.377E+06     257.971E+03         51.4824
             581     14.2300E-03     46.0645E-03         2.24076         1.39701        -5.28525         1.39698        -5.28523         2.24076     26.7215E-03     249.726E-03    -118.133E-03    -131.592E-03    -116.613E-03     234.746E-03    -118.133E-03     142.917E-03     118.932E+06     114.305E+06    -14.1118E+06    -14.1076E+06     114.666E+06     118.567E+06     257.219E+03         51.2032
             582     13.3402E-03     45.9463E-03         2.28219         1.52755        -5.46583         1.52751        -5.46579         2.28219     31.9933E-03     242.663E-03    -118.173E-03    -124.491E-03    -114.942E-03     233.114E-03    -118.173E-03     115.828E-03     116.822E+06     107.181E+06    -22.8029E+06    -22.7960E+06     107.174E+06     116.822E+06     337.780E+03         50.8312
             583     12.4501E-03     45.7881E-03         2.32142         1.65321        -5.63845         1.65317        -5.63840         2.32142     36.3392E-03     242.318E-03    -118.157E-03    -124.161E-03    -114.537E-03     232.694E-03    -118.157E-03     116.265E-03     105.474E+06     97.3085E+06    -33.1117E+06    -33.1050E+06     100.088E+06     102.688E+06    -225.583E+03         50.3724
             584     11.5599E-03     45.6720E-03         2.35875         1.77345        -5.80307         1.77343        -5.80305         2.35875     23.9305E-03     237.735E-03    -118.049E-03    -119.685E-03    -114.109E-03     232.158E-03    -118.049E-03     87.7490E-03     89.4684E+06     67.8570E+06    -42.0963E+06    -42.0917E+06     89.4639E+06     67.8570E+06    -669.548E+03         49.8367
             585     10.6695E-03     45.5889E-03         2.39536         1.88853        -5.96056         1.88850        -5.96052         2.39536     28.1805E-03     235.593E-03    -117.492E-03    -118.102E-03    -114.525E-03     232.498E-03    -117.973E-03     65.0668E-03     58.0079E+06     32.1086E+06    -49.5474E+06    -49.5434E+06     58.0040E+06     32.1086E+06    -381.040E+03         49.2377
             586     9.78037E-03     45.5280E-03         2.43089         1.99782        -6.11025         1.99778        -6.11021         2.43089     29.9316E-03     234.961E-03    -116.929E-03    -118.032E-03    -115.301E-03     233.333E-03    -118.032E-03     47.1006E-03     18.6370E+06    -20.1348E+06    -59.7443E+06    -56.1701E+06    -16.6347E+06     11.5627E+06     354.900E+03         48.5921
             587     8.89093E-03     45.4880E-03         2.46486         2.10075        -6.25136         2.10067        -6.25128         2.46486     42.2942E-03     235.009E-03    -116.880E-03    -118.129E-03    -115.986E-03     234.114E-03    -118.129E-03     35.1877E-03    -1.20425E+06    -61.9582E+06    -98.4520E+06    -61.9962E+06     -98.414E+06    -1.20425E+06     831.398E+03         47.9183
             588     8.00158E-03     45.4564E-03         2.49680         2.19709        -6.38309         2.19700        -6.38300         2.49680     51.7191E-03     235.104E-03    -116.912E-03    -118.191E-03    -116.405E-03     234.596E-03    -118.191E-03     26.2724E-03    -12.3464E+06    -67.1121E+06    -154.012E+06    -67.1323E+06    -153.991E+06    -12.3464E+06     759.289E+03         47.2360
             589     7.11215E-03     45.4361E-03         2.52640         2.28580        -6.50439         2.28574        -6.50433         2.52640     43.9973E-03     235.336E-03    -117.105E-03    -118.231E-03    -116.865E-03     235.095E-03    -118.231E-03     18.0882E-03    -24.1303E+06    -72.6671E+06    -196.120E+06    -72.6794E+06    -196.107E+06    -24.1303E+06     175.042E+03         46.5651
             590     6.22282E-03     45.4225E-03         2.55346         2.36638        -6.61459         2.36628        -6.61448         2.55346     60.3688E-03     235.658E-03    -117.410E-03    -118.247E-03    -117.305E-03     235.552E-03    -118.247E-03     11.8613E-03    -35.0809E+06    -79.3883E+06    -228.207E+06    -79.4029E+06    -228.193E+06    -35.0809E+06    -409.405E+03         45.9247
             591     5.33414E-03     45.4165E-03         2.57765         2.43856        -6.71271         2.43848        -6.71264         2.57765     50.9942E-03     235.787E-03    -117.546E-03    -118.241E-03    -117.509E-03     235.750E-03    -118.241E-03     6.99192E-03    -44.5707E+06    -87.2576E+06    -245.757E+06    -87.2725E+06    -245.742E+06    -44.5707E+06    -525.111E+03         45.3325
             592     4.44486E-03     45.4125E-03         2.59875         2.50076        -6.79782         2.50074        -6.79780         2.59875     23.1150E-03     235.886E-03    -117.698E-03    -118.187E-03    -117.689E-03     235.876E-03    -118.187E-03     3.12841E-03    -59.6664E+06    -93.5890E+06    -255.246E+06    -93.6034E+06    -255.232E+06    -59.6664E+06    -399.897E+03         44.8040
             593     3.55595E-03     45.4151E-03         2.61654         2.55321        -6.86920         2.55320        -6.86919         2.61654     17.2784E-03     235.829E-03    -117.694E-03    -118.135E-03    -117.693E-03     235.828E-03    -118.135E-03     585.241E-06    -77.6058E+06    -98.4392E+06    -266.907E+06    -98.4541E+06    -266.892E+06    -77.6058E+06    -269.601E+03         44.3527
             594     2.66677E-03     45.4174E-03         2.63070         2.59519        -6.92588         2.59502        -6.92571         2.63070    -43.1718E-03     235.851E-03    -117.672E-03    -118.179E-03    -117.705E-03     235.851E-03    -118.146E-03    -599.964E-06    -91.3818E+06    -103.681E+06    -275.293E+06    -103.683E+06    -275.291E+06    -91.3818E+06    -219.809E+03         43.9891
             595     1.77733E-03     45.4213E-03         2.64135         2.62495        -6.96799         2.62401        -6.96705         2.64135     66.6286E-03     236.348E-03    -117.908E-03    -118.440E-03    -118.248E-03     236.347E-03    -118.098E-03    -1.11701E-03    -100.528E+06    -107.624E+06    -281.209E+06    -107.626E+06    -281.206E+06    -100.528E+06     7.72027E+03         43.7214
             596     889.717E-06     45.4253E-03         3.17917         2.11968        -6.99812         3.16915        -6.99260         2.12418    -196.720E-03     236.001E-03    -117.456E-03    -118.545E-03    -118.543E-03     235.999E-03    -117.456E-03    -1.23528E-03    -106.381E+06    -111.477E+06    -283.398E+06    -110.445E+06    -283.396E+06    -107.415E+06     156.097E+03         43.5535
             597     15.1195E-03     45.0262E-03         2.11307         1.26793        -5.04580         1.26792        -5.04579         2.11307     9.38200E-03     247.235E-03    -117.384E-03    -129.851E-03    -117.563E-03     235.629E-03    -118.066E-03     106.573E-03     119.535E+06     116.737E+06    -6.56355E+06    -6.55680E+06     119.528E+06     116.737E+06     139.051E+03         51.4547
             598     14.2296E-03     44.7996E-03         2.14990         1.38884        -5.21148         1.38881        -5.21144         2.14990     29.2482E-03     249.863E-03    -118.099E-03    -131.764E-03    -116.851E-03     234.950E-03    -118.099E-03     143.063E-03     119.879E+06     114.338E+06    -13.5825E+06    -13.5797E+06     115.174E+06     119.040E+06     36.5066E+03         51.1780
             599     13.3395E-03     44.6802E-03         2.18326         1.50599        -5.37036         1.50594        -5.37031         2.18326     36.8526E-03     242.451E-03    -118.140E-03    -124.311E-03    -114.655E-03     232.796E-03    -118.140E-03     116.497E-03     117.174E+06     107.173E+06    -22.6985E+06    -22.6940E+06     107.168E+06     117.174E+06     593.657E+03         50.8099
             600     12.4497E-03     44.5233E-03         2.21472         1.61745        -5.52076         1.61739        -5.52070         2.21472     42.3717E-03     241.917E-03    -118.146E-03    -123.771E-03    -114.140E-03     232.286E-03    -118.146E-03     116.177E-03     106.357E+06     97.6439E+06    -31.9480E+06    -31.9425E+06     101.053E+06     102.943E+06     706.370E+03         50.3561
             601     11.5590E-03     44.4073E-03         2.24468         1.72335        -5.66337         1.72331        -5.66333         2.24468     31.2690E-03     237.560E-03    -118.055E-03    -119.505E-03    -113.955E-03     232.010E-03    -118.055E-03     87.4425E-03     89.7958E+06     66.8080E+06    -41.4292E+06    -41.4236E+06     89.7903E+06     66.8080E+06     166.138E+03         49.8265
             602     10.6700E-03     44.3224E-03         2.27468         1.82435        -5.79981         1.82429        -5.79975         2.27468     36.0489E-03     235.510E-03    -117.404E-03    -118.105E-03    -114.463E-03     232.453E-03    -117.990E-03     64.6625E-03     57.6146E+06     31.0421E+06    -49.6985E+06    -49.6909E+06     57.6070E+06     31.0421E+06     340.896E+03         49.2346
             603     9.77993E-03     44.2634E-03         2.30432         1.92029        -5.92991         1.92023        -5.92985         2.30432     38.5026E-03     234.795E-03    -116.725E-03    -118.070E-03    -115.089E-03     233.159E-03    -118.070E-03     47.2517E-03     18.5414E+06    -20.5848E+06    -60.0362E+06    -56.6814E+06    -16.9402E+06     11.5421E+06     608.899E+03         48.5964
             604     8.89019E-03     44.2221E-03         2.33302         2.01065        -6.05283         2.01054        -6.05273         2.33302     51.0241E-03     235.038E-03    -116.857E-03    -118.181E-03    -115.950E-03     234.131E-03    -118.181E-03     35.4056E-03    -1.58742E+06    -62.8821E+06    -98.5919E+06    -62.9068E+06    -98.5672E+06    -1.58742E+06     631.792E+03         47.9302
             605     8.00105E-03     44.1911E-03         2.36024         2.09515        -6.16764         2.09503        -6.16751         2.36024     60.1338E-03     235.393E-03    -117.160E-03    -118.234E-03    -116.651E-03     234.885E-03    -118.234E-03     26.3592E-03    -13.5942E+06    -70.2444E+06    -153.527E+06    -70.2767E+06    -153.495E+06    -13.5942E+06     888.926E+03         47.2556
             606     7.11208E-03     44.1706E-03         2.38568         2.17290        -6.27351         2.17281        -6.27343         2.38568     52.6398E-03     235.554E-03    -117.313E-03    -118.242E-03    -117.066E-03     235.308E-03    -118.242E-03     18.3136E-03    -26.9767E+06    -78.1091E+06    -194.837E+06    -78.1371E+06    -194.809E+06    -26.9767E+06     684.551E+03         46.5920
             607     6.22310E-03     44.1574E-03         2.40912         2.24376        -6.37006         2.24362        -6.36993         2.40912     68.2042E-03     235.732E-03    -117.511E-03    -118.221E-03    -117.402E-03     235.623E-03    -118.221E-03     12.0609E-03    -40.7211E+06    -83.7268E+06    -227.175E+06    -83.7528E+06    -227.149E+06    -40.7211E+06    -415.808E+03         45.9583
             608     5.33416E-03     44.1504E-03         2.43023         2.30753        -6.45631         2.30743        -6.45620         2.43023     58.7882E-03     235.764E-03    -117.566E-03    -118.198E-03    -117.526E-03     235.724E-03    -118.198E-03     7.25274E-03    -50.5271E+06    -87.6556E+06    -245.640E+06    -87.6884E+06    -245.608E+06    -50.5271E+06    -1.26049E+06         45.3720
             609     4.44518E-03     44.1484E-03         2.44875         2.36246        -6.53130         2.36243        -6.53127         2.44875     30.0604E-03     235.642E-03    -117.464E-03    -118.178E-03    -117.453E-03     235.631E-03    -118.178E-03     3.54864E-03    -63.8691E+06    -93.1223E+06    -256.216E+06    -93.1396E+06    -256.199E+06    -63.8691E+06    -1.23047E+06         44.8484
             610     3.55570E-03     44.1492E-03         2.46450         2.40846        -6.59444         2.40844        -6.59442         2.46450     23.4827E-03     235.780E-03    -117.594E-03    -118.186E-03    -117.592E-03     235.779E-03    -118.186E-03     810.318E-06    -79.1340E+06    -99.6130E+06    -267.242E+06    -99.6244E+06    -267.230E+06    -79.1340E+06    -203.156E+03         44.4011
             611     2.66653E-03     44.1535E-03         2.47709         2.44596        -6.64493         2.44578        -6.64475         2.47709    -38.0976E-03     236.027E-03    -117.806E-03    -118.220E-03    -117.810E-03     236.027E-03    -118.217E-03    -551.006E-06    -91.2123E+06    -104.709E+06    -275.046E+06    -104.713E+06    -275.042E+06    -91.2123E+06     352.288E+03         44.0407
             612     1.77724E-03     44.1554E-03         2.48647         2.47246        -6.68244         2.47145        -6.68143         2.48647     70.6281E-03     236.292E-03    -117.879E-03    -118.413E-03    -118.050E-03     236.291E-03    -118.240E-03    -1.11179E-03    -101.782E+06    -109.298E+06    -281.112E+06    -109.302E+06    -281.108E+06    -101.782E+06     16.4345E+03         43.7754
             613     888.552E-06     44.1581E-03         3.08752         1.90032        -6.71071         3.07760        -6.70475         1.90429    -201.008E-03     236.446E-03    -117.786E-03    -118.661E-03    -118.371E-03     236.442E-03    -118.071E-03    -2.15128E-03    -109.204E+06    -113.807E+06    -283.123E+06    -112.776E+06    -283.120E+06    -110.238E+06    -268.995E+03         43.6090
             614     15.1187E-03     43.7589E-03         2.00900         1.27298        -4.97484         1.27297        -4.97482         2.00900     10.9283E-03     246.880E-03    -117.453E-03    -129.427E-03    -117.113E-03     235.157E-03    -118.044E-03     106.730E-03     119.295E+06     116.312E+06    -7.53446E+06    -7.52281E+06     119.283E+06     116.312E+06    -126.380E+03         51.4274
             615     14.2301E-03     43.5337E-03         2.03701         1.37800        -5.11622         1.37796        -5.11618         2.03701     31.6866E-03     249.634E-03    -118.098E-03    -131.536E-03    -116.483E-03     234.580E-03    -118.098E-03     143.508E-03     118.198E+06     112.850E+06    -15.1048E+06    -15.0947E+06     113.912E+06     117.125E+06    -567.413E+03         51.1529
             616     13.3406E-03     43.4151E-03         2.06152         1.47790        -5.24864         1.47784        -5.24858         2.06152     41.1084E-03     242.570E-03    -118.155E-03    -124.415E-03    -114.741E-03     232.896E-03    -118.155E-03     116.652E-03     117.209E+06     107.028E+06    -22.5566E+06    -22.5506E+06     107.022E+06     117.209E+06    -335.975E+03         50.7885
             617     12.4498E-03     43.2586E-03         2.08451         1.57241        -5.37319         1.57233        -5.37311         2.08451     47.3923E-03     241.983E-03    -118.162E-03    -123.821E-03    -114.133E-03     232.294E-03    -118.162E-03     116.580E-03     107.203E+06     97.8949E+06    -31.1518E+06    -31.1346E+06     101.280E+06     103.800E+06     787.016E+03         50.3398
             618     11.5603E-03     43.1418E-03         2.10638         1.66147        -5.49049         1.66141        -5.49044         2.10638     37.6374E-03     237.666E-03    -118.070E-03    -119.596E-03    -113.950E-03     232.019E-03    -118.070E-03     88.2214E-03     89.7623E+06     66.7271E+06    -40.9590E+06    -40.9306E+06     89.7339E+06     66.7271E+06     1.73723E+06         49.8163
             619     10.6694E-03     43.0574E-03         2.12906         1.74618        -5.60284         1.74610        -5.60276         2.12906     42.8204E-03     235.488E-03    -117.404E-03    -118.084E-03    -114.386E-03     232.399E-03    -118.013E-03     64.9307E-03     58.2030E+06     31.3886E+06    -48.8309E+06    -48.8101E+06     58.1823E+06     31.3886E+06     1.39838E+06         49.2312
             620     9.77935E-03     42.9985E-03         2.15208         1.82656        -5.71025         1.82648        -5.71017         2.15208     45.7881E-03     234.879E-03    -116.784E-03    -118.095E-03    -115.164E-03     233.259E-03    -118.095E-03     47.0215E-03     19.2329E+06    -19.4677E+06    -59.3436E+06    -55.2773E+06    -16.3520E+06     12.0509E+06     733.435E+03         48.6004
             621     8.88981E-03     42.9563E-03         2.17479         1.90216        -5.81199         1.90202        -5.81186         2.17479     58.3702E-03     235.029E-03    -116.828E-03    -118.201E-03    -115.946E-03     234.147E-03    -118.201E-03     34.8611E-03    -2.25506E+06    -61.6111E+06    -99.1088E+06    -61.6410E+06    -99.0789E+06    -2.25506E+06     815.724E+03         47.9419
             622     8.00063E-03     42.9254E-03         2.19659         1.97298        -5.90727         1.97283        -5.90712         2.19659     67.1342E-03     235.355E-03    -117.098E-03    -118.257E-03    -116.604E-03     234.860E-03    -118.257E-03     26.0551E-03    -14.4051E+06    -66.7310E+06    -153.428E+06    -66.7701E+06    -153.389E+06    -14.4051E+06     1.16217E+06         47.2747
             623     7.11169E-03     42.9046E-03         2.21718         2.03811        -5.99533         2.03799        -5.99521         2.21718     59.8227E-03     235.691E-03    -117.412E-03    -118.279E-03    -117.165E-03     235.444E-03    -118.279E-03     18.3268E-03    -24.3503E+06    -71.2878E+06    -193.431E+06    -71.3145E+06    -193.405E+06    -24.3503E+06     787.553E+03         46.6182
             624     6.22291E-03     42.8920E-03         2.23637         2.09763        -6.07584         2.09746        -6.07567         2.23637     74.4096E-03     235.718E-03    -117.441E-03    -118.277E-03    -117.331E-03     235.608E-03    -118.277E-03     12.2380E-03    -36.0080E+06    -77.4414E+06    -225.052E+06    -77.4733E+06    -225.020E+06    -36.0080E+06    -129.977E+03         45.9911
             625     5.33375E-03     42.8851E-03         2.25379         2.15116        -6.14780         2.15103        -6.14767         2.25379     65.0373E-03     235.668E-03    -117.397E-03    -118.271E-03    -117.353E-03     235.624E-03    -118.271E-03     7.61128E-03    -50.2010E+06    -85.2857E+06    -245.355E+06    -85.3238E+06    -245.317E+06    -50.2010E+06    -852.540E+03         45.4105
             626     4.44443E-03     42.8834E-03         2.26918         2.19718        -6.21059         2.19714        -6.21054         2.26918     34.9172E-03     235.832E-03    -117.552E-03    -118.280E-03    -117.540E-03     235.820E-03    -118.280E-03     3.87701E-03    -63.8391E+06    -92.7643E+06    -258.555E+06    -92.7726E+06    -258.547E+06    -63.8391E+06    -217.734E+03         44.8919
             627     3.55508E-03     42.8848E-03         2.28235         2.23556        -6.26342         2.23554        -6.26339         2.28235     28.3189E-03     236.145E-03    -117.866E-03    -118.279E-03    -117.864E-03     236.143E-03    -118.279E-03     984.996E-06    -75.6688E+06    -99.0373E+06    -267.418E+06    -99.0401E+06    -267.415E+06    -75.6688E+06     464.264E+03         44.4487
             628     2.66632E-03     42.8870E-03         2.29288         2.26730        -6.30571         2.26710        -6.30551         2.29288    -34.7976E-03     236.347E-03    -118.110E-03    -118.237E-03    -118.113E-03     236.346E-03    -118.233E-03    -780.282E-06    -87.6685E+06    -103.959E+06    -274.292E+06    -103.962E+06    -274.289E+06    -87.6685E+06     567.945E+03         44.0917
             629     1.77818E-03     42.8906E-03         2.30075         2.28948        -6.33742         2.28836        -6.33630         2.30075     73.6566E-03     236.178E-03    -117.969E-03    -118.209E-03    -117.971E-03     236.176E-03    -118.205E-03    -1.28308E-03    -100.318E+06    -108.657E+06    -280.727E+06    -108.662E+06    -280.721E+06    -100.318E+06     554.275E+03         43.8287
             630     888.319E-06     42.8929E-03         2.94742         1.66743        -6.36279         2.93746        -6.35622         1.67083    -206.417E-03     236.378E-03    -118.005E-03    -118.373E-03    -118.000E-03     236.373E-03    -118.373E-03    -2.40778E-03    -110.284E+06    -113.881E+06    -282.416E+06    -113.431E+06    -282.412E+06    -110.738E+06     57.9130E+03         43.6638
             631     15.1212E-03     42.4987E-03         1.88651         1.27713        -4.88817         1.27711        -4.88815         1.88651     11.6463E-03     246.755E-03    -117.482E-03    -129.272E-03    -116.969E-03     234.993E-03    -118.024E-03     106.163E-03     119.298E+06     115.979E+06    -7.33766E+06    -7.31928E+06     119.280E+06     115.979E+06     351.850E+03         51.4004
             632     14.2279E-03     42.2659E-03         1.90509         1.36339        -5.00094         1.36334        -5.00089         1.90509     34.9058E-03     249.035E-03    -118.106E-03    -130.929E-03    -115.791E-03     233.897E-03    -118.106E-03     143.674E-03     118.260E+06     113.375E+06    -14.7700E+06    -14.7400E+06     114.484E+06     117.121E+06    -842.449E+03         51.1280
             633     13.3388E-03     42.1496E-03         1.92015         1.44430        -5.10434         1.44422        -5.10427         1.92015     44.6256E-03     242.384E-03    -118.193E-03    -124.191E-03    -114.475E-03     232.668E-03    -118.193E-03     116.855E-03     115.934E+06     106.680E+06    -22.9944E+06    -22.9772E+06     106.663E+06     115.934E+06    -1.27848E+06         50.7671
             634     12.4490E-03     41.9936E-03         1.93409         1.51959        -5.20010         1.51949        -5.20000         1.93409     51.8047E-03     242.385E-03    -118.207E-03    -124.178E-03    -114.454E-03     232.661E-03    -118.207E-03     116.914E-03     104.436E+06     97.1892E+06    -32.9817E+06    -32.9652E+06     98.9108E+06     102.697E+06     25.4012E+03         50.3233
             635     11.5581E-03     41.8764E-03         1.94738         1.58958        -5.28922         1.58950        -5.28915         1.94738     43.3042E-03     237.805E-03    -118.098E-03    -119.707E-03    -114.067E-03     232.181E-03    -118.114E-03     88.0176E-03     89.6123E+06     69.1596E+06    -40.9237E+06    -40.8968E+06     89.5854E+06     69.1596E+06     1.12302E+06         49.8058
             636     10.6690E-03     41.7923E-03         1.96220         1.65601        -5.37477         1.65591        -5.37467         1.96220     48.8765E-03     235.641E-03    -117.556E-03    -118.085E-03    -114.537E-03     232.577E-03    -118.040E-03     64.7413E-03     58.9616E+06     32.9449E+06    -47.4872E+06    -47.4627E+06     58.9371E+06     32.9449E+06     1.39449E+06         49.2276
             637     9.77982E-03     41.7324E-03         1.97804         1.71886        -5.45685         1.71875        -5.45675         1.97804     52.0559E-03     235.084E-03    -116.985E-03    -118.098E-03    -115.363E-03     233.461E-03    -118.098E-03     47.0576E-03     18.9010E+06    -18.7640E+06    -58.4130E+06    -53.8942E+06    -15.9806E+06     11.5988E+06     1.28009E+06         48.6042
             638     8.89071E-03     41.6912E-03         1.99423         1.77794        -5.53507         1.77778        -5.53490         1.99423     64.4533E-03     235.067E-03    -116.870E-03    -118.197E-03    -115.988E-03     234.184E-03    -118.197E-03     34.9183E-03    -1.99867E+06    -59.5606E+06    -98.3494E+06    -59.6985E+06    -98.2115E+06    -1.99867E+06     781.972E+03         47.9532
             639     8.00078E-03     41.6602E-03         2.01009         1.83347        -5.60859         1.83328        -5.60840         2.01009     72.7570E-03     235.246E-03    -116.992E-03    -118.254E-03    -116.494E-03     234.748E-03    -118.254E-03     26.1003E-03    -14.8415E+06    -64.5747E+06    -152.849E+06    -64.5931E+06    -152.831E+06    -14.8415E+06    -116.353E+03         47.2933
             640     7.11148E-03     41.6385E-03         2.02534         1.88437        -5.67667         1.88422        -5.67653         2.02534     65.4171E-03     235.451E-03    -117.141E-03    -118.310E-03    -116.900E-03     235.209E-03    -118.310E-03     18.0859E-03    -23.6906E+06    -69.2130E+06    -193.372E+06    -69.2148E+06    -193.370E+06    -23.6906E+06    -224.911E+03         46.6438
             641     6.22229E-03     41.6265E-03         2.03982         1.93099        -5.73928         1.93079        -5.73908         2.03982     78.6344E-03     235.576E-03    -117.210E-03    -118.366E-03    -117.105E-03     235.471E-03    -118.366E-03     11.9240E-03    -31.9223E+06    -75.0485E+06    -224.937E+06    -75.0642E+06    -224.922E+06    -31.9223E+06     1.18567E+06         46.0229
             642     5.33280E-03     41.6203E-03         2.05313         1.97307        -5.79533         1.97291        -5.79517         2.05313     69.3740E-03     235.825E-03    -117.436E-03    -118.389E-03    -117.394E-03     235.784E-03    -118.389E-03     7.40419E-03    -45.6420E+06    -82.5050E+06    -245.087E+06    -82.5391E+06    -245.053E+06    -45.6420E+06     2.00371E+06         45.4481
             643     4.44357E-03     41.6179E-03         2.06497         2.00901        -5.84404         2.00895        -5.84398         2.06497     37.9251E-03     236.258E-03    -117.885E-03    -118.373E-03    -117.873E-03     236.246E-03    -118.373E-03     3.54263E-03    -60.2197E+06    -89.9351E+06    -257.797E+06    -89.9548E+06    -257.778E+06    -60.2197E+06     1.10566E+06         44.9346
             644     3.55541E-03     41.6187E-03         2.07517         2.03906        -5.88493         2.03902        -5.88489         2.07517     32.1403E-03     236.464E-03    -118.153E-03    -118.311E-03    -118.152E-03     236.463E-03    -118.311E-03     763.937E-06    -73.0239E+06    -95.9973E+06    -266.653E+06    -95.9992E+06    -266.651E+06    -73.0239E+06    -3.36034E+03         44.4958
             645     2.66688E-03     41.6214E-03         2.08338         2.06403        -5.91786         2.06379        -5.91763         2.08338    -33.1507E-03     236.401E-03    -118.151E-03    -118.251E-03    -118.178E-03     236.401E-03    -118.222E-03    -829.785E-06    -85.2292E+06    -101.592E+06    -274.804E+06    -101.593E+06    -274.803E+06    -85.2292E+06    -141.550E+03         44.1420
             646     1.77740E-03     41.6253E-03         2.08980         2.08078        -5.94275         2.07947        -5.94144         2.08980     77.0804E-03     236.263E-03    -118.066E-03    -118.197E-03    -118.130E-03     236.261E-03    -118.131E-03    -1.50927E-03    -95.3473E+06    -105.314E+06    -280.231E+06    -105.319E+06    -280.225E+06    -95.3473E+06     170.913E+03         43.8814
             647     889.281E-06     41.6279E-03         2.77003         1.42394        -5.96458         2.75926        -5.95703         1.42716    -214.231E-03     236.106E-03    -117.757E-03    -118.350E-03    -118.264E-03     236.103E-03    -117.838E-03    -1.81789E-03    -103.673E+06    -108.006E+06    -280.308E+06    -107.276E+06    -280.292E+06    -104.419E+06     831.544E+03         43.7179
             648     15.1186E-03     41.2287E-03         1.74875         1.28063        -4.78906         1.28061        -4.78905         1.74875     11.6929E-03     246.618E-03    -117.485E-03    -129.133E-03    -117.050E-03     235.088E-03    -118.038E-03     105.961E-03     121.150E+06     118.109E+06    -5.40080E+06    -5.39156E+06     121.141E+06     118.109E+06     550.819E+03         51.3735
             649     14.2316E-03     41.0059E-03         1.75755         1.34625        -4.86963         1.34620        -4.86958         1.75755     35.7544E-03     248.792E-03    -118.111E-03    -130.681E-03    -115.662E-03     233.773E-03    -118.111E-03     143.533E-03     118.487E+06     113.600E+06    -14.0902E+06    -14.0524E+06     114.791E+06     117.259E+06     739.518E+03         51.1033
             650     13.3378E-03     40.8833E-03         1.76276         1.40656        -4.94204         1.40647        -4.94195         1.76276     47.8300E-03     242.342E-03    -118.195E-03    -124.147E-03    -114.487E-03     232.682E-03    -118.195E-03     116.750E-03     113.938E+06     105.299E+06    -24.8848E+06    -24.8538E+06     105.268E+06     113.938E+06    -261.524E+03         50.7458
             651     12.4484E-03     40.7274E-03         1.76727         1.46051        -5.00624         1.46039        -5.00611         1.76727     55.9030E-03     242.197E-03    -118.198E-03    -123.999E-03    -114.639E-03     232.836E-03    -118.198E-03     114.671E-03     103.564E+06     96.3329E+06    -34.0345E+06    -34.0191E+06     98.5684E+06     101.313E+06    -1.21035E+06         50.3069
             652     11.5600E-03     40.6112E-03         1.77173         1.50974        -5.06500         1.50965        -5.06490         1.77173     48.1449E-03     237.408E-03    -117.982E-03    -119.426E-03    -113.822E-03     231.924E-03    -118.101E-03     87.0064E-03     88.5142E+06     67.5537E+06    -42.0171E+06    -42.0014E+06     88.4986E+06     67.5537E+06    -1.04935E+06         49.7954
             653     10.6693E-03     40.5269E-03         1.77833         1.55615        -5.12162         1.55604        -5.12150         1.77833     53.9774E-03     235.468E-03    -117.422E-03    -118.047E-03    -114.310E-03     232.356E-03    -118.047E-03     65.2218E-03     57.7763E+06     31.4018E+06    -49.1107E+06    -49.0992E+06     57.7648E+06     31.4018E+06     348.856E+03         49.2236
             654     9.77928E-03     40.4665E-03         1.78660         1.59990        -5.17638         1.59978        -5.17626         1.78660     57.1834E-03     235.073E-03    -116.952E-03    -118.122E-03    -115.300E-03     233.421E-03    -118.122E-03     47.4565E-03     19.0779E+06    -18.9728E+06    -58.2044E+06    -54.4339E+06    -15.0784E+06     11.4131E+06     898.951E+03         48.6073
             655     8.88948E-03     40.4259E-03         1.79591         1.64093        -5.22901         1.64074        -5.22881         1.79591     69.2567E-03     235.238E-03    -117.019E-03    -118.220E-03    -116.120E-03     234.340E-03    -118.220E-03     35.2636E-03    -1.79661E+06    -59.3942E+06    -97.2354E+06    -59.5457E+06    -97.0839E+06    -1.79661E+06     280.098E+03         47.9636
             656     8.00094E-03     40.3941E-03         1.80552         1.67967        -5.27888         1.67945        -5.27866         1.80552     76.5574E-03     235.357E-03    -117.087E-03    -118.270E-03    -116.581E-03     234.851E-03    -118.270E-03     26.2755E-03    -14.4836E+06    -65.8464E+06    -151.878E+06    -65.8542E+06    -151.871E+06    -14.4836E+06    -57.3859E+03         47.3111
             657     7.11161E-03     40.3738E-03         1.81515         1.71507        -5.32548         1.71490        -5.32530         1.81515     69.1716E-03     235.331E-03    -117.007E-03    -118.324E-03    -116.769E-03     235.093E-03    -118.324E-03     17.9470E-03    -25.4543E+06    -72.2216E+06    -194.239E+06    -72.2237E+06    -194.237E+06    -25.4543E+06     237.935E+03         46.6685
             658     6.22178E-03     40.3612E-03         1.82464         1.74767        -5.36865         1.74744        -5.36842         1.82464     81.2222E-03     235.643E-03    -117.259E-03    -118.383E-03    -117.161E-03     235.544E-03    -118.383E-03     11.4297E-03    -34.5368E+06    -78.0019E+06    -227.059E+06    -78.0129E+06    -227.048E+06    -34.5368E+06     1.08954E+06         46.0541
             659     5.33275E-03     40.3549E-03         1.83357         1.77747        -5.40740         1.77729        -5.40722         1.83357     72.4144E-03     236.039E-03    -117.635E-03    -118.404E-03    -117.600E-03     236.005E-03    -118.404E-03     6.73799E-03    -43.3076E+06    -83.6148E+06    -244.013E+06    -83.6459E+06    -243.982E+06    -43.3076E+06     2.06788E+06         45.4851
             660     4.44434E-03     40.3515E-03         1.84164         1.80254        -5.44126         1.80247        -5.44119         1.84164     39.6787E-03     236.223E-03    -117.855E-03    -118.368E-03    -117.846E-03     236.214E-03    -118.368E-03     3.26573E-03    -57.5540E+06    -89.6131E+06    -255.072E+06    -89.6343E+06    -255.051E+06    -57.5540E+06     1.20718E+06         44.9767
             661     3.55531E-03     40.3530E-03         1.84876         1.82382        -5.46993         1.82376        -5.46988         1.84876     34.7728E-03     236.307E-03    -117.993E-03    -118.314E-03    -117.992E-03     236.306E-03    -118.314E-03     769.999E-06    -73.0083E+06    -95.2326E+06    -264.893E+06    -95.2339E+06    -264.891E+06    -73.0083E+06     38.6871E+03         44.5420
             662     2.66623E-03     40.3559E-03         1.85458         1.84157        -5.49320         1.84128        -5.49291         1.85458    -32.5518E-03     236.421E-03    -118.126E-03    -118.295E-03    -118.170E-03     236.420E-03    -118.251E-03    -597.880E-06    -86.4835E+06    -101.140E+06    -274.468E+06    -101.141E+06    -274.466E+06    -86.4835E+06    -7.39091E+03         44.1915
             663     1.77836E-03     40.3595E-03         1.85929         1.85347        -5.51125         1.85190        -5.50969         1.85929     80.5616E-03     236.397E-03    -118.133E-03    -118.264E-03    -118.262E-03     236.395E-03    -118.133E-03    -1.45088E-03    -98.1003E+06    -106.928E+06    -280.586E+06    -106.932E+06    -280.582E+06    -98.1003E+06    -630.062E+03         43.9332
             664     888.904E-06     40.3631E-03         2.55516         1.17815        -5.53014         2.54432        -5.52121         1.18006    -225.255E-03     236.050E-03    -117.696E-03    -118.354E-03    -118.353E-03     236.049E-03    -117.696E-03    -1.28173E-03    -105.707E+06    -111.475E+06    -280.852E+06    -111.205E+06    -280.829E+06    -105.999E+06    -383.555E+03         43.7712
             665     15.1203E-03     39.9615E-03         1.59941         1.28469        -4.67909         1.28467        -4.67907         1.59941     11.6556E-03     245.957E-03    -116.938E-03    -129.019E-03    -116.239E-03     234.311E-03    -118.073E-03     106.153E-03     119.217E+06     116.550E+06    -7.38019E+06    -7.37551E+06     119.212E+06     116.550E+06    -447.396E+03         51.3463
             666     14.2270E-03     39.7419E-03         1.59809         1.32809        -4.72736         1.32803        -4.72730         1.59809     36.9069E-03     249.878E-03    -118.150E-03    -131.728E-03    -116.541E-03     234.691E-03    -118.150E-03     144.594E-03     118.744E+06     114.390E+06    -14.0160E+06    -13.9956E+06     115.408E+06     117.706E+06     623.591E+03         51.0782
             667     13.3400E-03     39.6173E-03         1.59332         1.36530        -4.76564         1.36519        -4.76553         1.59332     50.6147E-03     243.240E-03    -118.191E-03    -125.048E-03    -115.273E-03     233.465E-03    -118.191E-03     117.660E-03     117.305E+06     108.111E+06    -21.8998E+06    -21.8699E+06     108.081E+06     117.305E+06     1.18314E+06         50.7245
             668     12.4513E-03     39.4608E-03         1.58839         1.39703        -4.79716         1.39689        -4.79702         1.58839     58.6284E-03     241.763E-03    -118.180E-03    -123.583E-03    -114.082E-03     232.261E-03    -118.180E-03     115.380E-03     105.953E+06     96.2044E+06    -31.9364E+06    -31.9078E+06     100.046E+06     102.082E+06     91.2486E+03         50.2903
             669     11.5591E-03     39.3484E-03         1.58392         1.42441        -4.82423         1.42430        -4.82412         1.58392     51.5337E-03     237.505E-03    -117.992E-03    -119.513E-03    -113.772E-03     231.867E-03    -118.095E-03     88.2706E-03     87.9696E+06     64.4789E+06    -42.6546E+06    -42.6363E+06     87.9514E+06     64.4789E+06    -653.701E+03         49.7842
             670     10.6684E-03     39.2610E-03         1.58213         1.44950        -4.85025         1.44936        -4.85011         1.58213     57.3308E-03     235.668E-03    -117.381E-03    -118.286E-03    -114.470E-03     232.516E-03    -118.047E-03     65.4796E-03     57.1649E+06     29.7631E+06    -50.5705E+06    -50.5324E+06     57.1267E+06     29.7631E+06    -1.12836E+06         49.2190
             671     9.77885E-03     39.2014E-03         1.58265         1.47277        -4.87609         1.47262        -4.87594         1.58265     60.5137E-03     234.970E-03    -116.844E-03    -118.126E-03    -115.248E-03     233.374E-03    -118.126E-03     46.6513E-03     19.3586E+06    -19.7012E+06    -58.8171E+06    -55.6572E+06    -15.0795E+06     11.5770E+06    -1.08185E+06         48.6096
             672     8.88991E-03     39.1595E-03         1.58487         1.49448        -4.90175         1.49425        -4.90152         1.58487     72.2991E-03     235.099E-03    -116.865E-03    -118.234E-03    -115.993E-03     234.227E-03    -118.234E-03     34.7093E-03    -1.34050E+06    -60.8055E+06    -97.2409E+06    -60.8505E+06    -97.1959E+06    -1.34050E+06    -348.776E+03         47.9731
             673     8.00038E-03     39.1286E-03         1.58807         1.51533        -4.92664         1.51507        -4.92639         1.58807     78.7489E-03     235.313E-03    -117.018E-03    -118.296E-03    -116.527E-03     234.823E-03    -118.296E-03     25.8828E-03    -13.2486E+06    -66.0554E+06    -151.521E+06    -66.0611E+06    -151.516E+06    -13.2486E+06     61.2969E+03         47.3277
             674     7.11112E-03     39.1085E-03         1.59195         1.53436        -4.95040         1.53415        -4.95020         1.59195     71.5195E-03     235.561E-03    -117.213E-03    -118.348E-03    -116.978E-03     235.326E-03    -118.348E-03     17.8436E-03    -23.0419E+06    -71.7950E+06    -194.871E+06    -71.8041E+06    -194.861E+06    -23.0419E+06     772.284E+03         46.6920
             675     6.22249E-03     39.0958E-03         1.59631         1.55228        -4.97316         1.55202        -4.97290         1.59631     82.3174E-03     235.855E-03    -117.480E-03    -118.375E-03    -117.379E-03     235.754E-03    -118.375E-03     11.6248E-03    -32.9908E+06    -78.6925E+06    -227.757E+06    -78.7098E+06    -227.740E+06    -32.9908E+06     1.52714E+06         46.0842
             676     5.33382E-03     39.0887E-03         1.60076         1.56927        -4.99428         1.56905        -4.99407         1.60076     73.9374E-03     235.979E-03    -117.620E-03    -118.359E-03    -117.582E-03     235.941E-03    -118.359E-03     7.08764E-03    -44.6380E+06    -85.2563E+06    -242.902E+06    -85.2678E+06    -242.890E+06    -44.6380E+06     1.11445E+06         45.5210
             677     4.44426E-03     39.0866E-03         1.60507         1.58297        -5.01315         1.58289        -5.01306         1.60507     40.2788E-03     236.026E-03    -117.695E-03    -118.331E-03    -117.684E-03     236.015E-03    -118.331E-03     3.48478E-03    -59.2509E+06    -91.1172E+06    -253.691E+06    -91.1241E+06    -253.685E+06    -59.2509E+06     725.754E+03         45.0177
             678     3.55504E-03     39.0872E-03         1.60911         1.59524        -5.02926         1.59517        -5.02919         1.60911     36.6636E-03     236.179E-03    -117.878E-03    -118.301E-03    -117.876E-03     236.178E-03    -118.301E-03     637.470E-06    -75.3878E+06    -97.4744E+06    -264.110E+06    -97.4815E+06    -264.103E+06    -75.3878E+06     912.314E+03         44.5870
             679     2.66642E-03     39.0903E-03         1.61252         1.60580        -5.04275         1.60544        -5.04239         1.61252    -32.6239E-03     236.301E-03    -118.002E-03    -118.299E-03    -118.016E-03     236.300E-03    -118.284E-03    -882.402E-06    -88.1652E+06    -102.461E+06    -273.141E+06    -102.468E+06    -273.134E+06    -88.1652E+06     173.516E+03         44.2398
             680     1.77700E-03     39.0934E-03         1.61561         1.61257        -5.05434         1.61071        -5.05247         1.61561     82.5051E-03     236.346E-03    -117.985E-03    -118.361E-03    -118.048E-03     236.345E-03    -118.297E-03    -1.38563E-03    -99.2301E+06    -107.157E+06    -280.287E+06    -107.166E+06    -280.279E+06    -99.2301E+06    -338.501E+03         43.9838
             681     889.109E-06     39.0981E-03         2.31433     931.794E-03        -5.07048         2.30273        -5.05986     932.773E-03    -236.632E-03     236.560E-03    -117.997E-03    -118.563E-03    -118.394E-03     236.558E-03    -118.164E-03    -885.373E-06    -108.483E+06    -114.380E+06    -281.301E+06    -113.093E+06    -281.272E+06    -109.798E+06    -1.41057E+06         43.8232
             682     15.1167E-03     38.7045E-03         1.44222         1.28797        -4.56274         1.28795        -4.56272         1.44222     11.8733E-03     246.376E-03    -116.767E-03    -129.609E-03    -116.590E-03     234.671E-03    -118.081E-03     105.601E-03     119.166E+06     116.173E+06    -7.21967E+06    -7.21450E+06     119.161E+06     116.173E+06    -210.548E+03         51.3189
             683     14.2279E-03     38.4701E-03         1.43075         1.30754        -4.57583         1.30747        -4.57576         1.43075     39.0679E-03     249.922E-03    -118.147E-03    -131.775E-03    -116.711E-03     234.858E-03    -118.147E-03     143.591E-03     118.270E+06     113.908E+06    -15.3858E+06    -15.3646E+06     115.025E+06     117.132E+06    -822.848E+03         51.0529
             684     13.3398E-03     38.3513E-03         1.41627         1.32163        -4.57980         1.32152        -4.57968         1.41627     51.2676E-03     242.310E-03    -118.209E-03    -124.100E-03    -114.419E-03     232.629E-03    -118.209E-03     116.540E-03     116.351E+06     107.565E+06    -23.2841E+06    -23.2528E+06     107.534E+06     116.351E+06    -337.533E+03         50.7024
             685     12.4469E-03     38.1976E-03         1.40213         1.33086        -4.57842         1.33071        -4.57827         1.40213     59.6757E-03     241.763E-03    -118.248E-03    -123.515E-03    -113.814E-03     232.062E-03    -118.248E-03     116.512E-03     105.491E+06     97.4688E+06    -32.2792E+06    -32.2539E+06     99.9035E+06     103.031E+06     1.16260E+06         50.2724
             686     11.5579E-03     38.0817E-03         1.38994         1.33447        -4.57295         1.33556        -4.57283         1.38873     52.7446E-03     238.370E-03    -118.159E-03    -120.211E-03    -114.540E-03     232.698E-03    -118.159E-03     88.6403E-03     90.1779E+06     68.3809E+06    -41.0149E+06    -41.0031E+06     90.1660E+06     68.3809E+06     708.382E+03         49.7720
             687     10.6699E-03     37.9953E-03         1.38214         1.33525        -4.56784         1.33862        -4.56768         1.37861     58.5183E-03     236.185E-03    -117.557E-03    -118.627E-03    -115.023E-03     233.074E-03    -118.051E-03     65.1833E-03     58.7454E+06     32.1585E+06    -48.8476E+06    -48.8121E+06     58.7098E+06     32.1585E+06    -1.11774E+06         49.2134
             688     9.78026E-03     37.9361E-03         1.37623         1.33614        -4.56411         1.34073        -4.56394         1.37146     61.4373E-03     234.940E-03    -116.838E-03    -118.101E-03    -115.236E-03     233.337E-03    -118.101E-03     46.8146E-03     19.0294E+06    -20.1721E+06    -58.9595E+06    -55.9698E+06    -15.9120E+06     11.7796E+06    -1.42588E+06         48.6110
             689     8.89005E-03     37.8941E-03         1.37147         1.33787        -4.56206         1.34248        -4.56181         1.36661     73.0107E-03     234.875E-03    -116.656E-03    -118.219E-03    -115.775E-03     233.994E-03    -118.219E-03     34.8175E-03    -1.23144E+06    -62.1605E+06    -97.6489E+06    -62.2531E+06    -97.5564E+06    -1.23144E+06    -682.074E+03         47.9815
             690     8.00051E-03     37.8634E-03         1.36797         1.34048        -4.56129         1.34483        -4.56101         1.36334     79.0323E-03     235.112E-03    -116.812E-03    -118.300E-03    -116.326E-03     234.625E-03    -118.300E-03     25.8006E-03    -14.3400E+06    -68.7975E+06    -152.728E+06    -68.8050E+06    -152.721E+06    -14.3400E+06     74.4933E+03         47.3430
             691     7.11139E-03     37.8424E-03         1.36523         1.34334        -4.56170         1.34696        -4.56147         1.36138     72.2094E-03     235.532E-03    -117.178E-03    -118.354E-03    -116.936E-03     235.290E-03    -118.354E-03     18.1601E-03    -26.5416E+06    -75.7404E+06    -195.796E+06    -75.7529E+06    -195.784E+06    -26.5416E+06     900.445E+03         46.7140
             692     6.22226E-03     37.8301E-03         1.36376         1.34686        -4.56376         1.34977        -4.56348         1.36057     81.8061E-03     235.923E-03    -117.546E-03    -118.378E-03    -117.437E-03     235.814E-03    -118.378E-03     12.1076E-03    -35.8848E+06    -80.9263E+06    -226.453E+06    -80.9461E+06    -226.433E+06    -35.8848E+06     578.880E+03         46.1125
             693     5.33276E-03     37.8234E-03         1.36340         1.35100        -4.56677         1.35362        -4.56653         1.36053     74.1480E-03     236.070E-03    -117.719E-03    -118.351E-03    -117.678E-03     236.030E-03    -118.351E-03     7.18262E-03    -47.0707E+06    -85.7467E+06    -241.901E+06    -85.7641E+06    -241.884E+06    -47.0707E+06     397.399E+03         45.5551
             694     4.44425E-03     37.8209E-03         1.36285         1.35430        -4.57011         1.35596        -4.57000         1.36109     39.9963E-03     236.105E-03    -117.806E-03    -118.299E-03    -117.797E-03     236.095E-03    -118.299E-03     3.29373E-03    -62.9273E+06    -92.5178E+06    -253.573E+06    -92.5332E+06    -253.558E+06    -62.9273E+06     1.33002E+06         45.0567
             695     3.55561E-03     37.8218E-03         1.36339         1.35787        -4.57372         1.35910        -4.57363         1.36206     37.8828E-03     236.133E-03    -117.874E-03    -118.259E-03    -117.873E-03     236.132E-03    -118.259E-03     649.752E-06    -77.5329E+06    -98.5816E+06    -263.339E+06    -98.5989E+06    -263.322E+06    -77.5329E+06     756.261E+03         44.6302
             696     2.66653E-03     37.8245E-03         1.36424         1.36135        -4.57770         1.36200        -4.57725         1.36314    -33.0658E-03     236.026E-03    -117.729E-03    -118.297E-03    -117.728E-03     236.025E-03    -118.297E-03    -1.02894E-03    -88.3498E+06    -103.361E+06    -272.257E+06    -103.377E+06    -272.241E+06    -88.3498E+06    -66.1864E+03         44.2861
             697     1.77763E-03     37.8289E-03         1.36514         1.36368        -4.58196         1.36177        -4.57967         1.36477     85.5138E-03     236.287E-03    -117.821E-03    -118.465E-03    -117.820E-03     236.285E-03    -118.465E-03    -1.08790E-03    -97.5310E+06    -107.767E+06    -280.038E+06    -107.778E+06    -280.028E+06    -97.5310E+06     268.651E+03         44.0324
             698     887.389E-06     37.8312E-03         2.05741     689.051E-03        -4.59381         2.04419        -4.58111     689.579E-03    -245.665E-03     237.084E-03    -117.849E-03    -119.234E-03    -118.979E-03     237.081E-03    -118.102E-03    -1.05109E-03    -106.842E+06    -112.263E+06    -280.695E+06    -110.901E+06    -280.672E+06    -108.226E+06    -347.976E+03         43.8734
             699     15.1205E-03     37.4365E-03         1.32682         1.24449        -4.44308         1.29016        -4.44306         1.28112     11.6607E-03     247.464E-03    -117.592E-03    -129.872E-03    -117.771E-03     235.831E-03    -118.060E-03     105.711E-03     121.373E+06     118.512E+06    -5.93093E+06    -5.92751E+06     121.370E+06     118.512E+06     334.417E+03         51.2911
             700     14.2320E-03     37.2056E-03         1.31063         1.23543        -4.41943         1.28594        -4.41936         1.26005     37.1022E-03     249.067E-03    -118.108E-03    -130.959E-03    -115.898E-03     234.006E-03    -118.108E-03     143.618E-03     118.909E+06     114.042E+06    -15.0565E+06    -15.0215E+06     115.409E+06     117.507E+06     328.419E+03         51.0270
             701     13.3377E-03     37.0888E-03         1.29092         1.22288        -4.39041         1.27734        -4.39029         1.23635     50.1589E-03     241.425E-03    -118.216E-03    -123.209E-03    -113.606E-03     231.822E-03    -118.216E-03     115.999E-03     114.139E+06     105.597E+06    -25.5467E+06    -25.5059E+06     105.556E+06     114.139E+06    -753.107E+03         50.6794
             702     12.4482E-03     36.9325E-03         1.26861         1.20795        -4.35545         1.26319        -4.35530         1.21322     58.8261E-03     242.122E-03    -118.266E-03    -123.856E-03    -114.365E-03     232.631E-03    -118.266E-03     115.437E-03     104.234E+06     97.2993E+06    -34.5458E+06    -34.4842E+06     99.0957E+06     102.376E+06    -1.46859E+06         50.2538
             703     11.5585E-03     36.8140E-03         1.24636         1.19038        -4.31762         1.24541        -4.31749         1.19120     51.7971E-03     238.275E-03    -118.138E-03    -120.137E-03    -114.556E-03     232.715E-03    -118.159E-03     87.7317E-03     90.5245E+06     69.6166E+06    -41.7489E+06    -41.6952E+06     90.4708E+06     69.6166E+06    -755.717E+03         49.7589
             704     10.6687E-03     36.7291E-03         1.22676         1.17310        -4.28164         1.22660        -4.28148         1.17310     57.3318E-03     235.943E-03    -117.552E-03    -118.391E-03    -114.828E-03     232.883E-03    -118.055E-03     64.7060E-03     59.9032E+06     33.5351E+06    -48.3003E+06    -48.2991E+06     59.9019E+06     33.5351E+06     19.9696E+03         49.2063
             705     9.77918E-03     36.6708E-03         1.20794         1.15854        -4.24878         1.20776        -4.24861         1.15854     59.8877E-03     234.984E-03    -116.877E-03    -118.107E-03    -115.264E-03     233.371E-03    -118.107E-03     46.9757E-03     19.3501E+06    -19.4681E+06    -59.0372E+06    -55.3949E+06    -15.7922E+06     12.0319E+06    -316.905E+03         48.6105
             706     8.89010E-03     36.6289E-03         1.18995         1.14676        -4.21927         1.18969        -4.21901         1.14676     71.3309E-03     234.890E-03    -116.666E-03    -118.224E-03    -115.773E-03     233.997E-03    -118.224E-03     35.0724E-03    -1.55431E+06    -62.0055E+06    -98.5054E+06    -62.0825E+06    -98.4284E+06    -1.55431E+06    -243.822E+03         47.9878
             707     8.00058E-03     36.5982E-03         1.17390         1.13711        -4.19305         1.17360        -4.19276         1.13711     76.9743E-03     235.124E-03    -116.816E-03    -118.308E-03    -116.318E-03     234.626E-03    -118.308E-03     26.1011E-03    -14.2896E+06    -68.3638E+06    -153.897E+06    -68.3705E+06    -153.890E+06    -14.2896E+06     624.316E+03         47.3562
             708     7.11072E-03     36.5773E-03         1.15911         1.12933        -4.17020         1.15886        -4.16995         1.12933     70.8313E-03     235.517E-03    -117.158E-03    -118.358E-03    -116.916E-03     235.274E-03    -118.358E-03     18.1172E-03    -27.0064E+06    -73.7828E+06    -195.132E+06    -73.7891E+06    -195.125E+06    -27.0064E+06     575.021E+03         46.7339
             709     6.22156E-03     36.5641E-03         1.14668         1.12333        -4.15122         1.14638        -4.15092         1.12333     79.7097E-03     235.938E-03    -117.562E-03    -118.376E-03    -117.458E-03     235.835E-03    -118.376E-03     11.7676E-03    -38.1089E+06    -79.9892E+06    -225.441E+06    -79.9998E+06    -225.431E+06    -38.1089E+06    -62.1439E+03         46.1386
             710     5.33366E-03     36.5573E-03         1.13697         1.11881        -4.13592         1.13672        -4.13567         1.11881     73.1944E-03     236.201E-03    -117.855E-03    -118.346E-03    -117.818E-03     236.164E-03    -118.346E-03     6.87316E-03    -48.8217E+06    -87.2895E+06    -242.281E+06    -87.3059E+06    -242.265E+06    -48.8217E+06     158.945E+03         45.5868
             711     4.44458E-03     36.5554E-03         1.12791         1.11560        -4.12386         1.12779        -4.12374         1.11560     38.9607E-03     236.157E-03    -117.877E-03    -118.280E-03    -117.869E-03     236.149E-03    -118.280E-03     3.15003E-03    -62.4966E+06    -92.6843E+06    -252.840E+06    -92.7004E+06    -252.824E+06    -62.4966E+06     354.381E+03         45.0933
             712     3.55540E-03     36.5563E-03         1.12182         1.11349        -4.11464         1.12170        -4.11453         1.11349     38.4685E-03     235.971E-03    -117.717E-03    -118.254E-03    -117.716E-03     235.970E-03    -118.254E-03     628.509E-06    -75.7351E+06    -97.2018E+06    -262.404E+06    -97.2348E+06    -262.371E+06    -75.7351E+06     492.772E+03         44.6708
             713     2.66635E-03     36.5595E-03         1.11770         1.11218        -4.10844         1.11714        -4.10787         1.11218    -33.2780E-03     236.048E-03    -117.735E-03    -118.313E-03    -117.735E-03     236.046E-03    -118.312E-03    -1.11452E-03    -87.0491E+06    -103.293E+06    -272.178E+06    -103.322E+06    -272.149E+06    -87.0491E+06     679.502E+03         44.3299
             714     1.77637E-03     36.5643E-03         1.11528         1.11181        -4.10593         1.11245        -4.10310         1.11181     89.1076E-03     236.507E-03    -118.026E-03    -118.481E-03    -118.147E-03     236.505E-03    -118.358E-03    -982.340E-06    -98.7697E+06    -109.510E+06    -278.989E+06    -109.517E+06    -278.982E+06    -98.7697E+06     206.984E+03         44.0786
             715     889.275E-06     36.5628E-03         1.78283     457.953E-03        -4.11574         1.76750        -4.10041     457.953E-03    -253.253E-03     236.651E-03    -117.740E-03    -118.911E-03    -118.822E-03     236.648E-03    -117.826E-03    -1.19384E-03    -108.801E+06    -113.518E+06    -281.520E+06    -112.828E+06    -281.510E+06    -109.501E+06    -294.026E+03         43.9210
             716     15.1190E-03     36.1638E-03         1.29317         1.12050        -4.32020         1.29315        -4.32018         1.12050     11.7189E-03     246.664E-03    -117.262E-03    -129.402E-03    -116.773E-03     234.848E-03    -118.075E-03     107.469E-03     119.943E+06     116.915E+06    -7.79289E+06    -7.78858E+06     119.939E+06     116.915E+06    -225.510E+03         51.2619
             717     14.2280E-03     35.9458E-03         1.26571         1.09039        -4.26455         1.26565        -4.26449         1.09039     34.9149E-03     249.535E-03    -118.150E-03    -131.385E-03    -116.184E-03     234.334E-03    -118.150E-03     144.237E-03     119.299E+06     114.359E+06    -14.8379E+06    -14.8186E+06     115.831E+06     117.808E+06     706.815E+03         50.9995
             718     13.3387E-03     35.8224E-03         1.23321         1.05800        -4.20141         1.23311        -4.20130         1.05800     48.3132E-03     242.710E-03    -118.219E-03    -124.491E-03    -114.840E-03     233.059E-03    -118.219E-03     116.678E-03     117.553E+06     108.506E+06    -22.5420E+06    -22.5196E+06     108.483E+06     117.553E+06     529.618E+03         50.6553
             719     12.4494E-03     35.6666E-03         1.19624         1.02649        -4.13401         1.19609        -4.13386         1.02649     56.2750E-03     242.368E-03    -118.208E-03    -124.160E-03    -114.636E-03     232.844E-03    -118.208E-03     115.716E-03     106.573E+06     97.9461E+06    -32.6529E+06    -32.5985E+06     100.921E+06     103.544E+06    -1.23054E+06         50.2342
             720     11.5595E-03     35.5488E-03         1.15628     996.608E-03        -4.06508         1.15616        -4.06496     996.608E-03     48.9527E-03     237.674E-03    -117.982E-03    -119.691E-03    -114.012E-03     232.112E-03    -118.100E-03     87.6215E-03     89.6674E+06     67.3085E+06    -43.1569E+06    -43.0787E+06     89.5892E+06     67.3085E+06    -1.99393E+06         49.7443
             721     10.6693E-03     35.4639E-03         1.11627     971.023E-03        -3.99945         1.11611        -3.99930     971.023E-03     54.0400E-03     235.425E-03    -117.383E-03    -118.042E-03    -114.321E-03     232.363E-03    -118.042E-03     64.6075E-03     58.7091E+06     32.1563E+06    -50.2369E+06    -50.1967E+06     58.6688E+06     32.1563E+06    -1.29288E+06         49.1973
             722     9.77969E-03     35.4046E-03         1.07726     949.370E-03        -3.93845         1.07709        -3.93828     949.370E-03     56.0946E-03     234.969E-03    -116.851E-03    -118.118E-03    -115.264E-03     233.382E-03    -118.118E-03     46.5092E-03     19.1701E+06    -19.2900E+06    -59.6361E+06    -55.5432E+06    -16.1599E+06     11.9472E+06    -239.745E+03         48.6077
             723     8.88975E-03     35.3641E-03         1.04028     930.978E-03        -3.88254         1.04002        -3.88228     930.978E-03     67.3845E-03     235.002E-03    -116.771E-03    -118.231E-03    -115.905E-03     234.136E-03    -118.231E-03     34.5979E-03    -992.040E+03    -61.6212E+06    -99.0388E+06    -61.6343E+06    -99.0256E+06    -992.040E+03     382.238E+03         47.9918
             724     8.00003E-03     35.3327E-03         1.00638     915.149E-03        -3.83168         1.00609        -3.83139     915.149E-03     72.6885E-03     235.323E-03    -117.025E-03    -118.297E-03    -116.538E-03     234.835E-03    -118.297E-03     25.7843E-03    -12.8064E+06    -67.3208E+06    -153.256E+06    -67.3268E+06    -153.250E+06    -12.8064E+06      258.17E+03         47.3669
             725     7.11159E-03     35.3115E-03     975.160E-03     901.715E-03        -3.78618     974.910E-03        -3.78593     901.715E-03     67.3907E-03     235.628E-03    -117.306E-03    -118.322E-03    -117.077E-03     235.399E-03    -118.322E-03     17.6169E-03    -25.7269E+06    -73.5935E+06    -194.398E+06    -73.5969E+06    -194.395E+06    -25.7269E+06     2.26083E+03         46.7511
             726     6.22270E-03     35.2985E-03     947.865E-03     890.629E-03        -3.74670     947.557E-03        -3.74640     890.629E-03     75.8841E-03     235.771E-03    -117.438E-03    -118.332E-03    -117.341E-03     235.673E-03    -118.332E-03     11.4482E-03    -37.2018E+06    -80.2146E+06    -225.980E+06    -80.2189E+06    -225.976E+06    -37.2018E+06     488.415E+03         46.1619
             727     5.33281E-03     35.2913E-03     924.783E-03     881.644E-03        -3.71326     924.514E-03        -3.71299     881.644E-03     70.4809E-03     235.908E-03    -117.590E-03    -118.318E-03    -117.555E-03     235.873E-03    -118.318E-03     6.72209E-03    -49.1006E+06    -86.2361E+06    -241.935E+06    -86.2415E+06    -241.930E+06    -49.1006E+06     405.630E+03         45.6155
             728     4.44447E-03     35.2896E-03     904.584E-03     874.634E-03        -3.68570     904.449E-03        -3.68556     874.634E-03     36.6951E-03     235.991E-03    -117.696E-03    -118.295E-03    -117.687E-03     235.982E-03    -118.295E-03     3.20447E-03    -62.6892E+06    -92.9681E+06    -252.951E+06    -92.9872E+06    -252.932E+06    -62.6892E+06     295.514E+03         45.1267
             729     3.55567E-03     35.2913E-03     889.146E-03     869.378E-03        -3.66371     888.995E-03        -3.66356     869.378E-03     38.3511E-03     236.061E-03    -117.777E-03    -118.284E-03    -117.776E-03     236.060E-03    -118.284E-03     689.132E-06    -76.5618E+06    -99.6391E+06    -262.666E+06    -99.6753E+06    -262.629E+06    -76.5618E+06     1.04096E+06         44.7081
             730     2.66599E-03     35.2948E-03     877.625E-03     865.538E-03        -3.64749     876.910E-03        -3.64678     865.538E-03    -34.1637E-03     236.407E-03    -118.016E-03    -118.391E-03    -118.170E-03     236.406E-03    -118.236E-03    -955.918E-06    -90.2054E+06    -104.438E+06    -270.621E+06    -104.460E+06    -270.599E+06    -90.2054E+06     823.108E+03         44.3703
             731     1.77873E-03     35.2969E-03     871.055E-03     863.031E-03        -3.63859     867.626E-03        -3.63516     863.031E-03     89.0691E-03     236.440E-03    -118.075E-03    -118.366E-03    -118.350E-03     236.439E-03    -118.089E-03    -1.05643E-03    -100.693E+06    -107.992E+06    -277.133E+06    -107.996E+06    -277.129E+06    -100.693E+06    -55.1469E+03         44.1213
             732     889.003E-06     35.2987E-03         1.50127     241.021E-03        -3.64717         1.48300        -3.62891     241.021E-03    -260.116E-03     235.918E-03    -117.652E-03    -118.265E-03    -117.855E-03     235.917E-03    -118.062E-03    -1.00699E-03    -108.518E+06    -113.334E+06    -281.251E+06    -112.712E+06    -281.242E+06    -109.150E+06    -588.287E+03         43.9650
             733     15.1175E-03     34.9071E-03         1.29478     964.409E-03        -4.19972         1.29475        -4.19969     964.409E-03     11.4927E-03     246.174E-03    -116.746E-03    -129.428E-03    -116.297E-03     234.396E-03    -118.099E-03     106.490E-03     119.780E+06     116.479E+06    -7.90814E+06    -7.90270E+06     119.775E+06     116.479E+06     65.1345E+03         51.2311
             734     14.2269E-03     34.6729E-03         1.24459     925.901E-03        -4.11211         1.24453        -4.11205     925.901E-03     35.4769E-03     249.806E-03    -118.176E-03    -131.629E-03    -116.649E-03     234.825E-03    -118.176E-03     142.814E-03     118.725E+06     114.465E+06    -15.8413E+06    -15.8158E+06     115.631E+06     117.534E+06    -1.07183E+06         50.9704
             735     13.3398E-03     34.5591E-03         1.18948     885.648E-03        -4.01722         1.18938        -4.01712     885.648E-03     45.5495E-03     243.180E-03    -118.210E-03    -124.970E-03    -115.351E-03     233.561E-03    -118.210E-03     116.320E-03     117.355E+06     108.579E+06    -23.6209E+06    -23.5902E+06     108.549E+06     117.355E+06    -1.08722E+06         50.6291
             736     12.4494E-03     34.3990E-03         1.13090     846.762E-03        -3.91961         1.13076        -3.91947     846.762E-03     52.7252E-03     242.487E-03    -118.185E-03    -124.302E-03    -114.649E-03     232.835E-03    -118.185E-03     116.362E-03     107.346E+06     99.1680E+06    -32.2124E+06    -32.2028E+06     101.631E+06     104.874E+06     151.709E+03         50.2121
             737     11.5598E-03     34.2850E-03         1.07019     809.896E-03        -3.82182         1.07008        -3.82171     809.896E-03     44.3809E-03     237.619E-03    -117.974E-03    -119.645E-03    -114.017E-03     232.088E-03    -118.071E-03     87.4543E-03     91.3582E+06     68.4338E+06    -41.2245E+06    -41.1918E+06     91.3254E+06     68.4338E+06    -580.165E+03         49.7271
             738     10.6690E-03     34.1988E-03         1.01020     777.533E-03        -3.72850         1.01006        -3.72836     777.533E-03     49.0480E-03     235.377E-03    -117.277E-03    -118.100E-03    -114.285E-03     232.291E-03    -118.006E-03     64.8179E-03     57.6375E+06     30.8108E+06    -50.1295E+06    -50.0830E+06     57.5909E+06     30.8108E+06    -1.79594E+06         49.1858
             739     9.77914E-03     34.1388E-03     952.111E-03     749.326E-03        -3.64108     951.964E-03        -3.64093     749.326E-03     50.5336E-03     234.825E-03    -116.734E-03    -118.091E-03    -115.167E-03     233.258E-03    -118.091E-03     46.1278E-03     17.4406E+06    -20.6292E+06    -60.5585E+06    -56.7633E+06    -18.0499E+06     11.0661E+06    -919.426E+03         48.6023
             740     8.89021E-03     34.0988E-03     897.395E-03     724.753E-03        -3.56044     897.148E-03        -3.56019     724.753E-03     61.5140E-03     235.106E-03    -116.910E-03    -118.196E-03    -116.063E-03     234.259E-03    -118.196E-03     34.2710E-03    -1.40603E+06    -62.4459E+06    -98.9946E+06    -62.4830E+06    -98.9575E+06    -1.40603E+06    -151.885E+03         47.9927
             741     8.00143E-03     34.0667E-03     846.732E-03     703.144E-03        -3.48644     846.458E-03        -3.48616     703.144E-03     66.4533E-03     235.374E-03    -117.129E-03    -118.245E-03    -116.643E-03     234.888E-03    -118.245E-03     25.7450E-03    -13.1599E+06    -68.9336E+06    -153.249E+06    -68.9515E+06    -153.231E+06    -13.1599E+06     232.247E+03         47.3743
             742     7.11190E-03     34.0458E-03     800.004E-03     684.387E-03        -3.41955     799.763E-03        -3.41930     684.387E-03     61.8534E-03     235.477E-03    -117.214E-03    -118.263E-03    -116.983E-03     235.246E-03    -118.263E-03     17.7296E-03    -25.5073E+06    -75.3031E+06    -193.644E+06    -75.3165E+06    -193.630E+06    -25.5073E+06     583.104E+03         46.7647
             743     6.22267E-03     34.0331E-03     758.719E-03     668.470E-03        -3.36071     758.418E-03        -3.36041     668.470E-03     70.1909E-03     235.594E-03    -117.324E-03    -118.271E-03    -117.222E-03     235.493E-03    -118.271E-03     11.6448E-03    -38.5575E+06    -81.7814E+06    -225.001E+06    -81.7832E+06    -224.999E+06    -38.5575E+06     240.753E+03         46.1813
             744     5.33416E-03     34.0262E-03     722.843E-03     655.188E-03        -3.30987     722.573E-03        -3.30960     655.188E-03     65.9182E-03     235.549E-03    -117.272E-03    -118.277E-03    -117.237E-03     235.514E-03    -118.277E-03     6.63220E-03    -52.5080E+06    -88.7616E+06    -242.306E+06    -88.7677E+06    -242.300E+06    -52.5080E+06     535.909E+03         45.6401
             745     4.44399E-03     34.0244E-03     691.790E-03     644.421E-03        -3.26715     691.644E-03        -3.26700     644.421E-03     32.3801E-03     235.739E-03    -117.428E-03    -118.311E-03    -117.420E-03     235.731E-03    -118.311E-03     3.13250E-03    -65.1288E+06    -94.6203E+06    -253.784E+06    -94.6398E+06    -253.765E+06    -65.1288E+06     1.43206E+06         45.1557
             746     3.55461E-03     34.0259E-03     666.940E-03     635.966E-03        -3.23266     666.755E-03        -3.23247     635.966E-03     36.0506E-03     236.357E-03    -117.958E-03    -118.399E-03    -118.060E-03     236.356E-03    -118.296E-03     805.108E-06    -78.0927E+06    -99.3775E+06    -261.716E+06    -99.3921E+06    -261.702E+06    -78.0927E+06     785.921E+03         44.7409
             747     2.66703E-03     34.0283E-03     648.208E-03     629.605E-03        -3.20664     647.294E-03        -3.20572     629.605E-03    -36.7419E-03     236.516E-03    -118.080E-03    -118.436E-03    -118.337E-03     236.515E-03    -118.178E-03    -700.785E-06    -91.5574E+06    -103.978E+06    -268.480E+06    -103.982E+06    -268.476E+06    -91.5574E+06     66.8618E+03         44.4062
             748     1.77765E-03     34.0313E-03     636.572E-03     625.495E-03        -3.19078     632.346E-03        -3.18655     625.495E-03     88.0169E-03     236.163E-03    -117.942E-03    -118.222E-03    -118.095E-03     236.163E-03    -118.068E-03    -809.403E-06    -100.225E+06    -107.614E+06    -277.234E+06    -107.618E+06    -277.229E+06    -100.225E+06     44.9216E+03         44.1592
             749     889.181E-06     34.0350E-03         1.23219     38.3999E-03        -3.19658         1.21035        -3.17474     38.3999E-03    -264.417E-03     235.997E-03    -117.508E-03    -118.489E-03    -118.058E-03     235.996E-03    -117.938E-03    -1.02865E-03    -106.406E+06    -112.407E+06    -280.617E+06    -111.019E+06    -280.615E+06    -107.795E+06     46.1583E+03         44.0041
             750     15.1196E-03     33.6404E-03         1.29531     816.630E-03        -4.08674         1.29529        -4.08672     816.630E-03     10.5109E-03     247.215E-03    -117.470E-03    -129.744E-03    -117.437E-03     235.507E-03    -118.070E-03     105.775E-03     121.773E+06     119.211E+06    -6.23662E+06    -6.23217E+06     121.769E+06     119.211E+06     610.921E+03         51.1983
             751     14.2306E-03     33.4096E-03         1.22318     770.855E-03        -3.96665         1.22312        -3.96659     770.855E-03     33.0680E-03     249.408E-03    -118.118E-03    -131.290E-03    -116.333E-03     234.451E-03    -118.118E-03     142.735E-03     120.006E+06     115.509E+06    -14.8345E+06    -14.8102E+06     116.407E+06     119.084E+06    -856.396E+03         50.9391
             752     13.3380E-03     33.2915E-03         1.14778     723.834E-03        -3.84325         1.14769        -3.84316     723.834E-03     41.8258E-03     242.423E-03    -118.172E-03    -124.251E-03    -114.708E-03     232.879E-03    -118.172E-03     115.729E-03     116.085E+06     107.348E+06    -24.9322E+06    -24.8986E+06     107.315E+06     116.085E+06    -1.80110E+06         50.6004
             753     12.4496E-03     33.1339E-03         1.06916     678.589E-03        -3.71795         1.06904        -3.71783     678.589E-03     47.7699E-03     242.245E-03    -118.168E-03    -124.077E-03    -114.556E-03     232.724E-03    -118.168E-03     115.528E-03     105.936E+06     98.2723E+06    -34.1920E+06    -34.1418E+06     100.724E+06     103.434E+06    -1.80684E+06         50.1869
             754     11.5594E-03     33.0192E-03     989.409E-03     635.696E-03        -3.59395     989.322E-03        -3.59387     635.696E-03     38.6010E-03     237.688E-03    -118.053E-03    -119.634E-03    -114.142E-03     232.196E-03    -118.053E-03     87.1819E-03     91.2028E+06     68.6032E+06    -42.0644E+06    -42.0231E+06     91.1615E+06     68.6032E+06    -811.236E+03         49.7065
             755     10.6706E-03     32.9337E-03     911.192E-03     597.414E-03        -3.47554     911.075E-03        -3.47542     597.414E-03     42.6138E-03     235.593E-03    -117.371E-03    -118.223E-03    -114.545E-03     232.515E-03    -117.971E-03     64.7745E-03     58.4363E+06     31.8180E+06    -49.4258E+06    -49.4143E+06     58.4249E+06     31.8180E+06     91.1524E+03         49.1706
             756     9.78058E-03     32.8740E-03     835.710E-03     563.439E-03        -3.36423     835.589E-03        -3.36411     563.439E-03     43.2886E-03     234.706E-03    -116.664E-03    -118.041E-03    -115.093E-03     233.134E-03    -118.041E-03     46.2496E-03     17.2336E+06    -20.9164E+06    -61.1142E+06    -57.0208E+06    -18.4893E+06     10.7131E+06    -650.616E+03         48.5930
             757     8.89059E-03     32.8327E-03     764.654E-03     533.309E-03        -3.26100     764.434E-03        -3.26078     533.309E-03     53.9176E-03     234.960E-03    -116.815E-03    -118.146E-03    -115.946E-03     234.092E-03    -118.146E-03     34.6800E-03    -3.12071E+06    -63.1919E+06    -99.7212E+06    -63.2753E+06    -99.6378E+06    -3.12071E+06    -890.605E+03         47.9894
             758     8.00123E-03     32.8012E-03     698.643E-03     506.484E-03        -3.16585     698.397E-03        -3.16561     506.484E-03     58.8259E-03     235.299E-03    -117.095E-03    -118.204E-03    -116.598E-03     234.803E-03    -118.204E-03     25.9969E-03    -13.8512E+06    -68.9476E+06    -154.599E+06    -68.9637E+06    -154.583E+06    -13.8512E+06    -41.0120E+03         47.3771
             759     7.11216E-03     32.7807E-03     637.711E-03     482.912E-03        -3.07932     637.491E-03        -3.07910     482.912E-03     54.7403E-03     235.355E-03    -117.125E-03    -118.230E-03    -116.893E-03     235.122E-03    -118.230E-03     17.7726E-03    -25.3356E+06    -74.9384E+06    -193.541E+06    -74.9636E+06    -193.516E+06    -25.3356E+06     1.11997E+06         46.7734
             760     6.22301E-03     32.7675E-03     583.427E-03     462.583E-03        -3.00258     583.152E-03        -3.00230     462.583E-03     62.4654E-03     235.400E-03    -117.156E-03    -118.244E-03    -117.055E-03     235.299E-03    -118.244E-03     11.6381E-03    -39.5344E+06    -81.6593E+06    -223.958E+06    -81.6990E+06    -223.919E+06    -39.5344E+06     1.72692E+06         46.1954
             761     5.33327E-03     32.7613E-03     535.801E-03     445.341E-03        -2.93604     535.547E-03        -2.93578     445.341E-03     59.1338E-03     235.590E-03    -117.324E-03    -118.265E-03    -117.289E-03     235.554E-03    -118.265E-03     6.69691E-03    -52.1265E+06    -88.9688E+06    -242.405E+06    -89.0002E+06    -242.374E+06    -52.1265E+06     1.35241E+06         45.6592
             762     4.44426E-03     32.7601E-03     494.734E-03     431.062E-03        -2.87944     494.582E-03        -2.87929     431.062E-03     26.1052E-03     235.902E-03    -117.637E-03    -118.265E-03    -117.630E-03     235.894E-03    -118.265E-03     2.99646E-03    -64.8231E+06    -94.8267E+06    -252.111E+06    -94.8430E+06    -252.094E+06    -64.8231E+06    -107.456E+03         45.1792
             763     3.55554E-03     32.7592E-03     461.050E-03     419.601E-03        -2.83271     460.827E-03        -2.83249     419.601E-03     31.9157E-03     236.089E-03    -117.749E-03    -118.340E-03    -117.851E-03     236.088E-03    -118.237E-03     677.263E-06    -79.1402E+06    -98.9109E+06    -260.936E+06    -98.9225E+06    -260.924E+06    -79.1402E+06    -564.277E+03         44.7681
             764     2.66652E-03     32.7622E-03     435.637E-03     410.899E-03        -2.79708     434.461E-03        -2.79590     410.899E-03    -40.4275E-03     236.199E-03    -117.867E-03    -118.332E-03    -117.978E-03     236.199E-03    -118.221E-03    -820.941E-06    -89.6885E+06    -103.259E+06    -267.987E+06    -103.261E+06    -267.985E+06    -89.6885E+06    -3.81101E+03         44.4361
             765     1.77770E-03     32.7673E-03     419.881E-03     405.154E-03        -2.77525     414.592E-03        -2.76996     405.154E-03     87.0918E-03     236.385E-03    -118.059E-03    -118.326E-03    -118.213E-03     236.384E-03    -118.170E-03    -1.02444E-03    -98.3706E+06    -108.190E+06    -277.224E+06    -108.192E+06    -277.221E+06    -98.3706E+06     124.168E+03         44.1911
             766     888.483E-06     32.7676E-03     976.433E-03    -142.411E-03        -2.78029     949.954E-03        -2.75381    -142.411E-03    -269.176E-03     236.165E-03    -117.635E-03    -118.530E-03    -118.505E-03     236.161E-03    -117.656E-03    -1.68508E-03    -107.278E+06    -112.741E+06    -280.649E+06    -111.357E+06    -280.644E+06    -108.667E+06     546.072E+03         44.0373
             767     15.1200E-03     32.3715E-03         1.29646     681.066E-03        -3.98130         1.29644        -3.98128     681.066E-03     10.4464E-03     247.268E-03    -117.572E-03    -129.696E-03    -117.559E-03     235.597E-03    -118.038E-03     106.385E-03     121.934E+06     118.962E+06    -6.79761E+06    -6.79096E+06     121.927E+06     118.962E+06    -229.547E+03         51.1622
             768     14.2296E-03     32.1466E-03         1.20446     629.278E-03        -3.83436         1.20441        -3.83432     629.278E-03     28.8551E-03     249.599E-03    -118.079E-03    -131.520E-03    -116.506E-03     234.585E-03    -118.079E-03     143.397E-03     121.900E+06     116.549E+06    -13.5472E+06    -13.5454E+06     117.701E+06     120.747E+06     83.5427E+03         50.9044
             769     13.3412E-03     32.0256E-03         1.10991     576.745E-03        -3.68462         1.10984        -3.68455     576.745E-03     36.5623E-03     242.319E-03    -118.133E-03    -124.186E-03    -114.537E-03     232.669E-03    -118.133E-03     116.451E-03     118.155E+06     108.982E+06    -23.0767E+06    -23.0715E+06     108.976E+06     118.155E+06    -236.861E+03         50.5680
             770     12.4501E-03     31.8689E-03         1.01335     526.255E-03        -3.53496         1.01325        -3.53486     526.255E-03     41.3922E-03     241.890E-03    -118.132E-03    -123.758E-03    -114.234E-03     232.366E-03    -118.132E-03     115.457E-03     106.118E+06     97.1994E+06    -34.2150E+06    -34.1713E+06     101.098E+06     102.175E+06    -1.38737E+06         50.1578
             771     11.5602E-03     31.7540E-03     916.324E-03     478.375E-03        -3.38773     916.260E-03        -3.38767     478.375E-03     31.5395E-03     237.644E-03    -118.031E-03    -119.614E-03    -114.069E-03     232.100E-03    -118.031E-03     87.6087E-03     89.2521E+06     65.6353E+06    -44.9688E+06    -44.9129E+06     89.1962E+06     65.6353E+06    -1.65151E+06         49.6816
             772     10.6698E-03     31.6677E-03     821.725E-03     435.135E-03        -3.24721     821.637E-03        -3.24712     435.135E-03     34.8381E-03     235.668E-03    -117.483E-03    -118.184E-03    -114.592E-03     232.549E-03    -117.956E-03     65.1996E-03     57.6505E+06     30.8883E+06    -51.9438E+06    -51.9157E+06     57.6224E+06     30.8883E+06    -695.631E+03         49.1506
             773     9.78036E-03     31.6092E-03     730.874E-03     396.299E-03        -3.11481     730.784E-03        -3.11472     396.299E-03     34.8212E-03     234.872E-03    -116.858E-03    -118.014E-03    -115.260E-03     233.275E-03    -118.014E-03     46.6884E-03     17.8146E+06    -21.0840E+06     -60.674E+06    -57.6393E+06    -17.0312E+06     10.7271E+06    -451.533E+03         48.5785
             774     8.89080E-03     31.5676E-03     645.226E-03     361.438E-03        -2.99136     645.043E-03        -2.99118     361.438E-03     44.9011E-03     234.899E-03    -116.787E-03    -118.112E-03    -115.909E-03     234.021E-03    -118.112E-03     34.8262E-03    -3.36069E+06     -63.931E+06    -99.7015E+06    -63.9967E+06    -99.6358E+06    -3.36069E+06    -739.453E+03         47.9806
             775     8.00145E-03     31.5356E-03     565.403E-03     330.130E-03        -2.87746     565.202E-03        -2.87726     330.130E-03     49.4500E-03     235.135E-03    -116.960E-03    -118.175E-03    -116.471E-03     234.647E-03    -118.175E-03     25.7815E-03    -14.6303E+06    -69.9767E+06    -155.559E+06    -69.9871E+06    -155.549E+06    -14.6303E+06    -480.770E+03         47.3739
             776     7.11239E-03     31.5151E-03     491.784E-03     302.404E-03        -2.77389     491.601E-03        -2.77371     302.404E-03     45.8358E-03     235.280E-03    -117.063E-03    -118.218E-03    -116.834E-03     235.052E-03    -118.218E-03     17.6196E-03    -25.0109E+06    -76.8129E+06    -196.100E+06    -76.8282E+06    -196.084E+06    -25.0109E+06     698.631E+03         46.7758
             777     6.22290E-03     31.5029E-03     425.933E-03     278.266E-03        -2.68155     425.702E-03        -2.68132     278.266E-03     53.0037E-03     235.376E-03    -117.127E-03    -118.249E-03    -117.030E-03     235.279E-03    -118.249E-03     11.3689E-03    -35.4416E+06    -82.5771E+06    -224.454E+06    -82.6197E+06    -224.411E+06    -35.4416E+06     2.13031E+06         46.2030
             778     5.33356E-03     31.4964E-03     367.929E-03     257.564E-03        -2.60069     367.709E-03        -2.60047     257.564E-03     50.5909E-03     235.745E-03    -117.509E-03    -118.236E-03    -117.475E-03     235.711E-03    -118.236E-03     6.65407E-03    -49.1400E+06    -87.7731E+06    -239.055E+06    -87.8030E+06    -239.025E+06    -49.1400E+06     1.44310E+06         45.6715
             779     4.44514E-03     31.4932E-03     318.069E-03     240.234E-03        -2.53162     317.910E-03        -2.53147     240.234E-03     18.3360E-03     235.982E-03    -117.808E-03    -118.174E-03    -117.799E-03     235.973E-03    -118.174E-03     3.00086E-03    -65.7497E+06    -94.4616E+06    -250.128E+06    -94.4845E+06    -250.105E+06    -65.7497E+06     99.4870E+03         45.1958
             780     3.55611E-03     31.4952E-03     277.121E-03     226.197E-03        -2.47492     276.858E-03        -2.47466     226.197E-03     26.1969E-03     235.726E-03    -117.584E-03    -118.142E-03    -117.584E-03     235.726E-03    -118.142E-03     613.604E-06    -81.6557E+06    -101.804E+06    -260.977E+06    -101.830E+06    -260.951E+06    -81.6557E+06    -401.654E+03         44.7880
             781     2.66592E-03     31.4971E-03     245.679E-03     215.379E-03        -2.43148     244.183E-03        -2.42999     215.379E-03    -44.6711E-03     236.026E-03    -117.775E-03    -118.251E-03    -117.872E-03     236.025E-03    -118.152E-03    -914.741E-06    -92.7278E+06    -106.294E+06    -268.506E+06    -106.301E+06    -268.499E+06    -92.7278E+06    -620.964E+03         44.4587
             782     1.77749E-03     31.5004E-03     227.175E-03     207.788E-03        -2.40442     220.657E-03        -2.39791     207.788E-03     84.0016E-03     236.404E-03    -118.037E-03    -118.367E-03    -118.365E-03     236.402E-03    -118.037E-03    -1.74623E-03    -101.257E+06    -110.146E+06    -276.622E+06    -110.150E+06    -276.618E+06    -101.257E+06    -280.037E+03         44.2156
             783     889.993E-06     31.5028E-03     739.542E-03    -297.841E-03        -2.40957     708.160E-03        -2.37819    -297.841E-03    -269.074E-03     235.769E-03    -117.629E-03    -118.140E-03    -118.134E-03     235.763E-03    -117.629E-03    -2.66850E-03    -111.226E+06    -115.219E+06    -281.643E+06    -115.109E+06    -281.623E+06    -111.355E+06     1.11606E+06         44.0629
             784     15.1189E-03     31.1069E-03         1.29684     561.279E-03        -3.88641         1.29683        -3.88639     561.279E-03     9.63470E-03     246.780E-03    -117.299E-03    -129.480E-03    -117.073E-03     235.097E-03    -118.023E-03     106.177E-03     122.183E+06     117.863E+06    -7.01889E+06    -7.00417E+06     122.168E+06     117.863E+06    -964.989E+03         51.1219
             785     14.2304E-03     30.8788E-03         1.18832     504.746E-03        -3.71723         1.18829        -3.71720     504.746E-03     25.1117E-03     249.546E-03    -118.084E-03    -131.462E-03    -116.411E-03     234.495E-03    -118.084E-03     143.541E-03     121.390E+06     115.597E+06    -14.6633E+06    -14.6491E+06     117.152E+06     119.821E+06     -826.16E+03         50.8651
             786     13.3396E-03     30.7615E-03         1.07736     448.025E-03        -3.54599         1.07731        -3.54593     448.025E-03     30.0931E-03     242.515E-03    -118.144E-03    -124.370E-03    -114.554E-03     232.699E-03    -118.144E-03     117.416E-03     118.166E+06     108.997E+06    -23.1957E+06    -23.1883E+06     108.990E+06     118.166E+06     133.157E+03         50.5307
             787     12.4498E-03     30.6034E-03     964.993E-03     393.561E-03        -3.37568     964.926E-03        -3.37561     393.561E-03     33.8624E-03     242.137E-03    -118.150E-03    -123.987E-03    -114.248E-03     232.399E-03    -118.150E-03     116.773E-03     106.503E+06     98.0347E+06    -33.7515E+06    -33.7430E+06     101.549E+06     102.980E+06     853.304E+03         50.1234
             788     11.5597E-03     30.4889E-03     853.137E-03     341.880E-03        -3.20881     853.097E-03        -3.20877     341.880E-03     23.2133E-03     237.949E-03    -118.038E-03    -119.910E-03    -114.307E-03     232.345E-03    -118.038E-03     88.0785E-03     90.3294E+06     65.9678E+06    -43.8247E+06    -43.8029E+06     90.3075E+06     65.9678E+06    -84.0995E+03         49.6509
             789     10.6701E-03     30.4025E-03     744.369E-03     294.780E-03        -3.04932     744.313E-03        -3.04926     294.780E-03     25.4560E-03     235.763E-03    -117.474E-03    -118.289E-03    -114.725E-03     232.673E-03    -117.948E-03     64.8751E-03     57.0450E+06     29.9190E+06    -52.6497E+06    -52.6132E+06     57.0085E+06     29.9190E+06    -1.54682E+06         49.1246
             790     9.78043E-03     30.3432E-03     640.098E-03     252.076E-03        -2.89887     640.042E-03        -2.89882     252.076E-03     24.9090E-03     234.984E-03    -116.986E-03    -117.997E-03    -115.416E-03     233.414E-03    -117.997E-03     46.3164E-03     16.9686E+06    -21.9886E+06    -61.2135E+06    -59.4954E+06    -17.4199E+06     10.6818E+06    -1.26770E+06         48.5575
             791     8.89146E-03     30.3022E-03     541.853E-03     213.438E-03        -2.75855     541.718E-03        -2.75841     213.438E-03     34.2816E-03     234.997E-03    -116.917E-03    -118.080E-03    -116.053E-03     234.133E-03    -118.080E-03     34.5554E-03    -2.34698E+06    -65.5016E+06    -99.4528E+06    -65.7182E+06    -99.2362E+06    -2.34698E+06    -444.161E+03         47.9650
             792     8.00198E-03     30.2705E-03     450.211E-03     178.544E-03        -2.62884     450.065E-03        -2.62869     178.544E-03     38.3848E-03     234.946E-03    -116.814E-03    -118.133E-03    -116.333E-03     234.465E-03    -118.133E-03     25.5804E-03    -15.3309E+06    -72.5258E+06    -156.165E+06    -72.5379E+06    -156.153E+06    -15.3309E+06    -118.270E+03         47.3636
             793     7.11224E-03     30.2500E-03     365.794E-03     147.444E-03        -2.51056     365.660E-03        -2.51043     147.444E-03     35.3272E-03     235.143E-03    -116.957E-03    -118.185E-03    -116.733E-03     234.919E-03    -118.185E-03     17.3783E-03    -25.2174E+06    -78.1854E+06    -197.218E+06    -78.1886E+06    -197.215E+06    -25.2174E+06    -23.9758E+03         46.7704
             794     6.22319E-03     30.2377E-03     290.095E-03     120.190E-03        -2.40499     289.924E-03        -2.40482     120.190E-03     42.1349E-03     235.540E-03    -117.343E-03    -118.197E-03    -117.249E-03     235.447E-03    -118.197E-03     11.1865E-03    -35.9890E+06    -83.8320E+06    -224.502E+06    -83.8392E+06    -224.495E+06    -35.9890E+06     58.4141E+03         46.2025
             795     5.33434E-03     30.2309E-03     223.381E-03     96.6861E-03        -2.31263     223.208E-03        -2.31245     96.6861E-03     40.8259E-03     235.619E-03    -117.466E-03    -118.153E-03    -117.432E-03     235.585E-03    -118.153E-03     6.66785E-03    -51.2153E+06    -89.8333E+06    -237.985E+06    -89.8419E+06    -237.976E+06    -51.2153E+06     449.264E+03         45.6755
             796     4.44487E-03     30.2279E-03     166.225E-03     76.9023E-03        -2.23354     166.059E-03        -2.23337     76.9023E-03     9.78865E-03     235.672E-03    -117.558E-03    -118.114E-03    -117.549E-03     235.664E-03    -118.114E-03     3.00548E-03    -66.1027E+06    -95.4163E+06    -249.450E+06    -95.4354E+06    -249.431E+06    -66.1027E+06     640.754E+03         45.2035
             797     3.55570E-03     30.2304E-03     119.472E-03     60.7560E-03        -2.16831     119.170E-03        -2.16801     60.7560E-03     19.3129E-03     235.966E-03    -117.744E-03    -118.223E-03    -117.918E-03     235.966E-03    -118.048E-03     357.523E-06    -81.0215E+06    -100.170E+06    -259.141E+06    -100.197E+06    -259.114E+06    -81.0215E+06     490.164E+03         44.7989
             798     2.66756E-03     30.2321E-03     83.2125E-03     48.1961E-03        -2.11824     81.3310E-03        -2.11636     48.1961E-03    -49.5365E-03     235.874E-03    -117.643E-03    -118.231E-03    -117.908E-03     235.873E-03    -117.965E-03    -864.698E-06    -94.3290E+06    -106.533E+06    -269.279E+06    -106.550E+06    -269.262E+06    -94.3290E+06     221.247E+03         44.4721
             799     1.77885E-03     30.2339E-03     62.3703E-03     39.1737E-03        -2.08771     54.5422E-03        -2.07988     39.1737E-03     78.3585E-03     235.649E-03    -117.510E-03    -118.139E-03    -117.683E-03     235.646E-03    -117.963E-03    -1.43057E-03    -104.186E+06    -112.455E+06    -277.464E+06    -112.478E+06    -277.441E+06    -104.186E+06     735.845E+03         44.2307
             800     888.704E-06     30.2397E-03     534.867E-03    -426.542E-03        -2.09482     497.971E-03        -2.05792    -426.542E-03    -270.415E-03     235.931E-03    -117.697E-03    -118.234E-03    -117.883E-03     235.929E-03    -118.045E-03    -1.64541E-03    -112.781E+06    -115.912E+06    -280.403E+06    -115.853E+06    -280.332E+06    -112.910E+06     216.498E+03         44.0791
             801     15.1210E-03     29.8423E-03         1.29714     460.300E-03        -3.80638         1.29713        -3.80637     460.300E-03     6.47424E-03     246.563E-03    -117.263E-03    -129.300E-03    -116.672E-03     234.685E-03    -118.013E-03     105.959E-03     122.622E+06     117.339E+06    -7.16628E+06    -7.15411E+06     122.609E+06     117.339E+06    -783.873E+03         51.0762
             802     14.2289E-03     29.6138E-03         1.17474     400.424E-03        -3.61894         1.17471        -3.61891     400.424E-03     20.2891E-03     249.322E-03    -118.101E-03    -131.221E-03    -115.949E-03     234.050E-03    -118.101E-03     144.240E-03     120.206E+06     113.702E+06    -15.9013E+06    -15.8867E+06     116.176E+06     117.718E+06    -1.12325E+06         50.8200
             803     13.3394E-03     29.4958E-03         1.05039     340.904E-03        -3.43048         1.05036        -3.43045     340.904E-03     23.6273E-03     242.525E-03    -118.180E-03    -124.345E-03    -114.668E-03     232.848E-03    -118.180E-03     116.671E-03     116.652E+06     107.382E+06    -24.7813E+06    -24.7731E+06     107.374E+06     116.652E+06    -446.554E+03         50.4872
             804     12.4487E-03     29.3387E-03     925.143E-03     283.857E-03        -3.24365     925.104E-03        -3.24361     283.857E-03     25.1280E-03     242.347E-03    -118.183E-03    -124.165E-03    -114.530E-03     232.713E-03    -118.183E-03     116.324E-03     106.869E+06     99.1314E+06    -34.0066E+06    -33.9977E+06     101.606E+06     104.386E+06     498.762E+03         50.0825
             805     11.5594E-03     29.2218E-03     801.273E-03     229.696E-03        -3.06142     801.252E-03        -3.06140     229.696E-03     13.5109E-03     238.220E-03    -118.054E-03    -120.166E-03    -114.601E-03     232.655E-03    -118.054E-03     87.7374E-03     92.1277E+06     69.4919E+06    -42.4506E+06    -42.4430E+06     92.1202E+06     69.4919E+06     643.965E+03         49.6135
             806     10.6706E-03     29.1370E-03     681.041E-03     179.959E-03        -2.88724     681.013E-03        -2.88721     179.959E-03     14.2811E-03     235.909E-03    -117.509E-03    -118.400E-03    -114.931E-03     232.870E-03    -117.938E-03     64.4910E-03     58.9982E+06     32.8221E+06    -50.7209E+06    -50.7053E+06     58.9826E+06     32.8221E+06    -35.9371E+03         49.0912
             807     9.78106E-03     29.0780E-03     565.838E-03     134.502E-03        -2.72248     565.810E-03        -2.72245     134.502E-03     13.1299E-03     234.957E-03    -116.983E-03    -117.974E-03    -115.396E-03     233.370E-03    -117.974E-03     46.5635E-03     17.7657E+06    -21.0839E+06    -61.6657E+06    -58.7961E+06    -17.9294E+06     11.7416E+06    -746.978E+03         48.5286
             808     8.89153E-03     29.0362E-03     457.355E-03     93.0962E-03        -2.56846     457.271E-03        -2.56838     93.0962E-03     21.7258E-03     235.007E-03    -116.955E-03    -118.051E-03    -116.089E-03     234.140E-03    -118.051E-03     34.5809E-03    -1.95171E+06    -65.2708E+06    -100.334E+06    -65.4860E+06    -100.119E+06    -1.95171E+06    -450.590E+03         47.9408
             809     8.00237E-03     29.0060E-03     356.258E-03     55.5589E-03        -2.42628     356.170E-03        -2.42619     55.5589E-03     25.6219E-03     235.063E-03    -116.972E-03    -118.091E-03    -116.498E-03     234.589E-03    -118.091E-03     25.3967E-03    -14.1731E+06    -71.7676E+06    -156.341E+06    -71.7758E+06    -156.333E+06    -14.1731E+06    -36.0047E+03         47.3442
             810     7.11301E-03     28.9849E-03     263.179E-03     21.9434E-03        -2.29666     263.097E-03        -2.29657     21.9434E-03     23.3159E-03     235.138E-03    -117.036E-03    -118.102E-03    -116.817E-03     234.919E-03    -118.102E-03     17.2286E-03    -27.8384E+06    -78.1552E+06    -196.372E+06    -78.1578E+06    -196.370E+06    -27.8384E+06    -245.906E+03         46.7558
             811     6.22370E-03     28.9724E-03     179.646E-03    -7.67482E-03        -2.18067     179.542E-03        -2.18057    -7.67482E-03     30.0059E-03     235.390E-03    -117.304E-03    -118.085E-03    -117.211E-03     235.297E-03    -118.085E-03     11.1661E-03    -42.6113E+06    -85.0834E+06    -224.935E+06    -85.0865E+06    -224.932E+06    -42.6113E+06    -549.419E+03         46.1923
             812     5.33478E-03     28.9653E-03     106.155E-03    -33.3008E-03        -2.07912     106.038E-03        -2.07901    -33.3008E-03     30.0510E-03     235.467E-03    -117.417E-03    -118.050E-03    -117.385E-03     235.435E-03    -118.050E-03     6.30894E-03    -55.3293E+06    -91.4569E+06    -238.992E+06     -91.462E+06    -238.986E+06    -55.3293E+06    -133.940E+03         45.6692
             813     4.44525E-03     28.9644E-03     43.2877E-03    -54.9598E-03        -1.99222     43.1056E-03        -1.99204    -54.9598E-03     883.815E-06     235.537E-03    -117.530E-03    -118.007E-03    -117.524E-03     235.530E-03    -118.007E-03     2.75177E-03    -68.2889E+06    -96.7502E+06    -248.051E+06    -96.7578E+06    -248.044E+06    -68.2889E+06    -309.048E+03         45.2005
             814     3.55649E-03     28.9632E-03    -8.22089E-03    -72.7509E-03        -1.92061    -8.56543E-03        -1.92026    -72.7509E-03     12.0213E-03     235.750E-03    -117.633E-03    -118.117E-03    -117.807E-03     235.749E-03    -117.942E-03     396.940E-06    -82.5109E+06    -102.048E+06    -260.631E+06    -102.061E+06    -260.617E+06    -82.5109E+06     291.887E+03         44.7987
             815     2.66794E-03     28.9675E-03    -48.1756E-03    -86.5609E-03        -1.86577    -50.4594E-03        -1.86348    -86.5609E-03    -53.8442E-03     235.506E-03    -117.424E-03    -118.082E-03    -117.598E-03     235.505E-03    -117.908E-03    -800.270E-06    -93.3126E+06    -106.071E+06    -268.606E+06    -106.098E+06    -268.578E+06    -93.3126E+06     1.94836E+06         44.4740
             816     1.77712E-03     28.9712E-03    -70.5333E-03    -96.4798E-03        -1.83193    -79.6857E-03        -1.82278    -96.4798E-03     71.9988E-03     235.447E-03    -117.413E-03    -118.034E-03    -117.412E-03     235.446E-03    -118.034E-03    -1.06826E-03    -102.077E+06    -110.162E+06    -275.593E+06    -110.213E+06    -275.542E+06    -102.077E+06     1.11836E+06         44.2342
             817     888.038E-06     28.9731E-03     361.327E-03    -519.922E-03        -1.83941     319.123E-03        -1.79721    -519.922E-03    -268.502E-03     236.249E-03    -117.843E-03    -118.406E-03    -117.999E-03     236.246E-03    -118.247E-03    -1.75645E-03    -109.349E+06    -113.259E+06    -277.753E+06    -112.766E+06    -277.679E+06    -109.916E+06    -1.09585E+06         44.0836
             818     15.1192E-03     28.5794E-03         1.29761     380.592E-03        -3.74336         1.29760        -3.74336     380.592E-03     3.25783E-03     246.604E-03    -116.887E-03    -129.717E-03    -116.670E-03     234.700E-03    -118.029E-03     106.266E-03     122.775E+06     117.508E+06    -7.30410E+06    -7.29962E+06     122.771E+06     117.508E+06    -17.1039E+03         51.0239
             819     14.2290E-03     28.3490E-03         1.16400     318.914E-03        -3.54213         1.16399        -3.54212     318.914E-03     15.5613E-03     249.713E-03    -118.102E-03    -131.611E-03    -116.389E-03     234.491E-03    -118.102E-03     144.012E-03     120.257E+06     114.261E+06    -15.6198E+06    -15.6167E+06     117.071E+06     117.444E+06     119.190E+03         50.7682
             820     13.3389E-03     28.2292E-03         1.02905     258.153E-03        -3.34051         1.02903        -3.34050     258.153E-03     16.2060E-03     242.482E-03    -118.162E-03    -124.320E-03    -114.843E-03     233.005E-03    -118.162E-03     115.481E-03     116.375E+06     107.511E+06    -25.2590E+06    -25.2443E+06     107.497E+06     116.375E+06    -863.054E+03         50.4367
             821     12.4501E-03     28.0740E-03     894.512E-03     200.014E-03        -3.14238     894.497E-03        -3.14236     200.014E-03     15.1023E-03     242.364E-03    -118.152E-03    -124.213E-03    -114.695E-03     232.847E-03    -118.152E-03     115.734E-03     106.884E+06     98.9686E+06    -34.4979E+06    -34.4829E+06     101.188E+06     104.650E+06    -1.11788E+06         50.0342
             822     11.5602E-03     27.9551E-03     761.850E-03     144.797E-03        -2.94944     761.838E-03        -2.94943     144.797E-03     2.21619E-03     238.049E-03    -118.021E-03    -120.028E-03    -114.501E-03     232.522E-03    -118.021E-03     87.3323E-03     91.7890E+06     70.2396E+06    -43.4716E+06    -43.4677E+06     91.7851E+06     70.2396E+06    -359.650E+03         49.5680
             823     10.6704E-03     27.8716E-03     633.186E-03     93.7057E-03        -2.76479     633.173E-03        -2.76478     93.7057E-03     1.31749E-03     235.747E-03    -117.557E-03    -118.189E-03    -114.868E-03     232.774E-03    -117.906E-03     63.7562E-03      59.368E+06     33.7124E+06    -51.0871E+06    -51.0830E+06     59.3639E+06     33.7124E+06     277.565E+03         49.0491
             824     9.78097E-03     27.8122E-03     510.150E-03     46.6782E-03        -2.59016     510.133E-03        -2.59014     46.6782E-03    -391.191E-06     234.924E-03    -116.990E-03    -117.934E-03    -115.441E-03     233.375E-03    -117.934E-03     45.9728E-03     18.8120E+06    -20.1735E+06    -60.8691E+06    -57.5636E+06    -17.1387E+06     12.4717E+06     354.567E+03         48.4903
             825     8.89164E-03     27.7713E-03     394.270E-03     3.57727E-03        -2.42672     394.222E-03        -2.42667     3.57727E-03     7.39786E-03     234.892E-03    -116.886E-03    -118.007E-03    -116.044E-03     234.051E-03    -118.007E-03     34.0771E-03    -1.89457E+06    -64.4597E+06    -100.543E+06    -64.4856E+06    -100.517E+06    -1.89457E+06    -193.502E+03         47.9066
             826     8.00254E-03     27.7398E-03     286.327E-03    -35.6578E-03        -2.27571     286.284E-03        -2.27567    -35.6578E-03     11.0531E-03     235.132E-03    -117.094E-03    -118.038E-03    -116.631E-03     234.668E-03    -118.038E-03     25.1083E-03    -13.8591E+06    -70.9207E+06    -156.690E+06    -70.9266E+06    -156.684E+06    -13.8591E+06    -323.223E+03         47.3142
             827     7.11371E-03     27.7205E-03     187.088E-03    -70.9266E-03        -2.13799     187.046E-03        -2.13795    -70.9266E-03     9.71619E-03     235.196E-03    -117.164E-03    -118.032E-03    -116.947E-03     234.979E-03    -118.032E-03     17.1672E-03    -26.4172E+06    -77.6887E+06    -196.488E+06    -77.7007E+06    -196.476E+06    -26.4172E+06     404.239E+03         46.7298
             828     6.22443E-03     27.7070E-03     97.9903E-03    -102.144E-03        -2.01466     97.9457E-03        -2.01462    -102.144E-03     16.7965E-03     235.130E-03    -117.127E-03    -118.003E-03    -117.034E-03     235.037E-03    -118.003E-03     11.1676E-03    -42.4792E+06    -85.2040E+06    -224.793E+06    -85.2156E+06    -224.781E+06    -42.4792E+06     715.066E+03         46.1700
             829     5.33489E-03     27.7010E-03     19.5870E-03    -129.278E-03        -1.90668     19.5243E-03        -1.90661    -129.278E-03     18.4431E-03     235.358E-03    -117.403E-03    -117.955E-03    -117.370E-03     235.325E-03    -117.955E-03     6.47993E-03    -57.8015E+06    -91.9792E+06    -238.375E+06    -91.9819E+06    -238.373E+06    -57.8015E+06     197.308E+03         45.6502
             830     4.44645E-03     27.6985E-03    -47.4649E-03    -152.303E-03        -1.81414    -47.6743E-03        -1.81394    -152.303E-03    -8.36889E-03     235.512E-03    -117.630E-03    -117.882E-03    -117.622E-03     235.504E-03    -117.882E-03     2.95065E-03    -72.1022E+06    -98.7695E+06    -248.079E+06    -98.7959E+06    -248.053E+06    -72.1022E+06     859.355E+03         45.1845
             831     3.55694E-03     27.6997E-03    -102.425E-03    -171.292E-03        -1.73770    -102.801E-03        -1.73732    -171.292E-03     3.91444E-03     235.301E-03    -117.464E-03    -117.837E-03    -117.463E-03     235.300E-03    -117.837E-03     249.811E-06    -84.9754E+06    -105.461E+06    -261.761E+06    -105.491E+06    -261.731E+06    -84.9754E+06     792.916E+03         44.7851
             832     2.66648E-03     27.7027E-03    -145.034E-03    -186.094E-03        -1.67921    -147.617E-03        -1.67663    -186.094E-03    -57.1071E-03     235.398E-03    -117.462E-03    -117.936E-03    -117.574E-03     235.395E-03    -117.821E-03    -1.70635E-03    -94.8911E+06    -109.490E+06    -268.030E+06    -109.533E+06    -267.987E+06    -94.8911E+06    -279.109E+03         44.4623
             833     1.77863E-03     27.7069E-03    -168.698E-03    -196.779E-03        -1.64335    -178.841E-03        -1.63321    -196.779E-03     66.0301E-03     235.575E-03    -117.600E-03    -117.975E-03    -117.804E-03     235.572E-03    -117.768E-03    -1.85887E-03    -103.344E+06    -111.766E+06    -273.474E+06    -111.829E+06    -273.411E+06    -103.344E+06    -485.598E+03         44.2239
             834     889.638E-06     27.7072E-03     221.668E-03    -577.950E-03        -1.65045     176.341E-03        -1.60512    -577.950E-03    -257.476E-03     235.391E-03    -117.173E-03    -118.218E-03    -118.158E-03     235.387E-03    -117.228E-03    -2.05923E-03    -111.526E+06    -115.489E+06    -278.227E+06    -114.776E+06    -278.201E+06    -112.264E+06     74.5641E+03         44.0741
             835     15.1185E-03     27.3126E-03         1.29714     324.090E-03        -3.69911         1.29713        -3.69910     324.090E-03     1.24434E-03     247.147E-03    -117.038E-03    -130.109E-03    -117.313E-03     235.368E-03    -118.054E-03     106.605E-03     122.956E+06     118.726E+06    -7.40718E+06    -7.40568E+06     122.954E+06     118.726E+06     327.607E+03         50.9638
             836     14.2305E-03     27.0826E-03         1.15551     262.274E-03        -3.48753         1.15550        -3.48752     262.274E-03     9.98555E-03     250.040E-03    -118.089E-03    -131.951E-03    -116.879E-03     234.968E-03    -118.089E-03     143.625E-03     121.270E+06     116.333E+06    -15.0476E+06    -15.0459E+06     118.476E+06     119.126E+06     355.191E+03         50.7084
             837     13.3408E-03     26.9650E-03         1.01400     201.914E-03        -3.27856         1.01400        -3.27855     201.914E-03     7.20439E-03     242.629E-03    -118.124E-03    -124.506E-03    -114.904E-03     233.028E-03    -118.124E-03     116.204E-03     116.936E+06     108.759E+06    -24.9430E+06    -24.9297E+06     108.746E+06     116.936E+06    -409.119E+03         50.3779
             838     12.4502E-03     26.8070E-03     873.541E-03     144.216E-03        -3.07398     873.537E-03        -3.07398     144.216E-03     3.53910E-03     242.611E-03    -118.100E-03    -124.512E-03    -114.914E-03     233.013E-03    -118.100E-03     116.176E-03     106.310E+06     98.7952E+06    -34.9468E+06    -34.9290E+06     100.907E+06     104.180E+06    -1.08974E+06         49.9770
             839     11.5610E-03     26.6905E-03     735.701E-03     89.4265E-03        -2.87556     735.680E-03        -2.87554     89.4265E-03    -10.4462E-03     237.988E-03    -117.951E-03    -120.037E-03    -114.546E-03     232.498E-03    -117.951E-03     87.0901E-03     90.4358E+06     68.4631E+06    -44.7523E+06    -44.7462E+06     90.4297E+06     68.4631E+06    -818.612E+03         49.5130
             840     10.6715E-03     26.6053E-03     602.083E-03     38.3265E-03        -2.68547     602.059E-03        -2.68545     38.3265E-03    -13.0705E-03     235.591E-03    -117.513E-03    -118.079E-03    -114.807E-03     232.637E-03    -117.830E-03     63.4688E-03     58.6053E+06     31.6510E+06    -52.9899E+06    -52.9875E+06     58.6030E+06     31.6510E+06    -289.143E+03         48.9969
             841     9.78230E-03     26.5471E-03     474.562E-03    -9.06011E-03        -2.50564     474.523E-03        -2.50560    -9.06011E-03    -15.5872E-03     234.869E-03    -117.014E-03    -117.855E-03    -115.503E-03     233.358E-03    -117.855E-03     45.4168E-03     18.5670E+06    -21.7756E+06    -61.2833E+06    -59.3801E+06    -16.5675E+06     11.4556E+06     1.08937E+03         48.4413
             842     8.89285E-03     26.5058E-03     354.544E-03    -52.7499E-03        -2.33729     354.499E-03        -2.33724    -52.7499E-03    -8.55246E-03     234.725E-03    -116.805E-03    -117.920E-03    -115.987E-03     233.908E-03    -117.920E-03     33.5750E-03    -2.35139E+06    -65.5282E+06    -99.7408E+06    -65.5603E+06    -99.7088E+06    -2.35139E+06    -143.888E+03         47.8609
             843     8.00324E-03     26.4752E-03     242.692E-03    -92.7149E-03        -2.18149     242.658E-03        -2.18145    -92.7149E-03    -4.67766E-03     234.834E-03    -116.878E-03    -117.956E-03    -116.426E-03     234.381E-03    -117.956E-03     24.8440E-03    -14.9639E+06    -72.0597E+06    -157.223E+06    -72.0633E+06    -157.220E+06    -14.9639E+06    -438.768E+03         47.2718
             844     7.11395E-03     26.4544E-03     139.888E-03    -128.802E-03        -2.03920     139.854E-03        -2.03917    -128.802E-03    -4.87712E-03     235.129E-03    -117.169E-03    -117.960E-03    -116.956E-03     234.916E-03    -117.960E-03     16.9123E-03    -26.3341E+06    -78.4031E+06    -198.565E+06    -78.4144E+06    -198.554E+06    -26.3341E+06     397.241E+03         46.6907
             845     6.22481E-03     26.4432E-03     47.5761E-03    -160.891E-03        -1.91167     47.5616E-03        -1.91165    -160.891E-03     2.55884E-03     235.235E-03    -117.329E-03    -117.905E-03    -117.245E-03     235.150E-03    -117.905E-03     10.5445E-03    -40.7099E+06    -84.2465E+06    -224.103E+06    -84.2675E+06    -224.082E+06    -40.7099E+06     1.49819E+06         46.1340
             846     5.33538E-03     26.4359E-03    -33.8442E-03    -188.928E-03        -1.79983    -33.8713E-03        -1.79981    -188.928E-03     5.68258E-03     235.142E-03    -117.299E-03    -117.843E-03    -117.272E-03     235.114E-03    -117.843E-03     5.81508E-03    -54.1994E+06    -90.6887E+06    -237.998E+06    -90.7177E+06    -237.969E+06    -54.1994E+06     1.73737E+06         45.6169
             847     4.44591E-03     26.4333E-03    -103.518E-03    -212.841E-03        -1.70375    -103.762E-03        -1.70351    -212.841E-03    -17.7930E-03     235.140E-03    -117.344E-03    -117.796E-03    -117.338E-03     235.134E-03    -117.796E-03     2.29549E-03    -66.3957E+06    -96.7368E+06    -248.453E+06    -96.7821E+06    -248.408E+06    -66.3957E+06     1.57495E+06         45.1535
             848     3.55714E-03     26.4357E-03    -160.744E-03    -232.663E-03        -1.62404    -161.130E-03        -1.62366    -232.663E-03    -4.54099E-03     235.269E-03    -117.478E-03    -117.791E-03    -117.530E-03     235.268E-03    -117.738E-03     23.5210E-06    -79.2665E+06    -101.881E+06    -258.684E+06    -101.912E+06    -258.653E+06    -79.2665E+06     434.837E+03         44.7561
             849     2.66890E-03     26.4381E-03    -205.222E-03    -248.227E-03        -1.56285    -207.934E-03        -1.56014    -248.227E-03    -60.2236E-03     235.404E-03    -117.533E-03    -117.872E-03    -117.787E-03     235.402E-03    -117.614E-03    -1.42101E-03    -93.5012E+06    -108.097E+06    -267.509E+06    -108.125E+06    -267.482E+06    -93.5012E+06    -1.07832E+06         44.4349
             850     1.77914E-03     26.4417E-03    -230.196E-03    -259.661E-03        -1.52562    -240.326E-03        -1.51549    -259.661E-03     56.7839E-03     235.156E-03    -117.400E-03    -117.756E-03    -117.753E-03     235.153E-03    -117.400E-03    -1.78604E-03    -105.979E+06    -114.080E+06    -274.917E+06    -114.118E+06    -274.879E+06    -105.979E+06    -833.422E+03         44.1977
             851     889.811E-06     26.4446E-03     116.236E-03    -599.354E-03        -1.53222     70.8797E-03        -1.48686    -599.354E-03    -244.718E-03     234.495E-03    -116.680E-03    -117.815E-03    -117.568E-03     234.494E-03    -116.926E-03    -1.16302E-03    -113.989E+06    -118.670E+06    -279.877E+06    -118.521E+06    -279.855E+06    -114.160E+06     689.702E+03         44.0487
             852     15.1198E-03     26.0453E-03         1.29656     292.397E-03        -3.67309         1.29656        -3.67309     292.397E-03    -197.527E-06     247.237E-03    -117.517E-03    -129.720E-03    -117.480E-03     235.523E-03    -118.042E-03     106.456E-03     122.536E+06     119.069E+06    -7.82132E+06    -7.82117E+06     122.535E+06     119.069E+06     13.5117E+03         50.8950
             853     14.2295E-03     25.8167E-03         1.15034     232.038E-03        -3.45707         1.15034        -3.45707     232.038E-03     2.36359E-03     249.736E-03    -118.075E-03    -131.661E-03    -116.654E-03     234.729E-03    -118.075E-03     143.242E-03     121.002E+06     116.356E+06    -16.0734E+06    -16.0729E+06     117.956E+06     119.401E+06    -117.738E+03         50.6395
             854     13.3393E-03     25.6996E-03         1.00570     173.645E-03        -3.24594         1.00569        -3.24594     173.645E-03    -2.53790E-03     242.920E-03    -118.105E-03    -124.814E-03    -115.168E-03     233.273E-03    -118.105E-03     116.560E-03     118.145E+06     109.922E+06    -24.1460E+06    -24.1439E+06     109.920E+06     118.145E+06     217.387E+03         50.3094
             855     12.4510E-03     25.5402E-03     862.847E-03     117.914E-03        -3.04030     862.838E-03        -3.04029     117.914E-03    -8.96301E-03     242.711E-03    -118.059E-03    -124.652E-03    -115.057E-03     233.115E-03    -118.059E-03     116.153E-03     106.162E+06     98.2479E+06    -35.0085E+06    -34.9998E+06     100.976E+06     103.425E+06     375.488E+03         49.9096
             856     11.5619E-03     25.4248E-03     723.356E-03     64.9988E-03        -2.84161     723.299E-03        -2.84155     64.9988E-03    -24.1101E-03     238.025E-03    -117.898E-03    -120.127E-03    -114.634E-03     232.532E-03    -117.898E-03     87.2127E-03     89.9379E+06     67.4070E+06    -45.1259E+06    -45.1150E+06     89.9269E+06     67.4070E+06    -386.340E+03         49.4472
             857     10.6723E-03     25.3401E-03     588.581E-03     15.2337E-03        -2.65144     588.511E-03        -2.65137     15.2337E-03    -28.3521E-03     235.727E-03    -117.521E-03    -118.206E-03    -114.957E-03     232.726E-03    -117.769E-03     63.9618E-03     58.6589E+06     31.7175E+06    -53.2429E+06    -53.2379E+06     58.6540E+06     31.7175E+06    -523.092E+03         48.9332
             858     9.78260E-03     25.2813E-03     460.027E-03    -31.2867E-03        -2.47128     459.923E-03        -2.47118    -31.2867E-03    -31.5389E-03     234.860E-03    -117.081E-03    -117.779E-03    -115.563E-03     233.342E-03    -117.779E-03     45.5192E-03     18.5688E+06    -21.8381E+06    -61.9225E+06    -59.8854E+06    -16.7274E+06     11.4211E+06    -442.059E+03         48.3801
             859     8.89357E-03     25.2408E-03     339.165E-03    -74.4570E-03        -2.30235     339.073E-03        -2.30226    -74.4570E-03    -25.3114E-03     234.751E-03    -116.922E-03    -117.829E-03    -116.108E-03     233.937E-03    -117.829E-03     33.4828E-03    -2.04148E+06    -66.0944E+06    -99.4229E+06    -66.1606E+06    -99.3568E+06    -2.04148E+06    -353.886E+03         47.8024
             860     8.00419E-03     25.2106E-03     226.552E-03    -114.151E-03        -2.14600     226.473E-03        -2.14592    -114.151E-03    -21.3463E-03     234.821E-03    -116.978E-03    -117.843E-03    -116.538E-03     234.382E-03    -117.843E-03     24.4298E-03    -14.4288E+06    -73.2706E+06    -157.045E+06    -73.2743E+06    -157.041E+06    -14.4288E+06    -43.3190E+03         47.2158
             861     7.11455E-03     25.1897E-03     122.922E-03    -150.188E-03        -2.00311     122.844E-03        -2.00303    -150.188E-03    -20.6605E-03     234.971E-03    -117.150E-03    -117.821E-03    -116.955E-03     234.776E-03    -117.821E-03     16.1088E-03    -27.1759E+06    -79.8338E+06    -200.031E+06    -79.8365E+06    -200.028E+06    -27.1759E+06    -223.882E+03         46.6372
             862     6.22590E-03     25.1774E-03     29.6941E-03    -182.422E-03        -1.87453     29.6606E-03        -1.87450    -182.422E-03    -12.4052E-03     235.098E-03    -117.345E-03    -117.753E-03    -117.271E-03     235.024E-03    -117.753E-03     9.93260E-03    -39.7231E+06    -85.1379E+06    -225.281E+06      -85.15E+06    -225.269E+06    -39.7231E+06     452.056E+03         46.0828
             863     5.33756E-03     25.1717E-03    -52.8186E-03    -210.736E-03        -1.76121    -52.8491E-03        -1.76118    -210.736E-03    -7.74583E-03     234.932E-03    -117.252E-03    -117.680E-03    -117.227E-03     234.907E-03    -117.680E-03     5.47683E-03    -49.5016E+06    -90.7626E+06    -237.415E+06    -90.7924E+06    -237.386E+06    -49.5016E+06     1.12103E+06         45.5679
             864     4.44765E-03     25.1700E-03    -123.440E-03    -235.027E-03        -1.66366    -123.738E-03        -1.66336    -235.027E-03    -27.9146E-03     234.756E-03    -117.149E-03    -117.607E-03    -117.145E-03     234.751E-03    -117.607E-03     1.85268E-03    -64.1548E+06    -96.9936E+06    -247.123E+06    -97.0186E+06    -247.098E+06    -64.1548E+06     493.757E+03         45.1064
             865     3.55750E-03     25.1707E-03    -181.776E-03    -255.296E-03        -1.58269    -182.160E-03        -1.58231    -255.296E-03    -14.2356E-03     234.861E-03    -117.277E-03    -117.584E-03    -117.329E-03     234.860E-03    -117.531E-03    -503.831E-06     -80.172E+06    -102.221E+06    -257.032E+06    -102.227E+06    -257.026E+06     -80.172E+06    -75.0027E+03         44.7105
             866     2.66782E-03     25.1739E-03    -227.802E-03    -271.245E-03        -1.51993    -230.360E-03        -1.51738    -271.245E-03    -63.2099E-03     234.861E-03    -117.259E-03    -117.602E-03    -117.399E-03     234.859E-03    -117.460E-03    -1.49030E-03    -91.8284E+06    -106.938E+06    -267.094E+06    -106.939E+06    -267.093E+06    -91.8284E+06     75.4173E+03         44.3905
             867     1.77931E-03     25.1777E-03    -254.299E-03    -282.997E-03        -1.48005    -263.212E-03        -1.47114    -282.997E-03     45.5253E-03     234.734E-03    -117.198E-03    -117.536E-03    -117.345E-03     234.732E-03    -117.387E-03    -1.60087E-03    -103.178E+06    -111.739E+06    -275.597E+06    -111.747E+06    -275.588E+06    -103.178E+06    -530.940E+03         44.1541
             868     889.835E-06     25.1820E-03     47.8426E-03    -582.655E-03        -1.48195     6.81366E-03        -1.44092    -582.655E-03    -227.457E-03     234.663E-03    -116.952E-03    -117.711E-03    -117.395E-03     234.661E-03    -117.266E-03    -1.27187E-03    -111.438E+06    -116.064E+06    -280.618E+06    -115.440E+06    -280.594E+06    -112.086E+06    -790.169E+03         44.0056
             869     15.1201E-03     24.7794E-03         1.29571     286.409E-03        -3.66481         1.29571        -3.66481     286.409E-03    -1.81114E-03     246.967E-03    -117.453E-03    -129.514E-03    -117.282E-03     235.292E-03    -118.011E-03     106.380E-03     122.877E+06     119.257E+06    -6.73800E+06    -6.73721E+06     122.876E+06     119.257E+06     145.605E+03         50.8165
             870     14.2303E-03     24.5524E-03         1.14915     229.040E-03        -3.45183         1.14915        -3.45183     229.040E-03    -4.71943E-03     249.621E-03    -118.052E-03    -131.569E-03    -116.602E-03     234.654E-03    -118.052E-03     143.050E-03     121.346E+06     116.343E+06    -15.4477E+06    -15.4449E+06     117.803E+06     119.882E+06     155.560E+03         50.5606
             871     13.3413E-03     24.4322E-03         1.00450     174.105E-03        -3.24377         1.00449        -3.24376     174.105E-03    -12.7189E-03     242.985E-03    -118.078E-03    -124.908E-03    -115.246E-03     233.324E-03    -118.078E-03     116.675E-03     117.771E+06     109.208E+06    -24.5680E+06    -24.5626E+06     109.203E+06     117.771E+06     609.601E+03         50.2305
             872     12.4515E-03     24.2749E-03     862.901E-03     121.793E-03        -3.04251     862.866E-03        -3.04248     121.793E-03    -21.7109E-03     242.737E-03    -118.024E-03    -124.713E-03    -115.127E-03     233.151E-03    -118.024E-03     116.087E-03     106.387E+06     98.4287E+06    -34.4044E+06    -34.3976E+06     101.358E+06     103.452E+06     883.330E+03         49.8312
             873     11.5613E-03     24.1589E-03     725.442E-03     72.1181E-03        -2.84879     725.324E-03        -2.84867     72.1181E-03    -38.0727E-03     238.113E-03    -117.852E-03    -120.262E-03    -114.835E-03     232.686E-03    -117.852E-03     86.6531E-03     90.9969E+06     68.1367E+06    -43.9236E+06    -43.9142E+06     90.9874E+06     68.1367E+06     305.727E+03         49.3699
             874     10.6724E-03     24.0740E-03     593.103E-03     24.9680E-03        -2.66342     592.950E-03        -2.66326     24.9680E-03    -43.8081E-03     235.767E-03    -117.525E-03    -118.242E-03    -115.131E-03     232.837E-03    -117.706E-03     63.2332E-03     58.4335E+06     32.8692E+06    -51.7082E+06    -51.6966E+06     58.4219E+06     32.8692E+06    -469.218E+03         48.8574
             875     9.78361E-03     24.0160E-03     466.931E-03    -19.4940E-03        -2.48773     466.720E-03        -2.48751    -19.4940E-03    -47.6674E-03     234.903E-03    -117.207E-03    -117.695E-03    -115.734E-03     233.430E-03    -117.695E-03     44.7842E-03     18.0076E+06    -21.0671E+06    -61.2185E+06    -59.1440E+06    -17.5017E+06     12.3677E+06    -157.565E+03         48.3061
             876     8.89408E-03     23.9757E-03     348.330E-03    -61.0449E-03        -2.32289     348.139E-03        -2.32270    -61.0449E-03    -42.3528E-03     234.912E-03    -117.203E-03    -117.710E-03    -116.432E-03     234.142E-03    -117.710E-03     32.5765E-03    -1.71193E+06    -66.6601E+06    -100.283E+06    -66.9130E+06    -100.030E+06    -1.71193E+06     706.525E+03         47.7303
             877     8.00541E-03     23.9451E-03     237.923E-03    -99.4586E-03        -2.17010     237.745E-03        -2.16992    -99.4586E-03    -38.2850E-03     234.893E-03    -117.219E-03    -117.674E-03    -116.810E-03     234.484E-03    -117.674E-03     23.5429E-03    -14.1166E+06    -74.1265E+06    -156.037E+06    -74.1371E+06    -156.027E+06    -14.1166E+06     534.122E+03         47.1457
             878     7.11712E-03     23.9251E-03     136.204E-03    -134.546E-03        -2.02995     136.026E-03        -2.02978    -134.546E-03    -36.9394E-03     234.624E-03    -117.001E-03    -117.624E-03    -116.818E-03     234.442E-03    -117.624E-03     15.6542E-03    -26.6801E+06    -81.5069E+06    -198.528E+06    -81.5233E+06    -198.511E+06    -26.6801E+06    -970.244E+03         46.5688
             879     6.22715E-03     23.9133E-03     44.3812E-03    -166.137E-03        -1.90344     44.2707E-03        -1.90333    -166.137E-03    -27.9097E-03     234.524E-03    -116.950E-03    -117.574E-03    -116.877E-03     234.451E-03    -117.574E-03     9.78890E-03    -38.6886E+06    -87.8891E+06    -226.725E+06    -87.9285E+06    -226.685E+06    -38.6886E+06    -1.79821E+06         46.0158
             880     5.33691E-03     23.9072E-03    -37.1796E-03    -194.044E-03        -1.79191    -37.2671E-03        -1.79182    -194.044E-03    -22.1125E-03     234.635E-03    -117.147E-03    -117.488E-03    -117.124E-03     234.612E-03    -117.488E-03     5.20380E-03    -52.0141E+06    -93.2378E+06    -238.019E+06    -93.2643E+06    -237.993E+06    -52.0141E+06    -1.01653E+06         45.5023
             881     4.44826E-03     23.9062E-03    -107.161E-03    -218.103E-03        -1.69556    -107.529E-03        -1.69520    -218.103E-03    -38.7646E-03     234.652E-03    -117.221E-03    -117.431E-03    -117.288E-03     234.648E-03    -117.359E-03     1.86786E-03    -68.0624E+06    -98.5106E+06    -246.768E+06    -98.5214E+06    -246.757E+06    -68.0624E+06    -304.333E+03         45.0422
             882     3.55943E-03     23.9073E-03    -165.150E-03    -238.282E-03        -1.61486    -165.528E-03        -1.61448    -238.282E-03    -25.0833E-03     234.402E-03    -117.092E-03    -117.311E-03    -117.161E-03     234.400E-03    -117.240E-03    -811.203E-06    -83.0589E+06    -104.295E+06    -257.286E+06    -104.317E+06    -257.264E+06    -83.0589E+06     416.853E+03         44.6476
             883     2.66966E-03     23.9107E-03    -211.543E-03    -254.227E-03        -1.55150    -213.679E-03        -1.54936    -254.227E-03    -66.0193E-03     234.055E-03    -116.856E-03    -117.199E-03    -116.852E-03     234.050E-03    -117.199E-03    -2.39444E-03    -95.7076E+06    -110.365E+06    -266.857E+06    -110.380E+06    -266.842E+06    -95.7076E+06     623.230E+03         44.3283
             884     1.77853E-03     23.9146E-03    -239.592E-03    -265.985E-03        -1.51012    -246.438E-03        -1.50328    -265.985E-03     33.9755E-03     234.114E-03    -116.836E-03    -117.278E-03    -116.832E-03     234.109E-03    -117.278E-03    -2.35409E-03    -107.036E+06    -115.170E+06    -275.048E+06    -115.173E+06    -275.044E+06    -107.036E+06    -387.846E+03         44.0924
             885     888.769E-06     23.9178E-03     20.1556E-03    -528.603E-03        -1.50602    -12.9589E-03        -1.47291    -528.603E-03    -206.769E-03     234.651E-03    -116.820E-03    -117.831E-03    -117.634E-03     234.648E-03    -117.014E-03    -1.34941E-03    -116.537E+06    -119.874E+06    -281.113E+06    -119.217E+06    -281.051E+06    -117.256E+06     292.942E+03         43.9441
             886     15.1201E-03     23.5143E-03         1.29395     306.160E-03        -3.67621         1.29395        -3.67621     306.160E-03    -5.11902E-03     247.020E-03    -117.327E-03    -129.693E-03    -117.277E-03     235.268E-03    -117.991E-03     106.532E-03     122.801E+06     118.780E+06    -7.01839E+06    -7.01709E+06     122.800E+06     118.780E+06     82.4030E+03         50.7278
             887     14.2307E-03     23.2857E-03         1.15095     253.295E-03        -3.47137         1.15094        -3.47136     253.295E-03    -11.3513E-03     249.865E-03    -118.030E-03    -131.835E-03    -116.755E-03     234.785E-03    -118.030E-03     143.666E-03     121.412E+06     116.020E+06    -14.7210E+06    -14.7169E+06     117.679E+06     119.749E+06     369.877E+03         50.4713
             888     13.3404E-03     23.1673E-03         1.01052     203.265E-03        -3.27235         1.01048        -3.27232     203.265E-03    -22.7975E-03     243.201E-03    -118.046E-03    -125.155E-03    -115.444E-03     233.490E-03    -118.046E-03     117.055E-03     117.641E+06     108.717E+06    -24.1660E+06    -24.1587E+06     108.710E+06     117.641E+06     973.825E+03         50.1408
             889     12.4511E-03     23.0079E-03     874.025E-03     155.735E-03        -3.08075     873.945E-03        -3.08067     155.735E-03    -34.3691E-03     242.941E-03    -117.974E-03    -124.967E-03    -115.458E-03     233.432E-03    -117.974E-03     115.583E-03     107.074E+06     98.9793E+06    -33.7160E+06    -33.7117E+06     101.875E+06     104.174E+06     479.577E+03         49.7418
             890     11.5636E-03     22.8927E-03     742.247E-03     110.561E-03        -2.89711     742.045E-03        -2.89690     110.561E-03    -51.9069E-03     238.154E-03    -117.773E-03    -120.381E-03    -115.061E-03     232.834E-03    -117.773E-03     85.9034E-03     92.0457E+06     68.5672E+06    -42.7871E+06    -42.7831E+06     92.0416E+06     68.5672E+06     464.781E+03         49.2810
             891     10.6742E-03     22.8087E-03     615.558E-03     67.2207E-03        -2.72132     615.291E-03        -2.72105     67.2207E-03    -59.1921E-03     235.893E-03    -117.509E-03    -118.384E-03    -115.396E-03     232.995E-03    -117.599E-03     62.8672E-03     58.2006E+06     32.3760E+06    -51.6286E+06    -51.5994E+06     58.1713E+06     32.3760E+06     776.701E+03         48.7695
             892     9.78460E-03     22.7502E-03     495.010E-03     25.9578E-03        -2.55462     494.659E-03        -2.55427     25.9578E-03    -63.8064E-03     235.104E-03    -117.381E-03    -117.724E-03    -116.134E-03     233.684E-03    -117.551E-03     43.9476E-03     17.4665E+06    -21.1093E+06    -61.6938E+06    -59.3980E+06    -18.1592E+06     12.2206E+06     985.750E+03         48.2194
             893     8.89651E-03     22.7101E-03     381.681E-03    -12.9188E-03        -2.39792     381.347E-03        -2.39759    -12.9188E-03    -59.4826E-03     234.862E-03    -117.335E-03    -117.527E-03    -116.611E-03     234.131E-03    -117.520E-03     31.7697E-03    -1.77734E+06    -65.6492E+06    -100.398E+06    -65.9046E+06    -100.143E+06    -1.77734E+06     1.09753E+06         47.6449
             894     8.00768E-03     22.6799E-03     276.086E-03    -49.0840E-03        -2.25241     275.764E-03        -2.25209    -49.0840E-03    -55.2135E-03     234.612E-03    -117.157E-03    -117.455E-03    -116.770E-03     234.225E-03    -117.455E-03     22.8354E-03    -13.7769E+06    -71.7454E+06    -154.427E+06    -71.7549E+06    -154.418E+06    -13.7769E+06     280.378E+03         47.0615
             895     7.11754E-03     22.6613E-03     178.670E-03    -82.3104E-03        -2.11873     178.347E-03        -2.11840    -82.3104E-03    -53.2594E-03     234.387E-03    -116.996E-03    -117.392E-03    -116.832E-03     234.223E-03    -117.392E-03     14.7352E-03    -24.1619E+06    -78.0932E+06    -196.471E+06    -78.1078E+06    -196.457E+06    -24.1619E+06    -834.353E+03         46.4857
             896     6.22830E-03     22.6496E-03     90.6098E-03    -112.389E-03        -1.99772     90.3748E-03        -1.99748    -112.389E-03    -43.6986E-03     234.269E-03    -116.961E-03    -117.308E-03    -116.903E-03     234.211E-03    -117.308E-03     8.54616E-03    -37.2992E+06    -86.3906E+06    -227.097E+06    -86.4288E+06    -227.059E+06    -37.2992E+06    -1.38817E+06         45.9337
             897     5.33943E-03     22.6436E-03     12.3117E-03    -139.108E-03        -1.89074     12.1177E-03        -1.89055    -139.108E-03    -37.3652E-03     234.106E-03    -116.933E-03    -117.173E-03    -116.920E-03     234.093E-03    -117.173E-03     3.67508E-03    -55.9148E+06    -94.9205E+06    -238.964E+06    -94.9692E+06    -238.915E+06    -55.9148E+06    -1.45419E+06         45.4211
             898     4.44934E-03     22.6423E-03    -55.1630E-03    -162.274E-03        -1.79808    -55.6014E-03        -1.79765    -162.274E-03    -49.9527E-03     233.866E-03    -116.736E-03    -117.130E-03    -116.806E-03     233.864E-03    -117.059E-03     724.202E-06    -72.2523E+06    -101.063E+06    -248.833E+06    -101.093E+06    -248.803E+06    -72.2523E+06    -1.02566E+06         44.9616
             899     3.55965E-03     22.6438E-03    -111.395E-03    -181.779E-03        -1.72035    -111.778E-03        -1.71997    -181.779E-03    -36.2582E-03     233.713E-03    -116.646E-03    -117.067E-03    -116.716E-03     233.712E-03    -116.996E-03    -843.029E-06    -84.7790E+06    -105.963E+06    -259.271E+06    -105.982E+06    -259.252E+06    -84.7790E+06     544.974E+03         44.5673
             900     2.66992E-03     22.6488E-03    -156.536E-03    -197.246E-03        -1.65878    -158.160E-03        -1.65716    -197.246E-03    -68.8363E-03     233.774E-03    -116.683E-03    -117.092E-03    -116.840E-03     233.772E-03    -116.931E-03    -1.89021E-03    -97.6158E+06    -110.621E+06    -265.524E+06    -110.641E+06    -265.503E+06    -97.6158E+06     1.33653E+06         44.2484
             901     1.78053E-03     22.6525E-03    -185.095E-03    -208.791E-03        -1.61718    -189.605E-03        -1.61267    -208.791E-03     20.2911E-03     233.735E-03    -116.613E-03    -117.121E-03    -116.864E-03     233.730E-03    -116.866E-03    -2.42727E-03    -107.390E+06    -115.098E+06    -273.249E+06    -115.109E+06    -273.237E+06    -107.390E+06     557.928E+03         44.0127
             902     890.172E-06     22.6550E-03     30.5576E-03    -434.458E-03        -1.60711     7.02985E-03        -1.58358    -434.458E-03    -184.061E-03     233.617E-03    -116.399E-03    -117.218E-03    -116.922E-03     233.615E-03    -116.692E-03    -1.26668E-03    -116.458E+06    -120.413E+06    -281.303E+06    -120.402E+06    -281.242E+06    -116.530E+06     1.91871E+06         43.8645
             903     15.1205E-03     22.2493E-03         1.29208     351.126E-03        -3.70795         1.29207        -3.70794     351.126E-03    -9.57856E-03     247.276E-03    -117.316E-03    -129.960E-03    -117.309E-03     235.309E-03    -118.000E-03     107.188E-03     122.197E+06     118.428E+06    -7.39013E+06    -7.38838E+06     122.195E+06     118.428E+06     133.806E+03         50.6289
             904     14.2302E-03     22.0196E-03         1.15602     304.160E-03        -3.51573         1.15600        -3.51571     304.160E-03    -18.8568E-03     250.494E-03    -118.027E-03    -132.467E-03    -117.209E-03     235.236E-03    -118.027E-03     144.417E-03     120.894E+06     115.780E+06    -15.2196E+06    -15.2163E+06     117.482E+06     119.190E+06     149.653E+03         50.3715
             905     13.3417E-03     21.9014E-03         1.02375     260.374E-03        -3.33108         1.02368        -3.33101     260.374E-03    -32.8340E-03     243.841E-03    -118.008E-03    -125.833E-03    -116.172E-03     234.180E-03    -118.008E-03     116.924E-03     117.850E+06     108.929E+06    -24.1390E+06    -24.1353E+06     108.925E+06     117.850E+06     372.315E+03         50.0407
             906     12.4538E-03     21.7403E-03     896.024E-03     218.844E-03        -3.15432     895.881E-03        -3.15418     218.844E-03    -46.9586E-03     243.074E-03    -117.897E-03    -125.177E-03    -115.741E-03     233.639E-03    -117.897E-03     115.131E-03     107.636E+06     98.9666E+06    -33.7576E+06    -33.7516E+06     102.118E+06     104.478E+06     525.740E+03         49.6416
             907     11.5634E-03     21.6277E-03     773.207E-03     179.311E-03        -2.98533     772.902E-03        -2.98503     179.311E-03    -65.8289E-03     238.286E-03    -117.664E-03    -120.622E-03    -115.378E-03     233.042E-03    -117.664E-03     85.3918E-03     91.4550E+06     67.8984E+06    -43.6081E+06    -43.5997E+06     91.4466E+06     67.8984E+06     786.616E+03         49.1811
             908     10.6745E-03     21.5419E-03     655.513E-03     140.895E-03        -2.82366     655.109E-03        -2.82326     140.895E-03    -74.7463E-03     236.302E-03    -117.441E-03    -118.861E-03    -116.031E-03     233.472E-03    -117.441E-03     62.0103E-03     57.8651E+06     32.0615E+06    -51.7153E+06    -51.6889E+06     57.8387E+06     32.0615E+06     1.42309E+06         48.6702
             909     9.78730E-03     21.4841E-03     543.507E-03     103.872E-03        -2.67010     542.997E-03        -2.66959     103.872E-03    -79.9333E-03     235.129E-03    -117.338E-03    -117.791E-03    -116.463E-03     233.801E-03    -117.338E-03     42.5405E-03     18.3622E+06    -20.2542E+06    -60.7433E+06    -57.9835E+06    -17.6090E+06     12.9573E+06     1.42886E+06         48.1210
             910     8.89807E-03     21.4449E-03     438.053E-03     68.6407E-03        -2.52536     437.549E-03        -2.52486     68.6407E-03    -76.5338E-03     234.639E-03    -117.206E-03    -117.433E-03    -116.697E-03     233.961E-03    -117.264E-03     30.5043E-03    -1.44023E+06    -64.0640E+06    -99.1866E+06    -64.1757E+06    -99.0749E+06    -1.44023E+06     508.075E+03         47.5473
             911     8.00880E-03     21.4157E-03     339.784E-03     35.6674E-03        -2.39076     339.294E-03        -2.39027     35.6674E-03    -72.1987E-03     234.449E-03    -117.038E-03    -117.411E-03    -116.958E-03     234.113E-03    -117.155E-03     21.1195E-03    -13.7966E+06    -70.0187E+06    -153.151E+06    -70.0201E+06    -153.150E+06    -13.7966E+06    -270.532E+03         46.9647
             912     7.12064E-03     21.3970E-03     249.085E-03     5.20463E-03        -2.26695     248.594E-03        -2.26646     5.20463E-03    -69.7362E-03     234.256E-03    -116.974E-03    -117.282E-03    -117.094E-03     234.131E-03    -117.037E-03     12.7480E-03    -22.7969E+06    -76.3214E+06    -196.568E+06    -76.3341E+06    -196.555E+06    -22.7969E+06     381.255E+03         46.3895
             913     6.23161E-03     21.3859E-03     167.043E-03    -22.5364E-03        -2.15470     166.661E-03        -2.15431    -22.5364E-03    -59.3549E-03     233.808E-03    -116.819E-03    -116.989E-03    -116.884E-03     233.770E-03    -116.886E-03     6.82257E-03    -35.9207E+06    -84.0662E+06    -226.619E+06    -84.0792E+06    -226.606E+06    -35.9207E+06     829.657E+03         45.8381
             914     5.34164E-03     21.3807E-03     94.0621E-03    -47.3178E-03        -2.05524     93.7382E-03        -2.05491    -47.3178E-03    -52.3956E-03     233.232E-03    -116.512E-03    -116.720E-03    -116.504E-03     233.225E-03    -116.720E-03     2.68415E-03    -54.6679E+06    -92.1062E+06    -238.489E+06    -92.1434E+06    -238.452E+06    -54.6679E+06    -28.1051E+03         45.3257
             915     4.45191E-03     21.3804E-03     30.9638E-03    -68.9123E-03        -1.96875     30.4575E-03        -1.96824    -68.9123E-03    -61.0194E-03     232.832E-03    -116.207E-03    -116.624E-03    -116.205E-03     232.830E-03    -116.624E-03    -491.683E-06    -71.9557E+06    -100.487E+06    -250.218E+06    -100.526E+06    -250.179E+06    -71.9557E+06    -356.577E+03         44.8661
             916     3.56042E-03     21.3830E-03    -21.6142E-03    -87.1578E-03        -1.89627    -22.0243E-03        -1.89586    -87.1578E-03    -48.0885E-03     232.694E-03    -116.084E-03    -116.609E-03    -116.079E-03     232.688E-03    -116.609E-03    -2.38110E-03    -85.3241E+06    -106.816E+06    -260.528E+06    -106.821E+06    -260.523E+06    -85.3241E+06    -250.413E+03         44.4716
             917     2.66975E-03     21.3854E-03    -64.2034E-03    -101.638E-03        -1.83875    -65.3692E-03        -1.83758    -101.638E-03    -71.8517E-03     232.950E-03    -116.172E-03    -116.777E-03    -116.326E-03     232.943E-03    -116.617E-03    -2.82767E-03    -96.0648E+06    -110.786E+06    -265.479E+06    -110.797E+06    -265.468E+06    -96.0648E+06    -23.0151E+03         44.1525
             918     1.78039E-03     21.3900E-03    -92.1330E-03    -112.443E-03        -1.79875    -94.7465E-03        -1.79614    -112.443E-03     6.62266E-03     233.218E-03    -116.369E-03    -116.848E-03    -116.652E-03     233.213E-03    -116.562E-03    -2.19913E-03    -104.876E+06    -113.143E+06    -272.819E+06    -113.156E+06    -272.806E+06    -104.876E+06     478.206E+03         43.9167
             919     890.864E-06     21.3940E-03     83.4052E-03    -302.959E-03        -1.78269     68.7357E-03        -1.76802    -302.959E-03    -159.769E-03     232.970E-03    -116.157E-03    -116.813E-03    -116.644E-03     232.969E-03    -116.325E-03    -877.769E-06    -112.296E+06    -115.298E+06    -279.911E+06    -115.307E+06    -279.902E+06    -112.296E+06     805.991E+03         43.7686
             920     15.1192E-03     20.9851E-03         1.29041     420.218E-03        -3.75873         1.29040        -3.75872     420.218E-03    -13.6587E-03     247.649E-03    -117.197E-03    -130.452E-03    -117.601E-03     235.624E-03    -118.024E-03     107.443E-03     122.323E+06     119.071E+06    -6.86820E+06    -6.86288E+06     122.318E+06     119.071E+06     302.667E+03         50.5203
             921     14.2299E-03     20.7520E-03         1.16482     380.412E-03        -3.58442         1.16478        -3.58438     380.412E-03    -26.3578E-03     251.314E-03    -118.021E-03    -133.294E-03    -117.973E-03     235.993E-03    -118.021E-03     144.984E-03     121.012E+06     115.834E+06    -15.5078E+06    -15.5030E+06     117.512E+06     119.328E+06     534.522E+03         50.2622
             922     13.3423E-03     20.6331E-03         1.04386     344.021E-03        -3.41855         1.04375        -3.41843     344.021E-03    -43.4710E-03     244.337E-03    -117.954E-03    -126.383E-03    -116.789E-03     234.743E-03    -117.954E-03     116.726E-03     117.210E+06     108.508E+06    -25.0831E+06    -25.0815E+06     108.507E+06     117.210E+06     193.853E+03         49.9309
             923     12.4532E-03     20.4742E-03     928.180E-03     309.551E-03        -3.26109     927.957E-03        -3.26086     309.551E-03    -60.1498E-03     243.538E-03    -117.789E-03    -125.749E-03    -116.488E-03     234.276E-03    -117.789E-03     114.143E-03     106.300E+06     98.2207E+06    -34.9059E+06    -34.9018E+06     101.089E+06     103.428E+06     526.265E+03         49.5318
             924     11.5658E-03     20.3613E-03     817.631E-03     276.698E-03        -3.11140     817.205E-03        -3.11097     276.698E-03    -80.2430E-03     238.883E-03    -117.484E-03    -121.399E-03    -116.352E-03     233.836E-03    -117.484E-03     83.9251E-03     90.9488E+06     68.0376E+06    -43.9369E+06    -43.9302E+06     90.9420E+06     68.0376E+06     824.740E+03         49.0716
             925     10.6788E-03     20.2742E-03     711.933E-03     244.196E-03        -2.96802     711.372E-03        -2.96746     244.196E-03    -90.6772E-03     236.552E-03    -117.171E-03    -119.381E-03    -116.733E-03     233.904E-03    -117.171E-03     59.8974E-03     58.3339E+06     31.9746E+06    -51.1190E+06    -51.1120E+06     58.3269E+06     31.9746E+06     848.255E+03         48.5615
             926     9.78964E-03     20.2190E-03     611.175E-03     212.326E-03        -2.83133     610.488E-03        -2.83064     212.326E-03    -96.5168E-03     235.136E-03    -116.984E-03    -118.152E-03    -116.987E-03     233.971E-03    -116.984E-03     39.7510E-03     18.4192E+06    -20.7505E+06    -60.1786E+06    -57.5367E+06    -17.0721E+06     12.0990E+06     764.658E+03         48.0131
             927     8.90146E-03     20.1797E-03     516.178E-03     181.624E-03        -2.70230     515.487E-03        -2.70161     181.624E-03    -93.9024E-03     234.581E-03    -116.830E-03    -117.751E-03    -117.207E-03     234.037E-03    -116.830E-03     27.1167E-03    -995.073E+03    -63.8496E+06    -97.8567E+06    -63.9201E+06    -97.7861E+06    -995.073E+03     650.645E+03         47.4402
             928     8.01352E-03     20.1512E-03     427.666E-03     152.670E-03        -2.58209     427.000E-03        -2.58142     152.670E-03    -89.0375E-03     233.964E-03    -116.637E-03    -117.327E-03    -117.088E-03     233.725E-03    -116.637E-03     17.6899E-03    -14.2050E+06    -70.9223E+06    -152.712E+06    -70.9347E+06    -152.700E+06    -14.2050E+06     461.296E+03         46.8582
             929     7.12419E-03     20.1329E-03     345.938E-03     125.720E-03        -2.47119     345.281E-03        -2.47053     125.720E-03    -85.7907E-03     233.324E-03    -116.463E-03    -116.860E-03    -116.778E-03     233.241E-03    -116.463E-03     10.1735E-03    -25.1728E+06    -78.4376E+06    -197.836E+06    -78.4530E+06    -197.820E+06    -25.1728E+06     746.071E+03         46.2833
             930     6.23483E-03     20.1235E-03     271.900E-03     100.998E-03        -2.37038     271.375E-03        -2.36985     100.998E-03    -74.4503E-03     232.728E-03    -116.238E-03    -116.490E-03    -116.405E-03     232.707E-03    -116.302E-03     4.70551E-03    -35.6724E+06    -85.1203E+06    -226.431E+06    -85.1436E+06    -226.408E+06    -35.6724E+06     1.21930E+06         45.7318
             931     5.34460E-03     20.1197E-03     206.079E-03     78.7929E-03        -2.28110     205.629E-03        -2.28065     78.7929E-03    -66.7437E-03     232.239E-03    -115.989E-03    -116.250E-03    -116.108E-03     232.235E-03    -116.127E-03     740.069E-06    -51.0056E+06    -91.1102E+06    -238.035E+06    -91.1345E+06    -238.011E+06    -51.0056E+06     1.14422E+06         45.2191
             932     4.45356E-03     20.1191E-03     149.081E-03     59.3779E-03        -2.20348     148.529E-03        -2.20293     59.3779E-03    -71.0555E-03     232.056E-03    -115.848E-03    -116.208E-03    -116.082E-03     232.048E-03    -115.966E-03    -2.51284E-03    -66.4273E+06    -96.5166E+06    -249.046E+06    -96.5331E+06    -249.030E+06    -66.4273E+06     462.434E+03         44.7593
             933     3.56418E-03     20.1225E-03     101.736E-03     42.9017E-03        -2.13820     101.300E-03        -2.13776     42.9017E-03    -58.8989E-03     231.694E-03    -115.639E-03    -116.055E-03    -115.849E-03     231.678E-03    -115.829E-03    -4.48084E-03    -79.7428E+06    -102.691E+06    -259.178E+06    -102.700E+06    -259.170E+06    -79.7428E+06    -620.980E+03         44.3646
             934     2.67312E-03     20.1255E-03     63.0642E-03     29.7742E-03        -2.08585     62.2286E-03        -2.08501     29.7742E-03    -74.2948E-03     231.116E-03    -115.276E-03    -115.840E-03    -115.308E-03     231.099E-03    -115.791E-03    -4.83857E-03    -93.9018E+06    -108.309E+06    -266.551E+06    -108.320E+06    -266.539E+06    -93.9018E+06    -1.32648E+06         44.0451
             935     1.78053E-03     20.1294E-03     37.1678E-03     20.0126E-03        -2.04940     35.7618E-03        -2.04800     20.0126E-03    -6.19412E-03     231.323E-03    -115.379E-03    -115.945E-03    -115.398E-03     231.311E-03    -115.913E-03    -3.70918E-03    -105.176E+06    -114.068E+06    -274.379E+06    -114.076E+06    -274.371E+06    -105.176E+06    -931.263E+03         43.8089
             936     889.819E-06     20.1313E-03     176.161E-03    -136.244E-03        -2.03156     167.836E-03        -2.02323    -136.244E-03    -136.123E-03     231.968E-03    -115.632E-03    -116.336E-03    -116.020E-03     231.963E-03    -115.943E-03    -1.94458E-03    -112.817E+06    -117.539E+06    -280.425E+06    -117.492E+06    -280.401E+06    -112.887E+06    -1.21944E+06         43.6606
             937     15.1191E-03     19.7178E-03         1.28839     511.731E-03        -3.82702         1.28837        -3.82700     511.731E-03    -17.1628E-03     248.320E-03    -117.411E-03    -130.909E-03    -118.408E-03     236.437E-03    -118.029E-03     108.243E-03     121.953E+06     119.283E+06    -7.60542E+06    -7.59839E+06     121.946E+06     119.283E+06     222.051E+03         50.4032
             938     14.2314E-03     19.4849E-03         1.17659     480.203E-03        -3.67494         1.17653        -3.67487     480.203E-03    -34.0205E-03     251.960E-03    -117.967E-03    -133.993E-03    -118.888E-03     236.855E-03    -117.967E-03     144.379E-03     120.635E+06     115.716E+06    -15.7033E+06    -15.6968E+06     117.063E+06     119.281E+06     618.000E+03         50.1446
             939     13.3427E-03     19.3648E-03         1.07023     452.188E-03        -3.53233         1.07005        -3.53216     452.188E-03    -54.9837E-03     244.736E-03    -117.832E-03    -126.903E-03    -117.675E-03     235.507E-03    -117.832E-03     114.860E-03     117.377E+06     108.526E+06    -24.7447E+06    -24.7406E+06     108.522E+06     117.377E+06     648.547E+03         49.8131
             940     12.4564E-03     19.2065E-03     969.690E-03     425.722E-03        -3.39847     969.367E-03        -3.39815     425.722E-03    -74.1258E-03     244.230E-03    -117.569E-03    -126.661E-03    -117.887E-03     235.456E-03    -117.569E-03     111.456E-03     106.045E+06     97.7213E+06    -34.7498E+06    -34.7489E+06     100.759E+06     103.006E+06     306.930E+03         49.4144
             941     11.5696E-03     19.0926E-03     874.351E-03     400.430E-03        -3.27207     873.783E-03        -3.27151     400.430E-03    -95.6321E-03     239.636E-03    -117.132E-03    -122.504E-03    -117.793E-03     234.925E-03    -117.132E-03     81.1115E-03     90.6641E+06     67.4006E+06    -43.5664E+06    -43.5616E+06     90.6593E+06     67.4006E+06     627.223E+03         48.9552
             942     10.6818E-03     19.0079E-03     783.313E-03     374.662E-03        -3.15087     782.579E-03        -3.15014     374.662E-03    -107.342E-03     236.951E-03    -116.672E-03    -120.279E-03    -117.974E-03     234.646E-03    -116.672E-03     55.6295E-03     58.7967E+06     30.3358E+06    -51.8681E+06    -51.8601E+06     58.7887E+06     30.3358E+06     906.346E+03         48.4463
             943     9.79558E-03     18.9522E-03     696.549E-03     348.726E-03        -3.03489     695.677E-03        -3.03402     348.726E-03    -113.540E-03     235.251E-03    -116.334E-03    -118.916E-03    -118.016E-03     234.350E-03    -116.334E-03     34.5814E-03     18.0041E+06    -22.7405E+06    -61.0741E+06    -59.0725E+06    -16.5059E+06     9.76780E+06     726.525E+03         47.8993
             944     8.90866E-03     18.9144E-03     614.527E-03     323.255E-03        -2.92484     613.647E-03        -2.92396     323.255E-03    -111.378E-03     234.124E-03    -116.048E-03    -118.075E-03    -117.715E-03     233.764E-03    -116.048E-03     21.8030E-03    -1.82852E+06    -65.2098E+06    -97.3424E+06    -65.3178E+06    -97.2344E+06    -1.82852E+06     1.05442E+06         47.3277
             945     8.01989E-03     18.8878E-03     537.989E-03     298.913E-03        -2.82191     537.155E-03        -2.82108     298.913E-03    -105.657E-03     232.830E-03    -115.754E-03    -117.076E-03    -116.942E-03     232.696E-03    -115.754E-03     12.4380E-03    -14.4264E+06    -71.8628E+06    -151.592E+06    -71.8831E+06    -151.571E+06    -14.4264E+06     950.481E+03         46.7465
             946     7.13038E-03     18.8716E-03     467.276E-03     276.006E-03        -2.72679     466.471E-03        -2.72599     276.006E-03    -101.234E-03     231.718E-03    -115.517E-03    -116.201E-03    -116.169E-03     231.686E-03    -115.517E-03     4.90487E-03    -26.4258E+06    -78.0633E+06    -197.918E+06    -78.0675E+06    -197.914E+06    -26.4258E+06     336.592E+03         46.1718
             947     6.23964E-03     18.8625E-03     402.977E-03     254.834E-03        -2.64001     402.334E-03        -2.63937     254.834E-03    -88.4180E-03     231.153E-03    -115.312E-03    -115.841E-03    -115.828E-03     231.140E-03    -115.312E-03    -288.128E-06    -36.9582E+06    -84.8422E+06    -227.353E+06    -84.8547E+06    -227.340E+06    -36.9582E+06     726.368E+03         45.6202
             948     5.34935E-03     18.8594E-03     346.088E-03     235.686E-03        -2.56297     345.542E-03        -2.56242     235.686E-03    -79.6879E-03     230.728E-03    -115.081E-03    -115.647E-03    -115.627E-03     230.709E-03    -115.081E-03    -3.89436E-03    -48.8564E+06    -91.5148E+06    -237.715E+06    -91.5376E+06    -237.692E+06    -48.8564E+06     1.06925E+06         45.1073
             949     4.45932E-03     18.8594E-03     296.610E-03     218.803E-03        -2.49595     296.034E-03        -2.49538     218.803E-03    -79.9262E-03     230.118E-03    -114.836E-03    -115.282E-03    -115.253E-03     230.088E-03    -114.836E-03    -5.95518E-03    -66.0275E+06    -98.1932E+06    -247.708E+06    -98.2063E+06    -247.695E+06    -66.0275E+06     628.371E+03         44.6470
             950     3.56772E-03     18.8627E-03     255.234E-03     204.376E-03        -2.43956     254.783E-03        -2.43911     204.376E-03    -67.9387E-03     229.613E-03    -114.612E-03    -115.001E-03    -114.967E-03     229.578E-03    -114.612E-03    -6.74202E-03    -82.9939E+06    -104.310E+06    -257.803E+06    -104.316E+06    -257.796E+06    -82.9939E+06    -402.990E+03         44.2518
             951     2.67637E-03     18.8685E-03     221.464E-03     192.793E-03        -2.39382     220.851E-03        -2.39321     192.793E-03    -75.3307E-03     229.107E-03    -114.265E-03    -114.841E-03    -114.635E-03     229.076E-03    -114.441E-03    -6.41642E-03    -94.3885E+06    -109.787E+06    -267.426E+06    -109.795E+06    -267.418E+06    -94.3885E+06    -963.678E+03         43.9320
             952     1.78483E-03     18.8719E-03     198.401E-03     184.209E-03        -2.36149     197.694E-03        -2.36078     184.209E-03    -18.1292E-03     228.620E-03    -113.993E-03    -114.626E-03    -114.266E-03     228.601E-03    -114.336E-03    -4.93583E-03    -105.451E+06    -116.528E+06    -274.566E+06    -115.453E+06    -274.542E+06    -106.551E+06     297.796E+03         43.6954
             953     892.102E-06     18.8726E-03     304.867E-03     60.3152E-03        -2.34377     300.691E-03        -2.33959     60.3152E-03    -112.782E-03     228.581E-03    -113.979E-03    -114.602E-03    -114.282E-03     228.572E-03    -114.291E-03    -3.44930E-03    -117.055E+06    -122.917E+06    -282.504E+06    -120.679E+06    -282.458E+06    -119.340E+06    -609.197E+03         43.5466
             954     15.1193E-03     18.4469E-03         1.28593     623.464E-03        -3.91055         1.28590        -3.91053     623.464E-03    -20.8561E-03     249.458E-03    -117.850E-03    -131.608E-03    -119.737E-03     237.737E-03    -118.001E-03     109.680E-03     121.449E+06     119.292E+06    -7.21524E+06    -7.21029E+06     121.444E+06     119.292E+06     503.982E+03         50.2792
             955     14.2325E-03     18.2178E-03         1.19091     601.153E-03        -3.78470         1.19081        -3.78460     601.153E-03    -42.8973E-03     253.280E-03    -117.834E-03    -135.446E-03    -120.714E-03     238.548E-03    -117.834E-03     143.035E-03     120.654E+06     116.023E+06    -14.9927E+06    -14.9880E+06     117.023E+06     119.649E+06     442.045E+03         50.0205
             956     13.3469E-03     18.0943E-03         1.10210     582.300E-03        -3.66947         1.10185        -3.66923     582.300E-03    -67.3651E-03     245.907E-03    -117.563E-03    -128.345E-03    -119.561E-03     237.124E-03    -117.563E-03     112.585E-03     117.884E+06     108.874E+06    -23.7357E+06    -23.7310E+06     108.869E+06     117.884E+06     657.599E+03         49.6897
             957     12.4611E-03     17.9381E-03         1.01935     564.622E-03        -3.56294         1.01891        -3.56250     564.622E-03    -88.9671E-03     245.419E-03    -117.130E-03    -128.289E-03    -120.107E-03     237.237E-03    -117.130E-03     107.941E-03     106.397E+06     98.3110E+06    -33.5225E+06    -33.5142E+06     101.004E+06     103.695E+06     838.855E+03         49.2923
             958     11.5757E-03     17.8229E-03     941.829E-03     547.606E-03        -3.46349     941.106E-03        -3.46277     547.606E-03    -111.795E-03     240.942E-03    -116.464E-03    -124.478E-03    -120.418E-03     236.882E-03    -116.464E-03     75.1169E-03     89.6320E+06     66.8522E+06    -43.6665E+06    -43.6485E+06     89.6139E+06     66.8522E+06     1.39826E+06         48.8352
             959     10.6924E-03     17.7397E-03     868.111E-03     529.183E-03        -3.36795     867.193E-03        -3.36703     529.183E-03    -124.578E-03     237.532E-03    -115.746E-03    -121.786E-03    -120.092E-03     235.837E-03    -115.746E-03     47.2462E-03     59.3709E+06     30.4894E+06    -51.7922E+06    -51.7689E+06     59.3476E+06     30.4894E+06     1.54125E+06         48.3290
             960     9.80650E-03     17.6853E-03     797.755E-03     509.687E-03        -3.27588     796.703E-03        -3.27483     509.687E-03    -130.606E-03     234.840E-03    -115.173E-03    -119.667E-03    -119.132E-03     234.304E-03    -115.173E-03     25.7224E-03     18.6809E+06    -22.0371E+06    -60.5092E+06    -58.9101E+06    -14.8329E+06     9.87764E+06     1.45675E+06         47.7846
             961     8.91911E-03     17.6509E-03     730.900E-03     489.883E-03        -3.18781     729.847E-03        -3.18675     489.883E-03    -128.307E-03     232.920E-03    -114.691E-03    -118.229E-03    -118.073E-03     232.764E-03    -114.691E-03     12.5934E-03    -3.42451E+06    -65.2619E+06    -96.7376E+06    -65.6818E+06    -96.3178E+06    -3.42451E+06     1.29152E+06         47.2151
             962     8.03113E-03     17.6256E-03     668.399E-03     470.530E-03        -3.10481     667.423E-03        -3.10383     470.530E-03    -121.280E-03     231.149E-03    -114.235E-03    -116.914E-03    -116.865E-03     231.100E-03    -114.235E-03     3.08949E-03    -15.7269E+06    -72.1839E+06    -150.431E+06    -72.2059E+06    -150.409E+06    -15.7269E+06     999.172E+03         46.6355
             963     7.14148E-03     17.6125E-03     610.454E-03     452.000E-03        -3.02752     609.537E-03        -3.02660     452.000E-03    -115.382E-03     229.618E-03    -113.843E-03    -115.775E-03    -115.738E-03     229.581E-03    -113.843E-03    -4.02502E-03    -28.3644E+06    -79.2207E+06    -197.033E+06    -79.2332E+06    -197.021E+06    -28.3644E+06     602.872E+03         46.0619
             964     6.25091E-03     17.6042E-03     557.503E-03     434.661E-03        -2.95677     556.776E-03        -2.95604     434.661E-03    -100.884E-03     228.386E-03    -113.503E-03    -114.884E-03    -114.817E-03     228.320E-03    -113.503E-03    -8.21431E-03    -40.0530E+06    -84.7589E+06    -227.039E+06    -84.7637E+06    -227.034E+06    -40.0530E+06    -286.487E+03         45.5107
             965     5.35959E-03     17.6014E-03     510.591E-03     418.777E-03        -2.89372     509.986E-03        -2.89312     418.777E-03    -90.7317E-03     227.271E-03    -113.210E-03    -114.061E-03    -113.966E-03     227.176E-03    -113.210E-03    -10.6735E-03    -51.3074E+06     -90.338E+06    -238.246E+06    -90.3528E+06    -238.232E+06    -51.3074E+06     87.8551E+03         44.9975
             966     4.46669E-03     17.6037E-03     469.298E-03     404.581E-03        -2.83823     468.719E-03        -2.83765     404.581E-03    -87.3477E-03     226.371E-03    -112.983E-03    -113.388E-03    -113.287E-03     226.270E-03    -112.983E-03    -11.1836E-03    -65.1046E+06    -96.8554E+06    -247.419E+06    -96.8742E+06    -247.400E+06    -65.1046E+06     977.439E+03         44.5367
             967     3.57359E-03     17.6078E-03     434.711E-03     392.354E-03        -2.79119     434.259E-03        -2.79074     392.354E-03    -75.5531E-03     225.927E-03    -112.793E-03    -113.134E-03    -113.042E-03     225.835E-03    -112.793E-03    -10.7726E-03    -81.2974E+06    -103.457E+06    -256.957E+06    -103.472E+06    -256.942E+06    -81.2974E+06     732.295E+03         44.1408
             968     2.68068E-03     17.6126E-03     406.413E-03     382.429E-03        -2.75297     405.937E-03        -2.75249     382.429E-03    -75.9580E-03     225.725E-03    -112.577E-03    -113.148E-03    -113.081E-03     225.658E-03    -112.577E-03    -9.20318E-03    -95.6341E+06    -110.448E+06    -268.175E+06    -110.472E+06    -268.151E+06    -95.6341E+06     1.07706E+06         43.8204
             969     1.78796E-03     17.6181E-03     386.327E-03     375.080E-03        -2.72572     385.959E-03        -2.72535     375.080E-03    -27.5946E-03     225.158E-03    -112.253E-03    -112.905E-03    -112.874E-03     225.127E-03    -112.253E-03    -6.18099E-03    -106.810E+06    -116.831E+06    -275.376E+06    -115.769E+06    -275.338E+06    -107.909E+06     1.90806E+06         43.5834
             970     894.690E-06     17.6202E-03     466.754E-03     279.076E-03        -2.70887     464.792E-03        -2.70690     279.076E-03    -92.0729E-03     224.086E-03    -111.560E-03    -112.527E-03    -112.516E-03     224.075E-03    -111.560E-03    -3.73255E-03    -116.807E+06    -122.223E+06    -279.119E+06    -120.163E+06    -278.926E+06    -119.059E+06     3.32149E+06         43.4343
             971     15.1198E-03     17.1781E-03         1.28320     752.754E-03        -4.00636         1.28316        -4.00632     752.754E-03    -25.0701E-03     251.362E-03    -117.916E-03    -133.446E-03    -121.836E-03     239.752E-03    -117.916E-03     111.150E-03     120.999E+06     119.372E+06    -6.69669E+06    -6.69154E+06     120.994E+06     119.372E+06     322.244E+03         50.1500
             972     14.2361E-03     16.9439E-03         1.20748     740.402E-03        -3.91101         1.20733        -3.91087     740.402E-03    -52.4226E-03     255.530E-03    -117.584E-03    -137.945E-03    -123.713E-03     241.297E-03    -117.584E-03     140.848E-03     120.586E+06     116.187E+06    -14.6310E+06    -14.6255E+06     116.806E+06     119.961E+06     304.076E+03         49.8919
             973     13.3523E-03     16.8249E-03         1.13843     731.295E-03        -3.82624         1.13809        -3.82591     731.295E-03    -80.3780E-03     248.302E-03    -117.067E-03    -131.235E-03    -123.204E-03     240.272E-03    -117.067E-03     108.444E-03     117.530E+06     108.311E+06    -23.7834E+06    -23.7788E+06     108.306E+06     117.530E+06     700.449E+03         49.5630
             974     12.4696E-03     16.6655E-03         1.07591     722.971E-03        -3.75043         1.07534        -3.74986     722.971E-03    -104.385E-03     247.828E-03    -116.308E-03    -131.520E-03    -124.329E-03     240.637E-03    -116.308E-03     101.401E-03     105.617E+06     97.9492E+06    -33.6154E+06    -33.5965E+06     100.153E+06     103.395E+06     1.41977E+06         49.1689
             975     11.5902E-03     16.5503E-03         1.01864     714.663E-03        -3.68123         1.01775        -3.68034     714.663E-03    -128.251E-03     242.500E-03    -115.269E-03    -127.231E-03    -124.131E-03     239.400E-03    -115.269E-03     65.4455E-03     89.6145E+06     68.3956E+06    -42.9715E+06    -42.9429E+06     89.5859E+06     68.3956E+06     1.92360E+06         48.7159
             976     10.7084E-03     16.4698E-03     964.283E-03     703.842E-03        -3.61403     963.189E-03        -3.61293     703.842E-03    -141.464E-03     237.884E-03    -114.180E-03    -123.704E-03    -122.646E-03     236.827E-03    -114.180E-03     35.9523E-03     60.7936E+06     32.3584E+06    -50.5853E+06    -50.5497E+06     60.7581E+06     32.3584E+06     1.91157E+06         48.2144
             977     9.82489E-03     16.4206E-03     912.251E-03     690.977E-03        -3.54815     911.037E-03        -3.54693     690.977E-03    -146.939E-03     234.226E-03    -113.263E-03    -120.964E-03    -120.753E-03     234.015E-03    -113.263E-03     13.5834E-03     19.7287E+06    -19.9600E+06    -59.2145E+06    -56.9373E+06    -12.7985E+06     10.2900E+06     2.08529E+06         47.6745
             978     8.93933E-03     16.3878E-03     862.505E-03     677.015E-03        -3.48429     861.309E-03        -3.48309     677.015E-03    -144.083E-03     231.345E-03    -112.469E-03    -118.875E-03    -118.821E-03     231.290E-03    -112.469E-03    -260.810E-06    -3.95092E+06    -62.6198E+06    -95.1016E+06    -63.1713E+06    -94.5501E+06    -3.95092E+06     1.88193E+06         47.1089
             979     8.05096E-03     16.3673E-03     815.550E-03     662.790E-03        -3.42321     814.473E-03        -3.42214     662.790E-03    -135.109E-03     228.563E-03    -111.745E-03    -116.818E-03    -116.700E-03     228.444E-03    -111.745E-03    -9.85671E-03    -15.8338E+06    -69.7043E+06    -150.059E+06    -69.7831E+06    -149.980E+06    -15.8338E+06     2.31890E+06         46.5324
             980     7.16072E-03     16.3557E-03     771.666E-03     648.731E-03        -3.36552     770.683E-03        -3.36454     648.731E-03    -127.396E-03     226.032E-03    -111.127E-03    -114.905E-03    -114.687E-03     225.814E-03    -111.127E-03    -15.8087E-03    -27.4237E+06    -76.8613E+06    -194.078E+06    -76.9192E+06    -194.020E+06    -27.4237E+06     2.04717E+06         45.9610
             981     6.26899E-03     16.3507E-03     730.977E-03     635.248E-03        -3.31185     730.206E-03        -3.31108     635.248E-03    -111.376E-03     223.711E-03    -110.627E-03    -113.084E-03    -112.799E-03     223.426E-03    -110.627E-03    -18.5707E-03    -40.2109E+06    -84.9575E+06    -225.411E+06    -84.9732E+06    -225.396E+06    -40.2109E+06     326.469E+03         45.4109
             982     5.37452E-03     16.3504E-03     694.651E-03     622.639E-03        -3.26332     694.022E-03        -3.26270     622.639E-03    -99.7022E-03     221.798E-03    -110.244E-03    -111.554E-03    -111.241E-03     221.485E-03    -110.244E-03    -19.6365E-03    -56.0957E+06    -92.6613E+06    -239.678E+06    -92.6662E+06    -239.673E+06    -56.0957E+06    -401.816E+03         44.8980
             983     4.47944E-03     16.3537E-03     662.212E-03     611.209E-03        -3.22023     661.654E-03        -3.21968     611.209E-03    -92.8972E-03     220.699E-03    -109.994E-03    -110.704E-03    -110.416E-03     220.411E-03    -109.994E-03    -18.9123E-03    -69.2483E+06    -98.4065E+06    -247.740E+06    -98.4153E+06    -247.732E+06    -69.2483E+06     513.754E+03         44.4369
             984     3.58420E-03     16.3577E-03     634.750E-03     601.275E-03        -3.18323     634.318E-03        -3.18280     601.275E-03    -80.7766E-03     220.066E-03    -109.816E-03    -110.250E-03    -110.022E-03     219.838E-03    -109.816E-03    -16.9296E-03    -82.9649E+06    -103.539E+06    -257.015E+06    -103.561E+06    -256.993E+06    -82.9649E+06     1.69923E+06         44.0405
             985     2.68818E-03     16.3641E-03     612.284E-03     593.106E-03        -3.15260     611.896E-03        -3.15221     593.106E-03    -75.9870E-03     219.722E-03    -109.662E-03    -110.060E-03    -109.905E-03     219.567E-03    -109.662E-03    -13.8450E-03    -95.7602E+06    -108.171E+06    -267.943E+06    -108.204E+06    -267.910E+06    -95.7602E+06     2.19217E+06         43.7194
             986     1.79209E-03     16.3684E-03     596.058E-03     586.866E-03        -3.13059     595.839E-03        -3.13037     586.866E-03    -34.9160E-03     219.379E-03    -109.444E-03    -109.935E-03    -109.811E-03     219.299E-03    -109.488E-03    -9.70262E-03    -102.232E+06    -114.211E+06    -275.932E+06    -114.276E+06    -275.866E+06    -102.232E+06     2.68288E+06         43.4819
             987     896.607E-06     16.3729E-03     651.272E-03     517.413E-03        -3.11608     650.400E-03        -3.11521     517.413E-03    -74.5739E-03     218.665E-03    -108.644E-03    -110.022E-03    -109.273E-03     218.638E-03    -109.366E-03    -5.26992E-03    -113.143E+06    -120.311E+06    -274.070E+06    -120.488E+06    -273.854E+06    -113.182E+06     4.01272E+06         43.3327
             988     15.1223E-03     15.9045E-03         1.27967     896.490E-03        -4.11207         1.27962        -4.11201     896.490E-03    -30.1824E-03     254.634E-03    -117.743E-03    -136.891E-03    -125.525E-03     243.268E-03    -117.743E-03     113.051E-03     120.830E+06     119.736E+06    -6.62788E+06    -6.62240E+06     120.824E+06     119.736E+06     337.048E+03         50.0175
             989     14.2413E-03     15.6680E-03         1.22545     894.655E-03        -4.05003         1.22525        -4.04983     894.655E-03    -62.3300E-03     259.133E-03    -117.127E-03    -142.006E-03    -128.567E-03     245.695E-03    -117.127E-03     137.319E-03     119.485E+06     115.256E+06    -15.4280E+06    -15.4222E+06     115.646E+06     119.089E+06    -36.0087E+03         49.7612
             990     13.3625E-03     15.5496E-03         1.17835     895.695E-03        -3.99887         1.17791        -3.99843     895.695E-03    -94.1582E-03     252.408E-03    -116.208E-03    -136.200E-03    -129.253E-03     245.461E-03    -116.208E-03     102.197E-03     116.961E+06     107.006E+06    -24.5772E+06    -24.5679E+06     106.996E+06     116.961E+06     616.490E+03         49.4360
             991     12.4882E-03     15.3871E-03         1.13827     896.919E-03        -3.95665         1.13756        -3.95593     896.919E-03    -120.318E-03     250.964E-03    -114.956E-03    -136.008E-03    -130.079E-03     245.035E-03    -114.956E-03     92.4272E-03     105.779E+06     98.0161E+06    -33.7932E+06    -33.7757E+06     99.6385E+06     104.139E+06     1.34392E+06         49.0474
             992     11.6117E-03     15.2762E-03         1.10288     897.244E-03        -3.91964         1.10183        -3.91859     897.244E-03    -144.538E-03     243.786E-03    -113.423E-03    -130.363E-03    -128.227E-03     241.650E-03    -113.423E-03     53.9085E-03     89.8361E+06     69.6375E+06    -42.3858E+06    -42.3619E+06     89.8122E+06     69.6375E+06     1.67241E+06         48.6011
             993     10.7336E-03     15.1994E-03         1.06937     893.935E-03        -3.88252         1.06811        -3.88127     893.935E-03    -157.441E-03     238.249E-03    -111.860E-03    -126.390E-03    -125.846E-03     237.706E-03    -111.860E-03     22.7791E-03     61.9741E+06     31.9559E+06    -49.7447E+06    -49.7109E+06     61.9403E+06     31.9559E+06     1.87071E+06         48.1066
             994     9.85252E-03     15.1555E-03         1.03709     887.626E-03        -3.84456         1.03575        -3.84322     887.626E-03    -161.559E-03     233.616E-03    -110.475E-03    -123.142E-03    -123.056E-03     233.531E-03    -110.475E-03    -616.562E-06     20.3138E+06    -19.3908E+06    -58.7151E+06    -56.5777E+06    -10.0688E+06     8.85434E+06     2.61085E+06         47.5738
             995     8.96802E-03     15.1279E-03         1.00547     879.395E-03        -3.80605         1.00418        -3.80476     879.395E-03    -157.455E-03     229.350E-03    -109.242E-03    -120.108E-03    -119.885E-03     229.127E-03    -109.242E-03    -14.6871E-03    -5.72394E+06    -61.2501E+06    -94.8931E+06    -63.2362E+06    -92.9070E+06    -5.72394E+06     3.49366E+06         47.0147
             996     8.08063E-03     15.1126E-03     974.950E-03     870.155E-03        -3.76777     973.819E-03        -3.76664     870.155E-03    -146.354E-03     224.993E-03    -108.129E-03    -116.864E-03    -116.378E-03     224.506E-03    -108.129E-03    -24.2815E-03    -17.8489E+06    -69.8172E+06    -149.012E+06    -70.0275E+06    -148.801E+06    -17.8489E+06     3.86662E+06         46.4435
             997     7.18933E-03     15.1059E-03     945.722E-03     860.408E-03        -3.73038     944.722E-03        -3.72938     860.408E-03    -136.598E-03     220.769E-03    -107.200E-03    -113.569E-03    -112.878E-03     220.077E-03    -107.200E-03    -29.3888E-03    -29.8592E+06    -76.8044E+06    -190.784E+06    -76.9359E+06    -190.652E+06    -29.8592E+06     3.70953E+06         45.8758
             998     6.29437E-03     15.1047E-03     917.657E-03     850.676E-03        -3.69444     916.880E-03        -3.69366     850.676E-03    -119.176E-03     217.275E-03    -106.484E-03    -110.791E-03    -110.009E-03     216.493E-03    -106.484E-03    -31.1710E-03    -42.2225E+06    -84.6422E+06    -222.806E+06    -84.7364E+06    -222.712E+06    -42.2225E+06     3.12775E+06         45.3282
             999     5.39794E-03     15.1078E-03     892.486E-03     841.320E-03        -3.66109     891.870E-03        -3.66047     841.320E-03    -105.725E-03     214.609E-03    -105.938E-03    -108.672E-03    -107.912E-03     213.850E-03    -105.938E-03    -30.6514E-03    -57.5082E+06    -93.1824E+06    -238.892E+06    -93.2469E+06    -238.828E+06    -57.5082E+06     2.24595E+06         44.8167
            1000     4.49969E-03     15.1119E-03     869.489E-03     832.655E-03        -3.63068     868.968E-03        -3.63016     832.655E-03    -96.4389E-03     212.615E-03    -105.552E-03    -107.062E-03    -106.420E-03     211.973E-03    -105.552E-03    -28.0747E-03    -74.8511E+06    -101.614E+06    -248.558E+06    -101.646E+06    -248.526E+06    -74.8511E+06     1.58892E+06         44.3561
            1001     3.59992E-03     15.1181E-03     849.355E-03     825.021E-03        -3.60410     848.957E-03        -3.60370     825.021E-03    -83.7818E-03     211.433E-03    -105.323E-03    -106.110E-03    -105.632E-03     210.954E-03    -105.323E-03    -24.1429E-03     -88.752E+06    -108.408E+06    -257.612E+06    -108.432E+06    -257.588E+06     -88.752E+06     1.73422E+06         43.9596
            1002     2.70021E-03     15.1235E-03     833.027E-03     818.621E-03        -3.58160     832.709E-03        -3.58128     818.621E-03    -74.6313E-03     210.834E-03    -105.191E-03    -105.643E-03    -105.330E-03     210.521E-03    -105.191E-03    -19.4364E-03    -97.9615E+06    -113.795E+06    -268.193E+06    -113.833E+06    -268.155E+06    -97.9615E+06     2.22987E+06         43.6383
            1003     1.80062E-03     15.1292E-03     820.323E-03     813.641E-03        -3.56487     820.171E-03        -3.56472     813.641E-03    -40.2720E-03     210.292E-03    -105.010E-03    -105.282E-03    -104.996E-03     210.126E-03    -105.130E-03    -13.9568E-03    -106.267E+06    -118.860E+06    -273.193E+06    -118.930E+06    -273.122E+06    -106.267E+06     2.33423E+06         43.4007
            1004     899.540E-06     15.1337E-03     856.792E-03     765.869E-03        -3.55338     856.426E-03        -3.55302     765.869E-03    -58.8407E-03     210.219E-03    -104.576E-03    -105.643E-03    -104.517E-03     210.160E-03    -105.643E-03    -7.95472E-03    -116.116E+06    -121.691E+06    -270.270E+06    -121.749E+06    -270.142E+06    -116.187E+06    -738.104E+03         43.2514
            1005     15.1258E-03     14.6236E-03         1.27530         1.05133        -4.22499         1.27522        -4.22491         1.05133    -36.7697E-03     259.805E-03    -117.432E-03    -142.374E-03    -131.645E-03     249.076E-03    -117.432E-03     113.908E-03     120.932E+06     120.149E+06    -6.47461E+06    -6.46970E+06     120.671E+06     120.405E+06     668.337E+03         49.8834
            1006     14.2519E-03     14.3877E-03         1.24427         1.06024        -4.19826         1.24400        -4.19798         1.06024    -74.3656E-03     264.043E-03    -116.385E-03    -147.659E-03    -135.323E-03     251.708E-03    -116.385E-03     133.124E-03     120.104E+06     115.435E+06    -14.8521E+06    -14.8454E+06     115.719E+06     119.814E+06     499.126E+03         49.6303
            1007     13.3807E-03     14.2643E-03         1.22134         1.07146        -4.18326         1.22077        -4.18269         1.07146    -109.881E-03     257.113E-03    -114.955E-03    -142.159E-03    -136.068E-03     251.022E-03    -114.955E-03     97.2322E-03     117.184E+06     106.488E+06    -24.3852E+06    -24.3759E+06     106.478E+06     117.184E+06     401.484E+03         49.3107
            1008     12.5115E-03     14.1047E-03         1.20506         1.08195        -4.17630         1.20418        -4.17541         1.08195    -137.399E-03     254.286E-03    -113.151E-03    -141.135E-03    -136.181E-03     249.332E-03    -113.151E-03     84.9168E-03     105.807E+06     98.5386E+06    -33.2386E+06    -33.2312E+06     99.2256E+06     105.113E+06     666.401E+03         48.9297
            1009     11.6408E-03     13.9996E-03         1.19262         1.09044        -4.17263         1.19141        -4.17142         1.09044    -160.754E-03     245.953E-03    -111.040E-03    -134.913E-03    -133.441E-03     244.481E-03    -111.040E-03     44.1474E-03     88.8189E+06     69.9051E+06    -41.7187E+06    -41.6877E+06     88.7878E+06     69.9051E+06     1.67077E+06         48.4928
            1010     10.7667E-03     13.9278E-03         1.18093         1.09425        -4.16656         1.17955        -4.16518         1.09425    -172.075E-03     239.243E-03    -108.877E-03    -130.366E-03    -130.090E-03     238.967E-03    -108.877E-03     11.0840E-03     62.5673E+06     29.9448E+06    -50.0435E+06    -49.9671E+06     62.4909E+06     29.9448E+06     2.74899E+06         48.0084
            1011     9.88879E-03     13.8916E-03         1.16878         1.09413        -4.15687         1.16736        -4.15545         1.09413    -173.668E-03     233.196E-03    -106.900E-03    -126.296E-03    -126.075E-03     232.975E-03    -106.900E-03    -14.0646E-03     20.6134E+06    -19.9655E+06    -58.8732E+06    -56.9150E+06    -7.52049E+06     6.21026E+06     3.62102E+06         47.4857
            1012     9.00640E-03     13.8712E-03         1.15549         1.09122        -4.14388         1.15417        -4.14255         1.09122    -167.411E-03     227.085E-03    -105.110E-03    -121.975E-03    -121.301E-03     226.410E-03    -105.110E-03    -29.1401E-03    -8.47079E+06    -60.4491E+06    -93.7756E+06    -63.4297E+06    -90.7950E+06    -8.47079E+06     5.03825E+06         46.9361
            1013     8.11876E-03     13.8635E-03         1.14140         1.08658        -4.12839         1.14028        -4.12726         1.08658    -153.899E-03     220.777E-03    -103.503E-03    -117.274E-03    -116.104E-03     219.607E-03    -103.503E-03    -38.7994E-03    -19.9602E+06    -70.0405E+06    -147.407E+06    -70.5972E+06     -146.85E+06    -19.9602E+06     6.20137E+06         46.3730
            1014     7.22619E-03     13.8644E-03         1.12681         1.08084        -4.11103         1.12584        -4.11007         1.08084    -141.730E-03     214.837E-03    -102.134E-03    -112.703E-03    -111.206E-03     213.340E-03    -102.134E-03    -43.5022E-03    -33.4083E+06    -78.5453E+06    -188.190E+06    -79.0019E+06    -187.734E+06    -33.4083E+06     6.59928E+06         45.8117
            1015     6.32953E-03     13.8688E-03         1.11154         1.07466        -4.09271         1.11081        -4.09197         1.07466    -123.173E-03     209.647E-03    -101.031E-03    -108.616E-03    -107.032E-03     208.063E-03    -101.031E-03    -44.2172E-03    -48.4469E+06    -86.2531E+06    -219.010E+06    -86.5116E+06    -218.751E+06    -48.4469E+06     5.41057E+06         45.2688
            1016     5.42923E-03     13.8751E-03         1.09758         1.06846        -4.07483         1.09701        -4.07426         1.06846    -108.079E-03     205.484E-03    -100.208E-03    -105.276E-03    -103.797E-03     204.005E-03    -100.208E-03    -42.2145E-03    -59.8716E+06    -92.1139E+06    -237.830E+06    -92.2465E+06    -237.697E+06    -59.8716E+06     4.34270E+06         44.7603
            1017     4.52640E-03     13.8834E-03         1.08423         1.06252        -4.05749         1.08377        -4.05703         1.06252    -96.8343E-03     202.303E-03    -99.6338E-03    -102.670E-03    -101.449E-03     201.083E-03    -99.6338E-03    -37.9225E-03    -70.3167E+06    -98.3463E+06    -247.429E+06    -98.4633E+06    -247.312E+06    -70.3167E+06     4.03133E+06         44.3015
            1018     3.62216E-03     13.8903E-03         1.07197         1.05718        -4.04153         1.07162        -4.04118         1.05718    -84.1957E-03     200.163E-03    -99.2606E-03    -100.902E-03    -100.023E-03     199.283E-03    -99.2606E-03    -31.9536E-03    -82.7279E+06    -106.069E+06    -257.143E+06    -106.192E+06    -257.020E+06    -82.7279E+06     3.90425E+06         43.9060
            1019     2.71714E-03     13.8966E-03         1.06198         1.05256        -4.02753         1.06172        -4.02726         1.05256    -72.4007E-03     198.827E-03    -99.0387E-03    -99.7882E-03    -99.2208E-03     198.259E-03    -99.0387E-03    -25.4903E-03    -96.6891E+06    -114.940E+06    -267.706E+06    -115.049E+06    -267.597E+06    -96.6891E+06     3.73174E+06         43.5852
            1020     1.81102E-03     13.9033E-03         1.05274         1.04891        -4.01677         1.05253        -4.01665         1.04901    -42.8796E-03     198.022E-03    -98.8566E-03    -99.1653E-03    -98.7929E-03     197.726E-03    -98.9327E-03    -18.0490E-03    -111.530E+06    -121.927E+06    -267.767E+06    -121.970E+06    -267.724E+06    -111.530E+06     1.08712E+06         43.3480
            1021     905.750E-06     13.9074E-03         1.07726         1.01756        -4.00943         1.07700        -4.00927         1.01766    -48.0192E-03     197.884E-03    -98.5936E-03    -99.2900E-03    -98.8500E-03     197.789E-03    -98.9387E-03    -9.56868E-03    -122.598E+06    -125.595E+06    -269.540E+06    -125.468E+06    -269.423E+06    -122.843E+06    -3.42676E+06         43.1989
            1022     15.1340E-03     13.3350E-03         1.28465         1.19907        -4.34118         1.26990        -4.34107         1.21370    -45.9421E-03     267.074E-03    -117.015E-03    -150.060E-03    -139.617E-03     256.632E-03    -117.015E-03     117.024E-03     121.049E+06     119.859E+06    -6.94194E+06    -6.93787E+06     119.962E+06     120.943E+06     1.31125E+03         49.7490
            1023     14.2672E-03     13.0984E-03         1.28734         1.20991        -4.35208         1.26375        -4.35169         1.23312    -90.3242E-03     270.215E-03    -115.464E-03    -154.752E-03    -143.005E-03     258.468E-03    -115.464E-03     132.379E-03     121.684E+06     115.879E+06    -14.1138E+06    -14.1031E+06     115.869E+06     121.684E+06     731.800E+03         49.5003
            1024     13.4010E-03     12.9736E-03         1.29495         1.22562        -4.37469         1.26584        -4.37394         1.25397    -128.853E-03     261.962E-03    -113.500E-03    -148.462E-03    -142.794E-03     256.293E-03    -113.500E-03     95.3289E-03     119.167E+06     107.327E+06    -22.5476E+06    -22.5332E+06     107.312E+06     119.167E+06     1.05131E+06         49.1879
            1025     12.5371E-03     12.8172E-03         1.30449         1.24394        -4.40415         1.27422        -4.40306         1.27312    -156.834E-03     258.050E-03    -111.128E-03    -146.922E-03    -142.559E-03     253.687E-03    -111.128E-03     80.1333E-03     105.438E+06     98.3256E+06    -32.2188E+06    -32.2099E+06     98.5863E+06     105.168E+06     682.003E+03         48.8167
            1026     11.6721E-03     12.7171E-03         1.31391         1.26165        -4.43451         1.28507        -4.43314         1.28912    -176.940E-03     249.219E-03    -108.388E-03    -140.831E-03    -139.744E-03     248.132E-03    -108.388E-03     36.8039E-03     86.2103E+06     69.0382E+06    -41.7643E+06    -41.7163E+06     86.0768E+06     69.1237E+06     1.99332E+06         48.3916
            1027     10.8037E-03     12.6555E-03         1.32022         1.27547        -4.45926         1.29486        -4.45778         1.29935    -184.675E-03     241.061E-03    -105.540E-03    -135.521E-03    -135.324E-03     240.863E-03    -105.540E-03     1.72665E-03     63.2052E+06     28.8318E+06    -49.5383E+06    -49.4029E+06     63.0698E+06     28.8318E+06     3.81171E+06         47.9205
            1028     9.92972E-03     12.6268E-03         1.32309         1.28561        -4.47724         1.30253        -4.47580         1.30473    -182.227E-03     233.081E-03    -102.882E-03    -130.198E-03    -129.695E-03     232.577E-03    -102.882E-03    -24.6264E-03     21.5594E+06    -19.6757E+06    -58.4072E+06    -55.9038E+06    -4.62274E+06     4.00298E+06     5.02251E+06         47.4114
            1029     9.05015E-03     12.6183E-03         1.32301         1.29180        -4.48860         1.30700        -4.48731         1.30652    -172.518E-03     224.947E-03    -100.454E-03    -124.493E-03    -123.266E-03     223.720E-03    -100.454E-03    -40.4915E-03    -11.3791E+06    -58.3780E+06    -93.3099E+06    -62.5631E+06    -89.1249E+06    -11.3791E+06     6.58786E+06         46.8745
            1030     8.16316E-03     12.6212E-03         1.32066         1.29520        -4.49473         1.30884        -4.49367         1.30595    -156.478E-03     216.712E-03    -98.2446E-03    -118.467E-03    -116.543E-03     214.787E-03    -98.2446E-03    -50.2229E-03    -22.7022E+06    -67.8213E+06    -146.494E+06    -68.7348E+06    -145.580E+06    -22.7022E+06     8.30232E+06         46.3228
            1031     7.27019E-03     12.6308E-03         1.31679         1.29641        -4.49674         1.30851        -4.49588         1.30383    -141.435E-03     208.962E-03    -96.3140E-03    -112.648E-03    -110.255E-03     206.569E-03    -96.3140E-03    -54.9930E-03    -32.2794E+06    -74.3463E+06    -186.594E+06    -75.2488E+06    -185.691E+06    -32.2794E+06     9.94806E+06         45.7712
            1032     6.37144E-03     12.6438E-03         1.31162         1.29585        -4.49538         1.30596        -4.49473         1.30086    -121.962E-03     201.628E-03    -94.6689E-03    -106.959E-03    -104.442E-03     199.111E-03    -94.6689E-03    -55.2323E-03    -47.5398E+06    -82.6291E+06    -213.953E+06    -83.3775E+06    -213.205E+06    -47.5398E+06     9.18424E+06         45.2360
            1033     5.46770E-03     12.6564E-03         1.30645         1.29469        -4.49225         1.30309        -4.49177         1.29756    -105.749E-03     195.312E-03    -93.3796E-03    -101.933E-03    -99.5972E-03     192.977E-03    -93.3796E-03    -52.1930E-03    -62.2080E+06    -92.0654E+06    -235.824E+06    -92.4840E+06    -235.406E+06    -62.2080E+06     7.02996E+06         44.7331
            1034     4.56035E-03     12.6687E-03         1.30117         1.29294        -4.48786         1.29951        -4.48748         1.29423    -93.1673E-03     190.420E-03    -92.4253E-03    -97.9952E-03    -96.0661E-03     188.491E-03    -92.4253E-03    -46.6590E-03    -72.7691E+06    -100.379E+06    -245.861E+06    -100.774E+06    -245.466E+06    -72.7691E+06     7.06862E+06         44.2782
            1035     3.65039E-03     12.6787E-03         1.29606         1.29065        -4.48282         1.29528        -4.48254         1.29114    -80.8479E-03     186.609E-03    -91.7628E-03    -94.8460E-03    -93.4443E-03     185.207E-03    -91.7628E-03    -39.1749E-03    -85.5911E+06    -108.937E+06    -255.251E+06    -109.341E+06    -254.847E+06    -85.5911E+06     7.22954E+06         43.8853
            1036     2.73839E-03     12.6870E-03         1.29212         1.28829        -4.47755         1.29185        -4.47735         1.28835    -68.1827E-03     184.123E-03    -91.3741E-03    -92.7491E-03    -91.8706E-03     183.245E-03    -91.3741E-03    -30.6500E-03    -99.0399E+06    -116.070E+06    -263.046E+06    -116.278E+06    -262.838E+06    -99.0399E+06     5.32763E+06         43.5661
            1037     1.82606E-03     12.6941E-03         1.28787         1.28562        -4.47316         1.28722        -4.47306         1.28618    -42.8754E-03     182.911E-03    -91.1307E-03    -91.7801E-03    -91.3346E-03     182.465E-03    -91.1307E-03    -21.4976E-03    -113.581E+06    -121.594E+06    -261.557E+06    -121.660E+06    -261.491E+06    -113.581E+06     1.81001E+06         43.3298
            1038     912.827E-06     12.6982E-03         1.30303         1.26726        -4.47052         1.30239        -4.47043         1.26781    -39.5962E-03     182.184E-03    -90.5389E-03    -91.6452E-03    -91.4995E-03     182.038E-03    -90.5389E-03    -11.1170E-03    -126.081E+06    -128.281E+06    -272.352E+06    -128.151E+06    -272.307E+06    -126.255E+06    -651.693E+03         43.1812
            1039     15.1387E-03     12.0347E-03         1.37957         1.26384        -4.45634         1.26365        -4.45615         1.37957    -59.9616E-03     274.518E-03    -116.615E-03    -157.903E-03    -147.451E-03     264.066E-03    -116.615E-03     121.530E-03     122.157E+06     119.902E+06    -6.51346E+06    -6.50877E+06     119.897E+06     122.157E+06    -648.075E+03         49.6153
            1040     14.2793E-03     11.7992E-03         1.40883         1.28459        -4.50708         1.28402        -4.50651         1.40883    -112.510E-03     276.744E-03    -114.570E-03    -162.174E-03    -150.695E-03     265.265E-03    -114.570E-03     133.288E-03     122.325E+06     114.913E+06    -13.9300E+06    -13.9205E+06     114.903E+06     122.325E+06    -302.493E+03         49.3721
            1041     13.4208E-03     11.6764E-03         1.43843         1.31415        -4.56920         1.31314        -4.56820         1.43843    -152.794E-03     267.710E-03    -112.065E-03    -155.645E-03    -150.226E-03     262.291E-03    -112.065E-03     94.8576E-03     120.422E+06     106.726E+06    -22.1205E+06    -22.1016E+06     106.707E+06     120.422E+06     1.16893E+06         49.0685
            1042     12.5630E-03     11.5235E-03         1.46528         1.34832        -4.63581         1.34699        -4.63449         1.46528    -178.004E-03     262.306E-03    -109.105E-03    -153.201E-03    -149.241E-03     258.345E-03    -109.105E-03     76.9372E-03     105.973E+06     97.7814E+06    -31.6596E+06    -31.6094E+06     97.7312E+06     105.973E+06     2.16264E+06         48.7090
            1043     11.7040E-03     11.4295E-03         1.48786         1.38266        -4.69968         1.38114        -4.69815         1.48786    -192.279E-03     252.206E-03    -105.748E-03    -146.459E-03    -145.594E-03     251.342E-03    -105.748E-03     31.8871E-03     85.0079E+06     67.7916E+06    -41.5068E+06    -41.4198E+06     84.2111E+06     68.5014E+06     2.97852E+06         48.2981
            1044     10.8411E-03     11.3788E-03         1.50358         1.41354        -4.75415         1.41202        -4.75262         1.50358    -193.819E-03     242.602E-03    -102.258E-03    -140.344E-03    -140.159E-03     242.417E-03    -102.258E-03    -3.77309E-03     63.1474E+06     25.5025E+06    -49.7251E+06    -49.5197E+06     62.9420E+06     25.5025E+06     4.53649E+06         47.8428
            1045     9.97107E-03     11.3637E-03         1.51359         1.43938        -4.79792         1.43800        -4.79655         1.51359    -184.952E-03     232.810E-03    -98.9681E-03    -133.842E-03    -133.153E-03     232.121E-03    -98.9681E-03    -29.9441E-03     20.3120E+06    -20.5120E+06    -59.4408E+06    -55.9139E+06    -2.90056E+06    -826.414E+03     6.94314E+06         47.3497
            1046     9.09261E-03     11.3683E-03         1.51938         1.45996        -4.83188         1.45880        -4.83071         1.51938    -170.619E-03     223.106E-03    -95.9267E-03    -127.180E-03    -125.629E-03     221.556E-03    -95.9267E-03    -45.9288E-03    -15.0005E+06    -56.2878E+06    -93.5940E+06    -62.4128E+06    -87.4690E+06    -15.0005E+06     8.97120E+06         46.8287
            1047     8.20752E-03     11.3841E-03         1.52236         1.47609        -4.85786         1.47518        -4.85694         1.52236    -151.631E-03     213.349E-03    -93.0758E-03    -120.273E-03    -117.916E-03     210.992E-03    -93.0758E-03    -55.6382E-03    -26.3479E+06    -68.3076E+06    -146.061E+06    -69.7924E+06    -144.576E+06    -26.3479E+06     10.2282E+06         46.2918
            1048     7.31468E-03     11.4056E-03         1.52341         1.48856        -4.87743         1.48784        -4.87672         1.52341    -134.078E-03     203.618E-03    -90.4940E-03    -113.124E-03    -110.195E-03     200.689E-03    -90.4940E-03    -60.5467E-03    -34.1419E+06    -74.7837E+06    -185.805E+06    -76.0190E+06    -184.569E+06    -34.1419E+06     11.5389E+06         45.7536
            1049     6.41507E-03     11.4291E-03         1.52326         1.49756        -4.89190         1.49704        -4.89138         1.52326    -114.093E-03     194.187E-03    -88.2285E-03    -105.958E-03    -102.828E-03     191.057E-03    -88.2285E-03    -60.9466E-03    -43.0832E+06    -80.4785E+06    -211.144E+06    -81.8824E+06    -209.740E+06    -43.0832E+06     13.3359E+06         45.2296
            1050     5.50875E-03     11.4516E-03         1.52251         1.50492        -4.90262         1.50455        -4.90225         1.52251    -97.2711E-03     185.591E-03    -86.3228E-03    -99.2680E-03    -96.3459E-03     182.669E-03    -86.3228E-03    -57.3478E-03    -57.4279E+06    -89.0999E+06    -230.825E+06    -90.4845E+06    -229.440E+06    -57.4279E+06     13.2684E+06         44.7358
            1051     4.59715E-03     11.4697E-03         1.52152         1.51050        -4.91037         1.51022        -4.91008         1.52152    -84.7267E-03     178.362E-03    -84.7915E-03    -93.5708E-03    -91.1323E-03     175.924E-03    -84.7915E-03    -51.1555E-03    -75.1655E+06    -99.6064E+06    -243.673E+06    -100.559E+06    -242.720E+06    -75.1655E+06     11.0671E+06         44.2877
            1052     3.68162E-03     11.4854E-03         1.52048         1.51395        -4.91573         1.51374        -4.91552         1.52048    -73.3847E-03     172.602E-03    -83.6736E-03    -88.9285E-03    -87.1001E-03     170.774E-03    -83.6736E-03    -43.3543E-03    -87.8589E+06    -107.374E+06    -252.168E+06    -108.132E+06    -251.410E+06    -87.8589E+06     10.1400E+06         43.8997
            1053     2.76252E-03     11.4972E-03         1.51983         1.51660        -4.91914         1.51686        -4.91899         1.51942    -61.0756E-03     168.438E-03    -82.9243E-03    -85.5138E-03    -84.3678E-03     167.292E-03    -82.9243E-03    -33.5670E-03    -101.627E+06    -114.128E+06    -254.265E+06    -114.591E+06    -253.802E+06    -101.627E+06     7.20765E+06         43.5837
            1054     1.84209E-03     11.5039E-03         1.51900         1.51675        -4.92144         1.51709        -4.92137         1.51859    -39.8676E-03     166.131E-03    -82.4396E-03    -83.6910E-03    -83.1200E-03     165.560E-03    -82.4396E-03    -23.3272E-03    -113.988E+06    -118.980E+06    -258.107E+06    -119.050E+06    -258.036E+06    -113.988E+06     2.52637E+06         43.3493
            1055     921.817E-06     11.5105E-03         1.52938         1.50657        -4.92240         1.52807        -4.92236         1.50785    -33.2767E-03     164.687E-03    -81.7822E-03    -82.9052E-03    -82.6303E-03     164.495E-03    -81.8643E-03    -12.2986E-03    -118.966E+06    -122.724E+06    -269.388E+06    -121.441E+06    -269.310E+06    -120.327E+06     2.58550E+06         43.2016
            1056     15.1454E-03     10.7259E-03         1.54436         1.25665        -4.56618         1.25629        -4.56582         1.54436    -83.9323E-03     281.470E-03    -116.291E-03    -165.180E-03    -154.663E-03     270.953E-03    -116.291E-03     125.518E-03     123.510E+06     120.139E+06    -6.84753E+06    -6.84027E+06     120.132E+06     123.510E+06    -725.467E+03         49.4841
            1057     14.2906E-03     10.4921E-03         1.58250         1.30694        -4.66072         1.30604        -4.65982         1.58250    -143.320E-03     282.892E-03    -113.794E-03    -169.098E-03    -157.794E-03     271.588E-03    -113.794E-03     134.398E-03     122.156E+06     113.777E+06    -14.7395E+06    -14.7344E+06     113.772E+06     122.156E+06    -677.747E+03         49.2472
            1058     13.4380E-03     10.3687E-03         1.61969         1.36383        -4.76348         1.36248        -4.76214         1.61969    -181.018E-03     273.155E-03    -110.799E-03    -162.356E-03    -157.058E-03     267.856E-03    -110.799E-03     95.2268E-03     120.403E+06     104.817E+06    -23.3470E+06    -23.3386E+06     104.809E+06     120.403E+06     117.790E+03         48.9537
            1059     12.5877E-03     10.2234E-03         1.65293         1.42322        -4.86687         1.42163        -4.86528         1.65293    -200.144E-03     265.715E-03    -107.350E-03    -158.365E-03    -154.506E-03     261.856E-03    -107.350E-03     77.0586E-03     106.976E+06     95.7940E+06    -32.4466E+06    -32.3887E+06     95.7361E+06     106.976E+06     2.24193E+06         48.6075
            1060     11.7325E-03     10.1385E-03         1.68080         1.48010        -4.96319         1.47849        -4.96157         1.68080    -203.791E-03     253.682E-03    -103.543E-03    -150.139E-03    -149.255E-03     252.798E-03    -103.543E-03     32.7163E-03     84.5849E+06     65.9255E+06    -41.6425E+06    -41.4075E+06     82.0908E+06     68.1846E+06     4.81688E+06         48.2122
            1061     10.8712E-03     10.1008E-03         1.70100         1.52974        -5.04484         1.52829        -5.04338         1.70100    -195.001E-03     242.588E-03    -99.6382E-03    -142.950E-03    -142.781E-03     242.419E-03    -99.6382E-03    -2.37802E-03     61.9955E+06     22.8619E+06    -50.4172E+06    -49.8493E+06     61.4277E+06     22.8619E+06     7.37197E+06         47.7738
            1062     10.0029E-03     10.1010E-03         1.71487         1.57193        -5.11177         1.57072        -5.11056         1.71487    -178.675E-03     231.891E-03    -95.9350E-03    -135.956E-03    -135.380E-03     231.314E-03    -95.9350E-03    -27.1843E-03     18.7125E+06    -21.0380E+06    -62.3525E+06    -57.8640E+06    -2.79317E+06    -4.02082E+06     9.91626E+06         47.2986
            1063     9.12741E-03     10.1207E-03         1.72413         1.60698        -5.16599         1.60604        -5.16504         1.72413    -158.545E-03     221.252E-03    -92.4451E-03    -128.807E-03    -127.498E-03     219.943E-03    -92.4451E-03    -41.9047E-03    -16.3098E+06    -56.0311E+06    -95.5074E+06    -65.6222E+06    -85.9163E+06    -16.3098E+06     12.0467E+06         46.7956
            1064     8.24342E-03     10.1508E-03         1.73024         1.63610        -5.20969         1.63540        -5.20899         1.73024    -136.815E-03     210.312E-03    -89.0873E-03    -121.225E-03    -119.215E-03     208.302E-03    -89.0873E-03    -50.9317E-03    -26.1123E+06    -69.9267E+06    -144.507E+06     -72.503E+06    -141.931E+06    -26.1123E+06     12.9133E+06         46.2765
            1065     7.35188E-03     10.1868E-03         1.73408         1.66033        -5.24489         1.65982        -5.24438         1.73408    -117.583E-03     199.230E-03    -85.9263E-03    -113.304E-03    -110.783E-03     196.709E-03    -85.9263E-03    -55.5379E-03    -37.0574E+06    -77.4828E+06    -184.905E+06    -79.1926E+06    -183.196E+06    -37.0574E+06     13.3199E+06         45.7550
            1066     6.45167E-03     10.2237E-03         1.73644         1.68009        -5.27325         1.67973        -5.27289         1.73644    -98.2067E-03     188.406E-03    -83.0353E-03    -105.371E-03    -102.619E-03     185.655E-03    -83.0353E-03    -56.3303E-03    -47.1021E+06    -84.9087E+06    -212.252E+06    -86.7484E+06    -210.412E+06    -47.1021E+06     15.1275E+06         45.2460
            1067     5.54430E-03     10.2576E-03         1.73794         1.69709        -5.29658         1.69685        -5.29633         1.73794    -81.9957E-03     178.061E-03    -80.4531E-03    -97.6080E-03    -94.9437E-03     175.397E-03    -80.4531E-03    -53.7876E-03    -58.8517E+06    -90.7697E+06    -225.067E+06    -92.7249E+06    -223.112E+06    -58.8517E+06     16.0778E+06         44.7652
            1068     4.63004E-03     10.2858E-03         1.73895         1.71123        -5.31547         1.71104        -5.31529         1.73895    -70.5703E-03     168.662E-03    -78.2672E-03    -90.3952E-03    -88.0835E-03     166.351E-03    -78.2672E-03    -48.6281E-03    -72.3948E+06    -96.1666E+06    -238.204E+06    -97.5973E+06    -236.773E+06    -72.3948E+06     13.8095E+06         44.3277
            1069     3.70996E-03     10.3083E-03         1.73968         1.72217        -5.33039         1.72203        -5.33025         1.73968    -61.4296E-03     160.939E-03    -76.5141E-03    -84.4251E-03    -82.6273E-03     159.141E-03    -76.5141E-03    -41.7222E-03    -84.2069E+06    -101.282E+06    -247.966E+06    -102.279E+06    -246.968E+06    -84.2069E+06     11.8411E+06         43.9477
            1070     2.78633E-03     10.3256E-03         1.74008         1.73144        -5.34180         1.73134        -5.34170         1.74008    -51.1832E-03     154.720E-03    -75.1638E-03    -79.5564E-03    -78.3835E-03     153.547E-03    -75.1638E-03    -32.7647E-03    -97.3920E+06    -105.665E+06    -243.941E+06    -106.386E+06    -243.220E+06    -97.3920E+06     9.35515E+06         43.6375
            1071     1.85880E-03     10.3357E-03         1.74038         1.73617        -5.35021         1.73613        -5.35017         1.74038    -34.3375E-03     150.412E-03    -74.3067E-03    -76.1056E-03    -75.5209E-03     149.828E-03    -74.3067E-03    -22.4226E-03    -105.439E+06    -111.654E+06    -253.034E+06    -111.910E+06    -252.778E+06    -105.439E+06     4.65612E+06         43.4068
            1072     929.740E-06     10.3418E-03         1.74762         1.73257        -5.35456         1.74558        -5.35453         1.73458    -25.5993E-03     148.169E-03    -73.7972E-03    -74.3718E-03    -74.0359E-03     147.962E-03    -73.9257E-03    -12.6040E-03    -111.368E+06    -117.597E+06    -264.234E+06    -116.358E+06    -264.112E+06    -112.729E+06     3.78833E+06         43.2613
            1073     15.1479E-03     9.41139E-03         1.70318         1.25035        -4.66945         1.24963        -4.66873         1.70318    -123.380E-03     288.715E-03    -116.117E-03    -172.598E-03    -161.798E-03     277.915E-03    -116.117E-03     130.066E-03     124.682E+06     120.553E+06    -7.20721E+06    -7.20106E+06     120.546E+06     124.682E+06    -138.831E+03         49.3581
            1074     14.2991E-03     9.17384E-03         1.74874         1.33106        -4.81068         1.32965        -4.80927         1.74874    -184.090E-03     287.839E-03    -113.258E-03    -174.580E-03    -162.991E-03     276.249E-03    -113.258E-03     138.275E-03     122.972E+06     113.249E+06    -15.6345E+06    -15.6313E+06     113.245E+06     122.972E+06     23.7156E+03         49.1283
            1075     13.4527E-03     9.05524E-03         1.79201         1.41663        -4.95570         1.41483        -4.95389         1.79201    -213.995E-03     276.213E-03    -109.971E-03    -166.242E-03    -160.433E-03     270.405E-03    -109.971E-03     100.291E-03     119.690E+06     102.744E+06    -24.6268E+06    -24.6219E+06     102.739E+06     119.690E+06    -167.652E+03         48.8455
            1076     12.6023E-03     8.91873E-03         1.83005         1.50039        -5.09505         1.49859        -5.09325         1.83005    -217.652E-03     266.787E-03    -106.325E-03    -160.463E-03    -156.041E-03     262.366E-03    -106.325E-03     83.4134E-03     106.002E+06     92.0669E+06    -34.1932E+06    -34.1312E+06     92.0049E+06     106.002E+06     1.65186E+06         48.5129
            1077     11.7480E-03     8.84662E-03         1.86179         1.57609        -5.21968         1.57454        -5.21813         1.86179    -204.520E-03     252.575E-03    -102.430E-03    -150.145E-03    -148.890E-03     251.320E-03    -102.430E-03     41.1060E-03     81.9520E+06     63.5695E+06    -44.2985E+06    -43.8883E+06     77.2730E+06     67.8382E+06     6.42525E+06         48.1332
            1078     10.8869E-03     8.82418E-03         1.88551         1.64221        -5.32515         1.64099        -5.32393         1.88551    -183.305E-03     239.867E-03    -98.5301E-03    -141.337E-03    -141.096E-03     239.626E-03    -98.5301E-03     9.78975E-03     59.1325E+06     22.8723E+06    -54.4556E+06    -53.1272E+06     57.8041E+06     22.8723E+06     11.5974E+06         47.7117
            1079     10.0182E-03     8.83970E-03         1.90275         1.69840        -5.41230         1.69750        -5.41140         1.90275    -157.462E-03     228.821E-03    -94.8545E-03    -133.967E-03    -133.737E-03     228.592E-03    -94.8545E-03    -10.3038E-03     17.7451E+06    -19.0759E+06    -68.0173E+06    -62.4600E+06    -2.48680E+06    -4.40131E+06     14.6445E+06         47.2544
            1080     9.14188E-03     8.87495E-03         1.91527         1.74567        -5.48355         1.74504        -5.48292         1.91527    -132.234E-03     218.390E-03    -91.3337E-03    -127.056E-03    -126.535E-03     217.869E-03    -91.3337E-03    -21.2663E-03    -17.8776E+06    -55.3173E+06    -97.6109E+06    -69.6892E+06    -83.2390E+06    -17.8776E+06     13.9829E+06         46.7702
            1081     8.25849E-03     8.92092E-03         1.92443         1.78624        -5.54264         1.78582        -5.54221         1.92443    -109.498E-03     207.761E-03    -87.8540E-03    -119.907E-03    -119.066E-03     206.920E-03    -87.8540E-03    -28.4440E-03    -27.5952E+06    -71.3634E+06    -142.997E+06    -74.1052E+06    -140.255E+06    -27.5952E+06     13.0642E+06         46.2706
            1082     7.36657E-03     8.97218E-03         1.93108         1.82110        -5.59175         1.82081        -5.59145         1.93108    -90.6159E-03     197.154E-03    -84.4448E-03    -112.709E-03    -111.596E-03     196.041E-03    -84.4448E-03    -33.1585E-03    -36.6094E+06    -77.2583E+06    -186.296E+06    -79.4074E+06    -184.147E+06    -36.6094E+06     15.1362E+06         45.7687
            1083     6.46811E-03     9.02289E-03         1.93594         1.85091        -5.63273         1.85071        -5.63253         1.93594    -73.8347E-03     186.475E-03    -81.1114E-03    -105.363E-03    -104.063E-03     185.175E-03    -81.1114E-03    -35.7707E-03    -47.1482E+06    -83.4376E+06    -210.716E+06    -85.5601E+06    -208.594E+06    -47.1482E+06     16.2539E+06         45.2788
            1084     5.56221E-03     9.06988E-03         1.93956         1.87688        -5.66719         1.87676        -5.66706         1.93956    -60.3257E-03     175.565E-03    -77.9335E-03    -97.6318E-03    -96.2609E-03     174.194E-03    -77.9335E-03    -36.2573E-03    -58.2869E+06    -89.8103E+06    -219.924E+06     -91.545E+06    -218.189E+06    -58.2869E+06     14.8890E+06         44.8155
            1085     4.64872E-03     9.11058E-03         1.94231         1.89888        -5.69591         1.89878        -5.69582         1.94231    -51.4220E-03     164.904E-03    -75.0674E-03    -89.8364E-03    -88.5438E-03     163.611E-03    -75.0674E-03    -34.5152E-03    -66.5225E+06    -94.8519E+06    -231.751E+06    -96.2155E+06    -230.387E+06    -66.5225E+06     13.4778E+06         44.3932
            1086     3.72823E-03     9.14296E-03         1.94448         1.91666        -5.71935         1.91658        -5.71928         1.94448    -45.3708E-03     155.282E-03    -72.5746E-03    -82.7072E-03    -81.6365E-03     154.211E-03    -72.5746E-03    -30.6749E-03    -76.9927E+06    -98.9343E+06    -241.100E+06    -99.7579E+06    -240.277E+06    -76.9927E+06     10.4063E+06         44.0255
            1087     2.80176E-03     9.16719E-03         1.94604         1.93114        -5.73754         1.93109        -5.73748         1.94604    -38.5072E-03     147.146E-03    -70.4937E-03    -76.6525E-03    -75.8998E-03     146.393E-03    -70.4937E-03    -25.1322E-03    -89.1448E+06    -101.477E+06    -237.601E+06    -101.986E+06    -237.092E+06    -89.1448E+06     8.01630E+06         43.7247
            1088     1.87064E-03     9.18485E-03         1.94710         1.94031        -5.75071         1.94028        -5.75068         1.94710    -26.0420E-03     140.757E-03    -68.9816E-03    -71.7757E-03    -71.3784E-03     140.360E-03    -68.9816E-03    -17.6107E-03    -95.4445E+06    -104.046E+06    -244.507E+06    -104.491E+06    -244.062E+06    -95.4445E+06     7.31974E+06         43.5004
            1089     935.587E-06     9.19200E-03         1.95112         1.94261        -5.75896         1.94881        -5.75894         1.94491    -18.4081E-03     136.874E-03    -67.8696E-03    -69.0042E-03    -68.8079E-03     136.724E-03    -67.9160E-03    -10.5756E-03    -102.255E+06    -108.751E+06    -257.341E+06    -108.981E+06    -257.110E+06    -102.255E+06     3.54691E+06         43.3587
            1090     15.1487E-03     8.08522E-03         1.85091         1.24629        -4.76731         1.24474        -4.76576         1.85091    -186.486E-03     295.187E-03    -116.378E-03    -178.809E-03    -166.860E-03     283.238E-03    -116.378E-03     138.506E-03     126.024E+06     121.417E+06    -6.70455E+06    -6.69432E+06     121.407E+06     126.024E+06     914.379E+03         49.2404
            1091     14.3027E-03     7.85253E-03         1.90189         1.36224        -4.96058         1.35996        -4.95830         1.90189    -238.391E-03     290.802E-03    -113.398E-03    -177.405E-03    -164.066E-03     277.464E-03    -113.398E-03     150.544E-03     124.240E+06     112.899E+06    -14.9565E+06    -14.9447E+06     112.888E+06     124.240E+06     1.00470E+06         49.0182
            1092     13.4523E-03     7.73995E-03         1.94924         1.47466        -5.14766         1.47241        -5.14542         1.94924    -243.066E-03     276.597E-03    -110.185E-03    -166.412E-03    -158.650E-03     268.835E-03    -110.185E-03     115.292E-03     119.446E+06     100.577E+06    -24.9882E+06    -24.9142E+06     100.503E+06     119.446E+06     1.76305E+06         48.7457
            1093     12.6014E-03     7.61327E-03         1.99037         1.57721        -5.31713         1.57542        -5.31534         1.99037    -221.579E-03     264.383E-03    -106.812E-03    -157.570E-03    -151.122E-03     257.934E-03    -106.812E-03     100.693E-03     103.204E+06     87.0534E+06    -36.9214E+06    -36.6548E+06     86.7868E+06     103.204E+06     4.53343E+06         48.4256
            1094     11.7428E-03     7.55888E-03         2.02468         1.66934        -5.46570         1.66806        -5.46442         2.02468    -188.100E-03     247.515E-03    -103.435E-03    -144.080E-03    -141.155E-03     244.590E-03    -103.435E-03     63.7335E-03     76.5914E+06     60.9049E+06    -49.9322E+06    -49.0173E+06     70.1262E+06     66.4552E+06     9.63946E+06         48.0599
            1095     10.8743E-03     7.55371E-03         2.05120         1.74788        -5.58975         1.74708        -5.58895         2.05120    -148.894E-03     233.899E-03    -100.242E-03    -133.657E-03    -132.128E-03     232.370E-03    -100.242E-03     40.7762E-03     54.8980E+06     26.1306E+06    -61.7227E+06    -59.7125E+06     52.8878E+06     26.1306E+06     14.7811E+06         47.6531
            1096     9.99832E-03     7.58442E-03         2.07176         1.81419        -5.69164         1.81371        -5.69116         2.07176    -115.332E-03     224.070E-03    -97.3125E-03    -126.757E-03    -125.721E-03     223.033E-03    -97.3125E-03     27.9490E-03     20.3786E+06    -14.9670E+06    -70.5337E+06    -65.8423E+06    -1.02714E+06     1.74744E+06     15.1087E+06         47.2119
            1097     9.11762E-03     7.63282E-03         2.08788         1.87187        -5.77728         1.87158        -5.77699         2.08788    -88.7106E-03     216.231E-03    -94.4592E-03    -121.771E-03    -120.899E-03     215.358E-03    -94.4592E-03     21.1034E-03    -10.5040E+06    -53.5244E+06     -95.078E+06    -68.4686E+06    -80.1338E+06    -10.5040E+06     11.4701E+06         46.7459
            1098     8.23186E-03     7.69272E-03         2.10060         1.92279        -5.84989         1.92262        -5.84971         2.10060    -68.6803E-03     208.768E-03    -91.4850E-03    -117.283E-03    -116.518E-03     208.003E-03    -91.4850E-03     15.5992E-03    -18.4833E+06    -70.4584E+06    -145.179E+06    -72.3427E+06    -143.294E+06    -18.4833E+06     11.2845E+06         46.2668
            1099     7.34249E-03     7.75604E-03         2.11059         1.96791        -5.91193         1.96780        -5.91182         2.11059    -53.7466E-03     200.951E-03    -88.3212E-03    -112.630E-03    -111.961E-03     200.283E-03    -88.3212E-03     10.2242E-03    -25.6117E+06    -74.4843E+06    -187.198E+06    -76.1619E+06    -185.520E+06    -25.6117E+06     13.2478E+06         45.7873
            1100     6.44756E-03     7.81948E-03         2.11837         2.00745        -5.96489         2.00738        -5.96482         2.11837    -42.0831E-03     192.217E-03    -84.9653E-03    -107.251E-03    -106.677E-03     191.643E-03    -84.9653E-03     4.80849E-03    -34.2152E+06    -76.6177E+06    -206.164E+06    -78.0877E+06    -204.694E+06    -34.2152E+06     13.1419E+06         45.3206
            1101     5.54650E-03     7.87981E-03         2.12434         2.04209        -6.00980         2.04204        -6.00976         2.12434    -33.5183E-03     182.520E-03    -81.5249E-03    -100.995E-03    -100.521E-03     182.046E-03    -81.5249E-03    -280.060E-06    -42.5617E+06    -79.2901E+06    -216.239E+06    -80.4884E+06    -215.041E+06    -42.5617E+06     12.4666E+06         44.8799
            1102     4.63860E-03     7.93346E-03         2.12885         2.07146        -6.04732         2.07143        -6.04728         2.12885    -29.2638E-03     172.064E-03    -78.1386E-03    -93.9257E-03    -93.5393E-03     171.678E-03    -78.1386E-03    -4.39273E-03    -51.1340E+06    -84.0982E+06    -225.071E+06    -84.9411E+06    -224.228E+06    -51.1340E+06     10.4427E+06         44.4783
            1103     3.72307E-03     7.97840E-03         2.13225         2.09535        -6.07781         2.09533        -6.07778         2.13225    -27.1555E-03     161.418E-03    -74.9764E-03    -86.4419E-03    -86.1435E-03     161.120E-03    -74.9764E-03    -6.95787E-03    -61.2862E+06    -89.6122E+06    -232.730E+06    -89.9881E+06    -232.354E+06    -61.2862E+06     6.73417E+06         44.1282
            1104     2.80006E-03     8.01299E-03         2.13468         2.11412        -6.10124         2.11410        -6.10122         2.13468    -24.0504E-03     151.723E-03    -72.1928E-03    -79.5298E-03    -79.3118E-03     151.505E-03    -72.1928E-03    -7.82272E-03    -73.5504E+06    -94.6028E+06    -235.701E+06    -94.7609E+06    -235.542E+06    -73.5504E+06     4.43327E+06         43.8411
            1105     1.87139E-03     8.03800E-03         2.13619         2.12714        -6.11838         2.12713        -6.11837         2.13619    -16.6679E-03     143.678E-03    -69.9139E-03    -73.7644E-03    -73.6366E-03     143.551E-03    -69.9139E-03    -6.62390E-03    -84.4812E+06    -97.5775E+06    -238.481E+06    -97.8311E+06    -238.227E+06    -84.4812E+06     5.42578E+06         43.6265
            1106     937.894E-06     8.05271E-03         2.13812         2.13315        -6.12906         2.13578        -6.12905         2.13548    -11.5133E-03     137.771E-03    -67.8087E-03    -69.9623E-03    -69.9167E-03     137.725E-03    -67.8087E-03    -4.05329E-03    -95.3233E+06    -102.397E+06    -247.711E+06    -102.604E+06    -247.504E+06    -95.3233E+06     2.82684E+06         43.4907
            1107     15.1341E-03     6.75428E-03         1.98211         1.25436        -4.87113         1.25104        -4.86780         1.98211    -279.821E-03     298.510E-03    -117.626E-03    -180.884E-03    -166.262E-03     283.888E-03    -117.626E-03     154.553E-03     125.540E+06     121.088E+06    -7.43564E+06    -7.40851E+06     121.060E+06     125.540E+06     1.68557E+06         49.1354
            1108     14.2812E-03     6.53008E-03         2.03609         1.40150        -5.11749         1.39814        -5.11414         2.03609    -293.900E-03     291.156E-03    -114.949E-03    -176.207E-03    -158.865E-03     273.814E-03    -114.949E-03     173.033E-03     122.055E+06     110.339E+06    -16.2783E+06    -16.1906E+06     110.251E+06     122.055E+06     2.57492E+06         48.9203
            1109     13.4300E-03     6.42537E-03         2.08547         1.53568        -5.33972         1.53316        -5.33720         2.08547    -261.648E-03     274.225E-03    -112.342E-03    -161.883E-03    -149.627E-03     261.969E-03    -112.342E-03     142.378E-03     117.595E+06     97.2778E+06    -26.7425E+06    -26.4394E+06     96.9747E+06     117.595E+06     5.47343E+06         48.6569
            1110     12.5665E-03     6.31664E-03         2.12799         1.65618        -5.53513         1.65465        -5.53359         2.12799    -204.039E-03     258.195E-03    -109.916E-03    -148.279E-03    -137.306E-03     247.223E-03    -109.916E-03     129.303E-03     101.286E+06     81.1648E+06    -41.4267E+06    -40.4827E+06     80.2207E+06     101.286E+06     9.89832E+06         48.3469
            1111     11.6931E-03     6.28236E-03         2.16377         1.75649        -5.69797         1.75577        -5.69725         2.16377    -136.131E-03     239.326E-03    -107.867E-03    -131.459E-03    -124.235E-03     232.101E-03    -107.867E-03     99.5929E-03     74.5011E+06     61.8452E+06    -55.3145E+06    -53.5519E+06     64.5032E+06     70.0804E+06     14.1502E+06         47.9916
            1112     10.8109E-03     6.29636E-03         2.19305         1.83950        -5.82941         1.83920        -5.82910         2.19305    -84.1505E-03     228.125E-03    -106.213E-03    -121.912E-03    -115.930E-03     222.142E-03    -106.213E-03     86.4845E-03     54.4848E+06     38.3969E+06    -64.6616E+06    -62.8382E+06     52.6614E+06     38.3969E+06     14.3254E+06         47.5960
            1113     9.92441E-03     6.33582E-03         2.21757         1.91348        -5.94150         1.91334        -5.94136         2.21757    -51.6182E-03     222.720E-03    -104.809E-03    -117.911E-03    -112.524E-03     217.333E-03    -104.809E-03     79.9947E-03     30.0407E+06    -8.89802E+06    -69.0989E+06    -67.5321E+06     1.20248E+06     18.3734E+06     8.89995E+06         47.1683
            1114     9.03678E-03     6.39404E-03         2.23820         1.98071        -6.03921         1.98064        -6.03915         2.23820    -30.5042E-03     220.055E-03    -103.348E-03    -116.708E-03    -111.672E-03     215.020E-03    -103.348E-03     76.4346E-03     4.95850E+06    -56.5695E+06    -96.3792E+06    -69.5763E+06    -83.3724E+06     4.95850E+06     4.99943E+06         46.7196
            1115     8.14965E-03     6.45932E-03         2.25549         2.04229        -6.12513         2.04225        -6.12510         2.25549    -18.4351E-03     217.867E-03    -101.569E-03    -116.298E-03    -111.699E-03     213.268E-03    -101.569E-03     72.3841E-03    -2.55037E+06    -69.2990E+06    -150.463E+06    -70.0471E+06    -149.715E+06    -2.55037E+06     5.48290E+06         46.2618
            1116     7.26201E-03     6.53120E-03         2.26972         2.09805        -6.20031         2.09804        -6.20030         2.26972    -10.9896E-03     214.648E-03    -99.3302E-03    -115.317E-03    -111.317E-03     210.647E-03    -99.3302E-03     66.6978E-03    -12.0613E+06    -70.1211E+06    -186.968E+06    -70.6931E+06    -186.396E+06    -12.0613E+06     6.30449E+06         45.8070
            1117     6.37281E-03     6.60321E-03         2.28118         2.14756        -6.26527         2.14755        -6.26526         2.28118    -6.99686E-03     209.836E-03    -96.6376E-03    -113.198E-03    -109.927E-03     206.564E-03    -96.6376E-03     59.0893E-03    -23.5023E+06    -72.3962E+06    -203.703E+06    -72.7996E+06    -203.299E+06    -23.5023E+06     6.50197E+06         45.3671
            1118     5.48083E-03     6.67398E-03         2.29012         2.19097        -6.32069         2.19096        -6.32069         2.29012    -5.10580E-03     203.220E-03    -93.5882E-03    -109.632E-03    -107.161E-03     200.750E-03    -93.5882E-03     49.6800E-03    -31.3225E+06    -74.5041E+06    -213.186E+06    -74.9101E+06    -212.780E+06    -31.3225E+06     6.42979E+06         44.9537
            1119     4.58407E-03     6.73921E-03         2.29684         2.22749        -6.36672         2.22749        -6.36672         2.29684    -6.77574E-03     194.840E-03    -90.2804E-03    -104.560E-03    -102.834E-03     193.114E-03    -90.2804E-03     39.5374E-03    -41.0150E+06    -76.3967E+06    -219.274E+06    -76.6894E+06    -218.982E+06    -41.0150E+06     5.58417E+06         44.5780
            1120     3.68109E-03     6.79722E-03         2.30167         2.25711        -6.40354         2.25711        -6.40353         2.30167    -9.09616E-03     185.156E-03    -86.9295E-03    -98.2269E-03    -97.1464E-03     184.076E-03    -86.9295E-03     29.2744E-03    -52.0239E+06    -80.1466E+06    -227.243E+06    -80.2479E+06    -227.141E+06    -52.0239E+06     3.06700E+06         44.2509
            1121     2.77040E-03     6.84419E-03         2.30492         2.27992        -6.43138         2.27992        -6.43138         2.30492    -9.85781E-03     175.077E-03    -83.8246E-03    -91.2529E-03    -90.6645E-03     174.489E-03    -83.8246E-03     19.9403E-03    -63.1764E+06    -84.9734E+06    -234.283E+06    -85.0092E+06    -234.247E+06    -63.1764E+06     1.03947E+06         43.9823
            1122     1.85202E-03     6.87905E-03         2.30685         2.29550        -6.45113         2.29550        -6.45113         2.30685    -7.96984E-03     166.253E-03    -81.2657E-03    -84.9878E-03    -84.7218E-03     165.987E-03    -81.2657E-03     12.3060E-03    -75.1212E+06    -90.1369E+06    -238.075E+06    -90.1831E+06    -238.028E+06    -75.1212E+06     1.49901E+06         43.7813
            1123     927.720E-06     6.90201E-03         2.30976         2.30228        -6.46313         2.30679        -6.46313         2.30525    -4.74743E-03     160.059E-03    -78.8696E-03    -81.1891E-03    -81.0991E-03     159.969E-03    -78.8696E-03     6.58407E-03    -87.0318E+06    -94.3465E+06    -241.530E+06    -94.4027E+06    -241.474E+06    -87.0318E+06     2.48112E+06         43.6537
            1124     15.0932E-03     5.41804E-03         2.09124         1.27392        -4.99677         1.26728        -4.99013         2.09124    -401.092E-03     297.134E-03    -120.588E-03    -176.546E-03    -156.280E-03     276.868E-03    -120.588E-03     180.497E-03     124.978E+06     120.771E+06    -7.09709E+06    -6.94512E+06     121.301E+06     124.296E+06     3.88862E+06         49.0495
            1125     14.2339E-03     5.21591E-03         2.14623         1.45460        -5.29152         1.44981        -5.28673         2.14623    -355.260E-03     290.552E-03    -118.802E-03    -171.750E-03    -146.270E-03     265.071E-03    -118.802E-03     207.792E-03     117.565E+06     106.241E+06    -19.4304E+06    -19.1509E+06     105.962E+06     117.565E+06     5.18972E+06         48.8401
            1126     13.3634E-03     5.11813E-03         2.19527         1.61054        -5.54585         1.60802        -5.54332         2.19527    -252.280E-03     270.813E-03    -117.351E-03    -153.463E-03    -134.141E-03     251.492E-03    -117.351E-03     175.439E-03     111.591E+06     90.6671E+06    -32.6783E+06    -31.6914E+06     89.6802E+06     111.591E+06     10.1493E+06         48.5838
            1127     12.4859E-03     5.03419E-03         2.23744         1.72881        -5.74543         1.72803        -5.74465         2.23744    -125.349E-03     250.780E-03    -114.889E-03    -135.891E-03    -116.994E-03     233.478E-03    -116.484E-03     158.109E-03     103.311E+06     77.7731E+06    -45.0371E+06    -43.2303E+06     75.9663E+06     103.311E+06     14.3886E+06         48.2809
            1128     11.5932E-03     5.02757E-03         2.27468         1.82130        -5.89875         1.82111        -5.89856         2.27468    -40.6167E-03     233.784E-03    -111.115E-03    -122.669E-03    -103.524E-03     219.894E-03    -116.370E-03     135.287E-03     83.9727E+06     67.7191E+06    -54.9752E+06    -53.3311E+06     66.6371E+06     83.4104E+06     13.4413E+06         47.9325
            1129     10.6931E-03     5.04722E-03         2.30779         1.90717        -6.03153         1.90709        -6.03145         2.30779     2.64714E-03     228.221E-03    -108.844E-03    -119.377E-03    -98.6192E-03     215.383E-03    -116.764E-03     128.052E-03     63.4301E+06     55.0661E+06    -59.2414E+06    -58.4620E+06     58.9862E+06     58.7306E+06     7.85528E+06         47.5453
            1130     9.79530E-03     5.09263E-03         2.33745         1.98925        -6.15168         1.98919        -6.15162         2.33745     22.5011E-03     228.824E-03    -109.512E-03    -119.312E-03    -99.4013E-03     216.777E-03    -117.376E-03     124.505E-03     42.5163E+06    -1.09102E+06    -65.2102E+06    -61.8102E+06    -353.776E+03     38.3791E+06     103.178E+03         47.1296
            1131     8.90102E-03     5.14872E-03         2.36373         2.06764        -6.26172         2.06759        -6.26167         2.36373     30.2704E-03     232.161E-03    -111.539E-03    -120.622E-03    -102.784E-03     220.648E-03    -117.864E-03     123.085E-03     22.4651E+06    -56.0783E+06    -102.552E+06    -64.2537E+06    -94.3765E+06     22.4651E+06    -4.35571E+06         46.6976
            1132     8.01141E-03     5.21474E-03         2.38662         2.14122        -6.36163         2.14118        -6.36158         2.38662     30.5952E-03     235.698E-03    -113.633E-03    -122.065E-03    -107.012E-03     224.938E-03    -117.926E-03     120.423E-03     9.40603E+06    -66.1557E+06    -159.144E+06    -66.4914E+06    -158.809E+06     9.40603E+06    -3.23427E+06         46.2612
            1133     7.12595E-03     5.28630E-03         2.40606         2.20873        -6.45093         2.20869        -6.45090         2.40606     28.5977E-03     238.180E-03    -115.324E-03    -122.856E-03    -111.032E-03     228.447E-03    -117.415E-03     115.583E-03    -4.35757E+06    -69.4153E+06    -189.637E+06    -69.5308E+06    -189.521E+06    -4.35757E+06    -1.25079E+06         45.8322
            1134     6.24364E-03     5.36106E-03         2.42210         2.26897        -6.52898         2.26894        -6.52896         2.42210     24.1773E-03     238.839E-03    -115.779E-03    -123.060E-03    -114.117E-03     230.417E-03    -116.300E-03     107.967E-03    -19.2830E+06    -71.9049E+06    -203.293E+06    -72.0532E+06    -203.145E+06    -19.2830E+06    -895.939E+03         45.4212
            1135     5.36229E-03     5.43632E-03         2.43484         2.32159        -6.59572         2.32158        -6.59570         2.43484     19.3442E-03     237.224E-03    -114.634E-03    -122.590E-03    -115.724E-03     230.358E-03    -114.634E-03     97.2898E-03    -31.4774E+06    -73.9628E+06    -212.377E+06    -74.1334E+06    -212.206E+06    -31.4774E+06    -2.00265E+06         45.0379
            1136     4.47977E-03     5.50974E-03         2.44452         2.36540        -6.65068         2.36539        -6.65067         2.44452     12.5165E-03     233.310E-03    -112.516E-03    -120.794E-03    -115.571E-03     228.087E-03    -112.516E-03     84.1354E-03    -41.3507E+06    -74.8900E+06    -218.618E+06    -75.0718E+06    -218.436E+06    -41.3507E+06    -2.02360E+06         44.6918
            1137     3.59410E-03     5.57656E-03         2.45148         2.40067        -6.69408         2.40067        -6.69408         2.45148     6.27074E-03     227.538E-03    -110.110E-03    -117.428E-03    -113.804E-03     223.914E-03    -110.110E-03     68.9807E-03    -52.5958E+06    -76.3248E+06    -226.454E+06    -76.4059E+06    -226.372E+06    -52.5958E+06    -1.23879E+06         44.3916
            1138     2.70385E-03     5.63560E-03         2.45611         2.42745        -6.72644         2.42745        -6.72644         2.45611     2.21409E-03     220.650E-03    -107.667E-03    -112.983E-03    -110.811E-03     218.478E-03    -107.667E-03     52.1741E-03    -63.7510E+06    -80.3442E+06    -234.880E+06    -80.3566E+06    -234.868E+06    -63.7510E+06    -1.25894E+06         44.1459
            1139     1.80670E-03     5.68113E-03         2.45879         2.44582        -6.74865         2.44582        -6.74865         2.45879    -203.655E-06     213.819E-03    -105.507E-03    -108.312E-03    -107.293E-03     212.800E-03    -105.507E-03     34.6161E-03    -73.0129E+06    -83.7114E+06    -240.295E+06    -83.7652E+06    -240.241E+06    -73.0129E+06    -1.86921E+06         43.9620
            1140     904.567E-06     5.70975E-03         2.46160         2.45440        -6.76219         2.45845        -6.76219         2.45756     222.156E-06     208.711E-03    -103.530E-03    -105.181E-03    -104.662E-03     208.387E-03    -103.725E-03     18.5661E-03    -80.0869E+06    -86.0436E+06    -241.245E+06    -84.5326E+06    -241.172E+06    -81.6704E+06     286.941E+03         43.8454
            1141     15.0168E-03     4.10105E-03         2.17392         1.33761        -5.17951         1.32515        -5.16706         2.17392    -557.531E-03     297.658E-03    -125.995E-03    -171.663E-03    -139.715E-03     265.710E-03    -125.995E-03     229.098E-03     123.095E+06     117.253E+06    -8.36416E+06    -7.81494E+06     118.714E+06     121.085E+06     8.00010E+06         48.9908
            1142     14.1290E-03     3.90325E-03         2.22643         1.54095        -5.51675         1.53508        -5.51088         2.22643    -367.171E-03     294.544E-03    -125.333E-03    -169.212E-03    -137.557E-03     262.889E-03    -125.333E-03     232.214E-03     114.465E+06     100.669E+06    -21.7697E+06    -20.7844E+06     99.6836E+06     114.465E+06     9.90944E+06         48.7871
            1143     13.2561E-03     3.81801E-03         2.27250         1.67082        -5.75358         1.66946        -5.75222         2.27250    -129.507E-03     265.039E-03    -122.089E-03    -142.950E-03    -117.715E-03     242.830E-03    -125.115E-03     184.313E-03     111.802E+06     87.5821E+06    -34.3570E+06    -32.5874E+06     85.8125E+06     111.802E+06     14.1551E+06         48.5372
            1144     12.3582E-03     3.77542E-03         2.31498         1.75782        -5.90799         1.75758        -5.90774         2.31498     12.3278E-03     244.309E-03    -113.772E-03    -130.536E-03    -98.4166E-03     224.420E-03    -126.003E-03     165.040E-03     111.868E+06     80.8837E+06    -43.1166E+06    -41.5934E+06     79.3605E+06     111.868E+06     12.5072E+06         48.2391
            1145     11.4495E-03     3.77885E-03         2.35574         1.84787        -6.04738         1.84764        -6.04716         2.35574     65.8808E-03     233.768E-03    -105.903E-03    -127.865E-03    -88.6705E-03     216.536E-03    -127.865E-03     149.074E-03     99.1707E+06     78.3765E+06    -46.7123E+06    -46.0172E+06     77.6814E+06     99.1707E+06     4.32221E+06         47.8957
            1146     10.5409E-03     3.80274E-03         2.39431         1.94225        -6.18249         1.94201        -6.18225         2.39431     83.0069E-03     234.177E-03    -103.912E-03    -130.265E-03    -87.7704E-03     218.035E-03    -130.265E-03     144.122E-03     71.6291E+06     63.4376E+06    -49.2533E+06    -48.8090E+06     62.9934E+06     71.6291E+06    -2.71648E+06         47.5160
            1147     9.63438E-03     3.84086E-03         2.43017         2.03726        -6.31315         2.03705        -6.31294         2.43017     81.5096E-03     239.827E-03    -106.858E-03    -132.969E-03    -91.7950E-03     224.764E-03    -132.969E-03     141.293E-03     49.2978E+06     104.465E+03    -61.7310E+06    -52.9693E+06    -8.65724E+06     49.2978E+06    -7.76828E+06         47.1117
            1148     8.73512E-03     3.89057E-03         2.46280         2.12974        -6.43738         2.12957        -6.43721         2.46280     74.3766E-03     248.152E-03    -112.477E-03    -135.676E-03    -98.1973E-03     233.873E-03    -135.676E-03     140.567E-03     35.5901E+06    -55.2292E+06    -113.505E+06    -59.4909E+06    -109.243E+06     35.5901E+06    -11.1556E+06         46.6954
            1149     7.84272E-03     3.94749E-03         2.49184         2.21702        -6.55253         2.21690        -6.55241         2.49184     63.3472E-03     256.968E-03    -118.948E-03    -138.020E-03    -105.536E-03     243.555E-03    -138.020E-03     139.347E-03     17.1415E+06    -64.2263E+06    -170.988E+06    -65.5032E+06    -169.711E+06     17.1415E+06    -10.6702E+06         46.2796
            1150     6.95830E-03     4.01159E-03         2.51703         2.29736        -6.65708         2.29728        -6.65699         2.51703     53.8640E-03     265.296E-03    -125.420E-03    -139.876E-03    -113.051E-03     252.927E-03    -139.876E-03     136.694E-03    -4.60689E+06    -67.0499E+06    -194.285E+06    -68.0974E+06    -193.237E+06    -4.60689E+06    -10.1037E+06         45.8753
            1151     6.08043E-03     4.08036E-03         2.53824         2.36876        -6.74899         2.36871        -6.74894         2.53824     43.3515E-03     272.419E-03    -130.853E-03    -141.566E-03    -120.129E-03     261.362E-03    -141.233E-03     131.597E-03    -22.6254E+06    -67.2028E+06    -206.264E+06    -68.0895E+06    -205.377E+06    -22.6254E+06    -10.0859E+06         45.4924
            1152     5.20815E-03     4.15285E-03         2.55549         2.43071        -6.82766         2.43067        -6.82763         2.55549     34.2410E-03     277.900E-03    -134.623E-03    -143.277E-03    -126.428E-03     268.493E-03    -142.065E-03     123.127E-03    -36.9734E+06    -68.2768E+06    -215.965E+06    -68.8848E+06    -215.357E+06    -36.9734E+06    -8.96628E+06         45.1391
            1153     4.33975E-03     4.22540E-03         2.56896         2.48205        -6.89236         2.48203        -6.89234         2.56896     24.3087E-03     281.452E-03    -137.174E-03    -144.278E-03    -131.609E-03     273.987E-03    -142.378E-03     110.720E-03    -48.8242E+06    -72.1938E+06    -224.092E+06    -72.5186E+06    -223.767E+06    -48.8242E+06    -6.87259E+06         44.8233
            1154     3.47271E-03     4.29561E-03         2.57899         2.52318        -6.94339         2.52318        -6.94339         2.57899     15.7384E-03     283.113E-03    -138.896E-03    -144.217E-03    -135.506E-03     277.741E-03    -142.234E-03     94.3261E-03    -59.3561E+06    -76.1215E+06    -230.520E+06    -76.2578E+06    -230.384E+06    -59.3561E+06    -4.22662E+06         44.5518
            1155     2.60581E-03     4.35679E-03         2.58598         2.55434        -6.98159         2.55434        -6.98159         2.58598     10.3429E-03     283.411E-03    -139.907E-03    -143.504E-03    -138.322E-03     280.057E-03    -141.736E-03     74.3493E-03    -67.4276E+06    -79.2759E+06    -237.669E+06    -79.3213E+06    -237.624E+06    -67.4276E+06    -2.46766E+06         44.3313
            1156     1.74018E-03     4.40764E-03         2.59030         2.57600        -7.00777         2.57600        -7.00777         2.59030     4.34750E-03     282.433E-03    -140.306E-03    -142.128E-03    -139.821E-03     280.779E-03    -140.958E-03     51.5029E-03    -74.8982E+06    -84.0968E+06    -242.730E+06    -84.1543E+06    -242.672E+06    -74.8982E+06    -2.33478E+06         44.1673
            1157     871.712E-06     4.44144E-03         2.59327         2.58723        -7.02326         2.58992        -7.02326         2.59059     5.90854E-03     280.518E-03    -139.589E-03    -140.929E-03    -139.398E-03     279.966E-03    -140.568E-03     28.3742E-03    -84.5292E+06    -91.3686E+06    -248.490E+06    -89.8314E+06    -248.444E+06    -86.1127E+06    -954.510E+03         44.0634
            1158     14.8637E-03     2.73417E-03         2.22145         1.44117        -5.47459         1.42075        -5.45417         2.22145    -656.899E-03     300.571E-03    -132.543E-03    -168.028E-03    -136.232E-03     268.775E-03    -132.543E-03     231.939E-03     125.447E+06     114.362E+06    -8.68206E+06    -7.07787E+06     114.086E+06     124.119E+06     12.5990E+06         48.9759
            1159     14.0230E-03     2.58265E-03         2.26885         1.57954        -5.75873         1.57608        -5.75527         2.26885    -186.409E-03     283.672E-03    -127.695E-03    -155.977E-03    -128.321E-03     261.063E-03    -132.743E-03     188.554E-03     122.305E+06     100.836E+06    -19.1559E+06    -16.8065E+06     98.4863E+06     122.305E+06     15.9026E+06         48.7804
            1160     13.1320E-03     2.54084E-03         2.31477         1.64221        -5.87609         1.64176        -5.87564         2.31477     56.1260E-03     253.843E-03    -116.232E-03    -137.611E-03    -103.517E-03     237.333E-03    -133.816E-03     152.426E-03     124.941E+06     93.6031E+06    -28.3973E+06    -26.8720E+06     92.0778E+06     124.941E+06     11.7477E+06         48.5357
            1161     12.2233E-03     2.52109E-03         2.36183         1.72869        -5.99518         1.72820        -5.99469         2.36183     117.259E-03     239.922E-03    -103.675E-03    -136.247E-03    -88.5557E-03     224.803E-03    -136.247E-03     139.719E-03     124.478E+06     91.3306E+06    -32.4858E+06    -31.8945E+06     90.7392E+06     124.478E+06     2.32247E+06         48.2406
            1162     11.3081E-03     2.52999E-03         2.40858         1.83460        -6.13299         1.83409        -6.13248         2.40858     127.044E-03     236.508E-03    -96.9260E-03    -139.582E-03    -83.6866E-03     223.268E-03    -139.582E-03     128.919E-03     103.144E+06     80.5355E+06    -37.4054E+06    -37.0212E+06     86.4434E+06     96.8524E+06    -4.94135E+06         47.9017
            1163     10.3913E-03     2.54721E-03         2.45350         1.94721        -6.27760         1.94680        -6.27719         2.45350     115.926E-03     240.995E-03    -97.5024E-03    -143.493E-03    -85.3357E-03     228.828E-03    -143.493E-03     124.363E-03     64.6196E+06     44.5168E+06    -45.9552E+06    -45.3996E+06     59.5369E+06     49.0438E+06    -7.36915E+06         47.5292
            1164     9.48110E-03     2.57552E-03         2.49560         2.05989        -6.42253         2.05959        -6.42223         2.49560     99.9485E-03     249.902E-03    -101.962E-03    -147.939E-03    -90.7594E-03     238.699E-03    -147.939E-03     121.740E-03     27.2104E+06    -16.9226E+06    -67.4317E+06    -54.0829E+06    -20.9876E+06     17.9267E+06    -9.61868E+06         47.1354
            1165     8.57704E-03     2.61099E-03         2.53424         2.16819        -6.56194         2.16799        -6.56173         2.53424     84.0421E-03     261.768E-03    -109.089E-03    -152.679E-03    -98.5757E-03     251.255E-03    -152.679E-03     121.210E-03     6.82523E+06    -55.8812E+06    -123.917E+06    -60.3500E+06    -119.448E+06     6.82523E+06    -14.9394E+06         46.7331
            1166     7.68226E-03     2.65313E-03         2.56899         2.26939        -6.69233         2.26925        -6.69220         2.56899     68.4349E-03     274.926E-03    -117.568E-03    -157.358E-03    -107.668E-03     265.027E-03    -157.358E-03     121.130E-03    -5.10710E+06    -58.9973E+06    -180.049E+06    -62.4594E+06    -176.587E+06    -5.10710E+06    -19.7348E+06         46.3348
            1167     6.79617E-03     2.70177E-03         2.59955         2.36162        -6.81110         2.36153        -6.81101         2.59955     56.6322E-03     288.652E-03    -126.810E-03    -161.843E-03    -117.586E-03     279.429E-03    -161.843E-03     120.411E-03    -23.4729E+06    -59.6965E+06    -203.433E+06    -62.3756E+06    -200.754E+06    -23.4729E+06    -19.0087E+06         45.9517
            1168     5.91978E-03     2.75570E-03         2.62578         2.44323        -6.91594         2.44317        -6.91588         2.62578     44.8837E-03     302.595E-03    -136.503E-03    -166.092E-03    -128.122E-03     294.214E-03    -166.092E-03     118.068E-03    -40.5830E+06    -63.0986E+06    -215.563E+06    -64.5138E+06    -214.148E+06    -40.5830E+06    -14.2296E+06         45.5930
            1169     5.05297E-03     2.81413E-03         2.64767         2.51364        -7.00599         2.51361        -7.00596         2.64767     35.2346E-03     316.287E-03    -146.277E-03    -170.009E-03    -138.999E-03     309.009E-03    -170.009E-03     112.950E-03    -51.7549E+06    -68.4185E+06    -224.843E+06    -69.0512E+06    -224.210E+06    -51.7549E+06    -9.26082E+06         45.2665
            1170     4.19522E-03     2.87425E-03         2.66533         2.57231        -7.08074         2.57229        -7.08073         2.66533     25.4085E-03     329.131E-03    -155.683E-03    -173.447E-03    -149.784E-03     323.231E-03    -173.447E-03     104.099E-03    -59.6007E+06    -73.7768E+06    -231.509E+06    -74.0075E+06    -231.278E+06    -59.6007E+06    -5.72339E+06         44.9785
            1171     3.34666E-03     2.93358E-03         2.67901         2.61940        -7.14024         2.61939        -7.14023         2.67901     17.1575E-03     340.378E-03    -164.080E-03    -176.298E-03    -159.750E-03     336.048E-03    -176.298E-03     90.9966E-03    -67.2391E+06    -78.3871E+06    -236.796E+06    -78.4855E+06    -236.697E+06    -67.2391E+06    -3.55941E+06         44.7342
            1172     2.50460E-03     2.98725E-03         2.68903         2.65528        -7.18537         2.65528        -7.18537         2.68903     12.4204E-03     349.473E-03    -170.894E-03    -178.579E-03    -168.118E-03     346.697E-03    -178.579E-03     73.8033E-03    -73.6607E+06    -82.1679E+06    -242.165E+06    -82.2062E+06    -242.126E+06    -73.6607E+06    -1.91798E+06         44.5381
            1173     1.66592E-03     3.03110E-03         2.69589         2.67997        -7.21654         2.67997        -7.21653         2.69589     5.48662E-03     356.640E-03    -176.302E-03    -180.338E-03    -174.867E-03     355.205E-03    -180.338E-03     53.0809E-03    -78.4959E+06    -87.1656E+06    -246.754E+06    -87.1767E+06    -246.743E+06    -78.4959E+06    -461.718E+03         44.3937
            1174     832.082E-06     3.06403E-03         2.70168         2.69344        -7.23518         2.69549        -7.23517         2.69962     8.64639E-03     361.754E-03    -179.567E-03    -182.186E-03    -179.059E-03     361.245E-03    -182.186E-03     30.4621E-03    -87.5974E+06    -94.4613E+06    -254.153E+06    -93.4096E+06    -254.151E+06    -88.6513E+06     397.090E+03         44.3030
            1175     14.8501E-03     1.39382E-03         2.23219         1.48633        -5.88408         1.46852        -5.86627         2.23219    -513.866E-03     333.790E-03    -139.268E-03    -194.523E-03    -169.612E-03     308.879E-03    -139.268E-03     221.071E-03     135.518E+06     112.746E+06    -7.21366E+06    -5.37017E+06     110.903E+06     135.518E+06     10.6675E+06         49.0275
            1176     13.9378E-03     1.29411E-03         2.27873         1.48646        -5.86598         1.48590        -5.86542         2.27873     22.0315E-03     273.234E-03    -125.387E-03    -147.847E-03    -123.309E-03     262.300E-03    -138.991E-03     128.265E-03     142.639E+06     111.767E+06    -9.65467E+06    -7.31655E+06     109.429E+06     142.639E+06     15.9126E+06         48.8418
            1177     13.0307E-03     1.27074E-03         2.33072         1.55274        -5.90090         1.55233        -5.90050         2.33072     103.456E-03     245.536E-03    -104.659E-03    -140.876E-03    -97.5081E-03     238.384E-03    -140.876E-03     92.3084E-03     145.745E+06     108.277E+06    -12.4069E+06    -11.7285E+06     107.598E+06     145.745E+06     5.85285E+06         48.5999
            1178     12.1161E-03     1.26517E-03         2.38462         1.67220        -6.01978         1.67174        -6.01933         2.38462     112.366E-03     237.892E-03    -93.7269E-03    -144.165E-03    -87.4230E-03     231.588E-03    -144.165E-03     82.0895E-03     127.378E+06     100.978E+06    -18.9757E+06    -18.7964E+06     100.798E+06     127.378E+06    -3.29453E+06         48.3070
            1179     11.1982E-03     1.26856E-03         2.43735         1.80359        -6.16652         1.80323        -6.16616         2.43735     98.2702E-03     238.805E-03    -90.5256E-03    -148.279E-03    -85.0930E-03     233.372E-03    -148.279E-03     75.5164E-03     92.7712E+06     67.2407E+06    -30.4595E+06    -30.1484E+06     85.9584E+06     73.7424E+06    -5.71005E+06         47.9721
            1180     10.2841E-03     1.27917E-03         2.48753         1.93743        -6.32532         1.93719        -6.32508         2.48753     82.3896E-03     245.471E-03    -92.4192E-03    -153.051E-03    -87.6172E-03     240.669E-03    -153.051E-03     72.2104E-03     52.2989E+06     9.84020E+06    -46.6397E+06    -39.6902E+06     52.0724E+06     3.11728E+06    -3.95591E+06         47.6057
            1181     9.37083E-03     1.29323E-03         2.53433         2.06648        -6.48351         2.06632        -6.48335         2.53433     67.5069E-03     256.114E-03    -97.5471E-03    -158.567E-03    -93.2124E-03     251.780E-03    -158.567E-03     70.3554E-03    -327.591E+03    -43.1331E+06    -73.3697E+06    -45.8495E+06    -27.1222E+06    -43.8588E+06    -6.14638E+06         47.2202
            1182     8.46539E-03     1.31152E-03         2.57729         2.18797        -6.63561         2.18787        -6.63551         2.57729     55.0820E-03     269.948E-03    -105.239E-03    -164.709E-03    -101.206E-03     265.915E-03    -164.709E-03     69.8441E-03    -31.6563E+06    -70.0125E+06    -124.934E+06    -49.7517E+06    -119.393E+06    -57.4577E+06    -14.6010E+06         46.8283
            1183     7.56728E-03     1.33394E-03         2.61610         2.29945        -6.77711         2.29938        -6.77705         2.61610     43.9254E-03     286.040E-03    -114.837E-03    -171.203E-03    -111.044E-03     282.246E-03    -171.203E-03     69.9967E-03    -39.7646E+06    -68.9133E+06    -185.017E+06    -55.0554E+06    -181.745E+06    -56.8945E+06    -19.4000E+06         46.4428
            1184     6.67961E-03     1.36033E-03         2.65056         2.39995        -6.90594         2.39991        -6.90590         2.65056     35.9486E-03     304.018E-03    -126.159E-03    -177.859E-03    -122.618E-03     300.477E-03    -177.859E-03     69.9504E-03    -51.1058E+06    -65.2086E+06    -217.178E+06    -62.5181E+06    -215.162E+06    -55.8127E+06    -15.7966E+06         46.0750
            1185     5.80307E-03     1.39059E-03         2.68058         2.48894        -7.02037         2.48891        -7.02035         2.68058     28.2541E-03     323.464E-03    -138.966E-03    -184.498E-03    -135.738E-03     320.236E-03    -184.498E-03     69.1911E-03    -60.5280E+06    -69.2031E+06    -228.230E+06    -69.9105E+06    -227.522E+06    -60.5280E+06    -8.86956E+06         45.7344
            1186     4.93928E-03     1.42296E-03         2.70610         2.56577        -7.11937         2.56576        -7.11936         2.70610     22.0495E-03     343.853E-03    -152.873E-03    -190.980E-03    -150.052E-03     341.032E-03    -190.980E-03     67.0512E-03    -65.4510E+06    -75.0526E+06    -233.280E+06    -75.2365E+06    -233.097E+06    -65.4510E+06    -4.42657E+06         45.4282
            1187     4.08905E-03     1.45765E-03         2.72718         2.63016        -7.20229         2.63016        -7.20228         2.72718     15.9807E-03     364.367E-03    -167.267E-03    -197.100E-03    -164.949E-03     362.049E-03    -197.100E-03     62.9718E-03    -69.3133E+06    -78.8464E+06    -236.968E+06    -78.9147E+06    -236.900E+06    -69.3133E+06    -2.59101E+06         45.1617
            1188     3.25111E-03     1.49171E-03         2.74399         2.68184        -7.26885         2.68184        -7.26885         2.74399     10.9738E-03     383.940E-03    -181.327E-03    -202.614E-03    -179.580E-03     382.193E-03    -202.614E-03     56.0793E-03    -73.8109E+06    -81.8928E+06    -241.730E+06    -81.9258E+06    -241.697E+06    -73.8109E+06    -1.51683E+06         44.9387
            1189     2.42520E-03     1.52499E-03         2.75679         2.72143        -7.31992         2.72143        -7.31992         2.75679     8.15664E-03     401.253E-03    -193.949E-03    -207.303E-03    -192.813E-03     400.117E-03    -207.303E-03     45.6168E-03    -78.5612E+06    -84.8923E+06    -246.179E+06    -84.8998E+06    -246.171E+06    -78.5612E+06    -293.288E+03         44.7621
            1190     1.60940E-03     1.55198E-03         2.76607         2.74903        -7.35580         2.74903        -7.35580         2.76607     3.47981E-03     415.275E-03    -204.271E-03    -211.004E-03    -203.687E-03     414.691E-03    -211.004E-03     32.0731E-03    -81.1851E+06    -88.0376E+06    -248.965E+06    -88.0494E+06    -248.953E+06    -81.1851E+06    -73.8173E+03         44.6336
            1191     800.855E-06     1.56705E-03         2.77440         2.76472        -7.37824         2.76472        -7.37824         2.77440     7.51806E-03     425.079E-03    -211.034E-03    -214.046E-03    -211.198E-03     424.879E-03    -213.681E-03     17.0607E-03    -88.1439E+06    -93.2000E+06    -254.963E+06    -92.0867E+06    -254.952E+06    -89.2687E+06    -402.126E+03         44.5538
            1192     888.926E-06     70.7313E-03     178.906E-03    -604.000E-03        -1.29380    -738.447E-03        -1.15520     174.751E-03    -192.066E-03     235.941E-03    -117.380E-03    -118.561E-03    -118.334E-03     235.939E-03    -117.605E-03    -1.39618E-03    -107.175E+06    -112.861E+06    -282.323E+06    -111.536E+06    -282.308E+06    -108.514E+06     243.185E+03         42.3127
            1193     1.77777E-03     70.7291E-03    -259.995E-03    -277.331E-03        -1.18176    -262.216E-03        -1.17954    -277.331E-03     11.1721E-03     235.977E-03    -117.846E-03    -118.132E-03    -117.950E-03     235.976E-03    -118.025E-03    -1.33265E-03    -98.9028E+06    -107.311E+06    -277.426E+06    -107.324E+06    -277.413E+06    -98.9028E+06     975.244E+03         42.5077
            1194     2.66709E-03     70.7251E-03    -230.662E-03    -267.277E-03        -1.22214    -231.844E-03        -1.22096    -267.277E-03    -65.9443E-03     235.816E-03    -117.759E-03    -118.057E-03    -117.758E-03     235.816E-03    -118.057E-03    -401.672E-06    -86.8975E+06    -102.453E+06    -268.965E+06    -102.467E+06    -268.950E+06    -86.8975E+06     1.07909E+06         42.8205
            1195     3.55620E-03     70.7231E-03    -191.353E-03    -253.376E-03        -1.27683    -191.777E-03        -1.27641    -253.376E-03    -36.7510E-03     235.772E-03    -117.702E-03    -118.070E-03    -117.702E-03     235.771E-03    -118.070E-03     849.914E-06    -76.3982E+06    -98.3524E+06    -260.489E+06    -98.3782E+06    -260.463E+06    -76.3982E+06     131.338E+03         43.2479
            1196     4.44463E-03     70.7207E-03    -139.405E-03    -235.923E-03        -1.34796    -139.619E-03        -1.34775    -235.923E-03    -30.4905E-03     235.808E-03    -117.693E-03    -118.114E-03    -117.683E-03     235.797E-03    -118.114E-03     3.20641E-03    -64.1065E+06    -94.0986E+06    -252.524E+06    -94.1230E+06      -252.5E+06    -64.1065E+06    -592.724E+03         43.7832
            1197     5.33402E-03     70.7228E-03    -77.0235E-03    -215.073E-03        -1.43292    -77.1988E-03        -1.43275    -215.073E-03    -19.6560E-03     235.640E-03    -117.469E-03    -118.171E-03    -117.428E-03     235.599E-03    -118.171E-03     7.34150E-03    -48.5789E+06    -88.1574E+06    -241.670E+06    -88.1690E+06    -241.659E+06    -48.5789E+06    -611.629E+03         44.4162
            1198     6.22360E-03     70.7297E-03    -5.27484E-03    -191.117E-03        -1.53123    -5.32675E-03        -1.53118    -191.117E-03    -11.3827E-03     235.387E-03    -117.201E-03    -118.186E-03    -117.094E-03     235.280E-03    -118.186E-03     12.0167E-03    -35.9720E+06    -81.3769E+06    -224.978E+06    -81.3853E+06    -224.969E+06    -35.9720E+06    -80.3994E+03         45.1334
            1199     7.11246E-03     70.7422E-03     76.0884E-03    -164.279E-03        -1.64193     75.9186E-03        -1.64176    -164.279E-03    -33.5000E-03     235.219E-03    -117.057E-03    -118.162E-03    -116.819E-03     234.980E-03    -118.162E-03     18.0071E-03    -25.5668E+06    -75.5308E+06    -193.378E+06    -75.5451E+06    -193.364E+06    -25.5668E+06     894.656E+03         45.9180
            1200     8.00185E-03     70.7626E-03     165.467E-03    -134.863E-03        -1.76384     165.325E-03        -1.76370    -134.863E-03    -30.0488E-03     235.104E-03    -116.975E-03    -118.129E-03    -116.482E-03     234.611E-03    -118.129E-03     25.9259E-03    -13.8848E+06    -69.1739E+06    -148.931E+06    -69.1871E+06    -148.918E+06    -13.8848E+06     810.356E+03         46.7495
            1201     8.89109E-03     70.7943E-03     262.547E-03    -103.140E-03        -1.89613     262.269E-03        -1.89586    -103.140E-03    -43.2752E-03     234.838E-03    -116.763E-03    -118.074E-03    -115.875E-03     233.950E-03    -118.074E-03     34.9938E-03    -2.05086E+06    -62.1444E+06    -93.7451E+06    -62.1637E+06    -93.7258E+06    -2.05086E+06     357.104E+03         47.6044
            1202     9.78039E-03     70.8355E-03     366.443E-03    -69.3993E-03        -2.03759     366.119E-03        -2.03727    -69.3993E-03    -52.5214E-03     234.454E-03    -116.499E-03    -117.955E-03    -114.877E-03     232.832E-03    -117.955E-03     47.0019E-03     19.9114E+06    -20.8789E+06    -57.5570E+06    -56.2402E+06    -12.0675E+06     9.78325E+06     150.375E+03         48.4573
            1203     10.6711E-03     70.8950E-03     475.760E-03    -34.2144E-03        -2.18686     475.538E-03        -2.18663    -34.2144E-03    -47.6862E-03     235.193E-03    -117.140E-03    -118.053E-03    -114.215E-03     232.087E-03    -117.871E-03     65.0617E-03     62.7610E+06     30.3852E+06    -49.8549E+06    -49.8540E+06     62.7601E+06     30.3852E+06    -20.7304E+03         49.2812
            1204     11.5612E-03     70.9804E-03     590.322E-03     1.77897E-03        -2.34272     590.139E-03        -2.34253     1.77897E-03    -42.5423E-03     237.950E-03    -117.951E-03    -119.999E-03    -114.343E-03     232.293E-03    -117.951E-03     88.4343E-03     92.3954E+06     65.5540E+06    -42.0962E+06    -42.0946E+06     92.3938E+06     65.5540E+06    -301.789E+03         50.0493
            1205     12.4500E-03     71.0970E-03     709.498E-03     38.1931E-03        -2.50408     709.460E-03        -2.50404     38.1931E-03    -21.0846E-03     242.244E-03    -118.072E-03    -124.172E-03    -114.499E-03     232.571E-03    -118.072E-03     116.579E-03     104.524E+06     95.8938E+06    -32.7117E+06    -32.7084E+06     100.484E+06     99.9305E+06    -604.791E+03         50.7371
            1206     13.3404E-03     71.2543E-03     833.837E-03     76.4079E-03        -2.67287     833.826E-03        -2.67285     76.4079E-03    -10.9286E-03     241.884E-03    -118.063E-03    -123.821E-03    -114.143E-03     232.206E-03    -118.063E-03     116.508E-03     113.366E+06     107.209E+06    -23.3412E+06    -23.3379E+06     107.206E+06     113.366E+06    -624.454E+03         51.3233
            1207     14.2327E-03     71.3713E-03     962.946E-03     116.608E-03        -2.84892     962.943E-03        -2.84891     116.608E-03     463.312E-06     249.424E-03    -117.985E-03    -131.440E-03    -116.307E-03     234.292E-03    -117.985E-03     143.900E-03     117.826E+06     112.313E+06    -14.0719E+06    -14.0697E+06     115.704E+06     114.433E+06    -516.562E+03         51.7913
            1208     15.1212E-03     71.6020E-03         1.09488     160.098E-03        -3.03129         1.09488        -3.03128     160.098E-03     695.100E-06     247.017E-03    -117.156E-03    -129.861E-03    -117.330E-03     235.263E-03    -117.932E-03     106.332E-03     119.450E+06     112.744E+06    -6.56597E+06    -6.56417E+06     119.448E+06     112.744E+06        -282.383         52.1298
            1209     889.617E-06     71.9978E-03    -82.5008E-03    -586.001E-03        -1.04791    -737.984E-03    -891.051E-03    -87.3762E-03    -163.353E-03     235.490E-03    -117.066E-03    -118.424E-03    -118.423E-03     235.489E-03    -117.066E-03    -1.14986E-03    -110.771E+06    -115.538E+06    -282.995E+06    -114.209E+06    -282.985E+06    -112.111E+06    -617.202E+03         42.2453
            1210     1.77799E-03     71.9936E-03    -389.145E-03    -407.632E-03    -919.016E-03    -390.806E-03    -917.355E-03    -407.632E-03     5.37951E-03     235.862E-03    -117.772E-03    -118.089E-03    -118.017E-03     235.860E-03    -117.844E-03    -1.22421E-03    -104.650E+06    -110.542E+06    -277.630E+06    -110.546E+06    -277.627E+06    -104.650E+06    -375.586E+03         42.4416
            1211     2.66698E-03     71.9901E-03    -357.267E-03    -396.780E-03    -963.882E-03    -358.669E-03    -962.481E-03    -396.780E-03    -56.7008E-03     235.653E-03    -117.652E-03    -118.002E-03    -117.713E-03     235.653E-03    -117.940E-03    -414.121E-06    -92.7810E+06    -104.993E+06    -269.379E+06    -105.005E+06    -269.367E+06    -92.7810E+06     520.227E+03         42.7564
            1212     3.55618E-03     71.9877E-03    -314.064E-03    -381.836E-03        -1.02316    -314.848E-03        -1.02238    -381.836E-03    -32.9660E-03     235.591E-03    -117.607E-03    -117.983E-03    -117.606E-03     235.590E-03    -117.983E-03     1.03446E-03    -77.2513E+06    -99.3849E+06    -260.520E+06    -99.4000E+06    -260.505E+06    -77.2513E+06     1.07066E+06         43.1869
            1213     4.44593E-03     71.9860E-03    -258.108E-03    -362.934E-03        -1.09965    -258.331E-03        -1.09943    -362.934E-03    -22.2271E-03     235.774E-03    -117.733E-03    -118.041E-03    -117.723E-03     235.764E-03    -118.041E-03     3.36140E-03    -63.5564E+06    -93.7908E+06    -250.919E+06    -93.8029E+06    -250.907E+06    -63.5564E+06     257.794E+03         43.7263
            1214     5.33434E-03     71.9881E-03    -190.219E-03    -340.200E-03        -1.19214    -190.459E-03        -1.19190    -340.200E-03    -12.4988E-03     235.671E-03    -117.550E-03    -118.121E-03    -117.511E-03     235.632E-03    -118.121E-03     7.04585E-03    -48.4019E+06    -87.8692E+06    -241.485E+06    -87.8776E+06    -241.476E+06    -48.4019E+06    -222.965E+03         44.3643
            1215     6.22319E-03     71.9945E-03    -112.084E-03    -313.911E-03        -1.29945    -112.142E-03        -1.29939    -313.911E-03    -1.66423E-03     235.413E-03    -117.246E-03    -118.167E-03    -117.140E-03     235.307E-03    -118.167E-03     11.9406E-03    -33.6894E+06    -81.9576E+06    -225.918E+06    -81.9640E+06    -225.911E+06    -33.6894E+06     434.569E+03         45.0880
            1216     7.11288E-03     72.0075E-03    -23.3544E-03    -284.299E-03        -1.42042    -23.4576E-03        -1.42031    -284.299E-03    -23.3931E-03     235.289E-03    -117.138E-03    -118.151E-03    -116.896E-03     235.047E-03    -118.151E-03     18.1285E-03    -23.2938E+06    -74.3432E+06    -193.253E+06    -74.3515E+06    -193.245E+06    -23.2938E+06     232.793E+03         45.8802
            1217     8.00167E-03     72.0283E-03     74.3465E-03    -251.615E-03        -1.55406     74.2662E-03        -1.55398    -251.615E-03    -18.9093E-03     235.123E-03    -117.010E-03    -118.113E-03    -116.505E-03     234.619E-03    -118.113E-03     26.2281E-03    -13.4841E+06    -66.8185E+06    -148.651E+06    -66.8224E+06    -148.647E+06    -13.4841E+06     2.52214E+03         46.7204
            1218     8.89109E-03     72.0593E-03     180.628E-03    -216.103E-03        -1.69961     180.425E-03        -1.69940    -216.103E-03    -32.2030E-03     234.801E-03    -116.740E-03    -118.061E-03    -115.851E-03     233.912E-03    -118.061E-03     35.0521E-03    -1.88465E+06    -61.0917E+06    -94.2754E+06    -61.1971E+06    -94.1700E+06    -1.88465E+06     452.551E+03         47.5851
            1219     9.78131E-03     72.1004E-03     294.427E-03    -178.034E-03        -1.85561     294.192E-03        -1.85537    -178.034E-03    -40.9683E-03     234.583E-03    -116.633E-03    -117.950E-03    -115.034E-03     232.984E-03    -117.950E-03     46.6805E-03     21.1127E+06    -20.3846E+06    -57.1640E+06    -55.3640E+06    -11.5338E+06     10.4618E+06     542.485E+03         48.4482
            1220     10.6709E-03     72.1594E-03     414.149E-03    -137.946E-03        -2.02031     414.000E-03        -2.02016    -137.946E-03    -36.7991E-03     235.352E-03    -117.290E-03    -118.062E-03    -114.397E-03     232.273E-03    -117.876E-03     64.7783E-03     63.3923E+06     30.0383E+06     -49.073E+06    -49.0715E+06     63.3908E+06     30.0383E+06    -61.4197E+03         49.2824
            1221     11.5609E-03     72.2458E-03     539.518E-03    -96.3679E-03        -2.19254     539.393E-03        -2.19242    -96.3679E-03    -32.5089E-03     237.653E-03    -117.956E-03    -119.698E-03    -114.052E-03     232.008E-03    -117.956E-03     88.2426E-03     93.2234E+06     66.0345E+06    -41.3433E+06    -41.3410E+06     93.2211E+06     66.0345E+06    -517.048E+03         50.0607
            1222     12.4509E-03     72.3638E-03     669.779E-03    -53.5730E-03        -2.37144     669.762E-03        -2.37143    -53.5730E-03    -12.9625E-03     241.815E-03    -118.056E-03    -123.759E-03    -114.144E-03     232.201E-03    -118.056E-03     116.141E-03     104.786E+06     96.0285E+06    -32.9388E+06    -32.9338E+06     100.509E+06     100.300E+06    -764.607E+03         50.7580
            1223     13.3415E-03     72.5170E-03     804.917E-03    -8.64444E-03        -2.55780     804.914E-03        -2.55780    -8.64444E-03    -4.82017E-03     242.224E-03    -118.049E-03    -124.175E-03    -114.568E-03     232.617E-03    -118.049E-03     116.202E-03     113.467E+06     107.560E+06    -23.1787E+06    -23.1736E+06     107.555E+06     113.467E+06    -795.693E+03         51.3520
            1224     14.2300E-03     72.6377E-03     943.925E-03     38.4513E-03        -2.75059     943.923E-03        -2.75059     38.4513E-03     3.38347E-03     249.561E-03    -117.988E-03    -131.572E-03    -116.445E-03     234.434E-03    -117.988E-03     143.813E-03     116.825E+06     111.740E+06    -14.5646E+06    -14.5620E+06     115.188E+06     113.376E+06    -336.812E+03         51.8258
            1225     15.1204E-03     72.8669E-03         1.08537     88.5910E-03        -2.94922         1.08537        -2.94922     88.5910E-03     2.25047E-03     246.760E-03    -117.217E-03    -129.543E-03    -117.085E-03     235.023E-03    -117.938E-03     105.562E-03     118.675E+06     112.239E+06    -7.19119E+06    -7.18867E+06     118.672E+06     112.239E+06    -163.454E+03         52.1680
            1226     889.245E-06     73.2617E-03    -309.637E-03    -560.003E-03    -839.120E-03    -697.445E-03    -697.754E-03    -313.561E-03    -133.833E-03     234.976E-03    -117.235E-03    -117.742E-03    -117.741E-03     234.975E-03    -117.235E-03    -330.763E-06    -110.714E+06    -114.410E+06    -282.362E+06    -114.427E+06    -282.345E+06    -110.714E+06     173.303E+03         42.1773
            1227     1.77877E-03     73.2586E-03    -482.556E-03    -500.858E-03    -726.030E-03    -483.321E-03    -725.265E-03    -500.858E-03    -683.414E-06     235.485E-03    -117.611E-03    -117.874E-03    -117.874E-03     235.484E-03    -117.611E-03    -790.643E-06    -104.733E+06    -111.560E+06    -276.748E+06    -111.572E+06    -276.737E+06    -104.733E+06    -515.200E+03          42.375
            1228     2.66742E-03     73.2551E-03    -446.857E-03    -489.518E-03    -775.004E-03    -448.922E-03    -772.939E-03    -489.518E-03    -47.3946E-03     235.715E-03    -117.664E-03    -118.051E-03    -117.929E-03     235.715E-03    -117.786E-03    -373.015E-06    -95.2180E+06    -107.992E+06    -269.946E+06    -108.002E+06    -269.936E+06    -95.2180E+06    -1.10799E+06         42.6919
            1229     3.55693E-03     73.2516E-03    -400.760E-03    -473.717E-03    -838.536E-03    -402.535E-03    -836.761E-03    -473.717E-03    -28.7586E-03     235.676E-03    -117.667E-03    -118.009E-03    -117.761E-03     235.675E-03    -117.914E-03     982.610E-06    -80.7310E+06    -102.021E+06    -261.625E+06    -102.026E+06    -261.620E+06    -80.7310E+06    -368.096E+03         43.1253
            1230     4.44520E-03     73.2520E-03    -342.338E-03    -453.688E-03    -918.681E-03    -342.635E-03    -918.383E-03    -453.688E-03    -12.9557E-03     235.682E-03    -117.677E-03    -118.005E-03    -117.668E-03     235.674E-03    -118.005E-03     3.26584E-03    -64.6789E+06    -95.1756E+06    -250.147E+06    -95.1793E+06    -250.143E+06    -64.6789E+06     450.050E+03         43.6686
            1231     5.33446E-03     73.2529E-03    -270.568E-03    -429.507E-03        -1.01651    -270.936E-03        -1.01614    -429.507E-03    -4.48773E-03     235.650E-03    -117.558E-03    -118.092E-03    -117.522E-03     235.614E-03    -118.092E-03     6.76282E-03    -48.5484E+06    -88.7412E+06    -241.304E+06    -88.7441E+06    -241.301E+06    -48.5484E+06     661.978E+03         44.3119
            1232     6.22394E-03     73.2597E-03    -187.721E-03    -401.428E-03        -1.13019    -187.854E-03        -1.13006    -401.428E-03     8.87536E-03     235.456E-03    -117.310E-03    -118.146E-03    -117.205E-03     235.350E-03    -118.146E-03     11.8690E-03    -33.4782E+06    -80.8973E+06    -225.131E+06    -80.9092E+06    -225.119E+06    -33.4782E+06    -387.955E+03         45.0419
            1233     7.11255E-03     73.2727E-03    -94.0226E-03    -369.668E-03        -1.25856    -94.0613E-03        -1.25852    -369.668E-03    -12.3847E-03     235.160E-03    -117.032E-03    -118.128E-03    -116.787E-03     234.914E-03    -118.128E-03     18.2330E-03    -23.5766E+06    -73.7839E+06    -192.653E+06    -73.7971E+06    -192.640E+06    -23.5766E+06    -1.05446E+06         45.8418
            1234     8.00237E-03     73.2934E-03     9.39162E-03    -334.466E-03        -1.40068     9.36068E-03        -1.40065    -334.466E-03    -6.62466E-03     235.063E-03    -116.978E-03    -118.085E-03    -116.470E-03     234.555E-03    -118.085E-03     26.3444E-03    -14.5505E+06    -68.1723E+06    -149.521E+06    -68.1766E+06    -149.517E+06    -14.5505E+06    -337.927E+03         46.6910
            1235     8.89168E-03     73.3248E-03     121.981E-03    -296.040E-03        -1.55543     121.850E-03        -1.55530    -296.040E-03    -20.1645E-03     234.971E-03    -116.924E-03    -118.047E-03    -116.052E-03     234.099E-03    -118.047E-03     34.7570E-03    -2.06525E+06    -61.3816E+06    -94.9795E+06    -61.5072E+06    -94.8539E+06    -2.06525E+06     41.9738E+03         47.5654
            1236     9.78055E-03     73.3654E-03     242.478E-03    -254.633E-03        -1.72148     242.336E-03        -1.72134    -254.633E-03    -28.4635E-03     234.847E-03    -116.886E-03    -117.961E-03    -115.305E-03     233.267E-03    -117.961E-03     46.4043E-03     22.0959E+06    -19.3254E+06    -56.7084E+06    -54.3764E+06    -11.0521E+06     11.4906E+06     268.263E+03         48.4387
            1237     10.6703E-03     73.4251E-03     369.333E-03    -210.677E-03        -1.89724     369.252E-03        -1.89716    -210.677E-03    -25.0354E-03     235.570E-03    -117.440E-03    -118.130E-03    -114.562E-03     232.472E-03    -117.910E-03     64.9771E-03     64.8167E+06     32.0941E+06    -47.7195E+06    -47.7174E+06     64.8146E+06     32.0941E+06     34.8398E+03         49.2834
            1238     11.5598E-03     73.5109E-03     502.089E-03    -164.568E-03        -2.08149     502.017E-03        -2.08142    -164.568E-03    -21.7367E-03     237.336E-03    -117.981E-03    -119.355E-03    -113.750E-03     231.731E-03    -117.981E-03     87.9091E-03     93.2871E+06     67.0604E+06    -40.6351E+06    -40.6318E+06     93.2838E+06     67.0604E+06    -218.110E+03         50.0720
            1239     12.4513E-03     73.6270E-03     639.979E-03    -116.537E-03        -2.27310     639.975E-03        -2.27310    -116.537E-03    -4.36418E-03     241.490E-03    -118.056E-03    -123.434E-03    -113.848E-03     231.903E-03    -118.056E-03     115.805E-03     104.895E+06     96.8068E+06    -31.8236E+06    -31.8165E+06     100.909E+06     100.785E+06     38.1155E+03         50.7789
            1240     13.3409E-03     73.7840E-03     782.272E-03    -66.1382E-03        -2.47190     782.271E-03        -2.47190    -66.1382E-03     1.52764E-03     242.564E-03    -118.045E-03    -124.519E-03    -114.807E-03     232.851E-03    -118.045E-03     116.982E-03     113.462E+06     107.506E+06    -23.2481E+06    -23.2409E+06     107.499E+06     113.462E+06    -362.548E+03         51.3810
            1241     14.2307E-03     73.9037E-03     927.577E-03    -13.3847E-03        -2.67650     927.572E-03        -2.67649    -13.3847E-03     7.46557E-03     249.721E-03    -118.001E-03    -131.721E-03    -116.604E-03     234.605E-03    -118.001E-03     144.015E-03     117.259E+06     112.111E+06    -14.8179E+06    -14.8090E+06     115.272E+06     114.089E+06    -736.554E+03         51.8607
            1242     15.1215E-03     74.1303E-03         1.07538     42.0987E-03        -2.88747         1.07538        -2.88747     42.0987E-03     3.36117E-03     246.813E-03    -117.384E-03    -129.429E-03    -117.167E-03     235.124E-03    -117.957E-03     106.124E-03     119.119E+06     113.092E+06    -6.86190E+06    -6.84648E+06     119.104E+06     113.092E+06    -43.6186E+03         52.2067
            1243     889.885E-06     74.5243E-03    -461.355E-03    -565.300E-03    -671.421E-03    -617.761E-03    -579.583E-03    -500.733E-03    -102.703E-03     234.981E-03    -117.415E-03    -117.566E-03    -117.565E-03     234.980E-03    -117.415E-03    -646.726E-06    -108.374E+06    -114.502E+06    -282.793E+06    -113.285E+06    -282.781E+06    -109.604E+06     968.542E+03         42.1089
            1244     1.77914E-03     74.5231E-03    -528.557E-03    -554.718E-03    -616.690E-03    -536.879E-03    -608.368E-03    -554.718E-03    -6.14972E-03     235.353E-03    -117.611E-03    -117.742E-03    -117.741E-03     235.352E-03    -117.611E-03    -1.13794E-03    -98.0489E+06    -108.918E+06    -275.802E+06    -108.931E+06    -275.789E+06    -98.0489E+06    -38.9307E+03         42.3078
            1245     2.66819E-03     74.5200E-03    -496.787E-03    -543.096E-03    -661.323E-03    -500.559E-03    -657.550E-03    -543.096E-03    -37.1949E-03     235.823E-03    -117.778E-03    -118.045E-03    -118.044E-03     235.822E-03    -117.778E-03    -874.290E-06    -89.5704E+06    -105.095E+06    -269.530E+06    -105.106E+06    -269.519E+06    -89.5704E+06    -591.031E+03         42.6267
            1246     3.55598E-03     74.5171E-03    -449.147E-03    -526.729E-03    -727.141E-03    -452.967E-03    -723.320E-03    -526.729E-03    -23.8944E-03     235.811E-03    -117.736E-03    -118.075E-03    -117.891E-03     235.810E-03    -117.919E-03     653.161E-06    -80.4781E+06    -100.681E+06    -261.543E+06    -100.685E+06    -261.540E+06    -80.4781E+06    -669.371E+03         43.0631
            1247     4.44575E-03     74.5164E-03    -390.142E-03    -505.970E-03    -808.305E-03    -390.701E-03    -807.747E-03    -505.970E-03    -2.79164E-03     235.507E-03    -117.505E-03    -118.002E-03    -117.495E-03     235.497E-03    -118.002E-03     3.34950E-03    -66.0219E+06    -95.1530E+06    -251.159E+06    -95.1554E+06    -251.157E+06    -66.0219E+06    -240.256E+03         43.6104
            1248     5.33477E-03     74.5183E-03    -316.391E-03    -480.850E-03    -909.618E-03    -316.957E-03    -909.052E-03    -480.850E-03     4.43662E-03     235.576E-03    -117.496E-03    -118.080E-03    -117.458E-03     235.538E-03    -118.080E-03     7.05197E-03    -46.6812E+06    -87.7462E+06    -240.337E+06    -87.7597E+06    -240.324E+06    -46.6812E+06    -469.010E+03         44.2589
            1249     6.22314E-03     74.5251E-03    -230.906E-03    -451.626E-03        -1.02713    -231.224E-03        -1.02682    -451.626E-03     20.2560E-03     235.522E-03    -117.390E-03    -118.132E-03    -117.287E-03     235.419E-03    -118.132E-03     11.7730E-03    -32.3209E+06    -80.0008E+06    -223.749E+06    -80.0238E+06    -223.726E+06    -32.3209E+06    -999.931E+03         44.9953
            1250     7.11321E-03     74.5372E-03    -134.620E-03    -418.464E-03        -1.15943    -134.630E-03        -1.15942    -418.464E-03    -704.656E-06     235.233E-03    -117.108E-03    -118.126E-03    -116.870E-03     234.995E-03    -118.126E-03     17.9440E-03    -23.4421E+06    -73.7556E+06    -193.199E+06    -73.7679E+06    -193.186E+06    -23.4421E+06    -764.604E+03         45.8029
            1251     8.00225E-03     74.5588E-03    -28.1189E-03    -381.588E-03        -1.30625    -28.1444E-03        -1.30622    -381.588E-03     6.09853E-03     235.069E-03    -116.977E-03    -118.092E-03    -116.480E-03     234.571E-03    -118.092E-03     26.0550E-03    -13.8456E+06    -68.0293E+06    -149.783E+06    -68.0318E+06    -149.780E+06    -13.8456E+06    -350.693E+03         46.6609
            1252     8.89115E-03     74.5905E-03     87.7710E-03    -341.193E-03        -1.46624     87.6868E-03        -1.46616    -341.193E-03    -7.62315E-03     234.889E-03    -116.844E-03    -118.045E-03    -115.969E-03     234.014E-03    -118.045E-03     34.7807E-03    -2.37294E+06    -61.7022E+06    -95.1980E+06    -62.0545E+06    -94.8456E+06    -2.37294E+06    -563.345E+03         47.5452
            1253     9.78076E-03     74.6310E-03     211.693E-03    -297.491E-03        -1.63803     211.627E-03        -1.63796    -297.491E-03    -15.5967E-03     234.874E-03    -116.921E-03    -117.953E-03    -115.299E-03     233.252E-03    -117.953E-03     46.9851E-03     21.4157E+06    -20.2556E+06    -57.3953E+06    -55.5179E+06    -11.2414E+06     10.5240E+06    -887.056E+03         48.4291
            1254     10.6703E-03     74.6903E-03     342.367E-03    -250.792E-03        -1.82024     342.332E-03        -1.82021    -250.792E-03    -13.1638E-03     235.608E-03    -117.499E-03    -118.108E-03    -114.562E-03     232.463E-03    -117.901E-03     65.5315E-03     64.8680E+06     31.3595E+06    -48.2727E+06    -48.2589E+06     64.8542E+06     31.3595E+06    -339.433E+03         49.2845
            1255     11.5607E-03     74.7763E-03     479.123E-03    -201.364E-03        -2.01163     479.089E-03        -2.01160    -201.364E-03    -10.7696E-03     237.554E-03    -117.982E-03    -119.572E-03    -114.007E-03     231.989E-03    -117.982E-03     87.7313E-03     93.8733E+06     66.5565E+06    -40.4717E+06    -40.4698E+06     93.8713E+06     66.5565E+06     144.707E+03         50.0835
            1256     12.4502E-03     74.8905E-03     620.855E-03    -149.392E-03        -2.21077     620.851E-03        -2.21077    -149.392E-03     4.71657E-03     241.866E-03    -118.082E-03    -123.784E-03    -114.247E-03     232.329E-03    -118.082E-03     115.568E-03     104.962E+06     96.1266E+06    -31.3918E+06    -31.3858E+06     100.821E+06     100.262E+06     156.960E+03         50.7997
            1257     13.3415E-03     75.0497E-03     766.655E-03    -94.8254E-03        -2.41685     766.648E-03        -2.41684    -94.8254E-03     8.75583E-03     242.147E-03    -118.076E-03    -124.071E-03    -114.441E-03     232.517E-03    -118.076E-03     116.287E-03     114.149E+06     107.952E+06    -21.7878E+06    -21.7793E+06     107.943E+06     114.149E+06     124.101E+03         51.4099
            1258     14.2312E-03     75.1694E-03     915.299E-03    -37.7262E-03        -2.62871     915.287E-03        -2.62870    -37.7262E-03     12.6057E-03     249.367E-03    -118.014E-03    -131.353E-03    -116.317E-03     234.331E-03    -118.014E-03     143.378E-03     118.350E+06     113.600E+06    -13.6322E+06    -13.6054E+06     116.261E+06     115.662E+06     374.722E+03         51.8962
            1259     15.1193E-03     75.3964E-03         1.06545     21.7161E-03        -2.84534         1.06544        -2.84533     21.7161E-03     4.23599E-03     246.765E-03    -117.145E-03    -129.620E-03    -117.104E-03     235.060E-03    -117.955E-03     106.503E-03     118.741E+06     113.221E+06    -7.11220E+06    -7.07418E+06     118.703E+06     113.221E+06     325.075E+03         52.2461
            1260     888.768E-06     75.7890E-03    -460.374E-03    -568.129E-03    -656.018E-03    -501.946E-03    -540.639E-03    -641.936E-03    -70.9983E-03     235.882E-03    -117.605E-03    -118.278E-03    -118.230E-03     235.881E-03    -117.651E-03    -858.345E-06    -107.752E+06    -113.789E+06    -281.814E+06    -112.575E+06    -281.798E+06    -108.982E+06     746.903E+03         42.0403
            1261     1.77785E-03     75.7871E-03    -529.439E-03    -567.494E-03    -589.387E-03    -549.417E-03    -569.409E-03    -567.494E-03    -10.8599E-03     235.808E-03    -117.820E-03    -117.988E-03    -117.825E-03     235.806E-03    -117.981E-03    -1.55978E-03    -99.2875E+06    -108.737E+06    -276.457E+06    -108.744E+06    -276.451E+06    -99.2875E+06     437.763E+03         42.2402
            1262     2.66697E-03     75.7850E-03    -506.205E-03    -555.786E-03    -625.215E-03    -512.562E-03    -618.858E-03    -555.786E-03    -26.2171E-03     235.631E-03    -117.585E-03    -118.046E-03    -117.646E-03     235.629E-03    -117.983E-03    -1.19151E-03    -88.4215E+06    -103.920E+06    -268.975E+06    -103.931E+06    -268.964E+06    -88.4215E+06     1.06888E+06         42.5610
            1263     3.55658E-03     75.7828E-03    -459.442E-03    -539.310E-03    -690.701E-03    -465.033E-03    -685.110E-03    -539.310E-03    -18.0014E-03     235.500E-03    -117.463E-03    -118.038E-03    -117.523E-03     235.499E-03    -117.977E-03     483.523E-06    -77.9997E+06    -99.3163E+06    -260.827E+06    -99.3223E+06    -260.821E+06    -77.9997E+06     136.103E+03         43.0004
            1264     4.44525E-03     75.7803E-03    -401.033E-03    -518.391E-03    -771.099E-03    -402.050E-03    -770.081E-03    -518.391E-03     7.79535E-03     235.483E-03    -117.496E-03    -117.987E-03    -117.485E-03     235.472E-03    -117.987E-03     3.44187E-03    -67.4075E+06    -94.3189E+06    -250.742E+06    -94.3278E+06    -250.733E+06    -67.4075E+06    -911.618E+03         43.5517
            1265     5.33475E-03     75.7839E-03    -327.273E-03    -492.993E-03    -872.792E-03    -328.061E-03    -872.004E-03    -492.993E-03     13.5704E-03     235.477E-03    -117.433E-03    -118.044E-03    -117.394E-03     235.438E-03    -118.044E-03     7.18157E-03    -51.3952E+06    -88.5331E+06    -239.307E+06    -88.5547E+06    -239.285E+06    -51.3952E+06    -1.57497E+06         44.2053
            1266     6.22431E-03     75.7901E-03    -241.273E-03    -463.381E-03    -991.138E-03    -241.871E-03    -990.539E-03    -463.381E-03     31.9552E-03     235.575E-03    -117.459E-03    -118.116E-03    -117.356E-03     235.471E-03    -118.116E-03     11.7748E-03    -34.4064E+06    -82.0941E+06    -223.987E+06    -82.1109E+06    -223.970E+06    -34.4064E+06    -1.10848E+06         44.9481
            1267     7.11233E-03     75.8029E-03    -144.891E-03    -429.683E-03        -1.12410    -144.934E-03        -1.12406    -429.683E-03     11.4020E-03     235.488E-03    -117.348E-03    -118.140E-03    -117.110E-03     235.250E-03    -118.140E-03     17.9620E-03    -23.6299E+06    -75.3305E+06    -193.817E+06    -75.3395E+06    -193.808E+06    -23.6299E+06    -28.4232E+03         45.7632
            1268     8.00152E-03     75.8239E-03    -37.9302E-03    -392.077E-03        -1.27199    -38.0150E-03        -1.27191    -392.077E-03     18.9590E-03     235.001E-03    -116.890E-03    -118.111E-03    -116.391E-03     234.502E-03    -118.111E-03     26.0499E-03    -14.5138E+06    -69.2054E+06    -149.805E+06    -69.2112E+06    -149.799E+06    -14.5138E+06     181.804E+03         46.6300
            1269     8.89168E-03     75.8554E-03     78.4028E-03    -350.732E-03        -1.43320     78.3228E-03        -1.43312    -350.732E-03     4.84089E-03     234.645E-03    -116.600E-03    -118.046E-03    -115.723E-03     233.768E-03    -118.046E-03     34.8137E-03    -2.82645E+06    -62.7136E+06    -94.1199E+06    -63.1279E+06    -93.7056E+06    -2.82645E+06    -457.805E+03         47.5244
            1270     9.78141E-03     75.8962E-03     202.681E-03    -305.839E-03        -1.60645     202.653E-03        -1.60642    -305.839E-03    -2.87213E-03     234.749E-03    -116.811E-03    -117.938E-03    -115.205E-03     233.143E-03    -117.938E-03     46.7516E-03     21.4343E+06    -21.4043E+06    -58.1123E+06    -57.4400E+06    -10.2727E+06     9.63041E+06    -1.31342E+06         48.4191
            1271     10.6710E-03     75.9562E-03     333.857E-03    -257.585E-03        -1.79052     333.840E-03        -1.79050    -257.585E-03    -1.35267E-03     235.577E-03    -117.462E-03    -118.115E-03    -114.605E-03     232.484E-03    -117.880E-03     64.9901E-03     63.4133E+06     28.2487E+06    -51.4208E+06    -51.3873E+06     63.3797E+06     28.2487E+06    -1.48870E+06         49.2854
            1272     11.5604E-03     76.0410E-03     471.238E-03    -206.112E-03        -1.98415     471.219E-03        -1.98413    -206.112E-03     219.033E-06     237.792E-03    -117.974E-03    -119.818E-03    -114.274E-03     232.248E-03    -117.974E-03     87.5697E-03     93.1702E+06     63.7256E+06    -42.7302E+06    -42.7079E+06     93.1480E+06     63.7256E+06    -1.14597E+06         50.0949
            1273     12.4501E-03     76.1573E-03     613.412E-03    -151.520E-03        -2.18578     613.392E-03        -2.18576    -151.520E-03     13.9800E-03     242.372E-03    -118.105E-03    -124.267E-03    -114.667E-03     232.772E-03    -118.105E-03     116.088E-03     105.462E+06     95.4994E+06    -32.5720E+06    -32.5632E+06     101.574E+06     99.3783E+06    -1.00560E+06         50.8207
            1274     13.3382E-03     76.3138E-03     759.166E-03    -94.1546E-03        -2.39408     759.144E-03        -2.39406    -94.1546E-03     16.2799E-03     242.216E-03    -118.115E-03    -124.101E-03    -114.438E-03     232.553E-03    -118.115E-03     116.473E-03     113.634E+06     107.570E+06    -22.6300E+06    -22.6230E+06     107.563E+06     113.634E+06    -358.697E+03         51.4392
            1275     14.2302E-03     76.4331E-03     907.223E-03    -34.1457E-03        -2.60740     907.201E-03        -2.60738    -34.1457E-03     17.4176E-03     249.065E-03    -118.031E-03    -131.035E-03    -115.744E-03     233.775E-03    -118.031E-03     144.194E-03     118.217E+06     113.475E+06    -13.3831E+06    -13.3419E+06     115.991E+06     115.660E+06     1.71940E+06         51.9320
            1276     15.1221E-03     76.6637E-03         1.05556     27.7595E-03        -2.82362         1.05554        -2.82361     27.7595E-03     5.71982E-03     246.590E-03    -117.080E-03    -129.510E-03    -116.711E-03     234.649E-03    -117.939E-03     106.576E-03     119.047E+06     113.830E+06    -6.29443E+06    -6.24571E+06     118.998E+06     113.830E+06     1.41165E+06         52.2861
            1277     888.518E-06     77.0542E-03    -338.055E-03    -559.370E-03    -769.213E-03    -353.678E-03    -581.528E-03    -731.433E-03    -39.0559E-03     236.796E-03    -117.731E-03    -119.065E-03    -118.852E-03     236.794E-03    -117.942E-03    -1.19908E-03    -110.142E+06    -113.008E+06    -281.299E+06    -112.883E+06    -281.270E+06    -110.296E+06     229.219E+03         41.9712
            1278     1.77710E-03     77.0529E-03    -503.227E-03    -538.405E-03    -627.246E-03    -520.709E-03    -609.764E-03    -538.405E-03    -14.5490E-03     236.043E-03    -117.732E-03    -118.311E-03    -117.731E-03     236.042E-03    -118.311E-03    -1.14279E-03    -103.609E+06    -109.886E+06    -277.963E+06    -109.892E+06    -277.957E+06    -103.609E+06     758.477E+03         42.1722
            1279     2.66623E-03     77.0495E-03    -478.108E-03    -527.054E-03    -664.423E-03    -484.821E-03    -657.711E-03    -527.054E-03    -15.2705E-03     235.457E-03    -117.329E-03    -118.128E-03    -117.328E-03     235.456E-03    -118.128E-03    -741.436E-06    -91.5409E+06    -105.433E+06    -269.395E+06    -105.443E+06    -269.386E+06    -91.5409E+06     840.642E+03         42.4950
            1280     3.55621E-03     77.0462E-03    -433.322E-03    -511.037E-03    -727.518E-03    -438.561E-03    -722.280E-03    -511.037E-03    -11.8198E-03     235.391E-03    -117.362E-03    -118.028E-03    -117.361E-03     235.389E-03    -118.028E-03     639.187E-06    -77.9579E+06    -99.1720E+06    -259.614E+06    -99.1793E+06    -259.606E+06    -77.9579E+06     463.550E+03         42.9372
            1281     4.44592E-03     77.0462E-03    -375.679E-03    -490.623E-03    -806.685E-03    -377.030E-03    -805.334E-03    -490.623E-03     18.4858E-03     235.587E-03    -117.565E-03    -118.022E-03    -117.555E-03     235.577E-03    -118.022E-03     3.24738E-03    -65.8733E+06    -93.4612E+06    -249.007E+06    -93.4713E+06    -248.997E+06    -65.8733E+06    -541.169E+03         43.4923
            1282     5.33448E-03     77.0481E-03    -303.718E-03    -465.729E-03    -905.951E-03    -304.679E-03    -904.989E-03    -465.729E-03     23.2182E-03     235.562E-03    -117.482E-03    -118.080E-03    -117.446E-03     235.526E-03    -118.080E-03     6.82091E-03    -50.9235E+06    -88.0316E+06    -238.431E+06    -88.0480E+06    -238.415E+06    -50.9235E+06    -1.43376E+06         44.1509
            1283     6.22345E-03     77.0556E-03    -219.370E-03    -436.578E-03        -1.02183    -220.259E-03        -1.02094    -436.578E-03     43.6715E-03     235.494E-03    -117.350E-03    -118.144E-03    -117.248E-03     235.392E-03    -118.144E-03     11.6709E-03    -34.5871E+06    -81.9914E+06    -225.395E+06    -82.0085E+06    -225.378E+06    -34.5871E+06    -604.946E+03         44.8999
            1284     7.11289E-03     77.0689E-03    -125.144E-03    -403.262E-03        -1.15211    -125.281E-03        -1.15197    -403.262E-03     23.1904E-03     235.331E-03    -117.182E-03    -118.149E-03    -116.945E-03     235.094E-03    -118.149E-03     17.9658E-03    -23.5076E+06    -75.8811E+06    -194.271E+06    -75.8984E+06    -194.253E+06    -23.5076E+06     162.633E+03         45.7228
            1285     8.00200E-03     77.0887E-03    -20.3393E-03    -365.933E-03        -1.29753    -20.5398E-03        -1.29733    -365.933E-03     31.5569E-03     235.074E-03    -116.961E-03    -118.113E-03    -116.462E-03     234.576E-03    -118.113E-03     26.0596E-03    -13.7100E+06    -68.5796E+06    -148.925E+06    -68.6056E+06    -148.899E+06    -13.7100E+06    -546.544E+03         46.5986
            1286     8.89120E-03     77.1202E-03     93.5777E-03    -324.732E-03        -1.45602     93.4585E-03        -1.45590    -324.732E-03     17.0896E-03     234.884E-03    -116.822E-03    -118.062E-03    -115.950E-03     234.012E-03    -118.062E-03     34.7446E-03    -1.96559E+06    -61.2717E+06    -93.4423E+06    -61.3836E+06    -93.3304E+06    -1.96559E+06    -766.944E+03         47.5028
            1287     9.78053E-03     77.1618E-03     215.354E-03    -279.802E-03        -1.62650     215.322E-03        -1.62647    -279.802E-03     9.53234E-03     234.697E-03    -116.736E-03    -117.961E-03    -115.157E-03     233.119E-03    -117.961E-03     46.3707E-03     22.6318E+06    -20.2600E+06    -56.6976E+06    -55.4349E+06    -9.58236E+06     10.6914E+06    -345.435E+03         48.4082
            1288     10.6703E-03     77.2212E-03     344.024E-03    -231.197E-03        -1.80799     343.993E-03        -1.80796    -231.197E-03     10.2092E-03     235.432E-03    -117.308E-03    -118.124E-03    -114.430E-03     232.328E-03    -117.898E-03     64.9903E-03     64.5173E+06     30.3789E+06    -49.9219E+06    -49.8984E+06     64.4937E+06     30.3789E+06    -1.12897E+06         49.2858
            1289     11.5603E-03     77.3070E-03     478.636E-03    -178.942E-03        -1.99914     478.610E-03        -1.99911    -178.942E-03     10.9441E-03     237.792E-03    -117.980E-03    -119.813E-03    -114.199E-03     232.179E-03    -117.980E-03     88.1226E-03     93.0712E+06     64.8554E+06    -42.7644E+06    -42.7304E+06     93.0371E+06     64.8554E+06    -1.99220E+06         50.1062
            1290     12.4500E-03     77.4226E-03     617.839E-03    -123.065E-03        -2.19840     617.790E-03        -2.19835    -123.065E-03     22.9937E-03     242.133E-03    -118.082E-03    -124.051E-03    -114.334E-03     232.416E-03    -118.082E-03     116.685E-03     103.458E+06     94.6854E+06    -34.0512E+06     -34.033E+06     100.685E+06     97.4400E+06    -1.41088E+06         50.8422
            1291     13.3414E-03     77.5807E-03     760.057E-03    -64.3281E-03        -2.40362     760.014E-03        -2.40358    -64.3281E-03     23.1704E-03     242.493E-03    -118.086E-03    -124.407E-03    -114.630E-03     232.715E-03    -118.086E-03     117.199E-03     111.470E+06     106.768E+06    -24.9058E+06    -24.9007E+06     106.763E+06     111.470E+06    -777.548E+03         51.4692
            1292     14.2303E-03     77.6960E-03     903.135E-03    -2.98462E-03        -2.61227     903.101E-03        -2.61224    -2.98462E-03     21.7450E-03     249.287E-03    -118.023E-03    -131.264E-03    -116.044E-03     234.067E-03    -118.023E-03     144.036E-03     116.708E+06     111.968E+06    -15.6971E+06    -15.6729E+06     114.737E+06     113.915E+06     284.166E+03         51.9684
            1293     15.1206E-03     77.9281E-03         1.04562     59.7433E-03        -2.82241         1.04560        -2.82240     59.7433E-03     7.76916E-03     246.021E-03    -116.805E-03    -129.215E-03    -116.243E-03     234.177E-03    -117.933E-03     106.232E-03     118.803E+06     113.044E+06    -6.96578E+06    -6.94054E+06     118.777E+06     113.044E+06     926.794E+03         52.3267
            1294     887.850E-06     78.3213E-03    -171.936E-03    -584.964E-03    -889.003E-03    -180.310E-03    -701.010E-03    -764.583E-03    -9.34724E-03     236.458E-03    -117.724E-03    -118.735E-03    -118.266E-03     236.456E-03    -118.190E-03    -1.17162E-03    -110.097E+06    -113.952E+06    -282.919E+06    -113.130E+06    -282.896E+06    -110.942E+06    -1.17148E+06         41.9017
            1295     1.77726E-03     78.3174E-03    -442.167E-03    -468.413E-03    -736.485E-03    -451.523E-03    -727.128E-03    -468.413E-03    -18.1588E-03     236.004E-03    -117.776E-03    -118.228E-03    -117.804E-03     236.003E-03    -118.199E-03    -759.850E-06    -101.596E+06    -108.910E+06    -277.363E+06    -108.925E+06    -277.348E+06    -101.596E+06    -621.217E+03         42.1038
            1296     2.66732E-03     78.3138E-03    -413.465E-03    -457.822E-03    -777.154E-03    -418.244E-03    -772.375E-03    -457.822E-03    -5.16799E-03     235.857E-03    -117.702E-03    -118.156E-03    -117.730E-03     235.856E-03    -118.127E-03    -760.290E-06    -90.4749E+06    -104.070E+06    -269.179E+06    -104.076E+06    -269.173E+06    -90.4749E+06     -367.89E+03         42.4283
            1297     3.55595E-03     78.3112E-03    -370.696E-03    -442.829E-03    -836.904E-03    -374.438E-03    -833.162E-03    -442.829E-03    -5.76564E-03     235.845E-03    -117.723E-03    -118.122E-03    -117.722E-03     235.844E-03    -118.122E-03     520.198E-06    -77.9913E+06    -98.7480E+06    -259.021E+06    -98.7607E+06    -259.008E+06    -77.9913E+06    -398.511E+03         42.8730
            1298     4.44459E-03     78.3110E-03    -315.047E-03    -423.571E-03    -912.858E-03    -316.409E-03    -911.496E-03    -423.571E-03     28.5917E-03     235.652E-03    -117.499E-03    -118.154E-03    -117.491E-03     235.645E-03    -118.154E-03     2.92178E-03    -61.1150E+06    -91.8350E+06    -247.740E+06    -91.8476E+06    -247.728E+06    -61.1150E+06    -536.816E+03         43.4318
            1299     5.33413E-03     78.3137E-03    -246.633E-03    -399.951E-03        -1.00714    -247.661E-03        -1.00611    -399.951E-03     32.4898E-03     235.521E-03    -117.334E-03    -118.186E-03    -117.297E-03     235.483E-03    -118.186E-03     6.84064E-03    -44.5839E+06    -85.9395E+06    -239.338E+06    -85.9670E+06    -239.310E+06    -44.5839E+06     239.125E+03         44.0954
            1300     6.22316E-03     78.3207E-03    -166.226E-03    -372.119E-03        -1.11773    -167.297E-03        -1.11665    -372.119E-03     54.9729E-03     235.341E-03    -117.156E-03    -118.185E-03    -117.051E-03     235.236E-03    -118.185E-03     11.8832E-03    -34.0140E+06    -80.8418E+06    -226.166E+06    -80.8882E+06    -226.120E+06    -34.0140E+06     168.050E+03         44.8509
            1301     7.11254E-03     78.3335E-03    -76.2921E-03    -340.125E-03        -1.24202    -76.5538E-03        -1.24176    -340.125E-03     34.6989E-03     235.086E-03    -116.936E-03    -118.150E-03    -116.696E-03     234.846E-03    -118.150E-03     18.0006E-03    -23.0238E+06    -73.2403E+06    -192.912E+06    -73.2821E+06    -192.870E+06    -23.0238E+06    -1.20792E+06         45.6817
            1302     8.00208E-03     78.3544E-03     23.8944E-03    -304.066E-03        -1.38121     23.5539E-03        -1.38087    -304.066E-03     43.5993E-03     235.089E-03    -116.987E-03    -118.101E-03    -116.481E-03     234.583E-03    -118.101E-03     26.2470E-03    -12.7461E+06    -65.5139E+06    -148.193E+06    -65.5538E+06    -148.153E+06    -12.7461E+06    -1.55249E+06         46.5665
            1303     8.89098E-03     78.3860E-03     132.753E-03    -264.073E-03        -1.53316     132.564E-03        -1.53297    -264.073E-03     28.9231E-03     234.989E-03    -116.938E-03    -118.051E-03    -116.031E-03     234.082E-03    -118.051E-03     35.4006E-03    -2.59369E+06    -59.8556E+06    -94.4382E+06    -59.9896E+06    -94.3042E+06    -2.59369E+06    -965.618E+03         47.4809
            1304     9.78035E-03     78.4271E-03     249.224E-03    -220.252E-03        -1.69691     249.151E-03        -1.69684    -220.252E-03     21.5691E-03     234.808E-03    -116.849E-03    -117.959E-03    -115.228E-03     233.186E-03    -117.959E-03     47.0813E-03     22.0192E+06    -19.3293E+06    -55.7401E+06    -53.5556E+06    -10.1489E+06     10.6544E+06    -462.072E+03         48.3971
            1305     10.6707E-03     78.4856E-03     372.258E-03    -172.527E-03        -1.87138     372.189E-03        -1.87131    -172.527E-03     21.4419E-03     235.418E-03    -117.400E-03    -118.018E-03    -114.391E-03     232.290E-03    -117.900E-03     65.2518E-03     66.0692E+06     32.3603E+06    -46.2479E+06    -46.2343E+06     66.0556E+06     32.3603E+06     241.894E+03         49.2859
            1306     11.5608E-03     78.5728E-03     500.891E-03    -120.795E-03        -2.05532     500.837E-03        -2.05526    -120.795E-03     21.1058E-03     237.527E-03    -117.971E-03    -119.556E-03    -113.913E-03     231.883E-03    -117.971E-03     88.2890E-03     93.9284E+06     66.9072E+06    -40.3698E+06    -40.3395E+06     93.8981E+06     66.9072E+06     248.624E+03         50.1176
            1307     12.4507E-03     78.6879E-03     633.562E-03    -65.0394E-03        -2.24710     633.476E-03        -2.24701    -65.0394E-03     31.2391E-03     241.840E-03    -118.058E-03    -123.782E-03    -114.168E-03     232.226E-03    -118.058E-03     116.084E-03     103.296E+06     95.3864E+06    -33.2911E+06    -33.2670E+06     100.039E+06     98.6186E+06    -527.889E+03         50.8639
            1308     13.3409E-03     78.8436E-03     768.302E-03    -6.41905E-03        -2.44379     768.232E-03        -2.44372    -6.41905E-03     29.4899E-03     242.537E-03    -118.056E-03    -124.481E-03    -114.787E-03     232.844E-03    -118.056E-03     116.830E-03     110.960E+06     106.040E+06     -24.293E+06    -24.2873E+06     106.034E+06     110.960E+06    -701.416E+03         51.4997
            1309     14.2303E-03     78.9660E-03     902.775E-03     54.6768E-03        -2.64243     902.727E-03        -2.64238     54.6768E-03     25.8740E-03     249.184E-03    -118.008E-03    -131.176E-03    -116.215E-03     234.223E-03    -118.008E-03     143.086E-03     115.874E+06     111.138E+06    -15.9578E+06    -15.9542E+06     114.182E+06     112.826E+06    -572.044E+03         52.0055
            1310     15.1206E-03     79.1879E-03         1.03564     116.563E-03        -2.84106         1.03562        -2.84104     116.563E-03     9.52506E-03     245.561E-03    -116.631E-03    -128.930E-03    -116.029E-03     233.959E-03    -117.930E-03     106.392E-03     118.800E+06     112.852E+06    -7.36142E+06    -7.35959E+06     118.798E+06     112.852E+06    -394.978E+03         52.3679
            1311     890.223E-06     79.5852E-03     22.1687E-03    -629.366E-03        -1.01453     14.6894E-03    -894.435E-03    -741.984E-03     19.4671E-03     235.710E-03    -117.605E-03    -118.105E-03    -117.739E-03     235.707E-03    -117.968E-03    -1.41721E-03    -107.000E+06    -111.707E+06    -280.510E+06    -110.747E+06    -280.487E+06    -107.983E+06    -1.83983E+06         41.8317
            1312     1.77869E-03     79.5832E-03    -338.258E-03    -359.994E-03    -923.841E-03    -344.615E-03    -917.485E-03    -359.994E-03    -21.3360E-03     236.235E-03    -117.992E-03    -118.243E-03    -118.236E-03     236.233E-03    -117.997E-03    -1.31369E-03    -97.5407E+06    -106.816E+06    -277.113E+06    -106.837E+06    -277.092E+06    -97.5407E+06    -1.78112E+06         42.0347
            1313     2.66614E-03     79.5789E-03    -311.269E-03    -350.492E-03    -961.658E-03    -314.603E-03    -958.324E-03    -350.492E-03     3.30782E-03     236.330E-03    -118.066E-03    -118.265E-03    -118.173E-03     236.329E-03    -118.156E-03    -905.433E-06    -86.5631E+06    -101.737E+06    -268.843E+06    -101.749E+06    -268.830E+06    -86.5631E+06    -1.04665E+06         42.3607
            1314     3.55502E-03     79.5771E-03    -271.772E-03    -336.923E-03        -1.01643    -274.411E-03        -1.01379    -336.923E-03    -533.350E-06     236.061E-03    -117.841E-03    -118.220E-03    -117.840E-03     236.060E-03    -118.220E-03     886.245E-06    -75.2424E+06    -97.2988E+06    -258.474E+06    -97.3160E+06    -258.456E+06    -75.2424E+06    -761.418E+03         42.8080
            1315     4.44427E-03     79.5758E-03    -220.531E-03    -319.376E-03        -1.08661    -221.729E-03        -1.08541    -319.376E-03     37.7332E-03     235.681E-03    -117.451E-03    -118.230E-03    -117.441E-03     235.671E-03    -118.230E-03     3.38242E-03    -62.0678E+06    -92.6665E+06    -248.662E+06    -92.6788E+06    -248.650E+06    -62.0678E+06    -251.859E+03         43.3705
            1316     5.33373E-03     79.5782E-03    -157.289E-03    -297.702E-03        -1.17328    -158.276E-03        -1.17229    -297.702E-03     40.7473E-03     235.391E-03    -117.166E-03    -118.225E-03    -117.126E-03     235.351E-03    -118.225E-03     7.20602E-03    -46.4928E+06    -85.9374E+06    -240.230E+06    -85.9662E+06    -240.202E+06    -46.4928E+06     497.824E+03         44.0392
            1317     6.22336E-03     79.5859E-03    -82.9024E-03    -271.934E-03        -1.27563    -84.0137E-03        -1.27452    -271.934E-03     65.0859E-03     235.257E-03    -117.055E-03    -118.202E-03    -116.950E-03     235.152E-03    -118.202E-03     11.8926E-03    -32.8434E+06    -77.1836E+06    -224.363E+06    -77.2266E+06    -224.320E+06    -32.8434E+06    -563.789E+03         44.8012
            1318     7.11275E-03     79.5981E-03     503.031E-06    -242.108E-03        -1.39104     124.941E-06        -1.39066    -242.108E-03     45.6834E-03     235.094E-03    -116.942E-03    -118.152E-03    -116.701E-03     234.854E-03    -118.152E-03     18.0222E-03    -22.9243E+06    -70.2991E+06    -191.588E+06    -70.3333E+06    -191.554E+06    -22.9243E+06    -1.71241E+06         45.6397
            1319     8.00207E-03     79.6198E-03     93.6333E-03    -208.257E-03        -1.52058     93.1606E-03        -1.52011    -208.257E-03     55.1891E-03     234.816E-03    -116.727E-03    -118.089E-03    -116.221E-03     234.310E-03    -118.089E-03     26.2562E-03    -14.2823E+06    -66.0770E+06    -149.408E+06    -66.1074E+06    -149.378E+06    -14.2823E+06    -1.26495E+06         46.5338
            1320     8.89194E-03     79.6510E-03     194.872E-03    -170.476E-03        -1.66219     194.598E-03        -1.66191    -170.476E-03     40.4934E-03     234.665E-03    -116.649E-03    -118.016E-03    -115.742E-03     233.758E-03    -118.016E-03     35.3637E-03    -2.84262E+06    -60.1561E+06    -94.1082E+06    -60.3503E+06    -93.9140E+06    -2.84262E+06    -1.01609E+06         47.4586
            1321     9.78176E-03     79.6925E-03     303.179E-03    -128.852E-03        -1.81503     303.041E-03        -1.81490    -128.852E-03     33.1373E-03     234.800E-03    -116.887E-03    -117.913E-03    -115.253E-03     233.166E-03    -117.913E-03     47.2673E-03     21.1166E+06    -19.9318E+06    -56.3070E+06    -54.5457E+06    -10.4785E+06     9.90185E+06    -1.04679E+06         48.3860
            1322     10.6702E-03     79.7518E-03     417.429E-03    -83.2262E-03        -1.97807     417.302E-03        -1.97795    -83.2262E-03     32.4439E-03     235.480E-03    -117.467E-03    -118.013E-03    -114.479E-03     232.335E-03    -117.856E-03     65.4542E-03     63.9735E+06     29.4783E+06    -48.4067E+06    -48.3919E+06     63.9587E+06     29.4783E+06    -131.314E+03         49.2862
            1323     11.5605E-03     79.8363E-03     536.696E-03    -33.3618E-03        -2.15001     536.600E-03        -2.14991    -33.3618E-03     30.9629E-03     237.517E-03    -117.934E-03    -119.584E-03    -113.895E-03     231.829E-03    -117.934E-03     88.6167E-03     93.7606E+06     65.6957E+06    -39.9486E+06    -39.9276E+06     93.7395E+06     65.6957E+06     1.18061E+06         50.1291
            1324     12.4514E-03     79.9536E-03     659.348E-03     20.8384E-03        -2.32924     659.219E-03        -2.32911     20.8384E-03     39.0589E-03     242.084E-03    -118.042E-03    -124.041E-03    -114.387E-03     232.430E-03    -118.042E-03     116.448E-03     105.898E+06     96.5861E+06    -30.6940E+06    -30.6665E+06     101.343E+06     101.114E+06     1.12983E+06         50.8859
            1325     13.3403E-03     80.1098E-03     782.958E-03     77.8255E-03        -2.51217     782.861E-03        -2.51207     77.8255E-03     35.2885E-03     242.568E-03    -118.045E-03    -124.523E-03    -114.731E-03     232.776E-03    -118.045E-03     117.526E-03     113.093E+06     106.773E+06    -22.3057E+06    -22.2895E+06     106.757E+06     113.093E+06     370.909E+03         51.5305
            1326     14.2309E-03     80.2303E-03     905.652E-03     137.100E-03        -2.69610     905.590E-03        -2.69604     137.100E-03     29.6149E-03     248.935E-03    -117.982E-03    -130.953E-03    -115.979E-03     233.961E-03    -117.982E-03     143.348E-03     117.353E+06     112.590E+06    -13.5911E+06    -13.5793E+06     115.550E+06     114.381E+06    -696.615E+03         52.0432
            1327     15.1216E-03     80.4533E-03         1.02571     196.529E-03        -2.87814         1.02568        -2.87812     196.529E-03     11.4513E-03     245.660E-03    -116.755E-03    -128.905E-03    -116.246E-03     234.152E-03    -117.906E-03     105.759E-03     118.561E+06     113.687E+06    -6.58154E+06    -6.56745E+06     118.547E+06     113.687E+06    -505.329E+03         52.4099
            1328     888.578E-06     80.8506E-03     235.189E-03    -634.843E-03        -1.19245     227.594E-03        -1.15360    -666.098E-03     45.3703E-03     236.178E-03    -117.633E-03    -118.545E-03    -118.382E-03     236.175E-03    -117.793E-03    -1.68064E-03    -104.260E+06    -107.860E+06    -277.067E+06    -107.597E+06    -277.039E+06    -104.552E+06    -1.81240E+06         41.7609
            1329     1.77729E-03     80.8485E-03    -198.600E-03    -216.652E-03        -1.17943    -203.508E-03        -1.17452    -216.652E-03    -23.9575E-03     236.277E-03    -117.908E-03    -118.370E-03    -118.122E-03     236.275E-03    -118.153E-03    -1.76163E-03    -97.0160E+06    -104.993E+06    -276.863E+06    -105.005E+06    -276.851E+06    -97.0160E+06    -1.11339E+06         41.9648
            1330     2.66681E-03     80.8452E-03    -174.671E-03    -208.540E-03        -1.21234    -177.146E-03        -1.20986    -208.540E-03     11.1143E-03     236.093E-03    -117.820E-03    -118.273E-03    -117.900E-03     236.092E-03    -118.192E-03    -798.529E-06    -85.8150E+06    -100.447E+06    -269.381E+06    -100.458E+06    -269.370E+06    -85.8150E+06    -1.20359E+06         42.2926
            1331     3.55564E-03     80.8420E-03    -139.421E-03    -196.702E-03        -1.26014    -141.349E-03        -1.25822    -196.702E-03     3.96165E-03     235.811E-03    -117.621E-03    -118.191E-03    -117.618E-03     235.809E-03    -118.191E-03     1.23548E-03    -72.6404E+06    -95.1633E+06    -259.858E+06    -95.1828E+06    -259.839E+06    -72.6404E+06     376.017E+03         42.7427
            1332     4.44481E-03     80.8411E-03    -94.0796E-03    -181.223E-03        -1.32264    -95.0766E-03        -1.32164    -181.223E-03     45.3194E-03     235.737E-03    -117.558E-03    -118.179E-03    -117.545E-03     235.724E-03    -118.179E-03     3.92581E-03    -61.5455E+06    -90.4130E+06    -249.170E+06    -90.4278E+06    -249.155E+06    -61.5455E+06     1.01130E+06         43.3090
            1333     5.33371E-03     80.8431E-03    -37.5579E-03    -161.967E-03        -1.39993    -38.4585E-03        -1.39903    -161.967E-03     48.1537E-03     235.595E-03    -117.395E-03    -118.199E-03    -117.353E-03     235.553E-03    -118.199E-03     7.42183E-03    -47.1018E+06    -84.0316E+06    -238.476E+06    -84.0455E+06    -238.462E+06    -47.1018E+06    -920.387E+03         43.9826
            1334     6.22305E-03     80.8504E-03     28.8688E-03    -138.868E-03        -1.49137     27.7984E-03        -1.49030    -138.868E-03     74.0969E-03     235.274E-03    -117.066E-03    -118.208E-03    -116.956E-03     235.164E-03    -118.208E-03     12.1162E-03    -32.2088E+06    -77.8745E+06    -223.113E+06    -77.8889E+06    -223.099E+06    -32.2088E+06    -1.28213E+06         44.7509
            1335     7.11234E-03     80.8637E-03     103.687E-03    -111.916E-03        -1.59491     103.226E-03        -1.59445    -111.916E-03     55.6485E-03     235.030E-03    -116.873E-03    -118.157E-03    -116.628E-03     234.785E-03    -118.157E-03     18.2169E-03    -22.9888E+06    -72.6557E+06    -192.097E+06     -72.658E+06    -192.095E+06    -22.9888E+06    -485.197E+03         45.5971
            1336     8.00187E-03     80.8842E-03     187.376E-03    -81.1051E-03        -1.71156     186.805E-03        -1.71099    -81.1051E-03     65.7906E-03     234.756E-03    -116.668E-03    -118.088E-03    -116.165E-03     234.253E-03    -118.088E-03     26.1804E-03    -13.6153E+06    -66.7745E+06    -149.466E+06    -66.7864E+06    -149.455E+06    -13.6153E+06    -607.080E+03         46.5004
            1337     8.89178E-03     80.9156E-03     278.238E-03    -46.4830E-03        -1.83927     277.883E-03        -1.83892    -46.4830E-03     51.5166E-03     234.566E-03    -116.558E-03    -118.008E-03    -115.660E-03     233.668E-03    -118.008E-03     35.1789E-03    -2.28497E+06    -61.3680E+06    -93.5922E+06    -61.4459E+06    -93.5143E+06    -2.28497E+06    -580.444E+03         47.4356
            1338     9.78108E-03     80.9581E-03     375.429E-03    -8.10567E-03        -1.97711     375.216E-03        -1.97690    -8.10567E-03     44.1982E-03     234.437E-03    -116.548E-03    -117.889E-03    -114.939E-03     232.828E-03    -117.889E-03     46.8594E-03     21.1562E+06    -20.9326E+06    -56.8860E+06    -56.2435E+06    -10.5484E+06     10.1295E+06    -549.191E+03         48.3744
            1339     10.6722E-03     81.0165E-03     477.949E-03     34.2636E-03        -2.12432     477.758E-03        -2.12413     34.2636E-03     42.8319E-03     235.230E-03    -117.171E-03    -118.059E-03    -114.291E-03     232.105E-03    -117.814E-03     65.1698E-03     62.7886E+06     29.3438E+06    -50.0544E+06    -50.0481E+06     62.7822E+06     29.3438E+06    -807.975E+03         49.2865
            1340     11.5619E-03     81.1020E-03     584.618E-03     80.9751E-03        -2.27968     584.473E-03        -2.27953     80.9751E-03     40.3536E-03     237.631E-03    -117.888E-03    -119.743E-03    -114.054E-03     231.942E-03    -117.888E-03     88.6507E-03     92.4958E+06     64.1610E+06    -42.0302E+06    -42.0200E+06     92.4856E+06     64.1610E+06    -573.480E+03         50.1408
            1341     12.4510E-03     81.2185E-03     693.865E-03     132.197E-03        -2.44157     693.690E-03        -2.44139     132.197E-03     46.6632E-03     241.969E-03    -117.995E-03    -123.974E-03    -114.213E-03     232.208E-03    -117.995E-03     116.970E-03     105.157E+06     95.0345E+06    -32.2744E+06    -32.2544E+06     100.931E+06     99.2400E+06     538.922E+03         50.9082
            1342     13.3420E-03     81.3757E-03     803.293E-03     186.051E-03        -2.60602     803.166E-03        -2.60590     186.051E-03     41.0764E-03     242.325E-03    -117.994E-03    -124.331E-03    -114.462E-03     232.455E-03    -117.994E-03     117.810E-03     114.162E+06     107.678E+06    -21.9191E+06    -21.9040E+06     107.663E+06     114.162E+06     1.00870E+06         51.5622
            1343     14.2322E-03     81.4942E-03     910.892E-03     241.946E-03        -2.77033     910.817E-03        -2.77026     241.946E-03     32.7694E-03     249.159E-03    -117.931E-03    -131.229E-03    -116.191E-03     234.121E-03    -117.931E-03     143.640E-03     117.403E+06     112.688E+06    -13.9353E+06    -13.9199E+06     115.110E+06     114.966E+06     10.3695E+03         52.0818
            1344     15.1215E-03     81.7202E-03         1.01551     297.369E-03        -2.93194         1.01549        -2.93191     297.369E-03     12.8505E-03     246.248E-03    -117.042E-03    -129.206E-03    -116.823E-03     234.699E-03    -117.876E-03     104.961E-03     118.229E+06     113.810E+06    -6.75449E+06    -6.73804E+06     118.212E+06     113.810E+06    -215.131E+03         52.4527
            1345     888.321E-06     82.1173E-03     458.922E-03    -539.743E-03        -1.47931     451.287E-03        -1.47167    -539.743E-03     66.4933E-03     236.217E-03    -117.203E-03    -119.014E-03    -118.914E-03     236.217E-03    -117.303E-03    -254.993E-06    -104.307E+06    -107.772E+06    -277.880E+06    -107.791E+06    -277.861E+06    -104.307E+06    -350.564E+03         41.6896
            1346     1.77741E-03     82.1132E-03    -27.7264E-03    -42.7505E-03        -1.49279    -31.7372E-03        -1.48878    -42.7505E-03    -26.3851E-03     236.029E-03    -117.875E-03    -118.154E-03    -117.908E-03     236.029E-03    -118.120E-03    -612.013E-06    -97.3962E+06    -104.155E+06    -275.004E+06    -104.160E+06    -274.999E+06    -97.3962E+06    -412.849E+03         41.8946
            1347     2.66635E-03     82.1104E-03    -7.76747E-03    -36.0940E-03        -1.52071    -9.68216E-03        -1.51880    -36.0940E-03     18.0570E-03     235.860E-03    -117.748E-03    -118.111E-03    -117.763E-03     235.859E-03    -118.097E-03    -546.660E-06    -88.7096E+06    -101.329E+06    -269.503E+06    -101.335E+06    -269.497E+06    -88.7096E+06    -228.451E+03         42.2243
            1348     3.55607E-03     82.1063E-03     22.3182E-03    -26.2043E-03        -1.56115     20.8638E-03        -1.55970    -26.2043E-03     8.33986E-03     235.684E-03    -117.585E-03    -118.099E-03    -117.583E-03     235.682E-03    -118.099E-03     790.236E-06    -75.0539E+06    -96.5664E+06    -262.074E+06    -96.5900E+06    -262.050E+06    -75.0539E+06     180.764E+03         42.6771
            1349     4.44539E-03     82.1063E-03     61.0468E-03    -13.0449E-03        -1.61436     60.2164E-03        -1.61353    -13.0449E-03     51.7907E-03     235.629E-03    -117.516E-03    -118.113E-03    -117.503E-03     235.617E-03    -118.113E-03     3.89183E-03    -58.9628E+06    -89.1059E+06    -248.313E+06    -89.1291E+06    -248.289E+06    -58.9628E+06     126.586E+03         43.2472
            1350     5.33421E-03     82.1088E-03     109.607E-03     3.47980E-03        -1.68041     108.808E-03        -1.67961     3.47980E-03     54.3595E-03     235.639E-03    -117.491E-03    -118.149E-03    -117.449E-03     235.597E-03    -118.149E-03     7.46657E-03    -44.6574E+06    -82.7696E+06    -237.074E+06    -82.7759E+06    -237.068E+06    -44.6574E+06    -276.061E+03         43.9258
            1351     6.22324E-03     82.1150E-03     166.536E-03     23.4416E-03        -1.75894     165.548E-03        -1.75795     23.4416E-03     81.6721E-03     235.337E-03    -117.162E-03    -118.174E-03    -117.049E-03     235.223E-03    -118.174E-03     12.2903E-03    -31.9589E+06    -77.7732E+06    -224.667E+06    -77.7818E+06    -224.658E+06    -31.9589E+06    -70.3949E+03         44.7003
            1352     7.11293E-03     82.1285E-03     230.725E-03     46.9282E-03        -1.84813     230.220E-03        -1.84763     46.9282E-03     64.3834E-03     234.996E-03    -116.857E-03    -118.138E-03    -116.605E-03     234.744E-03    -118.138E-03     18.5236E-03    -21.4281E+06    -72.5636E+06    -192.609E+06    -72.5769E+06    -192.596E+06    -21.4281E+06     705.444E+03         45.5543
            1353     8.00248E-03     82.1490E-03     302.716E-03     73.9957E-03        -1.94875     302.091E-03        -1.94812     73.9957E-03     74.9314E-03     234.922E-03    -116.844E-03    -118.078E-03    -116.336E-03     234.414E-03    -118.078E-03     26.3433E-03    -11.9262E+06    -66.5540E+06    -148.189E+06    -66.5657E+06    -148.177E+06    -11.9262E+06     329.247E+03         46.4666
            1354     8.89148E-03     82.1809E-03     380.675E-03     104.595E-03        -2.05900     380.260E-03        -2.05859     104.595E-03     61.1789E-03     234.573E-03    -116.568E-03    -118.005E-03    -115.666E-03     233.671E-03    -118.005E-03     35.2667E-03    -1.84181E+06    -60.8431E+06    -94.0987E+06    -60.8445E+06    -94.0973E+06    -1.84181E+06    -113.384E+03         47.4121
            1355     9.78178E-03     82.2225E-03     464.001E-03     138.720E-03        -2.17820     463.721E-03        -2.17792     138.720E-03     54.0270E-03     234.247E-03    -116.369E-03    -117.879E-03    -114.757E-03     232.635E-03    -117.879E-03     46.8819E-03     22.1080E+06    -19.6227E+06    -56.4955E+06    -54.8035E+06    -10.2526E+06     11.0460E+06    -20.8386E+03         48.3623
            1356     10.6713E-03     82.2808E-03     551.871E-03     176.749E-03        -2.30561     551.620E-03        -2.30536     176.749E-03     52.2488E-03     235.232E-03    -117.134E-03    -118.098E-03    -114.315E-03     232.116E-03    -117.801E-03     65.1053E-03     64.1186E+06     31.4050E+06    -48.3974E+06    -48.3944E+06     64.1156E+06     31.4050E+06    -356.326E+03         49.2863
            1357     11.5614E-03     82.3677E-03     643.087E-03     219.099E-03        -2.44008     642.891E-03        -2.43989     219.099E-03     48.8953E-03     237.515E-03    -117.877E-03    -119.638E-03    -114.038E-03     231.915E-03    -117.877E-03     87.9820E-03     91.7480E+06     64.9504E+06    -41.8935E+06    -41.8860E+06     91.7406E+06     64.9504E+06    -636.587E+03         50.1524
            1358     12.4523E-03     82.4830E-03     736.107E-03     265.954E-03        -2.58021     735.889E-03        -2.57999     265.954E-03     53.6055E-03     241.528E-03    -117.969E-03    -123.560E-03    -113.975E-03     231.943E-03    -117.969E-03     115.772E-03     102.672E+06     94.5058E+06    -33.5937E+06    -33.5870E+06     99.6452E+06     97.5261E+06    -463.298E+03         50.9307
            1359     13.3427E-03     82.6399E-03     828.576E-03     315.251E-03        -2.72212     828.420E-03        -2.72196     315.251E-03     46.5664E-03     242.034E-03    -117.960E-03    -124.074E-03    -114.320E-03     232.280E-03    -117.960E-03     117.076E-03     112.524E+06     107.292E+06    -23.6224E+06    -23.6121E+06     107.282E+06     112.524E+06    -357.008E+03         51.5941
            1360     14.2325E-03     82.7606E-03     918.279E-03     366.339E-03        -2.86243     918.188E-03        -2.86234     366.339E-03     36.5307E-03     248.886E-03    -117.902E-03    -130.984E-03    -116.096E-03     233.998E-03    -117.902E-03     142.885E-03     117.407E+06     112.798E+06    -14.7518E+06    -14.7359E+06     115.180E+06     115.009E+06     455.839E+03         52.1210
            1361     15.1230E-03     82.9849E-03         1.00487     416.361E-03        -2.99958         1.00483        -2.99955     416.361E-03     13.7616E-03     246.380E-03    -117.431E-03    -128.949E-03    -117.087E-03     234.942E-03    -117.855E-03     104.921E-03     118.674E+06     113.822E+06    -6.83308E+06    -6.82516E+06     118.666E+06     113.822E+06     511.004E+03         52.4963
            1362     889.991E-06     83.3813E-03     686.057E-03    -366.705E-03        -1.84653     678.451E-03        -1.83892    -366.705E-03     86.3431E-03     234.912E-03    -116.797E-03    -118.115E-03    -118.114E-03     234.912E-03    -116.797E-03    -255.588E-06    -105.922E+06    -109.840E+06    -278.665E+06    -109.745E+06    -278.641E+06    -106.041E+06     511.369E+03         41.6184
            1363     1.77883E-03     83.3788E-03     169.337E-03     157.071E-03        -1.85581     165.998E-03        -1.85247     157.071E-03    -27.8103E-03     235.703E-03    -117.644E-03    -118.059E-03    -118.059E-03     235.703E-03    -117.644E-03    -78.9572E-06    -95.8956E+06    -104.920E+06    -275.011E+06    -104.928E+06    -275.004E+06    -95.8956E+06    -561.114E+03         41.8245
            1364     2.66761E-03     83.3751E-03     185.155E-03     162.315E-03        -1.87787     183.617E-03        -1.87633     162.315E-03     23.8009E-03     236.051E-03    -117.843E-03    -118.208E-03    -118.165E-03     236.051E-03    -117.886E-03    -208.042E-06    -86.2585E+06    -99.1268E+06    -270.068E+06    -99.1350E+06    -270.059E+06    -86.2585E+06    -264.659E+03         42.1560
            1365     3.55582E-03     83.3717E-03     209.414E-03     170.170E-03        -1.91041     208.267E-03        -1.90926     170.170E-03     12.0799E-03     235.984E-03    -117.825E-03    -118.159E-03    -117.950E-03     235.983E-03    -118.033E-03     796.819E-06    -74.3459E+06    -94.1630E+06    -261.957E+06    -94.1852E+06    -261.935E+06    -74.3459E+06    -567.060E+03         42.6112
            1366     4.44497E-03     83.3706E-03     240.476E-03     180.749E-03        -1.95352     239.771E-03        -1.95281     180.749E-03     57.7638E-03     235.533E-03    -117.437E-03    -118.097E-03    -117.426E-03     235.522E-03    -118.097E-03     3.52215E-03    -59.0033E+06    -90.0554E+06    -248.575E+06    -90.0748E+06    -248.556E+06    -59.0033E+06     345.756E+03         43.1850
            1367     5.33477E-03     83.3741E-03     279.872E-03     194.216E-03        -2.00697     279.172E-03        -2.00627     194.216E-03     59.9938E-03     235.305E-03    -117.200E-03    -118.105E-03    -117.159E-03     235.264E-03    -118.105E-03     7.32205E-03    -45.3225E+06    -84.8558E+06    -237.048E+06    -84.8627E+06    -237.041E+06    -45.3225E+06     910.648E+03         43.8685
            1368     6.22376E-03     83.3803E-03     326.257E-03     210.659E-03        -2.07060     325.364E-03        -2.06971     210.659E-03     87.8126E-03     235.343E-03    -117.228E-03    -118.115E-03    -117.120E-03     235.235E-03    -118.115E-03     12.0190E-03    -33.2112E+06    -78.0868E+06    -225.507E+06    -78.0916E+06    -225.502E+06    -33.2112E+06     601.819E+03         44.6494
            1369     7.11304E-03     83.3928E-03     378.033E-03     230.167E-03        -2.14308     377.519E-03        -2.14257     230.167E-03     71.4727E-03     235.111E-03    -117.012E-03    -118.098E-03    -116.762E-03     234.860E-03    -118.098E-03     18.4012E-03    -22.3182E+06    -71.3361E+06    -193.220E+06    -71.3493E+06    -193.207E+06    -22.3182E+06     748.352E+03         45.5110
            1370     8.00220E-03     83.4148E-03     436.322E-03     252.858E-03        -2.22519     435.687E-03        -2.22456     252.858E-03     82.1532E-03     234.831E-03    -116.782E-03    -118.049E-03    -116.269E-03     234.318E-03    -118.049E-03     26.4919E-03    -12.2377E+06    -65.5171E+06    -147.808E+06    -65.5380E+06    -147.787E+06    -12.2377E+06     743.800E+03         46.4324
            1371     8.89187E-03     83.4457E-03     499.244E-03     278.665E-03        -2.31506     498.797E-03        -2.31461     278.665E-03     69.0193E-03     234.482E-03    -116.506E-03    -117.977E-03    -115.610E-03     233.586E-03    -117.977E-03     35.1480E-03    -1.24487E+06    -59.4943E+06    -93.7366E+06    -59.5123E+06    -93.7186E+06    -1.24487E+06     168.229E+03         47.3885
            1372     9.78178E-03     83.4864E-03     566.416E-03     307.658E-03        -2.41215     566.092E-03        -2.41182     307.658E-03     61.9016E-03     234.370E-03    -116.517E-03    -117.854E-03    -114.886E-03     232.739E-03    -117.854E-03     47.1098E-03     22.0816E+06    -18.8577E+06     -55.812E+06    -53.2836E+06    -10.5172E+06     11.2128E+06    -21.9480E+03         48.3502
            1373     10.6721E-03     83.5467E-03     637.305E-03     340.380E-03        -2.51634     637.013E-03        -2.51604     340.380E-03     59.7932E-03     235.409E-03    -117.261E-03    -118.148E-03    -114.459E-03     232.244E-03    -117.785E-03     65.6775E-03     63.9474E+06     30.8243E+06    -47.4438E+06    -47.4378E+06     63.9413E+06     30.8243E+06     396.697E+03         49.2861
            1374     11.5616E-03     83.6324E-03     710.602E-03     377.263E-03        -2.62658     710.367E-03        -2.62634     377.263E-03     55.9313E-03     237.652E-03    -117.874E-03    -119.778E-03    -114.176E-03     232.050E-03    -117.874E-03     88.0812E-03     92.3098E+06     65.0426E+06    -40.6555E+06    -40.6495E+06     92.3038E+06     65.0426E+06     472.042E+03         50.1640
            1375     12.4510E-03     83.7479E-03     785.106E-03     418.504E-03        -2.74148     784.856E-03        -2.74123     418.504E-03     59.2498E-03     241.732E-03    -117.990E-03    -123.742E-03    -114.279E-03     232.269E-03    -117.990E-03     115.162E-03     103.936E+06     95.2361E+06    -31.9737E+06    -31.9717E+06     100.247E+06     98.9230E+06    -197.489E+03         50.9532
            1376     13.3415E-03     83.9036E-03     858.344E-03     461.928E-03        -2.85686     858.164E-03        -2.85668     461.928E-03     51.1054E-03     241.921E-03    -117.988E-03    -123.933E-03    -114.265E-03     232.253E-03    -117.988E-03     116.622E-03     112.716E+06     107.242E+06    -23.2672E+06    -23.2526E+06     107.227E+06     112.716E+06    -348.802E+03         51.6261
            1377     14.2321E-03     84.0266E-03     928.352E-03     506.890E-03        -2.96984     928.248E-03        -2.96973     506.890E-03     39.8920E-03     248.475E-03    -117.913E-03    -130.562E-03    -115.710E-03     233.623E-03    -117.913E-03     142.638E-03     116.980E+06     112.662E+06    -15.2292E+06    -15.2115E+06     115.174E+06     114.450E+06     404.440E+03         52.1605
            1378     15.1222E-03     84.2482E-03     994.275E-03     550.285E-03        -3.07756     994.237E-03        -3.07752     550.285E-03     14.7265E-03     245.966E-03    -117.209E-03    -128.757E-03    -116.710E-03     234.552E-03    -117.842E-03     105.358E-03     118.526E+06     112.967E+06    -7.52728E+06    -7.52072E+06     118.519E+06     112.967E+06     207.843E+03         52.5407
            1379     890.294E-06     84.6441E-03     915.672E-03    -154.939E-03        -2.25336     908.249E-03        -2.24593    -154.939E-03     102.104E-03     234.843E-03    -117.232E-03    -117.610E-03    -117.452E-03     234.841E-03    -117.389E-03    -814.087E-06    -105.480E+06    -109.477E+06    -276.428E+06    -109.394E+06    -276.392E+06    -105.599E+06     169.123E+03         41.5474
            1380     1.77938E-03     84.6435E-03     387.816E-03     378.081E-03        -2.25931     384.956E-03        -2.25645     378.081E-03    -28.5450E-03     235.469E-03    -117.498E-03    -117.971E-03    -117.877E-03     235.467E-03    -117.590E-03    -1.26196E-03    -94.4803E+06    -105.487E+06    -274.894E+06    -105.506E+06    -274.876E+06    -94.4803E+06    -284.636E+03         41.7544
            1381     2.66780E-03     84.6405E-03     398.767E-03     381.893E-03        -2.27528     397.482E-03        -2.27400     381.893E-03     29.4436E-03     235.776E-03    -117.675E-03    -118.101E-03    -117.982E-03     235.775E-03    -117.793E-03    -826.506E-06    -84.8151E+06    -100.457E+06    -271.259E+06    -100.470E+06    -271.246E+06    -84.8151E+06    -616.936E+03         42.0875
            1382     3.55658E-03     84.6376E-03     416.784E-03     387.554E-03        -2.29874     415.857E-03        -2.29781     387.554E-03     15.4768E-03     235.882E-03    -117.833E-03    -118.049E-03    -117.957E-03     235.880E-03    -117.923E-03     1.07084E-03    -76.1701E+06    -95.5510E+06    -261.382E+06    -95.5801E+06    -261.353E+06    -76.1701E+06    -597.627E+03         42.5453
            1383     4.44494E-03     84.6357E-03     439.485E-03     395.307E-03        -2.33019     438.880E-03        -2.32958     395.307E-03     62.5202E-03     235.685E-03    -117.659E-03    -118.026E-03    -117.647E-03     235.673E-03    -118.026E-03     3.75235E-03    -61.7537E+06    -89.6414E+06    -251.279E+06    -89.6704E+06    -251.251E+06    -61.7537E+06     506.250E+03         43.1226
            1384     5.33436E-03     84.6377E-03     468.341E-03     405.352E-03        -2.36980     467.725E-03        -2.36919     405.352E-03     64.4923E-03     235.285E-03    -117.213E-03    -118.073E-03    -117.170E-03     235.243E-03    -118.073E-03     7.44660E-03    -45.6280E+06    -83.6090E+06    -238.035E+06    -83.6516E+06    -237.993E+06    -45.6280E+06     2.18195E+06         43.8109
            1385     6.22424E-03     84.6459E-03     502.992E-03     417.879E-03        -2.41736     502.190E-03        -2.41656     417.879E-03     92.6831E-03     235.237E-03    -117.156E-03    -118.081E-03    -117.049E-03     235.130E-03    -118.081E-03     12.0625E-03    -33.4667E+06    -78.1508E+06    -223.601E+06    -78.1842E+06    -223.568E+06    -33.4667E+06     1.19929E+06         44.5979
            1386     7.11293E-03     84.6579E-03     541.029E-03     432.921E-03        -2.47118     540.529E-03        -2.47068     432.921E-03     76.9932E-03     235.082E-03    -117.024E-03    -118.059E-03    -116.774E-03     234.832E-03    -118.059E-03     18.3465E-03    -24.5034E+06    -72.0374E+06    -193.415E+06    -72.0415E+06    -193.411E+06    -24.5034E+06    -446.991E+03         45.4673
            1387     8.00279E-03     84.6794E-03     584.082E-03     450.609E-03        -2.53223     583.468E-03        -2.53162     450.609E-03     87.3015E-03     234.621E-03    -116.613E-03    -118.009E-03    -116.097E-03     234.106E-03    -118.009E-03     26.5365E-03    -13.4349E+06    -65.1797E+06    -148.732E+06    -65.1930E+06    -148.719E+06    -13.4349E+06     11.3656E+03         46.3980
            1388     8.89261E-03     84.7104E-03     630.423E-03     470.981E-03        -2.59942     629.975E-03        -2.59897     470.981E-03     74.5337E-03     234.529E-03    -116.589E-03    -117.940E-03    -115.693E-03     233.633E-03    -117.940E-03     35.1631E-03    -809.262E+03    -58.5749E+06    -93.4097E+06    -58.9286E+06    -93.0559E+06    -809.262E+03     621.241E+03         47.3647
            1389     9.78213E-03     84.7515E-03     679.700E-03     494.135E-03        -2.67216     679.358E-03        -2.67182     494.135E-03     67.5645E-03     234.732E-03    -116.890E-03    -117.843E-03    -115.281E-03     233.124E-03    -117.843E-03     46.8691E-03     21.0800E+06    -18.6381E+06    -55.2234E+06    -53.7496E+06    -10.2862E+06     11.2542E+06     388.410E+03         48.3378
            1390     10.6717E-03     84.8112E-03     731.826E-03     520.675E-03        -2.75043     731.515E-03        -2.75012     520.675E-03     65.0086E-03     235.401E-03    -117.418E-03    -117.984E-03    -114.508E-03     232.301E-03    -117.793E-03     64.9957E-03     62.5386E+06     29.8699E+06    -47.6771E+06    -47.6696E+06     62.5311E+06     29.8699E+06     333.893E+03         49.2856
            1391     11.5618E-03     84.8984E-03     785.560E-03     551.132E-03        -2.83366     785.306E-03        -2.83340     551.132E-03     60.5115E-03     237.512E-03    -117.879E-03    -119.633E-03    -114.054E-03     231.933E-03    -117.879E-03     87.7996E-03     92.4930E+06     64.8549E+06    -39.7121E+06    -39.7047E+06     92.4856E+06     64.8549E+06     411.372E+03         50.1756
            1392     12.4518E-03     85.0133E-03     839.769E-03     585.739E-03        -2.92046     839.507E-03        -2.92020     585.739E-03     62.6659E-03     241.854E-03    -117.998E-03    -123.856E-03    -114.318E-03     232.316E-03    -117.998E-03     115.631E-03     104.976E+06     95.9886E+06    -30.9836E+06    -30.9795E+06     100.780E+06     100.181E+06     355.775E+03         50.9763
            1393     13.3408E-03     85.1693E-03     892.060E-03     622.152E-03        -3.00659     891.870E-03        -3.00640     622.152E-03     53.8479E-03     242.107E-03    -117.998E-03    -124.110E-03    -114.354E-03     232.352E-03    -117.998E-03     117.188E-03     113.387E+06     107.034E+06    -22.6847E+06    -22.6710E+06     107.020E+06     113.387E+06     989.851E+03         51.6589
            1394     14.2321E-03     85.2885E-03     940.451E-03     659.790E-03        -3.08895     940.342E-03        -3.08884     659.790E-03     41.2650E-03     248.723E-03    -117.917E-03    -130.806E-03    -115.803E-03     233.720E-03    -117.917E-03     143.411E-03     116.993E+06     111.432E+06    -14.5194E+06    -14.5089E+06     114.821E+06     113.594E+06     853.505E+03         52.2009
            1395     15.1227E-03     85.5158E-03     983.661E-03     695.401E-03        -3.16413     983.623E-03        -3.16409     695.401E-03     16.0184E-03     245.801E-03    -116.892E-03    -128.910E-03    -116.455E-03     234.293E-03    -117.838E-03     105.234E-03     118.850E+06     112.186E+06    -6.92999E+06    -6.92801E+06     118.848E+06     112.186E+06    -237.599E+03         52.5859
            1396     887.912E-06     85.9086E-03         1.15059     86.6051E-03        -2.69225         1.14323        -2.68489     86.6051E-03     118.215E-03     236.142E-03    -117.497E-03    -118.645E-03    -118.402E-03     236.140E-03    -117.738E-03    -4.13091E-06    -105.290E+06    -108.769E+06    -275.674E+06    -108.674E+06    -275.623E+06    -105.437E+06     1.14588E+06         41.4767
            1397     1.77732E-03     85.9078E-03     621.812E-03     615.203E-03        -2.69260     619.297E-03        -2.69008     615.203E-03    -29.9503E-03     235.637E-03    -117.586E-03    -118.051E-03    -117.584E-03     235.635E-03    -118.051E-03    -1.54069E-03    -94.1010E+06    -105.041E+06    -274.932E+06    -105.070E+06    -274.903E+06    -94.1010E+06     1.08120E+06         41.6844
            1398     2.66733E-03     85.9050E-03     627.647E-03     617.249E-03        -2.70186     626.548E-03        -2.70076     617.249E-03     33.8924E-03     235.261E-03    -117.325E-03    -117.936E-03    -117.324E-03     235.260E-03    -117.936E-03    -1.22112E-03    -84.6322E+06    -101.909E+06    -271.709E+06    -101.933E+06    -271.686E+06    -84.6322E+06     662.546E+03         42.0191
            1399     3.55703E-03     85.9020E-03     638.561E-03     620.509E-03        -2.71577     637.781E-03        -2.71499     620.509E-03     18.6374E-03     235.330E-03    -117.456E-03    -117.874E-03    -117.454E-03     235.329E-03    -117.874E-03     750.269E-06    -76.2989E+06    -97.2183E+06    -260.814E+06    -97.2408E+06    -260.791E+06    -76.2989E+06    -203.042E+03         42.4794
            1400     4.44648E-03     85.9014E-03     652.323E-03     625.210E-03        -2.73460     651.788E-03        -2.73406     625.210E-03     66.4799E-03     235.580E-03    -117.660E-03    -117.920E-03    -117.649E-03     235.569E-03    -117.920E-03     3.53925E-03    -64.5817E+06    -91.1173E+06    -252.551E+06    -91.1769E+06    -252.491E+06    -64.5817E+06    -1.10078E+06         43.0602
            1401     5.33480E-03     85.9026E-03     669.810E-03     631.506E-03        -2.75867     669.270E-03        -2.75813     631.506E-03     67.4841E-03     235.514E-03    -117.508E-03    -118.006E-03    -117.464E-03     235.470E-03    -118.006E-03     7.50238E-03    -48.1361E+06    -83.2542E+06    -240.351E+06    -83.3373E+06    -240.268E+06    -48.1361E+06    -305.971E+03         43.7530
            1402     6.22379E-03     85.9101E-03     691.503E-03     639.677E-03        -2.78839     690.793E-03        -2.78768     639.677E-03     95.6877E-03     235.188E-03    -117.130E-03    -118.058E-03    -117.016E-03     235.075E-03    -118.058E-03     12.3855E-03    -30.7034E+06    -74.4233E+06    -222.126E+06    -74.4689E+06    -222.081E+06    -30.7034E+06     678.511E+03         44.5461
            1403     7.11371E-03     85.9234E-03     714.816E-03     649.783E-03        -2.82239     714.349E-03        -2.82192     649.783E-03     80.5921E-03     234.912E-03    -116.880E-03    -118.032E-03    -116.635E-03     234.667E-03    -118.032E-03     18.2537E-03    -20.8758E+06    -67.6608E+06    -192.483E+06    -67.6719E+06    -192.472E+06    -20.8758E+06     290.834E+03         45.4233
            1404     8.00283E-03     85.9434E-03     741.583E-03     661.958E-03        -2.86105     741.010E-03        -2.86047     661.958E-03     90.7948E-03     234.719E-03    -116.747E-03    -117.972E-03    -116.238E-03     234.210E-03    -117.972E-03     26.3088E-03    -13.5587E+06    -63.3566E+06    -150.056E+06    -63.3709E+06    -150.042E+06    -13.5587E+06     302.536E+03         46.3633
            1405     8.89269E-03     85.9752E-03     770.312E-03     676.371E-03        -2.90376     769.885E-03        -2.90333     676.371E-03     77.9125E-03     234.780E-03    -116.859E-03    -117.921E-03    -115.960E-03     233.881E-03    -117.921E-03     35.2579E-03    -2.48788E+06    -58.7484E+06    -94.6292E+06    -59.1991E+06    -94.1786E+06    -2.48788E+06     1.01759E+06         47.3404
            1406     9.78177E-03     86.0175E-03     800.732E-03     693.109E-03        -2.95044     800.395E-03        -2.95010     693.109E-03     70.8918E-03     234.940E-03    -117.091E-03    -117.849E-03    -115.483E-03     233.332E-03    -117.849E-03     46.8969E-03     21.4604E+06    -18.8330E+06    -55.5876E+06    -53.7845E+06    -9.76318E+06     10.5875E+06     1.18581E+06         48.3249
            1407     10.6707E-03     86.0768E-03     832.871E-03     712.737E-03        -3.00098     832.563E-03        -3.00067     712.737E-03     68.0638E-03     235.438E-03    -117.504E-03    -117.933E-03    -114.507E-03     232.326E-03    -117.819E-03     65.0956E-03     63.7766E+06     31.7580E+06    -47.5857E+06    -47.5793E+06     63.7703E+06     31.7580E+06     67.0536E+03         49.2850
            1408     11.5610E-03     86.1620E-03     865.690E-03     735.941E-03        -3.05508     865.436E-03        -3.05482     735.941E-03     63.0293E-03     237.288E-03    -117.899E-03    -119.389E-03    -113.728E-03     231.628E-03    -117.899E-03     88.3233E-03     91.6579E+06     67.4534E+06    -39.9311E+06    -39.9274E+06     91.6542E+06     67.4534E+06    -369.970E+03         50.1874
            1409     12.4514E-03     86.2794E-03     898.332E-03     763.045E-03        -3.11159     898.075E-03        -3.11133     763.045E-03     64.0790E-03     241.519E-03    -117.981E-03    -123.538E-03    -113.966E-03     231.947E-03    -117.981E-03     115.815E-03     103.561E+06     96.0096E+06    -31.0320E+06    -31.0046E+06     99.0410E+06     100.502E+06     1.14366E+06         50.9999
            1410     13.3431E-03     86.4329E-03     928.298E-03     791.560E-03        -3.16614     928.114E-03        -3.16596     791.560E-03     54.3800E-03     242.243E-03    -117.971E-03    -124.272E-03    -114.578E-03     232.548E-03    -117.971E-03     116.860E-03     113.054E+06     106.576E+06    -22.4569E+06    -22.4074E+06     106.526E+06     113.054E+06     2.31673E+06         51.6926
            1411     14.2320E-03     86.5553E-03     953.471E-03     820.882E-03        -3.21565     953.366E-03        -3.21555     820.882E-03     41.2827E-03     248.965E-03    -117.911E-03    -131.054E-03    -116.072E-03     233.982E-03    -117.911E-03     143.318E-03     117.346E+06     111.968E+06    -14.1564E+06    -14.1236E+06     115.328E+06     113.954E+06     614.364E+03         52.2420
            1412     15.1218E-03     86.7787E-03     973.133E-03     847.720E-03        -3.25717     973.096E-03        -3.25713     847.720E-03     17.4198E-03     245.890E-03    -117.020E-03    -128.870E-03    -116.528E-03     234.375E-03    -117.847E-03     105.261E-03     119.842E+06     113.152E+06    -6.43286E+06    -6.42296E+06     119.832E+06     113.152E+06    -417.508E+03         52.6318
            1413     889.037E-06     87.1756E-03         1.37939     353.960E-03        -3.15026         1.37187        -3.14274     353.960E-03     134.582E-03     236.207E-03    -117.522E-03    -118.685E-03    -118.428E-03     236.206E-03    -117.778E-03     73.1422E-06    -106.574E+06    -109.657E+06    -277.491E+06    -109.417E+06    -277.451E+06    -106.854E+06     1.50602E+06         41.4065
            1414     1.77729E-03     87.1725E-03     865.780E-03     862.324E-03        -3.14584     863.463E-03        -3.14352     862.324E-03    -31.8630E-03     235.745E-03    -117.609E-03    -118.136E-03    -117.666E-03     235.744E-03    -118.078E-03    -466.108E-06    -97.9251E+06    -105.645E+06    -276.901E+06    -105.673E+06    -276.873E+06    -97.9251E+06     895.652E+03         41.6150
            1415     2.66685E-03     87.1684E-03     866.235E-03     862.055E-03        -3.14650     864.893E-03        -3.14551     862.408E-03     38.0916E-03     235.427E-03    -117.383E-03    -118.044E-03    -117.440E-03     235.427E-03    -117.987E-03    -610.250E-06    -85.8495E+06    -99.9731E+06    -271.608E+06    -100.000E+06    -271.581E+06    -85.8495E+06     703.380E+03         41.9510
            1416     3.55641E-03     87.1664E-03     869.310E-03     862.681E-03        -3.14923     868.282E-03        -3.14855     863.034E-03     20.2058E-03     235.236E-03    -117.302E-03    -117.934E-03    -117.301E-03     235.235E-03    -117.934E-03     733.403E-06    -72.4486E+06    -94.9075E+06    -260.951E+06    -94.9229E+06    -260.936E+06    -72.4486E+06     1.19751E+06         42.4135
            1417     4.44572E-03     87.1656E-03     873.682E-03     863.783E-03        -3.15505     872.540E-03        -3.15458     864.451E-03     68.7741E-03     235.299E-03    -117.375E-03    -117.924E-03    -117.365E-03     235.290E-03    -117.924E-03     3.30898E-03    -60.8318E+06    -90.4918E+06    -249.611E+06    -90.5378E+06    -249.565E+06    -60.8318E+06    -391.545E+03         42.9975
            1418     5.33535E-03     87.1683E-03     879.480E-03     865.911E-03        -3.16321     878.170E-03        -3.16273     866.746E-03     69.0839E-03     235.355E-03    -117.393E-03    -117.962E-03    -117.353E-03     235.315E-03    -117.962E-03     7.13505E-03    -49.2071E+06    -85.0854E+06    -240.744E+06    -85.1628E+06    -240.667E+06    -49.2071E+06    -3.04394E+06         43.6950
            1419     6.22446E-03     87.1747E-03     887.481E-03     869.390E-03        -3.17382     886.037E-03        -3.17319     870.207E-03     97.2682E-03     235.119E-03    -117.118E-03    -118.001E-03    -117.005E-03     235.006E-03    -118.001E-03     12.2875E-03    -35.1229E+06    -78.6024E+06    -224.779E+06    -78.6466E+06    -224.735E+06    -35.1229E+06    -1.45620E+06         44.4942
            1420     7.11359E-03     87.1879E-03     896.402E-03     873.239E-03        -3.18639     894.204E-03        -3.18596     875.014E-03     82.2448E-03     234.907E-03    -116.915E-03    -117.992E-03    -116.671E-03     234.662E-03    -117.992E-03     18.2831E-03    -23.2602E+06    -72.3287E+06    -192.924E+06    -72.3412E+06    -192.912E+06    -23.2602E+06     1.00211E+06         45.3789
            1421     8.00350E-03     87.2083E-03     907.293E-03     878.670E-03        -3.20190     904.091E-03        -3.20138     881.351E-03     92.3548E-03     234.987E-03    -117.024E-03    -117.963E-03    -116.517E-03     234.481E-03    -117.963E-03     26.2527E-03    -13.5873E+06    -66.1577E+06    -149.944E+06    -66.1757E+06    -149.926E+06    -13.5873E+06     1.21622E+06         46.3280
            1422     8.89219E-03     87.2407E-03     919.518E-03     885.026E-03        -3.21958     914.757E-03        -3.21919     889.393E-03     79.5932E-03     234.899E-03    -116.966E-03    -117.933E-03    -116.056E-03     233.989E-03    -117.933E-03     35.4527E-03    -2.32659E+06    -59.8371E+06    -94.7811E+06    -59.9765E+06    -94.6416E+06    -2.32659E+06     714.142E+03         47.3155
            1423     9.78160E-03     87.2830E-03     933.067E-03     892.169E-03        -3.23908     925.704E-03        -3.23876     899.214E-03     72.6300E-03     234.554E-03    -116.706E-03    -117.848E-03    -115.074E-03     232.922E-03    -117.848E-03     47.1919E-03     22.7247E+06    -18.5306E+06    -55.8550E+06    -53.1802E+06    -9.94940E+06     11.4688E+06     607.211E+03         48.3120
            1424     10.6721E-03     87.3418E-03     948.251E-03     900.763E-03        -3.26059     937.298E-03        -3.26029     911.424E-03     69.3860E-03     235.234E-03    -117.208E-03    -118.027E-03    -114.277E-03     232.070E-03    -117.793E-03     65.5988E-03     65.0750E+06     33.6804E+06    -46.6231E+06    -46.6050E+06     65.0570E+06     33.6804E+06     885.244E+03         49.2848
            1425     11.5619E-03     87.4272E-03     964.913E-03     910.567E-03        -3.28412     948.461E-03        -3.28388     926.777E-03     63.9650E-03     237.406E-03    -117.872E-03    -119.534E-03    -113.852E-03     231.724E-03    -117.872E-03     88.5892E-03     91.0807E+06     68.5351E+06    -40.8482E+06    -40.8179E+06     91.0504E+06     68.5351E+06     1.03371E+06         50.1998
            1426     12.4527E-03     87.5428E-03     983.020E-03     921.381E-03        -3.30878     958.482E-03        -3.30854     945.676E-03     64.1650E-03     241.884E-03    -117.969E-03    -123.915E-03    -114.342E-03     232.311E-03    -117.969E-03     115.925E-03     102.223E+06     94.7226E+06    -33.4829E+06    -33.4438E+06     97.0904E+06     99.8166E+06     1.41462E+06         51.0237
            1427     13.3414E-03     87.6993E-03     999.956E-03     931.016E-03        -3.33028     965.233E-03        -3.33011     965.566E-03     54.0319E-03     242.226E-03    -117.973E-03    -124.253E-03    -114.662E-03     232.635E-03    -117.973E-03     116.151E-03     112.596E+06     105.936E+06    -23.2226E+06    -23.1764E+06     105.890E+06     112.596E+06     1.32041E+06         51.7263
            1428     14.2320E-03     87.8196E-03         1.01438     938.118E-03        -3.34573     966.626E-03        -3.34563     985.771E-03     40.7802E-03     248.733E-03    -117.914E-03    -130.819E-03    -115.834E-03     233.747E-03    -117.914E-03     142.926E-03     117.880E+06     113.498E+06    -13.8507E+06    -13.8141E+06     116.277E+06     115.064E+06     280.375E+03         52.2837
            1429     15.1230E-03     88.0439E-03         1.02457     941.109E-03        -3.35296     962.480E-03        -3.35292         1.00317     17.8319E-03     246.531E-03    -117.525E-03    -129.007E-03    -117.035E-03     234.893E-03    -117.858E-03     105.816E-03     120.873E+06     114.874E+06    -6.48144E+06    -6.46664E+06     120.858E+06     114.874E+06     137.934E+03         52.6783
            1430     888.852E-06     88.4393E-03         1.59782     636.504E-03        -3.61334         1.59021        -3.60573     636.504E-03     146.385E-03     235.294E-03    -117.455E-03    -117.839E-03    -117.622E-03     235.292E-03    -117.670E-03     84.9199E-06    -105.324E+06    -107.446E+06    -279.451E+06    -107.100E+06    -279.442E+06    -105.680E+06    -42.6344E+03         41.3371
            1431     1.77935E-03     88.4372E-03         1.11446         1.11140        -3.60308         1.11111        -3.60087         1.11255    -34.6881E-03     235.608E-03    -117.640E-03    -117.968E-03    -117.866E-03     235.607E-03    -117.742E-03    -696.760E-06    -98.0393E+06    -104.407E+06    -277.394E+06    -104.421E+06    -277.380E+06    -98.0393E+06    -70.3301E+03         41.5464
            1432     2.66739E-03     88.4340E-03         1.11102         1.10667        -3.59646         1.10601        -3.59553         1.11076     40.7136E-03     235.661E-03    -117.743E-03    -117.918E-03    -117.801E-03     235.660E-03    -117.860E-03    -475.234E-06    -86.2371E+06    -99.6426E+06    -270.352E+06    -99.6619E+06    -270.333E+06    -86.2371E+06    -410.422E+03         41.8836
            1433     3.55637E-03     88.4301E-03         1.10878         1.10180        -3.58858         1.10138        -3.58798         1.10860     19.7673E-03     235.498E-03    -117.570E-03    -117.928E-03    -117.568E-03     235.496E-03    -117.928E-03     1.25405E-03    -71.9163E+06    -93.0135E+06    -262.411E+06    -93.0429E+06    -262.382E+06    -71.9163E+06    -347.207E+03         42.3479
            1434     4.44594E-03     88.4306E-03         1.10674         1.09575        -3.58024         1.09551        -3.57982         1.10657     69.2232E-03     235.332E-03    -117.367E-03    -117.965E-03    -117.357E-03     235.321E-03    -117.965E-03     3.69040E-03    -55.6530E+06    -86.1305E+06    -248.937E+06    -86.1673E+06    -248.900E+06    -55.6530E+06     612.617E+03         42.9350
            1435     5.33498E-03     88.4325E-03         1.10473         1.08953        -3.57144         1.08912        -3.57103         1.10473     68.5402E-03     235.271E-03    -117.270E-03    -118.001E-03    -117.233E-03     235.235E-03    -118.001E-03     6.92576E-03    -41.1032E+06    -81.6243E+06    -238.354E+06    -81.7026E+06    -238.275E+06    -41.1032E+06     726.099E+03         43.6368
            1436     6.22457E-03     88.4396E-03         1.10335         1.08358        -3.56294         1.08303        -3.56240         1.10335     96.9442E-03     235.191E-03    -117.171E-03    -118.021E-03    -117.071E-03     235.091E-03    -118.021E-03     11.5584E-03    -32.0784E+06    -78.3138E+06    -227.233E+06    -78.3730E+06    -227.174E+06    -32.0784E+06    -316.767E+03         44.4419
            1437     7.11422E-03     88.4523E-03         1.10270         1.07609        -3.55423         1.07572        -3.55386         1.10270     82.0701E-03     235.072E-03    -117.060E-03    -118.012E-03    -116.824E-03     234.836E-03    -118.012E-03     17.8251E-03    -22.6763E+06    -72.6278E+06    -194.845E+06    -72.6348E+06    -194.838E+06    -22.6763E+06     86.7236E+03         45.3340
            1438     8.00271E-03     88.4740E-03         1.10302         1.06911        -3.54607         1.06865        -3.54560         1.10302     92.1402E-03     234.982E-03    -116.990E-03    -117.993E-03    -116.485E-03     234.478E-03    -117.993E-03     26.2127E-03    -11.4556E+06    -65.7842E+06    -149.606E+06    -65.7920E+06    -149.599E+06    -11.4556E+06     570.901E+03         46.2921
            1439     8.89217E-03     88.5061E-03         1.10442         1.06127        -3.53785         1.06092        -3.53749         1.10442     79.5913E-03     234.643E-03    -116.697E-03    -117.947E-03    -115.789E-03     233.736E-03    -117.947E-03     35.3791E-03       7.583E+03    -58.9480E+06    -94.1907E+06    -59.0050E+06    -94.1336E+06       7.583E+03     257.193E+03         47.2904
            1440     9.78218E-03     88.5475E-03         1.10701         1.05225        -3.52954         1.05196        -3.52925         1.10701     72.9564E-03     234.271E-03    -116.438E-03    -117.833E-03    -114.832E-03     232.664E-03    -117.833E-03     46.8263E-03     22.9362E+06    -18.6119E+06    -56.3787E+06    -53.7039E+06    -10.4180E+06     12.0675E+06     404.642E+03         48.2990
            1441     10.6724E-03     88.6060E-03         1.11150         1.04286        -3.52164         1.04259        -3.52137         1.11150     69.5418E-03     235.031E-03    -117.092E-03    -117.939E-03    -114.158E-03     231.915E-03    -117.757E-03     65.0328E-03     62.7800E+06     31.8887E+06    -48.4104E+06    -48.3799E+06     62.7495E+06     31.8887E+06     1.69861E+06         49.2845
            1442     11.5626E-03     88.6928E-03         1.11865         1.03207        -3.51414         1.03184        -3.51391         1.11865     63.8651E-03     237.469E-03    -117.840E-03    -119.628E-03    -114.039E-03     231.879E-03    -117.840E-03     87.9264E-03      90.158E+06     67.2173E+06    -41.3048E+06    -41.2270E+06     90.0802E+06     67.2173E+06     3.12188E+06         50.2120
            1443     12.4517E-03     88.8074E-03         1.12886         1.01917        -3.50611         1.01895        -3.50589         1.12886     63.6271E-03     242.209E-03    -117.959E-03    -124.250E-03    -114.576E-03     232.534E-03    -117.959E-03     116.456E-03     103.352E+06     96.0045E+06    -32.9827E+06    -32.9267E+06     98.8665E+06     100.434E+06     2.22779E+06         51.0476
            1444     13.3415E-03     88.9670E-03         1.13955         1.00216        -3.49366         1.00200        -3.49350         1.13955     53.4016E-03     242.264E-03    -117.972E-03    -124.292E-03    -114.611E-03     232.583E-03    -117.972E-03     116.510E-03     113.151E+06     106.981E+06    -23.8941E+06    -23.8791E+06     106.965E+06     113.151E+06    -361.239E+03         51.7605
            1445     14.2323E-03     89.0805E-03         1.15009     979.405E-03        -3.47439     979.313E-03        -3.47430         1.15009     39.9659E-03     249.195E-03    -117.922E-03    -131.273E-03    -116.330E-03     234.252E-03    -117.922E-03     142.762E-03     118.089E+06     112.845E+06    -14.4750E+06    -14.4608E+06     116.334E+06     114.587E+06    -475.063E+03         52.3257
            1446     15.1224E-03     89.3117E-03         1.15761     951.466E-03        -3.44723     951.433E-03        -3.44720         1.15761     17.0558E-03     247.119E-03    -117.503E-03    -129.616E-03    -117.576E-03     235.469E-03    -117.893E-03     105.518E-03     121.249E+06     114.600E+06    -6.27817E+06    -6.27073E+06     121.242E+06     114.600E+06     732.602E+03         52.7253
            1447     890.626E-06     89.7036E-03         1.80667     922.053E-03        -4.06848         1.79872        -4.06053     922.053E-03     161.259E-03     235.163E-03    -117.382E-03    -117.781E-03    -117.593E-03     235.159E-03    -117.566E-03    -669.336E-06    -102.696E+06    -106.933E+06    -278.611E+06    -106.166E+06    -278.602E+06    -103.472E+06    -633.734E+03         41.2682
            1448     1.77770E-03     89.7020E-03         1.35974         1.35521        -4.05347         1.35404        -4.05133         1.35878    -39.3940E-03     235.348E-03    -117.505E-03    -117.843E-03    -117.673E-03     235.347E-03    -117.674E-03    -989.037E-06    -91.6900E+06    -101.717E+06    -277.651E+06    -101.738E+06    -277.630E+06    -91.6900E+06    -1.34396E+06         41.4781
            1449     2.66795E-03     89.6980E-03         1.35509         1.34436        -4.03877         1.34348        -4.03790         1.35509     40.9013E-03     235.614E-03    -117.754E-03    -117.861E-03    -117.830E-03     235.614E-03    -117.784E-03    -550.883E-06    -80.1510E+06    -96.3814E+06    -269.724E+06    -96.4075E+06    -269.698E+06    -80.1510E+06    -782.392E+03         41.8165
            1450     3.55694E-03     89.6956E-03         1.35034         1.33171        -4.01987         1.33115        -4.01931         1.35034     17.4343E-03     235.852E-03    -117.835E-03    -118.018E-03    -117.949E-03     235.851E-03    -117.903E-03     936.874E-06    -70.4943E+06    -91.7803E+06    -262.191E+06    -91.8028E+06    -262.168E+06    -70.4943E+06    -811.106E+03         42.2826
            1451     4.44558E-03     89.6947E-03         1.34491         1.31546        -3.99799         1.31509        -3.99762         1.34491     67.8709E-03     235.591E-03    -117.555E-03    -118.037E-03    -117.584E-03     235.583E-03    -117.998E-03     3.09543E-03    -57.8694E+06    -87.0051E+06    -252.353E+06    -87.0366E+06    -252.322E+06    -57.8694E+06     498.135E+03         42.8724
            1452     5.33517E-03     89.6976E-03         1.33898         1.29733        -3.97320         1.29698        -3.97285         1.33898     65.7718E-03     235.360E-03    -117.294E-03    -118.066E-03    -117.258E-03     235.324E-03    -118.066E-03     6.73956E-03    -38.9872E+06    -80.4056E+06    -238.876E+06    -80.4615E+06    -238.820E+06    -38.9872E+06     2.64801E+06         43.5784
            1453     6.22385E-03     89.7044E-03         1.33287         1.27771        -3.94591         1.27725        -3.94545         1.33287     94.4345E-03     235.410E-03    -117.301E-03    -118.109E-03    -117.203E-03     235.311E-03    -118.109E-03     11.5058E-03    -24.1068E+06    -73.2970E+06    -225.590E+06    -73.3526E+06    -225.535E+06    -24.1068E+06     2.16901E+06         44.3890
            1454     7.11262E-03     89.7174E-03         1.32683         1.25507        -3.91586         1.25475        -3.91554         1.32683     79.8281E-03     235.217E-03    -117.130E-03    -118.087E-03    -116.893E-03     234.981E-03    -118.087E-03     17.8441E-03    -18.5548E+06    -67.7361E+06    -195.294E+06    -67.7572E+06    -195.273E+06    -18.5548E+06     504.979E+03         45.2882
            1455     8.00271E-03     89.7391E-03         1.32109         1.23106        -3.88407         1.23066        -3.88367         1.32109     90.2312E-03     234.767E-03    -116.731E-03    -118.035E-03    -116.236E-03     234.272E-03    -118.035E-03     25.9858E-03    -10.8300E+06    -62.5290E+06    -150.318E+06    -62.5404E+06    -150.307E+06    -10.8300E+06     381.006E+03         46.2554
            1456     8.89245E-03     89.7705E-03         1.31579         1.20487        -3.85017         1.20457        -3.84986         1.31579     77.8917E-03     234.371E-03    -116.410E-03    -117.961E-03    -115.527E-03     233.488E-03    -117.961E-03     34.8596E-03     507.767E+03    -57.6548E+06    -95.3246E+06    -57.9323E+06    -95.0471E+06     507.767E+03     1.33576E+06         47.2646
            1457     9.78218E-03     89.8122E-03         1.31113         1.17629        -3.81420         1.17603        -3.81394         1.31113     71.6833E-03     234.442E-03    -116.601E-03    -117.841E-03    -115.021E-03     232.862E-03    -117.841E-03     46.4580E-03     21.9517E+06    -18.2569E+06    -56.9461E+06    -53.6354E+06    -11.7170E+06     12.1012E+06     2.21373E+06         48.2851
            1458     10.6718E-03     89.8708E-03         1.30778         1.14600        -3.77674         1.14576        -3.77649         1.30778     68.3049E-03     235.198E-03    -117.332E-03    -117.866E-03    -114.381E-03     232.161E-03    -117.780E-03     64.2781E-03     61.0723E+06     30.9007E+06    -48.9805E+06    -48.8929E+06     60.9847E+06     30.9007E+06     2.74507E+06         49.2831
            1459     11.5620E-03     89.9571E-03         1.30652         1.11329        -3.73799         1.11308        -3.73779         1.30652     62.8685E-03     237.340E-03    -117.862E-03    -119.479E-03    -113.910E-03     231.771E-03    -117.862E-03     87.6081E-03     89.4475E+06     65.7062E+06    -41.3068E+06    -41.2407E+06     89.3814E+06     65.7062E+06     2.38090E+06         50.2233
            1460     12.4524E-03     90.0741E-03         1.30772         1.07769        -3.69735         1.07749        -3.69714         1.30772     62.3388E-03     241.629E-03    -117.961E-03    -123.668E-03    -114.063E-03     232.024E-03    -117.961E-03     115.950E-03     104.585E+06     97.1167E+06    -30.6213E+06    -30.5785E+06     100.494E+06     101.165E+06     1.63291E+06         51.0714
            1461     13.3433E-03     90.2302E-03         1.30892         1.03739        -3.65105         1.03724        -3.65090         1.30892     52.3899E-03     242.309E-03    -117.968E-03    -124.341E-03    -114.732E-03     232.700E-03    -117.968E-03     116.164E-03     115.701E+06     109.835E+06    -21.2343E+06    -21.2008E+06     109.801E+06     115.701E+06     1.02243E+06         51.7950
            1462     14.2319E-03     90.3484E-03         1.30958     990.983E-03        -3.59721     990.898E-03        -3.59713         1.30958     39.0129E-03     250.123E-03    -117.952E-03    -132.171E-03    -117.299E-03     235.251E-03    -117.952E-03     142.953E-03     119.509E+06     114.125E+06    -14.2220E+06    -14.1950E+06     117.664E+06     115.943E+06     426.478E+03         52.3682
            1463     15.1193E-03     90.5772E-03         1.30690     939.756E-03        -3.53555     939.727E-03        -3.53552         1.30690     14.9684E-03     246.996E-03    -117.031E-03    -129.965E-03    -117.500E-03     235.443E-03    -117.943E-03     105.605E-03     120.607E+06     113.423E+06    -7.79773E+06    -7.79426E+06     120.604E+06     113.423E+06     195.557E+03         52.7728
            1464     887.399E-06     90.9670E-03         2.00102         1.20052        -4.50326         1.99194        -4.49496         1.20130     173.181E-03     235.650E-03    -117.574E-03    -118.076E-03    -117.838E-03     235.646E-03    -117.808E-03    -1.01848E-03    -102.494E+06    -106.718E+06    -276.378E+06    -106.174E+06    -276.368E+06    -103.048E+06     269.612E+03         41.1999
            1465     1.77956E-03     90.9660E-03         1.59428         1.58769        -4.48282         1.58575        -4.48069         1.59408    -44.1971E-03     235.391E-03    -117.550E-03    -117.841E-03    -117.548E-03     235.389E-03    -117.841E-03    -1.32279E-03    -94.1423E+06    -104.522E+06    -277.563E+06    -104.554E+06    -277.531E+06    -94.1423E+06    -159.012E+03         41.4102
            1466     2.66783E-03     90.9623E-03         1.58861         1.57178        -4.46066         1.57092        -4.45980         1.58861     41.3037E-03     235.743E-03    -117.791E-03    -117.952E-03    -117.866E-03     235.741E-03    -117.875E-03    -896.962E-06    -82.2984E+06    -100.258E+06    -270.770E+06    -100.285E+06    -270.743E+06    -82.2984E+06     319.933E+03         41.7495
            1467     3.55630E-03     90.9615E-03         1.58153         1.55169        -4.43181         1.55117        -4.43129         1.58153     13.7339E-03     235.929E-03    -117.831E-03    -118.097E-03    -117.946E-03     235.928E-03    -117.983E-03     598.588E-06    -71.3756E+06    -95.1984E+06    -262.145E+06    -95.2058E+06    -262.138E+06    -71.3756E+06     904.284E+03         42.2173
            1468     4.44495E-03     90.9598E-03         1.57296         1.52614        -4.39711         1.52581        -4.39678         1.57296     64.3165E-03     235.771E-03    -117.667E-03    -118.105E-03    -117.696E-03     235.763E-03    -118.066E-03     2.92358E-03    -60.3251E+06    -89.3302E+06    -253.691E+06    -89.3390E+06    -253.682E+06    -60.3251E+06     235.149E+03         42.8097
            1469     5.33402E-03     90.9618E-03         1.56319         1.49692        -4.35684         1.49662        -4.35654         1.56319     60.9362E-03     235.481E-03    -117.358E-03    -118.123E-03    -117.321E-03     235.444E-03    -118.123E-03     6.85571E-03    -44.2889E+06    -82.3119E+06    -241.229E+06    -82.3245E+06    -241.216E+06    -44.2889E+06     265.727E+03         43.5195
            1470     6.22389E-03     90.9699E-03         1.55261         1.46414        -4.31179         1.46376        -4.31141         1.55261     90.0101E-03     235.361E-03    -117.198E-03    -118.163E-03    -117.094E-03     235.257E-03    -118.163E-03     11.7681E-03    -26.4337E+06    -74.2144E+06    -225.641E+06    -74.2429E+06    -225.612E+06    -26.4337E+06     1.58649E+06         44.3355
            1471     7.11318E-03     90.9826E-03         1.54140         1.42694        -4.26153         1.42668        -4.26127         1.54140     75.4397E-03     235.232E-03    -117.094E-03    -118.138E-03    -116.854E-03     234.993E-03    -118.138E-03     18.0173E-03    -17.4899E+06    -67.1719E+06    -194.771E+06    -67.2254E+06    -194.718E+06    -17.4899E+06     1.94849E+06         45.2420
            1472     8.00186E-03     91.0038E-03         1.52979         1.38650        -4.20686         1.38616        -4.20653         1.52979     86.1033E-03     234.819E-03    -116.744E-03    -118.075E-03    -116.256E-03     234.332E-03    -118.075E-03     25.8031E-03    -11.3336E+06    -62.4867E+06    -151.828E+06    -62.5605E+06    -151.754E+06    -11.3336E+06     2.03749E+06         46.2180
            1473     8.89178E-03     91.0348E-03         1.51797         1.34240        -4.14786         1.34214        -4.14760         1.51797     74.0408E-03     234.502E-03    -116.499E-03    -118.003E-03    -115.631E-03     233.634E-03    -118.003E-03     34.5726E-03    -138.696E+03    -57.3046E+06    -97.6257E+06    -58.1728E+06    -96.7576E+06    -138.696E+03     3.01657E+06         47.2377
            1474     9.78185E-03     91.0771E-03         1.50622         1.29478        -4.08495         1.29456        -4.08473         1.50622     68.5023E-03     234.518E-03    -116.627E-03    -117.891E-03    -115.049E-03     232.939E-03    -117.891E-03     46.3939E-03     21.3471E+06    -17.0661E+06    -57.0675E+06    -52.7334E+06    -12.8712E+06     12.8180E+06     3.71757E+06         48.2701
            1475     10.6711E-03     91.1371E-03         1.49512         1.24417        -4.01861         1.24396        -4.01841         1.49512     65.1290E-03     235.355E-03    -117.309E-03    -118.046E-03    -114.487E-03     232.318E-03    -117.831E-03     64.3435E-03     61.6708E+06     32.5973E+06    -46.5905E+06    -46.4793E+06     61.5597E+06     32.5973E+06     3.22443E+06         49.2808
            1476     11.5610E-03     91.2207E-03         1.48541         1.19018        -3.94930         1.19001        -3.94913         1.48541     59.9291E-03     237.449E-03    -117.915E-03    -119.533E-03    -113.966E-03     231.881E-03    -117.915E-03     87.5885E-03     91.6634E+06     67.9967E+06    -38.8976E+06    -38.8649E+06     91.6307E+06     67.9967E+06     1.61171E+06         50.2341
            1477     12.4514E-03     91.3393E-03         1.47747         1.13252        -3.87656         1.13234        -3.87638         1.47747     59.3911E-03     241.525E-03    -118.015E-03    -123.511E-03    -114.074E-03     232.089E-03    -118.015E-03     115.034E-03     104.906E+06     96.9574E+06    -30.6428E+06    -30.6338E+06     100.071E+06     101.784E+06     814.401E+03         51.0945
            1478     13.3416E-03     91.4932E-03         1.46913         1.07003        -3.79751         1.06990        -3.79738         1.46913     49.9310E-03     242.274E-03    -118.016E-03    -124.259E-03    -114.711E-03     232.726E-03    -118.016E-03     116.010E-03     115.027E+06     108.686E+06    -21.8663E+06    -21.8366E+06     108.656E+06     115.027E+06     1.75684E+06         51.8290
            1479     14.2309E-03     91.6185E-03         1.45986         1.00141        -3.71008         1.00134        -3.71001         1.45986     37.5831E-03     249.823E-03    -117.982E-03    -131.841E-03    -116.798E-03     234.780E-03    -117.982E-03     143.805E-03     120.084E+06     115.368E+06    -13.4308E+06    -13.3771E+06     118.517E+06     116.882E+06     2.28116E+06         52.4110
            1480     15.1212E-03     91.8415E-03         1.44692     927.436E-03        -3.61390     927.408E-03        -3.61387         1.44692     12.9064E-03     246.553E-03    -116.902E-03    -129.651E-03    -117.004E-03     234.945E-03    -117.941E-03     105.652E-03     121.903E+06     114.938E+06    -6.93877E+06    -6.90857E+06     121.873E+06     114.938E+06     806.862E+03         52.8212
            1481     890.254E-06     92.2325E-03         2.18099         1.45996        -4.90310         2.17019        -4.89447         1.46213     183.706E-03     236.044E-03    -117.354E-03    -118.691E-03    -118.592E-03     236.041E-03    -117.449E-03    -1.11189E-03    -104.682E+06    -107.036E+06    -279.013E+06    -106.965E+06    -278.998E+06    -104.768E+06     342.670E+03         41.1317
            1482     1.77667E-03     92.2298E-03         1.81240         1.80296        -4.87844         1.80081        -4.87629         1.81240    -49.5883E-03     236.020E-03    -117.875E-03    -118.145E-03    -117.949E-03     236.018E-03    -118.069E-03    -1.18753E-03    -95.0556E+06    -102.549E+06    -277.848E+06    -102.573E+06    -277.824E+06    -95.0556E+06     2.01363E+06         41.3423
            1483     2.66649E-03     92.2281E-03         1.80527         1.78291        -4.85045         1.78206        -4.84961         1.80527     40.7275E-03     235.891E-03    -117.792E-03    -118.099E-03    -117.791E-03     235.890E-03    -118.099E-03    -539.634E-06    -82.2836E+06    -99.0572E+06    -272.313E+06    -99.0932E+06    -272.277E+06    -82.2836E+06     2.17512E+06         41.6824
            1484     3.55581E-03     92.2261E-03         1.79604         1.75588        -4.81281         1.75539        -4.81231         1.79604     9.38710E-03     235.717E-03    -117.617E-03    -118.099E-03    -117.616E-03     235.716E-03    -118.099E-03     751.979E-06    -71.4300E+06    -95.2910E+06    -262.514E+06    -95.3147E+06    -262.491E+06    -71.4300E+06     1.57274E+06         42.1518
            1485     4.44545E-03     92.2249E-03         1.78462         1.72214        -4.76641         1.72185        -4.76612         1.78462     60.0104E-03     235.733E-03    -117.623E-03    -118.110E-03    -117.613E-03     235.723E-03    -118.110E-03     3.22634E-03    -61.0753E+06    -90.1002E+06    -252.398E+06    -90.1162E+06    -252.382E+06    -61.0753E+06     732.827E+03         42.7468
            1486     5.33410E-03     92.2275E-03         1.77139         1.68283        -4.71189         1.68258        -4.71165         1.77139     54.5414E-03     235.706E-03    -117.544E-03    -118.162E-03    -117.507E-03     235.668E-03    -118.162E-03     7.01623E-03    -46.7364E+06    -84.3402E+06    -241.870E+06    -84.3513E+06    -241.859E+06    -46.7364E+06     26.3987E+03         43.4602
            1487     6.22298E-03     92.2338E-03         1.75667         1.63779        -4.65020         1.63749        -4.64990         1.75667     83.1648E-03     235.402E-03    -117.200E-03    -118.202E-03    -117.094E-03     235.296E-03    -118.202E-03     11.8687E-03    -31.5622E+06    -78.8807E+06    -227.051E+06    -78.8826E+06    -227.049E+06    -31.5622E+06     262.158E+03         44.2814
            1488     7.11238E-03     92.2485E-03         1.74064         1.58688        -4.58103         1.58668        -4.58083         1.74064     68.7520E-03     235.052E-03    -116.876E-03    -118.176E-03    -116.643E-03     234.819E-03    -118.176E-03     17.8491E-03    -19.8014E+06    -72.1803E+06    -196.843E+06     -72.228E+06    -196.796E+06    -19.8014E+06     1.87996E+06         45.1949
            1489     8.00227E-03     92.2684E-03         1.72353         1.53111        -4.50495         1.53084        -4.50469         1.72353     79.6996E-03     234.943E-03    -116.829E-03    -118.115E-03    -116.336E-03     234.450E-03    -118.115E-03     25.8544E-03    -10.6434E+06    -65.4531E+06    -153.612E+06    -65.6226E+06    -153.442E+06    -10.6434E+06     3.51623E+06         46.1799
            1490     8.89145E-03     92.3001E-03         1.70557         1.47013        -4.42234         1.46993        -4.42214         1.70557     67.7672E-03     234.892E-03    -116.836E-03    -118.057E-03    -115.957E-03     234.014E-03    -118.057E-03     34.8705E-03     416.808E+03    -58.8847E+06    -98.7696E+06    -59.7736E+06    -97.8807E+06     416.808E+03     3.78381E+06         47.2099
            1491     9.78047E-03     92.3421E-03         1.68698         1.40434        -4.33377         1.40416        -4.33360         1.68698     62.7098E-03     234.476E-03    -116.525E-03    -117.951E-03    -114.953E-03     232.904E-03    -117.951E-03     46.2784E-03     21.7081E+06    -17.3544E+06    -58.1569E+06    -53.5540E+06    -13.7173E+06     13.4680E+06     3.36122E+06         48.2541
            1492     10.6716E-03     92.4011E-03         1.66838         1.33444        -4.24000         1.33428        -4.23984         1.66838     59.4325E-03     235.296E-03    -117.085E-03    -118.211E-03    -114.334E-03     232.207E-03    -117.873E-03     64.8034E-03     62.6437E+06     33.4700E+06    -46.5325E+06    -46.4589E+06     62.5700E+06     33.4700E+06     2.62097E+06         49.2780
            1493     11.5609E-03     92.4878E-03         1.65045         1.26042        -4.14159         1.26028        -4.14145         1.65045     54.6853E-03     237.729E-03    -117.961E-03    -119.768E-03    -114.246E-03     232.207E-03    -117.961E-03     87.4596E-03     92.9289E+06     69.3974E+06    -39.0379E+06    -39.0002E+06     92.8912E+06     69.3974E+06     2.14909E+06         50.2445
            1494     12.4508E-03     92.6022E-03         1.63354         1.18220        -4.03837         1.18205        -4.03822         1.63354     54.2928E-03     242.043E-03    -118.084E-03    -123.959E-03    -114.444E-03     232.528E-03    -118.084E-03     115.445E-03     106.205E+06     98.1202E+06    -30.6240E+06    -30.5892E+06     100.683E+06     103.607E+06     2.02729E+06         51.1174
            1495     13.3399E-03     92.7613E-03         1.61574         1.09885        -3.92807         1.09874        -3.92797         1.61574     45.2565E-03     242.277E-03    -118.076E-03    -124.202E-03    -114.500E-03     232.575E-03    -118.076E-03     116.804E-03     114.813E+06     108.105E+06    -22.1762E+06    -22.1487E+06     108.078E+06     114.813E+06     1.83356E+06         51.8631
            1496     14.2315E-03     92.8796E-03         1.59657         1.00986        -3.80946         1.00980        -3.80940         1.59657     33.6451E-03     248.904E-03    -117.987E-03    -130.917E-03    -115.658E-03     233.644E-03    -117.987E-03     144.174E-03     118.423E+06     113.842E+06    -14.6203E+06    -14.5579E+06     117.139E+06     115.064E+06     2.70745E+06         52.4543
            1497     15.1214E-03     93.1109E-03         1.57365     915.032E-03        -3.68021     915.010E-03        -3.68018         1.57365     11.8104E-03     246.060E-03    -116.956E-03    -129.104E-03    -116.347E-03     234.239E-03    -117.892E-03     105.515E-03     123.342E+06     115.533E+06    -6.24676E+06    -6.19271E+06     123.288E+06     115.533E+06     1.33054E+06         52.8705
            1498     887.797E-06     93.4982E-03         2.33784         1.69546        -5.25918         2.32618        -5.25030         1.69825     191.841E-03     236.278E-03    -117.475E-03    -118.803E-03    -118.492E-03     236.274E-03    -117.783E-03    -2.04461E-03    -106.174E+06    -110.490E+06    -281.458E+06    -110.416E+06    -281.446E+06    -106.260E+06     131.404E+03         41.0628
            1499     1.77846E-03     93.4956E-03         2.00811         1.99641        -5.23186         1.99425        -5.22971         2.00811    -54.7575E-03     236.190E-03    -117.941E-03    -118.249E-03    -118.016E-03     236.189E-03    -118.173E-03    -747.280E-06    -98.0342E+06    -105.760E+06    -280.003E+06    -105.770E+06    -279.992E+06    -98.0342E+06     904.595E+03         41.2739
            1500     2.66654E-03     93.4929E-03         1.99959         1.97218        -5.19744         1.97135        -5.19661         1.99959     39.5165E-03     235.966E-03    -117.805E-03    -118.162E-03    -117.804E-03     235.966E-03    -118.162E-03    -125.522E-06    -88.8661E+06    -101.012E+06    -274.867E+06    -101.045E+06    -274.834E+06    -88.8661E+06     1.88284E+06         41.6147
            1501     3.55587E-03     93.4907E-03         1.98839         1.93908        -5.15167         1.93861        -5.15121         1.98839     4.53386E-03     235.667E-03    -117.526E-03    -118.141E-03    -117.524E-03     235.666E-03    -118.141E-03     890.393E-06    -74.4684E+06    -95.3358E+06    -262.291E+06    -95.3768E+06    -262.250E+06    -74.4684E+06     2.42238E+06         42.0856
            1502     4.44466E-03     93.4900E-03         1.97445         1.89782        -5.09536         1.89756        -5.09511         1.97445     54.4054E-03     235.657E-03    -117.502E-03    -118.155E-03    -117.491E-03     235.646E-03    -118.155E-03     3.52338E-03    -57.0869E+06    -90.2347E+06    -251.731E+06    -90.2613E+06    -251.704E+06    -57.0869E+06     1.91133E+06         42.6830
            1503     5.33408E-03     93.4928E-03         1.95812         1.84951        -5.02850         1.84931        -5.02830         1.95812     47.1025E-03     235.803E-03    -117.607E-03    -118.196E-03    -117.568E-03     235.764E-03    -118.196E-03     7.19514E-03    -43.6222E+06    -85.0951E+06    -242.325E+06    -85.1182E+06    -242.302E+06    -43.6222E+06     1.56142E+06         43.4001
            1504     6.22298E-03     93.4996E-03         1.93963         1.79359        -4.95144         1.79334        -4.95120         1.93963     75.0327E-03     235.572E-03    -117.345E-03    -118.227E-03    -117.239E-03     235.465E-03    -118.227E-03     11.8894E-03    -32.6864E+06    -79.1505E+06    -228.160E+06    -79.1767E+06    -228.134E+06    -32.6864E+06     1.47039E+06         44.2264
            1505     7.11231E-03     93.5127E-03         1.91917         1.73015        -4.86454         1.73000        -4.86439         1.91917     60.0646E-03     235.095E-03    -116.879E-03    -118.216E-03    -116.644E-03     234.860E-03    -118.216E-03     17.9277E-03    -20.2190E+06    -74.0489E+06    -199.642E+06    -74.1215E+06    -199.569E+06    -20.2190E+06     2.52347E+06         45.1468
            1506     8.00189E-03     93.5332E-03         1.89703         1.66040        -4.76913         1.66020        -4.76894         1.89703     70.6192E-03     235.013E-03    -116.853E-03    -118.160E-03    -116.353E-03     234.512E-03    -118.160E-03     26.0453E-03    -9.36795E+06    -67.7869E+06    -154.796E+06    -67.9492E+06    -154.634E+06    -9.36795E+06     3.35995E+06         46.1405
            1507     8.89101E-03     93.5664E-03         1.87339         1.58406        -4.66526         1.58392        -4.66512         1.87339     58.9037E-03     234.893E-03    -116.799E-03    -118.095E-03    -115.915E-03     234.010E-03    -118.095E-03     34.9746E-03     1.76593E+06    -59.9671E+06    -98.6083E+06    -60.5330E+06    -98.0424E+06     1.76593E+06     3.08474E+06         47.1811
            1508     9.78077E-03     93.6068E-03         1.84840         1.50173        -4.55306         1.50161        -4.55294         1.84840     54.4331E-03     234.636E-03    -116.649E-03    -117.987E-03    -115.078E-03     233.065E-03    -117.987E-03     46.2865E-03     22.6949E+06    -17.3565E+06    -58.6032E+06    -54.1177E+06    -13.5092E+06     14.3621E+06     2.69216E+06         48.2375
            1509     10.6703E-03     93.6654E-03         1.82273         1.41424        -4.43387         1.41413        -4.43376         1.82273     51.3090E-03     235.309E-03    -117.245E-03    -118.064E-03    -114.267E-03     232.174E-03    -117.907E-03     65.2052E-03     62.7385E+06     33.5294E+06    -48.0117E+06    -47.9377E+06     62.6645E+06     33.5294E+06     2.69651E+06         49.2745
            1510     11.5605E-03     93.7541E-03         1.79701         1.32192        -4.30867         1.32182        -4.30857         1.79701     47.1849E-03     237.619E-03    -117.930E-03    -119.688E-03    -114.019E-03     231.993E-03    -117.974E-03     88.2502E-03     92.5375E+06     67.9907E+06    -41.0492E+06    -40.9791E+06     92.4674E+06     67.9907E+06     2.94942E+06         50.2547
            1511     12.4497E-03     93.8675E-03         1.77151         1.22494        -4.17750         1.22484        -4.17739         1.77151     47.0918E-03     242.254E-03    -118.085E-03    -124.169E-03    -114.509E-03     232.594E-03    -118.085E-03     116.366E-03     105.630E+06     97.3493E+06    -32.5412E+06    -32.4882E+06     100.967E+06     101.960E+06     2.61913E+06         51.1407
            1512     13.3410E-03     94.0260E-03         1.74461         1.12273        -4.03862         1.12266        -4.03855         1.74461     39.0099E-03     242.397E-03    -118.087E-03    -124.310E-03    -114.541E-03     232.628E-03    -118.087E-03     117.165E-03     115.390E+06     108.810E+06    -22.7993E+06    -22.7583E+06     108.769E+06     115.390E+06     2.29701E+06         51.8980
            1513     14.2300E-03     94.1448E-03         1.71589         1.01481        -3.89076         1.01477        -3.89071         1.71589     28.3070E-03     248.366E-03    -117.990E-03    -130.376E-03    -115.266E-03     233.256E-03    -117.990E-03     143.272E-03     120.272E+06     114.461E+06    -13.9859E+06    -13.9408E+06     118.258E+06     116.430E+06     2.26598E+06         52.4982
            1514     15.1238E-03     94.3713E-03         1.68353     901.780E-03        -3.73377     901.766E-03        -3.73375         1.68353     10.6427E-03     245.856E-03    -117.283E-03    -128.573E-03    -116.254E-03     234.136E-03    -117.882E-03     105.478E-03     124.137E+06     115.643E+06    -6.69339E+06    -6.66494E+06     124.109E+06     115.643E+06     988.119E+03         52.9202
            1515     889.269E-06     94.7625E-03         2.47338         1.89714        -5.56269         2.46132        -5.55411         1.90062     191.168E-03     236.328E-03    -117.743E-03    -118.585E-03    -118.276E-03     236.326E-03    -118.050E-03    -1.29016E-03    -107.605E+06    -111.582E+06    -282.604E+06    -110.743E+06    -282.601E+06    -108.448E+06     639.422E+03         40.9925
            1516     1.77706E-03     94.7610E-03         2.17652         2.16250        -5.53181         2.16042        -5.52973         2.17652    -57.6897E-03     236.206E-03    -117.893E-03    -118.313E-03    -118.013E-03     236.205E-03    -118.192E-03    -967.762E-06    -100.164E+06    -108.425E+06    -280.258E+06    -108.430E+06    -280.254E+06    -100.164E+06     540.195E+03         41.2040
            1517     2.66663E-03     94.7581E-03         2.16670         2.13468        -5.49258         2.13388        -5.49178         2.16670     36.7891E-03     235.933E-03    -117.752E-03    -118.182E-03    -117.751E-03     235.933E-03    -118.182E-03    -526.986E-06    -88.0489E+06    -102.836E+06    -276.021E+06    -102.851E+06    -276.006E+06    -88.0489E+06     181.914E+03         41.5456
            1518     3.55545E-03     94.7556E-03         2.15374         2.09628        -5.44019         2.09585        -5.43975         2.15374    -870.693E-06     235.747E-03    -117.594E-03    -118.153E-03    -117.592E-03     235.745E-03    -118.153E-03     1.03840E-03    -75.0764E+06    -96.3253E+06    -265.056E+06    -96.3618E+06    -265.019E+06    -75.0764E+06     1.36845E+06         42.0180
            1519     4.44527E-03     94.7547E-03         2.13756         2.04837        -5.37441         2.04815        -5.37419         2.13756     47.7796E-03     235.750E-03    -117.575E-03    -118.175E-03    -117.564E-03     235.738E-03    -118.175E-03     3.71273E-03    -57.9694E+06    -90.5637E+06    -253.102E+06    -90.6517E+06    -253.014E+06    -57.9694E+06     3.31541E+06         42.6178
            1520     5.33405E-03     94.7584E-03         2.11846         1.99213        -5.29604         1.99196        -5.29588         2.11846     38.7745E-03     235.679E-03    -117.468E-03    -118.210E-03    -117.429E-03     235.639E-03    -118.210E-03     7.22887E-03    -43.7033E+06    -85.2867E+06    -242.872E+06    -85.3965E+06    -242.762E+06    -43.7033E+06     3.75973E+06         43.3386
            1521     6.22291E-03     94.7651E-03         2.09660         1.92650        -5.20585         1.92632        -5.20567         2.09660     65.2865E-03     235.494E-03    -117.267E-03    -118.227E-03    -117.163E-03     235.390E-03    -118.227E-03     11.7879E-03    -32.4820E+06    -80.0259E+06    -229.270E+06    -80.1212E+06    -229.175E+06    -32.4820E+06     3.64927E+06         44.1702
            1522     7.11224E-03     94.7772E-03         2.07218         1.85222        -5.10408         1.85212        -5.10398         2.07218     49.4402E-03     235.361E-03    -117.133E-03    -118.227E-03    -116.887E-03     235.115E-03    -118.227E-03     18.2210E-03    -19.3468E+06    -73.7595E+06    -200.092E+06    -73.8558E+06    -199.996E+06    -19.3468E+06     2.79653E+06         45.0974
            1523     8.00123E-03     94.7991E-03         2.04551         1.77034        -4.99144         1.77021        -4.99131         2.04551     59.3377E-03     235.079E-03    -116.898E-03    -118.182E-03    -116.384E-03     234.566E-03    -118.182E-03     26.4834E-03    -9.26481E+06    -66.5245E+06    -156.002E+06    -66.6501E+06    -155.877E+06    -9.26481E+06     2.48892E+06         46.0998
            1524     8.89099E-03     94.8308E-03         2.01670         1.68055        -4.86832         1.68046        -4.86823         2.01670     47.7722E-03     234.657E-03    -116.556E-03    -118.101E-03    -115.662E-03     233.763E-03    -118.101E-03     35.1372E-03     1.22422E+06    -59.7894E+06    -99.1918E+06    -60.4648E+06    -98.5164E+06     1.22422E+06     3.08844E+06         47.1513
            1525     9.78079E-03     94.8722E-03         1.98595         1.58398        -4.73554         1.58390        -4.73546         1.98595     43.9059E-03     234.693E-03    -116.712E-03    -117.981E-03    -115.104E-03     233.085E-03    -117.981E-03     46.8378E-03     22.8203E+06    -18.0197E+06    -59.4495E+06    -55.2052E+06    -13.1223E+06     13.6786E+06     3.23505E+06         48.2201
            1526     10.6702E-03     94.9313E-03         1.95383         1.48124        -4.59427         1.48117        -4.59420         1.95383     41.2131E-03     235.305E-03    -117.401E-03    -117.904E-03    -114.256E-03     232.160E-03    -117.904E-03     65.3849E-03     62.4394E+06     32.9395E+06    -49.5847E+06    -49.4735E+06     62.3283E+06     32.9395E+06     3.25389E+06         49.2707
            1527     11.5612E-03     95.0168E-03         1.92091         1.37290        -4.44539         1.37284        -4.44532         1.92091     37.8046E-03     237.371E-03    -117.906E-03    -119.465E-03    -113.674E-03     231.629E-03    -117.955E-03     88.9748E-03     91.8100E+06     67.0442E+06    -41.7889E+06    -41.7089E+06     91.7300E+06     67.0442E+06     3.21570E+06         50.2649
            1528     12.4521E-03     95.1354E-03         1.88746         1.25959        -4.28937         1.25952        -4.28931         1.88746     38.6329E-03     242.124E-03    -118.043E-03    -124.081E-03    -114.371E-03     232.414E-03    -118.043E-03     116.822E-03     105.001E+06     97.4259E+06    -33.2248E+06    -33.1540E+06     101.763E+06     100.593E+06     3.02059E+06         51.1645
            1529     13.3401E-03     95.2900E-03         1.85213         1.14098        -4.12516         1.14093        -4.12511         1.85213     32.0562E-03     242.508E-03    -118.057E-03    -124.451E-03    -114.737E-03     232.794E-03    -118.057E-03     116.959E-03     114.600E+06     109.119E+06    -24.9833E+06    -24.9375E+06     109.073E+06     114.600E+06     2.05164E+06         51.9334
            1530     14.2320E-03     95.4103E-03         1.81459         1.01682        -3.95184         1.01679        -3.95181         1.81459     24.4734E-03     248.640E-03    -118.001E-03    -130.639E-03    -115.876E-03     233.877E-03    -118.001E-03     142.137E-03     121.491E+06     115.288E+06    -14.4660E+06    -14.4502E+06     119.162E+06     117.602E+06     818.225E+03         52.5426
            1531     15.1205E-03     95.6327E-03         1.77360     888.642E-03        -3.77117     888.629E-03        -3.77116         1.77360     9.32013E-03     245.675E-03    -116.983E-03    -128.693E-03    -116.329E-03     234.250E-03    -117.920E-03     106.129E-03     125.722E+06     116.789E+06    -5.90097E+06    -5.89127E+06     125.712E+06     116.789E+06     860.743E+03         52.9704
            1532     888.810E-06     96.0297E-03         2.58683         2.05813        -5.80432         2.57461        -5.79622         2.06225     187.460E-03     235.878E-03    -117.207E-03    -118.671E-03    -118.670E-03     235.877E-03    -117.207E-03    -167.281E-06    -108.152E+06    -111.024E+06    -283.541E+06    -110.203E+06    -283.519E+06    -108.994E+06    -880.127E+03         40.9205
            1533     1.77771E-03     96.0261E-03         2.31317         2.29669        -5.77186         2.29474        -5.76991         2.31317    -60.6088E-03     236.294E-03    -117.927E-03    -118.367E-03    -118.233E-03     236.294E-03    -118.061E-03    -603.151E-06    -98.1717E+06    -106.262E+06    -280.166E+06    -106.270E+06    -280.159E+06    -98.1717E+06     178.988E+03         41.1322
            1534     2.66637E-03     96.0233E-03         2.30212         2.26588        -5.72768         2.26513        -5.72694         2.30212     32.3802E-03     236.020E-03    -117.821E-03    -118.199E-03    -117.849E-03     236.020E-03    -118.171E-03    -386.869E-06    -84.4917E+06    -102.427E+06    -275.719E+06    -102.449E+06    -275.696E+06    -84.4917E+06     528.238E+03         41.4746
            1535     3.55620E-03     96.0200E-03         2.28766         2.22333        -5.66848         2.22293        -5.66808         2.28766    -6.72194E-03     235.951E-03    -117.773E-03    -118.179E-03    -117.771E-03     235.950E-03    -118.179E-03     958.541E-06    -74.5828E+06    -97.9543E+06    -269.289E+06    -97.9973E+06    -269.246E+06    -74.5828E+06     1.60788E+06         41.9483
            1536     4.44432E-03     96.0206E-03         2.26955         2.16951        -5.59487         2.16933        -5.59468         2.26955     39.5862E-03     235.781E-03    -117.601E-03    -118.180E-03    -117.590E-03     235.770E-03    -118.180E-03     3.60515E-03    -64.8898E+06    -92.3738E+06    -256.635E+06    -92.4878E+06    -256.521E+06    -64.8898E+06     4.02501E+06         42.5505
            1537     5.33358E-03     96.0229E-03         2.24801         2.10645        -5.50733         2.10633        -5.50721         2.24801     28.7206E-03     235.446E-03    -117.246E-03    -118.200E-03    -117.206E-03     235.406E-03    -118.200E-03     7.17108E-03    -49.0834E+06    -86.5131E+06    -244.884E+06    -86.7307E+06    -244.667E+06    -49.0834E+06     5.71258E+06         43.2750
            1538     6.22351E-03     96.0300E-03         2.22325         2.03282        -5.40608         2.03269        -5.40596         2.22325     53.2402E-03     235.410E-03    -117.186E-03    -118.224E-03    -117.080E-03     235.304E-03    -118.224E-03     11.9640E-03    -30.4470E+06    -80.0792E+06    -227.894E+06    -80.2475E+06    -227.726E+06    -30.4470E+06     4.61765E+06         44.1120
            1539     7.11240E-03     96.0428E-03         2.19543         1.94951        -5.29147         1.94946        -5.29141         2.19543     37.3357E-03     235.412E-03    -117.194E-03    -118.218E-03    -116.945E-03     235.163E-03    -118.218E-03     18.3571E-03    -18.1487E+06    -73.1774E+06    -198.268E+06    -73.2460E+06    -198.200E+06    -18.1487E+06     2.27437E+06         45.0463
            1540     8.00165E-03     96.0644E-03         2.16480         1.85751        -5.16430         1.85743        -5.16422         2.16480     46.5812E-03     235.019E-03    -116.850E-03    -118.168E-03    -116.341E-03     234.510E-03    -118.168E-03     26.3904E-03    -11.0095E+06    -67.5387E+06    -158.339E+06    -67.6524E+06    -158.226E+06    -11.0095E+06     2.37267E+06         46.0578
            1541     8.89125E-03     96.0953E-03         2.13149         1.75673        -5.02544         1.75669        -5.02539         2.13149     34.9874E-03     234.590E-03    -116.504E-03    -118.086E-03    -115.606E-03     233.692E-03    -118.086E-03     35.1829E-03     199.830E+03    -61.0189E+06    -100.374E+06    -61.9742E+06    -99.4189E+06     199.830E+03     3.48675E+06         47.1203
            1542     9.78102E-03     96.1375E-03         2.09573         1.64853        -4.87561         1.64849        -4.87557         2.09573     31.5834E-03     234.482E-03    -116.523E-03    -117.959E-03    -114.896E-03     232.855E-03    -117.959E-03     47.0955E-03     22.0743E+06    -18.2284E+06    -59.4478E+06    -55.4438E+06    -13.8960E+06     13.7379E+06     3.80617E+06         48.2019
            1543     10.6713E-03     96.1964E-03         2.05797         1.53338        -4.71581         1.53335        -4.71577         2.05797     29.6832E-03     235.316E-03    -117.248E-03    -118.068E-03    -114.334E-03     232.209E-03    -117.875E-03     65.0799E-03     62.5310E+06     32.7765E+06    -48.9589E+06    -48.8248E+06     62.3970E+06     32.7765E+06     3.63503E+06         49.2663
            1544     11.5608E-03     96.2811E-03         2.01867         1.41195        -4.54709         1.41192        -4.54706         2.01867     27.4200E-03     237.506E-03    -117.935E-03    -119.571E-03    -113.886E-03     231.826E-03    -117.939E-03     88.4722E-03     91.7630E+06     66.3221E+06    -42.1435E+06    -42.0691E+06     91.6885E+06     66.3221E+06     3.04971E+06         50.2745
            1545     12.4508E-03     96.3999E-03         1.97809         1.28527        -4.37026         1.28523        -4.37022         1.97809     29.2390E-03     241.712E-03    -118.027E-03    -123.685E-03    -113.978E-03     232.005E-03    -118.027E-03     116.643E-03     104.331E+06     97.1608E+06    -33.3848E+06    -33.3247E+06     101.123E+06     100.308E+06     2.73055E+06         51.1878
            1546     13.3424E-03     96.5568E-03         1.93524         1.15314        -4.18472         1.15311        -4.18469         1.93524     25.0315E-03     242.454E-03    -118.029E-03    -124.425E-03    -114.705E-03     232.733E-03    -118.029E-03     116.944E-03     116.187E+06     111.648E+06    -22.9379E+06    -22.8937E+06     111.604E+06     116.187E+06     2.00118E+06         51.9690
            1547     14.2302E-03     96.6747E-03         1.88988         1.01638        -3.99093         1.01635        -3.99091         1.88988     19.7644E-03     249.179E-03    -117.987E-03    -131.192E-03    -116.346E-03     234.333E-03    -117.987E-03     142.643E-03     122.164E+06     116.820E+06    -14.6246E+06    -14.6087E+06     120.756E+06     118.212E+06     368.278E+03         52.5876
            1548     15.1206E-03     96.9000E-03         1.84125     875.820E-03        -3.78899     875.811E-03        -3.78898         1.84125     7.35498E-03     245.672E-03    -116.728E-03    -128.944E-03    -116.224E-03     234.140E-03    -117.916E-03     106.988E-03     125.461E+06     116.044E+06    -7.32692E+06    -7.31610E+06     125.450E+06     116.044E+06     463.383E+03         53.0214
            1549     890.125E-06     97.2944E-03         2.66717         2.17700        -5.97682         2.65699        -5.96948         2.17985     177.450E-03     235.753E-03    -117.340E-03    -118.412E-03    -118.278E-03     235.751E-03    -117.473E-03    -554.651E-06    -107.145E+06    -112.032E+06    -282.594E+06    -112.055E+06    -282.570E+06    -107.145E+06    -757.684E+03         40.8464
            1550     1.77834E-03     97.2918E-03         2.41341         2.39649        -5.94241         2.39470        -5.94062         2.41341    -62.2078E-03     236.046E-03    -117.843E-03    -118.203E-03    -118.069E-03     236.044E-03    -117.975E-03    -1.31413E-03    -100.191E+06    -108.489E+06    -281.888E+06    -108.502E+06    -281.875E+06    -100.191E+06     307.170E+03         41.0584
            1551     2.66715E-03     97.2882E-03         2.40180         2.36198        -5.89425         2.36131        -5.89358         2.40180     26.9171E-03     236.259E-03    -118.075E-03    -118.184E-03    -118.154E-03     236.258E-03    -118.105E-03    -677.894E-06    -90.0440E+06    -104.682E+06    -277.198E+06    -104.708E+06    -277.172E+06    -90.0440E+06     1.73137E+06         41.4014
            1552     3.55492E-03     97.2858E-03         2.38614         2.31631        -5.83054         2.31595        -5.83019         2.38614    -13.5518E-03     236.017E-03    -117.817E-03    -118.200E-03    -117.822E-03     236.015E-03    -118.193E-03     964.808E-06    -76.5999E+06    -99.3351E+06    -271.165E+06    -99.3700E+06    -271.130E+06    -76.5999E+06     2.31871E+06         41.8764
            1553     4.44466E-03     97.2855E-03         2.36647         2.25778        -5.75070         2.25763        -5.75055         2.36647     28.8840E-03     235.540E-03    -117.348E-03    -118.192E-03    -117.336E-03     235.527E-03    -118.192E-03     3.87062E-03    -63.5345E+06    -92.8772E+06    -259.857E+06    -92.9304E+06    -259.804E+06    -63.5345E+06     2.73278E+06         42.4809
            1554     5.33420E-03     97.2876E-03         2.34297         2.18953        -5.65555         2.18943        -5.65545         2.34297     16.9388E-03     235.440E-03    -117.258E-03    -118.182E-03    -117.214E-03     235.396E-03    -118.182E-03     7.57911E-03    -47.8496E+06    -84.6736E+06    -247.561E+06    -84.8027E+06    -247.432E+06    -47.8496E+06     3.65575E+06         43.2093
            1555     6.22305E-03     97.2949E-03         2.31590         2.10974        -5.54550         2.10966        -5.54542         2.31590     39.3182E-03     235.480E-03    -117.272E-03    -118.209E-03    -117.159E-03     235.367E-03    -118.209E-03     12.3311E-03    -28.6596E+06    -76.5978E+06    -226.766E+06    -76.7954E+06    -226.569E+06    -28.6596E+06     4.43366E+06         44.0516
            1556     7.11234E-03     97.3087E-03         2.28534         2.01939        -5.42099         2.01936        -5.42096         2.28534     23.4881E-03     235.250E-03    -117.037E-03    -118.213E-03    -116.790E-03     235.003E-03    -118.213E-03     18.3342E-03    -14.4720E+06    -70.5269E+06    -198.579E+06    -70.7568E+06    -198.349E+06    -14.4720E+06     4.87032E+06         44.9933
            1557     8.00170E-03     97.3290E-03         2.25148         1.91966        -5.28276         1.91962        -5.28272         2.25148     31.7621E-03     234.942E-03    -116.792E-03    -118.150E-03    -116.281E-03     234.432E-03    -118.150E-03     26.3629E-03    -8.34149E+06    -66.1553E+06    -158.974E+06    -66.3808E+06    -158.748E+06    -8.34149E+06     4.32933E+06         46.0142
            1558     8.89126E-03     97.3606E-03         2.21451         1.81063        -5.13167         1.81062        -5.13166         2.21451     20.8024E-03     234.708E-03    -116.644E-03    -118.064E-03    -115.743E-03     233.807E-03    -118.064E-03     35.2758E-03     671.136E+03    -60.6204E+06    -100.846E+06    -61.6097E+06    -99.8568E+06     671.136E+03     3.71436E+06         47.0879
            1559     9.78115E-03     97.4018E-03         2.17463         1.69347        -4.96838         1.69346        -4.96837         2.17463     18.0666E-03     234.522E-03    -116.572E-03    -117.951E-03    -114.972E-03     232.922E-03    -117.951E-03     46.7260E-03     21.7746E+06    -17.6004E+06    -59.9361E+06    -55.4276E+06    -14.5763E+06     14.2419E+06     3.76660E+06         48.1823
            1560     10.6713E-03     97.4613E-03         2.13219         1.56897        -4.79422         1.56896        -4.79421         2.13219     16.8744E-03     235.313E-03    -117.219E-03    -118.094E-03    -114.347E-03     232.215E-03    -117.868E-03     64.9349E-03     62.1133E+06     32.6719E+06    -48.8588E+06    -48.7326E+06     61.9872E+06     32.6719E+06     3.64759E+06         49.2607
            1561     11.5608E-03     97.5477E-03         2.08751         1.43771        -4.61022         1.43770        -4.61021         2.08751     15.8330E-03     237.600E-03    -117.937E-03    -119.663E-03    -114.008E-03     231.944E-03    -117.937E-03     88.3527E-03     92.8568E+06     66.4011E+06    -41.4083E+06    -41.3271E+06     92.7756E+06     66.4011E+06     3.22161E+06         50.2833
            1562     12.4513E-03     97.6632E-03         2.04078         1.30078        -4.41686         1.30076        -4.41685         2.04078     18.9048E-03     241.778E-03    -118.037E-03    -123.741E-03    -114.057E-03     232.094E-03    -118.037E-03     116.481E-03     105.935E+06     97.7224E+06    -32.7773E+06    -32.7389E+06     102.231E+06     101.388E+06     2.16173E+06         51.2106
            1563     13.3415E-03     97.8214E-03         1.99145         1.15866        -4.21461         1.15864        -4.21459         1.99145     16.9861E-03     241.919E-03    -118.017E-03    -123.902E-03    -114.147E-03     232.165E-03    -118.017E-03     117.006E-03     115.534E+06     111.061E+06    -23.4038E+06    -23.3800E+06     111.037E+06     115.534E+06     1.59503E+06         52.0045
            1564     14.2324E-03     97.9427E-03         1.93935         1.01179        -4.00363         1.01178        -4.00362         1.93935     13.3756E-03     248.665E-03    -117.935E-03    -130.730E-03    -115.794E-03     233.729E-03    -117.935E-03     142.922E-03     121.765E+06     116.356E+06    -14.8836E+06    -14.8585E+06     120.932E+06     117.163E+06     1.13503E+06         52.6334
            1565     15.1232E-03     98.1622E-03         1.88422     861.821E-03        -3.78623     861.817E-03        -3.78623         1.88422     4.52159E-03     246.237E-03    -117.251E-03    -128.986E-03    -116.808E-03     234.681E-03    -117.873E-03     106.307E-03     127.217E+06     117.431E+06    -7.06940E+06    -7.05571E+06     127.203E+06     117.431E+06     592.980E+03         53.0734
            1566     887.309E-06     98.5585E-03         2.71975         2.24408        -6.07044         2.71164        -6.06417         2.24593     161.907E-03     236.507E-03    -118.001E-03    -118.506E-03    -118.170E-03     236.505E-03    -118.335E-03    -1.35658E-03    -105.905E+06    -111.927E+06    -282.218E+06    -110.804E+06    -282.211E+06    -107.034E+06     935.988E+03         40.7700
            1567     1.77772E-03     98.5566E-03         2.47409         2.45694        -6.03611         2.45541        -6.03458         2.47409    -62.7019E-03     235.970E-03    -117.705E-03    -118.266E-03    -117.746E-03     235.968E-03    -118.222E-03    -1.45768E-03    -97.8044E+06    -106.615E+06    -284.238E+06    -106.630E+06    -284.223E+06    -97.8044E+06     1.36277E+06         40.9822
            1568     2.66634E-03     98.5541E-03         2.46218         2.41991        -5.98644         2.41933        -5.98585         2.46218     18.0041E-03     235.925E-03    -117.732E-03    -118.193E-03    -117.783E-03     235.924E-03    -118.142E-03    -600.344E-06    -87.1008E+06    -101.266E+06    -279.323E+06    -101.294E+06    -279.295E+06    -87.1008E+06     2.16239E+06         41.3260
            1569     3.55584E-03     98.5513E-03         2.44574         2.37231        -5.91998         2.37200        -5.91967         2.44574    -21.8242E-03     235.814E-03    -117.661E-03    -118.152E-03    -117.667E-03     235.812E-03    -118.145E-03     1.23301E-03    -73.8353E+06    -96.4099E+06    -271.303E+06    -96.4363E+06    -271.277E+06    -73.8353E+06     2.07707E+06         41.8024
            1570     4.44503E-03     98.5492E-03         2.42507         2.31086        -5.83593         2.31074        -5.83580         2.42507     16.2876E-03     235.618E-03    -117.464E-03    -118.153E-03    -117.453E-03     235.606E-03    -118.153E-03     3.66466E-03    -60.2725E+06    -91.2021E+06    -261.318E+06    -91.2350E+06    -261.285E+06    -60.2725E+06     2.27479E+06         42.4093
            1571     5.33434E-03     98.5530E-03         2.40030         2.23920        -5.73580         2.23913        -5.73573         2.40030     3.36080E-03     235.421E-03    -117.261E-03    -118.161E-03    -117.216E-03     235.377E-03    -118.161E-03     7.57379E-03    -45.9624E+06    -85.8519E+06    -248.645E+06    -85.8942E+06    -248.602E+06    -45.9624E+06     2.33900E+06         43.1414
            1572     6.22350E-03     98.5602E-03         2.37163         2.15520        -5.61989         2.15515        -5.61985         2.37163     23.1129E-03     235.340E-03    -117.169E-03    -118.171E-03    -117.050E-03     235.221E-03    -118.171E-03     12.6436E-03    -31.0133E+06    -79.8482E+06    -230.480E+06    -79.9998E+06    -230.328E+06    -31.0133E+06     4.04793E+06         43.9893
            1573     7.11275E-03     98.5736E-03         2.33912         2.06021        -5.48864         2.06020        -5.48863         2.33912     7.82540E-03     235.142E-03    -116.978E-03    -118.164E-03    -116.729E-03     234.893E-03    -118.164E-03     18.4406E-03    -17.1743E+06    -72.5922E+06    -200.788E+06    -72.9115E+06    -200.469E+06    -17.1743E+06     6.19292E+06         44.9387
            1574     8.00246E-03     98.5938E-03         2.30295         1.95543        -5.34272         1.95542        -5.34271         2.30295     15.2101E-03     234.956E-03    -116.842E-03    -118.115E-03    -116.332E-03     234.447E-03    -118.115E-03     26.3321E-03    -7.13872E+06    -65.2105E+06    -157.158E+06    -65.5662E+06    -156.803E+06    -7.13872E+06     5.68965E+06         45.9691
            1575     8.89189E-03     98.6259E-03         2.26330         1.84081        -5.18320         1.84081        -5.18319         2.26330     5.07260E-03     234.841E-03    -116.802E-03    -118.039E-03    -115.904E-03     233.944E-03    -118.039E-03     35.2346E-03     1.03053E+06    -58.6567E+06    -101.232E+06    -59.7979E+06    -100.091E+06     1.03053E+06     4.81664E+06         47.0541
            1576     9.78096E-03     98.6670E-03         2.22031         1.71755        -5.01074         1.71755        -5.01074         2.22031     2.98974E-03     234.651E-03    -116.719E-03    -117.932E-03    -115.115E-03     233.047E-03    -117.932E-03     46.7678E-03     21.0072E+06    -17.9855E+06    -60.9221E+06    -54.9408E+06    -15.2805E+06     12.3209E+06     4.38038E+06         48.1615
            1577     10.6705E-03     98.7263E-03         2.17424         1.58668        -4.82647         1.58668        -4.82647         2.17424     2.62573E-03     235.235E-03    -117.263E-03    -117.972E-03    -114.226E-03     232.084E-03    -117.858E-03     65.4144E-03     62.6741E+06     32.3431E+06    -48.8793E+06    -48.7560E+06     62.5507E+06     32.3431E+06     3.51214E+06         49.2541
            1578     11.5614E-03     98.8121E-03         2.12528         1.44869        -4.63121         1.44868        -4.63121         2.12528     2.96694E-03     237.601E-03    -117.924E-03    -119.677E-03    -113.987E-03     231.911E-03    -117.924E-03     88.7007E-03     93.5406E+06     66.9288E+06    -41.1100E+06    -41.0403E+06     93.4709E+06     66.9288E+06     3.05704E+06         50.2917
            1579     12.4510E-03     98.9291E-03         2.07354         1.30498        -4.42603         1.30498        -4.42603         2.07354     7.28563E-03     241.956E-03    -118.026E-03    -123.929E-03    -114.235E-03     232.261E-03    -118.026E-03     116.575E-03     106.574E+06     98.7509E+06    -31.9083E+06    -31.8487E+06     103.658E+06     101.607E+06     2.73265E+06         51.2333
            1580     13.3407E-03     99.0861E-03         2.01889         1.15617        -4.21188         1.15616        -4.21188         2.01889     7.26118E-03     241.568E-03    -118.003E-03    -123.565E-03    -113.804E-03     231.806E-03    -118.003E-03     116.923E-03     115.599E+06     112.201E+06    -23.2252E+06    -23.1979E+06     112.173E+06     115.599E+06     1.59540E+06         52.0401
            1581     14.2334E-03     99.2034E-03         1.96129         1.00294        -3.98930         1.00294        -3.98929         1.96129     7.01962E-03     248.648E-03    -117.907E-03    -130.740E-03    -115.747E-03     233.655E-03    -117.907E-03     143.174E-03     122.028E+06     116.608E+06    -14.5920E+06    -14.5797E+06     121.473E+06     117.151E+06     1.11636E+06         52.6792
            1582     15.1219E-03     99.4326E-03         1.90104     847.627E-03        -3.76115     847.625E-03        -3.76114         1.90104     1.56962E-03     246.459E-03    -117.079E-03    -129.380E-03    -117.033E-03     234.878E-03    -117.846E-03     105.480E-03     128.018E+06     116.957E+06    -6.47579E+06    -6.46577E+06     128.008E+06     116.957E+06     763.562E+03         53.1257
            1583     889.028E-06     99.8237E-03         2.74314         2.25750        -6.08250         2.73533        -6.07743         2.26023     140.327E-03     236.399E-03    -117.887E-03    -118.512E-03    -118.309E-03     236.397E-03    -118.088E-03    -1.09747E-03    -107.608E+06    -111.933E+06    -284.138E+06    -110.831E+06    -284.111E+06    -108.737E+06     1.12898E+06         40.6914
            1584     1.77691E-03     99.8221E-03         2.49284         2.47454        -6.04939         2.47327        -6.04812         2.49284    -63.6251E-03     236.016E-03    -117.675E-03    -118.341E-03    -117.823E-03     236.016E-03    -118.192E-03    -552.418E-06    -100.067E+06    -108.922E+06    -286.601E+06    -108.950E+06    -286.573E+06    -100.067E+06     1.75495E+06         40.9040
            1585     2.66695E-03     99.8181E-03         2.48070         2.43771        -5.99914         2.43722        -5.99866         2.48070     7.01310E-03     235.537E-03    -117.450E-03    -118.087E-03    -117.449E-03     235.537E-03    -118.087E-03    -440.015E-06    -90.3260E+06    -104.710E+06    -280.452E+06    -104.732E+06    -280.431E+06    -90.3260E+06     1.77024E+06         41.2486
            1586     3.55660E-03     99.8156E-03         2.46410         2.38952        -5.93192         2.38925        -5.93165         2.46410    -31.3106E-03     235.619E-03    -117.585E-03    -118.034E-03    -117.583E-03     235.617E-03    -118.034E-03     1.23923E-03    -78.6794E+06    -98.8085E+06    -271.698E+06    -98.8406E+06    -271.666E+06    -78.6794E+06     2.33300E+06         41.7265
            1587     4.44489E-03     99.8156E-03         2.44313         2.32709        -5.84678         2.32699        -5.84668         2.44313     1.44647E-03     235.729E-03    -117.652E-03    -118.077E-03    -117.641E-03     235.718E-03    -118.077E-03     3.61147E-03    -63.9745E+06    -93.1011E+06    -263.483E+06    -93.1613E+06    -263.423E+06    -63.9745E+06     3.08713E+06         42.3359
            1588     5.33397E-03     99.8165E-03         2.41784         2.25391        -5.74479         2.25385        -5.74472         2.41784    -11.7686E-03     235.422E-03    -117.287E-03    -118.135E-03    -117.241E-03     235.376E-03    -118.135E-03     7.63301E-03    -45.4636E+06    -87.5512E+06    -249.380E+06    -87.6499E+06    -249.282E+06    -45.4636E+06     3.95603E+06         43.0718
            1589     6.22393E-03     99.8255E-03         2.38841         2.16819        -5.62597         2.16816        -5.62595         2.38841     5.36278E-03     235.131E-03    -116.986E-03    -118.145E-03    -116.871E-03     235.016E-03    -118.145E-03     12.5121E-03    -30.2286E+06    -80.9710E+06    -233.757E+06    -81.0718E+06    -233.656E+06    -30.2286E+06     3.87399E+06         43.9255
            1590     7.11326E-03     99.8381E-03         2.35489         2.07105        -5.49144         2.07104        -5.49143         2.35489    -9.39273E-03     235.041E-03    -116.939E-03    -118.103E-03    -116.688E-03     234.791E-03    -118.103E-03     18.4231E-03    -20.4783E+06    -72.7413E+06    -202.485E+06    -72.9095E+06    -202.317E+06    -20.4783E+06     4.32852E+06         44.8825
            1591     8.00218E-03     99.8593E-03         2.31741         1.96366        -5.34177         1.96366        -5.34176         2.31741    -3.04471E-03     235.015E-03    -116.953E-03    -118.062E-03    -116.436E-03     234.498E-03    -118.062E-03     26.5641E-03    -9.67202E+06    -65.3729E+06    -156.933E+06    -65.6942E+06    -156.612E+06    -9.67202E+06     5.19447E+06         45.9225
            1592     8.89152E-03     99.8907E-03         2.27612         1.84619        -5.17779         1.84618        -5.17778         2.27612    -12.2844E-03     234.770E-03    -116.763E-03    -118.006E-03    -115.852E-03     233.858E-03    -118.006E-03     35.4789E-03     851.775E+03    -58.0951E+06    -102.151E+06    -59.2770E+06    -100.970E+06     851.775E+03     5.21513E+06         47.0190
            1593     9.78143E-03     99.9327E-03         2.23114         1.71985        -5.00009         1.71984        -5.00008         2.23114    -13.6549E-03     234.596E-03    -116.702E-03    -117.894E-03    -115.081E-03     232.976E-03    -117.894E-03     47.0491E-03     21.7356E+06    -17.0464E+06    -59.7339E+06    -52.9601E+06    -14.5763E+06     12.4918E+06     4.82842E+06         48.1396
            1594     10.6719E-03     99.9902E-03         2.18259         1.58570        -4.80992         1.58569        -4.80991         2.18259    -13.0219E-03     235.380E-03    -117.328E-03    -118.052E-03    -114.417E-03     232.248E-03    -117.831E-03     65.2878E-03     63.5658E+06     32.5833E+06    -47.8895E+06    -47.7046E+06     63.3809E+06     32.5833E+06     4.29340E+06         49.2468
            1595     11.5615E-03     100.078E-03         2.13056         1.44411        -4.60820         1.44410        -4.60819         2.13056    -11.3050E-03     237.535E-03    -117.904E-03    -119.631E-03    -113.917E-03     231.821E-03    -117.904E-03     88.7924E-03     94.4558E+06     66.9768E+06    -41.1895E+06    -41.0979E+06     94.3643E+06     66.9768E+06     3.38143E+06         50.2994
            1596     12.4513E-03     100.195E-03         2.07505         1.29689        -4.39603         1.29689        -4.39602         2.07505    -5.77053E-03     241.559E-03    -117.991E-03    -123.568E-03    -113.892E-03     231.883E-03    -117.991E-03     116.423E-03     106.641E+06     98.5980E+06    -32.2427E+06    -32.1936E+06     104.289E+06     100.901E+06     2.30594E+06         51.2559
            1597     13.3433E-03     100.349E-03         2.01642         1.14505        -4.17507         1.14505        -4.17507         2.01642    -3.29979E-03     242.047E-03    -117.981E-03    -124.065E-03    -114.402E-03     232.383E-03    -117.981E-03     116.478E-03     116.874E+06     113.703E+06    -22.1025E+06    -22.0623E+06     114.334E+06     116.202E+06     1.95787E+06         52.0757
            1598     14.2318E-03     100.469E-03         1.95473     990.008E-03        -3.94693     990.007E-03        -3.94693         1.95473    -799.914E-06     249.009E-03    -117.920E-03    -131.089E-03    -116.067E-03     233.987E-03    -117.920E-03     143.218E-03     123.635E+06     117.662E+06    -13.7483E+06    -13.7280E+06     123.418E+06     117.859E+06     1.29869E+06         52.7250
            1599     15.1227E-03     100.698E-03         1.89078     833.035E-03        -3.71320     833.034E-03        -3.71320         1.89078    -1.67785E-03     245.789E-03    -116.793E-03    -128.996E-03    -116.321E-03     234.159E-03    -117.838E-03     105.201E-03     127.414E+06     114.628E+06    -8.02296E+06    -8.02162E+06     127.412E+06     114.628E+06     358.416E+03         53.1782
            1600     889.577E-06     101.090E-03         2.72984         2.22043        -6.01209         2.72247        -6.00824         2.22395     114.068E-03     235.256E-03    -117.278E-03    -117.978E-03    -117.976E-03     235.254E-03    -117.278E-03    -735.483E-06    -109.516E+06    -112.214E+06    -288.381E+06    -112.248E+06    -288.347E+06    -109.516E+06     1.55218E+06         40.6107
            1601     1.77854E-03     101.087E-03         2.46830         2.44996        -5.98044         2.44895        -5.97942         2.46830    -63.2986E-03     235.780E-03    -117.634E-03    -118.146E-03    -118.013E-03     235.779E-03    -117.766E-03    -562.721E-06    -101.622E+06    -109.620E+06    -287.862E+06    -109.674E+06    -287.807E+06    -101.622E+06     2.72691E+06         40.8238
            1602     2.66709E-03     101.082E-03         2.45650         2.41437        -5.93120         2.41397        -5.93080         2.45650    -4.53805E-03     235.826E-03    -117.694E-03    -118.133E-03    -117.904E-03     235.826E-03    -117.922E-03    -323.721E-06    -90.9332E+06    -105.696E+06    -280.840E+06    -105.728E+06    -280.807E+06    -90.9332E+06     1.95237E+06         41.1692
            1603     3.55583E-03     101.081E-03         2.44026         2.36670        -5.86518         2.36647        -5.86494         2.44026    -41.1512E-03     235.563E-03    -117.569E-03    -117.993E-03    -117.581E-03     235.561E-03    -117.980E-03     1.28836E-03    -79.8162E+06    -100.771E+06    -273.163E+06    -100.787E+06    -273.146E+06    -79.8162E+06     1.59452E+06         41.6488
            1604     4.44592E-03     101.080E-03         2.41962         2.30542        -5.78095         2.30533        -5.78086         2.41962    -14.2401E-03     235.428E-03    -117.414E-03    -118.014E-03    -117.403E-03     235.417E-03    -118.014E-03     3.71080E-03    -65.0451E+06    -94.4840E+06    -265.949E+06    -94.5246E+06    -265.908E+06    -65.0451E+06     2.28433E+06         42.2609
            1605     5.33488E-03     101.082E-03         2.39460         2.23284        -5.67996         2.23277        -5.67989         2.39460    -27.5996E-03     235.461E-03    -117.391E-03    -118.070E-03    -117.343E-03     235.413E-03    -118.070E-03     7.79249E-03    -45.1653E+06    -86.2952E+06    -250.997E+06    -86.3806E+06    -250.912E+06    -45.1653E+06     3.51623E+06         43.0009
            1606     6.22348E-03     101.089E-03         2.36530         2.14782        -5.56216         2.14779        -5.56213         2.36530    -13.7276E-03     235.214E-03    -117.107E-03    -118.106E-03    -116.990E-03     235.096E-03    -118.106E-03     12.6338E-03    -28.6992E+06    -78.3289E+06    -233.733E+06    -78.4306E+06    -233.631E+06    -28.6992E+06     3.92195E+06         43.8601
            1607     7.11341E-03     101.103E-03         2.33173         2.05096        -5.42810         2.05093        -5.42806         2.33173    -28.2387E-03     234.894E-03    -116.830E-03    -118.065E-03    -116.574E-03     234.638E-03    -118.065E-03     18.6064E-03    -20.7072E+06    -72.2011E+06    -203.581E+06    -72.3039E+06    -203.478E+06    -20.7072E+06     3.60294E+06         44.8247
            1608     8.00320E-03     101.124E-03         2.29395         1.94365        -5.27816         1.94363        -5.27814         2.29395    -23.0783E-03     234.808E-03    -116.804E-03    -118.004E-03    -116.274E-03     234.279E-03    -118.004E-03     26.8726E-03    -11.7433E+06    -65.5125E+06    -158.401E+06    -65.6995E+06    -158.214E+06    -11.7433E+06     3.77372E+06         45.8745
            1609     8.89250E-03     101.156E-03         2.25211         1.82629        -5.11363         1.82625        -5.11359         2.25211    -31.2633E-03     234.689E-03    -116.741E-03    -117.948E-03    -115.827E-03     233.775E-03    -117.948E-03     35.5496E-03     16.2157E+03    -57.8538E+06    -102.773E+06    -58.6670E+06    -101.959E+06     16.2157E+03     4.16841E+06         46.9827
            1610     9.78234E-03     101.197E-03         2.20631         1.69985        -4.93520         1.69981        -4.93516         2.20631    -32.0108E-03     234.793E-03    -116.941E-03    -117.852E-03    -115.317E-03     233.169E-03    -117.852E-03     47.0982E-03     21.6534E+06    -17.2909E+06    -59.4472E+06    -52.5467E+06    -14.8473E+06     12.3093E+06     4.92100E+06         48.1166
            1611     10.6711E-03     101.257E-03         2.15653         1.56559        -4.74393         1.56555        -4.74389         2.15653    -30.2145E-03     235.632E-03    -117.534E-03    -118.099E-03    -114.739E-03     232.548E-03    -117.809E-03     64.9320E-03     63.8555E+06     31.3621E+06    -47.2880E+06    -47.0043E+06     63.5717E+06     31.3621E+06     5.44977E+06         49.2382
            1612     11.5610E-03     101.342E-03         2.10272         1.42391        -4.54061         1.42388        -4.54058         2.10272    -27.1766E-03     237.334E-03    -117.894E-03    -119.439E-03    -113.830E-03     231.724E-03    -117.894E-03     87.8854E-03     96.3623E+06     66.1100E+06    -40.1552E+06    -40.0083E+06     96.2154E+06     66.1100E+06     4.31266E+06         50.3060
            1613     12.4527E-03     101.459E-03         2.04482         1.27672        -4.32640         1.27670        -4.32638         2.04482    -19.8656E-03     241.375E-03    -117.986E-03    -123.389E-03    -113.873E-03     231.860E-03    -117.986E-03     115.452E-03     108.100E+06     99.3840E+06    -31.8266E+06    -31.7638E+06     106.424E+06     100.997E+06     2.60854E+06         51.2775
            1614     13.3415E-03     101.614E-03         1.98361         1.12573        -4.10411         1.12571        -4.10410         1.98361    -14.6157E-03     242.232E-03    -117.981E-03    -124.251E-03    -114.605E-03     232.587E-03    -117.981E-03     116.580E-03     115.236E+06     112.526E+06    -23.8103E+06    -23.7689E+06     113.581E+06     114.140E+06     1.96420E+06         52.1107
            1615     14.2311E-03     101.737E-03         1.91931     972.025E-03        -3.87522     972.020E-03        -3.87522         1.91931    -8.97084E-03     248.638E-03    -117.916E-03    -130.722E-03    -115.757E-03     233.674E-03    -117.916E-03     143.068E-03     122.653E+06     115.216E+06    -15.5984E+06    -15.5783E+06     122.633E+06     115.216E+06     1.30358E+06         52.7707
            1616     15.1226E-03     101.957E-03         1.85321     817.508E-03        -3.64299     817.507E-03        -3.64299         1.85321    -5.00728E-03     245.496E-03    -116.980E-03    -128.516E-03    -116.132E-03     233.965E-03    -117.833E-03     105.782E-03     129.645E+06     115.586E+06    -6.57967E+06    -6.57690E+06     129.642E+06     115.586E+06     106.906E+03         53.2310
            1617     889.616E-06     102.353E-03         2.67992         2.13458        -5.85965         2.67350        -5.85688         2.13823     89.1425E-03     234.806E-03    -117.057E-03    -117.749E-03    -117.748E-03     234.805E-03    -117.057E-03    -843.001E-06    -112.751E+06    -116.698E+06    -293.268E+06    -116.477E+06    -293.233E+06    -113.007E+06     2.26292E+06         40.5280
            1618     1.77934E-03     102.351E-03         2.40126         2.38365        -5.82994         2.38289        -5.82918         2.40126    -61.6726E-03     235.314E-03    -117.533E-03    -117.781E-03    -117.772E-03     235.313E-03    -117.541E-03    -975.622E-06    -103.232E+06    -111.477E+06    -289.006E+06    -111.513E+06    -288.970E+06    -103.232E+06     1.92958E+06         40.7418
            1619     2.66770E-03     102.349E-03         2.39011         2.34987        -5.78294         2.34955        -5.78262         2.39011    -16.4871E-03     235.716E-03    -117.731E-03    -117.985E-03    -117.977E-03     235.715E-03    -117.739E-03    -204.509E-06    -91.1169E+06    -105.742E+06    -281.048E+06    -105.778E+06    -281.011E+06    -91.1169E+06     1.91176E+06         41.0882
            1620     3.55660E-03     102.345E-03         2.37468         2.30420        -5.71984         2.30398        -5.71963         2.37468    -50.5360E-03     235.591E-03    -117.650E-03    -117.940E-03    -117.696E-03     235.588E-03    -117.892E-03     1.43202E-03    -75.7789E+06    -100.770E+06    -274.337E+06    -100.797E+06    -274.310E+06    -75.7789E+06     1.97048E+06         41.5695
            1621     4.44546E-03     102.344E-03         2.35492         2.24552        -5.63894         2.24542        -5.63885         2.35492    -29.8525E-03     235.361E-03    -117.414E-03    -117.947E-03    -117.401E-03     235.348E-03    -117.947E-03     3.95295E-03    -63.9001E+06    -95.0702E+06    -266.271E+06    -95.0891E+06    -266.253E+06    -63.9001E+06     1.34960E+06         42.1843
            1622     5.33509E-03     102.347E-03         2.33080         2.17547        -5.54168         2.17538        -5.54158         2.33080    -44.1811E-03     235.259E-03    -117.285E-03    -117.974E-03    -117.239E-03     235.213E-03    -117.974E-03     7.70760E-03    -50.8349E+06    -87.6058E+06    -252.361E+06    -87.6317E+06    -252.335E+06    -50.8349E+06     970.212E+03         42.9285
            1623     6.22473E-03     102.355E-03         2.30239         2.09334        -5.42776         2.09328        -5.42770         2.30239    -34.0923E-03     235.168E-03    -117.149E-03    -118.019E-03    -117.030E-03     235.050E-03    -118.019E-03     12.6599E-03    -33.4976E+06    -79.2056E+06    -235.580E+06    -79.2768E+06    -235.509E+06    -33.4976E+06     2.53264E+06         43.7936
            1624     7.11348E-03     102.367E-03         2.26966         1.99953        -5.29766         1.99944        -5.29758         2.26966    -48.1304E-03     234.998E-03    -116.987E-03    -118.011E-03    -116.728E-03     234.739E-03    -118.011E-03     18.7684E-03    -21.8790E+06    -71.9464E+06    -202.898E+06    -72.0250E+06    -202.820E+06    -21.8790E+06     3.13244E+06         44.7657
            1625     8.00309E-03     102.389E-03         2.23259         1.89525        -5.15162         1.89518        -5.15154         2.23259    -44.2448E-03     234.724E-03    -116.766E-03    -117.958E-03    -116.249E-03     234.208E-03    -117.958E-03     26.5716E-03    -13.8752E+06    -64.9835E+06    -158.308E+06    -65.0327E+06    -158.259E+06    -13.8752E+06     2.01403E+06         45.8249
            1626     8.89300E-03     102.421E-03         2.19130         1.78089        -4.99082         1.78079        -4.99072         2.19130    -51.6924E-03     234.667E-03    -116.765E-03    -117.902E-03    -115.870E-03     233.771E-03    -117.902E-03     35.1728E-03    -3.20722E+06    -57.4273E+06    -103.970E+06    -57.8941E+06    -103.503E+06    -3.20722E+06     2.54895E+06         46.9447
            1627     9.78191E-03     102.462E-03         2.14583         1.65752        -4.81608         1.65741        -4.81597         2.14583    -52.1018E-03     234.850E-03    -117.035E-03    -117.815E-03    -115.398E-03     233.213E-03    -117.815E-03     47.2426E-03     18.1737E+06    -19.2046E+06    -59.9425E+06    -51.7404E+06    -18.0670E+06     8.83403E+06     4.63455E+06         48.0920
            1628     10.6718E-03     102.523E-03         2.09606         1.52648        -4.62841         1.52637        -4.62830         2.09606    -48.9770E-03     235.560E-03    -117.490E-03    -118.069E-03    -114.658E-03     232.434E-03    -117.775E-03     65.3660E-03     63.6726E+06     29.6107E+06    -45.6178E+06    -45.2904E+06     63.3451E+06     29.6107E+06     5.82533E+06         49.2284
            1629     11.5613E-03     102.607E-03         2.04184         1.38834        -4.42868         1.38825        -4.42859         2.04184    -44.2713E-03     237.564E-03    -117.870E-03    -119.694E-03    -114.067E-03     231.937E-03    -117.870E-03     88.1379E-03     98.5272E+06     65.4402E+06    -39.1959E+06    -38.9780E+06     98.3093E+06     65.4402E+06     5.39241E+06         50.3117
            1630     12.4504E-03     102.723E-03         1.98303         1.24514        -4.21806         1.24508        -4.21800         1.98303    -34.8828E-03     241.847E-03    -117.980E-03    -123.867E-03    -114.178E-03     232.158E-03    -117.980E-03     116.508E-03     108.331E+06     99.4796E+06    -31.5518E+06    -31.4136E+06     107.828E+06     99.8445E+06     4.30522E+06         51.2981
            1631     13.3417E-03     102.881E-03         1.92078         1.09863        -3.99975         1.09859        -3.99971         1.92078    -26.5985E-03     241.857E-03    -117.970E-03    -123.888E-03    -114.061E-03     232.031E-03    -117.970E-03     117.447E-03     115.758E+06     114.110E+06    -22.7084E+06    -22.6444E+06     115.329E+06     114.475E+06     2.73334E+06         52.1452
            1632     14.2334E-03     102.999E-03         1.85544     950.150E-03        -3.77577     950.134E-03        -3.77575         1.85544    -16.4585E-03     248.582E-03    -117.884E-03    -130.698E-03    -115.653E-03     233.537E-03    -117.884E-03     143.483E-03     125.355E+06     116.649E+06    -14.1117E+06    -14.0953E+06     125.339E+06     116.649E+06     743.176E+03         52.8163
            1633     15.1230E-03     103.224E-03         1.78888     802.085E-03        -3.55015     802.081E-03        -3.55015         1.78888    -8.56830E-03     245.855E-03    -116.801E-03    -129.054E-03    -116.454E-03     234.255E-03    -117.801E-03     106.065E-03     130.627E+06     115.434E+06    -6.12343E+06    -6.11628E+06     130.620E+06     115.434E+06    -53.6116E+03         53.2835
            1634     889.289E-06     103.617E-03         2.59690         2.00068        -5.62711         2.59155        -5.62526         2.00418     61.7875E-03     234.976E-03    -117.235E-03    -117.741E-03    -117.739E-03     234.974E-03    -117.235E-03    -197.071E-06    -116.649E+06    -120.346E+06    -295.777E+06    -120.120E+06    -295.747E+06    -116.905E+06     2.00500E+06         40.4439
            1635     1.77812E-03     103.615E-03         2.29362         2.27703        -5.60069         2.27648        -5.60013         2.29362    -60.1032E-03     235.155E-03    -117.501E-03    -117.654E-03    -117.585E-03     235.154E-03    -117.569E-03    -838.170E-06    -107.382E+06    -116.077E+06    -290.045E+06    -116.084E+06    -290.038E+06    -107.382E+06     750.634E+03         40.6581
            1636     2.66833E-03     103.613E-03         2.28327         2.24560        -5.55701         2.24534        -5.55675         2.28327    -27.9968E-03     235.184E-03    -117.502E-03    -117.682E-03    -117.537E-03     235.184E-03    -117.647E-03    -469.147E-06    -97.1126E+06    -111.374E+06    -281.553E+06    -111.386E+06    -281.541E+06    -97.1126E+06     394.885E+03         41.0057
            1637     3.55732E-03     103.610E-03         2.26890         2.20291        -5.49816         2.20270        -5.49795         2.26890    -59.6491E-03     235.352E-03    -117.577E-03    -117.775E-03    -117.610E-03     235.350E-03    -117.740E-03     1.03915E-03    -82.7172E+06    -104.561E+06    -275.705E+06    -104.589E+06    -275.678E+06    -82.7172E+06     1.49388E+06         41.4889
            1638     4.44646E-03     103.609E-03         2.25041         2.14804        -5.42270         2.14791        -5.42257         2.25041    -46.1035E-03     235.331E-03    -117.506E-03    -117.825E-03    -117.492E-03     235.317E-03    -117.825E-03     4.12628E-03    -68.7120E+06    -98.0233E+06    -264.129E+06    -98.0408E+06    -264.111E+06    -68.7120E+06     1.22389E+06         42.1066
            1639     5.33522E-03     103.612E-03         2.22773         2.08239        -5.33158         2.08224        -5.33143         2.22773    -60.9999E-03     235.138E-03    -117.260E-03    -117.878E-03    -117.213E-03     235.091E-03    -117.878E-03     7.91177E-03    -56.0500E+06    -91.7275E+06    -250.606E+06    -91.7529E+06    -250.581E+06    -56.0500E+06    -1.09190E+06         42.8549
            1640     6.22457E-03     103.619E-03         2.20086         2.00517        -5.22414         2.00505        -5.22402         2.20086    -54.5672E-03     235.024E-03    -117.106E-03    -117.918E-03    -116.985E-03     234.903E-03    -117.918E-03     12.7549E-03    -41.9054E+06    -83.3721E+06    -237.004E+06    -83.4805E+06    -236.896E+06    -41.9054E+06    -2.01633E+06         43.7257
            1641     7.11440E-03     103.633E-03         2.16972         1.91692        -5.10123         1.91674        -5.10106         2.16972    -68.8147E-03     235.052E-03    -117.126E-03    -117.926E-03    -116.861E-03     234.786E-03    -117.926E-03     19.0068E-03    -28.6943E+06    -73.1799E+06    -203.418E+06    -73.2908E+06    -203.307E+06    -28.6943E+06    -1.08155E+06         44.7053
            1642     8.00309E-03     103.654E-03         2.13429         1.81853        -4.96302         1.81836        -4.96285         2.13429    -66.6104E-03     234.958E-03    -117.045E-03    -117.914E-03    -116.523E-03     234.437E-03    -117.914E-03     26.7466E-03    -17.4493E+06    -64.2381E+06    -158.507E+06    -64.2706E+06    -158.475E+06    -17.4493E+06     174.352E+03         45.7738
            1643     8.89244E-03     103.685E-03         2.09459         1.71031        -4.81040         1.71010        -4.81018         2.09459    -73.4397E-03     234.684E-03    -116.807E-03    -117.877E-03    -115.890E-03     233.767E-03    -117.877E-03     35.5441E-03    -7.04149E+06    -57.8758E+06    -105.550E+06    -57.9842E+06    -105.442E+06    -7.04149E+06     1.17251E+06         46.9049
            1644     9.78242E-03     103.728E-03         2.05061         1.59337        -4.64400         1.59314        -4.64378         2.05061    -73.3793E-03     234.489E-03    -116.709E-03    -117.780E-03    -115.063E-03     232.843E-03    -117.780E-03     47.3972E-03     13.9000E+06    -21.3254E+06    -61.2903E+06    -51.8315E+06    -22.0606E+06     5.17653E+06     2.99481E+06         48.0658
            1645     10.6722E-03     103.787E-03         2.00213         1.46902        -4.46481         1.46881        -4.46460         2.00213    -68.9895E-03     235.132E-03    -117.208E-03    -117.924E-03    -114.267E-03     231.974E-03    -117.706E-03     65.5512E-03     61.1898E+06     25.5348E+06    -45.9151E+06     -45.619E+06     60.8937E+06     25.5348E+06     5.54504E+06         49.2174
            1646     11.5625E-03     103.873E-03         1.94886         1.33806        -4.27376         1.33788        -4.27358         1.94886    -62.6531E-03     237.528E-03    -117.786E-03    -119.742E-03    -114.035E-03     231.821E-03    -117.786E-03     88.7940E-03     99.7017E+06     62.6071E+06    -39.2338E+06    -38.9395E+06     99.4073E+06     62.6071E+06     6.37024E+06         50.3165
            1647     12.4529E-03     103.988E-03         1.89060         1.20254        -4.07212         1.20241        -4.07199         1.89060    -50.8569E-03     242.084E-03    -117.917E-03    -124.167E-03    -114.391E-03     232.308E-03    -117.917E-03     117.110E-03     110.577E+06     99.7104E+06    -31.1599E+06    -30.9762E+06     110.393E+06     99.7104E+06     4.93633E+06         51.3181
            1648     13.3426E-03     104.145E-03         1.82896         1.06443        -3.86358         1.06435        -3.86350         1.82896    -39.3353E-03     241.965E-03    -117.933E-03    -124.032E-03    -114.328E-03     232.261E-03    -117.933E-03     116.582E-03     117.872E+06     115.352E+06    -21.8798E+06    -21.8146E+06     117.807E+06     115.352E+06     2.89556E+06         52.1787
            1649     14.2333E-03     104.262E-03         1.76428     925.333E-03        -3.65041     925.294E-03        -3.65037         1.76428    -25.4573E-03     248.558E-03    -117.859E-03    -130.699E-03    -115.636E-03     233.495E-03    -117.859E-03     143.026E-03     126.912E+06     117.351E+06    -13.3044E+06    -13.2834E+06     126.891E+06     117.351E+06     994.181E+03         52.8606
            1650     15.1231E-03     104.492E-03         1.69891     786.595E-03        -3.43565     786.584E-03        -3.43564         1.69891    -12.7788E-03     245.633E-03    -116.615E-03    -129.018E-03    -116.128E-03     233.894E-03    -117.766E-03     105.471E-03     131.182E+06     115.377E+06    -6.46695E+06    -6.45990E+06     131.175E+06     115.377E+06     328.902E+03         53.3348
            1651     889.702E-06     104.882E-03         2.47756         1.82536        -5.32176         2.47390        -5.32061         1.82788     37.3495E-03     234.852E-03    -117.030E-03    -117.822E-03    -117.279E-03     234.849E-03    -117.570E-03    -80.7810E-06    -117.224E+06    -120.417E+06    -295.431E+06    -119.702E+06    -295.413E+06    -117.957E+06     4.92434E+03         40.3590
            1652     1.77894E-03     104.879E-03         2.14753         2.13288        -5.29743         2.13249        -5.29704         2.14753    -59.1601E-03     235.018E-03    -117.362E-03    -117.656E-03    -117.521E-03     235.017E-03    -117.496E-03    -159.451E-06    -109.493E+06    -115.962E+06    -290.037E+06    -115.978E+06    -290.021E+06    -109.493E+06    -423.684E+03         40.5737
            1653     2.66747E-03     104.876E-03         2.13829         2.10372        -5.25784         2.10349        -5.25761         2.13829    -40.2201E-03     235.038E-03    -117.376E-03    -117.663E-03    -117.460E-03     235.038E-03    -117.578E-03    -572.336E-09    -97.5782E+06    -111.064E+06    -281.099E+06    -111.067E+06    -281.096E+06    -97.5782E+06    -427.195E+03         40.9222
            1654     3.55729E-03     104.874E-03         2.12518         2.06482        -5.20452         2.06459        -5.20429         2.12518    -69.5598E-03     235.080E-03    -117.428E-03    -117.651E-03    -117.426E-03     235.077E-03    -117.651E-03     1.37602E-03    -84.1530E+06    -104.432E+06    -275.105E+06    -104.493E+06    -275.044E+06    -84.1530E+06    -1.65148E+06         41.4071
            1655     4.44651E-03     104.873E-03         2.10827         2.01498        -5.13580         2.01479        -5.13562         2.10827    -62.8623E-03     235.208E-03    -117.481E-03    -117.727E-03    -117.468E-03     235.195E-03    -117.727E-03     4.03912E-03    -69.1065E+06    -95.3000E+06    -261.711E+06    -95.4223E+06    -261.588E+06    -69.1065E+06    -2.68775E+06         42.0277
            1656     5.33619E-03     104.876E-03         2.08749         1.95536        -5.05263         1.95513        -5.05239         2.08749    -78.2991E-03     235.246E-03    -117.428E-03    -117.817E-03    -117.383E-03     235.201E-03    -117.817E-03     7.67985E-03    -53.1144E+06    -87.1997E+06    -247.541E+06    -87.3004E+06    -247.440E+06    -53.1144E+06    -3.18033E+06         42.7801
            1657     6.22529E-03     104.883E-03         2.06275         1.88489        -4.95452         1.88467        -4.95429         2.06275    -75.7375E-03     235.159E-03    -117.288E-03    -117.872E-03    -117.172E-03     235.044E-03    -117.872E-03     12.4599E-03    -42.7993E+06    -79.7114E+06    -233.789E+06    -79.9509E+06    -233.549E+06    -42.7993E+06    -5.54374E+06         43.6564
            1658     7.11420E-03     104.897E-03         2.03392         1.80441        -4.84206         1.80409        -4.84175         2.03392    -90.4672E-03     234.860E-03    -116.991E-03    -117.869E-03    -116.730E-03     234.599E-03    -117.869E-03     18.8000E-03    -34.7317E+06    -71.6093E+06    -204.715E+06    -71.9863E+06    -204.338E+06    -34.7317E+06    -6.73837E+06         44.6433
            1659     8.00393E-03     104.919E-03         2.00093         1.71449        -4.71517         1.71417        -4.71485         2.00093    -89.8518E-03     234.774E-03    -116.924E-03    -117.850E-03    -116.390E-03     234.240E-03    -117.850E-03     27.0030E-03    -23.4471E+06    -64.1866E+06    -162.545E+06    -64.4247E+06    -162.307E+06    -23.4471E+06    -3.80024E+06         45.7213
            1660     8.89287E-03     104.950E-03         1.96380         1.61557        -4.57484         1.61519        -4.57446         1.96380    -96.1413E-03     234.703E-03    -116.883E-03    -117.820E-03    -115.947E-03     233.768E-03    -117.820E-03     35.9568E-03    -10.5960E+06    -57.3945E+06    -107.369E+06    -57.4586E+06    -107.305E+06    -10.5960E+06    -889.274E+03         46.8638
            1661     9.78248E-03     104.992E-03         1.92248         1.50847        -4.42149         1.50807        -4.42110         1.92248    -95.6422E-03     234.351E-03    -116.620E-03    -117.731E-03    -114.980E-03     232.711E-03    -117.731E-03     47.3385E-03     8.70167E+06    -22.8896E+06    -61.5275E+06    -51.4082E+06    -26.3701E+06     2.06283E+06     1.91300E+06         48.0378
            1662     10.6730E-03     105.052E-03         1.87655         1.39427        -4.25577         1.39390        -4.25540         1.87655    -89.9218E-03     234.980E-03    -117.063E-03    -117.917E-03    -114.201E-03     231.846E-03    -117.645E-03     65.2702E-03     57.0718E+06     20.6698E+06    -46.1746E+06    -45.9037E+06     56.8008E+06     20.6698E+06     5.24297E+06         49.2042
            1663     11.5634E-03     105.137E-03         1.82559         1.27402        -4.07842         1.27369        -4.07810         1.82559    -81.9996E-03     237.393E-03    -117.728E-03    -119.666E-03    -114.062E-03     231.790E-03    -117.728E-03     88.0192E-03     99.8711E+06     59.0935E+06    -39.3977E+06    -39.1110E+06     99.5844E+06     59.0935E+06     6.26928E+06         50.3186
            1664     12.4530E-03     105.254E-03         1.76937         1.14966        -3.89080         1.14943        -3.89056         1.76937    -67.8782E-03     241.728E-03    -117.876E-03    -123.852E-03    -114.312E-03     232.188E-03    -117.876E-03     115.611E-03     112.982E+06     99.3922E+06    -30.9978E+06    -30.8032E+06     112.788E+06     99.3922E+06     5.16244E+06         51.3354
            1665     13.3427E-03     105.410E-03         1.70988         1.02337        -3.69721         1.02321        -3.69705         1.70988    -53.5821E-03     241.871E-03    -117.898E-03    -123.973E-03    -114.329E-03     232.227E-03    -117.898E-03     116.351E-03     120.257E+06     115.151E+06    -22.3897E+06    -22.3096E+06     120.177E+06     115.151E+06     2.97322E+06         52.2096
            1666     14.2317E-03     105.528E-03         1.64752     896.646E-03        -3.49983     896.567E-03        -3.49975         1.64752    -35.9013E-03     248.454E-03    -117.822E-03    -130.633E-03    -115.414E-03     233.236E-03    -117.822E-03     143.790E-03     126.489E+06     116.277E+06    -14.3311E+06    -14.3098E+06     126.468E+06     116.277E+06     1.63474E+06         52.9025
            1667     15.1250E-03     105.753E-03         1.58496     770.627E-03        -3.30194     770.604E-03        -3.30191         1.58496    -17.3536E-03     245.637E-03    -116.864E-03    -128.772E-03    -116.084E-03     233.810E-03    -117.726E-03     106.061E-03     133.061E+06     116.379E+06    -5.96681E+06    -5.95270E+06     133.047E+06     116.379E+06     1.15266E+06         53.3836
            1668     889.101E-06     106.142E-03         2.32327         1.61520        -4.94721         2.32069        -4.94656         1.61712     13.9555E-03     234.634E-03    -116.941E-03    -117.692E-03    -117.088E-03     234.632E-03    -117.544E-03    -304.712E-06    -116.276E+06    -120.300E+06    -291.983E+06    -119.103E+06    -291.949E+06    -117.506E+06    -1.90873E+06         40.2737
            1669     1.77926E-03     106.144E-03         1.96598         1.95286        -4.92628         1.95259        -4.92601         1.96598    -58.2299E-03     234.571E-03    -117.136E-03    -117.435E-03    -117.220E-03     234.571E-03    -117.351E-03     59.6162E-06    -108.937E+06    -115.029E+06    -288.267E+06    -115.081E+06    -288.215E+06    -108.937E+06    -2.54099E+06         40.4888
            1670     2.66892E-03     106.140E-03         1.95783         1.92717        -4.89107         1.92695        -4.89084         1.95783    -53.0102E-03     234.931E-03    -117.284E-03    -117.647E-03    -117.502E-03     234.931E-03    -117.429E-03     266.753E-06    -96.0772E+06    -109.010E+06    -280.037E+06    -109.079E+06    -279.968E+06    -96.0772E+06    -2.66822E+06         40.8381
            1671     3.55792E-03     106.138E-03         1.94628         1.89323        -4.84390         1.89295        -4.84362         1.94628    -80.3462E-03     235.270E-03    -117.473E-03    -117.797E-03    -117.693E-03     235.267E-03    -117.575E-03     1.65257E-03    -81.8219E+06    -102.469E+06    -269.445E+06    -102.655E+06    -269.260E+06    -81.8219E+06    -4.83596E+06         41.3245
            1672     4.44709E-03     106.138E-03         1.93134         1.84921        -4.78329         1.84892        -4.78300         1.93134    -80.2253E-03     235.346E-03    -117.564E-03    -117.782E-03    -117.641E-03     235.335E-03    -117.694E-03     3.71051E-03    -71.3839E+06    -94.6197E+06    -258.277E+06    -95.0736E+06    -257.823E+06    -71.3839E+06    -8.18359E+06         41.9475
            1673     5.33566E-03     106.141E-03         1.91290         1.79701        -4.71027         1.79663        -4.70990         1.91290    -96.7651E-03     235.256E-03    -117.465E-03    -117.791E-03    -117.422E-03     235.213E-03    -117.791E-03     7.39453E-03    -58.1233E+06    -84.9688E+06    -246.334E+06    -85.6299E+06    -245.673E+06    -58.1233E+06    -9.08381E+06         42.7036
            1674     6.22458E-03     106.148E-03         1.89086         1.73516        -4.62413         1.73477        -4.62373         1.89086    -98.0056E-03     235.145E-03    -117.286E-03    -117.858E-03    -117.171E-03     235.030E-03    -117.858E-03     12.4298E-03    -44.0016E+06    -75.7998E+06    -229.582E+06    -76.4388E+06    -228.943E+06    -44.0016E+06    -8.93679E+06         43.5852
            1675     7.11397E-03     106.162E-03         1.86507         1.66477        -4.52511         1.66424        -4.52459         1.86507    -112.941E-03     234.820E-03    -116.960E-03    -117.860E-03    -116.705E-03     234.565E-03    -117.860E-03     18.6185E-03    -35.5973E+06    -68.8419E+06    -203.282E+06    -69.6301E+06    -202.494E+06    -35.5973E+06    -9.92469E+06         44.5793
            1676     8.00386E-03     106.183E-03         1.83537         1.58568        -4.41295         1.58513        -4.41240         1.83537    -113.803E-03     234.538E-03    -116.723E-03    -117.815E-03    -116.196E-03     234.011E-03    -117.815E-03     26.7887E-03    -28.4224E+06    -61.9558E+06    -166.404E+06    -62.9340E+06    -165.426E+06    -28.4224E+06    -9.56935E+06         45.6665
            1677     8.89393E-03     106.216E-03         1.80172         1.49862        -4.28864         1.49799        -4.28801         1.80172    -119.458E-03     234.460E-03    -116.692E-03    -117.768E-03    -115.785E-03     233.552E-03    -117.768E-03     35.4250E-03    -15.9114E+06     -54.885E+06    -113.668E+06    -55.3854E+06    -113.167E+06    -15.9114E+06    -4.77421E+06         46.8202
            1678     9.78314E-03     106.257E-03         1.76410         1.40439        -4.15250         1.40375        -4.15186         1.76410    -118.409E-03     234.464E-03    -116.769E-03    -117.695E-03    -115.166E-03     232.861E-03    -117.695E-03     46.7571E-03     2.17693E+06    -22.3331E+06    -63.7813E+06    -49.6952E+06    -33.4182E+06    -824.112E+03     1.93025E+06         48.0070
            1679     10.6730E-03     106.316E-03         1.72192         1.30352        -4.00464         1.30292        -4.00405         1.72192    -111.307E-03     235.382E-03    -117.254E-03    -118.129E-03    -114.638E-03     232.275E-03    -117.637E-03     65.0612E-03     53.7766E+06     18.5165E+06    -45.8266E+06    -45.4513E+06     53.4012E+06     18.5165E+06     5.82002E+06         49.1872
            1680     11.5622E-03     106.403E-03         1.67458         1.19711        -3.84564         1.19658        -3.84511         1.67458    -101.884E-03     237.491E-03    -117.730E-03    -119.761E-03    -114.191E-03     231.921E-03    -117.730E-03     87.7641E-03     100.929E+06     55.4896E+06    -40.0400E+06    -39.7921E+06     100.681E+06     55.4896E+06     5.82549E+06         50.3165
            1681     12.4520E-03     106.519E-03         1.62187         1.08702        -3.67693         1.08662        -3.67654         1.62187    -85.7039E-03     241.264E-03    -117.872E-03    -123.393E-03    -113.881E-03     231.753E-03    -117.872E-03     115.276E-03     113.760E+06     96.3715E+06    -31.3726E+06    -31.2163E+06     113.604E+06     96.3715E+06     4.67094E+06         51.3483
            1682     13.3434E-03     106.674E-03         1.56604     975.527E-03        -3.50306     975.257E-03        -3.50279         1.56604    -68.5971E-03     240.977E-03    -117.862E-03    -123.116E-03    -113.491E-03     231.353E-03    -117.862E-03     115.962E-03     122.631E+06     114.861E+06    -21.8324E+06    -21.6983E+06     122.497E+06     114.861E+06     3.97681E+06         52.2365
            1683     14.2362E-03     106.792E-03         1.50749     864.241E-03        -3.32630     864.102E-03        -3.32616         1.50749    -46.5037E-03     248.249E-03    -117.770E-03    -130.479E-03    -115.377E-03     233.148E-03    -117.770E-03     143.348E-03     129.903E+06     118.382E+06    -13.7818E+06    -13.7050E+06     129.827E+06     118.382E+06     2.59760E+06         52.9402
            1684     15.1246E-03     107.017E-03         1.44929     754.663E-03        -3.15083     754.622E-03        -3.15079         1.44929    -22.6105E-03     245.978E-03    -116.853E-03    -129.125E-03    -116.571E-03     234.259E-03    -117.688E-03     105.866E-03     134.492E+06     116.730E+06    -7.24043E+06    -7.22541E+06     134.477E+06     116.730E+06     1.22491E+06         53.4279
            1685     889.787E-06     107.407E-03         2.13853         1.37294        -4.50910         2.13571        -4.50879         1.37545    -8.28007E-03     234.677E-03    -116.802E-03    -117.876E-03    -117.813E-03     234.677E-03    -116.863E-03    -379.063E-06    -117.079E+06    -120.726E+06    -286.009E+06    -120.286E+06    -285.951E+06    -117.576E+06    -2.38112E+06         40.1880
            1686     1.77901E-03     107.405E-03         1.75238         1.74030        -4.49181         1.74011        -4.49161         1.75238    -58.3674E-03     234.689E-03    -117.197E-03    -117.492E-03    -117.289E-03     234.688E-03    -117.399E-03    -605.774E-06    -107.200E+06    -116.562E+06    -282.897E+06    -116.688E+06    -282.771E+06    -107.200E+06    -4.31994E+06         40.4031
            1687     2.66892E-03     107.404E-03         1.74530         1.71971        -4.46238         1.71945        -4.46212         1.74530    -65.6999E-03     234.905E-03    -117.306E-03    -117.599E-03    -117.439E-03     234.904E-03    -117.465E-03    -205.549E-06    -95.9935E+06    -110.198E+06    -276.063E+06    -110.490E+06    -275.771E+06    -95.9935E+06    -6.45397E+06         40.7529
            1688     3.55763E-03     107.403E-03         1.73560         1.69129        -4.42302         1.69092        -4.42266         1.73560    -91.8665E-03     235.346E-03    -117.549E-03    -117.797E-03    -117.769E-03     235.344E-03    -117.575E-03     1.39148E-03    -85.6255E+06    -101.902E+06    -263.304E+06    -102.429E+06    -262.777E+06    -85.6255E+06    -8.72870E+06         41.2404
            1689     4.44598E-03     107.403E-03         1.72306         1.65454        -4.37251         1.65410        -4.37207         1.72306    -98.5118E-03     235.302E-03    -117.517E-03    -117.785E-03    -117.592E-03     235.289E-03    -117.697E-03     3.81276E-03    -74.6339E+06    -95.0520E+06    -251.434E+06    -95.9352E+06    -250.551E+06    -74.6339E+06    -11.4629E+06         41.8655
            1690     5.33547E-03     107.405E-03         1.70752         1.61137        -4.31164         1.61079        -4.31106         1.70752    -116.202E-03     235.103E-03    -117.332E-03    -117.771E-03    -117.283E-03     235.053E-03    -117.771E-03     7.91598E-03    -64.5861E+06    -89.1444E+06    -242.968E+06    -90.4653E+06    -241.647E+06    -64.5861E+06    -14.1148E+06         42.6251
            1691     6.22521E-03     107.413E-03         1.68880         1.55983        -4.23969         1.55917        -4.23904         1.68880    -120.932E-03     235.015E-03    -117.207E-03    -117.808E-03    -117.087E-03     234.895E-03    -117.808E-03     12.8045E-03    -54.1774E+06    -81.2224E+06    -227.638E+06    -82.9637E+06    -225.896E+06    -54.1774E+06    -15.0875E+06         43.5118
            1692     7.11443E-03     107.426E-03         1.66674         1.50136        -4.15693         1.50052        -4.15610         1.66674    -135.944E-03     235.007E-03    -117.179E-03    -117.828E-03    -116.925E-03     234.753E-03    -117.828E-03     18.5984E-03    -43.0928E+06    -71.5377E+06    -200.717E+06    -73.6636E+06    -198.591E+06    -43.0928E+06    -15.5120E+06         44.5125
            1693     8.00333E-03     107.447E-03         1.64116         1.43530        -4.06269         1.43441        -4.06181         1.64116    -138.145E-03     234.781E-03    -116.960E-03    -117.821E-03    -116.449E-03     234.270E-03    -117.821E-03     26.4115E-03    -34.7701E+06    -63.1108E+06    -168.254E+06    -65.3347E+06    -166.030E+06    -34.7701E+06    -14.8919E+06         45.6079
            1694     8.89271E-03     107.480E-03         1.61194         1.36239        -3.95765         1.36141        -3.95667         1.61194    -143.191E-03     234.355E-03    -116.578E-03    -117.777E-03    -115.704E-03     233.480E-03    -117.777E-03     34.7562E-03    -25.0323E+06    -55.9889E+06    -123.436E+06    -57.8851E+06    -121.540E+06    -25.0323E+06    -10.4652E+06         46.7720
            1695     9.78327E-03     107.522E-03         1.57897         1.28334        -3.84207         1.28235        -3.84108         1.57897    -141.403E-03     234.499E-03    -116.799E-03    -117.700E-03    -115.235E-03     232.936E-03    -117.700E-03     46.1687E-03    -9.10781E+06    -26.9079E+06    -70.7008E+06    -49.9939E+06    -46.4270E+06    -10.2956E+06    -1.47812E+06         47.9711
            1696     10.6723E-03     107.582E-03         1.54157         1.19831        -3.71592         1.19740        -3.71501         1.54157    -133.004E-03     235.438E-03    -117.391E-03    -118.047E-03    -114.696E-03     232.335E-03    -117.639E-03     64.9532E-03     49.0038E+06     11.3121E+06    -44.0698E+06    -43.6198E+06     48.5537E+06     11.3121E+06     6.24935E+06         49.1651
            1697     11.5621E-03     107.668E-03         1.49910         1.10847        -3.57949         1.10766        -3.57868         1.49910    -122.104E-03     237.170E-03    -117.717E-03    -119.453E-03    -113.862E-03     231.580E-03    -117.717E-03     87.8583E-03     103.949E+06     50.2726E+06    -38.4843E+06    -38.1344E+06     103.600E+06     50.2726E+06     6.71700E+06         50.3091
            1698     12.4529E-03     107.783E-03         1.45127         1.01539        -3.43395         1.01477        -3.43333         1.45127    -103.735E-03     240.794E-03    -117.846E-03    -122.947E-03    -113.438E-03     231.284E-03    -117.846E-03     115.122E-03     115.348E+06     93.6233E+06    -31.1584E+06    -31.0117E+06     115.201E+06     93.6233E+06     4.56036E+06         51.3556
            1699     13.3433E-03     107.938E-03         1.40054     921.532E-03        -3.28422     921.105E-03        -3.28379         1.40054    -83.6464E-03     240.855E-03    -117.837E-03    -123.018E-03    -113.447E-03     231.284E-03    -117.837E-03     115.564E-03     123.355E+06     114.490E+06    -22.8409E+06    -22.7123E+06     123.227E+06     114.490E+06     4.06835E+06         52.2569
            1700     14.2338E-03     108.054E-03         1.34722     828.852E-03        -3.13286     828.629E-03        -3.13263         1.34722    -57.5704E-03     248.424E-03    -117.756E-03    -130.668E-03    -115.541E-03     233.296E-03    -117.756E-03     143.373E-03     132.071E+06     119.584E+06    -14.0431E+06    -13.9296E+06     131.957E+06     119.584E+06     3.45253E+06         52.9706
            1701     15.1250E-03     108.286E-03         1.29482     738.568E-03        -2.98420     738.499E-03        -2.98413         1.29482    -29.1645E-03     245.720E-03    -116.546E-03    -129.174E-03    -116.285E-03     233.954E-03    -117.670E-03     105.439E-03     136.729E+06     117.901E+06    -7.15212E+06    -7.10573E+06     136.683E+06     117.901E+06     1.86325E+06         53.4645
            1702     889.488E-06     108.671E-03         1.91697         1.10912        -4.01485         1.91452        -4.01470         1.11141    -26.4601E-03     235.032E-03    -116.961E-03    -118.071E-03    -118.069E-03     235.030E-03    -116.961E-03    -206.889E-06    -120.150E+06    -123.976E+06    -279.238E+06    -124.068E+06    -279.147E+06    -120.150E+06    -3.10250E+06         40.1002
            1703     1.77835E-03     108.669E-03         1.51039         1.50084        -4.00200         1.50067        -4.00182         1.51039    -59.7962E-03     235.389E-03    -117.574E-03    -117.815E-03    -117.753E-03     235.388E-03    -117.635E-03    -964.876E-06    -108.671E+06    -117.515E+06    -274.906E+06    -117.797E+06    -274.625E+06    -108.671E+06    -6.14686E+06         40.3151
            1704     2.66731E-03     108.667E-03         1.50497         1.48544        -3.97986         1.48510        -3.97951         1.50497    -79.0559E-03     235.126E-03    -117.396E-03    -117.730E-03    -117.414E-03     235.126E-03    -117.711E-03    -103.626E-06    -97.2171E+06    -110.447E+06    -267.436E+06    -111.112E+06    -266.770E+06    -97.2171E+06    -9.78866E+06         40.6650
            1705     3.55709E-03     108.667E-03         1.49751         1.46348        -3.94999         1.46297        -3.94948         1.49751    -104.188E-03     234.817E-03    -117.133E-03    -117.684E-03    -117.130E-03     234.814E-03    -117.684E-03     1.63656E-03    -87.0513E+06    -102.947E+06    -255.603E+06    -104.223E+06    -254.327E+06    -87.0513E+06    -13.3878E+06         41.1533
            1706     4.44690E-03     108.667E-03         1.48781         1.43572        -3.91159         1.43505        -3.91091         1.48781    -117.059E-03     234.906E-03    -117.226E-03    -117.680E-03    -117.212E-03     234.891E-03    -117.680E-03     4.26247E-03    -75.5266E+06    -94.8955E+06    -245.440E+06    -96.6115E+06    -243.724E+06    -75.5266E+06    -15.6194E+06         41.7802
            1707     5.33615E-03     108.669E-03         1.47570         1.40298        -3.86513         1.40209        -3.86423         1.47570    -135.948E-03     235.170E-03    -117.439E-03    -117.731E-03    -117.388E-03     235.119E-03    -117.731E-03     8.15149E-03    -64.3011E+06    -86.9001E+06    -236.487E+06    -88.9438E+06    -234.443E+06    -64.3011E+06    -17.1255E+06         42.5427
            1708     6.22476E-03     108.678E-03         1.46093         1.36326        -3.80959         1.36223        -3.80856         1.46093    -144.195E-03     235.209E-03    -117.431E-03    -117.777E-03    -117.312E-03     235.089E-03    -117.777E-03     12.7539E-03    -57.7049E+06    -79.0739E+06    -222.152E+06    -82.1845E+06    -219.042E+06    -57.7049E+06    -20.4748E+06         43.4336
            1709     7.11394E-03     108.691E-03         1.44328         1.31820        -3.74517         1.31692        -3.74389         1.44328    -159.275E-03     235.141E-03    -117.332E-03    -117.809E-03    -117.074E-03     234.882E-03    -117.809E-03     18.7324E-03    -50.9228E+06    -71.6882E+06    -198.773E+06    -75.7179E+06    -194.743E+06    -50.9228E+06    -22.1147E+06         44.4403
            1710     8.00288E-03     108.713E-03         1.42257         1.26687        -3.67130         1.26551        -3.66994         1.42257    -162.397E-03     234.937E-03    -117.106E-03    -117.830E-03    -116.596E-03     234.426E-03    -117.830E-03     26.4719E-03    -41.4072E+06    -64.3694E+06    -170.646E+06    -68.7617E+06    -166.253E+06    -41.4072E+06    -20.7819E+06         45.5437
            1711     8.89243E-03     108.744E-03         1.39862         1.20998        -3.58848         1.20850        -3.58700         1.39862    -166.899E-03     234.726E-03    -116.915E-03    -117.810E-03    -116.014E-03     233.825E-03    -117.810E-03     35.2403E-03    -32.1027E+06    -56.0431E+06    -131.834E+06    -60.6748E+06    -127.202E+06    -32.1027E+06    -17.7275E+06         46.7175
            1712     9.78141E-03     108.787E-03         1.37120         1.14790        -3.49650         1.14642        -3.49502         1.37120    -164.628E-03     234.650E-03    -116.913E-03    -117.737E-03    -115.322E-03     233.059E-03    -117.737E-03     46.6824E-03    -21.4281E+06    -36.6058E+06    -78.9656E+06    -52.2257E+06    -62.7962E+06    -21.9777E+06    -9.02918E+06         47.9281
            1713     10.6718E-03     108.846E-03         1.33961         1.08078        -3.39525         1.07941        -3.39389         1.33961    -155.093E-03     234.877E-03    -117.141E-03    -117.736E-03    -114.157E-03     231.776E-03    -117.620E-03     64.7990E-03     40.4613E+06    -6.57516E+06    -44.9981E+06    -43.9341E+06     36.7849E+06    -3.96271E+06     2.89779E+06         49.1355
            1714     11.5624E-03     108.933E-03         1.30310         1.00976        -3.28480         1.00856        -3.28359         1.30310    -142.600E-03     236.579E-03    -117.558E-03    -119.021E-03    -113.305E-03     230.953E-03    -117.649E-03     87.9773E-03     105.603E+06     39.1110E+06    -38.0184E+06    -37.5028E+06     105.087E+06     39.1110E+06     8.32562E+06         50.2938
            1715     12.4526E-03     109.047E-03         1.26133     936.136E-03        -3.16623     935.211E-03        -3.16530         1.26133    -122.094E-03     240.636E-03    -117.799E-03    -122.838E-03    -113.393E-03     231.192E-03    -117.799E-03     114.790E-03     118.201E+06     90.7604E+06    -31.8650E+06    -31.5513E+06     117.887E+06     90.7604E+06     6.32713E+06         51.3540
            1716     13.3448E-03     109.200E-03         1.21692     862.489E-03        -3.04462     861.842E-03        -3.04397         1.21692    -99.2794E-03     241.256E-03    -117.828E-03    -123.428E-03    -113.872E-03     231.700E-03    -117.828E-03     115.729E-03     125.084E+06     115.510E+06    -23.8361E+06    -23.7118E+06     124.960E+06     115.510E+06     4.13046E+06         52.2672
            1717     14.2348E-03     109.321E-03         1.17021     790.809E-03        -2.92255     790.463E-03        -2.92221         1.17021    -69.5648E-03     248.230E-03    -117.754E-03    -130.476E-03    -115.324E-03     233.078E-03    -117.754E-03     143.534E-03     133.415E+06     119.695E+06     -15.984E+06    -15.8847E+06     133.316E+06     119.695E+06     3.09257E+06         52.9901
            1718     15.1255E-03     109.546E-03         1.12501     721.984E-03        -2.80430     721.871E-03        -2.80418         1.12501    -36.8381E-03     244.656E-03    -116.117E-03    -128.539E-03    -115.284E-03     232.919E-03    -117.635E-03     105.647E-03     138.840E+06     118.467E+06    -7.39452E+06    -7.35046E+06     138.796E+06     118.467E+06     1.52946E+06         53.4897
            1719     889.153E-06     109.936E-03         1.66286     830.989E-03        -3.47557         1.66131        -3.47545     832.423E-03    -44.0823E-03     235.654E-03    -117.297E-03    -118.357E-03    -118.142E-03     235.652E-03    -117.510E-03     57.7165E-06    -116.768E+06    -119.725E+06    -268.878E+06    -119.355E+06    -268.675E+06    -117.341E+06    -3.94548E+06         40.0063
            1720     1.77804E-03     109.934E-03         1.24537         1.23938        -3.46750         1.23917        -3.46729         1.24537    -61.6805E-03     235.477E-03    -117.550E-03    -117.928E-03    -117.636E-03     235.477E-03    -117.841E-03    -368.161E-06    -109.446E+06    -115.120E+06    -265.337E+06    -115.614E+06    -264.843E+06    -109.446E+06    -8.17251E+06         40.2210
            1721     2.66686E-03     109.932E-03         1.24210         1.22971        -3.45371         1.22921        -3.45321         1.24210    -91.9316E-03     235.151E-03    -117.332E-03    -117.819E-03    -117.351E-03     235.151E-03    -117.800E-03     480.352E-06    -98.8970E+06    -109.726E+06    -256.068E+06    -110.778E+06    -255.017E+06    -98.8970E+06    -12.0252E+06         40.5706
            1722     3.55663E-03     109.930E-03         1.23739         1.21558        -3.43493         1.21484        -3.43420         1.23739    -116.066E-03     234.637E-03    -116.913E-03    -117.724E-03    -116.910E-03     234.634E-03    -117.724E-03     1.95375E-03    -87.6357E+06    -104.080E+06    -245.066E+06    -106.079E+06    -243.067E+06    -87.6357E+06    -16.3981E+06         41.0591
            1723     4.44690E-03     109.931E-03         1.23095         1.19776        -3.41011         1.19673        -3.40908         1.23095    -134.983E-03     234.845E-03    -117.170E-03    -117.675E-03    -117.155E-03     234.829E-03    -117.675E-03     4.40468E-03    -79.0111E+06    -96.8788E+06    -238.465E+06    -99.9403E+06    -235.403E+06    -79.0111E+06    -20.2753E+06         41.6871
            1724     5.33576E-03     109.935E-03         1.22269         1.17630        -3.37954         1.17495        -3.37819         1.22269    -155.124E-03     235.197E-03    -117.489E-03    -117.708E-03    -117.441E-03     235.149E-03    -117.708E-03     7.91276E-03    -70.3747E+06    -86.9359E+06    -229.630E+06    -91.2263E+06    -225.340E+06    -70.3747E+06    -23.6580E+06         42.4517
            1725     6.22496E-03     109.943E-03         1.21238         1.14982        -3.34233         1.14823        -3.34074         1.21238    -166.738E-03     235.174E-03    -117.402E-03    -117.771E-03    -117.278E-03     235.050E-03    -117.771E-03     12.9173E-03    -60.2363E+06    -77.4763E+06    -215.190E+06    -82.7571E+06    -209.909E+06    -60.2363E+06    -25.9725E+06         43.3464
            1726     7.11362E-03     109.956E-03         1.19975         1.11952        -3.29842         1.11761        -3.29650         1.19975    -182.227E-03     234.993E-03    -117.193E-03    -117.800E-03    -116.921E-03     234.720E-03    -117.800E-03     19.2543E-03    -52.5422E+06    -69.2963E+06    -196.032E+06    -75.4836E+06    -189.845E+06    -52.5422E+06    -27.0097E+06         44.3588
            1727     8.00314E-03     109.978E-03         1.18453         1.08422        -3.24707         1.08217        -3.24502         1.18453    -186.630E-03     234.961E-03    -117.155E-03    -117.807E-03    -116.621E-03     234.428E-03    -117.807E-03     27.0560E-03    -45.2360E+06    -61.7171E+06    -171.660E+06    -68.8700E+06    -164.507E+06    -45.2360E+06    -26.9364E+06         45.4698
            1728     8.89225E-03     110.009E-03         1.16651         1.04460        -3.18848         1.04241        -3.18629         1.16651    -190.721E-03     234.962E-03    -117.158E-03    -117.804E-03    -116.228E-03     234.032E-03    -117.804E-03     35.8484E-03    -36.7526E+06    -54.5144E+06    -138.491E+06    -62.6347E+06    -130.371E+06    -36.7526E+06    -24.3728E+06         46.6530
            1729     9.78166E-03     110.052E-03         1.14543         1.00098        -3.12245     998.793E-03        -3.12026         1.14543    -188.109E-03     234.742E-03    -116.996E-03    -117.746E-03    -115.355E-03     233.102E-03    -117.746E-03     47.3947E-03    -28.9440E+06    -42.2197E+06    -90.0925E+06    -55.5102E+06    -76.8020E+06    -28.9440E+06    -17.4739E+06         47.8745
            1730     10.6712E-03     110.110E-03         1.12056     953.519E-03        -3.04887     951.515E-03        -3.04686         1.12056    -177.669E-03     234.714E-03    -117.116E-03    -117.598E-03    -114.033E-03     231.631E-03    -117.598E-03     64.7340E-03     27.8057E+06    -21.3311E+06    -52.6616E+06    -46.9422E+06     17.7567E+06    -17.0015E+06    -4.83731E+06         49.0942
            1731     11.5628E-03     110.196E-03         1.09100     903.078E-03        -2.96735     901.316E-03        -2.96559         1.09100    -163.707E-03     236.142E-03    -117.479E-03    -118.664E-03    -112.954E-03     230.531E-03    -117.577E-03     87.6507E-03      99.695E+06     24.9382E+06    -39.0054E+06    -38.5505E+06     99.2401E+06     24.9382E+06     6.73896E+06         50.2656
            1732     12.4544E-03     110.312E-03         1.05623     850.776E-03        -2.87871     849.409E-03        -2.87734         1.05623    -141.429E-03     240.727E-03    -117.746E-03    -122.981E-03    -113.541E-03     231.288E-03    -117.746E-03     114.889E-03     122.775E+06     85.1307E+06    -31.9271E+06    -31.3629E+06     122.211E+06     85.1307E+06     8.90981E+06         51.3383
            1733     13.3430E-03     110.464E-03         1.01921     799.430E-03        -2.78853     798.464E-03        -2.78757         1.01921    -116.290E-03     241.135E-03    -117.819E-03    -123.316E-03    -113.810E-03     231.629E-03    -117.819E-03     115.450E-03     129.050E+06     116.803E+06    -24.4794E+06    -24.2175E+06     128.789E+06     116.803E+06     5.59086E+06         52.2623
            1734     14.2340E-03     110.585E-03     980.397E-03     750.778E-03        -2.69918     750.245E-03        -2.69864     980.397E-03    -83.2251E-03     247.440E-03    -117.726E-03    -129.714E-03    -114.473E-03     232.198E-03    -117.726E-03     143.570E-03     135.575E+06      121.81E+06    -16.2685E+06    -16.1929E+06     135.499E+06      121.81E+06     2.70148E+06         52.9938
            1735     15.1263E-03     110.808E-03     943.641E-03     705.251E-03        -2.61431     705.067E-03        -2.61412     943.641E-03    -45.7382E-03     243.761E-03    -115.568E-03    -128.194E-03    -114.364E-03     231.919E-03    -117.554E-03     106.143E-03     140.379E+06     120.422E+06    -7.16851E+06    -7.14918E+06     140.360E+06     120.422E+06     889.278E+03         53.4984
            1736     887.888E-06     111.200E-03         1.38211     547.269E-03        -2.90413         1.38114        -2.90391     548.024E-03    -56.5521E-03     235.437E-03    -117.177E-03    -118.260E-03    -117.776E-03     235.435E-03    -117.659E-03    -300.927E-06    -113.819E+06    -117.959E+06    -256.598E+06    -117.600E+06    -256.385E+06    -114.392E+06    -3.86297E+06         39.8995
            1737     1.77820E-03     111.199E-03     964.383E-03     962.040E-03        -2.90100     961.785E-03        -2.90069     964.330E-03    -63.0564E-03     235.023E-03    -117.330E-03    -117.693E-03    -117.329E-03     235.022E-03    -117.693E-03     654.167E-06    -107.073E+06     -113.14E+06    -251.161E+06    -114.027E+06    -250.275E+06    -107.073E+06    -10.1471E+06         40.1136
            1738     2.66794E-03     111.197E-03     963.344E-03     958.712E-03        -2.89580     958.041E-03        -2.89507     963.291E-03    -103.102E-03     235.058E-03    -117.356E-03    -117.701E-03    -117.423E-03     235.057E-03    -117.634E-03     677.711E-06    -100.350E+06    -107.516E+06    -244.548E+06    -109.219E+06    -242.845E+06    -100.350E+06    -14.7607E+06         40.4626
            1739     3.55728E-03     111.193E-03     961.517E-03     952.941E-03        -2.88883     951.859E-03        -2.88775     961.517E-03    -127.102E-03     235.098E-03    -117.367E-03    -117.731E-03    -117.430E-03     235.094E-03    -117.664E-03     2.12334E-03    -88.7906E+06    -100.803E+06    -233.541E+06    -103.414E+06    -230.931E+06    -88.7906E+06    -18.2174E+06         40.9506
            1740     4.44592E-03     111.195E-03     958.611E-03     945.743E-03        -2.87857     944.178E-03        -2.87700     958.611E-03    -151.876E-03     235.026E-03    -117.315E-03    -117.711E-03    -117.295E-03     235.006E-03    -117.711E-03     5.04137E-03    -76.6318E+06    -93.2222E+06    -225.958E+06    -97.4682E+06    -221.712E+06    -76.6318E+06    -23.1251E+06         41.5785
            1741     5.33529E-03     111.199E-03     954.511E-03     936.360E-03        -2.86502     934.335E-03        -2.86300     954.511E-03    -173.302E-03     234.962E-03    -117.231E-03    -117.732E-03    -117.175E-03     234.907E-03    -117.732E-03     8.56904E-03    -69.8600E+06    -86.4254E+06    -220.135E+06    -92.7656E+06    -213.794E+06    -69.8600E+06    -28.2585E+06         42.3445
            1742     6.22445E-03     111.207E-03     949.009E-03     924.086E-03        -2.84757     921.669E-03        -2.84515     949.009E-03    -188.347E-03     234.928E-03    -117.185E-03    -117.743E-03    -117.053E-03     234.795E-03    -117.743E-03     13.3585E-03    -64.3655E+06    -79.1134E+06    -209.351E+06    -87.6276E+06    -200.837E+06    -64.3655E+06    -31.8242E+06         43.2425
            1743     7.11433E-03     111.221E-03     941.790E-03     909.393E-03        -2.82576     906.527E-03        -2.82289     941.790E-03    -204.486E-03     234.847E-03    -117.091E-03    -117.756E-03    -116.820E-03     234.576E-03    -117.756E-03     19.2732E-03    -56.8974E+06    -69.8696E+06    -193.727E+06    -80.1941E+06    -183.402E+06    -56.8974E+06    -33.7564E+06         44.2601
            1744     8.00358E-03     111.242E-03     932.484E-03     891.024E-03        -2.79832     887.959E-03        -2.79526     932.484E-03    -210.402E-03     234.863E-03    -117.101E-03    -117.762E-03    -116.554E-03     234.316E-03    -117.762E-03     27.2946E-03    -49.4755E+06    -61.2862E+06    -172.689E+06    -72.2226E+06    -161.753E+06    -49.4755E+06    -32.8444E+06         45.3782
            1745     8.89232E-03     111.276E-03     920.872E-03     869.809E-03        -2.76561     866.584E-03        -2.76238     920.872E-03    -214.335E-03     234.773E-03    -117.020E-03    -117.753E-03    -116.079E-03     233.832E-03    -117.753E-03     36.1234E-03    -41.0270E+06    -52.3012E+06    -142.753E+06    -64.8708E+06    -130.183E+06    -41.0270E+06    -30.7122E+06         46.5705
            1746     9.78202E-03     111.315E-03     906.725E-03     845.892E-03        -2.72748     842.698E-03        -2.72428     906.725E-03    -211.612E-03     234.717E-03    -117.011E-03    -117.706E-03    -115.355E-03     233.061E-03    -117.706E-03     47.5589E-03    -33.0863E+06    -40.9963E+06    -102.372E+06    -56.9062E+06    -86.4623E+06    -33.0863E+06    -25.9638E+06         47.8027
            1747     10.6722E-03     111.376E-03     889.236E-03     819.260E-03        -2.68349     816.329E-03        -2.68056     889.236E-03    -200.821E-03     235.070E-03    -117.303E-03    -117.767E-03    -114.450E-03     232.026E-03    -117.577E-03     64.5315E-03     12.1786E+06    -27.6295E+06    -63.4219E+06    -49.2231E+06    -4.74376E+06    -24.9060E+06    -13.3981E+06         49.0338
            1748     11.5617E-03     111.457E-03     867.430E-03     790.742E-03        -2.63326     788.174E-03        -2.63069     867.430E-03    -185.750E-03     236.355E-03    -117.532E-03    -118.824E-03    -113.301E-03     230.840E-03    -117.539E-03     86.8879E-03     84.7357E+06     9.92661E+06    -41.9288E+06    -41.5268E+06     84.3337E+06     9.92661E+06     1.27046E+06         50.2168
            1749     12.4532E-03     111.575E-03     840.584E-03     761.195E-03        -2.57699     759.186E-03        -2.57498     840.584E-03    -162.146E-03     240.378E-03    -117.681E-03    -122.697E-03    -113.099E-03     230.780E-03    -117.681E-03     115.557E-03     123.593E+06     70.8240E+06    -33.3361E+06    -32.8751E+06     123.132E+06     70.8240E+06     8.16700E+06         51.3009
            1750     13.3441E-03     111.732E-03     811.928E-03     733.442E-03        -2.52059     732.011E-03        -2.51916     811.928E-03    -134.742E-03     240.206E-03    -117.757E-03    -122.449E-03    -112.870E-03     230.627E-03    -117.757E-03     115.357E-03     133.829E+06     113.969E+06    -24.0593E+06    -23.7203E+06     133.490E+06     113.969E+06     6.71208E+06         52.2358
            1751     14.2368E-03     111.844E-03     785.771E-03     705.404E-03        -2.46660     708.271E-03        -2.46579     782.088E-03    -99.1207E-03     246.538E-03    -117.639E-03    -128.899E-03    -113.381E-03     231.020E-03    -117.639E-03     143.925E-03     139.091E+06     126.662E+06    -14.6414E+06    -14.5435E+06     138.994E+06     126.662E+06     3.41512E+06         52.9754
            1752     15.1294E-03     112.073E-03     765.105E-03     677.916E-03        -2.41802     687.983E-03        -2.41772     754.735E-03    -56.9053E-03     243.089E-03    -115.190E-03    -127.899E-03    -113.461E-03     230.872E-03    -117.411E-03     106.911E-03     142.364E+06     124.910E+06    -6.65730E+06    -6.63401E+06     142.341E+06     124.910E+06     1.33961E+06         53.4844
            1753     890.806E-06     112.463E-03         1.08099     267.982E-03        -2.31258         1.08006        -2.31214     268.470E-03    -66.2580E-03     234.659E-03    -117.097E-03    -117.561E-03    -117.289E-03     234.656E-03    -117.367E-03    -815.209E-06    -109.174E+06    -112.805E+06    -243.606E+06    -112.795E+06    -243.296E+06    -109.493E+06    -4.77250E+06         39.7680
            1754     1.77917E-03     112.463E-03     676.351E-03     674.367E-03        -2.31526     675.361E-03        -2.31476     674.855E-03    -64.2587E-03     234.736E-03    -117.310E-03    -117.426E-03    -117.353E-03     234.735E-03    -117.382E-03     346.030E-06    -101.112E+06    -106.572E+06    -233.318E+06    -107.868E+06    -232.022E+06    -101.112E+06    -11.9665E+06         39.9811
            1755     2.66832E-03     112.460E-03     679.289E-03     675.428E-03        -2.31896     677.858E-03        -2.31785     675.749E-03    -113.021E-03     235.005E-03    -117.416E-03    -117.589E-03    -117.542E-03     235.004E-03    -117.462E-03     848.858E-06    -94.5790E+06    -100.937E+06    -231.887E+06    -103.405E+06    -229.420E+06    -94.5790E+06    -17.6756E+06         40.3287
            1756     3.55683E-03     112.459E-03     682.435E-03     675.804E-03        -2.32364     679.856E-03        -2.32200     676.747E-03    -137.164E-03     235.165E-03    -117.492E-03    -117.674E-03    -117.594E-03     235.159E-03    -117.565E-03     2.61844E-03    -84.4428E+06    -93.9659E+06    -221.723E+06    -97.6956E+06    -217.993E+06    -84.4428E+06    -21.1720E+06         40.8151
            1757     4.44623E-03     112.459E-03     686.556E-03     676.187E-03        -2.32840     682.892E-03        -2.32598     677.433E-03    -167.346E-03     234.956E-03    -117.310E-03    -117.646E-03    -117.284E-03     234.930E-03    -117.646E-03     5.76514E-03    -72.3168E+06    -86.8201E+06    -212.108E+06    -92.2010E+06    -206.728E+06    -72.3168E+06    -25.2467E+06         41.4422
            1758     5.33591E-03     112.464E-03     690.317E-03     675.769E-03        -2.33271     685.361E-03        -2.32960     677.617E-03    -190.571E-03     234.853E-03    -117.167E-03    -117.686E-03    -117.102E-03     234.788E-03    -117.686E-03     9.37489E-03    -62.6285E+06    -78.8126E+06    -207.824E+06    -86.3544E+06    -200.282E+06    -62.6285E+06    -30.0860E+06         42.2088
            1759     6.22531E-03     112.472E-03     693.648E-03     674.223E-03        -2.33565     687.097E-03        -2.33192     677.040E-03    -209.083E-03     234.837E-03    -117.148E-03    -117.689E-03    -117.005E-03     234.694E-03    -117.689E-03     13.8765E-03    -58.9790E+06    -71.4723E+06    -199.197E+06    -81.5531E+06    -189.117E+06    -58.9790E+06    -34.2839E+06         43.1089
            1760     7.11391E-03     112.486E-03     696.168E-03     671.418E-03        -2.33648     687.860E-03        -2.33214     675.386E-03    -225.926E-03     234.803E-03    -117.111E-03    -117.692E-03    -116.818E-03     234.510E-03    -117.692E-03     19.9921E-03    -56.3982E+06    -65.8657E+06    -187.703E+06     -78.743E+06    -174.826E+06    -56.3982E+06    -37.2675E+06         44.1309
            1761     8.00300E-03     112.508E-03     697.243E-03     666.529E-03        -2.33403     686.909E-03        -2.32941     672.246E-03    -233.230E-03     234.678E-03    -116.986E-03    -117.692E-03    -116.416E-03     234.107E-03    -117.692E-03     27.9087E-03    -51.9044E+06    -58.6481E+06    -171.997E+06    -74.2984E+06    -156.346E+06    -51.9044E+06    -38.9109E+06         45.2558
            1762     8.89344E-03     112.539E-03     696.957E-03     659.958E-03        -2.32853     684.751E-03        -2.32374     667.379E-03    -237.393E-03     234.547E-03    -116.877E-03    -117.671E-03    -115.915E-03     233.586E-03    -117.671E-03     36.4994E-03    -44.6852E+06    -48.9097E+06    -146.894E+06    -67.4544E+06    -127.920E+06    -45.1146E+06    -38.2623E+06         46.4570
            1763     9.78266E-03     112.581E-03     695.026E-03     651.483E-03        -2.31955     681.296E-03        -2.31486     660.523E-03    -234.729E-03     234.653E-03    -117.014E-03    -117.640E-03    -115.345E-03     232.985E-03    -117.640E-03     47.7695E-03    -35.7027E+06    -39.2244E+06    -114.330E+06    -60.2314E+06    -92.8938E+06    -36.1321E+06    -33.7156E+06         47.6999
            1764     10.6720E-03     112.639E-03     691.204E-03     640.620E-03        -2.30644     676.723E-03        -2.30216     650.819E-03    -223.874E-03     235.325E-03    -117.289E-03    -118.035E-03    -114.676E-03     232.207E-03    -117.531E-03     65.2694E-03    -3.21073E+06    -33.2659E+06    -75.6639E+06    -53.3098E+06    -27.4590E+06    -31.3717E+06    -21.4711E+06         48.9426
            1765     11.5622E-03     112.724E-03     685.185E-03     627.357E-03        -2.28887     671.492E-03        -2.28514     637.322E-03    -208.037E-03     236.803E-03    -117.447E-03    -119.356E-03    -113.786E-03     231.234E-03    -117.447E-03     87.5511E-03     65.9215E+06    -9.85761E+06    -47.1124E+06    -45.6933E+06     64.5024E+06    -9.85761E+06    -5.50518E+06         50.1374
            1766     12.4523E-03     112.837E-03     676.915E-03     611.742E-03        -2.26700     666.429E-03        -2.26407     619.295E-03    -183.619E-03     239.865E-03    -117.557E-03    -122.307E-03    -112.569E-03     230.126E-03    -117.557E-03     116.079E-03     118.576E+06     49.5405E+06    -37.1833E+06    -37.0563E+06     118.449E+06     49.5405E+06     3.09396E+06         51.2332
            1767     13.3460E-03     112.994E-03     669.233E-03     596.587E-03        -2.24617     663.853E-03        -2.24408     599.872E-03    -154.190E-03     238.995E-03    -117.636E-03    -121.359E-03    -111.674E-03     229.310E-03    -117.636E-03     115.447E-03     136.152E+06     106.991E+06    -25.9187E+06    -25.7604E+06     135.993E+06     106.991E+06     4.18077E+06         52.1792
            1768     14.2374E-03     113.106E-03     666.643E-03     579.340E-03        -2.22875     664.962E-03        -2.22753     579.799E-03    -116.089E-03     244.947E-03    -117.493E-03    -127.455E-03    -112.080E-03     229.573E-03    -117.493E-03     142.565E-03     144.107E+06     129.289E+06    -14.5063E+06    -14.3692E+06     143.970E+06     129.289E+06     3.90729E+06         52.9274
            1769     15.1332E-03     113.330E-03     670.694E-03     562.609E-03        -2.21837     670.203E-03        -2.21788     562.609E-03    -70.6368E-03     241.173E-03    -114.387E-03    -126.786E-03    -111.786E-03     228.987E-03    -117.201E-03     107.416E-03     144.187E+06     128.115E+06    -6.92333E+06    -6.85459E+06     144.119E+06     128.115E+06     2.21639E+06         53.4411
            1770     888.449E-06     113.728E-03     766.003E-03     475.552E-06        -1.71610     764.903E-03        -1.71530     779.685E-06    -72.7748E-03     234.332E-03    -116.856E-03    -117.476E-03    -117.475E-03     234.331E-03    -116.856E-03    -640.586E-06    -95.8979E+06    -96.8192E+06    -226.915E+06    -96.5360E+06    -226.510E+06    -96.5855E+06    -5.89520E+06         39.5930
            1771     1.77898E-03     113.726E-03     388.518E-03     383.559E-03        -1.72380     387.311E-03        -1.72290     383.864E-03    -66.9765E-03     234.418E-03    -117.161E-03    -117.257E-03    -117.215E-03     234.417E-03    -117.201E-03     361.307E-06    -91.3157E+06    -94.1812E+06    -215.092E+06    -95.4962E+06    -213.689E+06    -91.4039E+06    -12.4619E+06         39.8045
            1772     2.66848E-03     113.725E-03     397.298E-03     386.543E-03        -1.73610     395.443E-03        -1.73424     386.543E-03    -122.153E-03     234.572E-03    -117.220E-03    -117.352E-03    -117.278E-03     234.569E-03    -117.292E-03     1.66138E-03    -82.2604E+06    -89.8687E+06    -215.004E+06    -92.8270E+06    -212.046E+06    -82.2604E+06    -18.8075E+06         40.1497
            1773     3.55815E-03     113.723E-03     408.212E-03     390.136E-03        -1.75237     405.520E-03        -1.74967     390.136E-03    -146.960E-03     234.727E-03    -117.272E-03    -117.456E-03    -117.353E-03     234.719E-03    -117.366E-03     3.33622E-03    -76.1516E+06    -84.5164E+06    -209.969E+06    -89.3660E+06    -205.120E+06    -76.1516E+06    -23.9689E+06         40.6337
            1774     4.44743E-03     113.723E-03     422.721E-03     394.262E-03        -1.77219     418.731E-03        -1.76820     394.262E-03    -181.844E-03     234.679E-03    -117.202E-03    -117.476E-03    -117.220E-03     234.647E-03    -117.428E-03     6.30388E-03    -68.9453E+06    -77.7450E+06    -199.338E+06    -84.3958E+06    -192.687E+06    -68.9453E+06    -27.5576E+06         41.2589
            1775     5.33624E-03     113.728E-03     438.511E-03     398.609E-03        -1.79407     433.461E-03        -1.78902     398.609E-03    -206.962E-03     234.557E-03    -117.069E-03    -117.488E-03    -116.988E-03     234.476E-03    -117.488E-03     10.4123E-03    -58.6310E+06    -70.4281E+06    -194.416E+06    -79.5314E+06    -185.313E+06    -58.6310E+06    -32.1411E+06         42.0247
            1776     6.22546E-03     113.736E-03     455.635E-03     402.887E-03        -1.81736     449.613E-03        -1.81133     402.887E-03    -228.538E-03     234.530E-03    -117.011E-03    -117.519E-03    -116.837E-03     234.356E-03    -117.519E-03     15.2959E-03    -51.7668E+06    -63.4115E+06    -188.963E+06    -74.7595E+06    -177.615E+06    -51.7668E+06    -35.8770E+06         42.9261
            1777     7.11552E-03     113.751E-03     473.285E-03     406.770E-03        -1.84116     466.458E-03        -1.83434     406.770E-03    -246.229E-03     234.619E-03    -117.086E-03    -117.532E-03    -116.747E-03     234.280E-03    -117.532E-03     21.5422E-03    -47.5911E+06    -55.8557E+06    -177.293E+06    -69.8235E+06    -163.325E+06    -47.5911E+06    -38.4683E+06         43.9520
            1778     8.00506E-03     113.772E-03     490.641E-03     409.841E-03        -1.86428     483.471E-03        -1.85711     409.841E-03    -255.053E-03     234.771E-03    -117.186E-03    -117.584E-03    -116.605E-03     234.156E-03    -117.551E-03     29.1008E-03    -44.1317E+06    -47.4469E+06    -164.319E+06    -65.5384E+06    -146.228E+06    -44.1317E+06    -42.1532E+06         45.0834
            1779     8.89353E-03     113.804E-03     508.068E-03     411.866E-03        -1.88648     500.806E-03        -1.87922     411.866E-03    -259.432E-03     234.629E-03    -117.038E-03    -117.591E-03    -116.069E-03     233.626E-03    -117.557E-03     37.2697E-03    -40.1110E+06    -41.4993E+06    -147.308E+06    -62.0570E+06    -125.759E+06    -41.1016E+06    -42.5537E+06         46.2937
            1780     9.78353E-03     113.846E-03     525.218E-03     412.521E-03        -1.90720     518.238E-03        -1.90022     412.521E-03    -256.774E-03     234.495E-03    -116.961E-03    -117.534E-03    -115.252E-03     232.787E-03    -117.534E-03     48.3739E-03    -33.0636E+06    -36.3698E+06    -120.851E+06    -58.2964E+06    -96.5059E+06    -35.4819E+06    -38.5997E+06         47.5484
            1781     10.6739E-03     113.904E-03     542.189E-03     410.889E-03        -1.92565     535.902E-03        -1.91937     410.889E-03    -245.944E-03     235.142E-03    -117.209E-03    -117.933E-03    -114.489E-03     231.923E-03    -117.434E-03     66.2239E-03    -12.4644E+06    -33.0239E+06    -84.0120E+06    -51.7428E+06    -45.6215E+06    -32.1360E+06    -30.0063E+06         48.8049
            1782     11.5635E-03     113.988E-03     559.247E-03     406.074E-03        -1.94140     553.841E-03        -1.93599     406.074E-03    -229.659E-03     236.418E-03    -117.269E-03    -119.149E-03    -113.438E-03     230.707E-03    -117.269E-03     88.6436E-03     47.8354E+06    -24.1592E+06    -51.0204E+06    -43.9098E+06     40.7248E+06    -24.1592E+06    -13.8464E+06         50.0144
            1783     12.4545E-03     114.100E-03     577.159E-03     397.434E-03        -1.95462     572.919E-03        -1.95038     397.434E-03    -204.726E-03     239.571E-03    -117.302E-03    -122.269E-03    -112.376E-03     229.678E-03    -117.302E-03     116.919E-03     112.589E+06     28.8567E+06    -35.9503E+06    -35.8570E+06     112.496E+06     28.8567E+06    -999.291E+03         51.1248
            1784     13.3464E-03     114.253E-03     598.071E-03     387.881E-03        -1.97008     595.037E-03        -1.96705     387.881E-03    -174.071E-03     238.419E-03    -117.318E-03    -121.101E-03    -111.064E-03     228.473E-03    -117.408E-03     116.927E-03     136.859E+06     96.7043E+06    -27.5157E+06    -27.5013E+06     136.844E+06     96.7043E+06     1.51394E+06         52.0844
            1785     14.2413E-03     114.368E-03     623.204E-03     378.204E-03        -1.99019     621.400E-03        -1.98839     378.204E-03    -134.028E-03     243.124E-03    -117.153E-03    -125.970E-03    -110.373E-03     227.616E-03    -117.244E-03     142.806E-03     144.859E+06     126.095E+06    -17.6730E+06    -17.5931E+06     144.779E+06     126.095E+06     1.52729E+06         52.8440
            1786     15.1363E-03     114.584E-03     652.841E-03     371.821E-03        -2.01794     652.067E-03        -2.01716     371.821E-03    -86.2826E-03     238.114E-03    -112.642E-03    -125.472E-03    -108.960E-03     225.812E-03    -116.852E-03     109.629E-03     145.132E+06     128.651E+06    -7.39130E+06    -7.29528E+06     145.036E+06     128.651E+06     1.81217E+06         53.3651
            1787     890.982E-06     114.991E-03     443.261E-03    -250.298E-03        -1.12777     441.835E-03        -1.12635    -250.298E-03    -76.7370E-03     233.465E-03    -116.337E-03    -117.128E-03    -116.892E-03     233.463E-03    -116.571E-03     213.159E-06    -81.2113E+06    -82.2517E+06    -210.275E+06    -82.0532E+06    -209.897E+06    -81.7880E+06    -6.38039E+06         39.3476
            1788     1.77967E-03     114.989E-03     106.603E-03     97.7726E-03        -1.14032     104.635E-03        -1.13835     97.7726E-03    -71.1714E-03     233.812E-03    -116.762E-03    -117.050E-03    -117.008E-03     233.811E-03    -116.802E-03     1.39678E-03    -79.3181E+06    -81.6731E+06    -198.067E+06    -82.5160E+06    -196.927E+06    -79.6151E+06    -10.9937E+06         39.5568
            1789     2.66963E-03     114.988E-03     121.434E-03     102.340E-03        -1.16116     117.608E-03        -1.15734     102.340E-03    -130.655E-03     233.736E-03    -116.717E-03    -117.019E-03    -116.817E-03     233.731E-03    -116.914E-03     2.36883E-03    -71.9922E+06    -78.3223E+06    -195.228E+06    -81.3324E+06    -192.218E+06    -71.9922E+06    -17.9233E+06         39.8986
            1790     3.55917E-03     114.987E-03     140.802E-03     108.398E-03        -1.18850     135.425E-03        -1.18312     108.398E-03    -157.157E-03     233.743E-03    -116.734E-03    -117.009E-03    -116.764E-03     233.724E-03    -116.960E-03     4.70489E-03    -65.0649E+06    -72.5256E+06    -194.407E+06    -78.0982E+06    -188.834E+06    -65.0649E+06    -25.2888E+06         40.3789
            1791     4.44833E-03     114.988E-03     165.939E-03     115.754E-03        -1.22308     158.203E-03        -1.21535     115.754E-03    -195.741E-03     233.806E-03    -116.768E-03    -117.038E-03    -116.766E-03     233.755E-03    -116.989E-03     8.05440E-03    -60.4415E+06    -66.1233E+06    -187.302E+06    -74.0516E+06    -179.373E+06    -60.4415E+06    -29.8149E+06         41.0008
            1792     5.33871E-03     114.991E-03     194.320E-03     124.086E-03        -1.26239     184.918E-03        -1.25299     124.086E-03    -222.607E-03     233.762E-03    -116.720E-03    -117.041E-03    -116.602E-03     233.643E-03    -117.041E-03     12.5727E-03    -52.3859E+06    -61.3852E+06    -181.286E+06    -71.0684E+06    -171.602E+06    -52.3859E+06    -32.5989E+06         41.7647
            1793     6.22878E-03     115.001E-03     225.918E-03     133.038E-03        -1.30587     215.074E-03        -1.29502     133.038E-03    -246.866E-03     234.036E-03    -116.825E-03    -117.211E-03    -116.706E-03     233.810E-03    -117.104E-03     17.6231E-03    -44.8025E+06    -55.8785E+06    -176.999E+06    -68.2573E+06    -164.620E+06    -44.8025E+06    -36.4718E+06         42.6666
            1794     7.11771E-03     115.014E-03     259.427E-03     142.303E-03        -1.35222     247.680E-03        -1.34047     142.303E-03    -265.364E-03     234.284E-03    -116.993E-03    -117.291E-03    -116.722E-03     233.877E-03    -117.155E-03     23.5873E-03    -41.2768E+06    -47.6858E+06    -166.954E+06    -64.1594E+06    -150.288E+06    -41.4698E+06    -41.1756E+06         43.6959
            1795     8.00667E-03     115.038E-03     294.403E-03     151.485E-03        -1.40025     282.495E-03        -1.38834     151.485E-03    -275.491E-03     234.436E-03    -117.148E-03    -117.288E-03    -116.506E-03     233.708E-03    -117.202E-03     31.5841E-03    -38.4276E+06    -41.8794E+06    -156.156E+06    -60.4054E+06    -136.109E+06    -39.9483E+06    -43.6754E+06         44.8347
            1796     8.89607E-03     115.069E-03     330.808E-03     160.379E-03        -1.44975     319.261E-03        -1.43821     160.379E-03    -279.673E-03     234.433E-03    -117.084E-03    -117.350E-03    -116.044E-03     233.277E-03    -117.233E-03     40.0008E-03    -34.2297E+06    -38.8746E+06    -144.054E+06    -57.1418E+06    -121.427E+06    -38.5896E+06    -44.1464E+06         46.0566
            1797     9.78544E-03     115.109E-03     368.200E-03     168.613E-03        -1.49998     357.491E-03        -1.48927     168.613E-03    -276.923E-03     234.409E-03    -116.978E-03    -117.432E-03    -115.239E-03     232.465E-03    -117.226E-03     51.5133E-03    -26.7285E+06    -35.1014E+06    -122.770E+06    -52.6368E+06    -96.8617E+06    -35.1014E+06    -42.2569E+06         47.3269
            1798     10.6750E-03     115.168E-03     406.557E-03     175.224E-03        -1.54971     397.188E-03        -1.54034     175.224E-03    -266.099E-03     234.732E-03    -117.048E-03    -117.684E-03    -114.066E-03     231.213E-03    -117.147E-03     69.2424E-03    -13.5140E+06    -30.8965E+06    -90.3827E+06    -47.9321E+06    -55.9646E+06    -30.8965E+06    -36.5190E+06         48.6023
            1799     11.5665E-03     115.251E-03     445.820E-03     179.323E-03        -1.59837     437.982E-03        -1.59053     179.323E-03    -249.319E-03     235.887E-03    -116.948E-03    -118.939E-03    -112.838E-03     229.786E-03    -116.948E-03     91.4448E-03     30.4663E+06    -28.6136E+06    -56.0218E+06    -41.4309E+06     15.8753E+06    -28.6136E+06    -23.6074E+06         49.8332
            1800     12.4591E-03     115.362E-03     486.530E-03     180.296E-03        -1.64585     480.462E-03        -1.63978     180.296E-03    -224.342E-03     238.779E-03    -116.821E-03    -121.958E-03    -111.636E-03     228.457E-03    -116.821E-03     119.278E-03     98.6484E+06     4.28338E+06    -34.0136E+06    -32.3609E+06     96.9957E+06     4.28338E+06    -6.61003E+06         50.9658
            1801     13.3517E-03     115.515E-03     530.849E-03     180.956E-03        -1.69705     526.532E-03        -1.69273     180.956E-03    -193.150E-03     237.196E-03    -116.771E-03    -120.425E-03    -109.768E-03     226.629E-03    -116.861E-03     120.333E-03     136.932E+06     74.9360E+06    -24.1755E+06    -24.1578E+06     136.915E+06     74.9360E+06     1.60978E+06         51.9474
            1802     14.2458E-03     115.623E-03     580.100E-03     182.024E-03        -1.75463     577.454E-03        -1.75198     182.024E-03    -153.766E-03     241.638E-03    -116.614E-03    -125.024E-03    -108.530E-03     225.234E-03    -116.705E-03     146.726E-03     145.654E+06     121.252E+06    -17.4646E+06    -17.4423E+06     145.632E+06     121.252E+06     320.887E+03         52.7264
            1803     15.1462E-03     115.838E-03     634.305E-03     186.761E-03        -1.82056     633.073E-03        -1.81932     186.761E-03    -104.646E-03     235.534E-03    -111.007E-03    -124.526E-03    -106.487E-03     222.722E-03    -116.234E-03     111.785E-03     144.853E+06     127.528E+06    -9.85432E+06    -9.82113E+06     144.820E+06     127.528E+06     128.167E+03         53.2610
            1804     890.279E-06     116.251E-03     132.629E-03    -333.066E-03    -714.344E-03     122.853E-03    -556.230E-03    -481.404E-03    -77.0403E-03     231.863E-03    -115.302E-03    -116.561E-03    -116.175E-03     231.859E-03    -115.685E-03     601.572E-06    -67.9071E+06    -71.8851E+06    -194.188E+06    -70.4893E+06    -193.718E+06    -69.7736E+06    -7.21206E+06         38.9957
            1805     1.78137E-03     116.253E-03    -143.375E-03    -175.873E-03    -596.880E-03    -167.237E-03    -572.109E-03    -176.782E-03    -75.9012E-03     232.098E-03    -115.847E-03    -116.251E-03    -116.096E-03     232.091E-03    -115.995E-03     2.74483E-03    -63.9973E+06    -67.4571E+06    -183.688E+06    -68.3537E+06    -182.582E+06    -64.2061E+06    -10.7915E+06         39.2018
            1806     2.67079E-03     116.249E-03    -120.134E-03    -170.532E-03    -627.490E-03    -149.169E-03    -598.456E-03    -170.532E-03    -138.002E-03     232.128E-03    -115.929E-03    -116.199E-03    -116.040E-03     232.114E-03    -116.074E-03     4.05205E-03    -58.1919E+06    -62.6784E+06    -175.877E+06    -65.4657E+06    -173.090E+06    -58.1919E+06    -16.9821E+06         39.5394
            1807     3.56205E-03     116.249E-03    -97.0237E-03    -162.032E-03    -661.148E-03    -123.646E-03    -634.526E-03    -162.032E-03    -167.142E-03     231.901E-03    -115.786E-03    -116.116E-03    -115.744E-03     231.859E-03    -116.116E-03     7.24098E-03    -50.4819E+06    -58.6070E+06    -175.168E+06    -63.9049E+06    -169.870E+06    -50.4819E+06    -24.0606E+06         40.0149
            1808     4.45323E-03     116.250E-03    -63.3983E-03    -151.588E-03    -708.418E-03    -91.9531E-03    -679.863E-03    -151.588E-03    -208.647E-03     232.128E-03    -115.889E-03    -116.239E-03    -115.906E-03     232.041E-03    -116.135E-03     10.8146E-03    -46.4278E+06    -54.9475E+06    -173.809E+06    -62.7961E+06    -165.961E+06    -46.4278E+06    -29.3832E+06         40.6324
            1809     5.34302E-03     116.254E-03    -26.2186E-03    -139.495E-03    -761.268E-03    -53.9062E-03    -733.580E-03    -139.495E-03    -237.554E-03     232.524E-03    -116.101E-03    -116.423E-03    -116.151E-03     232.344E-03    -116.193E-03     15.4238E-03    -43.7803E+06    -50.1477E+06    -168.918E+06    -60.1342E+06    -158.932E+06    -43.7803E+06    -32.8087E+06         41.3936
            1810     6.23273E-03     116.264E-03     16.6118E-03    -126.085E-03    -821.562E-03    -10.3957E-03    -794.554E-03    -126.085E-03    -264.034E-03     232.890E-03    -116.260E-03    -116.630E-03    -116.262E-03     232.554E-03    -116.292E-03     21.3076E-03    -37.6609E+06    -43.7827E+06    -162.303E+06    -55.9886E+06    -149.454E+06    -38.3037E+06    -36.7319E+06         42.2957
            1811     7.12229E-03     116.279E-03     62.8311E-03    -111.608E-03    -887.173E-03     37.4445E-03    -861.786E-03    -111.608E-03    -283.010E-03     233.106E-03    -116.383E-03    -116.723E-03    -116.151E-03     232.534E-03    -116.383E-03     27.8693E-03    -33.8954E+06    -37.7334E+06    -154.109E+06    -53.7048E+06    -137.302E+06    -34.7312E+06    -40.9091E+06         43.3300
            1812     8.01240E-03     116.300E-03     112.672E-03    -96.4224E-03    -957.398E-03     89.5334E-03    -934.259E-03    -96.4224E-03    -293.985E-03     233.106E-03    -116.438E-03    -116.669E-03    -115.679E-03     232.117E-03    -116.438E-03     36.6674E-03    -32.2598E+06    -34.7989E+06    -146.980E+06    -53.1990E+06    -126.653E+06    -34.1862E+06    -43.5551E+06         44.4799
            1813     8.90241E-03     116.334E-03     165.461E-03    -80.8185E-03        -1.03151     145.020E-03        -1.01107    -80.8185E-03    -297.855E-03     233.337E-03    -116.464E-03    -116.874E-03    -115.347E-03     231.810E-03    -116.464E-03     45.8109E-03    -28.1601E+06    -33.6031E+06    -137.928E+06    -51.8687E+06    -114.219E+06    -33.6031E+06    -45.0223E+06         45.7194
            1814     9.79231E-03     116.373E-03     220.857E-03    -65.1668E-03        -1.10881     203.264E-03        -1.09122    -65.1668E-03    -294.825E-03     233.768E-03    -116.466E-03    -117.301E-03    -114.853E-03     231.319E-03    -116.466E-03     57.7692E-03    -20.9419E+06    -32.1761E+06    -122.303E+06    -49.5491E+06    -93.6954E+06    -32.1761E+06    -45.3040E+06         47.0136
            1815     10.6831E-03     116.432E-03     278.618E-03    -50.3813E-03        -1.18780     264.128E-03        -1.17331    -50.3813E-03    -283.705E-03     234.399E-03    -116.418E-03    -117.980E-03    -113.837E-03     230.255E-03    -116.418E-03     75.2895E-03    -9.43082E+06    -29.2121E+06    -96.3231E+06    -45.0357E+06    -60.7182E+06    -29.2121E+06    -41.7395E+06         48.3184
            1816     11.5746E-03     116.512E-03     338.170E-03    -37.3892E-03        -1.26742     326.649E-03        -1.25589    -37.3892E-03    -266.226E-03     235.722E-03    -116.268E-03    -119.454E-03    -112.538E-03     228.806E-03    -116.268E-03     97.3055E-03     18.5807E+06    -26.0494E+06    -62.0467E+06    -39.2704E+06    -4.19563E+06    -26.0494E+06    -31.0857E+06         49.5831
            1817     12.4656E-03     116.626E-03     399.952E-03    -26.7027E-03        -1.34748     391.341E-03        -1.33887    -26.7027E-03    -241.044E-03     237.549E-03    -116.007E-03    -121.542E-03    -110.366E-03     226.373E-03    -116.007E-03     123.834E-03     77.9675E+06    -15.5457E+06    -37.1106E+06    -32.8941E+06     73.7509E+06    -15.5457E+06    -15.3559E+06         50.7528
            1818     13.3629E-03     116.768E-03     465.852E-03    -15.7326E-03        -1.43264     459.867E-03        -1.42665    -15.7326E-03    -209.569E-03     235.110E-03    -115.841E-03    -119.268E-03    -107.819E-03     223.677E-03    -115.857E-03     124.658E-03     129.346E+06     38.3000E+06    -25.0262E+06    -24.6264E+06     128.946E+06     38.3000E+06    -2.62653E+06         51.7729
            1819     14.2618E-03     116.883E-03     536.537E-03    -4.01854E-03        -1.52462     532.817E-03        -1.52090    -4.01854E-03    -171.719E-03     239.745E-03    -115.699E-03    -124.046E-03    -106.668E-03     222.383E-03    -115.715E-03     150.847E-03     147.328E+06     106.916E+06    -15.8187E+06    -15.8036E+06     147.313E+06     106.916E+06     429.226E+03         52.5867
            1820     15.1600E-03     117.086E-03     613.636E-03     11.6563E-03        -1.62819     611.738E-03        -1.62629     11.6563E-03    -125.382E-03     233.257E-03    -109.690E-03    -123.567E-03    -104.657E-03     219.921E-03    -115.264E-03     113.978E-03     145.937E+06     128.976E+06    -7.04526E+06    -7.02432E+06     145.916E+06     128.976E+06     171.225E+03         53.1462
            1821     891.528E-06     117.511E-03     117.266E-03    -317.759E-03    -687.076E-03    -185.156E-03    -15.3377E-03    -687.076E-03    -74.6658E-03     228.938E-03    -113.512E-03    -115.426E-03    -115.272E-03     228.932E-03    -113.660E-03     2.05667E-03    -55.9445E+06    -62.4451E+06    -177.265E+06    -60.9808E+06    -176.517E+06    -58.1575E+06    -8.86153E+06         38.4940
            1822     1.78364E-03     117.510E-03    -14.0571E-03    -427.513E-03    -449.056E-03    -421.352E-03    -35.9040E-03    -433.370E-03    -81.2169E-03     228.687E-03    -114.116E-03    -114.571E-03    -114.216E-03     228.669E-03    -114.454E-03     4.77572E-03    -51.6506E+06    -54.4281E+06    -168.156E+06    -55.6515E+06    -166.378E+06    -52.2060E+06    -13.4577E+06         38.6967
            1823     2.67635E-03     117.510E-03    -16.3711E-03    -414.355E-03    -462.739E-03    -398.396E-03    -69.4843E-03    -425.585E-03    -143.687E-03     228.796E-03    -114.224E-03    -114.572E-03    -114.326E-03     228.759E-03    -114.433E-03     6.89637E-03    -46.4358E+06    -48.6094E+06    -160.860E+06    -51.6470E+06    -157.823E+06    -46.4358E+06    -18.1076E+06         39.0297
            1824     3.56733E-03     117.507E-03    -27.4173E-03    -394.388E-03    -474.047E-03    -365.490E-03    -115.583E-03    -414.779E-03    -176.311E-03     229.124E-03    -114.371E-03    -114.753E-03    -114.530E-03     229.035E-03    -114.505E-03     10.5459E-03    -38.3233E+06    -43.8292E+06    -156.498E+06    -48.6505E+06    -151.677E+06    -38.3233E+06    -22.5713E+06         39.5001
            1825     4.45894E-03     117.510E-03    -35.8436E-03    -371.730E-03    -492.915E-03    -325.489E-03    -173.599E-03    -401.400E-03    -220.128E-03     229.410E-03    -114.500E-03    -114.909E-03    -114.617E-03     229.232E-03    -114.615E-03     15.1357E-03    -31.0899E+06    -39.1844E+06    -158.115E+06    -46.0140E+06    -151.285E+06    -31.0899E+06    -27.6160E+06         40.1132
            1826     5.35019E-03     117.514E-03    -45.7612E-03    -346.247E-03    -513.069E-03    -276.736E-03    -242.572E-03    -385.769E-03    -251.186E-03     229.890E-03    -114.705E-03    -115.184E-03    -114.850E-03     229.555E-03    -114.705E-03     20.8152E-03    -29.1872E+06    -33.8512E+06    -154.244E+06    -43.6233E+06    -144.188E+06    -29.4713E+06    -32.9020E+06         40.8725
            1827     6.24129E-03     117.525E-03    -50.7250E-03    -322.817E-03    -536.748E-03    -220.518E-03    -321.717E-03    -368.056E-03    -279.447E-03     230.127E-03    -114.804E-03    -115.323E-03    -114.740E-03     229.544E-03    -114.804E-03     27.8374E-03    -26.1556E+06    -29.7683E+06    -148.948E+06    -41.9447E+06    -135.845E+06    -27.0824E+06    -37.4217E+06         41.7776
            1828     7.13266E-03     117.540E-03    -44.3318E-03    -309.569E-03    -562.683E-03    -158.236E-03    -409.818E-03    -348.531E-03    -298.884E-03     230.291E-03    -114.885E-03    -115.406E-03    -114.470E-03     229.355E-03    -114.885E-03     35.3610E-03    -21.6592E+06    -25.9295E+06    -142.261E+06    -40.0624E+06    -126.965E+06    -22.8229E+06    -39.3374E+06         42.8221
            1829     8.02349E-03     117.562E-03    -17.0404E-03    -311.934E-03    -594.224E-03    -89.9930E-03    -505.633E-03    -327.572E-03    -310.466E-03     230.702E-03    -114.942E-03    -115.759E-03    -114.257E-03     229.200E-03    -114.942E-03     44.8690E-03    -17.5493E+06    -20.8866E+06    -133.212E+06    -38.0929E+06    -115.080E+06    -18.4759E+06    -41.4836E+06         43.9908
            1830     8.91525E-03     117.594E-03     31.0691E-03    -305.558E-03    -656.114E-03    -17.1352E-03    -607.910E-03    -305.558E-03    -314.056E-03     231.322E-03    -114.978E-03    -116.344E-03    -114.118E-03     229.096E-03    -114.978E-03     54.9554E-03    -14.9310E+06    -20.6962E+06    -127.599E+06    -37.4836E+06    -106.844E+06    -18.8982E+06    -43.0914E+06         45.2588
            1831     9.80641E-03     117.636E-03     93.7463E-03    -282.856E-03    -749.390E-03     59.7834E-03    -715.427E-03    -282.856E-03    -310.551E-03     232.283E-03    -114.995E-03    -117.289E-03    -113.986E-03     228.981E-03    -114.995E-03     66.9802E-03    -11.8793E+06    -20.9539E+06    -112.897E+06    -38.0931E+06    -86.6828E+06    -20.9539E+06    -43.7581E+06         46.5914
            1832     10.6974E-03     117.692E-03     164.602E-03    -260.262E-03    -850.947E-03     140.168E-03    -826.513E-03    -260.262E-03    -298.999E-03     233.650E-03    -114.991E-03    -118.659E-03    -113.379E-03     228.369E-03    -114.991E-03     84.7312E-03    -4.96113E+06    -22.7079E+06    -95.2260E+06    -38.9285E+06    -61.2587E+06    -22.7079E+06    -43.2333E+06         47.9441
            1833     11.5882E-03     117.775E-03     240.593E-03    -238.623E-03    -957.368E-03     222.960E-03    -939.735E-03    -238.623E-03    -280.700E-03     234.960E-03    -114.885E-03    -120.075E-03    -111.670E-03     226.555E-03    -114.885E-03     107.053E-03     14.1243E+06    -22.4605E+06    -68.2108E+06    -36.6546E+06    -17.4318E+06    -22.4605E+06    -36.5852E+06         49.2651
            1834     12.4837E-03     117.881E-03     320.867E-03    -218.401E-03        -1.06713     308.591E-03        -1.05486    -218.401E-03    -254.627E-03     237.088E-03    -114.614E-03    -122.475E-03    -109.594E-03     224.207E-03    -114.614E-03     132.833E-03     62.8021E+06    -17.9706E+06    -39.3375E+06    -30.2127E+06     53.6773E+06    -17.9706E+06    -23.3138E+06         50.4971
            1835     13.3794E-03     118.024E-03     405.672E-03    -197.400E-03        -1.18279     397.586E-03        -1.17470    -197.400E-03    -221.934E-03     234.730E-03    -114.353E-03    -120.377E-03    -107.471E-03     221.840E-03    -114.369E-03     132.136E-03     116.574E+06     14.4970E+06    -24.0597E+06    -22.9126E+06     115.427E+06     14.4970E+06    -9.76323E+06         51.5805
            1836     14.2772E-03     118.131E-03     495.024E-03    -175.304E-03        -1.30530     490.134E-03        -1.30041    -175.304E-03    -183.892E-03     238.031E-03    -114.192E-03    -123.840E-03    -104.891E-03     219.099E-03    -114.208E-03     156.837E-03     145.527E+06     83.4880E+06    -14.7326E+06    -14.5730E+06     145.368E+06     83.4880E+06    -1.55703E+06         52.4533
            1837     15.1817E-03     118.338E-03     591.512E-03    -149.012E-03        -1.44091     588.805E-03        -1.43821    -149.012E-03    -144.606E-03     229.381E-03    -107.099E-03    -122.281E-03    -101.161E-03     214.910E-03    -113.749E-03     118.564E-03     144.578E+06     120.689E+06    -7.69264E+06    -7.64841E+06     144.534E+06     120.689E+06     1.44926E+06         53.0577
            1838     894.852E-06     118.766E-03     485.415E-03    -476.672E-03    -865.401E-03    -473.663E-03     482.406E-03    -865.401E-03    -69.8197E-03     223.593E-03    -111.175E-03    -112.418E-03    -112.187E-03     223.584E-03    -111.398E-03     2.73184E-03    -35.2884E+06    -42.0934E+06    -157.337E+06    -39.5045E+06    -156.556E+06    -38.6588E+06    -8.97202E+06         37.7974
            1839     1.78801E-03     118.764E-03     460.644E-03    -653.574E-03    -665.731E-03    -650.858E-03     457.928E-03    -665.731E-03    -86.7442E-03     223.244E-03    -111.397E-03    -111.846E-03    -111.456E-03     223.203E-03    -111.747E-03     6.86234E-03    -36.3344E+06    -38.1496E+06    -150.713E+06    -39.1364E+06    -148.748E+06    -37.3126E+06    -14.3877E+06         37.9977
            1840     2.68269E-03     118.763E-03     423.019E-03    -629.446E-03    -656.368E-03    -623.628E-03     417.202E-03    -656.368E-03    -148.032E-03     223.323E-03    -111.503E-03    -111.820E-03    -111.527E-03     223.218E-03    -111.692E-03     11.1879E-03    -33.8272E+06    -35.5325E+06    -145.563E+06    -38.1825E+06    -141.707E+06    -35.0329E+06    -20.0214E+06         38.3269
            1841     3.57685E-03     118.763E-03     372.265E-03    -594.611E-03    -643.499E-03    -584.177E-03     361.831E-03    -643.499E-03    -184.103E-03     223.969E-03    -111.770E-03    -112.198E-03    -111.984E-03     223.754E-03    -111.770E-03     16.2607E-03    -27.8176E+06    -30.0116E+06    -142.838E+06    -34.7205E+06    -137.347E+06    -28.6005E+06    -24.2389E+06         38.7937
            1842     4.47003E-03     118.764E-03     310.051E-03    -554.333E-03    -627.365E-03    -536.155E-03     291.873E-03    -627.365E-03    -229.265E-03     224.410E-03    -111.925E-03    -112.485E-03    -112.077E-03     224.002E-03    -111.925E-03     22.6686E-03    -19.8446E+06    -24.5196E+06    -143.092E+06    -31.5072E+06    -136.105E+06    -19.8446E+06    -27.7843E+06         39.4054
            1843     5.36390E-03     118.771E-03     238.245E-03    -507.170E-03    -608.348E-03    -477.425E-03     208.500E-03    -608.348E-03    -262.434E-03     224.742E-03    -112.042E-03    -112.700E-03    -111.999E-03     224.041E-03    -112.042E-03     29.9365E-03    -14.1334E+06    -21.4523E+06    -139.717E+06    -30.1301E+06    -130.755E+06    -14.4175E+06    -31.0189E+06         40.1678
            1844     6.25716E-03     118.780E-03     162.046E-03    -459.296E-03    -586.551E-03    -409.615E-03     112.365E-03    -586.551E-03    -292.321E-03     225.111E-03    -112.124E-03    -112.987E-03    -111.876E-03     224.000E-03    -112.124E-03     37.8691E-03    -11.4093E+06    -19.8845E+06    -134.365E+06    -30.6600E+06    -123.306E+06    -11.6933E+06    -33.6917E+06         41.0834
            1845     7.15085E-03     118.796E-03     90.8972E-03    -420.271E-03    -562.298E-03    -334.258E-03     4.88488E-03    -562.298E-03    -312.458E-03     225.660E-03    -112.174E-03    -113.485E-03    -111.799E-03     223.973E-03    -112.174E-03     46.8726E-03    -11.1462E+06    -17.5805E+06    -130.319E+06    -31.1222E+06    -115.221E+06    -12.7028E+06    -38.4102E+06         42.1485
            1846     8.04496E-03     118.819E-03     37.7459E-03    -398.085E-03    -539.369E-03    -251.397E-03    -112.295E-03    -536.017E-03    -324.767E-03     226.721E-03    -112.240E-03    -114.482E-03    -111.981E-03     224.221E-03    -112.240E-03     57.3928E-03    -10.7283E+06    -14.6521E+06    -124.533E+06    -29.8656E+06    -107.763E+06    -12.2850E+06    -39.7874E+06         43.3500
            1847     8.93756E-03     118.852E-03     11.9587E-03    -377.587E-03    -543.225E-03    -162.905E-03    -237.880E-03    -508.068E-03    -328.485E-03     228.020E-03    -112.327E-03    -115.693E-03    -112.157E-03     224.485E-03    -112.327E-03     68.5859E-03    -7.38328E+06    -13.2812E+06    -116.549E+06    -28.9900E+06    -97.3097E+06    -10.9141E+06    -40.5344E+06         44.6650
            1848     9.83060E-03     118.894E-03     24.9842E-03    -368.191E-03    -575.361E-03    -69.2546E-03    -370.475E-03    -478.838E-03    -324.728E-03     229.671E-03    -112.402E-03    -117.269E-03    -112.237E-03     224.639E-03    -112.402E-03     81.9900E-03    -5.39555E+06    -12.9514E+06    -103.841E+06    -28.2372E+06    -80.9993E+06    -12.9514E+06    -41.3635E+06         46.0598
            1849     10.7226E-03     118.953E-03     79.0065E-03    -393.638E-03    -613.839E-03     28.9048E-03    -508.402E-03    -448.973E-03    -312.713E-03     231.608E-03    -112.455E-03    -119.153E-03    -111.657E-03     224.112E-03    -112.455E-03     100.398E-03     292.866E+03    -12.6386E+06    -85.9877E+06    -27.6533E+06    -58.0416E+06    -12.6386E+06    -39.4053E+06         47.4898
            1850     11.6175E-03     119.031E-03     159.764E-03    -409.520E-03    -689.217E-03     130.409E-03    -650.188E-03    -419.194E-03    -293.419E-03     233.928E-03    -112.378E-03    -121.550E-03    -110.454E-03     222.832E-03    -112.378E-03     122.720E-03     15.3331E+06    -18.1168E+06    -63.3804E+06    -28.0295E+06    -20.0178E+06    -18.1168E+06    -37.6830E+06         48.9010
            1851     12.5120E-03     119.138E-03     253.008E-03    -390.052E-03    -812.536E-03     235.026E-03    -794.554E-03    -390.052E-03    -266.087E-03     237.650E-03    -112.207E-03    -125.443E-03    -109.365E-03     221.573E-03    -112.207E-03     148.486E-03     52.7517E+06    -15.0233E+06    -41.8935E+06    -26.7830E+06     37.6412E+06    -15.0233E+06    -29.2905E+06         50.2312
            1852     13.4091E-03     119.279E-03     353.653E-03    -359.641E-03    -954.545E-03     342.819E-03    -943.712E-03    -359.641E-03    -231.222E-03     235.692E-03    -112.021E-03    -123.671E-03    -107.698E-03     219.719E-03    -112.021E-03     147.253E-03     102.969E+06     5.86539E+06    -24.9216E+06    -22.2763E+06     100.324E+06     5.86539E+06    -14.7696E+06         51.4134
            1853     14.3068E-03     119.381E-03     459.506E-03    -327.559E-03        -1.10396     453.382E-03        -1.09783    -327.559E-03    -190.962E-03     237.798E-03    -111.832E-03    -125.966E-03    -103.834E-03     215.666E-03    -111.832E-03     169.929E-03     137.723E+06     55.1707E+06    -16.2199E+06    -15.9585E+06     137.461E+06     55.1707E+06    -4.09579E+06         52.3772
            1854     15.2140E-03     119.576E-03     569.962E-03    -291.194E-03        -1.26236     566.560E-03        -1.25896    -291.194E-03    -155.019E-03     226.628E-03    -104.861E-03    -121.766E-03    -98.7399E-03     210.158E-03    -111.418E-03     126.195E-03     140.309E+06     100.725E+06    -7.42168E+06    -7.36088E+06     140.248E+06     100.725E+06    -101.779E+03         53.0496
            1855     896.578E-06     120.011E-03     926.382E-03    -729.432E-03        -1.01579    -728.611E-03     925.561E-03        -1.01579    -64.1311E-03     214.538E-03    -106.972E-03    -107.566E-03    -107.307E-03     214.501E-03    -107.194E-03     5.60082E-03    -18.3669E+06    -24.9143E+06    -135.510E+06    -21.8600E+06    -134.823E+06    -22.1077E+06    -8.29283E+06         36.8704
            1856     1.79643E-03     120.010E-03     898.260E-03    -851.636E-03    -867.514E-03    -850.020E-03     896.644E-03    -867.514E-03    -90.7985E-03     214.560E-03    -107.113E-03    -107.446E-03    -107.175E-03     214.449E-03    -107.274E-03     11.1060E-03    -18.5596E+06    -20.7915E+06    -133.324E+06    -21.2394E+06    -131.527E+06    -19.9082E+06    -13.8258E+06         37.0701
            1857     2.69395E-03     120.008E-03     853.495E-03    -822.242E-03    -856.679E-03    -818.762E-03     850.015E-03    -856.679E-03    -149.687E-03     214.759E-03    -107.292E-03    -107.466E-03    -107.208E-03     214.500E-03    -107.292E-03     17.5041E-03    -16.1903E+06    -18.8090E+06    -127.014E+06    -21.2168E+06    -123.401E+06    -17.3959E+06    -19.1624E+06         37.3991
            1858     3.59203E-03     120.009E-03     792.530E-03    -779.754E-03    -841.903E-03    -773.625E-03     786.402E-03    -841.903E-03    -189.095E-03     215.110E-03    -107.355E-03    -107.756E-03    -107.252E-03     214.607E-03    -107.355E-03     24.6232E-03    -13.9056E+06    -17.6606E+06    -129.978E+06    -22.1745E+06    -124.681E+06    -14.6885E+06    -23.7686E+06         37.8676
            1859     4.48987E-03     120.011E-03     715.744E-03    -728.488E-03    -823.289E-03    -718.378E-03     705.634E-03    -823.289E-03    -235.141E-03     215.785E-03    -107.451E-03    -108.334E-03    -107.445E-03     214.896E-03    -107.451E-03     32.9242E-03    -10.0134E+06    -15.4756E+06    -130.063E+06    -22.1937E+06    -123.345E+06    -10.0134E+06    -26.7730E+06         38.4856
            1860     5.38695E-03     120.017E-03     624.333E-03    -666.192E-03    -801.196E-03    -650.952E-03     609.094E-03    -801.196E-03    -270.593E-03     216.445E-03    -107.563E-03    -108.882E-03    -107.445E-03     215.008E-03    -107.563E-03     42.1749E-03    -4.80682E+06    -12.7986E+06    -128.330E+06    -20.5986E+06    -120.530E+06    -4.80682E+06    -28.9315E+06         39.2618
            1861     6.28494E-03     120.028E-03     520.108E-03    -595.327E-03    -775.756E-03    -573.060E-03     497.841E-03    -775.756E-03    -302.062E-03     217.268E-03    -107.642E-03    -109.626E-03    -107.470E-03     215.112E-03    -107.642E-03     51.9081E-03    -1.52093E+06    -9.38867E+06    -121.280E+06    -17.8280E+06    -111.534E+06    -2.82778E+06    -31.4964E+06         40.2021
            1862     7.18216E-03     120.044E-03     405.343E-03    -518.416E-03    -747.332E-03    -486.343E-03     373.269E-03    -747.332E-03    -323.414E-03     218.685E-03    -107.737E-03    -110.948E-03    -107.811E-03     215.548E-03    -107.737E-03     62.8959E-03     764.982E+03    -7.04256E+06    -114.767E+06    -17.1904E+06    -102.277E+06    -1.57762E+06    -34.4773E+06         41.3058
            1863     8.07829E-03     120.068E-03     284.938E-03    -438.761E-03    -716.336E-03    -390.803E-03     236.980E-03    -716.336E-03    -336.713E-03     220.559E-03    -107.859E-03    -112.700E-03    -108.244E-03     216.103E-03    -107.859E-03     75.3487E-03    -559.687E+03    -8.33672E+06    -115.802E+06    -18.9117E+06    -101.100E+06    -4.68648E+06    -37.2309E+06         42.5632
            1864     8.97507E-03     120.102E-03     170.489E-03    -368.579E-03    -683.098E-03    -288.607E-03     90.5175E-03    -683.098E-03    -340.959E-03     222.745E-03    -108.001E-03    -114.744E-03    -108.664E-03     216.665E-03    -108.001E-03     88.5620E-03    -154.201E+03    -5.67475E+06    -105.346E+06    -18.7697E+06    -87.2999E+06    -5.10572E+06    -39.0217E+06         43.9540
            1865     9.87059E-03     120.146E-03     86.5415E-03    -331.371E-03    -647.996E-03    -180.231E-03    -64.5983E-03    -647.996E-03    -337.314E-03     225.384E-03    -108.156E-03    -117.228E-03    -109.014E-03     217.170E-03    -108.156E-03     103.625E-03     777.645E+03    -6.86065E+06    -97.0776E+06    -18.8595E+06    -77.4404E+06    -6.86065E+06    -38.9333E+06         45.4459
            1866     10.7674E-03     120.205E-03     62.5849E-03    -355.663E-03    -611.586E-03    -66.2995E-03    -226.778E-03    -611.586E-03    -325.241E-03     228.719E-03    -108.282E-03    -120.437E-03    -109.179E-03     217.461E-03    -108.282E-03     122.250E-03     4.93546E+06    -9.22407E+06    -78.9142E+06    -19.3590E+06    -54.6198E+06    -9.22407E+06    -36.6933E+06         46.9931
            1867     11.6630E-03     120.284E-03     108.452E-03    -417.916E-03    -607.511E-03     51.6182E-03    -394.031E-03    -574.563E-03    -305.349E-03     233.425E-03    -108.374E-03    -125.051E-03    -109.582E-03     217.956E-03    -108.374E-03     144.710E-03     16.8285E+06    -10.0543E+06    -53.4473E+06    -20.3860E+06    -16.2328E+06    -10.0543E+06    -34.1203E+06         48.5371
            1868     12.5598E-03     120.392E-03     200.594E-03    -481.134E-03    -648.562E-03     172.859E-03    -564.564E-03    -537.397E-03    -276.792E-03     238.328E-03    -108.409E-03    -129.919E-03    -109.146E-03     217.555E-03    -108.409E-03     169.168E-03     42.5662E+06    -9.52413E+06    -37.9320E+06    -22.0936E+06     26.7279E+06    -9.52413E+06    -28.6741E+06         50.0096
            1869     13.4582E-03     120.531E-03     312.029E-03    -495.704E-03    -757.522E-03     297.350E-03    -740.093E-03    -498.454E-03    -239.883E-03     236.597E-03    -108.395E-03    -128.202E-03    -108.008E-03     216.403E-03    -108.395E-03     166.074E-03     90.3412E+06     2.90329E+06    -25.3708E+06    -21.5370E+06     86.5074E+06     2.90329E+06    -16.9875E+06         51.3324
            1870     14.3576E-03     120.629E-03     430.890E-03    -457.455E-03    -926.321E-03     423.361E-03    -918.792E-03    -457.455E-03    -195.588E-03     239.008E-03    -108.373E-03    -130.634E-03    -105.815E-03     214.189E-03    -108.373E-03     182.552E-03     130.356E+06     34.3948E+06    -16.7982E+06    -16.3119E+06     129.869E+06     34.3948E+06    -7.48543E+06         52.4194
            1871     15.2644E-03     120.814E-03     550.276E-03    -412.505E-03        -1.10030     546.617E-03        -1.09664    -412.505E-03    -151.027E-03     229.612E-03    -105.556E-03    -124.056E-03    -104.049E-03     212.390E-03    -108.341E-03     129.148E-03     133.229E+06     74.9730E+06    -7.90910E+06    -7.78656E+06     133.106E+06     74.9730E+06    -3.79715E+06         53.1774
            1872     906.054E-06     121.243E-03         1.30328    -940.660E-03        -1.13552    -940.236E-03         1.30286        -1.13552    -59.1469E-03     200.509E-03    -99.7829E-03    -100.726E-03    -100.654E-03     200.437E-03    -99.7829E-03     8.38414E-03    -8.50008E+06    -14.5398E+06    -114.919E+06    -12.2500E+06    -114.052E+06    -11.6564E+06    -8.67824E+06         35.6999
            1873     1.80798E-03     121.241E-03         1.27190        -1.01464        -1.03288        -1.01346         1.27073        -1.03288    -92.8057E-03     201.249E-03    -100.360E-03    -100.889E-03    -100.642E-03     201.001E-03    -100.360E-03     16.4157E-03    -8.54806E+06    -10.6308E+06    -115.613E+06    -11.7431E+06    -113.575E+06    -9.47391E+06    -14.3925E+06         35.9026
            1874     2.71212E-03     121.241E-03         1.22163    -981.261E-03        -1.02089    -978.694E-03         1.21907        -1.02089    -148.428E-03     201.607E-03    -100.523E-03    -101.084E-03    -100.517E-03     201.041E-03    -100.523E-03     25.2068E-03    -5.10876E+06    -7.29482E+06    -113.147E+06    -10.1027E+06    -110.339E+06    -5.10876E+06    -16.9764E+06         36.2379
            1875     3.61582E-03     121.241E-03         1.15285    -933.569E-03        -1.00450    -928.976E-03         1.14826        -1.00450    -191.028E-03     202.088E-03    -100.620E-03    -101.468E-03    -100.405E-03     201.025E-03    -100.620E-03     34.8296E-03    -202.846E+03    -5.97593E+06    -114.930E+06    -9.88948E+06    -111.016E+06    -202.846E+03    -20.1086E+06         36.7181
            1876     4.51981E-03     121.244E-03         1.06591    -875.338E-03    -983.850E-03    -867.839E-03         1.05841    -983.850E-03    -237.728E-03     202.934E-03    -100.688E-03    -102.246E-03    -100.453E-03     201.142E-03    -100.688E-03     45.5227E-03     2.28254E+06    -4.91688E+06    -117.334E+06    -9.23159E+06    -111.685E+06     947.519E+03    -24.5768E+06         37.3559
            1877     5.42360E-03     121.251E-03     961.922E-03    -804.486E-03    -959.232E-03    -793.355E-03     950.791E-03    -959.232E-03    -275.228E-03     204.200E-03    -100.764E-03    -103.437E-03    -100.657E-03     201.421E-03    -100.764E-03     57.0376E-03     3.41007E+06    -2.70207E+06    -116.556E+06    -7.50455E+06    -108.497E+06     153.659E+03    -29.4534E+06         38.1636
            1878     6.32641E-03     121.262E-03     842.368E-03    -722.982E-03    -930.796E-03    -707.224E-03     826.611E-03    -930.796E-03    -308.057E-03     205.953E-03    -100.871E-03    -105.082E-03    -100.982E-03     201.853E-03    -100.871E-03     69.5890E-03     4.44743E+06    -1.17484E+06    -112.027E+06    -6.21803E+06    -102.226E+06    -311.222E+03    -32.0587E+06         39.1508
            1879     7.22914E-03     121.280E-03     708.906E-03    -632.565E-03    -898.912E-03    -611.049E-03     687.390E-03    -898.912E-03    -331.099E-03     208.421E-03    -101.041E-03    -107.380E-03    -101.577E-03     202.618E-03    -101.041E-03     83.3915E-03     6.22604E+06    -522.380E+03    -105.687E+06    -5.97943E+06    -96.5623E+06     2.55882E+06    -30.0755E+06         40.3208
            1880     8.13166E-03     121.305E-03     563.912E-03    -534.159E-03    -863.946E-03    -504.922E-03     534.675E-03    -863.946E-03    -345.704E-03     211.654E-03    -101.266E-03    -110.388E-03    -102.468E-03     203.734E-03    -101.266E-03     98.3585E-03     8.24431E+06    -2.72840E+06    -100.977E+06    -9.18177E+06    -90.6024E+06     4.32333E+06    -30.3105E+06         41.6673
            1881     9.03277E-03     121.341E-03     411.341E-03    -432.338E-03    -826.224E-03    -391.089E-03     370.092E-03    -826.224E-03    -350.950E-03     215.479E-03    -101.522E-03    -113.957E-03    -103.659E-03     205.182E-03    -101.522E-03     113.436E-03     4.19619E+06    -5.24398E+06    -93.2498E+06    -15.9225E+06    -78.8276E+06     452.630E+03    -32.7422E+06         43.1725
            1882     9.93399E-03     121.387E-03     260.850E-03    -335.692E-03    -786.129E-03    -270.180E-03     195.337E-03    -786.129E-03    -347.803E-03     220.117E-03    -101.876E-03    -118.240E-03    -105.247E-03     207.124E-03    -101.876E-03     129.002E-03     4.65970E+06    -8.57708E+06    -88.8214E+06    -21.2588E+06    -71.8329E+06     352.983E+03    -33.6328E+06         44.8041
            1883     10.8329E-03     121.448E-03     142.865E-03    -273.691E-03    -744.205E-03    -143.247E-03     12.4221E-03    -744.205E-03    -336.156E-03     226.083E-03    -102.270E-03    -123.813E-03    -107.310E-03     209.580E-03    -102.270E-03     147.500E-03     5.29871E+06    -12.1441E+06    -75.0211E+06    -25.9113E+06    -52.8809E+06    -3.07424E+06    -31.6649E+06         46.5134
            1884     11.7315E-03     121.532E-03     108.150E-03    -296.455E-03    -701.107E-03    -11.9528E-03    -176.352E-03    -701.107E-03    -316.037E-03     233.368E-03    -102.746E-03    -130.622E-03    -109.643E-03     212.389E-03    -102.746E-03     169.037E-03     16.9999E+06     1.57199E+06    -54.6211E+06    -30.1898E+06    -9.29723E+06     3.43788E+06    -29.8856E+06         48.2360
            1885     12.6277E-03     121.643E-03     168.253E-03    -414.603E-03    -657.136E-03     122.850E-03    -369.200E-03    -657.136E-03    -286.476E-03     239.738E-03    -103.225E-03    -136.512E-03    -111.258E-03     214.483E-03    -103.225E-03     188.055E-03     36.3376E+06     3.76684E+06    -43.0683E+06    -29.6693E+06     22.9386E+06     3.76684E+06    -28.2929E+06         49.8940
            1886     13.5270E-03     121.777E-03     279.996E-03    -532.947E-03    -664.414E-03     260.027E-03    -566.294E-03    -611.099E-03    -247.362E-03     239.313E-03    -103.744E-03    -135.569E-03    -112.742E-03     216.486E-03    -103.744E-03     178.539E-03     83.7500E+06     14.9487E+06    -30.2116E+06    -24.1857E+06     77.7241E+06     14.9487E+06    -20.8273E+06         51.3922
            1887     14.4211E-03     121.881E-03     405.929E-03    -555.560E-03    -781.064E-03     396.882E-03    -764.468E-03    -563.110E-03    -197.469E-03     243.876E-03    -104.376E-03    -139.499E-03    -114.952E-03     219.328E-03    -104.376E-03     186.405E-03     129.319E+06     37.9620E+06    -17.8456E+06    -16.2790E+06     127.752E+06     37.9620E+06    -14.0343E+06         52.6252
            1888     15.3156E-03     122.058E-03     531.775E-03    -512.014E-03    -961.702E-03     528.269E-03    -958.197E-03    -512.014E-03    -135.511E-03     241.514E-03    -105.249E-03    -136.265E-03    -120.544E-03     225.793E-03    -105.249E-03     123.602E-03     120.214E+06     59.2853E+06    -8.17489E+06    -7.32869E+06     119.368E+06     59.2853E+06    -8.49690E+06         53.4788
            1889     911.919E-06     122.455E-03         1.60666        -1.10229        -1.22403        -1.10201         1.60638        -1.22403    -54.1912E-03     181.854E-03    -90.4330E-03    -91.4210E-03    -90.8650E-03     181.715E-03    -90.8499E-03     10.4218E-03     651.246E+03    -4.39951E+06    -95.2214E+06    -2.00576E+06    -94.1537E+06    -2.81017E+06    -9.43773E+06         34.3066
            1890     1.82592E-03     122.455E-03         1.57349        -1.13807        -1.15775        -1.13714         1.57256        -1.15775    -92.5899E-03     182.244E-03    -90.7624E-03    -91.4820E-03    -90.8414E-03     181.765E-03    -90.9231E-03     21.8009E-03     226.141E+03    -2.11248E+06    -99.3084E+06    -2.73106E+06    -97.4197E+06    -1.04399E+06    -13.3915E+06         34.5181
            1891     2.73793E-03     122.453E-03         1.51889        -1.10183        -1.14500        -1.09977         1.51683        -1.14500    -145.096E-03     183.168E-03    -91.0138E-03    -92.1544E-03    -91.0569E-03     182.071E-03    -91.0138E-03     33.5803E-03     264.531E+03    -2.21924E+06    -103.793E+06    -3.00186E+06    -101.300E+06    -1.44625E+06    -15.8292E+06         34.8696
            1892     3.65036E-03     122.454E-03         1.44416        -1.05064        -1.12748        -1.04689         1.44041        -1.12748    -189.716E-03     184.276E-03    -91.1312E-03    -93.1445E-03    -91.1469E-03     182.278E-03    -91.1312E-03     45.8314E-03     3.16793E+06    -5.64077E+06    -102.526E+06    -3.07826E+06    -99.0984E+06    -2.82210E+06    -18.2661E+06         35.3757
            1893     4.56226E-03     122.457E-03         1.34973    -987.587E-03        -1.10535    -981.458E-03         1.34360        -1.10535    -236.660E-03     185.631E-03    -91.2501E-03    -94.3812E-03    -91.1031E-03     182.353E-03    -91.2501E-03     58.9858E-03     3.55032E+06    -5.70826E+06    -103.662E+06    -3.90222E+06    -98.4520E+06    -3.46576E+06    -22.6553E+06         36.0523
            1894     5.47426E-03     122.465E-03         1.23642    -910.901E-03        -1.07888    -901.801E-03         1.22732        -1.07888    -275.980E-03     187.638E-03    -91.3695E-03    -96.2682E-03    -91.2836E-03     182.653E-03    -91.3695E-03     73.2746E-03    -715.151E+03    -5.70105E+06    -103.928E+06    -8.23369E+06    -96.7765E+06    -5.33420E+06    -25.9829E+06         36.9156
            1895     6.38598E-03     122.477E-03         1.10553    -822.133E-03        -1.04819    -809.364E-03         1.09276        -1.04819    -309.942E-03     190.719E-03    -91.5530E-03    -99.1659E-03    -92.0016E-03     183.555E-03    -91.5530E-03     88.6686E-03    -2.83285E+06    -10.1784E+06    -104.385E+06    -14.8449E+06    -96.2671E+06    -6.28466E+06    -26.8656E+06         37.9792
            1896     7.29684E-03     122.497E-03     958.749E-03    -722.948E-03        -1.01365    -705.802E-03     941.603E-03        -1.01365    -334.409E-03     194.914E-03    -91.8420E-03    -103.072E-03    -93.2791E-03     185.121E-03    -91.8420E-03     105.016E-03    -1.69941E+06    -13.6550E+06    -102.172E+06    -19.7901E+06    -93.6762E+06    -4.05979E+06    -26.2400E+06         39.2501
            1897     8.20623E-03     122.525E-03     798.140E-03    -614.078E-03    -975.600E-03    -591.479E-03     775.541E-03    -975.600E-03    -350.277E-03     200.535E-03    -92.2873E-03    -108.248E-03    -95.4965E-03     187.784E-03    -92.2873E-03     121.784E-03     5.85087E+06    -14.8411E+06    -94.2884E+06    -21.3960E+06    -86.9035E+06     5.02091E+06    -22.9868E+06         40.7248
            1898     9.11416E-03     122.565E-03     626.388E-03    -498.722E-03    -934.413E-03    -468.605E-03     596.270E-03    -934.413E-03    -357.003E-03     207.373E-03    -92.8946E-03    -114.478E-03    -98.8827E-03     191.777E-03    -92.8946E-03     137.459E-03     11.7362E+06    -16.2104E+06    -79.4267E+06    -24.5917E+06    -71.0454E+06     11.7362E+06    -20.4758E+06         42.3858
            1899     10.0182E-03     122.616E-03     448.203E-03    -380.571E-03    -890.471E-03    -338.061E-03     405.693E-03    -890.471E-03    -355.050E-03     215.092E-03    -93.7141E-03    -121.378E-03    -103.077E-03     196.791E-03    -93.7141E-03     152.118E-03     13.9623E+06    -19.6340E+06    -76.5025E+06    -31.7798E+06    -64.3567E+06     13.9623E+06    -23.1172E+06         44.1992
            1900     10.9200E-03     122.684E-03     277.415E-03    -272.382E-03    -844.298E-03    -201.231E-03     206.264E-03    -844.298E-03    -344.123E-03     224.314E-03    -94.6954E-03    -129.618E-03    -108.047E-03     202.743E-03    -94.6954E-03     169.045E-03     11.2208E+06    -13.8223E+06    -70.1955E+06    -35.5610E+06    -48.4568E+06     11.2208E+06    -24.8197E+06         46.1118
            1901     11.8169E-03     122.774E-03     161.029E-03    -220.525E-03    -796.469E-03    -60.2511E-03     755.021E-06    -796.469E-03    -323.867E-03     234.247E-03    -95.8806E-03    -138.366E-03    -113.362E-03     209.243E-03    -95.8806E-03     186.352E-03     26.1218E+06     11.7476E+06    -49.3441E+06    -34.4497E+06    -227.977E+03     23.2031E+06    -24.3721E+06         48.0511
            1902     12.7117E-03     122.892E-03     159.904E-03    -285.041E-03    -747.282E-03     83.6749E-03    -208.813E-03    -747.282E-03    -293.051E-03     243.610E-03    -97.2236E-03    -146.386E-03    -119.065E-03     216.288E-03    -97.2236E-03     199.073E-03     45.5730E+06     21.2020E+06    -43.9469E+06    -33.7349E+06     29.5055E+06     27.0575E+06    -27.1513E+06         49.9258
            1903     13.5978E-03     123.031E-03     255.227E-03    -448.202E-03    -696.065E-03     228.455E-03    -421.429E-03    -696.065E-03    -250.970E-03     246.639E-03    -98.7893E-03    -147.850E-03    -125.186E-03     223.975E-03    -98.7893E-03     182.103E-03     84.3791E+06     38.5946E+06    -37.5204E+06    -28.7108E+06     75.5695E+06     38.5946E+06    -28.5773E+06         51.6198
            1904     14.4804E-03     123.138E-03     381.725E-03    -580.238E-03    -707.157E-03     371.351E-03    -633.779E-03    -643.243E-03    -193.654E-03     255.540E-03    -100.612E-03    -154.929E-03    -132.624E-03     233.236E-03    -100.612E-03     185.020E-03     125.131E+06     54.0248E+06    -22.0520E+06    -17.9338E+06     121.013E+06     54.0248E+06    -22.5115E+06         53.0100
            1905     15.3541E-03     123.332E-03     512.941E-03    -588.295E-03    -846.961E-03     509.764E-03    -843.783E-03    -588.295E-03    -117.322E-03     261.367E-03    -102.840E-03    -158.527E-03    -144.576E-03     247.415E-03    -102.840E-03     120.206E-03     106.331E+06     60.5924E+06    -11.5756E+06    -9.93418E+06     104.689E+06     60.5924E+06    -13.2487E+06         53.9656
            1906     923.587E-06     123.640E-03         1.83350        -1.21019        -1.28128        -1.20998         1.83329        -1.28128    -49.7012E-03     157.991E-03    -78.5531E-03    -79.4379E-03    -78.7509E-03     157.721E-03    -78.9699E-03     13.9808E-03     5.81968E+06     2.86907E+06    -79.1552E+06     4.36231E+06    -78.4155E+06     3.58674E+06    -6.66430E+06         32.7499
            1907     1.84763E-03     123.640E-03         1.79809        -1.21984        -1.24025        -1.21908         1.79733        -1.24025    -89.8488E-03     158.657E-03    -78.7648E-03    -79.8926E-03    -78.9139E-03     157.839E-03    -78.9256E-03     26.9506E-03     1.07485E+06    -3.08003E+06    -85.0178E+06    -98.8977E+03    -83.8440E+06    -3.08003E+06    -9.84292E+06         32.9775
            1908     2.77198E-03     123.640E-03         1.74104        -1.18195        -1.22714        -1.18025         1.73934        -1.22714    -139.193E-03     159.867E-03    -79.0168E-03    -80.8500E-03    -79.0778E-03     158.095E-03    -79.0168E-03     40.0915E-03    -3.03361E+06    -11.1701E+06    -93.6661E+06    -5.39360E+06    -91.3062E+06    -11.1701E+06    -13.9234E+06         33.3567
            1909     3.69481E-03     123.642E-03         1.66255        -1.12898        -1.20901        -1.12582         1.65939        -1.20901    -184.539E-03     161.565E-03    -79.1248E-03    -82.4400E-03    -79.1763E-03     158.301E-03    -79.1248E-03     54.9819E-03    -6.54955E+06    -19.6602E+06    -93.2786E+06    -9.98857E+06    -89.8396E+06    -19.6602E+06    -16.7090E+06         33.9053
            1910     4.61761E-03     123.645E-03         1.56302        -1.06288        -1.18603        -1.05769         1.55784        -1.18603    -231.066E-03     164.016E-03    -79.3038E-03    -84.7125E-03    -79.4066E-03     158.710E-03    -79.3038E-03     70.7045E-03    -12.3938E+06    -22.0600E+06    -94.3116E+06    -17.0461E+06    -90.5324E+06    -21.1868E+06    -16.9878E+06         34.6427
            1911     5.54026E-03     123.654E-03         1.44331    -982.614E-03        -1.15840    -974.847E-03         1.43555        -1.15840    -271.589E-03     167.566E-03    -79.5832E-03    -87.9825E-03    -80.0341E-03     159.617E-03    -79.5832E-03     87.5719E-03    -12.7169E+06    -21.9927E+06    -94.5143E+06    -24.4558E+06    -90.6886E+06    -14.0795E+06    -16.2283E+06         35.5885
            1912     6.46196E-03     123.668E-03         1.30456    -889.205E-03        -1.12628    -878.297E-03         1.29365        -1.12628    -306.377E-03     172.833E-03    -79.9920E-03    -92.8410E-03    -81.7843E-03     161.776E-03    -79.9920E-03     105.070E-03    -6.65607E+06    -27.6912E+06    -97.0382E+06    -31.5605E+06    -93.1689E+06    -6.65607E+06    -14.8291E+06         36.7594
            1913     7.38173E-03     123.692E-03         1.14843    -784.376E-03        -1.08996    -769.767E-03         1.13382        -1.08996    -332.207E-03     179.895E-03    -80.6006E-03    -99.2948E-03    -84.9028E-03     165.503E-03    -80.6006E-03     122.662E-03    -1.12123E+06    -36.2279E+06    -94.2015E+06    -40.7270E+06    -89.7024E+06    -1.12123E+06    -13.8314E+06         38.1653
            1914     8.29886E-03     123.725E-03     976.979E-03    -669.105E-03        -1.04983    -650.028E-03     957.902E-03        -1.04983    -349.488E-03     188.955E-03    -81.4894E-03    -107.466E-03    -89.6472E-03     171.137E-03    -81.4894E-03     140.352E-03     4.95408E+06     -40.094E+06    -90.8834E+06    -47.5106E+06    -83.4668E+06     4.95408E+06    -16.0134E+06         39.8034
            1915     9.21083E-03     123.774E-03     792.950E-03    -546.095E-03        -1.00628    -521.181E-03     768.036E-03        -1.00628    -357.858E-03     199.634E-03    -82.7160E-03    -116.918E-03    -96.2863E-03     179.002E-03    -82.7160E-03     155.956E-03     13.0026E+06    -37.9267E+06    -77.7989E+06    -46.1873E+06    -69.5383E+06     13.0026E+06    -14.5086E+06         41.6554
            1916     10.1168E-03     123.834E-03     599.948E-03    -418.064E-03    -959.705E-03    -384.492E-03     566.375E-03    -959.705E-03    -357.341E-03     211.510E-03    -84.3375E-03    -127.173E-03    -104.512E-03     188.849E-03    -84.3375E-03     169.102E-03     21.2593E+06    -30.7225E+06    -65.6617E+06    -42.3385E+06    -54.0456E+06     21.2593E+06    -14.2475E+06         43.6835
            1917     11.0154E-03     123.912E-03     405.929E-03    -291.903E-03    -910.592E-03    -241.591E-03     355.617E-03    -910.592E-03    -347.477E-03     224.680E-03    -86.2999E-03    -138.380E-03    -113.597E-03     199.897E-03    -86.2999E-03     183.089E-03     21.4276E+06    -14.4000E+06    -62.7622E+06    -39.9848E+06    -37.1774E+06     21.4276E+06    -21.5071E+06         45.8275
            1918     11.9074E-03     124.017E-03     238.432E-03    -194.681E-03    -859.426E-03    -94.9445E-03     138.695E-03    -859.426E-03    -327.253E-03     237.865E-03    -88.6067E-03    -149.259E-03    -122.793E-03     211.399E-03    -88.6067E-03     195.382E-03     33.8090E+06     16.8918E+06    -47.7086E+06    -35.1951E+06     4.37829E+06     33.8090E+06    -22.9207E+06         48.0052
            1919     12.7902E-03     124.144E-03     173.465E-03    -201.771E-03    -806.573E-03     53.4937E-03    -81.8000E-03    -806.573E-03    -294.989E-03     251.023E-03    -91.2106E-03    -159.813E-03    -132.691E-03     223.902E-03    -91.2106E-03     203.945E-03     59.0402E+06     40.6220E+06    -36.9597E+06    -28.8013E+06     44.8032E+06     46.7004E+06    -25.6110E+06         50.1108
            1920     13.6665E-03     124.301E-03     236.502E-03    -339.315E-03    -751.879E-03     201.509E-03    -304.323E-03    -751.879E-03    -249.411E-03     258.977E-03    -94.1912E-03    -164.786E-03    -143.589E-03     237.780E-03    -94.1912E-03     182.396E-03     93.5379E+06     63.9586E+06    -30.9979E+06    -21.2252E+06     83.7651E+06     63.9586E+06    -33.3153E+06         52.0080
            1921     14.5266E-03     124.414E-03     358.593E-03    -528.309E-03    -705.510E-03     347.196E-03    -526.605E-03    -695.818E-03    -185.862E-03     273.059E-03    -97.4902E-03    -175.569E-03    -155.339E-03     252.830E-03    -97.4902E-03     184.937E-03     115.965E+06     68.5597E+06    -20.2171E+06    -12.5610E+06     108.309E+06     68.5597E+06    -29.9821E+06         53.5588
            1922     15.3794E-03     124.636E-03     492.974E-03    -615.976E-03    -773.981E-03     490.034E-03    -748.724E-03    -638.293E-03    -104.580E-03     282.857E-03    -101.194E-03    -181.663E-03    -168.668E-03     269.862E-03    -101.194E-03     123.648E-03     101.532E+06     56.3486E+06    -7.74013E+06    -4.23211E+06     83.5288E+06     70.8437E+06    -16.3072E+06         54.6215
            1923     938.503E-06     124.796E-03         1.98250        -1.26648        -1.30537        -1.26630         1.98233        -1.30537    -45.0152E-03     130.165E-03    -64.4471E-03    -65.7179E-03    -65.3362E-03     129.783E-03    -64.4471E-03     15.7304E-03    -2.36341E+06    -4.35119E+06    -71.1780E+06    -2.89672E+06    -70.6948E+06    -4.30104E+06    -1.73509E+06         31.1204
            1924     1.87418E-03     124.796E-03         1.94646        -1.26005        -1.28056        -1.25944         1.94585        -1.28056    -84.0427E-03     131.866E-03    -65.0853E-03    -66.7811E-03    -65.5962E-03     130.682E-03    -65.0853E-03     29.5539E-03    -9.42215E+06    -12.6134E+06    -74.2527E+06    -10.1263E+06    -73.5987E+06    -12.5632E+06    -3.49548E+06         31.3702
            1925     2.80940E-03     124.797E-03         1.88825        -1.22191        -1.26746        -1.22051         1.88685        -1.26746    -129.770E-03     133.262E-03    -65.3033E-03    -67.9590E-03    -65.3555E-03     130.659E-03    -65.3033E-03     44.3273E-03    -17.1978E+06    -25.4610E+06    -83.9153E+06    -18.6194E+06    -82.4937E+06    -25.4610E+06    -8.66043E+06         31.7884
            1926     3.74656E-03     124.798E-03         1.80791        -1.16855        -1.24927        -1.16590         1.80526        -1.24927    -174.632E-03     135.658E-03    -65.4450E-03    -70.2126E-03    -65.4781E-03     130.923E-03    -65.4450E-03     60.6607E-03    -25.6245E+06    -36.5268E+06    -88.8066E+06    -29.5265E+06    -87.1053E+06    -34.3263E+06    -8.45821E+06         32.3953
            1927     4.68252E-03     124.804E-03         1.70576        -1.10113        -1.22604        -1.09674         1.70137        -1.22604    -219.823E-03     139.596E-03    -65.7186E-03    -73.8778E-03    -66.3371E-03     132.056E-03    -65.7186E-03     77.8686E-03    -30.7266E+06    -42.8534E+06    -91.3421E+06    -41.1501E+06    -89.9334E+06    -33.8386E+06    -4.83543E+06         33.2130
            1928     5.61685E-03     124.813E-03         1.58267        -1.01936        -1.19796        -1.01270         1.57602        -1.19796    -260.560E-03     145.785E-03    -66.2346E-03    -79.5502E-03    -68.4575E-03     134.692E-03    -66.2346E-03     96.6361E-03    -23.7685E+06    -49.4489E+06    -91.9809E+06    -51.8014E+06    -89.6284E+06    -23.7685E+06    -1.98944E+06         34.2637
            1929     6.54904E-03     124.834E-03         1.43962    -924.161E-03        -1.16517    -914.748E-03         1.43021        -1.16517    -295.733E-03     154.358E-03    -67.0637E-03    -87.2939E-03    -72.3858E-03     139.449E-03    -67.0637E-03     115.695E-03    -11.9962E+06    -57.4558E+06    -93.9374E+06    -59.1982E+06    -92.1950E+06    -11.9962E+06    -1.22004E+06         35.5662
            1930     7.47686E-03     124.863E-03         1.27817    -816.854E-03        -1.12796    -804.156E-03         1.26547        -1.12796    -322.968E-03     165.235E-03    -68.2593E-03    -96.9757E-03    -78.3889E-03     146.648E-03    -68.2593E-03     134.188E-03    -1.58343E+06    -59.2380E+06    -85.8828E+06    -59.6542E+06    -85.4666E+06    -1.58343E+06    -2.30526E+06         37.1314
            1931     8.39833E-03     124.907E-03         1.10047    -698.676E-03        -1.08668    -682.029E-03         1.08382        -1.08668    -342.114E-03     178.551E-03    -69.9076E-03    -108.644E-03    -86.6290E-03     156.537E-03    -69.9076E-03     152.589E-03     8.90601E+06    -53.4367E+06    -76.1443E+06    -57.6174E+06    -71.9637E+06     8.90601E+06    -7.11403E+06         38.9566
            1932     9.31270E-03     124.968E-03     909.332E-03    -572.038E-03        -1.04170    -550.366E-03     887.659E-03        -1.04170    -352.518E-03     193.474E-03    -72.0530E-03    -121.421E-03    -97.0751E-03     169.128E-03    -72.0530E-03     168.114E-03     13.4686E+06    -44.3000E+06    -76.3266E+06    -54.2111E+06    -66.4155E+06     13.4686E+06    -14.3766E+06         41.0210
            1933     10.2174E-03     125.045E-03     708.296E-03    -439.679E-03    -993.448E-03    -411.007E-03     679.624E-03    -993.448E-03    -353.712E-03     210.053E-03    -74.7450E-03    -135.308E-03    -109.643E-03     184.388E-03    -74.7450E-03     181.117E-03     22.4221E+06    -26.4235E+06    -63.3111E+06    -44.1653E+06    -45.5693E+06     22.4221E+06    -17.1313E+06         43.2815
            1934     11.1097E-03     125.142E-03     503.472E-03    -306.843E-03    -942.392E-03    -266.079E-03     462.707E-03    -942.392E-03    -345.211E-03     228.090E-03    -77.9817E-03    -150.109E-03    -123.466E-03     201.447E-03    -77.9817E-03     193.527E-03     31.5618E+06    -6.63685E+06    -50.1561E+06    -34.7020E+06    -22.0909E+06     31.5618E+06    -20.7096E+06         45.6692
            1935     11.9911E-03     125.262E-03     311.015E-03    -189.235E-03    -888.962E-03    -117.977E-03     239.758E-03    -888.962E-03    -325.309E-03     245.541E-03    -81.6795E-03    -163.862E-03    -136.954E-03     218.634E-03    -81.6795E-03     202.825E-03     42.6340E+06     25.7781E+06    -42.0832E+06    -26.9148E+06     10.6096E+06     42.6340E+06    -25.8022E+06         48.0902
            1936     12.8624E-03     125.411E-03     197.663E-03    -153.151E-03    -833.532E-03     31.0776E-03     13.4348E-03    -833.532E-03    -292.193E-03     262.755E-03    -85.7559E-03    -176.999E-03    -150.457E-03     236.213E-03    -85.7559E-03     209.335E-03     70.0987E+06     58.5356E+06    -26.7357E+06    -16.5153E+06     58.8624E+06     59.5515E+06    -28.1984E+06         50.4256
            1937     13.7189E-03     125.586E-03     223.323E-03    -258.829E-03    -776.392E-03     179.077E-03    -214.583E-03    -776.392E-03    -244.361E-03     274.665E-03    -90.2554E-03    -184.410E-03    -164.122E-03     254.377E-03    -90.2554E-03     186.185E-03     101.928E+06     80.7266E+06    -18.4185E+06    -10.2662E+06     93.7756E+06     80.7266E+06    -29.9111E+06         52.5232
            1938     14.5628E-03     125.724E-03     337.092E-03    -454.871E-03    -717.902E-03     324.741E-03    -442.521E-03    -717.902E-03    -178.810E-03     292.399E-03    -95.0251E-03    -197.374E-03    -177.833E-03     272.858E-03    -95.0251E-03     190.453E-03     107.457E+06     79.9531E+06    -17.5992E+06    -10.1673E+06     100.025E+06     79.9531E+06    -29.2964E+06         54.2327
            1939     15.3945E-03     125.962E-03     470.456E-03    -594.829E-03    -736.666E-03     467.544E-03    -670.213E-03    -658.371E-03    -98.3901E-03     302.381E-03    -100.047E-03    -202.334E-03    -189.464E-03     289.511E-03    -100.047E-03     131.657E-03     94.5982E+06     46.9082E+06    -14.1699E+06    -9.04567E+06     58.6341E+06     77.7481E+06    -19.0803E+06         55.4020
            1940     950.684E-06     125.918E-03         2.05710        -1.27499        -1.29607        -1.27486         2.05697        -1.29607    -39.5737E-03     101.874E-03    -50.2549E-03    -51.6191E-03    -51.1050E-03     101.360E-03    -50.2549E-03     16.6387E-03    -25.2260E+06    -28.6880E+06    -71.2616E+06    -28.3719E+06    -70.6118E+06    -26.1920E+06     1.29108E+06         29.5218
            1941     1.90109E-03     125.920E-03         2.02130        -1.26027        -1.28034        -1.25981         2.02084        -1.28034    -74.5763E-03     103.078E-03    -50.7663E-03    -52.3114E-03    -50.7962E-03     101.562E-03    -50.7663E-03     29.4238E-03    -29.0177E+06    -31.3893E+06    -73.7570E+06    -30.5549E+06    -72.2700E+06    -31.3391E+06     3.23433E+06         29.7986
            1942     2.85263E-03     125.919E-03         1.96349        -1.22311        -1.26760        -1.22202         1.96240        -1.26760    -115.435E-03     105.318E-03    -50.9082E-03    -54.4101E-03    -51.0283E-03     101.937E-03    -50.9082E-03     45.0486E-03    -36.1199E+06    -41.9295E+06    -83.3532E+06    -41.5901E+06    -79.8203E+06    -39.9923E+06     4.87780E+06         30.2637
            1943     3.80147E-03     125.923E-03         1.88349        -1.17078        -1.24981        -1.16867         1.88138        -1.24981    -157.778E-03     109.133E-03    -51.1798E-03    -57.9529E-03    -51.8352E-03     103.015E-03    -51.1798E-03     61.9189E-03    -45.7880E+06    -53.6027E+06    -98.1653E+06    -57.8383E+06    -92.3487E+06    -47.3691E+06     8.96055E+06         30.9387
            1944     4.75018E-03     125.930E-03         1.78137        -1.10417        -1.22693        -1.10059         1.77779        -1.22693    -200.964E-03     115.347E-03    -51.7019E-03    -63.6455E-03    -53.9895E-03     105.691E-03    -51.7019E-03     80.1480E-03    -45.6980E+06    -61.6512E+06    -102.915E+06    -71.1200E+06    -93.4464E+06    -45.6980E+06     12.2498E+06         31.8475
            1945     5.69645E-03     125.945E-03         1.65787        -1.02315        -1.19903        -1.01761         1.65233        -1.19903    -241.429E-03     124.805E-03    -52.6476E-03    -72.1578E-03    -58.4202E-03     111.068E-03    -52.6476E-03     99.8593E-03    -33.1867E+06    -68.0687E+06    -100.185E+06    -77.6700E+06    -90.5837E+06    -33.1867E+06     12.5053E+06         33.0140
            1946     6.63701E-03     125.973E-03         1.51407    -928.760E-03        -1.16624    -920.769E-03         1.50608        -1.16624    -276.987E-03     137.018E-03    -54.0954E-03    -82.9223E-03    -65.0697E-03     119.165E-03    -54.0954E-03     119.853E-03    -17.8690E+06    -72.2478E+06    -90.8232E+06    -76.5379E+06    -86.5332E+06    -17.8690E+06     7.36631E+06         34.4584
            1947     7.57080E-03     126.014E-03         1.35130    -822.001E-03        -1.12879    -811.050E-03         1.34035        -1.12879    -305.640E-03     152.062E-03    -56.0794E-03    -95.9828E-03    -74.2491E-03     130.329E-03    -56.0794E-03     140.098E-03    -4.16127E+06    -67.1570E+06    -79.4325E+06    -69.5545E+06    -77.0350E+06    -4.16127E+06    -1.28401E+06         36.1926
            1948     8.49605E-03     126.073E-03         1.17163    -704.140E-03        -1.08695    -689.603E-03         1.15710        -1.08695    -326.737E-03     169.881E-03    -58.6695E-03    -111.211E-03    -86.1698E-03     144.839E-03    -58.6695E-03     160.065E-03     9.85723E+06    -51.7062E+06    -69.2479E+06    -58.8532E+06    -62.1009E+06     9.85723E+06    -6.83803E+06         38.2127
            1949     9.40961E-03     126.152E-03     977.979E-03    -577.515E-03        -1.04109    -558.430E-03     958.894E-03        -1.04109    -339.614E-03     189.405E-03    -61.9027E-03    -127.502E-03    -100.490E-03     162.393E-03    -61.9027E-03     176.900E-03     19.8553E+06    -32.6898E+06    -67.4913E+06    -48.9851E+06    -51.1961E+06     19.8553E+06    -15.3656E+06         40.4945
            1950     10.3101E-03     126.251E-03     773.914E-03    -444.987E-03    -991.649E-03    -419.744E-03     748.671E-03    -991.649E-03    -343.296E-03     210.708E-03    -65.7785E-03    -144.930E-03    -116.902E-03     182.681E-03    -65.7785E-03     191.581E-03     25.9063E+06    -13.4151E+06    -65.3469E+06    -40.5904E+06    -38.1715E+06     25.9063E+06    -24.6828E+06         42.9892
            1951     11.1975E-03     126.373E-03     564.910E-03    -311.263E-03    -939.063E-03    -276.081E-03     529.729E-03    -939.063E-03    -336.970E-03     233.594E-03    -70.2935E-03    -163.300E-03    -134.804E-03     205.097E-03    -70.2935E-03     204.833E-03     37.1143E+06     9.28074E+06    -48.8208E+06    -27.8102E+06    -11.7298E+06     37.1143E+06    -27.7713E+06         45.6189
            1952     12.0675E-03     126.521E-03     362.317E-03    -187.372E-03    -883.796E-03    -130.105E-03     305.050E-03    -883.796E-03    -318.506E-03     256.235E-03    -75.3854E-03    -180.849E-03    -152.784E-03     228.169E-03    -75.3854E-03     214.173E-03     49.3675E+06     33.8988E+06    -33.9390E+06    -17.8465E+06     17.8063E+06     49.3675E+06    -27.8893E+06         48.2770
            1953     12.9225E-03     126.691E-03     219.254E-03    -125.922E-03    -826.234E-03     16.0832E-03     77.2489E-03    -826.234E-03    -285.932E-03     278.045E-03    -80.9379E-03    -197.107E-03    -169.761E-03     250.699E-03    -80.9379E-03     221.242E-03     81.4558E+06     61.9363E+06    -25.7431E+06    -16.3086E+06     67.8888E+06     66.0688E+06    -27.3864E+06         50.8310
            1954     13.7650E-03     126.896E-03     214.024E-03    -205.163E-03    -767.086E-03     160.819E-03    -151.958E-03    -767.086E-03    -238.649E-03     292.155E-03    -86.8796E-03    -205.276E-03    -184.310E-03     271.190E-03    -86.8796E-03     197.415E-03     108.970E+06     88.3166E+06    -20.1455E+06    -12.7884E+06     101.613E+06     88.3166E+06    -29.3410E+06         53.1174
            1955     14.5920E-03     127.051E-03     316.449E-03    -394.434E-03    -706.561E-03     303.039E-03    -381.024E-03    -706.561E-03    -174.331E-03     311.237E-03    -92.9632E-03    -218.273E-03    -197.829E-03     290.792E-03    -92.9632E-03     202.676E-03     100.894E+06     86.7864E+06    -11.2512E+06    -5.07860E+06     91.4109E+06     90.0970E+06    -24.7239E+06         54.9761
            1956     15.4101E-03     127.321E-03     444.633E-03    -557.927E-03    -699.516E-03     441.621E-03    -608.888E-03    -645.544E-03    -95.5364E-03     320.583E-03    -99.0824E-03    -221.500E-03    -207.933E-03     307.016E-03    -99.0824E-03     141.869E-03     90.6726E+06     51.3744E+06    -19.3699E+06    -414.502E+03     37.9493E+06     85.1422E+06    -14.0346E+06         56.2439
            1957     963.370E-06     127.010E-03         2.06151        -1.24004        -1.25346        -1.23995         2.06142        -1.25346    -31.7631E-03     74.6896E-03    -36.9591E-03    -37.7305E-03    -37.1459E-03     74.1050E-03    -36.9591E-03     15.2859E-03    -54.3146E+06    -63.4866E+06    -80.5032E+06    -61.1334E+06    -75.7261E+06    -61.4450E+06     5.14106E+06         28.0549
            1958     1.92861E-03     127.009E-03         2.02687        -1.22298        -1.24190        -1.22267         2.02656        -1.24190    -60.1423E-03     75.5285E-03    -37.0248E-03    -38.5036E-03    -36.7214E-03     73.7462E-03    -37.0248E-03     27.2817E-03    -59.0299E+06    -70.6290E+06    -92.7757E+06    -68.4601E+06    -82.9412E+06    -71.0333E+06     10.6995E+06         28.3607
            1959     2.89172E-03     127.012E-03         1.97113        -1.18771        -1.22984        -1.18696         1.97038        -1.22984    -94.8522E-03     78.6598E-03    -37.1513E-03    -41.5085E-03    -37.5849E-03     74.7362E-03    -37.1513E-03     41.9159E-03    -59.6827E+06    -74.0872E+06    -108.983E+06    -79.6014E+06    -91.0018E+06    -72.1500E+06     21.5416E+06         28.8732
            1960     3.85512E-03     127.016E-03         1.89381        -1.13824        -1.21288        -1.13672         1.89230        -1.21288    -132.789E-03     84.4733E-03    -37.6716E-03    -46.8017E-03    -39.7179E-03     77.3895E-03    -37.6716E-03     58.6942E-03    -60.6444E+06    -71.6685E+06    -121.844E+06    -87.6755E+06    -100.433E+06    -66.0481E+06     26.1794E+06         29.6159
            1961     4.81521E-03     127.027E-03         1.79478        -1.07467        -1.19085        -1.07199         1.79209        -1.19085    -173.051E-03     93.8425E-03    -38.6569E-03    -55.1856E-03    -44.0856E-03     82.7425E-03    -38.6569E-03     77.8793E-03    -53.0773E+06    -67.7208E+06    -117.583E+06    -89.3862E+06    -95.9179E+06    -53.0773E+06     24.2790E+06         30.6138
            1962     5.76919E-03     127.052E-03         1.67424    -996.892E-03        -1.16365    -992.571E-03         1.66992        -1.16365    -212.310E-03     106.420E-03    -40.2219E-03    -66.1984E-03    -50.6804E-03     90.9022E-03    -40.2219E-03     98.5061E-03    -32.9437E+06    -67.0969E+06    -102.748E+06    -83.0391E+06    -86.8061E+06    -32.9437E+06     17.4202E+06         31.8922
            1963     6.71677E-03     127.090E-03         1.53291    -905.619E-03        -1.13131    -899.174E-03         1.52647        -1.13131    -248.201E-03     122.059E-03    -42.3736E-03    -79.6855E-03    -59.7433E-03     102.117E-03    -42.3736E-03     120.269E-03    -14.7154E+06    -64.9816E+06    -84.5816E+06    -73.4398E+06    -76.1235E+06    -14.7154E+06     8.25591E+06         33.4735
            1964     7.65556E-03     127.147E-03         1.37220    -801.928E-03        -1.09394    -792.818E-03         1.36309        -1.09394    -278.678E-03     140.962E-03    -45.1594E-03    -95.8023E-03    -71.7315E-03     116.891E-03    -45.1594E-03     143.010E-03    -862.031E+03    -57.4485E+06    -71.3552E+06    -65.0111E+06    -63.7926E+06    -862.031E+03    -1.59284E+06         35.3698
            1965     8.58222E-03     127.226E-03         1.19423    -687.253E-03        -1.05173    -674.838E-03         1.18182        -1.05173    -302.387E-03     162.905E-03    -48.6399E-03    -114.265E-03    -86.6241E-03     135.264E-03    -48.6399E-03     166.011E-03     10.4140E+06    -42.6396E+06    -66.6870E+06    -56.6819E+06    -52.6447E+06     10.4140E+06    -11.6110E+06         37.5762
            1966     9.49580E-03     127.329E-03         1.00196    -563.859E-03        -1.00506    -547.199E-03     985.295E-03        -1.00506    -318.549E-03     187.096E-03    -52.8578E-03    -134.238E-03    -104.449E-03     157.307E-03    -52.8578E-03     186.250E-03     22.7481E+06    -20.2895E+06    -60.7009E+06    -46.1910E+06    -34.7994E+06     22.7481E+06    -19.3209E+06         40.0652
            1967     10.3937E-03     127.454E-03     798.953E-03    -434.788E-03    -954.387E-03    -412.393E-03     776.558E-03    -954.387E-03    -325.801E-03     213.200E-03    -57.8303E-03    -155.369E-03    -124.655E-03     182.485E-03    -57.8303E-03     203.618E-03     32.0645E+06     1.14605E+06    -58.9371E+06    -35.8628E+06    -21.9282E+06     32.0645E+06    -29.1656E+06         42.7809
            1968     11.2732E-03     127.608E-03     590.322E-03    -304.430E-03    -900.164E-03    -273.110E-03     559.003E-03    -900.164E-03    -322.707E-03     240.129E-03    -63.4884E-03    -176.641E-03    -145.673E-03     209.162E-03    -63.4884E-03     218.474E-03     37.1093E+06     17.2354E+06    -55.1148E+06    -30.0524E+06    -7.82701E+06     37.1093E+06    -34.1148E+06         45.6371
            1969     12.1370E-03     127.787E-03     385.787E-03    -182.007E-03    -842.866E-03    -132.001E-03     335.782E-03    -842.866E-03    -307.333E-03     267.567E-03    -69.7659E-03    -197.801E-03    -167.315E-03     237.081E-03    -69.7659E-03     230.133E-03     44.5579E+06     32.0923E+06    -41.5228E+06    -26.2910E+06     16.8605E+06     44.5579E+06    -28.7663E+06         48.5165
            1970     12.9806E-03     127.993E-03     229.741E-03    -111.405E-03    -782.988E-03     8.33838E-03     109.998E-03    -782.988E-03    -277.529E-03     293.883E-03    -76.5780E-03    -217.305E-03    -187.854E-03     264.432E-03    -76.5780E-03     238.079E-03     86.3348E+06     60.4630E+06    -26.4590E+06    -19.4671E+06     75.3301E+06     64.4758E+06    -24.8474E+06         51.2722
            1971     13.8067E-03     128.224E-03     205.369E-03    -175.405E-03    -721.895E-03     146.287E-03    -116.323E-03    -721.895E-03    -232.669E-03     309.985E-03    -83.8078E-03    -226.177E-03    -203.738E-03     287.546E-03    -83.8078E-03     212.214E-03     118.014E+06     89.6075E+06    -20.1377E+06    -14.1485E+06     112.024E+06     89.6075E+06    -27.0422E+06         53.7290
            1972     14.6200E-03     128.404E-03     295.142E-03    -356.040E-03    -659.744E-03     280.810E-03    -341.708E-03    -659.744E-03    -171.913E-03     329.003E-03    -91.0671E-03    -237.936E-03    -216.543E-03     307.610E-03    -91.0671E-03     214.844E-03     91.7464E+06     79.3719E+06    -20.8378E+06    -11.5883E+06     79.1861E+06     82.6826E+06    -27.8324E+06         55.7187
            1973     15.4248E-03     128.696E-03     414.617E-03    -513.798E-03    -652.815E-03     411.381E-03    -565.363E-03    -598.014E-03    -94.8793E-03     336.874E-03    -98.1851E-03    -238.689E-03    -224.700E-03     322.885E-03    -98.1851E-03     149.807E-03     75.8082E+06     30.8656E+06    -29.3036E+06    -6.46391E+06     10.5425E+06     73.2916E+06    -16.1465E+06         57.0697
            1974     975.858E-06     128.072E-03         1.99923        -1.16762        -1.17593        -1.16758         1.99919        -1.17593    -20.1094E-03     50.2344E-03    -24.7800E-03    -25.4544E-03    -24.8731E-03     49.6531E-03    -24.7800E-03     12.0052E-03    -80.4841E+06    -96.6710E+06    -112.805E+06    -100.124E+06    -92.7608E+06    -97.0753E+06     15.3402E+06         26.8074
            1975     1.95156E-03     128.072E-03         1.96751        -1.15070        -1.16749        -1.15055         1.96736        -1.16749    -40.1611E-03     51.9830E-03    -24.9336E-03    -27.0494E-03    -25.1007E-03     50.0343E-03    -24.9336E-03     23.6445E-03    -83.0291E+06    -106.353E+06    -132.137E+06    -113.056E+06    -101.705E+06    -106.757E+06     23.4388E+06         27.1380
            1976     2.92732E-03     128.075E-03         1.91602        -1.11873        -1.15654        -1.11833         1.91562        -1.15654    -66.8147E-03     56.4152E-03    -25.3523E-03    -31.0629E-03    -26.8271E-03     52.1794E-03    -25.3523E-03     37.0501E-03    -82.8290E+06    -100.720E+06    -140.283E+06    -114.429E+06    -108.683E+06    -100.720E+06     28.3342E+06         27.6901
            1977     3.90032E-03     128.083E-03         1.84400        -1.07368        -1.14079        -1.07279         1.84311        -1.14079    -98.6392E-03     64.5770E-03    -26.3037E-03    -38.2732E-03    -30.7231E-03     57.0268E-03    -26.3037E-03     53.2959E-03    -74.6923E+06    -83.3126E+06    -131.809E+06    -103.601E+06    -105.096E+06    -81.1163E+06     27.3803E+06         28.4887
            1978     4.86779E-03     128.104E-03         1.75089        -1.01510        -1.11994        -1.01339         1.74917        -1.11994    -134.572E-03     76.2466E-03    -27.8521E-03    -48.3945E-03    -36.6569E-03     64.5090E-03    -27.8521E-03     72.5938E-03    -56.0182E+06    -68.6919E+06    -113.231E+06    -88.1161E+06    -93.8069E+06    -56.0182E+06     21.8078E+06         29.5603
            1979     5.82956E-03     128.137E-03         1.63647    -942.832E-03        -1.09377    -939.868E-03         1.63351        -1.09377    -171.823E-03     91.1069E-03    -29.9794E-03    -61.1275E-03    -44.6348E-03     74.6142E-03    -29.9794E-03     94.4941E-03    -32.5703E+06    -62.6030E+06    -92.6343E+06    -75.3155E+06    -79.9218E+06    -32.5703E+06     14.4743E+06         30.9331
            1980     6.78316E-03     128.190E-03         1.50096    -857.158E-03        -1.06211    -852.450E-03         1.49625        -1.06211    -207.877E-03     109.661E-03    -32.7130E-03    -76.9484E-03    -55.4832E-03     88.1962E-03    -32.7130E-03     118.992E-03    -13.3771E+06    -56.3420E+06    -74.1625E+06    -64.8094E+06    -65.6951E+06    -13.3771E+06     6.12826E+06         32.6310
            1981     7.72519E-03     128.266E-03         1.34563    -759.002E-03        -1.02491    -751.963E-03         1.33859        -1.02491    -240.490E-03     131.817E-03    -36.1303E-03    -95.6867E-03    -69.4901E-03     105.620E-03    -36.1303E-03     145.153E-03     3.10792E+06    -43.3064E+06    -60.4607E+06    -54.1611E+06    -49.6060E+06     3.10792E+06    -3.65179E+06         34.6670
            1982     8.65520E-03     128.367E-03         1.17250    -650.013E-03    -982.274E-03    -639.928E-03         1.16241    -982.274E-03    -267.890E-03     157.442E-03    -40.3040E-03    -117.138E-03    -86.8053E-03     127.109E-03    -40.3040E-03     172.060E-03     18.7056E+06    -24.2568E+06    -55.5959E+06    -42.4607E+06     -37.392E+06     18.7056E+06    -14.9397E+06         37.0354
            1983     9.56966E-03     128.498E-03     984.537E-03    -532.478E-03    -934.514E-03    -518.363E-03     970.422E-03    -934.514E-03    -288.422E-03     185.890E-03    -45.2766E-03    -140.613E-03    -107.629E-03     152.906E-03    -45.2766E-03     196.632E-03     31.3517E+06    -4.98327E+06    -51.3702E+06    -31.8732E+06    -24.4803E+06     31.3517E+06    -22.6796E+06         39.7052
            1984     10.4644E-03     128.657E-03     785.787E-03    -409.817E-03    -882.149E-03    -390.120E-03     766.091E-03    -882.149E-03    -300.669E-03     216.321E-03    -51.0737E-03    -165.247E-03    -131.073E-03     182.147E-03    -51.0737E-03     217.730E-03     40.2596E+06     13.5574E+06    -46.3107E+06    -27.7458E+06    -5.00748E+06     40.2596E+06    -26.6178E+06         42.6143
            1985     11.3405E-03     128.844E-03     581.214E-03    -286.327E-03    -825.762E-03    -258.049E-03     552.936E-03    -825.762E-03    -302.162E-03     247.682E-03    -57.6609E-03    -190.021E-03    -155.821E-03     213.482E-03    -57.6609E-03     234.722E-03     41.2318E+06     18.1493E+06    -48.7546E+06    -27.3677E+06    -3.23760E+06     41.2318E+06    -29.5049E+06         45.6678
            1986     12.1959E-03     129.059E-03     380.610E-03    -171.071E-03    -765.872E-03    -124.922E-03     334.461E-03    -765.872E-03    -291.558E-03     279.112E-03    -64.9443E-03    -214.167E-03    -180.705E-03     245.649E-03    -64.9443E-03     247.911E-03     51.8082E+06     35.7076E+06    -40.1554E+06    -20.7578E+06     18.9797E+06     49.1385E+06    -31.8314E+06         48.7382
            1987     13.0309E-03     129.309E-03     225.028E-03    -104.602E-03    -703.129E-03     6.60097E-03     113.826E-03    -703.129E-03    -266.534E-03     308.367E-03    -72.7850E-03    -235.582E-03    -203.754E-03     276.539E-03    -72.7850E-03     255.098E-03     88.4031E+06     66.3190E+06    -19.7698E+06    -8.92972E+06     76.8898E+06     66.9922E+06    -30.5688E+06         51.6686
            1988     13.8464E-03     129.573E-03     193.944E-03    -165.672E-03    -639.839E-03     134.575E-03    -106.303E-03    -639.839E-03    -225.935E-03     326.215E-03    -81.0851E-03    -245.130E-03    -221.085E-03     302.170E-03    -81.0851E-03     226.943E-03     115.202E+06     84.8646E+06    -4.49600E+06     85.1693E+03     103.990E+06     91.4958E+06    -19.3832E+06         54.2743
            1989     14.6430E-03     129.782E-03     272.364E-03    -338.657E-03    -576.366E-03     257.619E-03    -323.912E-03    -576.366E-03    -169.104E-03     345.889E-03    -89.3968E-03    -256.493E-03    -233.946E-03     323.343E-03    -89.3968E-03     227.668E-03     99.6663E+06     78.1298E+06    -7.87582E+06    -1.85699E+06     79.5925E+06     92.1847E+06    -13.5705E+06         56.3760
            1990     15.4332E-03     130.087E-03     379.287E-03    -461.687E-03    -595.520E-03     375.887E-03    -539.032E-03    -514.776E-03    -94.7470E-03     352.971E-03    -97.4182E-03    -255.553E-03    -240.843E-03     338.262E-03    -97.4182E-03     161.454E-03     78.8894E+06     31.2736E+06    -43.0994E+06    -6.03404E+06    -3.27513E+06     76.3727E+06    -12.9529E+06         57.7947
            1991     986.170E-06     129.111E-03         1.87435        -1.06028        -1.06576        -1.06147         1.87434        -1.06457    -5.55276E-03     30.3881E-03    -14.6177E-03    -15.7705E-03    -15.1533E-03     29.7710E-03    -14.6177E-03     9.53060E-03    -114.564E+06    -151.826E+06    -173.017E+06    -160.271E+06    -125.796E+06    -153.339E+06     19.9667E+06         25.8478
            1992     1.97089E-03     129.112E-03         1.84729        -1.04552        -1.05929        -1.04549         1.84726        -1.05929    -14.5725E-03     34.0157E-03    -15.3616E-03    -18.6541E-03    -16.6376E-03     31.9992E-03    -15.3616E-03     19.6783E-03    -101.076E+06    -130.272E+06    -158.197E+06    -142.059E+06    -117.214E+06    -130.272E+06     24.6741E+06         26.1938
            1993     2.95427E-03     129.117E-03         1.80232        -1.01840        -1.04967        -1.01827         1.80220        -1.04967    -30.5288E-03     40.6740E-03    -16.3804E-03    -24.2937E-03    -19.9110E-03     36.2914E-03    -16.3804E-03     32.2805E-03    -98.9001E+06    -111.534E+06    -138.839E+06    -122.451E+06    -115.289E+06    -111.534E+06     19.4279E+06         26.7707
            1994     3.93252E-03     129.133E-03         1.73814    -979.139E-03        -1.03538    -978.802E-03         1.73781        -1.03538    -54.0329E-03     50.5018E-03    -17.9103E-03    -32.5915E-03    -24.8819E-03     42.7922E-03    -17.9103E-03     48.0209E-03    -88.0514E+06    -92.9923E+06    -120.205E+06    -104.370E+06    -106.941E+06    -89.9383E+06     14.1419E+06         27.6047
            1995     4.90627E-03     129.161E-03         1.65382    -927.518E-03        -1.01599    -926.740E-03         1.65304        -1.01599    -84.0447E-03     63.2135E-03    -19.9267E-03    -43.2868E-03    -31.2845E-03     51.2112E-03    -19.9267E-03     67.2329E-03    -66.7069E+06    -77.1869E+06    -103.539E+06    -89.1693E+06    -91.5570E+06    -66.7069E+06     11.7380E+06         28.7250
            1996     5.87336E-03     129.207E-03         1.54871    -862.887E-03    -991.082E-03    -861.311E-03         1.54714    -991.082E-03    -118.508E-03     79.5438E-03    -22.4543E-03    -57.0895E-03    -40.0413E-03     62.4957E-03    -22.4543E-03     90.2345E-03    -40.5166E+06    -62.4339E+06    -84.4585E+06    -74.0989E+06    -72.7935E+06    -40.5166E+06     6.09708E+06         30.1623
            1997     6.83120E-03     129.275E-03         1.42250    -785.236E-03    -960.256E-03    -782.382E-03         1.41965    -960.256E-03    -154.716E-03     99.9173E-03    -25.5739E-03    -74.3434E-03    -51.7510E-03     77.3249E-03    -25.5739E-03     117.016E-03    -14.0132E+06    -44.3842E+06    -65.9197E+06    -55.4263E+06    -54.8775E+06    -14.0132E+06    -3.51351E+06         31.9426
            1998     7.77873E-03     129.371E-03         1.27580    -695.107E-03    -923.264E-03    -690.362E-03         1.27105    -923.264E-03    -189.789E-03     124.411E-03    -29.3707E-03    -95.0400E-03    -67.0057E-03     96.3764E-03    -29.3707E-03     146.450E-03     7.93251E+06    -25.7934E+06    -52.5306E+06    -37.9235E+06    -40.4005E+06     7.93251E+06    -10.0662E+06         34.0800
            1999     8.71123E-03     129.497E-03         1.11052    -594.146E-03    -880.034E-03    -586.703E-03         1.10307    -880.034E-03    -221.644E-03     153.081E-03    -33.9532E-03    -119.128E-03    -86.2488E-03     120.202E-03    -33.9532E-03     177.329E-03     26.0327E+06    -7.45336E+06    -45.6791E+06    -30.1681E+06    -22.9644E+06     26.0327E+06    -14.3833E+06         36.5687
            2000     9.62623E-03     129.659E-03     929.765E-03    -484.915E-03    -830.787E-03    -473.696E-03     918.546E-03    -830.787E-03    -247.717E-03     185.005E-03    -39.3893E-03    -145.615E-03    -109.302E-03     148.691E-03    -39.3893E-03     206.584E-03     35.4705E+06     2.22420E+06    -45.8342E+06    -29.6916E+06    -13.9184E+06     35.4705E+06    -20.7721E+06         39.3748
            2001     10.5228E-03     129.854E-03     737.895E-03    -371.120E-03    -776.099E-03    -354.388E-03     721.164E-03    -776.099E-03    -266.253E-03     219.095E-03    -45.7215E-03    -173.374E-03    -135.616E-03     181.337E-03    -45.7215E-03     231.236E-03     43.7219E+06     16.0992E+06    -39.6857E+06    -25.7263E+06     2.13978E+06     43.7219E+06    -23.1735E+06         42.4317
            2002     11.3964E-03     130.082E-03     540.363E-03    -257.340E-03    -716.695E-03    -231.930E-03     514.953E-03    -716.695E-03    -273.914E-03     254.943E-03    -52.9682E-03    -201.974E-03    -164.269E-03     217.237E-03    -52.9682E-03     251.173E-03     50.2413E+06     27.9632E+06    -36.1937E+06    -16.1091E+06     7.87868E+06     50.2413E+06    -27.6692E+06         45.6368
            2003     12.2445E-03     130.342E-03     348.225E-03    -153.846E-03    -653.336E-03    -109.660E-03     304.039E-03    -653.336E-03    -269.461E-03     290.237E-03    -61.0231E-03    -229.214E-03    -192.395E-03     253.418E-03    -61.0231E-03     266.381E-03     61.4015E+06     46.1526E+06    -31.2402E+06    -9.80602E+06     27.3881E+06     58.7318E+06    -32.1954E+06         48.8548
            2004     13.0714E-03     130.630E-03     204.054E-03    -102.620E-03    -586.954E-03     9.77560E-03     91.6586E-03    -586.954E-03    -250.581E-03     322.281E-03    -69.6626E-03    -252.618E-03    -217.491E-03     287.154E-03    -69.6626E-03     275.115E-03     85.2107E+06     67.3199E+06    -22.0866E+06    -12.5230E+06     75.3297E+06     67.6374E+06    -28.3409E+06         51.9233
            2005     13.8763E-03     130.940E-03     177.398E-03    -172.045E-03    -521.042E-03     124.164E-03    -118.811E-03    -521.042E-03    -215.931E-03     339.967E-03    -78.7239E-03    -261.243E-03    -234.623E-03     313.347E-03    -78.7239E-03     244.647E-03     104.186E+06     73.6380E+06    -20.8942E+06    -13.0228E+06     89.6832E+06     80.2692E+06    -25.5674E+06         54.6529
            2006     14.6681E-03     131.172E-03     247.130E-03    -319.423E-03    -477.549E-03     232.798E-03    -326.213E-03    -456.428E-03    -164.658E-03     359.413E-03    -87.7996E-03    -271.613E-03    -246.918E-03     334.718E-03    -87.7996E-03     243.687E-03     102.323E+06     64.0259E+06    -11.9918E+06     694.928E+03     60.3522E+06     93.3104E+06    -15.3835E+06         56.8506
            2007     15.4502E-03     131.508E-03     339.341E-03    -380.184E-03    -548.314E-03     335.885E-03    -529.593E-03    -395.449E-03    -93.4256E-03     370.499E-03    -96.5552E-03    -273.944E-03    -257.529E-03     354.084E-03    -96.5552E-03     178.973E-03     84.6160E+06     33.2927E+06    -37.9866E+06     10.7039E+06    -15.3977E+06     84.6160E+06     1.00475E+06         58.3226
            2008     992.927E-06     130.132E-03         1.69161    -921.016E-03    -924.695E-03    -922.225E-03         1.69158    -923.459E-03     11.5185E-03     17.5559E-03    -8.18789E-03    -9.36804E-03    -8.77064E-03     17.0933E-03    -8.32266E-03     6.52325E-03    -146.495E+06    -228.382E+06    -236.190E+06    -231.909E+06    -149.262E+06    -229.895E+06     6.50772E+06         25.2230
            2009     1.98429E-03     130.135E-03         1.66997    -909.415E-03    -919.418E-03    -909.357E-03         1.66991    -919.418E-03     16.4548E-03     22.3317E-03    -9.17847E-03    -13.1533E-03    -11.3699E-03     20.5484E-03    -9.17847E-03     15.1094E-03    -114.602E+06    -199.389E+06    -209.917E+06    -203.283E+06    -120.107E+06    -200.519E+06     1.83326E+06         25.5734
            2010     2.97061E-03     130.147E-03         1.63295    -887.797E-03    -911.003E-03    -887.715E-03         1.63287    -911.003E-03     13.7019E-03     30.3550E-03    -10.5924E-03    -19.7626E-03    -15.4586E-03     26.0509E-03    -10.5924E-03     27.8941E-03    -100.996E+06    -173.703E+06    -181.861E+06    -173.710E+06    -108.017E+06    -174.833E+06    -5.73047E+06         26.1580
            2011     3.95305E-03     130.170E-03         1.57912    -856.031E-03    -898.213E-03    -855.928E-03         1.57901    -898.213E-03     1.19055E-03     41.1717E-03    -12.5192E-03    -28.6525E-03    -20.8392E-03     33.3584E-03    -12.5192E-03     43.9165E-03    -90.2795E+06    -139.751E+06    -151.849E+06    -140.168E+06    -104.406E+06    -137.306E+06    -12.8432E+06         27.0042
            2012     4.93015E-03     130.207E-03         1.50679    -813.271E-03    -880.440E-03    -813.082E-03         1.50660    -880.440E-03    -21.0967E-03     55.0647E-03    -14.9010E-03    -40.1637E-03    -28.0093E-03     42.9103E-03    -14.9010E-03     63.5006E-03    -68.7695E+06    -96.8915E+06    -120.277E+06    -102.169E+06    -91.5158E+06    -92.2533E+06    -14.3335E+06         28.1429
            2013     5.90010E-03     130.265E-03         1.41436    -758.457E-03    -857.006E-03    -757.981E-03         1.41389    -857.006E-03    -51.3037E-03     72.2755E-03    -17.7382E-03    -54.5374E-03    -37.2240E-03     54.9621E-03    -17.7382E-03     87.0616E-03    -37.4132E+06    -58.9537E+06    -86.5848E+06    -66.6361E+06    -66.6517E+06    -49.6639E+06    -15.2215E+06         29.6061
            2014     6.86176E-03     130.349E-03         1.30096    -691.112E-03    -827.228E-03    -689.963E-03         1.29981    -827.228E-03    -86.9756E-03     93.5053E-03    -21.1049E-03    -72.4005E-03    -49.2632E-03     70.3681E-03    -21.1049E-03     114.940E-03    -13.1768E+06    -35.6252E+06    -63.6325E+06    -45.8006E+06    -49.1214E+06    -17.5125E+06    -15.3608E+06         31.4222
            2015     7.81156E-03     130.465E-03         1.16649    -611.437E-03    -790.561E-03    -609.025E-03         1.16408    -790.561E-03    -124.776E-03     119.149E-03    -25.1125E-03    -94.0364E-03    -64.9238E-03     90.0362E-03    -25.1125E-03     146.385E-03     5.49813E+06    -20.3049E+06    -55.7851E+06    -39.0150E+06    -37.0750E+06     5.49813E+06    -14.1414E+06         33.6070
            2016     8.74725E-03     130.617E-03         1.01235    -520.899E-03    -746.654E-03    -516.362E-03         1.00782    -746.654E-03    -161.786E-03     149.727E-03    -29.8872E-03    -119.840E-03    -85.0413E-03     114.928E-03    -29.8872E-03     180.715E-03     27.7091E+06    -4.19549E+06    -44.9322E+06    -32.6547E+06    -16.4730E+06     27.7091E+06    -14.1732E+06         36.1553
            2017     9.66590E-03     130.810E-03     841.706E-03    -422.200E-03    -695.579E-03    -414.352E-03     833.859E-03    -695.579E-03    -194.393E-03     184.279E-03    -35.5560E-03    -148.723E-03    -109.963E-03     145.519E-03    -35.5560E-03     213.424E-03     45.9798E+06     10.9834E+06    -33.5836E+06    -21.5102E+06    -1.09002E+06     45.9798E+06    -18.6050E+06         39.0317
            2018     10.5617E-03     131.043E-03     659.349E-03    -319.431E-03    -637.939E-03    -306.351E-03     646.269E-03    -637.939E-03    -219.936E-03     221.456E-03    -42.1924E-03    -179.264E-03    -138.832E-03     181.025E-03    -42.1924E-03     241.158E-03     54.2320E+06     20.9129E+06    -27.4896E+06    -10.9521E+06     4.37538E+06     54.2320E+06    -22.0366E+06         42.1661
            2019     11.4336E-03     131.316E-03     471.519E-03    -217.891E-03    -574.616E-03    -196.006E-03     449.633E-03    -574.616E-03    -234.660E-03     260.117E-03    -49.8079E-03    -210.309E-03    -169.745E-03     219.553E-03    -49.8079E-03     263.822E-03     60.4081E+06     37.6331E+06    -25.6784E+06    -9.77466E+06     21.7294E+06     60.4081E+06    -22.5591E+06         45.4542
            2020     12.2818E-03     131.624E-03     291.546E-03    -129.959E-03    -506.777E-03    -87.1518E-03     248.738E-03    -506.777E-03    -236.829E-03     297.755E-03    -58.2906E-03    -239.464E-03    -200.016E-03     258.307E-03    -58.2906E-03     279.989E-03     62.0443E+06     45.4363E+06    -28.7217E+06    -16.9395E+06     33.6541E+06     62.0443E+06    -22.9359E+06         48.7598
            2021     13.1045E-03     131.960E-03     168.584E-03    -103.959E-03    -435.924E-03     16.8633E-03     47.7620E-03    -435.924E-03    -225.005E-03     331.217E-03    -67.3835E-03    -263.833E-03    -225.862E-03     293.245E-03    -67.3835E-03     290.717E-03     85.5291E+06     61.2322E+06    -25.3653E+06    -20.6984E+06     71.5890E+06     70.5055E+06    -18.5695E+06         51.9198
            2022     13.9064E-03     132.316E-03     155.588E-03    -182.975E-03    -375.433E-03     114.163E-03    -150.248E-03    -366.735E-03    -197.486E-03     350.772E-03    -76.9102E-03    -273.862E-03    -244.553E-03     321.463E-03    -76.9102E-03     261.283E-03     114.567E+06     86.5615E+06    -26.5700E+06    -21.0623E+06     105.090E+06     90.5305E+06    -21.6537E+06         54.7406
            2023     14.6896E-03     132.572E-03     216.086E-03    -259.131E-03    -397.045E-03     203.556E-03    -342.665E-03    -300.982E-03    -154.463E-03     371.273E-03    -86.5464E-03    -284.726E-03    -260.330E-03     346.877E-03    -86.5464E-03     247.529E-03     83.9971E+06     48.9170E+06    -43.4603E+06    -28.4906E+06     42.9602E+06     74.9842E+06    -24.9248E+06         57.0049
            2024     15.4699E-03     132.933E-03     290.652E-03    -241.182E-03    -534.257E-03     287.290E-03    -530.896E-03    -241.182E-03    -90.4221E-03     380.841E-03    -95.9177E-03    -284.923E-03    -269.577E-03     365.495E-03    -95.9177E-03     179.321E-03     41.2185E+06     2.78725E+06    -75.7788E+06    -25.2664E+06    -47.7251E+06     41.2185E+06    -15.4692E+06         58.5043
            2025     993.627E-06     131.144E-03         1.45431    -752.361E-03    -753.625E-03    -752.251E-03         1.45415    -753.581E-03     31.7759E-03     14.7130E-03    -6.95701E-03    -7.75596E-03    -7.43684E-03     14.5286E-03    -7.09178E-03     3.33095E-03    -141.136E+06    -234.242E+06    -237.287E+06    -234.613E+06    -142.734E+06    -235.319E+06    -8.85794E+06         24.9547
            2026     1.98589E-03     131.151E-03         1.43853    -744.135E-03    -749.631E-03    -743.743E-03         1.43814    -749.631E-03     52.1015E-03     18.3489E-03    -7.71269E-03    -10.6362E-03    -9.57712E-03     17.2898E-03    -7.71269E-03     10.0205E-03    -102.017E+06    -224.514E+06    -230.428E+06    -224.740E+06    -106.575E+06    -225.644E+06    -20.6320E+06         25.3008
            2027     2.97576E-03     131.170E-03         1.41113    -728.655E-03    -742.367E-03    -728.028E-03         1.41050    -742.367E-03     64.7268E-03     25.0268E-03    -8.91030E-03    -16.1165E-03    -12.9790E-03     21.8893E-03    -8.91030E-03     21.3731E-03    -81.2769E+06    -202.779E+06    -218.174E+06    -206.979E+06    -91.3426E+06    -203.909E+06    -32.9462E+06         25.8790
            2028     3.96181E-03     131.198E-03         1.36987    -705.588E-03    -731.029E-03    -704.863E-03         1.36914    -731.029E-03     65.7420E-03     35.5060E-03    -10.6268E-03    -24.8793E-03    -18.2594E-03     28.8862E-03    -10.6268E-03     37.5067E-03    -67.6135E+06    -171.371E+06    -201.201E+06    -180.985E+06    -87.8291E+06    -171.371E+06    -45.9817E+06         26.7167
            2029     4.94052E-03     131.248E-03         1.31229    -673.214E-03    -714.860E-03    -672.576E-03         1.31165    -714.860E-03     53.8911E-03     49.8693E-03    -12.8733E-03    -36.9960E-03    -25.6888E-03     38.5620E-03    -12.8733E-03     58.4072E-03    -50.9350E+06    -137.766E+06    -181.968E+06    -148.352E+06    -84.5511E+06    -137.766E+06    -55.3102E+06         27.8443
            2030     5.91171E-03     131.316E-03         1.23605    -630.129E-03    -692.943E-03    -629.685E-03         1.23560    -692.943E-03     30.0413E-03     68.1656E-03    -15.7211E-03    -52.4445E-03    -35.5854E-03     51.3065E-03    -15.7211E-03     83.6385E-03    -29.2754E+06    -96.2363E+06    -150.557E+06    -113.172E+06    -66.6608E+06    -96.2363E+06    -52.6607E+06         29.2938
            2031     6.87362E-03     131.416E-03         1.13913    -575.241E-03    -664.315E-03    -574.883E-03         1.13878    -664.315E-03    -3.58942E-03     90.5003E-03    -19.2460E-03    -71.2543E-03    -48.4282E-03     67.6742E-03    -19.2460E-03     112.624E-03    -18.5849E+06    -57.5150E+06    -112.555E+06    -79.8497E+06    -57.7909E+06    -51.0140E+06    -39.2344E+06         31.0935
            2032     7.82412E-03     131.550E-03         1.02070    -508.351E-03    -628.116E-03    -507.670E-03         1.02002    -628.116E-03    -43.4914E-03     116.887E-03    -23.4692E-03    -93.4182E-03    -64.5614E-03     88.0306E-03    -23.4692E-03     144.703E-03     2.30289E+06    -20.4288E+06    -74.7528E+06    -49.1860E+06    -39.9100E+06    -3.78263E+06    -27.8218E+06         33.2602
            2033     8.76145E-03     131.727E-03     881.452E-03    -430.596E-03    -583.606E-03    -428.810E-03     879.666E-03    -583.606E-03    -85.5449E-03     148.346E-03    -28.4297E-03    -119.916E-03    -85.2759E-03     113.706E-03    -28.4297E-03     179.853E-03     32.8832E+06     4.44517E+06    -46.5187E+06    -23.9603E+06    -18.1132E+06     32.8832E+06    -22.8165E+06         35.7887
            2034     9.67968E-03     131.953E-03     724.084E-03    -344.494E-03    -530.570E-03    -340.397E-03     719.987E-03    -530.570E-03    -124.849E-03     183.704E-03    -34.2467E-03    -149.458E-03    -110.720E-03     144.966E-03    -34.2467E-03     213.439E-03     53.0553E+06     18.7531E+06    -30.4006E+06    -13.9043E+06     2.25683E+06     53.0553E+06    -16.8993E+06         38.6440
            2035     10.5766E-03     132.225E-03     553.806E-03    -254.520E-03    -469.576E-03    -246.143E-03     545.429E-03    -469.576E-03    -157.385E-03     222.031E-03    -41.0272E-03    -181.003E-03    -140.105E-03     181.132E-03    -41.0272E-03     243.198E-03     59.1826E+06     22.1821E+06    -30.5191E+06    -19.6168E+06     11.2797E+06     59.1826E+06    -15.9697E+06         41.7577
            2036     11.4491E-03     132.543E-03     378.136E-03    -167.216E-03    -401.682E-03    -150.573E-03     361.494E-03    -401.682E-03    -179.101E-03     262.101E-03    -48.7891E-03    -213.312E-03    -172.000E-03     220.789E-03    -48.7891E-03     267.545E-03     66.6552E+06     36.6148E+06    -30.6767E+06    -21.5983E+06     27.5363E+06     66.6552E+06    -18.6283E+06         45.0287
            2037     12.2948E-03     132.899E-03     214.841E-03    -99.1609E-03    -328.606E-03    -58.2607E-03     173.941E-03    -328.606E-03    -187.532E-03     300.377E-03    -57.4286E-03    -242.949E-03    -202.951E-03     260.380E-03    -57.4286E-03     283.485E-03     75.6945E+06     40.9945E+06    -20.1831E+06    -10.8609E+06     31.6723E+06     75.6945E+06    -14.5101E+06         48.3279
            2038     13.1169E-03     133.283E-03     122.597E-03    -96.9321E-03    -263.792E-03     26.7389E-03    -12.0866E-03    -252.780E-03    -182.142E-03     332.806E-03    -66.6507E-03    -266.155E-03    -228.458E-03     295.109E-03    -66.6507E-03     290.629E-03     101.299E+06     64.9844E+06    -6.56083E+06      861.64E+03     68.2256E+06     90.6351E+06    -7.63018E+06         51.4997
            2039     13.9240E-03     133.678E-03     128.275E-03    -132.543E-03    -265.698E-03     102.473E-03    -192.995E-03    -179.444E-03    -162.269E-03     355.415E-03    -76.3518E-03    -279.063E-03    -249.631E-03     325.983E-03    -76.3518E-03     264.432E-03     130.302E+06     114.826E+06     1.03816E+06     1.67299E+06     124.855E+06     119.638E+06    -2.06635E+06         54.3496
            2040     14.6978E-03     134.008E-03     176.524E-03    -111.667E-03    -374.064E-03     167.762E-03    -365.302E-03    -111.667E-03    -127.991E-03     378.947E-03    -86.2473E-03    -292.700E-03    -267.723E-03     353.970E-03    -86.2473E-03     253.671E-03     99.2262E+06     72.9951E+06    -15.6620E+06    -7.59122E+06     64.9244E+06     99.2262E+06    -5.31493E+06         56.6400
            2041     15.4394E-03     134.366E-03     230.529E-03    -53.8519E-03    -536.855E-03     227.907E-03    -534.233E-03    -53.8519E-03    -79.5262E-03     384.080E-03    -95.7370E-03    -288.343E-03    -271.384E-03     367.121E-03    -95.7370E-03     197.478E-03     39.4540E+06     17.3808E+06    -83.0686E+06    -4.92614E+06    -60.7616E+06     39.4540E+06    -13.3260E+06         58.1469
            2042     990.478E-06     132.159E-03         1.16479    -554.568E-03    -556.125E-03    -555.244E-03         1.16429    -554.947E-03     52.0958E-03     21.3510E-03    -10.3621E-03    -10.9888E-03    -10.9501E-03     21.3122E-03    -10.3621E-03     1.18588E-03    -108.179E+06    -165.560E+06    -177.694E+06    -167.840E+06    -116.956E+06    -166.637E+06    -19.0611E+06         25.0306
            2043     1.97920E-03     132.170E-03         1.15611    -550.339E-03    -552.780E-03    -549.885E-03         1.15474    -551.867E-03     89.0572E-03     23.8442E-03    -11.0648E-03    -12.7794E-03    -12.4795E-03     23.5443E-03    -11.0648E-03     4.56581E-03    -67.9053E+06    -151.567E+06    -169.455E+06    -157.126E+06    -80.2344E+06    -151.567E+06    -31.0214E+06         25.3683
            2044     2.96747E-03     132.189E-03         1.13986    -541.458E-03    -547.081E-03    -540.365E-03         1.13740    -545.716E-03     119.243E-03     28.1419E-03    -12.0113E-03    -16.1306E-03    -14.9278E-03     26.9391E-03    -12.0113E-03     11.8744E-03    -48.1622E+06    -137.654E+06    -168.000E+06    -148.448E+06    -67.7144E+06    -137.654E+06       -43.4E+06         25.9314
            2045     3.95170E-03     132.227E-03         1.11332    -527.549E-03    -537.316E-03    -525.718E-03         1.10997    -535.799E-03     136.584E-03     35.4701E-03    -13.2974E-03    -22.1727E-03    -18.8146E-03     32.1120E-03    -13.2974E-03     24.8646E-03    -32.8373E+06    -126.425E+06    -174.419E+06    -146.651E+06    -60.6050E+06    -126.425E+06    -55.6325E+06         26.7457
            2046     4.93259E-03     132.282E-03         1.07349    -507.182E-03    -522.387E-03    -504.692E-03         1.06977    -521.159E-03     138.843E-03     47.2634E-03    -15.0532E-03    -32.2102E-03    -24.9864E-03     40.0396E-03    -15.0532E-03     44.2091E-03    -24.0004E+06    -119.659E+06    -186.333E+06    -147.809E+06    -62.5244E+06    -119.659E+06    -68.6080E+06         27.8395
            2047     5.90599E-03     132.365E-03         1.01683    -478.147E-03    -501.087E-03    -475.189E-03         1.01342    -500.630E-03     125.047E-03     64.6730E-03    -17.4841E-03    -47.1888E-03    -34.4892E-03     51.9733E-03    -17.4841E-03     70.1843E-03    -15.8330E+06    -103.301E+06    -187.350E+06    -141.699E+06    -61.4837E+06    -103.301E+06    -75.1981E+06         29.2421
            2048     6.86744E-03     132.480E-03     940.094E-03    -437.910E-03    -473.023E-03    -435.352E-03     937.537E-03    -473.023E-03     96.3977E-03     87.3502E-03    -20.7209E-03    -66.6293E-03    -47.5251E-03     68.2459E-03    -20.7209E-03     101.184E-03    -13.2250E+06    -75.5325E+06    -171.724E+06    -119.334E+06    -65.6156E+06    -75.5325E+06    -73.4544E+06         30.9788
            2049     7.81650E-03     132.634E-03     841.274E-03    -385.607E-03    -437.152E-03    -384.063E-03     839.730E-03    -437.152E-03     56.6451E-03     115.525E-03    -24.7957E-03    -90.7293E-03    -64.9348E-03     89.7306E-03    -24.7957E-03     136.303E-03     6.14665E+06    -44.6370E+06    -136.905E+06    -84.8703E+06    -49.7769E+06    -40.7485E+06    -66.4488E+06         33.0629
            2050     8.74879E-03     132.834E-03     720.261E-03    -322.343E-03    -391.879E-03    -321.440E-03     719.357E-03    -391.879E-03     11.1700E-03     148.826E-03    -29.8747E-03    -118.952E-03    -87.1913E-03     117.066E-03    -29.8747E-03     173.009E-03     25.3940E+06    -14.1051E+06    -98.9758E+06    -54.8221E+06    -34.2335E+06     1.36877E+06    -51.2622E+06         35.4860
            2051     9.66352E-03     133.089E-03     579.590E-03    -250.752E-03    -336.808E-03    -249.537E-03     578.375E-03    -336.808E-03    -33.6936E-03     184.527E-03    -35.9389E-03    -148.588E-03    -112.938E-03     148.877E-03    -35.9389E-03     205.689E-03     35.7945E+06     5.20554E+06    -61.8862E+06    -34.7807E+06    -21.9000E+06     35.7945E+06    -26.1780E+06         38.2124
            2052     10.5582E-03     133.396E-03     424.439E-03    -175.451E-03    -272.416E-03    -172.307E-03     421.296E-03    -272.416E-03    -72.1552E-03     221.918E-03    -42.9281E-03    -178.990E-03    -141.554E-03     184.482E-03    -42.9281E-03     232.904E-03     67.1056E+06     25.1432E+06    -22.4441E+06    -14.2386E+06     16.9377E+06     67.1056E+06    -12.4873E+06         41.1776
            2053     11.4295E-03     133.756E-03     263.016E-03    -103.485E-03    -199.886E-03    -94.8268E-03     254.358E-03    -199.886E-03    -99.4139E-03     260.016E-03    -50.8248E-03    -209.192E-03    -171.639E-03     222.464E-03    -50.8248E-03     254.164E-03     88.2626E+06     43.4815E+06    -11.5035E+06     3.14035E+06     28.8376E+06     88.2626E+06    -8.85065E+06         44.2904
            2054     12.2764E-03     134.161E-03     126.585E-03    -42.8337E-03    -143.516E-03    -22.8607E-03     84.6305E-03    -121.535E-03    -112.466E-03     295.468E-03    -59.4310E-03    -236.037E-03    -199.796E-03     259.227E-03    -59.4310E-03     267.487E-03     95.7958E+06     45.9599E+06    -12.3022E+06     5.24406E+06     28.4136E+06     95.7958E+06    -3.65070E+06         47.4402
            2055     13.1011E-03     134.590E-03     87.1998E-03    -18.9440E-03    -151.600E-03     38.8690E-03    -81.5948E-03    -40.6185E-03    -112.089E-03     327.183E-03    -68.5077E-03    -258.675E-03    -224.674E-03     293.182E-03    -68.5077E-03     273.573E-03     110.185E+06     69.1702E+06    -4.12038E+06     1.97103E+06     65.9968E+06     107.267E+06    -4.38346E+06         50.4902
            2056     13.8979E-03     135.030E-03     132.398E-03     2.65088E-03    -249.445E-03     88.0096E-03    -239.325E-03     36.9192E-03    -99.3623E-03     347.844E-03    -77.7967E-03    -270.047E-03    -240.694E-03     318.491E-03    -77.7967E-03     261.820E-03     133.275E+06     107.588E+06     1.32621E+06     6.92240E+06     104.910E+06     130.357E+06     7.76707E+06         53.2741
            2057     14.6812E-03     135.425E-03     188.459E-03     47.9356E-03    -392.154E-03     125.821E-03    -388.409E-03     106.829E-03    -77.9526E-03     368.038E-03    -86.8610E-03    -281.177E-03    -251.442E-03     338.303E-03    -86.8610E-03     270.505E-03     138.313E+06     101.889E+06     5.40254E+06     16.1975E+06     91.0939E+06     138.313E+06     16.6483E+06         55.5487
            2058     15.4815E-03     135.806E-03     238.219E-03     84.5592E-03    -533.888E-03     158.455E-03    -532.638E-03     163.073E-03    -51.9437E-03     381.230E-03    -95.6264E-03    -285.603E-03    -264.574E-03     360.201E-03    -95.6264E-03     220.848E-03     90.8649E+06     41.0898E+06    -74.0061E+06     8.50693E+06    -41.4232E+06     90.8649E+06     2.23877E+06         57.0261
            2059     983.473E-06     133.187E-03     829.420E-03    -332.667E-03    -335.495E-03    -334.204E-03     828.128E-03    -332.667E-03     67.9958E-03     36.3966E-03    -17.8084E-03    -18.5882E-03    -18.4875E-03     36.3744E-03    -17.8869E-03    -1.24389E-03    -56.4758E+06    -82.7327E+06    -111.004E+06    -87.1418E+06    -81.4227E+06    -81.6479E+06    -20.3474E+06         25.3863
            2060     1.96575E-03     133.199E-03     827.599E-03    -329.812E-03    -333.854E-03    -330.127E-03     823.872E-03    -329.812E-03     120.238E-03     39.2612E-03    -18.7153E-03    -20.5459E-03    -20.4766E-03     39.1920E-03    -18.7153E-03    -2.20521E-03    -31.7857E+06    -80.3815E+06    -107.386E+06    -87.3796E+06    -51.7921E+06    -80.3815E+06    -32.4871E+06         25.7168
            2061     2.94432E-03     133.223E-03     822.915E-03    -324.055E-03    -332.187E-03    -324.980E-03     815.709E-03    -324.055E-03     168.071E-03     42.7045E-03    -19.8249E-03    -22.8796E-03    -22.6730E-03     42.4979E-03    -19.8249E-03    -75.3672E-06    -17.6223E+06    -74.2198E+06    -112.019E+06    -86.6530E+06    -42.9881E+06    -74.2198E+06    -41.4146E+06         26.2643
            2062     3.92228E-03     133.261E-03     812.915E-03    -314.959E-03    -328.150E-03    -317.260E-03     802.025E-03    -314.959E-03     204.693E-03     47.3845E-03    -21.1617E-03    -26.2228E-03    -25.5226E-03     46.6843E-03    -21.1617E-03     6.70011E-03    -7.13825E+06    -58.4693E+06    -114.631E+06    -85.1644E+06    -36.6051E+06    -58.4693E+06    -47.7006E+06         27.0503
            2063     4.89642E-03     133.323E-03     793.933E-03    -301.331E-03    -320.170E-03    -306.299E-03     780.063E-03    -301.331E-03     226.235E-03     54.9775E-03    -22.8221E-03    -32.1554E-03    -30.0598E-03     52.8819E-03    -22.8221E-03     19.2008E-03     94.7073E+03    -44.2881E+06    -121.563E+06    -84.3272E+06    -37.1408E+06    -44.2881E+06    -55.7796E+06         28.0981
            2064     5.86470E-03     133.414E-03     761.061E-03    -281.150E-03    -306.175E-03    -290.198E-03     745.778E-03    -281.845E-03     229.259E-03     66.5983E-03    -24.8967E-03    -41.7016E-03    -36.6757E-03     61.5724E-03    -24.8967E-03     39.1981E-03     5.75398E+06    -42.2208E+06    -134.136E+06    -86.6457E+06    -41.7364E+06    -42.2208E+06    -66.1108E+06         29.4316
            2065     6.82654E-03     133.543E-03     709.404E-03    -251.725E-03    -284.639E-03    -266.598E-03     694.641E-03    -255.004E-03     212.579E-03     84.3622E-03    -27.5769E-03    -56.7852E-03    -47.0628E-03     74.6397E-03    -27.5769E-03     67.0588E-03     6.09435E+06    -46.7388E+06    -149.947E+06    -92.5887E+06    -51.2636E+06    -46.7388E+06    -75.1020E+06         31.0705
            2066     7.77563E-03     133.715E-03     634.933E-03    -211.374E-03    -253.567E-03    -233.175E-03     622.247E-03    -219.080E-03     178.925E-03     110.410E-03    -31.1503E-03    -79.2596E-03    -63.3859E-03     94.5363E-03    -31.1503E-03     102.131E-03     11.6014E+06    -48.6783E+06    -158.084E+06    -99.4115E+06    -47.0713E+06    -48.6783E+06    -80.3659E+06         33.0206
            2067     8.70687E-03     133.942E-03     536.378E-03    -159.930E-03    -211.903E-03    -189.214E-03     526.380E-03    -172.621E-03     134.673E-03     143.080E-03    -35.9216E-03    -107.158E-03    -85.1975E-03     121.119E-03    -35.9216E-03     139.721E-03     10.2292E+06    -37.6008E+06    -152.309E+06    -95.8488E+06    -49.9712E+06    -33.8604E+06    -75.4911E+06         35.2657
            2068     9.61544E-03     134.224E-03     416.349E-03    -98.5573E-03    -161.073E-03    -136.674E-03     408.527E-03    -115.134E-03     87.8958E-03     179.704E-03    -41.8963E-03    -137.808E-03    -111.380E-03     153.277E-03    -41.8963E-03     174.157E-03     15.7677E+06    -20.1381E+06    -128.179E+06    -71.6150E+06    -55.5861E+06    -5.34813E+06    -63.8035E+06         37.7643
            2069     10.5002E-03     134.564E-03     281.820E-03    -29.8195E-03    -105.332E-03    -80.1303E-03     273.883E-03    -47.0841E-03     47.3448E-03     217.895E-03    -48.9737E-03    -168.922E-03    -140.132E-03     189.106E-03    -48.9737E-03     202.084E-03     52.1835E+06     16.1315E+06    -79.9998E+06    -41.0251E+06    -11.0245E+06     40.3648E+06    -49.6645E+06         40.4510
            2070     11.3615E-03     134.958E-03     185.105E-03     7.28737E-03    -58.5334E-03    -25.9649E-03     129.957E-03     29.8673E-03     17.8580E-03     253.720E-03    -56.9963E-03    -196.724E-03    -167.577E-03     224.574E-03    -56.9963E-03     220.778E-03     82.1368E+06     28.3691E+06    -55.1768E+06    -25.4378E+06    -133.791E+03     80.9007E+06    -27.8120E+06         43.2473
            2071     12.2036E-03     135.396E-03     158.920E-03     27.2010E-03    -68.9644E-03     19.8826E-03    -15.5307E-03     112.805E-03     1.37275E-03     285.292E-03    -65.5312E-03    -219.761E-03    -191.694E-03     257.226E-03    -65.5312E-03     230.572E-03     103.860E+06     27.8647E+06    -36.4873E+06    -18.1257E+06     9.50314E+06     103.860E+06    -8.06383E+06         46.0695
            2072     13.0277E-03     135.866E-03     199.714E-03     57.3351E-03    -161.912E-03     52.6985E-03    -155.046E-03     197.485E-03    -3.63960E-03     309.118E-03    -74.1129E-03    -235.005E-03    -207.342E-03     281.455E-03    -74.1129E-03     238.729E-03     130.691E+06     66.0032E+06    -5.11287E+06    -3.75601E+06     64.6464E+06     130.691E+06    -3.06049E+06         48.8316
            2073     13.8423E-03     136.356E-03     276.328E-03     73.0735E-03    -286.684E-03     70.5702E-03    -284.181E-03     276.328E-03    -2.98116E-03     317.000E-03    -82.0273E-03    -234.972E-03    -207.690E-03     289.717E-03    -82.0273E-03     239.268E-03     137.661E+06     72.5149E+06    -4.64466E+06     8.14306E+06     59.7272E+06     137.661E+06     11.8257E+06         51.4377
            2074     14.6748E-03     136.761E-03     346.105E-03     76.4808E-03    -403.460E-03     75.4037E-03    -402.383E-03     346.105E-03    -2.71319E-03     337.384E-03    -89.0678E-03    -248.316E-03    -217.419E-03     306.487E-03    -89.0678E-03     261.621E-03     157.159E+06     93.5784E+06     552.938E+03     15.5642E+06     95.8535E+06     139.872E+06     29.4824E+06         53.6024
            2075     15.4676E-03     137.211E-03     402.686E-03     73.8437E-03    -512.906E-03     73.4441E-03    -512.507E-03     402.686E-03    -5.25962E-03     365.908E-03    -96.3256E-03    -269.582E-03    -246.052E-03     342.377E-03    -96.3256E-03     228.838E-03     129.810E+06     75.5233E+06    -66.0615E+06     15.6335E+06     11.1147E+06     112.523E+06     22.2039E+06         54.8995
            2076     972.509E-06     134.233E-03     461.748E-03    -94.4296E-03    -100.294E-03    -94.7730E-03     457.653E-03    -95.8556E-03     73.7966E-03     61.6969E-03    -30.0951E-03    -31.6018E-03    -30.5279E-03     61.5654E-03    -31.0375E-03    -6.22425E-03    -7.51354E+06    -24.5094E+06    -58.3635E+06    -20.5603E+06    -46.4016E+06    -23.4246E+06    -15.1060E+06         25.8881
            2077     1.94133E-03     134.250E-03     467.336E-03    -90.6647E-03    -102.892E-03    -90.6700E-03     455.115E-03    -90.6647E-03     133.895E-03     64.6683E-03    -31.3787E-03    -33.2896E-03    -32.9782E-03     64.3569E-03    -31.3787E-03    -10.6737E-03     2.46360E+06    -20.8578E+06    -52.6041E+06    -25.3757E+06    -24.7648E+06    -20.8578E+06    -26.3803E+06         26.2164
            2078     2.90841E-03     134.276E-03     476.497E-03    -83.6203E-03    -109.301E-03    -84.3199E-03     451.516E-03    -83.6203E-03     194.424E-03     69.4266E-03    -32.7567E-03    -36.6699E-03    -36.2147E-03     68.9714E-03    -32.7567E-03    -13.3374E-03     9.36754E+06    -12.9798E+06    -61.1120E+06    -29.9286E+06    -22.9445E+06    -11.8511E+06    -32.7418E+06         26.7559
            2079     3.87094E-03     134.319E-03     487.064E-03    -73.2418E-03    -118.251E-03    -77.6636E-03     446.476E-03    -73.2418E-03     250.306E-03     75.1942E-03    -34.5819E-03    -40.6123E-03    -40.0557E-03     74.6376E-03    -34.5819E-03    -13.9749E-03     12.7062E+06    -4.20219E+06    -65.3969E+06    -33.8506E+06    -20.4074E+06    -2.63489E+06    -36.4621E+06         27.5216
            2080     4.82859E-03     134.385E-03     494.772E-03    -58.6131E-03    -127.175E-03    -70.8839E-03     438.480E-03    -58.6131E-03     296.263E-03     81.1567E-03    -36.7139E-03    -44.4428E-03    -43.8235E-03     80.5374E-03    -36.7139E-03    -10.7424E-03     16.9202E+06     2.14283E+06    -69.7885E+06    -36.5304E+06    -16.7765E+06     2.58146E+06    -41.5032E+06         28.5281
            2081     5.78213E-03     134.480E-03     493.796E-03    -38.4372E-03    -132.945E-03    -63.6387E-03     424.489E-03    -38.4372E-03     326.492E-03     88.5926E-03    -39.1504E-03    -49.4422E-03    -48.4399E-03     87.5903E-03    -39.1504E-03    -2.83047E-03     18.4531E+06    -2.91707E+06    -79.5506E+06    -43.9629E+06    -21.0215E+06     969.775E+03    -45.5846E+06         29.7900
            2082     6.73011E-03     134.613E-03     477.713E-03    -10.9841E-03    -132.503E-03    -54.3769E-03     399.586E-03    -10.9841E-03     336.745E-03     99.6681E-03    -42.1017E-03    -57.5664E-03    -55.3496E-03     97.4513E-03    -42.1017E-03     10.3925E-03     16.6495E+06    -7.98989E+06    -94.5249E+06    -54.4666E+06    -29.4292E+06    -1.96955E+06    -51.0268E+06         31.3156
            2083     7.66799E-03     134.799E-03     440.485E-03     25.8712E-03    -123.160E-03    -40.2062E-03     357.531E-03     25.8712E-03     325.078E-03     115.854E-03    -45.8124E-03    -70.0414E-03    -65.6691E-03     111.481E-03    -45.8124E-03     30.6541E-03     17.2217E+06    -6.74138E+06    -104.828E+06    -62.6929E+06    -29.4065E+06    -2.24841E+06    -56.3515E+06         33.1005
            2084     8.59026E-03     135.042E-03     380.716E-03     73.8753E-03    -106.063E-03    -19.0518E-03     293.705E-03     73.8753E-03     295.750E-03     137.394E-03    -50.4614E-03    -86.9326E-03    -79.8059E-03     130.267E-03    -50.4614E-03     55.4967E-03     14.9293E+06    -9.11896E+06    -118.736E+06    -69.9192E+06    -37.8715E+06    -5.13496E+06    -62.6944E+06         35.1192
            2085     9.49600E-03     135.349E-03     315.620E-03     121.629E-03    -87.7182E-03     8.36061E-03     207.330E-03     133.840E-03     257.875E-03     164.016E-03    -56.1444E-03    -107.872E-03    -97.9523E-03     154.097E-03    -56.1444E-03     82.0908E-03     13.8818E+06    -9.45966E+06    -138.094E+06      -76.77E+06    -49.6677E+06    -7.23401E+06    -73.4885E+06         37.3227
            2086     10.3779E-03     135.720E-03     273.857E-03     151.310E-03    -79.3711E-03     37.6194E-03     102.772E-03     205.405E-03     222.640E-03     193.929E-03    -62.8827E-03    -131.047E-03    -118.969E-03     181.851E-03    -62.8827E-03     107.055E-03     20.3046E+06     3.45022E+06    -137.561E+06    -83.0695E+06    -39.2226E+06     8.48593E+06    -72.1391E+06         39.6438
            2087     11.2357E-03     136.146E-03     295.399E-03     138.811E-03    -97.3163E-03     60.8948E-03    -10.3251E-03     286.324E-03     196.822E-03     223.496E-03    -70.4723E-03    -153.024E-03    -139.978E-03     210.450E-03    -70.4723E-03     124.751E-03     36.5444E+06     2.15493E+06    -119.121E+06    -79.9721E+06    -35.7574E+06     35.3083E+06    -56.6359E+06         42.0158
            2088     12.0721E-03     136.613E-03     372.510E-03     109.020E-03    -159.581E-03     70.5380E-03    -121.099E-03     372.510E-03     178.213E-03     248.477E-03    -78.3249E-03    -170.152E-03    -156.494E-03     234.819E-03    -78.3249E-03     140.471E-03     61.8831E+06     4.10697E+06    -93.8067E+06    -54.5505E+06    -31.4206E+06     58.1545E+06    -45.6542E+06         44.3913
            2089     12.8899E-03     137.114E-03     457.172E-03     87.8711E-03    -247.559E-03     64.1744E-03    -223.862E-03     457.172E-03     155.875E-03     258.673E-03    -85.5036E-03    -173.169E-03    -157.345E-03     242.849E-03    -85.5036E-03     158.992E-03     102.043E+06     42.8579E+06    -57.2399E+06    -32.8819E+06     22.2284E+06     98.3143E+06    -28.9421E+06         46.7625
            2090     13.7337E-03     137.585E-03     532.328E-03     59.3358E-03    -332.451E-03     45.5822E-03    -318.698E-03     532.328E-03     124.812E-03     260.812E-03    -91.2401E-03    -169.572E-03    -152.064E-03     243.304E-03    -91.2401E-03     168.744E-03     122.377E+06     36.4976E+06    -37.0153E+06    -25.2728E+06     24.7550E+06     122.377E+06    -6.71633E+06         49.0708
            2091     14.5837E-03     138.028E-03     598.119E-03     23.5476E-03    -408.687E-03     15.9173E-03    -401.057E-03     598.119E-03     95.1743E-03     283.179E-03    -95.8123E-03    -187.367E-03    -163.853E-03     259.665E-03    -95.8123E-03     203.531E-03     135.823E+06     47.8724E+06    -23.9775E+06    -11.0311E+06     52.2125E+06     118.536E+06     4.93515E+06         50.9646
            2092     15.4242E-03     138.556E-03     652.750E-03    -21.7022E-03    -468.520E-03    -25.0161E-03    -465.207E-03     652.750E-03     56.2930E-03     309.048E-03    -100.124E-03    -208.925E-03    -181.544E-03     281.667E-03    -100.124E-03     226.662E-03     116.665E+06     58.7800E+06    -48.8688E+06    -1.00797E+06     28.2056E+06     99.3789E+06     20.9415E+06         51.9430
            2093     952.638E-06     135.313E-03     270.490E-03     145.595E-03    -50.8940E-03     147.407E-03     73.1246E-03     144.660E-03     60.7682E-03     97.3887E-03    -47.3504E-03    -50.0383E-03    -48.5018E-03     97.1579E-03    -48.6561E-03    -11.2497E-03     37.0165E+06     25.5739E+06    -22.5945E+06     29.1168E+06    -17.0077E+06     27.8868E+06    -14.0577E+06         26.3369
            2094     1.90681E-03     135.331E-03     284.253E-03     152.356E-03    -58.7692E-03     156.991E-03     68.4919E-03     152.356E-03     112.844E-03     99.9380E-03    -48.7574E-03    -51.1806E-03    -50.2512E-03     99.4505E-03    -49.1993E-03    -16.8147E-03     40.0400E+06     28.6224E+06    -14.6636E+06     24.6994E+06    -5.47119E+06     34.7706E+06    -16.0208E+06         26.6672
            2095     2.85675E-03     135.363E-03     305.981E-03     163.125E-03    -73.1437E-03     171.307E-03     61.5306E-03     163.125E-03     171.745E-03     107.564E-03    -50.8890E-03    -56.6746E-03    -55.7735E-03     106.662E-03    -50.8890E-03    -24.0212E-03     40.1398E+06     29.8682E+06    -21.0559E+06     19.1651E+06    -10.2104E+06     39.9974E+06    -17.7068E+06         27.2076
            2096     3.79787E-03     135.415E-03     335.126E-03     178.071E-03    -92.8536E-03     188.574E-03     53.6983E-03     178.071E-03     234.631E-03     117.052E-03    -53.5686E-03    -63.4838E-03    -62.0073E-03     115.576E-03    -53.5686E-03    -32.3675E-03     35.5419E+06     26.5095E+06    -22.7932E+06     11.5363E+06    -7.82003E+06     35.5419E+06    -20.4191E+06         27.9669
            2097     4.73323E-03     135.484E-03     368.070E-03     197.907E-03    -115.972E-03     206.341E-03     45.7569E-03     197.907E-03     300.928E-03     127.699E-03    -56.9835E-03    -70.7154E-03    -68.4378E-03     125.421E-03    -56.9835E-03    -41.5034E-03     40.8833E+06     21.3207E+06    -24.9772E+06     2.37949E+06    -3.76924E+06     38.6165E+06    -22.0083E+06         28.9512
            2098     5.66078E-03     135.586E-03     399.970E-03     223.748E-03    -140.869E-03     222.320E-03     36.7814E-03     223.748E-03     367.004E-03     139.560E-03    -61.0967E-03    -78.4628E-03    -75.0297E-03     136.126E-03    -61.0967E-03    -51.9416E-03     50.0846E+06     15.4237E+06    -31.8105E+06    -6.25586E+06    -7.86416E+06     47.8178E+06    -22.5044E+06         30.1629
            2099     6.57506E-03     135.724E-03     424.670E-03     256.993E-03    -165.524E-03     233.785E-03     25.3614E-03     256.993E-03     428.171E-03     151.818E-03    -65.8777E-03    -85.9404E-03    -80.9840E-03     146.862E-03    -65.8777E-03    -62.3440E-03     52.5296E+06     14.2548E+06    -40.1011E+06    -12.7820E+06    -13.0643E+06     52.5296E+06    -24.8727E+06         31.5958
            2100     7.47678E-03     135.911E-03     435.212E-03     299.229E-03    -187.615E-03     238.970E-03     8.62776E-03     299.229E-03     477.755E-03     162.897E-03    -71.2618E-03    -91.6353E-03    -84.7462E-03     156.008E-03    -71.2618E-03    -70.2913E-03     49.0403E+06     14.0098E+06    -46.8200E+06    -19.0881E+06    -13.7221E+06     49.0403E+06    -28.2704E+06         33.2321
            2101     8.36712E-03     136.156E-03     426.680E-03     351.935E-03    -207.501E-03     236.360E-03    -17.1814E-03     351.935E-03     510.773E-03     172.751E-03    -77.2465E-03    -95.5047E-03    -86.3909E-03     163.637E-03    -77.2465E-03    -74.2442E-03     48.1799E+06     11.0278E+06    -51.9526E+06    -25.3679E+06    -15.5569E+06     48.1799E+06    -30.3576E+06         35.0365
            2102     9.23973E-03     136.464E-03     433.942E-03     380.383E-03    -228.770E-03     224.551E-03    -54.7630E-03     415.767E-03     524.427E-03     181.435E-03    -83.0456E-03    -98.3898E-03    -86.3700E-03     170.133E-03    -83.7630E-03    -72.8341E-03     49.8751E+06     9.63281E+06    -61.0777E+06    -33.4303E+06    -18.0146E+06     49.8751E+06    -33.9348E+06         36.9543
            2103     10.0984E-03     136.837E-03     490.099E-03     355.100E-03    -257.317E-03     202.381E-03    -104.598E-03     490.099E-03     518.087E-03     188.320E-03    -83.1035E-03    -105.216E-03    -85.0888E-03     175.696E-03    -90.6071E-03    -63.7473E-03     46.6761E+06     2.60720E+06    -70.1907E+06    -41.4855E+06    -26.0981E+06     46.6761E+06    -34.1736E+06         38.9225
            2104     10.9429E-03     137.274E-03     572.383E-03     301.265E-03    -295.999E-03     169.203E-03    -163.937E-03     572.383E-03     493.901E-03     192.197E-03    -75.7425E-03    -116.455E-03    -83.5313E-03     180.951E-03    -97.4193E-03    -44.8254E-03     45.1023E+06     821.948E+03    -72.0085E+06    -41.3888E+06    -29.7978E+06     45.1023E+06    -34.6236E+06         40.8953
            2105     11.7725E-03     137.757E-03     657.005E-03     236.554E-03    -336.413E-03     125.023E-03    -224.881E-03     657.005E-03     451.123E-03     189.295E-03    -64.4228E-03    -124.872E-03    -77.8521E-03     181.242E-03    -103.390E-03    -11.8671E-03     49.6551E+06     10.4160E+06    -82.1109E+06    -44.1557E+06    -23.8106E+06     45.9265E+06    -44.4446E+06         42.8778
            2106     12.6252E-03     138.254E-03     735.584E-03     158.644E-03    -368.947E-03     71.0326E-03    -281.336E-03     735.584E-03     385.010E-03     180.626E-03    -55.5053E-03    -125.121E-03    -66.1180E-03     173.726E-03    -107.608E-03     20.2938E-03     58.1336E+06     9.87263E+06    -85.9616E+06    -54.9272E+06    -17.4332E+06     54.4049E+06    -37.4149E+06         44.9094
            2107     13.5054E-03     138.729E-03     803.009E-03     70.8775E-03    -394.950E-03     9.71192E-03    -333.785E-03     803.009E-03     299.933E-03     183.954E-03    -57.2340E-03    -126.720E-03    -66.2928E-03     176.718E-03    -110.425E-03     36.4613E-03     90.7524E+06     16.3583E+06    -59.1091E+06    -44.4021E+06     1.65129E+06     90.7524E+06    -24.4039E+06         46.8833
            2108     14.3696E-03     139.221E-03     859.590E-03    -19.2785E-03    -416.798E-03    -55.7584E-03    -380.318E-03     859.590E-03     212.278E-03     191.612E-03    -56.1679E-03    -135.445E-03    -68.3977E-03     180.880E-03    -112.483E-03     57.2283E-03     112.051E+06     24.7984E+06    -49.8753E+06    -32.3317E+06     7.25481E+06     112.051E+06    -10.6359E+06         48.4252
            2109     15.2579E-03     139.705E-03     901.224E-03    -112.838E-03    -419.185E-03    -128.363E-03    -403.660E-03     901.224E-03     117.333E-03     179.188E-03    -38.2488E-03    -140.939E-03    -47.4243E-03     160.060E-03    -112.636E-03     95.9116E-03     83.0298E+06     12.5813E+06    -56.1169E+06    -24.4289E+06     3.19831E+06     60.7248E+06     2.65367E+06         49.1843


