********************************************************************************
Field Output Report, written Thu Apr 10 16:05:12 2025

Source 1
---------

   ODB: F:/Abaqus_calc/Vel_40/odb/Correct/aisi_1020_2a_8_red_250_cal_50_vel_40_fric_025.odb
   Step: Step-1
   Frame: Increment   1558396: Step Time =   0.2209

Loc 1 : Nodal values from source 1

Output sorted by column "Nodal Label".

Field Output reported at nodes for region: DIE_2A_8_D0_36-1.Region_1
   Computation algorithm: EXTRAPOLATE_COMPUTE_AVERAGE
   Averaged at nodes
   Averaging regions: ODB_REGIONS

      Node Label  COORD.Magnitude     COORD.COOR1     COORD.COOR2
                          @Loc 1          @Loc 1          @Loc 1
------------------------------------------------------------------
               1     121.738E-03     18.7742E-03     120.282E-03


Field Output reported at nodes for region: DIE_2A_8_D0_36-1.Region_2
   Computation algorithm: EXTRAPOLATE_COMPUTE_AVERAGE
   Averaged at nodes
   Averaging regions: ODB_REGIONS

      Node Label  COORD.Magnitude     COORD.COOR1     COORD.COOR2
                          @Loc 1          @Loc 1          @Loc 1
------------------------------------------------------------------
               1     121.738E-03     18.7742E-03     120.282E-03


Field Output reported at nodes for part: WIRE_1-1
   Computation algorithm: EXTRAPOLATE_COMPUTE_AVERAGE
   Averaged at nodes
   Averaging regions: ODB_REGIONS

      Node Label  COORD.Magnitude     COORD.COOR1     COORD.COOR2    PE.Max. Prin    PE.Mid. Prin    PE.Min. Prin         PE.PE11         PE.PE22         PE.PE33         PE.PE12            PEEQ         S.Mises     S.Max. Prin     S.Mid. Prin     S.Min. Prin           S.S11           S.S22           S.S33           S.S12
                          @Loc 1          @Loc 1          @Loc 1          @Loc 1          @Loc 1          @Loc 1          @Loc 1          @Loc 1          @Loc 1          @Loc 1          @Loc 1          @Loc 1          @Loc 1          @Loc 1          @Loc 1          @Loc 1          @Loc 1          @Loc 1          @Loc 1
----------------------------------------------------------------------------------------------------------------------------------------------------------------------------------------------------------------------------------------------------------------------------------------------------------------------------------
               1     60.6888E-03     17.5348E-03     58.1004E-03     51.5107E-03    -24.7301E-03    -26.7806E-03    -24.7109E-03     51.4914E-03    -26.7806E-03    -2.41985E-03     71.0491E-03     187.497E+06     209.427E+06     134.396E+06    -3.96539E+06    -3.96461E+06     209.426E+06     134.396E+06     385.899E+03
               2     57.8914E-03     58.4614E-09     57.8914E-03     53.7117E-03    -26.7668E-03    -26.9449E-03    -26.9370E-03     53.7037E-03    -26.7668E-03     1.59870E-03     54.1627E-03     197.929E+06    -66.5022E+06    -68.1607E+06    -265.251E+06    -66.6256E+06    -265.239E+06    -68.0492E+06    -514.612E+03
               3     949.470E-09     949.470E-09     48.5723E-18     104.498E-03    -52.0145E-03    -52.4840E-03    -52.4834E-03     104.498E-03    -52.0145E-03    -583.380E-06     106.109E-03     201.751E+06    -40.8930E+06    -42.6060E+06    -243.495E+06    -42.6065E+06    -243.494E+06    -40.8930E+06     323.399E+03
               4     17.3768E-03     17.3768E-03     48.5723E-18     67.6607E-03    -33.1416E-03    -34.5192E-03    -27.2898E-03     61.8089E-03    -34.5192E-03     47.1437E-03     84.7036E-03     187.306E+06     218.056E+06     149.958E+06     6.22787E+06     6.24768E+06     218.037E+06     149.958E+06     2.04855E+06
               5     117.733E-03     17.5578E-03     116.417E-03     60.6673E-03    -24.7909E-03    -35.8764E-03    -35.7437E-03     60.5346E-03    -24.7909E-03     7.15214E-03     78.7008E-03     80.8247E+06     40.6949E+06     36.1644E+06    -42.2997E+06    -42.0179E+06     40.4131E+06     36.1644E+06    -4.82807E+06
               6     115.447E-03     803.354E-09     115.447E-03     30.9224E-03    -15.3019E-03    -15.6205E-03    -15.6183E-03     30.9202E-03    -15.3019E-03    -642.270E-06     30.9231E-03     58.8183E+06     54.3341E+06     52.0591E+06    -5.58863E+06     51.8140E+06    -5.34350E+06     54.3341E+06    -3.75117E+06
               7     60.4169E-03     16.5595E-03     58.1033E-03     52.6678E-03    -25.6198E-03    -27.0480E-03    -24.8981E-03     51.5432E-03    -26.6450E-03     12.0546E-03     97.9540E-03     187.092E+06     206.358E+06     103.311E+06    -7.21221E+06    -7.21165E+06     206.358E+06     103.311E+06     191.056E+03
               8     60.1298E-03     15.5843E-03     58.0752E-03     53.1528E-03    -26.3336E-03    -26.8192E-03    -25.2176E-03     51.6338E-03    -26.4162E-03     21.1949E-03     109.595E-03     185.305E+06     194.979E+06     49.0154E+06    -12.1424E+06    -12.1419E+06     194.978E+06     49.0154E+06    -110.434E+03
               9     59.8690E-03     14.6101E-03     58.0590E-03     53.0108E-03    -26.2411E-03    -26.7697E-03    -25.5122E-03     51.8358E-03    -26.3236E-03     18.9817E-03     99.1983E-03     141.512E+06     136.906E+06     8.76487E+06    -14.5449E+06    -14.5445E+06     136.905E+06     8.76487E+06    -46.1216E+03
              10     59.6154E-03     13.6351E-03     58.0351E-03     53.5605E-03    -26.3999E-03    -27.1607E-03    -25.8761E-03     52.2759E-03    -26.3999E-03     20.0961E-03     100.435E-03     60.1317E+06     47.6724E+06    -7.69313E+06    -15.6058E+06    -15.5972E+06     47.6638E+06    -7.69313E+06    -229.870E+03
              11     59.3824E-03     12.6610E-03     58.0170E-03     53.6445E-03    -26.5323E-03    -27.1122E-03    -26.2032E-03     52.7355E-03    -26.5323E-03     16.9990E-03     92.5744E-03     26.2614E+06     3.53913E+06    -12.0658E+06    -26.5971E+06    -16.4763E+06    -14.5306E+06    -4.11691E+06    -234.286E+03
              12     59.1655E-03     11.6870E-03     57.9997E-03     53.5935E-03    -26.6332E-03    -26.9603E-03    -26.2516E-03     52.8849E-03    -26.6332E-03     15.0178E-03     84.6951E-03     49.7387E+06    -37.1031E+03    -17.8972E+06    -56.0131E+06    -17.8986E+06    -56.0117E+06    -37.1031E+03     127.724E+03
              13     58.9663E-03     10.7126E-03     57.9850E-03     53.5457E-03    -26.7249E-03    -26.8209E-03    -26.2532E-03     52.9781E-03    -26.7249E-03     13.4409E-03     77.9702E-03     81.8277E+06     3.98827E+06    -19.7313E+06    -87.0775E+06    -19.7323E+06    -87.0765E+06     3.98827E+06     186.689E+03
              14     58.7840E-03     9.73855E-03     57.9717E-03     53.6397E-03    -26.7984E-03    -26.8413E-03    -26.3483E-03     53.1537E-03    -26.8054E-03     12.4663E-03     72.7307E-03     107.211E+06     6.84484E+06    -22.3999E+06    -111.945E+06    -22.4006E+06    -111.944E+06     6.84484E+06     203.335E+03
              15     58.6177E-03     8.76435E-03     57.9588E-03     53.6923E-03    -26.8195E-03    -26.8728E-03    -26.3929E-03     53.2638E-03    -26.8709E-03     11.7065E-03     68.6056E-03     129.995E+06     6.36326E+06    -25.9247E+06    -136.726E+06    -25.9268E+06    -136.724E+06     6.36326E+06     407.845E+03
              16     58.4685E-03     7.79038E-03     57.9472E-03     53.7849E-03    -26.8520E-03    -26.9329E-03    -26.4804E-03     53.4133E-03    -26.9329E-03     10.9175E-03     65.0757E-03     150.431E+06     5.42642E+06    -29.8075E+06    -159.493E+06    -29.8103E+06    -159.490E+06     5.42642E+06     593.870E+03
              17     58.3356E-03     6.81635E-03     57.9360E-03     53.8725E-03    -26.8972E-03    -26.9752E-03    -26.5781E-03     53.5534E-03    -26.9752E-03     10.1218E-03     62.2134E-03     167.351E+06     1.39131E+06    -34.4331E+06    -180.955E+06    -34.4344E+06    -180.954E+06     1.39131E+06     308.363E+03
              18     58.2197E-03     5.84246E-03     57.9258E-03     53.9083E-03    -26.9060E-03    -27.0023E-03    -26.6431E-03     53.6454E-03    -27.0023E-03     9.19126E-03     59.8538E-03     182.280E+06    -5.39142E+06    -39.9819E+06    -202.482E+06    -39.9833E+06    -202.481E+06    -5.39142E+06     317.831E+03
              19     58.1209E-03     4.86856E-03     57.9166E-03     53.9236E-03    -26.9050E-03    -27.0186E-03    -26.6929E-03     53.7115E-03    -27.0186E-03     8.25601E-03     57.9328E-03     195.131E+06    -14.2748E+06    -45.9541E+06    -223.282E+06    -45.9561E+06    -223.280E+06    -14.2748E+06     534.539E+03
              20     58.0392E-03     3.89484E-03     57.9084E-03     53.9199E-03    -26.9116E-03    -27.0082E-03    -26.7548E-03     53.7630E-03    -27.0082E-03     7.08013E-03     56.4786E-03     202.345E+06    -27.5975E+06    -52.2900E+06    -241.115E+06    -52.2910E+06    -241.114E+06    -27.5975E+06     168.113E+03
              21     57.9753E-03     2.92096E-03     57.9017E-03     53.9219E-03    -26.9369E-03    -26.9851E-03    -26.8464E-03     53.8226E-03    -26.9762E-03     5.61165E-03     55.4814E-03     203.677E+06    -41.7145E+06    -58.1734E+06    -253.091E+06    -58.1750E+06    -253.090E+06    -41.7145E+06     16.5161E+03
              22     57.9293E-03     1.94740E-03     57.8966E-03     53.8709E-03    -26.9151E-03    -26.9557E-03    -26.8951E-03     53.8203E-03    -26.9252E-03     3.94300E-03     54.7766E-03     202.249E+06    -54.4729E+06    -62.8088E+06    -260.721E+06    -62.8105E+06    -260.719E+06    -54.4729E+06     175.551E+03
              23     57.9016E-03     973.744E-06     57.8934E-03     53.7625E-03    -26.8215E-03    -26.9410E-03    -26.9139E-03     53.7441E-03    -26.8302E-03     2.32436E-03     54.3168E-03     199.559E+06    -63.6711E+06    -66.5387E+06    -264.639E+06    -65.7717E+06    -264.632E+06    -64.4446E+06    -182.837E+03
              24     56.8379E-03    -20.1649E-09     56.8379E-03     53.6931E-03    -26.7648E-03    -26.9283E-03    -26.9206E-03     53.6855E-03    -26.7648E-03     1.56899E-03     54.1476E-03     197.068E+06    -66.1534E+06    -69.0205E+06    -264.640E+06    -67.4785E+06    -264.635E+06    -67.7004E+06     992.041E+03
              25     55.7836E-03     286.120E-09     55.7836E-03     53.8625E-03    -26.7997E-03    -27.0628E-03    -27.0552E-03     53.8549E-03    -26.7997E-03     1.56267E-03     54.3222E-03     196.377E+06    -66.4904E+06    -67.9029E+06    -263.567E+06    -67.8178E+06    -263.560E+06    -66.5829E+06    -149.511E+03
              26     54.7296E-03    -34.5508E-09     54.7296E-03     53.9225E-03    -26.8718E-03    -27.0507E-03    -27.0429E-03     53.9147E-03    -26.8718E-03     1.59284E-03     54.4042E-03     196.351E+06    -67.7480E+06    -67.8716E+06    -264.161E+06    -67.7607E+06    -264.148E+06    -67.8716E+06    -1.56293E+06
              27     53.6752E-03     118.202E-09     53.6752E-03     53.8764E-03    -26.8257E-03    -27.0507E-03    -27.0422E-03     53.8679E-03    -26.8257E-03     1.65398E-03     54.3569E-03     196.446E+06    -66.2333E+06    -66.7060E+06    -262.915E+06    -66.2423E+06    -262.906E+06    -66.7060E+06    -1.19622E+06
              28     52.6208E-03     217.171E-09     52.6208E-03     53.6785E-03    -26.7016E-03    -26.9769E-03    -26.9680E-03     53.6696E-03    -26.7016E-03     1.69163E-03     54.1652E-03     196.285E+06    -67.1277E+06    -67.8070E+06    -263.751E+06    -67.3820E+06    -263.735E+06    -67.5692E+06     928.538E+03
              29     51.5675E-03    -32.9354E-09     51.5675E-03     53.6384E-03    -26.7126E-03    -26.9258E-03    -26.9186E-03     53.6311E-03    -26.7126E-03     1.52243E-03     54.1677E-03     195.618E+06    -68.6695E+06    -69.3718E+06    -264.638E+06    -69.3949E+06    -264.614E+06    -68.6695E+06     380.888E+03
              30     50.5136E-03     262.895E-09     50.5136E-03     53.8216E-03    -26.7683E-03    -27.0533E-03    -27.0468E-03     53.8151E-03    -26.7683E-03     1.44567E-03     54.3318E-03     195.451E+06    -67.6636E+06    -68.2131E+06    -263.388E+06    -68.1372E+06    -263.379E+06    -67.7486E+06    -1.24227E+06
              31     49.4588E-03     58.6435E-09     49.4588E-03     53.8251E-03    -26.7802E-03    -27.0449E-03    -27.0362E-03     53.8164E-03    -26.7802E-03     1.66541E-03     54.2903E-03     195.821E+06    -67.4466E+06    -67.7215E+06    -263.405E+06    -67.6410E+06    -263.401E+06    -67.5316E+06     151.750E+03
              32     48.4051E-03     123.649E-09     48.4051E-03     53.7853E-03    -26.7936E-03    -26.9917E-03    -26.9823E-03     53.7759E-03    -26.7936E-03     1.73870E-03     54.2484E-03     196.030E+06    -67.0015E+06    -67.6041E+06    -263.332E+06    -67.1971E+06    -263.326E+06    -67.4142E+06     26.3871E+03
              33     47.3509E-03     62.3815E-09     47.3509E-03     53.7857E-03    -26.8239E-03    -26.9618E-03    -26.9537E-03     53.7775E-03    -26.8239E-03     1.62268E-03     54.2743E-03     195.769E+06    -66.5405E+06    -67.1673E+06    -262.622E+06    -66.5435E+06    -262.619E+06    -67.1673E+06    -341.590E+03
              34     46.2971E-03    -274.387E-12     46.2971E-03     53.7630E-03    -26.7776E-03    -26.9853E-03    -26.9774E-03     53.7551E-03    -26.7776E-03     1.59315E-03     54.2734E-03     194.440E+06    -68.3765E+06    -69.1030E+06    -263.179E+06    -68.8920E+06    -263.176E+06    -68.5907E+06    -350.253E+03
              35     45.2426E-03     334.661E-09     45.2426E-03     53.6684E-03    -26.6786E-03    -26.9898E-03    -26.9829E-03     53.6615E-03    -26.6786E-03     1.48169E-03     54.1678E-03     194.761E+06    -68.6992E+06    -69.2384E+06    -263.729E+06    -69.2507E+06    -263.717E+06    -68.6992E+06    -1.48890E+06
              36     44.1897E-03    -65.7598E-09     44.1897E-03     53.7033E-03    -26.7227E-03    -26.9806E-03    -26.9747E-03     53.6973E-03    -26.7227E-03     1.38376E-03     54.1899E-03     195.870E+06    -66.4609E+06    -66.9486E+06    -262.574E+06    -66.4985E+06    -262.563E+06    -66.9218E+06    -1.32337E+06
              37     43.1349E-03     285.686E-09     43.1349E-03     53.9038E-03    -26.8803E-03    -27.0235E-03    -27.0165E-03     53.8968E-03    -26.8803E-03     1.50699E-03     54.3963E-03     195.962E+06    -66.1310E+06    -67.2513E+06    -262.651E+06    -66.1365E+06    -262.645E+06    -67.2513E+06     287.102E+03
              38     42.0807E-03    -251.337E-09     42.0807E-03     53.8723E-03    -26.8481E-03    -27.0241E-03    -27.0162E-03     53.8643E-03    -26.8481E-03     1.60495E-03     54.3744E-03     195.456E+06    -67.5530E+06    -69.0109E+06    -263.734E+06    -68.3568E+06    -263.729E+06    -68.2124E+06     959.620E+03
              39     41.0264E-03     550.068E-09     41.0264E-03     53.7336E-03    -26.6909E-03    -27.0426E-03    -27.0343E-03     53.7253E-03    -26.6909E-03     1.63857E-03     54.2033E-03     195.601E+06    -67.7625E+06    -68.6036E+06    -263.781E+06    -68.6136E+06    -263.771E+06    -67.7625E+06     1.25410E+06
              40     39.9729E-03    -165.059E-09     39.9729E-03     53.7279E-03    -26.7377E-03    -26.9902E-03    -26.9827E-03     53.7204E-03    -26.7377E-03     1.54951E-03     54.2085E-03     195.301E+06    -67.2668E+06    -67.9600E+06    -262.913E+06    -67.9734E+06    -262.899E+06    -67.2668E+06     286.921E+03
              41     38.9188E-03     270.351E-09     38.9188E-03     53.8682E-03    -26.8286E-03    -27.0397E-03    -27.0334E-03     53.8619E-03    -26.8286E-03     1.42929E-03     54.4095E-03     193.451E+06    -67.4876E+06    -69.3639E+06    -261.869E+06    -68.1444E+06    -261.863E+06    -68.7132E+06    -1.06381E+06
              42     37.8645E-03     19.5481E-09     37.8645E-03     53.8213E-03    -26.8190E-03    -27.0023E-03    -26.9956E-03     53.8146E-03    -26.8190E-03     1.47346E-03     54.3410E-03     194.066E+06    -69.0572E+06    -70.6198E+06    -263.899E+06    -69.4233E+06    -263.870E+06    -70.2828E+06     1.21912E+06
              43     36.8101E-03     26.7405E-09     36.8101E-03     53.6475E-03    -26.7707E-03    -26.8767E-03    -26.8684E-03     53.6392E-03    -26.7707E-03     1.62726E-03     54.1315E-03     195.393E+06    -68.4690E+06    -69.0102E+06    -264.132E+06    -69.0383E+06    -264.104E+06    -68.4690E+06     1.91287E+06
              44     35.7567E-03     128.114E-09     35.7567E-03     53.7622E-03    -26.7836E-03    -26.9785E-03    -26.9698E-03     53.7534E-03    -26.7836E-03     1.67729E-03     54.2577E-03     195.207E+06    -66.3153E+06    -66.9946E+06    -261.861E+06    -66.5240E+06    -261.856E+06    -66.7904E+06    -317.036E+03
              45     34.7022E-03     79.3515E-09     34.7022E-03     53.8381E-03    -26.7577E-03    -27.0804E-03    -27.0733E-03     53.8310E-03    -26.7577E-03     1.52242E-03     54.3429E-03     194.914E+06    -67.1473E+06    -68.6836E+06    -262.824E+06    -68.2128E+06    -262.820E+06    -67.6224E+06    -353.438E+03
              46     33.6483E-03     339.301E-09     33.6483E-03     53.7039E-03    -26.7201E-03    -26.9838E-03    -26.9760E-03     53.6961E-03    -26.7201E-03     1.58188E-03     54.2061E-03     195.083E+06    -68.2148E+06    -69.7038E+06    -264.037E+06    -69.2775E+06    -264.036E+06    -68.6426E+06    -51.8759E+03
              47     32.5945E-03    -247.125E-09     32.5945E-03     53.6919E-03    -26.7880E-03    -26.9039E-03    -26.8953E-03     53.6833E-03    -26.7880E-03     1.66568E-03     54.1794E-03     196.177E+06    -68.2904E+06    -69.3138E+06    -264.977E+06    -68.2915E+06    -264.976E+06    -69.3138E+06    -167.639E+03
              48     31.5400E-03     354.481E-09     31.5400E-03     53.7140E-03    -26.7670E-03    -26.9470E-03    -26.9380E-03     53.7050E-03    -26.7670E-03     1.69992E-03     54.1801E-03     197.557E+06    -67.7370E+06    -68.9199E+06    -265.882E+06    -68.3253E+06    -265.881E+06    -68.3327E+06    -178.330E+03
              49     30.4865E-03    -124.970E-09     30.4865E-03     53.7081E-03    -26.7558E-03    -26.9523E-03    -26.9443E-03     53.7001E-03    -26.7558E-03     1.59407E-03     54.1648E-03     198.473E+06    -68.0660E+06    -69.6385E+06    -267.321E+06    -68.6543E+06    -267.320E+06    -69.0513E+06    -448.803E+03
              50     29.4327E-03     261.209E-09     29.4327E-03     53.8549E-03    -26.7991E-03    -27.0558E-03    -27.0483E-03     53.8474E-03    -26.7991E-03     1.54830E-03     54.3010E-03     199.134E+06    -67.2941E+06    -69.4199E+06    -267.483E+06    -68.4355E+06    -267.482E+06    -68.2794E+06     126.762E+03
              51     28.3777E-03     93.5397E-09     28.3777E-03     53.9098E-03    -26.7964E-03    -27.1134E-03    -27.1040E-03     53.9005E-03    -26.7964E-03     1.74013E-03     54.3502E-03     198.692E+06    -67.5551E+06    -69.5090E+06    -267.217E+06    -68.7003E+06    -267.212E+06    -68.3685E+06     891.759E+03
              52     27.3242E-03     158.365E-09     27.3242E-03     53.7659E-03    -26.8097E-03    -26.9562E-03    -26.9475E-03     53.7571E-03    -26.8097E-03     1.67879E-03     54.2039E-03     197.758E+06    -67.8249E+06    -68.6499E+06    -265.993E+06    -67.8288E+06    -265.989E+06    -68.6499E+06     661.807E+03
              53     26.2700E-03    -149.578E-09     26.2700E-03     53.7233E-03    -26.7814E-03    -26.9419E-03    -26.9337E-03     53.7151E-03    -26.7814E-03     1.63047E-03     54.1999E-03     195.736E+06    -69.1204E+06    -69.3184E+06    -264.955E+06    -69.3111E+06    -264.951E+06    -69.1320E+06     685.209E+03
              54     25.2161E-03     442.942E-09     25.2161E-03     53.8538E-03    -26.7861E-03    -27.0678E-03    -27.0595E-03     53.8456E-03    -26.7861E-03     1.63415E-03     54.3341E-03     195.494E+06    -69.2693E+06    -69.9217E+06    -265.089E+06    -69.9278E+06    -265.083E+06    -69.2693E+06     238.369E+03
              55     24.1620E-03    -191.474E-09     24.1620E-03     53.8751E-03    -26.8460E-03    -27.0292E-03    -27.0226E-03     53.8685E-03    -26.8460E-03     1.45733E-03     54.3013E-03     196.767E+06    -68.9823E+06    -70.4710E+06    -266.489E+06    -69.4506E+06    -266.487E+06    -70.0049E+06    -634.355E+03
              56     23.1079E-03     281.040E-09     23.1079E-03     53.8384E-03    -26.8051E-03    -27.0332E-03    -27.0264E-03     53.8315E-03    -26.8051E-03     1.47980E-03     54.2295E-03     197.466E+06    -68.9785E+06    -70.9893E+06    -267.442E+06    -69.9681E+06    -267.440E+06    -70.0011E+06     71.6596E+03
              57     22.0535E-03     64.3744E-09     22.0535E-03     53.7572E-03    -26.7906E-03    -26.9665E-03    -26.9583E-03     53.7490E-03    -26.7906E-03     1.62595E-03     54.1109E-03     198.178E+06    -67.3930E+06    -69.4234E+06    -266.578E+06    -68.3846E+06    -266.575E+06    -68.4352E+06     791.385E+03
              58     20.9998E-03    -79.7832E-09     20.9998E-03     53.6428E-03    -26.7530E-03    -26.8898E-03    -26.8810E-03     53.6340E-03    -26.7530E-03     1.67624E-03     53.9770E-03     197.371E+06    -68.7254E+06    -69.9700E+06    -266.714E+06    -68.9321E+06    -266.710E+06    -69.7676E+06     918.169E+03
              59     19.9454E-03     337.118E-09     19.9454E-03     53.5373E-03    -26.6005E-03    -26.9367E-03    -26.9278E-03     53.5284E-03    -26.6005E-03     1.69284E-03     53.8739E-03     195.762E+06    -68.9998E+06    -69.9172E+06    -265.218E+06    -69.9225E+06    -265.213E+06    -68.9998E+06     1.00234E+06
              60     18.8923E-03     58.4600E-09     18.8923E-03     53.2122E-03    -26.4694E-03    -26.7428E-03    -26.7363E-03     53.2057E-03    -26.4694E-03     1.42683E-03     53.5417E-03     193.949E+06    -68.8311E+06    -69.7361E+06    -263.230E+06    -69.5512E+06    -263.225E+06    -69.0211E+06     163.535E+03
              61     17.8392E-03     76.5722E-09     17.8392E-03     52.7372E-03    -26.2651E-03    -26.4721E-03    -26.4674E-03     52.7325E-03    -26.2651E-03     1.21161E-03     53.0355E-03     192.537E+06    -69.2372E+06    -69.4364E+06    -261.874E+06    -69.2498E+06    -261.870E+06    -69.4272E+06    -6.56878E+03
              62     16.7861E-03     184.650E-09     16.7861E-03     51.8287E-03    -25.8199E-03    -26.0087E-03    -26.0045E-03     51.8245E-03    -25.8199E-03     1.14314E-03     52.0832E-03     191.851E+06    -67.4578E+06    -67.9737E+06    -259.565E+06    -67.4696E+06    -259.563E+06    -67.9646E+06     108.596E+03
              63     15.7349E-03    -87.8744E-09     15.7349E-03     50.1076E-03    -24.9592E-03    -25.1484E-03    -25.1461E-03     50.1053E-03    -24.9592E-03     810.776E-06     50.2845E-03     191.783E+06    -65.0490E+06    -65.6851E+06    -257.149E+06    -65.0576E+06    -257.140E+06    -65.6851E+06     558.011E+03
              64     14.6859E-03     352.879E-09     14.6859E-03     47.5733E-03    -23.6589E-03    -23.9143E-03    -23.9136E-03     47.5725E-03    -23.6589E-03     440.141E-06     47.6618E-03     191.855E+06    -61.4621E+06    -61.9275E+06    -253.550E+06    -61.8073E+06    -253.541E+06    -61.5913E+06     1.20649E+06
              65     13.6398E-03    -111.294E-09     13.6398E-03     44.0004E-03    -21.9115E-03    -22.0889E-03    -22.0883E-03     43.9999E-03    -21.9115E-03    -46.2994E-06     44.0514E-03     192.454E+06    -54.7632E+06    -55.7546E+06    -247.711E+06    -55.1026E+06    -247.708E+06    -55.4184E+06     777.193E+03
              66     12.5984E-03     219.256E-09     12.5984E-03     39.3230E-03    -19.5801E-03    -19.7429E-03    -19.7410E-03     39.3211E-03    -19.5801E-03    -627.473E-06     39.4104E-03     194.827E+06    -46.2750E+06    -47.3720E+06    -241.648E+06    -46.7219E+06    -241.643E+06    -46.9302E+06     991.610E+03
              67     11.5623E-03    -5.24745E-09     11.5623E-03     33.8950E-03    -16.8705E-03    -17.0245E-03    -17.0194E-03     33.8899E-03    -16.8705E-03    -993.855E-06     34.1302E-03     197.085E+06    -39.5438E+06    -40.2252E+06    -236.968E+06    -39.9888E+06    -236.965E+06    -39.7834E+06     528.010E+03
              68     10.5320E-03     95.9465E-09     10.5320E-03     28.5571E-03    -14.2162E-03    -14.3409E-03    -14.3339E-03     28.5501E-03    -14.2162E-03    -1.09282E-03     29.0754E-03     197.357E+06    -37.1585E+06    -37.9816E+06    -234.925E+06    -37.7437E+06    -234.924E+06    -37.3981E+06    -438.957E+03
              69     9.50717E-03     58.4535E-09     9.50717E-03     24.5627E-03    -12.2133E-03    -12.3494E-03    -12.3440E-03     24.5573E-03    -12.2133E-03    -882.069E-06     25.4998E-03     196.083E+06    -37.3230E+06    -38.2052E+06    -233.845E+06    -37.9082E+06    -233.844E+06    -37.6217E+06    -358.805E+03
              70     8.48517E-03     55.6645E-09     8.48517E-03     22.9324E-03    -11.4167E-03    -11.5157E-03    -11.5137E-03     22.9304E-03    -11.4167E-03    -435.915E-06     24.3523E-03     194.198E+06    -40.0699E+06    -41.0676E+06    -234.764E+06    -40.7740E+06    -234.759E+06    -40.3686E+06    -657.691E+03
              71     7.46358E-03     32.8094E-09     7.46358E-03     24.5250E-03    -12.2205E-03    -12.3045E-03    -12.3034E-03     24.5238E-03    -12.2205E-03     218.861E-06     26.3830E-03     193.956E+06    -43.3001E+06    -44.0764E+06    -237.642E+06    -44.0837E+06    -237.635E+06    -43.3001E+06    -1.15655E+06
              72     6.43865E-03     60.5472E-09     6.43865E-03     30.2262E-03    -15.0728E-03    -15.1534E-03    -15.1109E-03     30.2189E-03    -15.1080E-03     1.09594E-03     32.3999E-03     195.537E+06    -44.3755E+06    -44.5376E+06    -239.993E+06    -44.4698E+06    -239.976E+06    -44.4603E+06    -1.66028E+06
              73     5.40533E-03    -133.787E-09     5.40533E-03     40.4176E-03    -20.1466E-03    -20.2709E-03    -20.2150E-03     40.3969E-03    -20.1819E-03     2.22274E-03     42.8209E-03     196.474E+06    -45.9606E+06    -46.9392E+06    -242.921E+06    -45.9754E+06    -242.906E+06    -46.9392E+06    -1.21300E+06
              74     4.35838E-03     281.389E-09     4.35838E-03     54.2893E-03    -27.1001E-03    -27.1893E-03    -27.1604E-03     54.2606E-03    -27.1002E-03     3.04962E-03     56.6561E-03     198.215E+06    -46.3814E+06    -47.5148E+06    -245.160E+06    -46.6220E+06    -245.159E+06    -47.2752E+06     318.805E+03
              75     3.29665E-03    -288.630E-09     3.29665E-03     71.4198E-03    -35.6410E-03    -35.7788E-03    -35.7499E-03     71.3911E-03    -35.6412E-03     3.50626E-03     73.5424E-03     200.324E+06    -45.1039E+06    -46.3066E+06    -246.025E+06    -45.3487E+06    -246.020E+06    -46.0670E+06    -321.818E+03
              76     2.21410E-03     539.199E-09     2.21410E-03     89.7846E-03    -44.8101E-03    -44.9745E-03    -44.9484E-03     89.7586E-03    -44.8101E-03     3.72759E-03     91.6671E-03     201.085E+06    -43.9301E+06    -45.2953E+06    -245.693E+06    -44.3460E+06    -245.679E+06    -44.8932E+06     337.832E+03
              77     1.10809E-03    -495.872E-09     1.10809E-03     101.588E-03    -50.6633E-03    -50.9248E-03    -50.9130E-03     101.576E-03    -50.6633E-03     1.55836E-03     103.260E-03     201.691E+06    -42.2589E+06    -43.5175E+06    -244.576E+06    -43.5274E+06    -244.566E+06    -42.2589E+06     1.14635E+06
              78     949.876E-06     949.876E-06     48.5723E-18     104.312E-03    -51.9897E-03    -52.3225E-03    -52.2234E-03     104.311E-03    -52.0878E-03     214.033E-06     105.848E-03     203.379E+06    -41.7587E+06    -43.4583E+06    -245.982E+06    -43.4600E+06    -245.981E+06    -41.7587E+06    -212.673E+03
              79     1.89719E-03     1.89719E-03     48.5723E-18     102.563E-03    -50.6989E-03    -51.8645E-03    -50.6894E-03     102.554E-03    -51.8645E-03     2.11697E-03     103.923E-03     205.513E+06    -42.2694E+06    -43.8500E+06    -248.568E+06    -43.1141E+06    -248.566E+06    -43.0068E+06    -274.730E+03
              80     2.84779E-03     2.84779E-03     48.5723E-18     98.7034E-03    -47.7023E-03    -51.0011E-03    -47.6697E-03     98.6708E-03    -51.0011E-03     4.22465E-03     99.8771E-03     205.240E+06    -42.5925E+06    -45.4932E+06    -249.264E+06    -42.5927E+06    -249.263E+06    -45.4932E+06    -25.6424E+03
              81     3.80270E-03     3.80270E-03     48.5723E-18     93.9367E-03    -44.2152E-03    -49.7215E-03    -44.1623E-03     93.8838E-03    -49.7215E-03     5.39693E-03     94.8955E-03     205.484E+06    -43.5349E+06    -50.6640E+06    -252.477E+06    -43.5406E+06    -252.471E+06    -50.6640E+06    -889.892E+03
              82     4.76130E-03     4.76130E-03     48.5723E-18     88.8293E-03    -40.6305E-03    -48.1988E-03    -40.5575E-03     88.7563E-03    -48.1988E-03     6.10275E-03     89.5915E-03     205.889E+06    -43.5879E+06    -60.5781E+06    -257.352E+06    -43.6196E+06    -257.321E+06    -60.5781E+06    -2.44759E+06
              83     5.72280E-03     5.72280E-03     48.5723E-18     83.3194E-03    -36.8151E-03    -46.5043E-03    -36.7290E-03     83.2333E-03    -46.5043E-03     6.42939E-03     83.9979E-03     204.688E+06    -41.5738E+06    -76.4362E+06    -261.228E+06    -41.7051E+06    -261.097E+06    -76.4362E+06    -5.10469E+06
              84     6.68983E-03     6.68983E-03     48.5723E-18     77.5391E-03    -32.8756E-03    -44.6635E-03    -32.7888E-03     77.4523E-03    -44.6635E-03     6.18539E-03     78.3562E-03     191.799E+06    -37.2969E+06    -95.6350E+06    -250.899E+06    -37.5552E+06    -250.641E+06    -95.6350E+06    -7.37389E+06
              85     7.65957E-03     7.65957E-03     48.5723E-18     71.8888E-03    -29.1529E-03    -42.7359E-03    -29.0651E-03     71.8010E-03    -42.7359E-03     5.95273E-03     73.1001E-03     167.019E+06    -32.3614E+06    -115.190E+06    -223.598E+06    -32.7413E+06    -223.218E+06    -115.190E+06    -8.44206E+06
              86     8.63361E-03     8.63361E-03     48.5723E-18     67.9095E-03    -27.0223E-03    -40.8872E-03    -26.9384E-03     67.8255E-03    -40.8872E-03     5.64414E-03     69.6605E-03     143.319E+06    -26.5685E+06    -129.114E+06    -188.904E+06    -27.1912E+06    -188.281E+06    -129.114E+06    -9.85814E+06
              87     9.61040E-03     9.61040E-03     48.5723E-18     70.1621E-03    -30.7099E-03    -39.4521E-03    -30.3073E-03     69.7594E-03    -39.4521E-03     11.5918E-03     73.0090E-03     127.211E+06    -19.0061E+06    -132.610E+06    -155.780E+06    -20.0550E+06    -149.509E+06    -137.832E+06    -11.5078E+06
              88     10.5688E-03     10.5688E-03     48.5723E-18     72.8859E-03    -34.2850E-03    -38.6010E-03    -33.6023E-03     72.2032E-03    -38.6010E-03     17.0477E-03     77.0510E-03     119.470E+06    -8.86393E+06    -107.857E+06    -139.282E+06    -10.0934E+06    -106.628E+06    -139.282E+06    -10.9439E+06
              89     11.5331E-03     11.5331E-03     48.5723E-18     66.2339E-03    -28.3896E-03    -37.8443E-03    -27.9211E-03     65.7654E-03    -37.8443E-03     13.1702E-03     71.2441E-03     116.364E+06    -746.716E+03    -51.5157E+06    -130.025E+06    -3.71629E+06    -48.5461E+06    -130.025E+06    -9.11627E+06
              90     12.5232E-03     12.5232E-03     48.5723E-18     59.5906E-03    -22.8062E-03    -36.7844E-03    -22.4762E-03     59.2606E-03    -36.7844E-03     10.3901E-03     65.9439E-03     134.678E+06     36.4357E+06    -9.25765E+06    -113.968E+06    -1.47993E+06     28.6579E+06    -113.968E+06    -4.84617E+06
              91     13.4948E-03     13.4948E-03     48.5723E-18     59.0076E-03    -23.2160E-03    -35.7916E-03    -22.7685E-03     58.5601E-03    -35.7916E-03     12.0519E-03     67.2584E-03     164.386E+06     105.350E+06    -3.45892E+06    -79.8515E+06    -3.44977E+06     105.341E+06    -79.8515E+06    -248.065E+03
              92     14.4711E-03     14.4711E-03     48.5723E-18     58.9627E-03    -23.8043E-03    -35.1584E-03    -22.9228E-03     58.0812E-03    -35.1584E-03     16.6245E-03     69.0895E-03     174.426E+06     158.082E+06     5.41919E+06    -31.6339E+06    -7.64392E+06     158.081E+06    -18.5695E+06     417.675E+03
              93     15.4457E-03     15.4457E-03     48.5723E-18     60.9842E-03    -26.2260E-03    -34.7582E-03    -24.0895E-03     58.8477E-03    -34.7582E-03     26.4459E-03     74.7200E-03     174.422E+06     185.554E+06     48.4658E+06    -7.89337E+06    -7.88738E+06     185.548E+06     48.4658E+06     897.055E+03
              94     16.4108E-03     16.4108E-03     48.5723E-18     65.4428E-03    -30.8855E-03    -34.5573E-03    -26.4397E-03     60.9970E-03    -34.5573E-03     40.0026E-03     82.1364E-03     181.416E+06     206.144E+06     114.391E+06    -768.638E+03    -752.926E+03     206.128E+06     114.391E+06     1.78986E+06
              95     17.4611E-03     17.4286E-03     1.06574E-03     61.9182E-03    -28.6644E-03    -33.2538E-03    -24.2244E-03     57.4782E-03    -33.2538E-03     38.8747E-03     86.5536E-03     187.642E+06     212.076E+06     143.631E+06    -179.867E+03     19.9067E+03     211.876E+06     143.631E+06     5.51364E+06
              96     17.5944E-03     17.4672E-03     2.11172E-03     57.0037E-03    -26.0517E-03    -30.9520E-03    -24.1511E-03     55.1031E-03    -30.9520E-03     23.4079E-03     85.4601E-03     189.617E+06     207.010E+06     138.999E+06    -7.22777E+06    -7.00973E+06     206.792E+06     138.999E+06     6.23241E+06
              97     17.7791E-03     17.4936E-03     3.17340E-03     60.8909E-03    -28.1368E-03    -32.7541E-03    -31.2389E-03     60.3753E-03    -29.1364E-03     13.1665E-03     82.1445E-03     189.482E+06     206.915E+06     142.989E+06    -6.24602E+06    -6.20885E+06     206.878E+06     142.989E+06     2.71613E+06
              98     18.0198E-03     17.5132E-03     4.24254E-03     64.6771E-03    -27.8448E-03    -36.8323E-03    -36.6270E-03     64.4717E-03    -27.8448E-03     9.03414E-03     83.0308E-03     188.285E+06     206.666E+06     146.586E+06    -4.32634E+06    -4.29705E+06     206.636E+06     146.586E+06     2.43741E+06
              99     18.3148E-03     17.5266E-03     5.31537E-03     66.2838E-03    -27.0148E-03    -39.2691E-03    -39.0467E-03     66.0615E-03    -27.0148E-03     9.57095E-03     85.7689E-03     189.025E+06     208.946E+06     149.713E+06    -2.60187E+06    -2.57987E+06     208.924E+06     149.713E+06     1.89065E+06
             100     18.6614E-03     17.5332E-03     6.39032E-03     66.7250E-03    -26.5434E-03    -40.1816E-03    -39.9600E-03     66.5034E-03    -26.5434E-03     9.60284E-03     87.0194E-03     188.836E+06     207.057E+06     147.060E+06    -4.48585E+06    -4.48358E+06     207.054E+06     147.060E+06     666.166E+03
             101     19.0574E-03     17.5367E-03     7.45985E-03     65.2397E-03    -26.3746E-03    -38.8651E-03    -38.6579E-03     65.0325E-03    -26.3746E-03     9.17780E-03     86.1116E-03     187.279E+06     205.419E+06     144.257E+06    -4.79409E+06    -4.79326E+06     205.418E+06     144.257E+06     411.838E+03
             102     19.5013E-03     17.5365E-03     8.53063E-03     63.2008E-03    -26.3868E-03    -36.8141E-03    -36.5466E-03     62.9334E-03    -26.3868E-03     10.3282E-03     84.3700E-03     186.171E+06     205.446E+06     143.096E+06    -3.89486E+06    -3.89171E+06     205.443E+06     143.096E+06     720.445E+03
             103     19.9893E-03     17.5362E-03     9.59455E-03     61.0635E-03    -26.4552E-03    -34.6083E-03    -34.3433E-03     60.7985E-03    -26.4552E-03     10.0558E-03     82.4301E-03     185.591E+06     204.514E+06     140.053E+06    -4.70866E+06    -4.70494E+06     204.510E+06     140.053E+06     847.119E+03
             104     20.5193E-03     17.5357E-03     10.6556E-03     59.1224E-03    -26.5283E-03    -32.5941E-03    -32.3986E-03     58.9269E-03    -26.5283E-03     8.35965E-03     80.4492E-03     184.763E+06     204.691E+06     138.787E+06    -3.98655E+06    -3.98516E+06     204.690E+06     138.787E+06     60.8042E+03
             105     21.0892E-03     17.5353E-03     11.7163E-03     57.2919E-03    -26.5938E-03    -30.6981E-03    -30.5902E-03     57.1840E-03    -26.5938E-03     6.12548E-03     78.5269E-03     184.485E+06     204.335E+06     137.257E+06    -4.30321E+06    -4.30198E+06     204.333E+06     137.257E+06    -505.810E+03
             106     21.6939E-03     17.5352E-03     12.7728E-03     55.5210E-03    -26.6527E-03    -28.8683E-03    -28.8143E-03     55.4669E-03    -26.6527E-03     4.11372E-03     76.6463E-03     184.200E+06     204.226E+06     136.158E+06     -4.3199E+06     -4.3191E+06     204.226E+06     136.158E+06    -374.012E+03
             107     22.3327E-03     17.5348E-03     13.8303E-03     54.0113E-03    -26.5955E-03    -27.4158E-03    -27.2964E-03     53.9974E-03    -26.7010E-03     1.90702E-03     74.6565E-03     183.884E+06     204.121E+06     135.045E+06    -4.29696E+06    -4.29677E+06     204.121E+06     135.045E+06    -200.586E+03
             108     22.9998E-03     17.5349E-03     14.8835E-03     52.7716E-03    -26.0375E-03    -26.7341E-03    -26.0337E-03     52.7677E-03    -26.7341E-03    -166.928E-06     73.0409E-03     183.640E+06     204.182E+06     133.776E+06    -4.24239E+06    -4.24171E+06     204.181E+06     133.776E+06    -344.324E+03
             109     23.6958E-03     17.5348E-03     15.9380E-03     52.1870E-03    -25.4346E-03    -26.7525E-03    -25.4281E-03     52.1805E-03    -26.7525E-03    -1.41037E-03     72.1235E-03     183.120E+06     204.043E+06     133.666E+06    -3.82496E+06    -3.82408E+06     204.042E+06     133.666E+06    -418.959E+03
             110     24.4175E-03     17.5347E-03     16.9926E-03     51.9571E-03    -25.1908E-03    -26.7663E-03    -25.1807E-03     51.9469E-03    -26.7663E-03    -1.76049E-03     71.7525E-03     183.298E+06     204.514E+06     134.602E+06    -3.45227E+06    -3.45193E+06     204.513E+06     134.602E+06    -84.0923E+03
             111     25.1622E-03     17.5348E-03     18.0462E-03     51.7747E-03    -25.0002E-03    -26.7745E-03    -24.9877E-03     51.7622E-03    -26.7745E-03    -1.96246E-03     71.4638E-03     183.764E+06     204.683E+06     134.785E+06    -3.77351E+06    -3.77214E+06     204.681E+06     134.785E+06     454.190E+03
             112     25.9291E-03     17.5347E-03     19.1012E-03     51.6891E-03    -24.9108E-03    -26.7783E-03    -24.8949E-03     51.6732E-03    -26.7783E-03    -2.19319E-03     71.2980E-03     184.094E+06     204.870E+06     134.289E+06    -4.06988E+06    -4.06827E+06     204.868E+06     134.289E+06     547.697E+03
             113     26.7141E-03     17.5346E-03     20.1539E-03     51.7200E-03    -24.9400E-03    -26.7800E-03    -24.9164E-03     51.6964E-03    -26.7800E-03    -2.67497E-03     71.2554E-03     184.908E+06     205.905E+06     134.249E+06    -4.10762E+06    -4.10732E+06     205.904E+06     134.249E+06     169.435E+03
             114     27.5187E-03     17.5346E-03     21.2089E-03     51.6366E-03    -24.8555E-03    -26.7811E-03    -24.8314E-03     51.6125E-03    -26.7811E-03    -2.70370E-03     71.1664E-03     185.255E+06     206.831E+06     134.504E+06    -3.67643E+06    -3.67620E+06     206.831E+06     134.504E+06     146.935E+03
             115     28.3389E-03     17.5348E-03     22.2627E-03     51.5321E-03    -24.7489E-03    -26.7832E-03    -24.7297E-03     51.5129E-03    -26.7832E-03    -2.42046E-03     71.0930E-03     185.666E+06     207.148E+06     134.277E+06    -3.89911E+06    -3.89888E+06     207.148E+06     134.277E+06     147.901E+03
             116     29.1741E-03     17.5344E-03     23.3168E-03     51.5571E-03    -24.7713E-03    -26.7858E-03    -24.7504E-03     51.5362E-03    -26.7858E-03    -2.52108E-03     71.0625E-03     185.534E+06     207.306E+06     134.241E+06    -3.63597E+06    -3.63525E+06     207.305E+06     134.241E+06     265.572E+03
             117     30.0231E-03     17.5347E-03     24.3705E-03     51.5728E-03    -24.7894E-03    -26.7834E-03    -24.7664E-03     51.5499E-03    -26.7834E-03    -2.64702E-03     71.0921E-03     185.846E+06     207.539E+06     134.074E+06    -3.81006E+06    -3.80909E+06     207.538E+06     134.074E+06     107.406E+03
             118     30.8847E-03     17.5346E-03     25.4244E-03     51.6693E-03    -24.8918E-03    -26.7775E-03    -24.8675E-03     51.6450E-03    -26.7775E-03    -2.72810E-03     71.2045E-03     186.513E+06     208.227E+06     134.492E+06    -3.88093E+06    -3.88038E+06     208.227E+06     134.492E+06     9.46970E+03
             119     31.7585E-03     17.5348E-03     26.4789E-03     51.6278E-03    -24.8541E-03    -26.7738E-03    -24.8295E-03     51.6033E-03    -26.7738E-03    -2.73724E-03     71.1567E-03     186.868E+06     208.732E+06     134.546E+06    -3.83729E+06    -3.83662E+06     208.731E+06     134.546E+06     377.459E+03
             120     32.6423E-03     17.5347E-03     27.5328E-03     51.5462E-03    -24.7708E-03    -26.7754E-03    -24.7474E-03     51.5227E-03    -26.7754E-03    -2.67410E-03     71.0931E-03     187.588E+06     209.398E+06     134.860E+06    -4.00238E+06    -4.00194E+06     209.398E+06     134.860E+06     124.441E+03
             121     33.5361E-03     17.5348E-03     28.5868E-03     51.5091E-03    -24.7342E-03    -26.7749E-03    -24.7114E-03     51.4863E-03    -26.7749E-03    -2.63449E-03     71.0286E-03     187.740E+06     210.157E+06     135.383E+06    -3.44807E+06    -3.44698E+06     210.156E+06     135.383E+06     254.588E+03
             122     34.4392E-03     17.5350E-03     29.6409E-03     51.4846E-03    -24.7133E-03    -26.7714E-03    -24.6923E-03     51.4637E-03    -26.7714E-03    -2.52532E-03     70.9687E-03     187.904E+06     209.526E+06     134.508E+06    -4.29875E+06    -4.29706E+06     209.524E+06     134.508E+06     65.8517E+03
             123     35.3501E-03     17.5347E-03     30.6947E-03     51.6751E-03    -24.9048E-03    -26.7704E-03    -24.8817E-03     51.6521E-03    -26.7704E-03    -2.65069E-03     71.1793E-03     188.180E+06     209.831E+06     134.972E+06    -4.25802E+06    -4.25736E+06     209.831E+06     134.972E+06    -286.126E+03
             124     36.2691E-03     17.5349E-03     31.7486E-03     51.7088E-03    -24.9384E-03    -26.7704E-03    -24.9126E-03     51.6830E-03    -26.7704E-03    -2.80910E-03     71.2452E-03     188.217E+06     210.382E+06     135.433E+06    -3.76333E+06    -3.76257E+06     210.382E+06     135.433E+06     263.858E+03
             125     37.1960E-03     17.5348E-03     32.8036E-03     51.4960E-03    -24.7218E-03    -26.7743E-03    -24.6989E-03     51.4732E-03    -26.7743E-03    -2.63555E-03     71.0776E-03     188.228E+06     210.301E+06     135.069E+06    -3.90745E+06    -3.90662E+06     210.300E+06     135.069E+06     193.831E+03
             126     38.1279E-03     17.5349E-03     33.8565E-03     51.5151E-03    -24.7407E-03    -26.7744E-03    -24.7180E-03     51.4924E-03    -26.7744E-03    -2.62218E-03     71.0751E-03     188.219E+06     210.495E+06     135.293E+06    -3.69810E+06    -3.69771E+06     210.495E+06     135.293E+06    -271.617E+03
             127     39.0672E-03     17.5348E-03     34.9110E-03     51.6105E-03    -24.8394E-03    -26.7711E-03    -24.8183E-03     51.5894E-03    -26.7711E-03    -2.53196E-03     71.1463E-03     188.144E+06     210.396E+06     135.262E+06    -3.70484E+06    -3.70452E+06     210.396E+06     135.262E+06    -151.140E+03
             128     40.0125E-03     17.5349E-03     35.9657E-03     51.6401E-03    -24.8682E-03    -26.7719E-03    -24.8486E-03     51.6205E-03    -26.7719E-03    -2.43962E-03     71.1770E-03     188.216E+06     209.890E+06     134.860E+06    -4.26856E+06    -4.26810E+06     209.890E+06     134.860E+06    -191.552E+03
             129     40.9613E-03     17.5346E-03     37.0184E-03     51.6873E-03    -24.9151E-03    -26.7723E-03    -24.8865E-03     51.6588E-03    -26.7723E-03    -2.93792E-03     71.1958E-03     187.993E+06     209.849E+06     134.946E+06    -4.04895E+06    -4.04837E+06     209.849E+06     134.946E+06    -108.825E+03
             130     41.9176E-03     17.5350E-03     38.0738E-03     51.5676E-03    -24.7937E-03    -26.7738E-03    -24.7676E-03     51.5414E-03    -26.7738E-03    -2.78218E-03     71.1450E-03     187.542E+06     209.889E+06     135.042E+06    -3.51898E+06    -3.51884E+06     209.889E+06     135.042E+06     63.9034E+03
             131     42.8766E-03     17.5347E-03     39.1272E-03     51.5286E-03    -24.7539E-03    -26.7747E-03    -24.7327E-03     51.5075E-03    -26.7747E-03    -2.52778E-03     71.1493E-03     187.702E+06     209.850E+06     134.973E+06    -3.73406E+06    -3.73402E+06     209.850E+06     134.973E+06    -85.5403E+03
             132     43.8407E-03     17.5349E-03     40.1812E-03     51.6319E-03    -24.8602E-03    -26.7717E-03    -24.8364E-03     51.6081E-03    -26.7717E-03    -2.69823E-03     71.2189E-03     188.034E+06     209.754E+06     134.817E+06    -4.19419E+06    -4.19356E+06     209.753E+06     134.817E+06    -293.141E+03
             133     44.8089E-03     17.5347E-03     41.2356E-03     51.6556E-03    -24.8838E-03    -26.7718E-03    -24.8615E-03     51.6334E-03    -26.7718E-03    -2.60839E-03     71.2110E-03     187.895E+06     209.989E+06     135.137E+06    -3.79612E+06    -3.79531E+06     209.988E+06     135.137E+06    -114.374E+03
             134     45.7809E-03     17.5349E-03     42.2897E-03     51.6555E-03    -24.8799E-03    -26.7756E-03    -24.8554E-03     51.6310E-03    -26.7756E-03    -2.73423E-03     71.1688E-03     187.982E+06     210.199E+06     135.435E+06    -3.66225E+06    -3.66197E+06     210.199E+06     135.435E+06     48.2990E+03
             135     46.7559E-03     17.5346E-03     43.3434E-03     51.6144E-03    -24.8378E-03    -26.7765E-03    -24.8102E-03     51.5867E-03    -26.7765E-03    -2.90745E-03     71.1618E-03     188.119E+06     210.293E+06     135.267E+06    -3.76124E+06    -3.76034E+06     210.292E+06     135.267E+06     201.540E+03
             136     47.7351E-03     17.5350E-03     44.3977E-03     51.5191E-03    -24.7431E-03    -26.7760E-03    -24.7211E-03     51.4970E-03    -26.7760E-03    -2.56529E-03     71.0931E-03     188.505E+06     210.681E+06     135.152E+06    -3.87626E+06    -3.87532E+06     210.680E+06     135.152E+06     406.451E+03
             137     48.7172E-03     17.5346E-03     45.4522E-03     51.5783E-03    -24.8005E-03    -26.7778E-03    -24.7826E-03     51.5604E-03    -26.7778E-03    -2.33062E-03     71.0844E-03     188.984E+06     211.044E+06     135.498E+06    -4.02714E+06    -4.02703E+06     211.044E+06     135.498E+06     117.296E+03
             138     49.7014E-03     17.5349E-03     46.5055E-03     51.6582E-03    -24.8833E-03    -26.7749E-03    -24.8582E-03     51.6331E-03    -26.7749E-03    -2.75653E-03     71.1950E-03     189.054E+06     211.405E+06     135.702E+06    -3.76844E+06    -3.76821E+06     211.405E+06     135.702E+06    -150.650E+03
             139     50.6892E-03     17.5349E-03     47.5596E-03     51.5970E-03    -24.8255E-03    -26.7715E-03    -24.8004E-03     51.5719E-03    -26.7715E-03    -2.75603E-03     71.2039E-03     188.956E+06     211.241E+06     135.282E+06    -3.87424E+06    -3.87328E+06     211.240E+06     135.282E+06     122.291E+03
             140     51.6804E-03     17.5348E-03     48.6148E-03     51.5010E-03    -24.7242E-03    -26.7767E-03    -24.7084E-03     51.4851E-03    -26.7767E-03    -2.18218E-03     71.0638E-03     188.856E+06     211.138E+06     135.223E+06    -3.86243E+06    -3.86167E+06     211.137E+06     135.223E+06     342.655E+03
             141     52.6722E-03     17.5347E-03     49.6678E-03     51.5205E-03    -24.7416E-03    -26.7789E-03    -24.7226E-03     51.5015E-03    -26.7789E-03    -2.36551E-03     71.0469E-03     188.895E+06     210.845E+06     135.027E+06    -4.18043E+06    -4.18033E+06     210.845E+06     135.027E+06    -21.1124E+03
             142     53.6671E-03     17.5348E-03     50.7217E-03     51.6026E-03    -24.8281E-03    -26.7744E-03    -24.8015E-03     51.5760E-03    -26.7744E-03    -2.85130E-03     71.1662E-03     188.757E+06     210.933E+06     135.146E+06    -3.93908E+06    -3.93887E+06     210.933E+06     135.146E+06    -208.394E+03
             143     54.6646E-03     17.5349E-03     51.7759E-03     51.5946E-03    -24.8227E-03    -26.7719E-03    -24.7976E-03     51.5695E-03    -26.7719E-03    -2.76862E-03     71.1944E-03     188.577E+06     210.899E+06     135.259E+06    -3.75500E+06    -3.75473E+06     210.899E+06     135.259E+06    -239.182E+03
             144     55.6642E-03     17.5349E-03     52.8302E-03     51.5707E-03    -24.7961E-03    -26.7746E-03    -24.7743E-03     51.5489E-03    -26.7746E-03    -2.57955E-03     71.1410E-03     188.490E+06     210.571E+06     135.176E+06    -3.94573E+06    -3.94558E+06     210.571E+06     135.176E+06    -54.8942E+03
             145     56.6654E-03     17.5348E-03     53.8842E-03     51.6162E-03    -24.8379E-03    -26.7784E-03    -24.8169E-03     51.5952E-03    -26.7784E-03    -2.53340E-03     71.1654E-03     188.376E+06     210.404E+06     135.295E+06    -3.94002E+06    -3.93981E+06     210.403E+06     135.295E+06    -77.0459E+03
             146     57.6686E-03     17.5347E-03     54.9382E-03     51.6708E-03    -24.8949E-03    -26.7759E-03    -24.8723E-03     51.6482E-03    -26.7759E-03    -2.62892E-03     71.2675E-03     188.157E+06     210.194E+06     135.053E+06    -3.92235E+06    -3.92178E+06     210.193E+06     135.053E+06    -344.721E+03
             147     58.6737E-03     17.5349E-03     55.9923E-03     51.6452E-03    -24.8722E-03    -26.7730E-03    -24.8498E-03     51.6228E-03    -26.7730E-03    -2.61916E-03     71.2390E-03     187.572E+06     209.771E+06     134.667E+06    -3.71493E+06    -3.71452E+06     209.770E+06     134.667E+06    -253.247E+03
             148     59.6809E-03     17.5347E-03     57.0469E-03     51.5623E-03    -24.7859E-03    -26.7764E-03    -24.7663E-03     51.5427E-03    -26.7764E-03    -2.44447E-03     71.1354E-03     187.284E+06     209.530E+06     134.507E+06    -3.63489E+06    -3.63423E+06     209.529E+06     134.507E+06     215.727E+03
             149     61.6987E-03     17.5347E-03     59.1545E-03     51.5359E-03    -24.7551E-03    -26.7808E-03    -24.7343E-03     51.5151E-03    -26.7808E-03    -2.51405E-03     71.0465E-03     187.448E+06     209.401E+06     134.629E+06    -3.89258E+06    -3.89234E+06     209.401E+06     134.629E+06     225.659E+03
             150     62.7098E-03     17.5349E-03     60.2083E-03     51.5601E-03    -24.7826E-03    -26.7776E-03    -24.7593E-03     51.5369E-03    -26.7776E-03    -2.65894E-03     71.0576E-03     187.160E+06     209.205E+06     134.572E+06    -3.75692E+06    -3.75621E+06     209.204E+06     134.572E+06    -155.399E+03
             151     63.7225E-03     17.5348E-03     61.2624E-03     51.6259E-03    -24.8509E-03    -26.7750E-03    -24.8250E-03     51.6001E-03    -26.7750E-03    -2.80938E-03     71.1711E-03     186.670E+06     208.505E+06     134.167E+06    -3.88146E+06    -3.87985E+06     208.503E+06     134.167E+06    -580.913E+03
             152     64.7364E-03     17.5348E-03     62.3164E-03     51.6832E-03    -24.9072E-03    -26.7760E-03    -24.8860E-03     51.6620E-03    -26.7760E-03    -2.53432E-03     71.2360E-03     186.526E+06     208.215E+06     134.138E+06    -3.97040E+06    -3.96825E+06     208.213E+06     134.138E+06     27.6080E+03
             153     65.7527E-03     17.5347E-03     63.3715E-03     51.6154E-03    -24.8361E-03    -26.7793E-03    -24.8188E-03     51.5981E-03    -26.7793E-03    -2.29720E-03     71.1295E-03     186.550E+06     208.487E+06     134.275E+06    -3.74859E+06    -3.74743E+06     208.486E+06     134.275E+06     338.476E+03
             154     66.7681E-03     17.5348E-03     64.4244E-03     51.5625E-03    -24.7843E-03    -26.7783E-03    -24.7591E-03     51.5373E-03    -26.7783E-03    -2.74450E-03     71.1372E-03     186.550E+06     208.262E+06     133.811E+06    -4.01734E+06    -4.01733E+06     208.262E+06     133.811E+06    -37.3271E+03
             155     67.7857E-03     17.5349E-03     65.4785E-03     51.5892E-03    -24.8155E-03    -26.7737E-03    -24.7894E-03     51.5631E-03    -26.7737E-03    -2.79882E-03     71.1541E-03     186.580E+06     208.407E+06     133.883E+06    -3.91652E+06    -3.91633E+06     208.407E+06     133.883E+06    -164.738E+03
             156     68.8053E-03     17.5349E-03     66.5334E-03     51.6166E-03    -24.8425E-03    -26.7741E-03    -24.8249E-03     51.5991E-03    -26.7741E-03    -2.31067E-03     71.1329E-03     186.748E+06     208.885E+06     134.491E+06    -3.59398E+06    -3.59353E+06     208.884E+06     134.491E+06     28.0226E+03
             157     69.8246E-03     17.5348E-03     67.5871E-03     51.5966E-03    -24.8205E-03    -26.7761E-03    -24.8011E-03     51.5772E-03    -26.7761E-03    -2.42392E-03     71.1254E-03     186.765E+06     208.878E+06     134.378E+06    -3.63948E+06    -3.63917E+06     208.877E+06     134.378E+06     231.654E+03
             158     70.8452E-03     17.5349E-03     68.6409E-03     51.6305E-03    -24.8556E-03    -26.7749E-03    -24.8318E-03     51.6066E-03    -26.7749E-03    -2.70187E-03     71.2079E-03     186.990E+06     208.655E+06     133.823E+06    -4.16231E+06    -4.16216E+06     208.654E+06     133.823E+06    -47.9594E+03
             159     71.8671E-03     17.5347E-03     69.6952E-03     51.6236E-03    -24.8472E-03    -26.7763E-03    -24.8239E-03     51.6002E-03    -26.7763E-03    -2.67183E-03     71.2174E-03     187.155E+06     209.484E+06     134.339E+06    -3.56475E+06    -3.56282E+06     209.482E+06     134.339E+06     328.988E+03
             160     72.8900E-03     17.5350E-03     70.7493E-03     51.5035E-03    -24.7252E-03    -26.7783E-03    -24.7059E-03     51.4842E-03    -26.7783E-03    -2.41843E-03     71.0118E-03     187.777E+06     210.252E+06     134.412E+06    -3.58433E+06    -3.58180E+06     210.250E+06     134.412E+06     716.277E+03
             161     73.9134E-03     17.5347E-03     71.8034E-03     51.5681E-03    -24.7895E-03    -26.7786E-03    -24.7716E-03     51.5502E-03    -26.7786E-03    -2.33507E-03     71.0451E-03     188.493E+06     210.746E+06     134.296E+06    -3.96188E+06    -3.96015E+06     210.744E+06     134.296E+06     607.301E+03
             162     74.9377E-03     17.5348E-03     72.8573E-03     51.6253E-03    -24.8486E-03    -26.7767E-03    -24.8276E-03     51.6043E-03    -26.7767E-03    -2.53470E-03     71.2314E-03     189.865E+06     212.427E+06     134.886E+06    -3.93588E+06    -3.93324E+06     212.424E+06     134.886E+06     751.192E+03
             163     75.9627E-03     17.5350E-03     73.9111E-03     51.5602E-03    -24.7842E-03    -26.7761E-03    -24.7651E-03     51.5412E-03    -26.7761E-03    -2.40195E-03     71.1632E-03     191.347E+06     213.938E+06     135.318E+06    -4.19596E+06    -4.19319E+06     213.935E+06     135.318E+06     775.079E+03
             164     76.9898E-03     17.5347E-03     74.9664E-03     51.5368E-03    -24.7568E-03    -26.7800E-03    -24.7422E-03     51.5222E-03    -26.7800E-03    -2.10857E-03     71.0764E-03     191.677E+06     215.061E+06     135.955E+06    -3.50820E+06    -3.50553E+06     215.058E+06     135.955E+06     761.857E+03
             165     78.0150E-03     17.5349E-03     76.0189E-03     51.5354E-03    -24.7553E-03    -26.7801E-03    -24.7349E-03     51.5151E-03    -26.7801E-03    -2.45336E-03     71.0785E-03     193.086E+06     215.806E+06     135.950E+06    -4.39836E+06    -4.39668E+06     215.804E+06     135.950E+06     543.258E+03
             166     79.0433E-03     17.5349E-03     77.0738E-03     51.4866E-03    -24.7076E-03    -26.7790E-03    -24.6835E-03     51.4625E-03    -26.7790E-03    -2.70197E-03     71.0432E-03     192.744E+06     215.556E+06     135.658E+06    -4.28875E+06    -4.28520E+06     215.553E+06     135.658E+06    -471.691E+03
             167     80.0709E-03     17.5349E-03     78.1273E-03     51.4713E-03    -24.6953E-03    -26.7760E-03    -24.6716E-03     51.4477E-03    -26.7760E-03    -2.67840E-03     71.0409E-03     190.920E+06     214.610E+06     135.112E+06    -3.21385E+06    -3.21046E+06     214.606E+06     135.112E+06    -585.633E+03
             168     81.0993E-03     17.5349E-03     79.1810E-03     51.5675E-03    -24.7922E-03    -26.7754E-03    -24.7666E-03     51.5420E-03    -26.7754E-03    -2.79316E-03     71.0308E-03     191.543E+06     214.597E+06     134.885E+06    -3.92935E+06    -3.92933E+06     214.597E+06     134.885E+06     62.0225E+03
             169     82.1299E-03     17.5347E-03     80.2362E-03     51.5018E-03    -24.7208E-03    -26.7810E-03    -24.7005E-03     51.4815E-03    -26.7810E-03    -2.46812E-03     71.0077E-03     191.417E+06     214.413E+06     134.629E+06    -3.99017E+06    -3.98982E+06     214.412E+06     134.629E+06    -150.015E+03
             170     83.1589E-03     17.5348E-03     81.2891E-03     51.4643E-03    -24.6853E-03    -26.7790E-03    -24.6648E-03     51.4438E-03    -26.7790E-03    -2.48164E-03     71.0500E-03     190.266E+06     213.445E+06     133.879E+06    -3.68816E+06    -3.68772E+06     213.444E+06     133.879E+06    -298.727E+03
             171     84.1896E-03     17.5348E-03     82.3433E-03     51.4726E-03    -24.7020E-03    -26.7706E-03    -24.6765E-03     51.4470E-03    -26.7706E-03    -2.78942E-03     71.0537E-03     190.439E+06     213.530E+06     133.324E+06    -3.89160E+06    -3.89148E+06     213.530E+06     133.324E+06    -58.6590E+03
             172     85.2210E-03     17.5351E-03     83.3974E-03     51.3553E-03    -24.5861E-03    -26.7692E-03    -24.5664E-03     51.3356E-03    -26.7692E-03    -2.41852E-03     70.9962E-03     190.475E+06     213.883E+06     133.233E+06    -3.64921E+06    -3.64917E+06     213.883E+06     133.233E+06     98.7309E+03
             173     86.2528E-03     17.5348E-03     84.4516E-03     51.3400E-03    -24.5696E-03    -26.7704E-03    -24.5549E-03     51.3253E-03    -26.7704E-03    -2.11110E-03     70.8986E-03     190.178E+06     214.024E+06     133.233E+06    -3.21139E+06    -3.21022E+06     214.023E+06     133.233E+06     402.315E+03
             174     87.2845E-03     17.5350E-03     85.5050E-03     51.3356E-03    -24.5690E-03    -26.7666E-03    -24.5510E-03     51.3176E-03    -26.7666E-03    -2.33490E-03     70.8369E-03     190.877E+06     214.015E+06     132.480E+06    -4.08873E+06    -4.08752E+06     214.014E+06     132.480E+06     272.631E+03
             175     88.3169E-03     17.5350E-03     86.5587E-03     51.2838E-03    -24.5222E-03    -26.7615E-03    -24.4990E-03     51.2605E-03    -26.7615E-03    -2.64779E-03     70.8358E-03     190.446E+06     213.318E+06     131.783E+06    -4.32150E+06    -4.31839E+06     213.315E+06     131.783E+06    -655.031E+03
             176     89.3500E-03     17.5352E-03     87.6125E-03     51.1767E-03    -24.4220E-03    -26.7547E-03    -24.3969E-03     51.1516E-03    -26.7547E-03    -2.75037E-03     70.7114E-03     188.474E+06     211.997E+06     130.849E+06    -3.45848E+06    -3.45330E+06     211.992E+06     130.849E+06    -1.05272E+06
             177     90.3831E-03     17.5352E-03     88.6658E-03     51.0368E-03    -24.2912E-03    -26.7456E-03    -24.2698E-03     51.0154E-03    -26.7456E-03    -2.53405E-03     70.4629E-03     187.209E+06     210.570E+06     129.460E+06    -3.51605E+06    -3.51390E+06     210.568E+06     129.460E+06    -432.263E+03
             178     91.4176E-03     17.5354E-03     89.7201E-03     51.0106E-03    -24.2691E-03    -26.7415E-03    -24.2523E-03     50.9938E-03    -26.7415E-03    -2.24618E-03     70.3485E-03     186.528E+06     209.579E+06     128.887E+06    -3.71001E+06    -3.70859E+06     209.578E+06     128.887E+06    -339.402E+03
             179     92.4512E-03     17.5352E-03     90.7730E-03     50.9758E-03    -24.2446E-03    -26.7312E-03    -24.2236E-03     50.9548E-03    -26.7312E-03    -2.48412E-03     70.3702E-03     185.191E+06     208.264E+06     127.588E+06    -3.57719E+06    -3.57344E+06     208.260E+06     127.588E+06    -883.435E+03
             180     93.4853E-03     17.5359E-03     91.8259E-03     50.8103E-03    -24.0985E-03    -26.7118E-03    -24.0743E-03     50.7861E-03    -26.7118E-03    -2.68927E-03     70.2950E-03     183.672E+06     206.518E+06     125.472E+06    -3.73701E+06    -3.73464E+06     206.516E+06     125.472E+06    -543.111E+03
             181     94.5209E-03     17.5359E-03     92.8800E-03     50.5435E-03    -23.8547E-03    -26.6888E-03    -23.8354E-03     50.5243E-03    -26.6888E-03    -2.38960E-03     70.0117E-03     182.173E+06     205.207E+06     123.970E+06    -3.45019E+06    -3.44766E+06     205.205E+06     123.970E+06    -555.484E+03
             182     95.5546E-03     17.5369E-03     93.9316E-03     50.4128E-03    -23.7615E-03    -26.6513E-03    -23.7395E-03     50.3908E-03    -26.6513E-03    -2.54109E-03     69.8071E-03     181.170E+06     202.964E+06     121.528E+06     -4.6336E+06    -4.61335E+06     202.944E+06     121.528E+06    -1.86767E+06
             183     96.5901E-03     17.5371E-03     94.9847E-03     50.1904E-03    -23.5945E-03    -26.5959E-03    -23.5706E-03     50.1666E-03    -26.5959E-03    -2.64623E-03     69.6014E-03     176.765E+06     199.278E+06     117.918E+06    -3.50478E+06    -3.47702E+06     199.250E+06     117.918E+06    -2.35316E+06
             184     97.6256E-03     17.5388E-03     96.0373E-03     49.6872E-03    -23.1664E-03    -26.5208E-03    -23.1504E-03     49.6712E-03    -26.5208E-03    -2.13550E-03     69.0512E-03     171.208E+06     193.205E+06     111.905E+06    -3.50525E+06    -3.45918E+06     193.159E+06     111.905E+06    -2.87335E+06
             185     98.6600E-03     17.5397E-03     97.0884E-03     49.2946E-03    -22.8867E-03    -26.4078E-03    -22.8717E-03     49.2796E-03    -26.4078E-03    -2.06416E-03     68.5622E-03     163.518E+06     185.321E+06     104.351E+06    -2.85523E+06    -2.78988E+06     185.256E+06     104.351E+06    -3.50437E+06
             186     99.6950E-03     17.5425E-03     98.1394E-03     49.0955E-03    -22.8542E-03    -26.2413E-03    -22.8360E-03     49.0773E-03    -26.2413E-03    -2.28810E-03     68.4063E-03     156.275E+06     176.446E+06     95.2075E+06    -3.71271E+06    -3.58617E+06     176.320E+06     95.2075E+06    -4.58084E+06
             187     100.729E-03     17.5452E-03     99.1894E-03     49.3127E-03    -23.2704E-03    -26.0423E-03    -23.2504E-03     49.2928E-03    -26.0423E-03    -2.40365E-03     68.6740E-03     146.919E+06     167.500E+06     92.1170E+06    -1.79645E+06    -1.67826E+06     167.382E+06     92.1170E+06    -4.24426E+06
             188     101.766E-03     17.5496E-03     100.241E-03     50.1535E-03    -24.3318E-03    -25.8217E-03    -24.3059E-03     50.1276E-03    -25.8217E-03    -2.77062E-03     69.6733E-03     142.002E+06     159.104E+06     95.2335E+06    -3.46089E+06    -3.31709E+06     158.960E+06     95.2335E+06    -4.48317E+06
             189     102.802E-03     17.5536E-03     101.292E-03     53.0217E-03    -25.2918E-03    -27.7300E-03    -27.3245E-03     52.9608E-03    -25.6363E-03    -4.29476E-03     72.7601E-03     137.781E+06     146.042E+06     108.914E+06    -5.36484E+06    -4.92452E+06     145.602E+06     108.914E+06    -7.83820E+06
             190     103.845E-03     17.5552E-03     102.350E-03     57.7627E-03    -25.4911E-03    -32.2716E-03    -32.1724E-03     57.6634E-03    -25.4911E-03    -5.97638E-03     77.6456E-03     128.416E+06     130.083E+06     122.264E+06    -1.89890E+06    -1.48711E+06     129.672E+06     122.264E+06    -7.09439E+06
             191     104.893E-03     17.5557E-03     103.413E-03     62.0272E-03    -25.3500E-03    -36.6772E-03    -36.5763E-03     61.9263E-03    -25.3500E-03    -6.30082E-03     81.8028E-03     124.282E+06     122.748E+06     118.869E+06    -3.38576E+06    -3.23146E+06     118.841E+06     122.622E+06    -4.32444E+06
             192     105.945E-03     17.5565E-03     104.480E-03     65.2474E-03    -25.2409E-03    -40.0065E-03    -39.9260E-03     65.1669E-03    -25.2409E-03    -5.78482E-03     84.4852E-03     121.876E+06     122.573E+06     110.401E+06    -4.86609E+06    -4.64266E+06     110.178E+06     122.573E+06    -4.91193E+06
             193     107.001E-03     17.5570E-03     105.551E-03     67.6808E-03    -25.1512E-03    -42.5297E-03    -42.4799E-03     67.6311E-03    -25.1512E-03    -4.61590E-03     86.3405E-03     115.055E+06     123.062E+06     99.7617E+06    -1.64085E+06    -1.42642E+06     99.5473E+06     123.062E+06    -4.54759E+06
             194     108.058E-03     17.5579E-03     106.622E-03     70.2882E-03    -25.0519E-03    -45.2363E-03    -45.2040E-03     70.2559E-03    -25.0519E-03    -3.86013E-03     88.6929E-03     112.985E+06     120.340E+06     88.5845E+06    -5.12346E+06    -4.83939E+06     88.3004E+06     120.340E+06    -4.87861E+06
             195     109.119E-03     17.5582E-03     107.697E-03     73.5887E-03    -24.9191E-03    -48.6696E-03    -48.6371E-03     73.5562E-03    -24.9191E-03    -3.98525E-03     92.7184E-03     105.524E+06     117.183E+06     74.9318E+06    -2.09216E+06    -1.76796E+06     74.6076E+06     117.183E+06    -4.96623E+06
             196     110.184E-03     17.5598E-03     108.776E-03     77.5371E-03    -24.7610E-03    -52.7761E-03    -52.7560E-03     77.5170E-03    -24.7610E-03    -1.19587E-03     97.8238E-03     101.722E+06     113.085E+06     60.9450E+06    -4.08063E+06    -3.75606E+06     60.6204E+06     113.085E+06    -4.52400E+06
             197     111.258E-03     17.5600E-03     109.864E-03     82.8887E-03    -24.5703E-03    -58.3184E-03    -58.2201E-03     82.7904E-03    -24.5703E-03     6.18711E-03     102.947E-03     100.908E+06     112.365E+06     51.3795E+06    -2.98733E+06    -1.67063E+06     50.0628E+06     112.365E+06    -7.13818E+06
             198     112.339E-03     17.5620E-03     110.958E-03     88.0768E-03    -24.3749E-03    -63.7019E-03    -63.4097E-03     87.7846E-03    -24.3749E-03     13.1277E-03     107.018E-03     97.6225E+06     109.890E+06     43.6449E+06    -1.89369E+06    -670.788E+03     42.4220E+06     109.890E+06    -6.18753E+06
             199     113.424E-03     17.5618E-03     112.057E-03     89.6928E-03    -24.2638E-03    -65.4290E-03    -65.1676E-03     89.4314E-03    -24.2638E-03     12.2866E-03     110.353E-03     93.7456E+06     108.734E+06     46.4126E+06     1.12663E+06     4.79591E+06     42.7433E+06     108.734E+06     4.97357E+06
             200     114.496E-03     17.5636E-03     113.141E-03     91.3992E-03    -24.1223E-03    -67.2769E-03    -67.0625E-03     91.1848E-03    -24.1223E-03     11.4440E-03     114.417E-03     100.984E+06     94.5462E+06     49.5895E+06    -18.2400E+06    -14.0276E+06     45.3771E+06     94.5462E+06     1.10956E+06
             201     115.588E-03     17.5629E-03     114.246E-03     92.7223E-03    -23.9776E-03    -68.7447E-03    -68.3822E-03     92.3598E-03    -23.9776E-03     15.2188E-03     115.281E-03     90.9836E+06     81.1753E+06     56.3703E+06    -19.5927E+06     5.31417E+06     31.4634E+06     81.1753E+06    -11.0468E+06
             202     116.682E-03     17.5653E-03     115.353E-03     76.2858E-03    -24.3699E-03    -51.9159E-03    -51.6369E-03     76.0068E-03    -24.3699E-03     11.8117E-03     96.2763E-03     72.0739E+06     63.9263E+06     51.5132E+06    -13.0623E+06     11.3026E+06     29.4135E+06     61.6610E+06    -7.62147E+06
             203     117.551E-03     16.5730E-03     116.377E-03     61.4171E-03    -24.4211E-03    -36.9960E-03    -36.0206E-03     60.4417E-03    -24.4211E-03     16.9565E-03     81.1502E-03     87.5103E+06     42.8939E+06     15.6506E+06    -52.9289E+06    -24.3529E+06    -10.6601E+06     40.6287E+06    -7.50760E+06
             204     117.318E-03     15.5954E-03     116.277E-03     55.0121E-03    -23.7684E-03    -31.2437E-03    -30.0038E-03     53.7722E-03    -23.7684E-03     20.2611E-03     75.3950E-03     85.2508E+06     67.8158E+06     12.2147E+06    -29.2496E+06    -793.643E+03    -16.2412E+06     67.8158E+06    -5.59632E+06
             205     117.076E-03     14.6165E-03     116.160E-03     44.6382E-03    -20.7612E-03    -23.8770E-03    -20.8251E-03     44.2591E-03    -23.4340E-03     9.27724E-03     61.6922E-03     86.3927E+06     90.6014E+06     19.7271E+06    -5.61015E+06     7.53127E+06     6.58572E+06     90.6014E+06    -1.64780E+06
             206     116.857E-03     13.6336E-03     116.059E-03     44.6118E-03    -20.6173E-03    -23.9945E-03    -21.2708E-03     44.5609E-03    -23.2901E-03     3.00053E-03     58.7468E-03     99.0864E+06     101.809E+06     12.7459E+06    -4.32469E+06     11.6315E+06    -3.21033E+06     101.809E+06     551.018E+03
             207     116.644E-03     12.6661E-03     115.955E-03     47.8957E-03    -22.9008E-03    -24.9949E-03    -24.9883E-03     47.8891E-03    -22.9008E-03     1.37750E-03     59.9459E-03     101.324E+06     108.046E+06     12.2458E+06     2.02351E+06     10.8955E+06     3.37379E+06     108.046E+06     272.261E+03
             208     116.447E-03     11.7011E-03     115.857E-03     47.0184E-03    -22.3311E-03    -24.6873E-03    -24.6831E-03     47.0142E-03    -22.3311E-03     690.931E-06     56.0417E-03     101.626E+06     105.014E+06     10.9081E+06    -2.74639E+06     9.08032E+06    -918.567E+03     105.014E+06    -4.36306E+06
             209     116.271E-03     10.7335E-03     115.775E-03     46.4596E-03    -21.7664E-03    -24.6933E-03    -24.6859E-03     46.4523E-03    -21.7664E-03    -1.11229E-03     52.8179E-03     102.788E+06     105.518E+06     11.3479E+06    -4.12887E+06     9.73349E+06    -2.51445E+06     105.518E+06    -3.93341E+06
             210     116.117E-03     9.76425E-03     115.706E-03     46.7621E-03    -21.0910E-03    -25.6711E-03    -25.6510E-03     46.7420E-03    -21.0910E-03    -2.39214E-03     51.2159E-03     98.7851E+06     102.811E+06     11.2350E+06    -1.82590E+06     9.30547E+06     103.619E+03     102.811E+06    -3.34546E+06
             211     115.978E-03     8.79763E-03     115.643E-03     45.5828E-03    -20.3010E-03    -25.2818E-03    -25.2560E-03     45.5571E-03    -20.3010E-03    -2.69999E-03     48.5231E-03     93.9597E+06     97.4511E+06     12.1037E+06    -3.03678E+06     9.36308E+06    -296.201E+03     97.4511E+06    -5.30416E+06
             212     115.859E-03     7.82745E-03     115.594E-03     43.6026E-03    -19.4805E-03    -24.1221E-03    -24.0929E-03     43.5734E-03    -19.4805E-03    -2.80441E-03     45.4229E-03     87.0573E+06     90.3089E+06     13.5877E+06    -4.29238E+06     10.9489E+06    -1.65363E+06     90.3089E+06    -6.12500E+06
             213     115.756E-03     6.85614E-03     115.553E-03     41.5376E-03    -18.6498E-03    -22.8878E-03    -22.8561E-03     41.5059E-03    -18.6498E-03    -2.85970E-03     42.6336E-03     75.5023E+06     79.7999E+06     16.3661E+06    -3.44314E+06     13.7864E+06    -863.482E+03     79.7999E+06    -6.31950E+06
             214     115.671E-03     5.88211E-03     115.521E-03     39.2674E-03    -17.8501E-03    -21.4173E-03    -21.3870E-03     39.2371E-03    -17.8501E-03    -2.70970E-03     39.8781E-03     64.8337E+06     70.2784E+06     20.4992E+06    -3.02369E+06     18.0383E+06    -562.774E+03     70.2784E+06    -7.07699E+06
             215     115.600E-03     4.90615E-03     115.496E-03     36.9964E-03    -17.1307E-03    -19.8657E-03    -19.8390E-03     36.9697E-03    -17.1307E-03    -2.46145E-03     37.3054E-03     60.3110E+06     65.4172E+06     26.2040E+06    -3.62543E+06     23.9630E+06    -1.38437E+06     65.4172E+06    -7.34827E+06
             216     115.544E-03     3.92782E-03     115.477E-03     34.8143E-03    -16.4861E-03    -18.3282E-03    -18.3068E-03     34.7929E-03    -16.4861E-03    -2.13068E-03     34.9529E-03     52.7721E+06     57.8233E+06     31.5329E+06    -2.82113E+06     30.1794E+06    -1.46763E+06     57.8233E+06    -6.67223E+06
             217     115.501E-03     2.94741E-03     115.463E-03     33.0410E-03    -15.9598E-03    -17.0811E-03    -17.0658E-03     33.0257E-03    -15.9598E-03    -1.73944E-03     33.0944E-03     49.0443E+06     51.9966E+06     37.9023E+06    -2.24510E+06     36.7126E+06    -1.05543E+06     51.9966E+06    -6.67195E+06
             218     115.471E-03     1.96597E-03     115.454E-03     31.6327E-03    -15.6139E-03    -16.0188E-03    -16.0095E-03     31.6234E-03    -15.6139E-03    -1.32037E-03     31.6488E-03     52.0407E+06     51.8289E+06     44.1988E+06    -3.58602E+06     43.4010E+06    -2.78819E+06     51.8289E+06    -6.08616E+06
             219     115.452E-03     982.683E-06     115.448E-03     30.9477E-03    -15.3940E-03    -15.5537E-03    -15.5491E-03     30.9431E-03    -15.3940E-03    -888.139E-06     30.9513E-03     54.4412E+06     53.4797E+06     49.4866E+06    -2.81914E+06     49.0569E+06    -2.38946E+06     53.4797E+06    -4.54340E+06
             220     114.415E-03    -478.039E-09     114.415E-03     26.9252E-03    -13.3383E-03    -13.5869E-03    -13.4962E-03     26.9237E-03    -13.4275E-03    -477.289E-06     26.9298E-03     46.8269E+06     33.5158E+06      31.315E+06    -14.3707E+06     31.9609E+06    -13.9533E+06     32.4525E+06    -4.15542E+06
             221     113.393E-03     289.425E-09     113.393E-03     19.7875E-03    -9.83772E-03    -9.94981E-03    -9.83709E-03     19.7869E-03    -9.94981E-03    -272.608E-06     19.7990E-03     25.0626E+06    -4.16478E+06    -5.49528E+06    -29.8647E+06    -5.24956E+06    -28.7799E+06    -5.49528E+06    -4.62885E+06
             222     112.376E-03    -327.167E-09     112.376E-03     14.3343E-03    -7.12808E-03    -7.20619E-03    -7.12775E-03     14.3339E-03    -7.20619E-03    -70.8942E-06     14.3514E-03     15.9269E+06    -35.2705E+06    -42.3817E+06    -52.2522E+06    -43.1921E+06    -44.3306E+06    -42.3817E+06    -6.19600E+06
             223     111.364E-03     222.332E-09     111.364E-03     10.5844E-03    -5.25168E-03    -5.33275E-03    -5.24901E-03     10.5818E-03    -5.33275E-03     313.296E-06     10.6079E-03     27.0535E+06    -62.1824E+06    -87.4631E+06    -90.4782E+06    -87.7541E+06    -64.9065E+06    -87.4631E+06    -7.30609E+06
             224     110.355E-03    -276.969E-09     110.355E-03     8.76822E-03    -4.35504E-03    -4.41317E-03    -4.34426E-03     8.75743E-03    -4.41317E-03     720.333E-06     8.79427E-03     48.6383E+06    -85.3402E+06    -133.388E+06    -134.546E+06    -133.245E+06    -86.1359E+06    -133.893E+06    -5.53847E+06
             225     109.347E-03     189.848E-09     109.347E-03     9.26022E-03    -4.60325E-03    -4.65698E-03    -4.59685E-03     9.23242E-03    -4.63558E-03     1.22456E-03     9.27840E-03     72.7321E+06    -97.4446E+06    -169.303E+06    -171.018E+06    -169.136E+06    -97.6119E+06    -171.018E+06    -1.14858E+06
             226     108.337E-03    -199.808E-09     108.337E-03     12.2194E-03    -6.08128E-03    -6.13811E-03    -6.09430E-03     12.1756E-03    -6.08128E-03     1.79051E-03     12.2262E-03      95.903E+06    -91.0794E+06    -186.275E+06    -187.664E+06    -185.863E+06    -91.4908E+06    -187.664E+06     5.46301E+06
             227     107.322E-03     217.705E-09     107.322E-03     17.3881E-03    -8.65289E-03    -8.73522E-03    -8.68786E-03     17.3408E-03    -8.65289E-03     2.21143E-03     17.3903E-03     79.0101E+06    -67.7835E+06    -146.412E+06    -147.165E+06    -145.485E+06    -69.2841E+06    -146.592E+06     9.81460E+06
             228     106.301E-03    -174.808E-09     106.301E-03     23.8684E-03    -11.8669E-03    -12.0015E-03    -11.9535E-03     23.8204E-03    -11.8669E-03     2.61822E-03     23.8721E-03     34.9960E+06    -34.3978E+06    -62.2094E+06    -70.5505E+06     -63.209E+06    -41.7393E+06    -62.2094E+06     10.0625E+06
             229     105.274E-03     322.248E-09     105.274E-03     30.4714E-03    -15.1460E-03    -15.3254E-03    -15.2779E-03     30.4239E-03    -15.1460E-03     2.94019E-03     30.4787E-03     22.3089E+06    -1.95501E+06    -5.25704E+06    -25.6854E+06    -6.79442E+06    -22.0172E+06    -4.08580E+06     4.92142E+06
             230     104.239E-03    -169.009E-09     104.239E-03     36.5463E-03    -18.1905E-03    -18.3558E-03    -18.3167E-03     36.5072E-03    -18.1905E-03     2.90686E-03     36.5609E-03     35.3958E+06     19.6404E+06     17.8505E+06    -16.6051E+06     18.4478E+06    -16.5838E+06     19.0217E+06    -523.514E+03
             231     103.200E-03     275.981E-09     103.200E-03     41.9300E-03    -20.8803E-03    -21.0498E-03    -21.0207E-03     41.9010E-03    -20.8803E-03     2.69386E-03     41.9554E-03     56.4702E+06     34.8141E+06     33.2383E+06    -22.4275E+06     33.7562E+06    -22.3267E+06     34.1954E+06    -2.32016E+06
             232     102.154E-03    -97.7842E-09     102.154E-03     46.1545E-03    -22.9834E-03    -23.1712E-03    -23.1463E-03     46.1297E-03    -22.9834E-03     2.62350E-03     46.1891E-03     69.9096E+06     37.5160E+06     35.8253E+06    -33.2232E+06     36.3898E+06    -33.0541E+06     36.7824E+06    -3.43080E+06
             233     101.105E-03     246.411E-09     101.105E-03     48.9385E-03    -24.3692E-03    -24.5693E-03    -24.5502E-03     48.9193E-03    -24.3692E-03     2.34847E-03     48.9803E-03     75.9302E+06     28.2918E+06     26.9242E+06    -48.3128E+06     27.4239E+06    -48.0789E+06     27.5582E+06    -4.18831E+06
             234     100.054E-03    -37.7183E-09     100.054E-03     50.8753E-03    -25.3252E-03    -25.5501E-03    -25.5360E-03     50.8612E-03    -25.3252E-03     2.07546E-03     50.9252E-03     85.2034E+06     21.0459E+06     19.9039E+06    -64.7226E+06     20.0955E+06    -64.4062E+06     20.5379E+06    -5.18015E+06
             235     99.0013E-03     248.609E-09     99.0013E-03     52.1903E-03    -26.0056E-03    -26.1848E-03    -26.1728E-03     52.1784E-03    -26.0056E-03     1.92378E-03     52.2473E-03     90.7164E+06     8.10502E+06     7.58718E+06    -82.8682E+06     7.66894E+06    -82.4420E+06     7.59706E+06    -6.18291E+06
             236     97.9479E-03    -131.925E-09     97.9479E-03     52.8146E-03    -26.2913E-03    -26.5233E-03    -26.5140E-03     52.8053E-03    -26.2913E-03     1.71738E-03     52.8749E-03     95.1749E+06    -8.26200E+06    -8.67619E+06    -103.643E+06    -8.70888E+06    -103.206E+06    -8.66630E+06    -6.40555E+06
             237     96.8940E-03     452.263E-09     96.8940E-03     53.1700E-03    -26.4167E-03    -26.7533E-03    -26.7437E-03     53.1604E-03    -26.4167E-03     1.75082E-03     53.2320E-03     102.019E+06    -21.0890E+06    -22.0150E+06    -123.568E+06    -21.9744E+06    -123.204E+06    -21.4933E+06    -6.07856E+06
             238     95.8396E-03    -126.809E-09     95.8396E-03     53.3108E-03    -26.5395E-03    -26.7713E-03    -26.7614E-03     53.3009E-03    -26.5395E-03     1.77793E-03     53.3726E-03     106.640E+06    -34.9773E+06    -36.7292E+06    -142.481E+06    -35.7729E+06    -142.207E+06    -36.2076E+06    -5.32043E+06
             239     94.7855E-03     230.656E-09     94.7855E-03     53.2585E-03    -26.5318E-03    -26.7267E-03    -26.7171E-03     53.2490E-03    -26.5318E-03     1.74791E-03     53.3205E-03     110.515E+06    -48.6658E+06    -50.8524E+06    -160.258E+06    -49.8358E+06    -160.044E+06    -49.8960E+06    -4.84729E+06
             240     93.7318E-03     28.8453E-09     93.7318E-03     53.3727E-03    -26.5965E-03    -26.7762E-03    -26.7662E-03     53.3627E-03    -26.5965E-03     1.79536E-03     53.4362E-03     117.149E+06    -57.3780E+06    -59.8306E+06    -175.734E+06    -58.5382E+06    -175.530E+06    -58.8743E+06    -4.85092E+06
             241     92.6774E-03     41.1564E-09     92.6774E-03     53.6168E-03    -26.7166E-03    -26.9003E-03    -26.8908E-03     53.6074E-03    -26.7166E-03     1.74198E-03     53.6802E-03     123.480E+06    -64.9764E+06    -66.9917E+06    -189.448E+06    -65.6091E+06    -189.335E+06    -66.4727E+06    -3.65060E+06
             242     91.6230E-03     220.153E-09     91.6230E-03     53.7245E-03    -26.7283E-03    -26.9962E-03    -26.9877E-03     53.7160E-03    -26.7283E-03     1.65862E-03     53.7894E-03     130.438E+06    -71.1148E+06    -71.8066E+06    -201.897E+06    -71.9066E+06    -201.797E+06    -71.1148E+06    -3.55558E+06
             243     90.5689E-03     37.1897E-09     90.5689E-03     53.6448E-03    -26.6888E-03    -26.9560E-03    -26.9477E-03     53.6365E-03    -26.6888E-03     1.63913E-03     53.7108E-03     138.488E+06    -76.8343E+06    -77.1144E+06    -215.462E+06    -77.1352E+06    -215.334E+06    -76.9417E+06    -4.20729E+06
             244     89.5143E-03     215.036E-09     89.5143E-03     53.5869E-03    -26.6781E-03    -26.9088E-03    -26.8982E-03     53.5763E-03    -26.6781E-03     1.83349E-03     53.6475E-03     147.116E+06    -79.2240E+06    -79.7207E+06    -226.588E+06    -79.2912E+06    -226.521E+06    -79.7207E+06    -2.79527E+06
             245     88.4605E-03    -42.0637E-09     88.4605E-03     53.7372E-03    -26.7870E-03    -26.9501E-03    -26.9403E-03     53.7273E-03    -26.7870E-03     1.75627E-03     53.8015E-03     156.961E+06    -78.6364E+06    -79.1399E+06    -235.848E+06    -78.8163E+06    -235.782E+06    -79.0257E+06    -2.90745E+06
             246     87.4067E-03     167.403E-09     87.4067E-03     53.9232E-03    -26.8597E-03    -27.0635E-03    -27.0567E-03     53.9164E-03    -26.8597E-03     1.48745E-03     53.9943E-03     165.949E+06    -80.3538E+06    -80.8268E+06    -246.539E+06    -80.5493E+06    -246.457E+06    -80.7127E+06    -3.56605E+06
             247     86.3515E-03     92.1587E-09     86.3515E-03     53.8690E-03    -26.8102E-03    -27.0588E-03    -27.0508E-03     53.8610E-03    -26.8102E-03     1.60868E-03     53.9353E-03     173.497E+06    -80.4296E+06    -80.8656E+06    -254.144E+06    -80.4563E+06    -254.117E+06    -80.8656E+06    -1.99470E+06
             248     85.2978E-03     114.723E-09     85.2978E-03     53.7737E-03    -26.7554E-03    -27.0182E-03    -27.0101E-03     53.7655E-03    -26.7554E-03     1.62530E-03     53.8369E-03     180.721E+06    -78.9225E+06    -79.5411E+06    -259.952E+06    -79.4719E+06    -259.944E+06    -78.9996E+06    -1.19151E+06
             249     84.2437E-03     184.069E-09     84.2437E-03     53.8966E-03    -26.7927E-03    -27.1039E-03    -27.0964E-03     53.8891E-03    -26.7927E-03     1.55629E-03     53.9627E-03     187.009E+06    -77.7475E+06    -78.4451E+06    -265.104E+06    -78.4604E+06    -265.088E+06    -77.7475E+06    -1.62939E+06
             250     83.1895E-03     121.802E-09     83.1895E-03     54.0577E-03    -26.9313E-03    -27.1265E-03    -27.1182E-03     54.0494E-03    -26.9313E-03     1.63782E-03     54.1438E-03     192.567E+06    -77.4157E+06    -78.0984E+06    -270.323E+06    -77.5944E+06    -270.301E+06    -77.9422E+06    -2.08349E+06
             251     82.1347E-03    -64.8124E-09     82.1347E-03     54.0968E-03    -26.9312E-03    -27.1656E-03    -27.1567E-03     54.0879E-03    -26.9312E-03     1.70156E-03     54.2270E-03     195.390E+06    -75.6084E+06    -76.2694E+06    -271.328E+06    -75.6195E+06    -271.317E+06    -76.2694E+06    -943.204E+03
             252     81.0805E-03     441.221E-09     81.0805E-03     54.0088E-03    -26.8238E-03    -27.1850E-03    -27.1764E-03     54.0002E-03    -26.8238E-03     1.67215E-03     54.1586E-03     197.475E+06    -75.1363E+06    -75.4496E+06    -272.768E+06    -75.3329E+06    -272.750E+06    -75.2708E+06     1.42334E+06
             253     80.0265E-03    -127.470E-09     80.0265E-03     53.8749E-03    -26.8447E-03    -27.0302E-03    -27.0222E-03     53.8669E-03    -26.8447E-03     1.60969E-03     54.0886E-03     198.256E+06    -74.5956E+06    -74.8023E+06    -272.955E+06    -74.8207E+06    -272.937E+06    -74.5956E+06     1.59135E+06
             254     78.9723E-03     165.219E-09     78.9723E-03     53.8103E-03    -26.8588E-03    -26.9516E-03    -26.9435E-03     53.8023E-03    -26.8588E-03     1.61485E-03     54.1223E-03     197.643E+06    -74.3990E+06    -74.4850E+06    -272.085E+06    -74.4295E+06    -272.083E+06    -74.4571E+06    -166.724E+03
             255     77.9183E-03    -34.9752E-09     77.9183E-03     53.8423E-03    -26.7999E-03    -27.0424E-03    -27.0330E-03     53.8329E-03    -26.7999E-03     1.74183E-03     54.1946E-03     199.002E+06    -75.0003E+06    -75.3303E+06    -274.167E+06    -75.0033E+06    -274.164E+06    -75.3303E+06    -80.9015E+03
             256     76.8639E-03     357.701E-09     76.8639E-03     53.8411E-03    -26.7641E-03    -27.0770E-03    -27.0673E-03     53.8314E-03    -26.7641E-03     1.76917E-03     54.1735E-03     201.958E+06    -71.9391E+06    -72.7456E+06    -274.299E+06    -72.4750E+06    -274.298E+06    -72.2110E+06     495.819E+03
             257     75.8102E-03    -83.3185E-09     75.8102E-03     53.7597E-03    -26.8080E-03    -26.9517E-03    -26.9410E-03     53.7517E-03    -26.8107E-03     1.60015E-03     54.0738E-03     204.620E+06    -69.8369E+06    -70.6030E+06    -274.839E+06    -70.3803E+06    -274.830E+06    -70.0685E+06    -793.669E+03
             258     74.7566E-03     70.3464E-09     74.7566E-03     53.7922E-03    -26.7835E-03    -27.0087E-03    -26.9993E-03     53.7856E-03    -26.7862E-03     1.47087E-03     54.1415E-03     204.667E+06    -70.7034E+06    -71.4843E+06     -275.76E+06    -70.7138E+06    -275.750E+06    -71.4843E+06    -522.234E+03
             259     73.7017E-03     351.103E-09     73.7017E-03     53.8224E-03    -26.7055E-03    -27.1169E-03    -27.1079E-03     53.8133E-03    -26.7055E-03     1.69527E-03     54.2208E-03     202.917E+06    -69.8294E+06    -71.2486E+06    -273.452E+06    -70.7028E+06    -273.448E+06    -70.3786E+06     836.896E+03
             260     72.6483E-03     18.5650E-09     72.6483E-03     53.7584E-03    -26.7542E-03    -27.0042E-03    -26.9958E-03     53.7501E-03    -26.7542E-03     1.61559E-03     54.1762E-03     200.937E+06    -68.1643E+06    -70.2227E+06    -270.122E+06    -70.2555E+06    -270.089E+06    -68.1643E+06    -1.34253E+06
             261     71.5943E-03     112.933E-09     71.5943E-03     53.7394E-03    -26.7479E-03    -26.9915E-03    -26.9849E-03     53.7328E-03    -26.7479E-03     1.44843E-03     54.1731E-03     200.618E+06    -67.4782E+06    -69.7097E+06    -269.202E+06    -68.7152E+06    -269.154E+06    -68.5212E+06    -3.08736E+06
             262     70.5400E-03     222.916E-09     70.5400E-03     53.7190E-03    -26.7175E-03    -27.0015E-03    -26.9939E-03     53.7114E-03    -26.7175E-03     1.56598E-03     54.1982E-03     199.858E+06    -68.2783E+06    -70.2157E+06    -269.098E+06    -68.3121E+06    -269.064E+06    -70.2157E+06    -49.0114E+03
             263     69.4863E-03    -42.4980E-09     69.4863E-03     53.6882E-03    -26.7841E-03    -26.9041E-03    -26.8970E-03     53.6810E-03    -26.7841E-03     1.51841E-03     54.1727E-03     199.511E+06    -69.7573E+06    -70.7934E+06    -269.783E+06    -69.9357E+06    -269.746E+06    -70.6517E+06     2.70416E+06
             264     68.4323E-03     75.7661E-09     68.4323E-03     53.7429E-03    -26.7807E-03    -26.9622E-03    -26.9546E-03     53.7353E-03    -26.7807E-03     1.56440E-03     54.2382E-03     198.802E+06    -69.4238E+06    -70.5802E+06    -268.800E+06    -70.6008E+06    -268.779E+06    -69.4238E+06     1.28119E+06
             265     67.3780E-03     248.824E-09     67.3780E-03     53.7408E-03    -26.7328E-03    -27.0080E-03    -26.9992E-03     53.7320E-03    -26.7328E-03     1.68069E-03     54.2591E-03     197.341E+06    -68.1650E+06    -69.8602E+06    -266.348E+06    -69.1817E+06    -266.346E+06    -68.8454E+06     267.738E+03
             266     66.3243E-03    -46.3531E-09     66.3243E-03     53.7419E-03    -26.7694E-03    -26.9725E-03    -26.9635E-03     53.7329E-03    -26.7694E-03     1.70408E-03     54.2453E-03     196.633E+06    -68.0747E+06    -69.2171E+06    -265.276E+06    -68.5384E+06    -265.275E+06    -68.7552E+06     344.193E+03
             267     65.2701E-03     222.587E-09     65.2701E-03     53.8212E-03    -26.7872E-03    -27.0340E-03    -27.0256E-03     53.8128E-03    -26.7872E-03     1.64646E-03     54.3194E-03     196.986E+06    -68.4864E+06    -69.0001E+06    -265.729E+06    -69.0016E+06    -265.727E+06    -68.4864E+06    -439.477E+03
             268     64.2160E-03     75.7668E-09     64.2160E-03     53.8136E-03    -26.7814E-03    -27.0322E-03    -27.0237E-03     53.8051E-03    -26.7814E-03     1.65557E-03     54.2856E-03     198.685E+06    -67.8296E+06    -67.9015E+06    -266.551E+06    -67.8832E+06    -266.549E+06    -67.8497E+06    -160.401E+03
             269     63.1620E-03     101.401E-09     63.1620E-03     53.7810E-03    -26.7919E-03    -26.9890E-03    -26.9807E-03     53.7726E-03    -26.7919E-03     1.64391E-03     54.2517E-03     198.018E+06    -67.7957E+06    -68.6623E+06    -266.244E+06    -67.7983E+06    -266.241E+06    -68.6623E+06     673.211E+03
             270     62.1079E-03     80.5646E-09     62.1079E-03     53.8039E-03    -26.7952E-03    -27.0087E-03    -27.0008E-03     53.7960E-03    -26.7952E-03     1.59741E-03     54.2773E-03     197.029E+06    -67.0162E+06    -69.0692E+06    -265.064E+06    -68.2249E+06    -265.062E+06    -67.8627E+06     469.466E+03
             271     61.0541E-03     145.804E-09     61.0541E-03     53.8162E-03    -26.8004E-03    -27.0158E-03    -27.0084E-03     53.8087E-03    -26.8004E-03     1.55426E-03     54.2884E-03     196.879E+06    -67.0947E+06    -69.0364E+06    -264.937E+06    -68.3015E+06    -264.937E+06    -67.8299E+06    -165.968E+03
             272     59.9996E-03     42.6232E-09     59.9996E-03     53.8166E-03    -26.7895E-03    -27.0271E-03    -27.0191E-03     53.8086E-03    -26.7895E-03     1.60301E-03     54.2945E-03     196.641E+06    -67.0806E+06    -68.5674E+06    -264.460E+06    -67.8327E+06    -264.460E+06    -67.8158E+06    -23.6920E+03
             273     58.9458E-03     219.910E-09     58.9458E-03     53.8318E-03    -26.7768E-03    -27.0550E-03    -27.0467E-03     53.8234E-03    -26.7768E-03     1.64014E-03     54.2819E-03     197.762E+06    -66.2540E+06    -67.1171E+06    -264.445E+06    -67.1271E+06    -264.435E+06    -66.2540E+06    -834.865E+03
             274     59.4037E-03     16.5596E-03     57.0489E-03     52.6515E-03    -25.6430E-03    -27.0085E-03    -24.8986E-03     51.5368E-03    -26.6382E-03     11.9704E-03     97.9880E-03     187.094E+06     206.698E+06     103.018E+06    -6.78931E+06    -6.78889E+06     206.698E+06     103.018E+06     51.2093E+03
             275     59.1129E-03     15.5848E-03     57.0215E-03     53.1062E-03    -26.3261E-03    -26.7801E-03    -25.1767E-03     51.5865E-03    -26.4098E-03     21.2259E-03     109.543E-03     185.560E+06     195.130E+06     48.3811E+06    -12.1693E+06    -12.1683E+06     195.129E+06     48.3811E+06     10.4704E+03
             276     58.8466E-03     14.6098E-03     57.0041E-03     53.0034E-03    -26.2366E-03    -26.7668E-03    -25.5308E-03     51.8512E-03    -26.3204E-03     18.8449E-03     99.2504E-03     142.189E+06     136.940E+06     8.36627E+06    -15.3900E+06    -15.3839E+06     136.934E+06     8.36627E+06    -297.463E+03
             277     58.5910E-03     13.6354E-03     56.9822E-03     53.5609E-03    -26.3933E-03    -27.1676E-03    -25.8929E-03     52.2863E-03    -26.3933E-03     20.0619E-03     100.419E-03     60.6004E+06     47.5936E+06    -8.35982E+06    -16.2525E+06    -16.2425E+06     47.5836E+06    -8.35982E+06    -295.415E+03
             278     58.3518E-03     12.6609E-03     56.9617E-03     53.5940E-03    -26.5259E-03    -27.0681E-03    -26.1544E-03     52.6803E-03    -26.5259E-03     17.0038E-03     92.4624E-03     25.8525E+06     3.07370E+06    -13.0291E+06    -26.5166E+06    -16.9753E+06    -14.6110E+06    -4.88564E+06     66.0544E+03
             279     58.1331E-03     11.6870E-03     56.9462E-03     53.5643E-03    -26.6308E-03    -26.9335E-03    -26.2352E-03     52.8660E-03    -26.6308E-03     14.9189E-03     84.7088E-03     49.4124E+06    -472.033E+03    -18.4707E+06    -56.0717E+06    -18.4713E+06    -56.0711E+06    -472.033E+03     76.9693E+03
             280     57.9301E-03     10.7126E-03     56.9309E-03     53.5488E-03    -26.7111E-03    -26.8377E-03    -26.2460E-03     52.9700E-03    -26.7241E-03     13.5691E-03     77.9500E-03     81.5493E+06     3.72849E+06    -20.2807E+06    -87.1275E+06    -20.2830E+06    -87.1252E+06     3.72849E+06     303.925E+03
             281     57.7447E-03     9.73850E-03     56.9176E-03     53.6179E-03    -26.7860E-03    -26.8319E-03    -26.3260E-03     53.1326E-03    -26.8066E-03     12.4521E-03     72.7073E-03     106.839E+06     6.81018E+06    -22.9286E+06    -111.733E+06    -22.9308E+06    -111.730E+06     6.81018E+06     369.731E+03
             282     57.5759E-03     8.76444E-03     56.9049E-03     53.7188E-03    -26.8393E-03    -26.8794E-03    -26.4187E-03     53.2894E-03    -26.8707E-03     11.7251E-03     68.6330E-03     129.569E+06     6.22270E+06    -26.2290E+06    -136.481E+06    -26.2301E+06    -136.480E+06     6.22270E+06     300.905E+03
             283     57.4239E-03     7.79026E-03     56.8930E-03     53.8176E-03    -26.8793E-03    -26.9383E-03    -26.5161E-03     53.4456E-03    -26.9295E-03     10.9238E-03     65.1023E-03     150.181E+06     5.47969E+06    -30.0066E+06    -159.266E+06    -30.0078E+06    -159.264E+06     5.47969E+06     346.121E+03
             284     57.2888E-03     6.81644E-03     56.8818E-03     53.8483E-03    -26.8773E-03    -26.9711E-03    -26.5619E-03     53.5329E-03    -26.9711E-03     10.0619E-03     62.1907E-03     167.311E+06     1.65543E+06    -34.6138E+06    -180.799E+06    -34.6149E+06    -180.798E+06     1.65543E+06     382.502E+03
             285     57.1711E-03     5.84246E-03     56.8718E-03     53.8818E-03    -26.8833E-03    -26.9985E-03    -26.6192E-03     53.6177E-03    -26.9985E-03     9.21036E-03     59.8252E-03     182.082E+06    -5.52061E+06    -40.1554E+06    -202.423E+06    -40.1560E+06    -202.422E+06    -5.52061E+06     238.716E+03
             286     57.0705E-03     4.86867E-03     56.8624E-03     53.9292E-03    -26.9138E-03    -27.0154E-03    -26.7025E-03     53.7179E-03    -27.0154E-03     8.23697E-03     57.9427E-03     195.158E+06    -14.3675E+06    -46.0133E+06    -223.394E+06    -46.0137E+06    -223.393E+06    -14.3675E+06     153.964E+03
             287     56.9877E-03     3.89476E-03     56.8544E-03     53.9129E-03    -26.9057E-03    -27.0072E-03    -26.7493E-03     53.7565E-03    -27.0072E-03     7.07562E-03     56.4616E-03     202.515E+06    -26.8947E+06    -52.1908E+06    -240.835E+06    -52.1923E+06    -240.834E+06    -26.8947E+06     374.668E+03
             288     56.9225E-03     2.92106E-03     56.8475E-03     53.9007E-03    -26.9183E-03    -26.9824E-03    -26.8265E-03     53.8000E-03    -26.9735E-03     5.64259E-03     55.4605E-03     203.304E+06    -42.0052E+06    -58.2706E+06    -252.908E+06    -58.2721E+06    -252.907E+06    -42.0052E+06     230.215E+03
             289     56.8758E-03     1.94734E-03     56.8425E-03     53.8703E-03    -26.9144E-03    -26.9559E-03    -26.8946E-03     53.8199E-03    -26.9253E-03     3.93730E-03     54.7964E-03     201.711E+06    -55.0797E+06    -63.4105E+06    -260.810E+06    -63.4114E+06    -260.809E+06    -55.0797E+06     13.3618E+03
             290     56.8477E-03     973.771E-06     56.8393E-03     53.7650E-03    -26.8290E-03    -26.9359E-03    -26.9142E-03     53.7467E-03    -26.8325E-03     2.31334E-03     54.3279E-03     199.050E+06    -63.2111E+06    -67.3454E+06    -264.292E+06    -66.5749E+06    -264.289E+06    -63.9846E+06     547.193E+03
             291     58.3927E-03     16.5598E-03     55.9954E-03     52.7111E-03    -25.6851E-03    -27.0260E-03    -24.9415E-03     51.5770E-03    -26.6355E-03     11.9945E-03     97.9489E-03     187.377E+06     207.069E+06     103.616E+06    -6.79732E+06    -6.79701E+06     207.068E+06     103.616E+06    -39.2558E+03
             292     58.0964E-03     15.5846E-03     55.9671E-03     53.0520E-03    -26.2626E-03    -26.7894E-03    -25.1201E-03     51.5189E-03    -26.3988E-03     21.2782E-03     109.416E-03     185.748E+06     195.105E+06     47.2993E+06    -11.8039E+06    -11.8026E+06     195.104E+06     47.2993E+06     107.474E+03
             293     57.8266E-03     14.6099E-03     55.9506E-03     53.0180E-03    -26.1863E-03    -26.8317E-03    -25.5420E-03     51.8645E-03    -26.3224E-03     18.8506E-03     99.3071E-03     141.674E+06     137.233E+06     9.59931E+06    -15.0393E+06    -15.0191E+06     137.212E+06     9.59931E+06     255.413E+03
             294     57.5656E-03     13.6355E-03     55.9274E-03     53.6387E-03    -26.3975E-03    -27.2412E-03    -25.9693E-03     52.3668E-03    -26.3975E-03     20.0504E-03     100.483E-03     61.0472E+06     48.0875E+06    -6.37333E+06    -17.4553E+06    -17.4291E+06     48.0614E+06    -6.37333E+06     228.052E+03
             295     57.3242E-03     12.6614E-03     55.9084E-03     53.4484E-03    -26.5192E-03    -26.9292E-03    -26.0169E-03     52.5362E-03    -26.5192E-03     16.9740E-03     92.3210E-03     27.3559E+06     3.08561E+06    -14.2399E+06    -28.2316E+06    -18.5636E+06    -15.1754E+06    -5.64685E+06    -187.448E+03
             296     57.1003E-03     11.6866E-03     55.8916E-03     53.4970E-03    -26.6342E-03    -26.8628E-03    -26.1629E-03     52.7971E-03    -26.6342E-03     14.9136E-03     84.6917E-03     49.6076E+06    -516.394E+03    -19.2238E+06    -56.4609E+06    -19.2305E+06    -56.4542E+06    -516.394E+03    -162.609E+03
             297     56.8949E-03     10.7128E-03     55.8772E-03     53.6102E-03    -26.7134E-03    -26.8967E-03    -26.3105E-03     53.0369E-03    -26.7264E-03     13.5189E-03     78.0119E-03     81.3310E+06     3.74247E+06    -20.7229E+06    -87.0126E+06    -20.7249E+06    -87.0105E+06     3.74247E+06     110.172E+03
             298     56.7059E-03     9.73844E-03     55.8634E-03     53.6172E-03    -26.7928E-03    -26.8244E-03    -26.3259E-03     53.1323E-03    -26.8064E-03     12.4466E-03     72.6949E-03     106.912E+06     7.02256E+06    -22.9595E+06    -111.663E+06    -22.9617E+06    -111.661E+06     7.02256E+06     207.584E+03
             299     56.5344E-03     8.76431E-03     55.8510E-03     53.7610E-03    -26.8665E-03    -26.8945E-03    -26.4660E-03     53.3331E-03    -26.8671E-03     11.7124E-03     68.6788E-03     129.337E+06     6.54997E+06    -26.0644E+06    -135.967E+06    -26.0648E+06    -135.966E+06     6.54997E+06     188.465E+03
             300     56.3796E-03     7.79056E-03     55.8387E-03     53.8071E-03    -26.8581E-03    -26.9490E-03    -26.5165E-03     53.4389E-03    -26.9224E-03     10.8660E-03     65.0898E-03     150.207E+06     5.51066E+06    -30.2867E+06    -159.360E+06    -30.2870E+06    -159.360E+06     5.51066E+06     185.059E+03
             301     56.2425E-03     6.81645E-03     55.8279E-03     53.8001E-03    -26.8355E-03    -26.9646E-03    -26.5204E-03     53.4850E-03    -26.9646E-03     10.0549E-03     62.1414E-03     167.056E+06     1.43815E+06    -35.0762E+06    -180.839E+06    -35.0768E+06    -180.839E+06     1.43815E+06     273.821E+03
             302     56.1225E-03     5.84249E-03     55.8176E-03     53.8641E-03    -26.8690E-03    -26.9951E-03    -26.6018E-03     53.5968E-03    -26.9951E-03     9.26243E-03     59.7972E-03     181.749E+06    -5.66003E+06    -40.2056E+06    -202.190E+06    -40.2061E+06    -202.189E+06    -5.66003E+06     126.192E+03
             303     56.0204E-03     4.86857E-03     55.8084E-03     53.9215E-03    -26.9071E-03    -27.0144E-03    -26.6949E-03     53.7093E-03    -27.0144E-03     8.25310E-03     57.9308E-03     195.210E+06    -14.6019E+06    -46.1800E+06    -223.658E+06    -46.1803E+06    -223.658E+06    -14.6019E+06     45.9896E+03
             304     55.9361E-03     3.89486E-03     55.8003E-03     53.9313E-03    -26.9281E-03    -27.0032E-03    -26.7719E-03     53.7751E-03    -27.0032E-03     7.07287E-03     56.4866E-03     202.357E+06    -27.1400E+06    -52.3397E+06    -240.878E+06    -52.3411E+06    -240.877E+06    -27.1400E+06     333.164E+03
             305     55.8699E-03     2.92102E-03     55.7935E-03     53.8719E-03    -26.9006E-03    -26.9713E-03    -26.7999E-03     53.7712E-03    -26.9713E-03     5.64558E-03     55.4351E-03     203.164E+06    -41.9469E+06    -58.2383E+06    -252.727E+06    -58.2400E+06    -252.726E+06    -41.9469E+06     479.508E+03
             306     55.8223E-03     1.94734E-03     55.7884E-03     53.8331E-03    -26.8859E-03    -26.9472E-03    -26.8351E-03     53.7823E-03    -26.9472E-03     3.94737E-03     54.7580E-03     201.576E+06    -55.0650E+06    -63.0938E+06    -260.511E+06    -63.0947E+06     -260.51E+06    -55.0650E+06     233.952E+03
             307     55.7939E-03     973.547E-06     55.7854E-03     53.8521E-03    -26.8505E-03    -27.0017E-03    -26.9638E-03     53.8340E-03    -26.8701E-03     2.30514E-03     54.4232E-03     198.674E+06    -63.5841E+06    -66.4948E+06    -263.692E+06    -66.4525E+06    -263.688E+06    -63.6304E+06    -69.1750E+03
             308     57.3825E-03     16.5597E-03     54.9411E-03     52.7829E-03    -25.6982E-03    -27.0847E-03    -25.0087E-03     51.6475E-03    -26.6388E-03     12.0163E-03     98.0070E-03     187.827E+06     207.254E+06     104.324E+06    -7.21564E+06    -7.21496E+06     207.254E+06     104.324E+06    -222.582E+03
             309     57.0820E-03     15.5850E-03     54.9132E-03     53.1096E-03    -26.2677E-03    -26.8419E-03    -25.1895E-03     51.5855E-03    -26.3960E-03     21.2068E-03     109.433E-03     186.008E+06     194.991E+06     47.5782E+06    -12.2865E+06    -12.2855E+06     194.990E+06     47.5782E+06    -124.228E+03
             310     56.8073E-03     14.6099E-03     54.8964E-03     52.9549E-03    -26.1883E-03    -26.7666E-03    -25.4666E-03     51.7832E-03    -26.3166E-03     18.9386E-03     99.2078E-03     140.836E+06     136.471E+06     9.31768E+06    -14.6844E+06    -14.6699E+06     136.457E+06     9.31768E+06     514.787E+03
             311     56.5419E-03     13.6356E-03     54.8731E-03     53.5685E-03    -26.4019E-03    -27.1666E-03    -25.8691E-03     52.2711E-03    -26.4019E-03     20.2094E-03     100.458E-03     59.9795E+06     48.7110E+06    -5.06940E+06    -15.4763E+06    -15.4386E+06     48.6733E+06    -5.06940E+06     778.201E+03
             312     56.2967E-03     12.6611E-03     54.8545E-03     53.5408E-03    -26.5260E-03    -27.0148E-03    -26.0943E-03     52.6203E-03    -26.5260E-03     17.0793E-03     92.4678E-03     27.8932E+06     4.49679E+06    -12.5419E+06    -27.3929E+06    -16.7434E+06    -14.5112E+06    -4.18339E+06    -81.7410E+03
             313     56.0695E-03     11.6870E-03     54.8379E-03     53.5392E-03    -26.6344E-03    -26.9049E-03    -26.1940E-03     52.8284E-03    -26.6344E-03     15.0329E-03     84.7077E-03     50.1007E+06    -132.903E+03    -18.4951E+06    -56.6017E+06    -18.5036E+06    -56.5932E+06    -132.903E+03    -323.289E+03
             314     55.8595E-03     10.7125E-03     54.8226E-03     53.5921E-03    -26.7251E-03    -26.8670E-03    -26.3017E-03     53.0269E-03    -26.7251E-03     13.4159E-03     78.0138E-03     81.5542E+06     4.01469E+06    -20.1644E+06    -86.8946E+06    -20.1654E+06    -86.8936E+06     4.01469E+06    -190.572E+03
             315     55.6683E-03     9.73863E-03     54.8098E-03     53.6802E-03    -26.8018E-03    -26.8784E-03    -26.3948E-03     53.1966E-03    -26.8018E-03     12.4440E-03     72.7604E-03     106.950E+06     7.22139E+06    -22.6716E+06    -111.485E+06    -22.6723E+06    -111.484E+06     7.22139E+06    -35.7175E+03
             316     55.4930E-03     8.76457E-03     54.7964E-03     53.7377E-03    -26.8296E-03    -26.9081E-03    -26.4471E-03     53.3062E-03    -26.8591E-03     11.7525E-03     68.6319E-03     129.419E+06     6.54854E+06    -26.0187E+06    -136.033E+06    -26.0194E+06    -136.032E+06     6.54854E+06     266.020E+03
             317     55.3360E-03     7.79047E-03     54.7849E-03     53.7579E-03    -26.8227E-03    -26.9352E-03    -26.4733E-03     53.3906E-03    -26.9174E-03     10.8485E-03     65.0493E-03     150.461E+06     5.50073E+06    -29.9947E+06    -159.533E+06    -29.9953E+06    -159.533E+06     5.50073E+06     228.634E+03
             318     55.1963E-03     6.81644E-03     54.7738E-03     53.8006E-03    -26.8385E-03    -26.9621E-03    -26.5199E-03     53.4820E-03    -26.9621E-03     10.1120E-03     62.1344E-03     166.961E+06     1.56154E+06    -34.7979E+06    -180.569E+06     -34.798E+06    -180.569E+06     1.56154E+06     100.144E+03
             319     55.0744E-03     5.84252E-03     54.7636E-03     53.8615E-03    -26.8691E-03    -26.9924E-03    -26.6017E-03     53.5941E-03    -26.9924E-03     9.26303E-03     59.7926E-03     181.810E+06    -5.70749E+06    -40.2368E+06    -202.294E+06    -40.2371E+06    -202.293E+06    -5.70749E+06     85.3381E+03
             320     54.9704E-03     4.86862E-03     54.7543E-03     53.9066E-03    -26.8945E-03    -27.0122E-03    -26.6828E-03     53.6950E-03    -27.0122E-03     8.24366E-03     57.9142E-03     195.242E+06    -14.6995E+06    -46.1387E+06    -223.735E+06    -46.1392E+06    -223.734E+06    -14.6995E+06     77.2344E+03
             321     54.8845E-03     3.89475E-03     54.7462E-03     53.9230E-03    -26.9192E-03    -27.0038E-03    -26.7626E-03     53.7665E-03    -27.0038E-03     7.07724E-03     56.4770E-03     202.513E+06    -27.2216E+06    -52.4079E+06    -241.115E+06    -52.4090E+06    -241.114E+06    -27.2216E+06     239.109E+03
             322     54.8174E-03     2.92114E-03     54.7395E-03     53.8713E-03    -26.8968E-03    -26.9745E-03    -26.7968E-03     53.7713E-03    -26.9745E-03     5.62696E-03     55.4343E-03     203.201E+06    -41.8343E+06    -58.1220E+06    -252.647E+06    -58.1233E+06    -252.646E+06    -41.8343E+06     339.120E+03
             323     54.7691E-03     1.94722E-03     54.7344E-03     53.8307E-03    -26.8741E-03    -26.9566E-03    -26.8230E-03     53.7796E-03    -26.9566E-03     3.96677E-03     54.7612E-03     201.125E+06    -54.7224E+06    -62.7714E+06    -259.730E+06    -62.7740E+06    -259.727E+06    -54.7224E+06     530.946E+03
             324     54.7397E-03     973.636E-06     54.7311E-03     53.8803E-03    -26.8771E-03    -27.0032E-03    -26.9478E-03     53.8615E-03    -26.9137E-03     2.34529E-03     54.4640E-03     198.268E+06    -63.9505E+06    -66.3364E+06    -263.391E+06    -66.2830E+06    -263.383E+06    -64.0123E+06    -377.240E+03
             325     56.3739E-03     16.5596E-03     53.8869E-03     52.7697E-03    -25.6710E-03    -27.0987E-03    -24.9949E-03     51.6361E-03    -26.6413E-03     12.0623E-03     98.0657E-03     188.177E+06     207.453E+06     104.428E+06    -7.41508E+06    -7.41374E+06     207.451E+06     104.428E+06    -389.415E+03
             326     56.0685E-03     15.5848E-03     53.8590E-03     53.1583E-03    -26.3032E-03    -26.8551E-03    -25.2267E-03     51.6244E-03    -26.3977E-03     21.3180E-03     109.546E-03     186.264E+06     195.133E+06     47.6245E+06    -12.4626E+06    -12.4610E+06     195.131E+06     47.6245E+06    -367.609E+03
             327     55.7896E-03     14.6103E-03     53.8425E-03     52.9310E-03    -26.2106E-03    -26.7204E-03    -25.4408E-03     51.7459E-03    -26.3051E-03     19.0538E-03     99.1296E-03     140.970E+06     135.666E+06     6.67547E+06    -14.4981E+06    -14.4975E+06     135.666E+06     6.67547E+06    -114.738E+03
             328     55.5198E-03     13.6351E-03     53.8194E-03     53.4872E-03    -26.3958E-03    -27.0914E-03    -25.7857E-03     52.1815E-03    -26.3958E-03     20.2568E-03     100.353E-03     60.0342E+06     48.1808E+06    -7.38776E+06    -14.9123E+06    -14.8907E+06     48.1592E+06    -7.38776E+06     327.636E+03
             329     55.2697E-03     12.6608E-03     53.8001E-03     53.6010E-03    -26.5345E-03    -27.0666E-03    -26.1475E-03     52.6819E-03    -26.5345E-03     17.0673E-03     92.5434E-03     27.5399E+06     5.18972E+06    -11.3171E+06    -26.2726E+06    -15.5235E+06    -13.4509E+06    -3.42568E+06     602.395E+03
             330     55.0389E-03     11.6869E-03     53.7838E-03     53.6484E-03    -26.6359E-03    -27.0125E-03    -26.3057E-03     52.9417E-03    -26.6359E-03     15.0172E-03     84.8118E-03     50.0338E+06     272.826E+03    -17.4441E+06    -56.0198E+06    -17.4595E+06    -56.0044E+06     272.826E+03     125.729E+03
             331     54.8258E-03     10.7128E-03     53.7689E-03     53.6045E-03    -26.7219E-03    -26.8826E-03    -26.3104E-03     53.0322E-03    -26.7219E-03     13.5017E-03     78.0114E-03     81.7086E+06     4.01411E+06    -19.8744E+06    -86.9761E+06    -19.8755E+06    -86.9750E+06     4.01411E+06    -11.9356E+03
             332     54.6303E-03     9.73855E-03     53.7553E-03     53.6724E-03    -26.7975E-03    -26.8749E-03    -26.3857E-03     53.1832E-03    -26.7975E-03     12.5131E-03     72.7579E-03     106.823E+06     6.98208E+06    -22.6484E+06    -111.519E+06    -22.6491E+06    -111.518E+06     6.98208E+06     90.8261E+03
             333     54.4527E-03     8.76458E-03     53.7427E-03     53.7179E-03    -26.8198E-03    -26.8981E-03    -26.4260E-03     53.2826E-03    -26.8566E-03     11.8011E-03     68.6019E-03     129.463E+06     6.34580E+06    -25.8915E+06    -136.179E+06    -25.8919E+06    -136.179E+06     6.34580E+06     137.017E+03
             334     54.2925E-03     7.79043E-03     53.7307E-03     53.7571E-03    -26.8398E-03    -26.9172E-03    -26.4703E-03     53.3876E-03    -26.9172E-03     10.8809E-03     65.0476E-03     150.453E+06     5.65423E+06    -29.6260E+06    -159.304E+06    -29.6265E+06    -159.303E+06     5.65423E+06     170.372E+03
             335     54.1506E-03     6.81650E-03     53.7199E-03     53.8239E-03    -26.8626E-03    -26.9613E-03    -26.5459E-03     53.5072E-03    -26.9613E-03     10.0823E-03     62.1709E-03     167.151E+06     1.88270E+06    -34.4056E+06    -180.417E+06    -34.4060E+06    -180.416E+06     1.88270E+06     185.744E+03
             336     54.0263E-03     5.84251E-03     53.7095E-03     53.8570E-03    -26.8678E-03    -26.9892E-03    -26.6002E-03     53.5894E-03    -26.9892E-03     9.26903E-03     59.7907E-03     181.938E+06    -5.59277E+06    -40.1291E+06    -202.313E+06    -40.1296E+06    -202.312E+06    -5.59277E+06     258.618E+03
             337     53.9206E-03     4.86866E-03     53.7003E-03     53.8970E-03    -26.8889E-03    -27.0082E-03    -26.6758E-03     53.6840E-03    -27.0082E-03     8.26562E-03     57.9036E-03     195.212E+06    -14.8638E+06    -46.2623E+06    -223.851E+06    -46.2627E+06    -223.850E+06    -14.8638E+06     82.0758E+03
             338     53.8332E-03     3.89485E-03     53.6921E-03     53.8961E-03    -26.8915E-03    -27.0046E-03    -26.7357E-03     53.7403E-03    -27.0046E-03     7.05950E-03     56.4532E-03     202.795E+06    -27.2004E+06    -52.3674E+06    -241.372E+06    -52.3683E+06    -241.371E+06    -27.2004E+06     93.8541E+03
             339     53.7648E-03     2.92091E-03     53.6854E-03     53.8816E-03    -26.9011E-03    -26.9805E-03    -26.8017E-03     53.7822E-03    -26.9805E-03     5.60243E-03     55.4470E-03     203.383E+06    -41.2697E+06    -58.0925E+06    -252.505E+06    -58.0934E+06    -252.505E+06    -41.2697E+06     219.262E+03
             340     53.7157E-03     1.94740E-03     53.6804E-03     53.8535E-03    -26.9041E-03    -26.9494E-03    -26.8531E-03     53.8025E-03    -26.9494E-03     3.98100E-03     54.7946E-03     200.695E+06    -54.7711E+06    -62.9395E+06    -259.390E+06    -62.9420E+06    -259.388E+06    -54.7711E+06     505.775E+03
             341     53.6858E-03     973.560E-06     53.6770E-03     53.8496E-03    -26.8571E-03    -26.9925E-03    -26.9497E-03     53.8297E-03    -26.8800E-03     2.41939E-03     54.4420E-03     197.842E+06    -63.6741E+06    -65.8831E+06    -262.605E+06    -65.6537E+06    -262.598E+06    -63.9104E+06    -141.837E+03
             342     55.3672E-03     16.5597E-03     52.8328E-03     52.6612E-03    -25.6500E-03    -27.0112E-03    -24.8889E-03     51.5282E-03    -26.6393E-03     12.0048E-03     97.9573E-03     188.249E+06     207.619E+06     104.063E+06    -7.29237E+06    -7.29134E+06     207.618E+06     104.063E+06    -268.990E+03
             343     55.0567E-03     15.5847E-03     52.8049E-03     53.0486E-03    -26.2728E-03    -26.7758E-03    -25.1137E-03     51.5176E-03    -26.4039E-03     21.2588E-03     109.498E-03     186.206E+06     194.891E+06     47.2566E+06    -12.6863E+06    -12.6837E+06     194.888E+06     47.2566E+06    -605.999E+03
             344     54.7729E-03     14.6096E-03     52.7885E-03     53.0120E-03    -26.1834E-03    -26.8286E-03    -25.5181E-03     51.8326E-03    -26.3145E-03     19.0319E-03     99.2146E-03     141.532E+06     135.762E+06     6.59247E+06    -15.2227E+06    -15.2208E+06     135.761E+06     6.59247E+06    -393.428E+03
             345     54.4989E-03     13.6355E-03     52.7656E-03     53.6070E-03    -26.3964E-03    -27.2106E-03    -25.9102E-03     52.3066E-03    -26.3964E-03     20.2493E-03     100.394E-03     60.9134E+06     47.9258E+06    -8.09224E+06    -16.2948E+06    -16.2933E+06     47.9244E+06    -8.09224E+06     23.3275E+03
             346     54.2443E-03     12.6610E-03     52.7460E-03     53.5387E-03    -26.5319E-03    -27.0069E-03    -26.0882E-03     52.6201E-03    -26.5319E-03     17.0540E-03     92.4349E-03     27.2469E+06     4.37458E+06    -12.4035E+06    -26.8338E+06    -16.9525E+06    -13.6611E+06    -4.24921E+06     373.906E+03
             347     54.0091E-03     11.6867E-03     52.7295E-03     53.6136E-03    -26.6382E-03    -26.9755E-03    -26.2781E-03     52.9163E-03    -26.6382E-03     14.9013E-03     84.7787E-03     49.6994E+06     250.038E+03    -17.7793E+06    -55.6801E+06    -17.7978E+06    -55.6617E+06     250.038E+03     591.274E+03
             348     53.7923E-03     10.7127E-03     52.7148E-03     53.6508E-03    -26.7241E-03    -26.9267E-03    -26.3574E-03     53.0815E-03    -26.7241E-03     13.4855E-03     78.0616E-03     81.6620E+06     4.30861E+06    -19.7281E+06    -86.6734E+06    -19.7329E+06    -86.6686E+06     4.30861E+06     401.893E+03
             349     53.5937E-03     9.73860E-03     52.7014E-03     53.6398E-03    -26.7891E-03    -26.8506E-03    -26.3488E-03     53.1481E-03    -26.7993E-03     12.5360E-03     72.7140E-03     106.833E+06     7.19436E+06    -22.4745E+06    -111.323E+06    -22.4752E+06    -111.323E+06     7.19436E+06     203.811E+03
             350     53.4125E-03     8.76442E-03     52.6885E-03     53.7170E-03    -26.8427E-03    -26.8743E-03    -26.4248E-03     53.2850E-03    -26.8601E-03     11.7612E-03     68.6167E-03     129.428E+06     6.41951E+06    -25.8322E+06    -136.077E+06    -25.8325E+06    -136.077E+06     6.41951E+06     25.0076E+03
             351     53.2498E-03     7.79050E-03     52.6768E-03     53.7985E-03    -26.8771E-03    -26.9213E-03    -26.5079E-03     53.4262E-03    -26.9183E-03     10.9260E-03     65.0804E-03     150.244E+06     5.56967E+06    -29.8693E+06    -159.226E+06    -29.8695E+06    -159.226E+06     5.56967E+06     30.9602E+03
             352     53.1049E-03     6.81648E-03     52.6656E-03     53.8343E-03    -26.8736E-03    -26.9607E-03    -26.5577E-03     53.5184E-03    -26.9607E-03     10.0699E-03     62.1829E-03     167.509E+06     2.07512E+06    -34.4125E+06    -180.655E+06    -34.4136E+06    -180.654E+06     2.07512E+06     345.499E+03
             353     52.9788E-03     5.84259E-03     52.6557E-03     53.8548E-03    -26.8668E-03    -26.9880E-03    -26.5998E-03     53.5877E-03    -26.9880E-03     9.26196E-03     59.7945E-03     182.148E+06    -5.02467E+06    -39.7278E+06    -202.017E+06    -39.7290E+06    -202.015E+06    -5.02467E+06     394.968E+03
             354     52.8707E-03     4.86860E-03     52.6461E-03     53.8898E-03    -26.8815E-03    -27.0083E-03    -26.6679E-03     53.6762E-03    -27.0083E-03     8.27370E-03     57.9025E-03     195.741E+06    -14.2069E+06     -45.872E+06    -223.830E+06    -45.8723E+06    -223.830E+06    -14.2069E+06     181.510E+03
             355     52.7821E-03     3.89481E-03     52.6382E-03     53.8968E-03    -26.8932E-03    -27.0037E-03    -26.7383E-03     53.7420E-03    -27.0037E-03     7.03795E-03     56.4728E-03     203.051E+06    -26.8399E+06    -52.3539E+06    -241.410E+06    -52.3541E+06    -241.410E+06    -26.8399E+06     125.276E+03
             356     52.7123E-03     2.92111E-03     52.6313E-03     53.8755E-03    -26.9004E-03    -26.9751E-03    -26.8003E-03     53.7754E-03    -26.9751E-03     5.62884E-03     55.4556E-03     202.889E+06    -41.5836E+06    -58.6323E+06    -252.421E+06    -58.6327E+06    -252.421E+06    -41.5836E+06     76.9495E+03
             357     52.6623E-03     1.94724E-03     52.6263E-03     53.8733E-03    -26.9056E-03    -26.9676E-03    -26.8911E-03     53.8223E-03    -26.9311E-03     3.95344E-03     54.8164E-03     200.588E+06    -54.2964E+06    -63.0017E+06    -259.063E+06    -63.0041E+06    -259.060E+06    -54.2964E+06    -143.880E+03
             358     52.6320E-03     973.727E-06     52.6230E-03     53.7777E-03    -26.8005E-03    -26.9772E-03    -26.9558E-03     53.7588E-03    -26.8030E-03     2.37088E-03     54.3759E-03     197.813E+06    -63.3772E+06    -66.1323E+06    -262.542E+06    -65.9219E+06    -262.532E+06     -63.598E+06     314.214E+03
             359     54.3625E-03     16.5598E-03     51.7789E-03     52.6253E-03    -25.6599E-03    -26.9654E-03    -24.8527E-03     51.4873E-03    -26.6345E-03     11.9140E-03     97.8880E-03     188.340E+06     207.747E+06     103.454E+06    -7.19132E+06    -7.19076E+06     207.747E+06     103.454E+06     15.3574E+03
             360     54.0467E-03     15.5845E-03     51.7510E-03     52.9983E-03    -26.2633E-03    -26.7350E-03    -25.0685E-03     51.4726E-03    -26.4041E-03     21.1772E-03     109.445E-03     186.236E+06     194.934E+06     47.0075E+06    -12.7506E+06    -12.7488E+06     194.932E+06     47.0075E+06    -145.599E+03
             361     53.7578E-03     14.6098E-03     51.7345E-03     53.0102E-03    -26.1769E-03    -26.8333E-03    -25.5270E-03     51.8447E-03    -26.3177E-03     18.9104E-03     99.2528E-03     141.841E+06     135.645E+06     6.48136E+06    -15.8250E+06    -15.8198E+06     135.640E+06     6.48136E+06    -538.133E+03
             362     53.4785E-03     13.6352E-03     51.7111E-03     53.6599E-03    -26.3950E-03    -27.2649E-03    -25.9688E-03     52.3638E-03    -26.3950E-03     20.2329E-03     100.435E-03     61.2968E+06     47.8214E+06    -8.57832E+06    -16.7954E+06    -16.7909E+06     47.8169E+06    -8.57832E+06    -228.026E+03
             363     53.2203E-03     12.6611E-03     51.6923E-03     53.5780E-03    -26.5288E-03    -27.0492E-03    -26.1276E-03     52.6565E-03    -26.5288E-03     17.0909E-03     92.4399E-03     27.5240E+06     4.36125E+06    -12.7759E+06    -27.1766E+06    -17.3080E+06    -13.9551E+06    -4.32821E+06     170.101E+03
             364     52.9803E-03     11.6869E-03     51.6752E-03     53.5485E-03    -26.6366E-03    -26.9119E-03    -26.2117E-03     52.8483E-03    -26.6366E-03     14.9197E-03     84.7187E-03     49.6935E+06     299.333E+03    -18.3455E+06    -55.7522E+06    -18.3517E+06    -55.7460E+06     299.333E+03     363.492E+03
             365     52.7598E-03     10.7126E-03     51.6608E-03     53.6148E-03    -26.7259E-03    -26.8889E-03    -26.3268E-03     53.0527E-03    -26.7259E-03     13.3878E-03     78.0702E-03     81.3618E+06     4.48037E+06    -19.9935E+06    -86.3080E+06    -19.9984E+06    -86.3032E+06     4.48037E+06     365.436E+03
             366     52.5573E-03     9.73859E-03     51.6472E-03     53.6493E-03    -26.7914E-03    -26.8579E-03    -26.3617E-03     53.1633E-03    -26.8016E-03     12.4682E-03     72.7105E-03     106.632E+06     7.37580E+06    -22.5954E+06    -111.022E+06    -22.5962E+06    -111.021E+06     7.37580E+06     223.149E+03
             367     52.3732E-03     8.76448E-03     51.6347E-03     53.7199E-03    -26.8515E-03    -26.8684E-03    -26.4236E-03     53.2853E-03    -26.8617E-03     11.7948E-03     68.6116E-03     129.297E+06     6.49906E+06    -26.0127E+06    -135.942E+06    -26.0130E+06    -135.941E+06     6.49906E+06     90.0642E+03
             368     52.2070E-03     7.79041E-03     51.6224E-03     53.8038E-03    -26.8802E-03    -26.9237E-03    -26.5138E-03     53.4333E-03    -26.9196E-03     10.8997E-03     65.0912E-03     150.389E+06     5.53621E+06    -30.0444E+06    -159.452E+06    -30.0444E+06    -159.452E+06     5.53621E+06     33.3472E+03
             369     52.0600E-03     6.81651E-03     51.6118E-03     53.8350E-03    -26.8730E-03    -26.9620E-03    -26.5574E-03     53.5194E-03    -26.9620E-03     10.0679E-03     62.1756E-03     167.556E+06     2.12281E+06    -34.7332E+06    -180.781E+06    -34.7340E+06    -180.780E+06     2.12281E+06     132.913E+03
             370     51.9310E-03     5.84253E-03     51.6013E-03     53.8633E-03    -26.8743E-03    -26.9890E-03    -26.6069E-03     53.5959E-03    -26.9890E-03     9.26750E-03     59.8073E-03     182.015E+06    -4.67307E+06    -39.8679E+06    -201.702E+06    -39.8693E+06    -201.701E+06    -4.67307E+06     314.071E+03
             371     51.8216E-03     4.86873E-03     51.5923E-03     53.8851E-03    -26.8748E-03    -27.0103E-03    -26.6602E-03     53.6705E-03    -27.0103E-03     8.29819E-03     57.8965E-03     196.079E+06    -13.7010E+06    -45.8335E+06    -223.841E+06    -45.8355E+06    -223.839E+06    -13.7010E+06     506.841E+03
             372     51.7307E-03     3.89482E-03     51.5839E-03     53.9053E-03    -26.9021E-03    -27.0032E-03    -26.7455E-03     53.7487E-03    -27.0032E-03     7.07310E-03     56.4751E-03     202.892E+06    -26.7521E+06    -52.5882E+06    -241.290E+06    -52.5898E+06    -241.289E+06    -26.7521E+06     329.250E+03
             373     51.6602E-03     2.92101E-03     51.5775E-03     53.8994E-03    -26.9222E-03    -26.9772E-03    -26.8336E-03     53.7988E-03    -26.9652E-03     5.65166E-03     55.4760E-03     202.394E+06    -41.4395E+06    -58.5952E+06    -251.827E+06    -58.5959E+06    -251.827E+06    -41.4395E+06    -169.896E+03
             374     51.6087E-03     1.94742E-03     51.5720E-03     53.8427E-03    -26.8833E-03    -26.9594E-03    -26.8800E-03     53.7908E-03    -26.9108E-03     3.97890E-03     54.7939E-03     200.097E+06    -54.5654E+06    -63.8769E+06    -259.133E+06    -63.8806E+06    -259.129E+06    -54.5654E+06    -223.525E+03
             375     51.5781E-03     973.846E-06     51.5689E-03     53.7199E-03    -26.7807E-03    -26.9392E-03    -26.9059E-03     53.7020E-03    -26.7960E-03     2.27837E-03     54.3469E-03     196.957E+06    -64.6241E+06    -67.9366E+06    -263.203E+06    -67.9514E+06    -263.188E+06    -64.6241E+06     164.329E+03
             376     53.3597E-03     16.5597E-03     50.7251E-03     52.6897E-03    -25.6635E-03    -27.0262E-03    -24.9196E-03     51.5563E-03    -26.6367E-03     11.8617E-03     97.9521E-03     188.457E+06     207.972E+06     103.746E+06    -7.13244E+06    -7.13189E+06     207.972E+06     103.746E+06     12.9549E+03
             377     53.0385E-03     15.5847E-03     50.6971E-03     53.0553E-03    -26.2620E-03    -26.7933E-03    -25.1208E-03     51.5246E-03    -26.4038E-03     21.2663E-03     109.470E-03     186.194E+06     195.535E+06     47.7771E+06    -12.1132E+06    -12.1124E+06     195.534E+06     47.7771E+06     214.087E+03
             378     52.7440E-03     14.6099E-03     50.6802E-03     53.0095E-03    -26.1737E-03    -26.8358E-03    -25.5165E-03     51.8321E-03    -26.3155E-03     19.0220E-03     99.2677E-03     141.398E+06     135.925E+06     7.07975E+06    -15.0104E+06    -15.0054E+06     135.920E+06     7.07975E+06    -63.9119E+03
             379     52.4604E-03     13.6354E-03     50.6574E-03     53.6266E-03    -26.3937E-03    -27.2328E-03    -25.9440E-03     52.3378E-03    -26.3937E-03     20.1603E-03     100.457E-03     61.0679E+06     47.5138E+06    -8.45609E+06    -16.8849E+06    -16.8750E+06     47.5039E+06    -8.45609E+06    -276.433E+03
             380     52.1964E-03     12.6611E-03     50.6376E-03     53.5506E-03    -26.5280E-03    -27.0226E-03    -26.1096E-03     52.6376E-03    -26.5280E-03     17.0119E-03     92.4163E-03     27.7898E+06     4.01827E+06    -12.9149E+06    -27.8783E+06    -17.8039E+06    -14.4387E+06    -4.53228E+06    -68.8087E+03
             381     51.9533E-03     11.6869E-03     50.6218E-03     53.5737E-03    -26.6341E-03    -26.9396E-03    -26.2293E-03     52.8634E-03    -26.6341E-03     15.0380E-03     84.7457E-03     49.8407E+06    -128.264E+03    -18.6162E+06    -56.3168E+06    -18.6179E+06    -56.3151E+06    -128.264E+03     51.6907E+03
             382     51.7277E-03     10.7127E-03     50.6062E-03     53.5871E-03    -26.7121E-03    -26.8750E-03    -26.2981E-03     53.0225E-03    -26.7243E-03     13.4036E-03     78.0341E-03     81.2245E+06     4.27304E+06    -20.2622E+06    -86.3880E+06    -20.2628E+06    -86.3873E+06     4.27304E+06     83.1096E+03
             383     51.5223E-03     9.73855E-03     50.5935E-03     53.6453E-03    -26.7895E-03    -26.8558E-03    -26.3607E-03     53.1624E-03    -26.8017E-03     12.4300E-03     72.7216E-03     106.342E+06     7.42007E+06    -22.6916E+06    -110.715E+06    -22.6925E+06    -110.714E+06     7.42007E+06     173.313E+03
             384     51.3340E-03     8.76445E-03     50.5803E-03     53.7444E-03    -26.8492E-03    -26.8952E-03    -26.4480E-03     53.3091E-03    -26.8611E-03     11.8040E-03     68.6436E-03     129.293E+06     6.69168E+06    -25.9252E+06    -135.778E+06    -25.9255E+06    -135.778E+06     6.69168E+06     132.591E+03
             385     51.1652E-03     7.79052E-03     50.5687E-03     53.7692E-03    -26.8485E-03    -26.9207E-03    -26.4813E-03     53.4009E-03    -26.9196E-03     10.8658E-03     65.0564E-03     150.505E+06     5.66219E+06    -30.0483E+06    -159.485E+06    -30.0485E+06    -159.485E+06     5.66219E+06     128.883E+03
             386     51.0149E-03     6.81645E-03     50.5575E-03     53.8154E-03    -26.8514E-03    -26.9639E-03    -26.5337E-03     53.4976E-03    -26.9639E-03     10.0981E-03     62.1539E-03     167.269E+06     1.84450E+06    -34.9542E+06    -180.748E+06    -34.9545E+06    -180.747E+06     1.84450E+06     37.5878E+03
             387     50.8841E-03     5.84258E-03     50.5475E-03     53.8673E-03    -26.8739E-03    -26.9934E-03    -26.6049E-03     53.5983E-03    -26.9934E-03     9.29440E-03     59.8059E-03     181.706E+06    -5.15129E+06    -40.5827E+06    -201.954E+06    -40.5837E+06    -201.953E+06    -5.15129E+06     221.300E+03
             388     50.7720E-03     4.86858E-03     50.5381E-03     53.9064E-03    -26.8929E-03    -27.0135E-03    -26.6772E-03     53.6907E-03    -27.0135E-03     8.32077E-03     57.9113E-03     195.626E+06    -14.1473E+06    -46.6185E+06    -223.954E+06    -46.6207E+06    -223.952E+06    -14.1473E+06     521.304E+03
             389     50.6800E-03     3.89479E-03     50.5302E-03     53.9312E-03    -26.9315E-03    -26.9997E-03    -26.7736E-03     53.7733E-03    -26.9997E-03     7.10671E-03     56.4894E-03     202.077E+06    -27.0395E+06    -52.7089E+06    -240.687E+06    -52.7104E+06    -240.686E+06    -27.0395E+06     247.626E+03
             390     50.6074E-03     2.92112E-03     50.5230E-03     53.8931E-03    -26.9247E-03    -26.9684E-03    -26.8365E-03     53.7928E-03    -26.9563E-03     5.63382E-03     55.4692E-03     201.800E+06    -41.8023E+06    -58.7479E+06    -251.505E+06    -58.7486E+06    -251.504E+06    -41.8023E+06    -47.3911E+03
             391     50.5557E-03     1.94744E-03     50.5182E-03     53.7897E-03    -26.8617E-03    -26.9279E-03    -26.8222E-03     53.7381E-03    -26.9159E-03     3.98998E-03     54.7437E-03     200.044E+06    -55.3398E+06    -63.8274E+06    -259.458E+06    -63.8296E+06    -259.456E+06    -55.3398E+06     111.581E+03
             392     50.5242E-03     973.499E-06     50.5148E-03     53.7743E-03    -26.7978E-03    -26.9765E-03    -26.9218E-03     53.7558E-03    -26.8340E-03     2.29269E-03     54.3907E-03     197.023E+06    -64.6679E+06    -67.0910E+06    -262.884E+06    -67.0548E+06    -262.878E+06    -64.7104E+06    -460.720E+03
             393     52.3584E-03     16.5596E-03     49.6708E-03     52.6936E-03    -25.6241E-03    -27.0695E-03    -24.9481E-03     51.5908E-03    -26.6427E-03     11.9628E-03     98.0341E-03     188.642E+06     208.059E+06     104.139E+06    -7.32303E+06    -7.32218E+06     208.058E+06     104.139E+06    -248.486E+03
             394     52.0319E-03     15.5848E-03     49.6431E-03     53.1226E-03    -26.2880E-03    -26.8346E-03    -25.1991E-03     51.6068E-03    -26.4078E-03     21.2438E-03     109.539E-03     186.342E+06     195.578E+06     48.3346E+06    -12.4217E+06    -12.4199E+06     195.576E+06     48.3346E+06     70.2329E+03
             395     51.7322E-03     14.6097E-03     49.6264E-03     53.0368E-03    -26.1942E-03    -26.8426E-03    -25.5337E-03     51.8476E-03    -26.3139E-03     19.1416E-03     99.2160E-03     141.678E+06     136.266E+06     7.33606E+06    -15.0458E+06    -15.0437E+06     136.264E+06     7.33606E+06     538.265E+03
             396     51.4427E-03     13.6356E-03     49.6027E-03     53.5982E-03    -26.3912E-03    -27.2070E-03    -25.9153E-03     52.3065E-03    -26.3912E-03     20.1799E-03     100.427E-03     60.5682E+06     47.7151E+06    -8.23023E+06    -15.9999E+06    -15.9940E+06     47.7092E+06    -8.23023E+06     38.8439E+03
             397     51.1753E-03     12.6611E-03     49.5843E-03     53.5455E-03    -26.5273E-03    -27.0182E-03    -26.0980E-03     52.6253E-03    -26.5273E-03     17.0773E-03     92.4154E-03     27.1752E+06     3.80518E+06    -12.6525E+06    -27.3140E+06    -16.9335E+06    -14.7843E+06    -4.44351E+06    -251.708E+03
             398     50.9261E-03     11.6867E-03     49.5670E-03     53.5841E-03    -26.6332E-03    -26.9508E-03    -26.2464E-03     52.8797E-03    -26.6332E-03     14.9687E-03     84.7632E-03     50.1259E+06    -251.525E+03    -18.3612E+06    -56.6753E+06    -18.3620E+06    -56.6746E+06    -251.525E+03    -102.280E+03
             399     50.6975E-03     10.7128E-03     49.5527E-03     53.5746E-03    -26.7112E-03    -26.8634E-03    -26.2904E-03     53.0138E-03    -26.7234E-03     13.3658E-03     78.0095E-03     81.3239E+06     4.23423E+06    -20.1862E+06    -86.4995E+06    -20.1867E+06    -86.4990E+06     4.23423E+06    -33.6519E+03
             400     50.4873E-03     9.73849E-03     49.5391E-03     53.6501E-03    -26.7892E-03    -26.8609E-03    -26.3612E-03     53.1626E-03    -26.8014E-03     12.4890E-03     72.7414E-03     106.192E+06     7.48108E+06    -22.7758E+06    -110.539E+06    -22.7762E+06    -110.538E+06     7.48108E+06     133.580E+03
             401     50.2959E-03     8.76459E-03     49.5264E-03     53.7334E-03    -26.8397E-03    -26.8936E-03    -26.4378E-03     53.2981E-03    -26.8603E-03     11.8038E-03     68.6348E-03     129.251E+06     6.44743E+06    -26.0696E+06    -135.945E+06    -26.0700E+06    -135.945E+06     6.44743E+06     150.725E+03
             402     50.1236E-03     7.79044E-03     49.5145E-03     53.7537E-03    -26.8324E-03    -26.9213E-03    -26.4621E-03     53.3834E-03    -26.9213E-03     10.8914E-03     65.0292E-03     150.502E+06     5.69595E+06    -29.8638E+06    -159.401E+06    -29.8640E+06    -159.401E+06     5.69595E+06     133.543E+03
             403     49.9707E-03     6.81643E-03     49.5036E-03     53.8070E-03    -26.8382E-03    -26.9689E-03    -26.5188E-03     53.4877E-03    -26.9689E-03     10.1229E-03     62.1453E-03     167.317E+06     1.98405E+06    -34.7097E+06    -180.620E+06    -34.7106E+06    -180.619E+06     1.98405E+06     279.239E+03
             404     49.8369E-03     5.84241E-03     49.4933E-03     53.8892E-03    -26.8899E-03    -26.9993E-03    -26.6220E-03     53.6213E-03    -26.9993E-03     9.27367E-03     59.8334E-03     182.101E+06    -5.09617E+06    -40.4075E+06    -202.258E+06    -40.4087E+06    -202.257E+06    -5.09617E+06     226.529E+03
             405     49.7232E-03     4.86863E-03     49.4842E-03     53.9440E-03    -26.9300E-03    -27.0140E-03    -26.7173E-03     53.7314E-03    -27.0140E-03     8.26629E-03     57.9508E-03     195.499E+06    -14.0961E+06    -46.6067E+06    -223.791E+06    -46.6076E+06    -223.791E+06    -14.0961E+06     183.924E+03
             406     49.6288E-03     3.89485E-03     49.4758E-03     53.9184E-03    -26.9248E-03    -26.9937E-03    -26.7674E-03     53.7610E-03    -26.9937E-03     7.09722E-03     56.4839E-03     201.300E+06    -27.5792E+06    -53.0986E+06    -240.379E+06    -53.0992E+06    -240.379E+06    -27.5792E+06     282.489E+03
             407     49.5554E-03     2.92111E-03     49.4692E-03     53.8475E-03    -26.8930E-03    -26.9545E-03    -26.7925E-03     53.7469E-03    -26.9545E-03     5.63958E-03     55.4490E-03     200.690E+06    -43.0555E+06    -58.8645E+06    -251.136E+06    -58.8652E+06    -251.135E+06    -43.0555E+06     111.837E+03
             408     49.5024E-03     1.94727E-03     49.4641E-03     53.8111E-03    -26.8786E-03    -26.9326E-03    -26.8312E-03     53.7603E-03    -26.9291E-03     3.95184E-03     54.7702E-03     199.946E+06    -55.6033E+06    -63.1334E+06    -259.187E+06    -63.1342E+06    -259.186E+06    -55.6033E+06    -213.439E+03
             409     49.4706E-03     973.724E-06     49.4610E-03     53.8179E-03    -26.8306E-03    -26.9873E-03    -26.9475E-03     53.7990E-03    -26.8515E-03     2.36558E-03     54.4014E-03     197.859E+06    -64.0045E+06    -66.2694E+06    -262.978E+06    -66.2294E+06    -262.975E+06    -64.0470E+06    -95.3263E+03
             410     51.3588E-03     16.5594E-03     48.6160E-03     52.6142E-03    -25.6139E-03    -27.0003E-03    -24.8948E-03     51.5350E-03    -26.6402E-03     11.9033E-03     98.0290E-03     188.495E+06     207.720E+06     103.646E+06    -7.47049E+06    -7.46912E+06     207.719E+06     103.646E+06    -142.434E+03
             411     51.0276E-03     15.5846E-03     48.5895E-03     53.1637E-03    -26.3776E-03    -26.7862E-03    -25.2604E-03     51.6678E-03    -26.4075E-03     21.1350E-03     109.654E-03     186.198E+06     195.269E+06     48.3144E+06    -12.7312E+06    -12.7295E+06     195.267E+06     48.3144E+06    -161.075E+03
             412     50.7215E-03     14.6102E-03     48.5718E-03     53.0338E-03    -26.2827E-03    -26.7511E-03    -25.5519E-03     51.8646E-03    -26.3127E-03     18.9963E-03     99.2070E-03     141.929E+06     136.594E+06     7.88495E+06    -15.2396E+06    -15.2386E+06     136.593E+06     7.88495E+06     239.070E+03
             413     50.4277E-03     13.6352E-03     48.5493E-03     53.5106E-03    -26.3878E-03    -27.1228E-03    -25.8442E-03     52.2320E-03    -26.3878E-03     20.0744E-03     100.344E-03     60.7276E+06     47.7266E+06    -8.47080E+06    -16.1733E+06    -16.1715E+06     47.7247E+06    -8.47080E+06     168.360E+03
             414     50.1540E-03     12.6610E-03     48.5296E-03     53.5659E-03    -26.5261E-03    -27.0398E-03    -26.1166E-03     52.6427E-03    -26.5261E-03     17.0994E-03     92.4677E-03     27.0728E+06     3.83675E+06    -12.7202E+06    -27.1315E+06    -16.7686E+06    -14.7573E+06    -4.48916E+06     54.5244E+03
             415     49.9012E-03     11.6871E-03     48.5133E-03     53.5427E-03    -26.6336E-03    -26.9091E-03    -26.2049E-03     52.8385E-03    -26.6336E-03     14.9654E-03     84.7093E-03     49.9553E+06    -74.8713E+03    -18.1613E+06    -56.3115E+06    -18.1617E+06    -56.3110E+06    -74.8713E+03    -86.7484E+03
             416     49.6675E-03     10.7126E-03     48.4985E-03     53.5763E-03    -26.7252E-03    -26.8511E-03    -26.2793E-03     53.0045E-03    -26.7252E-03     13.4946E-03     77.9936E-03     81.2796E+06     3.99707E+06    -20.2035E+06    -86.6329E+06    -20.2038E+06    -86.6326E+06     3.99707E+06    -24.2841E+03
             417     49.4536E-03     9.73867E-03     48.4852E-03     53.6727E-03    -26.8037E-03    -26.8690E-03    -26.3763E-03     53.1800E-03    -26.8037E-03     12.5582E-03     72.7595E-03     106.405E+06     7.21518E+06    -22.8441E+06    -110.972E+06    -22.8444E+06    -110.972E+06     7.21518E+06     138.230E+03
             418     49.2583E-03     8.76437E-03     48.4723E-03     53.7176E-03    -26.8375E-03    -26.8801E-03    -26.4186E-03     53.2825E-03    -26.8639E-03     11.7987E-03     68.6174E-03     129.207E+06     6.50536E+06    -25.9538E+06    -135.825E+06    -25.9541E+06    -135.825E+06     6.50536E+06     121.930E+03
             419     49.0827E-03     7.79043E-03     48.4605E-03     53.7768E-03    -26.8517E-03    -26.9251E-03    -26.4824E-03     53.4075E-03    -26.9251E-03     10.8800E-03     65.0587E-03     150.405E+06     5.67796E+06    -29.9851E+06    -159.353E+06    -29.9853E+06    -159.352E+06     5.67796E+06     111.036E+03
             420     48.9267E-03     6.81640E-03     48.4495E-03     53.8365E-03    -26.8665E-03    -26.9700E-03    -26.5504E-03     53.5204E-03    -26.9700E-03     10.0737E-03     62.1834E-03     167.217E+06     2.09416E+06    -34.9001E+06    -180.508E+06    -34.9010E+06    -180.507E+06     2.09416E+06     246.454E+03
             421     48.7903E-03     5.84251E-03     48.4393E-03     53.8965E-03    -26.9005E-03    -26.9960E-03    -26.6340E-03     53.6300E-03    -26.9960E-03     9.25335E-03     59.8369E-03     181.910E+06    -5.05004E+06    -40.4514E+06    -202.047E+06    -40.4528E+06    -202.046E+06    -5.05004E+06     245.261E+03
             422     48.6740E-03     4.86867E-03     48.4299E-03     53.9355E-03    -26.9269E-03    -27.0086E-03    -26.7152E-03     53.7237E-03    -27.0086E-03     8.24345E-03     57.9434E-03     195.496E+06    -14.2260E+06    -46.5912E+06    -223.863E+06    -46.5925E+06    -223.862E+06    -14.2260E+06     132.510E+03
             423     48.5783E-03     3.89488E-03     48.4219E-03     53.8785E-03    -26.8859E-03    -26.9927E-03    -26.7299E-03     53.7226E-03    -26.9927E-03     7.06621E-03     56.4512E-03     201.366E+06    -27.5835E+06    -52.7015E+06    -240.283E+06    -52.7024E+06    -240.283E+06    -27.5835E+06     207.085E+03
             424     48.5031E-03     2.92098E-03     48.4151E-03     53.8444E-03    -26.8794E-03    -26.9649E-03    -26.7784E-03     53.7433E-03    -26.9649E-03     5.65016E-03     55.4371E-03     200.965E+06    -42.4264E+06    -58.1497E+06    -250.754E+06    -58.1505E+06    -250.753E+06    -42.4264E+06    -66.4593E+03
             425     48.4492E-03     1.94737E-03     48.4101E-03     53.8547E-03    -26.9134E-03    -26.9413E-03    -26.8660E-03     53.8038E-03    -26.9378E-03     3.95790E-03     54.7972E-03     200.201E+06    -54.9049E+06    -62.9441E+06    -258.984E+06    -62.9452E+06    -258.983E+06    -54.9049E+06    -154.244E+03
             426     48.4166E-03     973.623E-06     48.4068E-03     53.8154E-03    -26.8549E-03    -26.9605E-03    -26.9380E-03     53.7960E-03    -26.8580E-03     2.40917E-03     54.3877E-03     197.950E+06    -63.7518E+06    -66.4468E+06    -263.027E+06    -66.2438E+06    -263.024E+06    -63.9581E+06     91.1148E+03
             427     50.3635E-03     16.5600E-03     47.5631E-03     52.6875E-03    -25.6611E-03    -27.0264E-03    -24.9145E-03     51.5486E-03    -26.6341E-03     11.9422E-03     97.9528E-03     188.399E+06     208.043E+06     103.851E+06    -7.00596E+06    -7.00309E+06      208.04E+06     103.851E+06     292.879E+03
             428     50.0241E-03     15.5847E-03     47.5345E-03     53.1203E-03    -26.3085E-03    -26.8118E-03    -25.1844E-03     51.5854E-03    -26.4010E-03     21.2925E-03     109.551E-03     185.928E+06     195.000E+06     47.8058E+06    -12.5302E+06    -12.5271E+06     194.997E+06     47.8058E+06     4.14138E+03
             429     49.7134E-03     14.6100E-03     47.5181E-03     53.0278E-03    -26.2172E-03    -26.8106E-03    -25.5494E-03     51.8591E-03    -26.3097E-03     18.9538E-03     99.2433E-03     141.887E+06     136.286E+06     7.42825E+06    -15.4230E+06    -15.4219E+06     136.285E+06     7.42825E+06    -124.737E+03
             430     49.4139E-03     13.6357E-03     47.4953E-03     53.5560E-03    -26.3863E-03    -27.1697E-03    -25.8745E-03     52.2608E-03    -26.3863E-03     20.2056E-03     100.356E-03     61.0127E+06     47.9257E+06    -8.29446E+06    -16.3830E+06    -16.3774E+06     47.9201E+06    -8.29446E+06     354.824E+03
             431     49.1349E-03     12.6613E-03     47.4755E-03     53.4676E-03    -26.5262E-03    -26.9414E-03    -26.0108E-03     52.5369E-03    -26.5262E-03     17.1514E-03     92.3746E-03     27.2789E+06     3.57471E+06    -13.0128E+06    -27.6619E+06    -17.3034E+06    -15.0266E+06    -4.77004E+06     167.831E+03
             432     48.8771E-03     11.6865E-03     47.4594E-03     53.5212E-03    -26.6402E-03    -26.8810E-03    -26.1674E-03     52.8076E-03    -26.6402E-03     15.0562E-03     84.6578E-03     49.8751E+06    -37.4832E+03    -18.3534E+06    -56.2501E+06    -18.3549E+06    -56.2485E+06    -37.4832E+03    -144.488E+03
             433     48.6388E-03     10.7127E-03     47.4444E-03     53.6389E-03    -26.7315E-03    -26.9074E-03    -26.3324E-03     53.0639E-03    -26.7315E-03     13.5415E-03     78.0486E-03     81.3421E+06     4.11290E+06    -20.1656E+06    -86.6023E+06     -20.166E+06    -86.6019E+06     4.11290E+06    -91.1423E+03
             434     48.4204E-03     9.73835E-03     47.4310E-03     53.6865E-03    -26.8077E-03    -26.8787E-03    -26.3919E-03     53.1997E-03    -26.8077E-03     12.4813E-03     72.7949E-03     106.782E+06     7.36679E+06    -22.7116E+06    -111.218E+06    -22.7119E+06    -111.218E+06     7.36679E+06    -29.0578E+03
             435     48.2214E-03     8.76452E-03     47.4182E-03     53.7230E-03    -26.8334E-03    -26.8896E-03    -26.4272E-03     53.2950E-03    -26.8679E-03     11.7049E-03     68.6463E-03     129.261E+06     6.96286E+06    -25.9390E+06    -135.560E+06    -25.9404E+06    -135.559E+06     6.96286E+06     174.371E+03
             436     48.0423E-03     7.79036E-03     47.4065E-03     53.7887E-03    -26.8621E-03    -26.9266E-03    -26.4917E-03     53.4182E-03    -26.9266E-03     10.8991E-03     65.0740E-03     150.364E+06     5.72337E+06    -30.1605E+06    -159.335E+06    -30.1617E+06    -159.334E+06     5.72337E+06     242.542E+03
             437     47.8830E-03     6.81650E-03     47.3953E-03     53.8768E-03    -26.9104E-03    -26.9664E-03    -26.5933E-03     53.5598E-03    -26.9664E-03     10.0921E-03     62.2271E-03     167.089E+06     1.91462E+06    -35.0394E+06    -180.547E+06    -35.0397E+06    -180.546E+06     1.91462E+06     132.531E+03
             438     47.7441E-03     5.84256E-03     47.3853E-03     53.8901E-03    -26.9021E-03    -26.9880E-03    -26.6357E-03     53.6237E-03    -26.9880E-03     9.25499E-03     59.8173E-03     181.500E+06    -5.19681E+06    -40.5903E+06    -201.774E+06    -40.5911E+06    -201.774E+06    -5.19681E+06     180.187E+03
             439     47.6253E-03     4.86866E-03     47.3758E-03     53.8794E-03    -26.8744E-03    -27.0051E-03    -26.6628E-03     53.6678E-03    -27.0051E-03     8.23317E-03     57.8869E-03     195.519E+06    -14.4143E+06    -46.6106E+06    -224.010E+06    -46.6118E+06    -224.009E+06    -14.4143E+06    -103.431E+03
             440     47.5278E-03     3.89483E-03     47.3680E-03     53.8831E-03    -26.8864E-03    -26.9966E-03    -26.7313E-03     53.7279E-03    -26.9966E-03     7.05000E-03     56.4519E-03     201.497E+06    -27.1910E+06    -52.5989E+06    -240.149E+06    -52.5996E+06    -240.149E+06    -27.1910E+06    -187.535E+03
             441     47.4511E-03     2.92106E-03     47.3611E-03     53.8616E-03    -26.8954E-03    -26.9662E-03    -26.7942E-03     53.7604E-03    -26.9662E-03     5.65416E-03     55.4365E-03     201.005E+06    -42.0853E+06    -58.3205E+06    -250.672E+06    -58.3209E+06    -250.671E+06    -42.0853E+06    -79.3491E+03
             442     47.3960E-03     1.94727E-03     47.3559E-03     53.8440E-03    -26.9032E-03    -26.9408E-03    -26.8555E-03     53.7931E-03    -26.9376E-03     3.95919E-03     54.7671E-03     200.387E+06    -54.7042E+06    -62.9605E+06    -259.072E+06    -62.9617E+06    -259.071E+06    -54.7042E+06    -125.555E+03
             443     47.3628E-03     973.682E-06     47.3528E-03     53.8186E-03    -26.8717E-03    -26.9469E-03    -26.9249E-03     53.7997E-03    -26.8748E-03     2.35898E-03     54.3931E-03     197.925E+06    -63.1571E+06    -65.9977E+06    -262.478E+06    -65.6867E+06    -262.476E+06    -63.4705E+06    -183.544E+03
             444     49.3691E-03     16.5596E-03     46.5090E-03     52.7617E-03    -25.6920E-03    -27.0697E-03    -24.9657E-03     51.6036E-03    -26.6379E-03     12.0686E-03     97.9741E-03     188.501E+06     208.244E+06     104.591E+06    -6.96628E+06    -6.96398E+06     208.241E+06     104.591E+06     234.117E+03
             445     49.0237E-03     15.5849E-03     46.4804E-03     53.0766E-03    -26.2432E-03    -26.8334E-03    -25.1174E-03     51.5190E-03    -26.4016E-03     21.4340E-03     109.448E-03     185.740E+06     194.929E+06     47.7847E+06    -12.1744E+06    -12.1672E+06     194.922E+06     47.7847E+06     587.351E+03
             446     48.7070E-03     14.6098E-03     46.4643E-03     52.9984E-03    -26.1542E-03    -26.8442E-03    -25.5028E-03     51.8155E-03    -26.3126E-03     19.0611E-03     99.2057E-03     141.511E+06     135.764E+06     6.83926E+06    -15.3739E+06    -15.3683E+06     135.758E+06     6.83926E+06     437.040E+03
             447     48.4010E-03     13.6354E-03     46.4406E-03     53.6231E-03    -26.3938E-03    -27.2293E-03    -25.9282E-03     52.3220E-03    -26.3938E-03     20.2586E-03     100.443E-03     61.1219E+06     48.0134E+06    -7.93791E+06    -16.5970E+06    -16.5880E+06     48.0044E+06    -7.93791E+06     134.089E+03
             448     48.1179E-03     12.6609E-03     46.4223E-03     53.5090E-03    -26.5299E-03    -26.9791E-03    -26.0575E-03     52.5874E-03    -26.5299E-03     17.0753E-03     92.4091E-03     27.5949E+06     4.21205E+06    -12.4335E+06    -27.4203E+06    -17.0099E+06    -14.4740E+06    -4.15788E+06    -93.2056E+03
             449     47.8539E-03     11.6868E-03     46.4049E-03     53.5304E-03    -26.6403E-03    -26.8901E-03    -26.1874E-03     52.8277E-03    -26.6403E-03     14.9416E-03     84.6984E-03     50.2423E+06     72.0593E+03    -18.3174E+06    -56.5393E+06    -18.3200E+06    -56.5367E+06     72.0593E+03    -254.288E+03
             450     47.6113E-03     10.7125E-03     46.3905E-03     53.6281E-03    -26.7306E-03    -26.8974E-03    -26.3326E-03     53.0632E-03    -26.7306E-03     13.4220E-03     78.0701E-03     81.5737E+06     4.20962E+06    -20.3071E+06    -86.8076E+06    -20.3085E+06    -86.8061E+06     4.20962E+06    -261.614E+03
             451     47.3882E-03     9.73866E-03     46.3768E-03     53.6717E-03    -26.7951E-03    -26.8766E-03    -26.3857E-03     53.1918E-03    -26.8061E-03     12.3914E-03     72.7816E-03     106.878E+06     7.33027E+06    -22.8675E+06    -111.381E+06    -22.8678E+06    -111.381E+06     7.33027E+06    -127.064E+03
             452     47.1854E-03     8.76440E-03     46.3643E-03     53.7147E-03    -26.8389E-03    -26.8758E-03    -26.4220E-03     53.2887E-03    -26.8666E-03     11.6799E-03     68.6378E-03     129.463E+06     6.91712E+06    -26.0318E+06    -135.829E+06    -26.0330E+06    -135.828E+06     6.91712E+06     124.875E+03
             453     47.0024E-03     7.79044E-03     46.3523E-03     53.7935E-03    -26.8671E-03    -26.9265E-03    -26.4962E-03     53.4218E-03    -26.9256E-03     10.9179E-03     65.0773E-03     150.459E+06     6.02303E+06    -29.8043E+06    -159.114E+06    -29.8055E+06    -159.113E+06     6.02303E+06     239.202E+03
             454     46.8399E-03     6.81638E-03     46.3413E-03     53.8650E-03    -26.9001E-03    -26.9649E-03    -26.5807E-03     53.5456E-03    -26.9649E-03     10.1290E-03     62.2048E-03     167.202E+06     1.90439E+06    -34.7348E+06    -180.567E+06    -34.7351E+06    -180.567E+06     1.90439E+06     121.726E+03
             455     46.6979E-03     5.84262E-03     46.3310E-03     53.8890E-03    -26.9007E-03    -26.9883E-03    -26.6346E-03     53.6229E-03    -26.9883E-03     9.24468E-03     59.8233E-03     181.731E+06    -5.06488E+06    -40.1827E+06    -201.780E+06    -40.1829E+06    -201.779E+06    -5.06488E+06    -15.0168E+03
             456     46.5772E-03     4.86871E-03     46.3220E-03     53.8795E-03    -26.8735E-03    -27.0059E-03    -26.6616E-03     53.6676E-03    -27.0059E-03     8.24728E-03     57.8846E-03     195.479E+06    -14.2059E+06    -46.2745E+06    -223.716E+06    -46.2749E+06    -223.716E+06    -14.2059E+06    -177.926E+03
             457     46.4772E-03     3.89477E-03     46.3137E-03     53.8980E-03    -26.9024E-03    -26.9956E-03    -26.7461E-03     53.7417E-03    -26.9956E-03     7.06679E-03     56.4555E-03     201.331E+06    -27.2732E+06    -52.9537E+06    -240.180E+06    -52.9549E+06    -240.178E+06    -27.2732E+06    -328.830E+03
             458     46.3991E-03     2.92111E-03     46.3071E-03     53.8723E-03    -26.9100E-03    -26.9622E-03    -26.8154E-03     53.7726E-03    -26.9572E-03     5.61766E-03     55.4490E-03     200.584E+06    -42.2505E+06    -58.8936E+06    -250.592E+06    -58.8950E+06    -250.591E+06    -42.2505E+06    -55.9500E+03
             459     46.3428E-03     1.94736E-03     46.3019E-03     53.8077E-03    -26.8827E-03    -26.9249E-03    -26.8402E-03     53.7569E-03    -26.9167E-03     3.94458E-03     54.7581E-03     198.964E+06    -55.9584E+06    -63.9895E+06    -258.788E+06    -63.9907E+06    -258.787E+06    -55.9584E+06     76.3510E+03
             460     46.3088E-03     973.664E-06     46.2986E-03     53.7720E-03    -26.8263E-03    -26.9457E-03    -26.9151E-03     53.7538E-03    -26.8387E-03     2.31704E-03     54.3844E-03     196.308E+06    -65.2081E+06    -67.7233E+06    -262.754E+06    -67.6183E+06    -262.752E+06    -65.3152E+06    -267.720E+03
             461     48.3766E-03     16.5598E-03     45.4540E-03     52.6798E-03    -25.6553E-03    -27.0245E-03    -24.9313E-03     51.5753E-03    -26.6440E-03     11.9798E-03     98.0167E-03     188.523E+06     207.816E+06     104.706E+06    -7.48808E+06    -7.48800E+06     207.816E+06     104.706E+06     43.8198E+03
             462     48.0262E-03     15.5845E-03     45.4273E-03     53.1212E-03    -26.3309E-03    -26.7903E-03    -25.1876E-03     51.5973E-03    -26.4097E-03     21.3062E-03     109.530E-03     185.639E+06     194.698E+06     48.5948E+06    -12.6085E+06    -12.6031E+06     194.693E+06     48.5948E+06     670.422E+03
             463     47.7018E-03     14.6099E-03     45.4094E-03     52.9908E-03    -26.2385E-03    -26.7523E-03    -25.5162E-03     51.8335E-03    -26.3173E-03     18.9096E-03     99.2112E-03     141.012E+06     136.014E+06     7.94724E+06    -14.7913E+06    -14.7857E+06     136.009E+06     7.94724E+06     692.517E+03
             464     47.3913E-03     13.6353E-03     45.3873E-03     53.5466E-03    -26.3958E-03    -27.1508E-03    -25.8843E-03     52.2801E-03    -26.3958E-03     19.9986E-03     100.450E-03     60.8405E+06     48.4014E+06    -7.46271E+06    -15.8492E+06    -15.8426E+06     48.3947E+06    -7.46271E+06    -70.0559E+03
             465     47.1009E-03     12.6612E-03     45.3673E-03     53.5905E-03    -26.5292E-03    -27.0614E-03    -26.1425E-03     52.6716E-03    -26.5292E-03     17.0548E-03     92.4946E-03     27.5103E+06     4.50250E+06    -12.4857E+06    -27.0135E+06    -16.9001E+06    -14.0352E+06    -4.06136E+06    -143.588E+03
             466     46.8333E-03     11.6871E-03     45.3517E-03     53.5891E-03    -26.6328E-03    -26.9563E-03    -26.2506E-03     52.8833E-03    -26.6328E-03     15.0003E-03     84.7428E-03     50.0116E+06     38.0331E+03    -18.1438E+06    -56.2423E+06    -18.1461E+06    -56.2400E+06     38.0331E+03    -150.827E+03
             467     46.5844E-03     10.7127E-03     45.3359E-03     53.5689E-03    -26.6993E-03    -26.8696E-03    -26.2728E-03     52.9953E-03    -26.7224E-03     13.5054E-03     77.9876E-03     82.0285E+06     3.89803E+06    -19.9536E+06    -87.4076E+06    -19.9553E+06    -87.4058E+06     3.89803E+06    -234.094E+03
             468     46.3575E-03     9.73851E-03     45.3230E-03     53.6280E-03    -26.7693E-03    -26.8587E-03    -26.3439E-03     53.1473E-03    -26.8034E-03     12.3974E-03     72.7380E-03     107.212E+06     7.25878E+06    -22.5330E+06    -111.684E+06    -22.5337E+06    -111.683E+06     7.25878E+06    -144.410E+03
             469     46.1500E-03     8.76447E-03     45.3101E-03     53.7381E-03    -26.8531E-03    -26.8851E-03    -26.4439E-03     53.3087E-03    -26.8648E-03     11.7267E-03     68.6497E-03     129.581E+06     6.88595E+06    -25.7755E+06    -135.891E+06    -25.7755E+06    -135.891E+06     6.88595E+06    -2.12864E+03
             470     45.9634E-03     7.79045E-03     45.2983E-03     53.8006E-03    -26.8782E-03    -26.9225E-03    -26.5093E-03     53.4309E-03    -26.9216E-03     10.8901E-03     65.0858E-03     150.404E+06     5.93490E+06    -29.8530E+06    -159.134E+06    -29.8532E+06    -159.134E+06     5.93490E+06     120.991E+03
             471     45.7973E-03     6.81653E-03     45.2872E-03     53.8105E-03    -26.8480E-03    -26.9625E-03    -26.5290E-03     53.4915E-03    -26.9625E-03     10.1172E-03     62.1372E-03     166.847E+06     1.79779E+06    -34.5966E+06    -180.224E+06    -34.5971E+06    -180.223E+06     1.79779E+06     20.8757E+03
             472     45.6524E-03     5.84245E-03     45.2770E-03     53.8640E-03    -26.8714E-03    -26.9926E-03    -26.6054E-03     53.5979E-03    -26.9926E-03     9.24014E-03     59.8060E-03     181.842E+06    -5.34435E+06    -40.0381E+06    -202.025E+06    -40.0384E+06    -202.024E+06    -5.34435E+06    -167.729E+03
             473     45.5290E-03     4.86860E-03     45.2679E-03     53.9336E-03    -26.9235E-03    -27.0101E-03    -26.7120E-03     53.7221E-03    -27.0101E-03     8.24451E-03     57.9449E-03     195.420E+06    -14.0688E+06    -46.1152E+06    -223.512E+06    -46.1154E+06    -223.512E+06    -14.0688E+06     48.1674E+03
             474     45.4270E-03     3.89493E-03     45.2597E-03     53.9122E-03    -26.9203E-03    -26.9918E-03    -26.7636E-03     53.7554E-03    -26.9918E-03     7.08124E-03     56.4741E-03     201.241E+06    -27.3287E+06    -52.7785E+06    -240.046E+06    -52.7794E+06    -240.046E+06    -27.3287E+06    -33.1564E+03
             475     45.3472E-03     2.92105E-03     45.2530E-03     53.8624E-03    -26.9070E-03    -26.9554E-03    -26.8118E-03     53.7622E-03    -26.9504E-03     5.62925E-03     55.4496E-03     200.579E+06    -42.5579E+06    -59.1267E+06    -250.870E+06    -59.1281E+06    -250.868E+06    -42.5579E+06    -9.75759E+03
             476     45.2897E-03     1.94746E-03     45.2479E-03     53.8130E-03    -26.8811E-03    -26.9319E-03    -26.8596E-03     53.7622E-03    -26.9026E-03     3.95263E-03     54.7640E-03     198.746E+06    -55.6159E+06    -64.0330E+06    -258.409E+06    -64.0354E+06    -258.406E+06    -55.6159E+06     486.236E+03
             477     45.2552E-03     973.661E-06     45.2448E-03     53.7232E-03    -26.7655E-03    -26.9577E-03    -26.9274E-03     53.7052E-03    -26.7778E-03     2.27484E-03     54.3252E-03     196.308E+06    -65.0730E+06    -67.7176E+06    -262.679E+06    -67.7256E+06    -262.671E+06    -65.0730E+06    -390.143E+03
             478     47.3880E-03     16.5594E-03     44.4006E-03     52.7068E-03    -25.6273E-03    -27.0795E-03    -24.9389E-03     51.5827E-03    -26.6438E-03     11.9823E-03     98.0064E-03     188.197E+06     207.590E+06     104.722E+06    -7.38553E+06    -7.38453E+06     207.589E+06     104.722E+06     388.433E+03
             479     47.0299E-03     15.5848E-03     44.3726E-03     53.1974E-03    -26.3523E-03    -26.8451E-03    -25.2695E-03     51.6788E-03    -26.4093E-03     21.2099E-03     109.620E-03     185.470E+06     194.618E+06     49.0916E+06    -12.6686E+06    -12.6658E+06     194.616E+06     49.0916E+06     146.177E+03
             480     46.7000E-03     14.6101E-03     44.3558E-03     52.9911E-03    -26.2537E-03    -26.7374E-03    -25.5286E-03     51.8393E-03    -26.3107E-03     18.8111E-03     99.2177E-03     141.179E+06     136.125E+06     7.94873E+06    -14.8243E+06    -14.8217E+06     136.123E+06     7.94873E+06    -32.9179E+03
             481     46.3826E-03     13.6356E-03     44.3330E-03     53.5066E-03    -26.3888E-03    -27.1178E-03    -25.8364E-03     52.2252E-03    -26.3888E-03     20.0900E-03     100.384E-03     60.7588E+06     48.5341E+06    -7.59341E+06    -15.4185E+06    -15.4164E+06     48.5320E+06    -7.59341E+06     146.428E+03
             482     46.0869E-03     12.6609E-03     44.3137E-03     53.5369E-03    -26.5277E-03    -27.0092E-03    -26.0827E-03     52.6104E-03    -26.5277E-03     17.1235E-03     92.4472E-03     27.2804E+06     4.43211E+06    -12.1234E+06    -26.7936E+06    -16.3417E+06    -14.2006E+06    -3.94252E+06     94.3092E+03
             483     45.8126E-03     11.6867E-03     44.2969E-03     53.5992E-03    -26.6345E-03    -26.9646E-03    -26.2542E-03     52.8887E-03    -26.6345E-03     15.0425E-03     84.7309E-03     50.0359E+06     381.812E+03    -17.8244E+06    -55.9906E+06    -17.8259E+06    -55.9891E+06     381.812E+03    -31.8516E+03
             484     45.5598E-03     10.7129E-03     44.2824E-03     53.5880E-03    -26.7000E-03    -26.8881E-03    -26.2891E-03     53.0122E-03    -26.7231E-03     13.5431E-03     77.9955E-03     81.9575E+06     4.17417E+06    -19.7326E+06    -87.0751E+06    -19.7333E+06    -87.0744E+06     4.17417E+06    -71.0205E+03
             485     45.3272E-03     9.73849E-03     44.2687E-03     53.6253E-03    -26.7799E-03    -26.8454E-03    -26.3341E-03     53.1370E-03    -26.8029E-03     12.4908E-03     72.7195E-03     107.518E+06     7.12664E+06    -22.3614E+06    -112.047E+06    -22.3621E+06    -112.046E+06     7.12664E+06    -150.938E+03
             486     45.1156E-03     8.76448E-03     44.2561E-03     53.7645E-03    -26.8627E-03    -26.9018E-03    -26.4708E-03     53.3342E-03    -26.8633E-03     11.7435E-03     68.6792E-03     129.752E+06     6.73310E+06    -25.7286E+06    -136.158E+06    -25.7289E+06    -136.158E+06     6.73310E+06    -24.3941E+03
             487     44.9248E-03     7.79049E-03     44.2441E-03     53.7953E-03    -26.8668E-03    -26.9285E-03    -26.5077E-03     53.4262E-03    -26.9185E-03     10.8800E-03     65.0734E-03     150.298E+06     5.93213E+06    -29.6521E+06    -158.964E+06    -29.6524E+06    -158.964E+06     5.93213E+06     50.3830E+03
             488     44.7554E-03     6.81648E-03     44.2332E-03     53.7991E-03    -26.8387E-03    -26.9604E-03    -26.5219E-03     53.4822E-03    -26.9604E-03     10.0821E-03     62.1384E-03     166.808E+06     1.93768E+06    -34.2834E+06    -179.986E+06    -34.2839E+06    -179.986E+06     1.93768E+06    -32.1336E+03
             489     44.6073E-03     5.84248E-03     44.2230E-03     53.8474E-03    -26.8559E-03    -26.9915E-03    -26.5905E-03     53.5820E-03    -26.9915E-03     9.22687E-03     59.7877E-03     181.938E+06    -5.51079E+06    -39.9614E+06    -202.201E+06    -39.9617E+06    -202.201E+06    -5.51079E+06    -104.875E+03
             490     44.4809E-03     4.86866E-03     44.2136E-03     53.9180E-03    -26.9054E-03    -27.0126E-03    -26.6945E-03     53.7071E-03    -27.0126E-03     8.22932E-03     57.9314E-03     195.534E+06    -14.3022E+06    -46.3053E+06    -223.848E+06    -46.3055E+06    -223.848E+06    -14.3022E+06     37.8590E+03
             491     44.3770E-03     3.89480E-03     44.2058E-03     53.9289E-03    -26.9323E-03    -26.9966E-03    -26.7752E-03     53.7718E-03    -26.9966E-03     7.09525E-03     56.4970E-03     201.165E+06    -27.0708E+06    -52.6774E+06    -239.774E+06    -52.6777E+06    -239.774E+06    -27.0708E+06     231.991E+03
             492     44.2953E-03     2.92115E-03     44.1989E-03     53.8715E-03    -26.9152E-03    -26.9564E-03    -26.8143E-03     53.7707E-03    -26.9564E-03     5.64408E-03     55.4509E-03     201.190E+06    -41.9716E+06    -58.6248E+06    -250.932E+06    -58.6251E+06    -250.932E+06    -41.9716E+06     68.2028E+03
             493     44.2368E-03     1.94728E-03     44.1939E-03     53.8213E-03    -26.8836E-03    -26.9376E-03    -26.8565E-03     53.7698E-03    -26.9133E-03     3.99261E-03     54.7442E-03     199.698E+06    -54.7687E+06    -63.1091E+06    -258.475E+06    -63.1112E+06    -258.473E+06    -54.7687E+06     97.4833E+03
             494     44.2012E-03     973.868E-06     44.1904E-03     53.7566E-03    -26.7964E-03    -26.9602E-03    -26.9311E-03     53.7380E-03    -26.8069E-03     2.27799E-03     54.3318E-03     197.171E+06    -63.3653E+06    -65.8585E+06    -261.760E+06    -65.6356E+06    -261.752E+06    -63.5957E+06    -501.998E+03
             495     46.4024E-03     16.5599E-03     43.3469E-03     52.7937E-03    -25.6736E-03    -27.1202E-03    -24.9665E-03     51.6094E-03    -26.6429E-03     12.1530E-03     98.0111E-03     187.835E+06     207.682E+06     104.940E+06    -6.81071E+06    -6.80850E+06     207.680E+06     104.940E+06     526.085E+03
             496     46.0361E-03     15.5848E-03     43.3178E-03     53.1753E-03    -26.2896E-03    -26.8857E-03    -25.2016E-03     51.6100E-03    -26.4085E-03     21.4362E-03     109.583E-03     185.282E+06     194.985E+06     49.0811E+06    -11.9104E+06    -11.9073E+06     194.982E+06     49.0811E+06     140.989E+03
             497     45.7005E-03     14.6101E-03     43.3022E-03     53.0279E-03    -26.1927E-03    -26.8352E-03    -25.5376E-03     51.8492E-03    -26.3116E-03     18.9921E-03     99.2348E-03     141.166E+06     135.887E+06     7.40321E+06    -14.8673E+06    -14.8657E+06     135.886E+06     7.40321E+06    -272.957E+03
             498     45.3758E-03     13.6353E-03     43.2787E-03     53.6186E-03    -26.3883E-03    -27.2304E-03    -25.9298E-03     52.3181E-03    -26.3883E-03     20.2328E-03     100.454E-03     60.9741E+06     48.2858E+06    -7.88034E+06    -15.9136E+06    -15.9126E+06     48.2847E+06    -7.88034E+06    -9.98352E+03
             499     45.0746E-03     12.6613E-03     43.2599E-03     53.5093E-03    -26.5245E-03    -26.9848E-03    -26.0695E-03     52.5940E-03    -26.5245E-03     17.0336E-03     92.4172E-03     27.4391E+06     4.36743E+06    -11.9782E+06    -27.0666E+06    -16.4955E+06    -14.1911E+06    -3.99070E+06     70.0113E+03
             500     44.7942E-03     11.6869E-03     43.2428E-03     53.5103E-03    -26.6353E-03    -26.8751E-03    -26.1642E-03     52.7995E-03    -26.6353E-03     15.0226E-03     84.6603E-03     50.4180E+06     208.369E+03    -17.7389E+06    -56.5194E+06    -17.7398E+06    -56.5185E+06     208.369E+03     86.2119E+03
             501     44.5358E-03     10.7125E-03     43.2282E-03     53.6135E-03    -26.7278E-03    -26.8858E-03    -26.3168E-03     53.0446E-03    -26.7278E-03     13.4690E-03     78.0490E-03     81.8970E+06     4.48660E+06    -19.6539E+06    -86.7649E+06    -19.6540E+06    -86.7649E+06     4.48660E+06     21.7382E+03
             502     44.2985E-03     9.73859E-03     43.2148E-03     53.6890E-03    -26.8022E-03    -26.8868E-03    -26.3978E-03     53.2000E-03    -26.8022E-03     12.5123E-03     72.7541E-03     107.295E+06     7.25731E+06    -22.2565E+06    -111.687E+06    -22.2569E+06    -111.687E+06     7.25731E+06    -104.346E+03
             503     44.0819E-03     8.76445E-03     43.2019E-03     53.7358E-03    -26.8406E-03    -26.8952E-03    -26.4460E-03     53.3066E-03    -26.8606E-03     11.7215E-03     68.6538E-03     130.126E+06     6.69817E+06    -25.4517E+06    -136.484E+06    -25.4523E+06    -136.484E+06     6.69817E+06    -152.711E+03
             504     43.8871E-03     7.79051E-03     43.1901E-03     53.7821E-03    -26.8542E-03    -26.9279E-03    -26.4973E-03     53.4153E-03    -26.9179E-03     10.8458E-03     65.0738E-03     150.374E+06     6.02196E+06    -29.4038E+06    -158.901E+06    -29.4041E+06    -158.901E+06     6.02196E+06    -74.9731E+03
             505     43.7139E-03     6.81646E-03     43.1792E-03     53.8205E-03    -26.8608E-03    -26.9596E-03    -26.5453E-03     53.5050E-03    -26.9596E-03     10.0633E-03     62.1659E-03     167.011E+06     2.09155E+06    -34.3252E+06    -180.110E+06    -34.3256E+06    -180.110E+06     2.09155E+06     74.4297E+03
             506     43.5625E-03     5.84264E-03     43.1689E-03     53.8375E-03    -26.8485E-03    -26.9890E-03    -26.5820E-03     53.5710E-03    -26.9890E-03     9.24965E-03     59.7722E-03     181.993E+06    -5.36207E+06    -39.9364E+06    -202.148E+06    -39.9367E+06    -202.148E+06    -5.36207E+06     145.421E+03
             507     43.4335E-03     4.86857E-03     43.1598E-03     53.8863E-03    -26.8739E-03    -27.0125E-03    -26.6595E-03     53.6719E-03    -27.0125E-03     8.29338E-03     57.8924E-03     195.605E+06    -14.5425E+06    -46.1569E+06    -224.013E+06    -46.1572E+06    -224.013E+06    -14.5425E+06    -57.7150E+03
             508     43.3269E-03     3.89481E-03     43.1514E-03     53.9289E-03    -26.9240E-03    -27.0049E-03    -26.7674E-03     53.7723E-03    -27.0049E-03     7.07653E-03     56.4894E-03     201.579E+06    -26.7238E+06    -52.3819E+06    -239.871E+06    -52.3824E+06    -239.871E+06    -26.7238E+06    -60.7044E+03
             509     43.2437E-03     2.92102E-03     43.1450E-03     53.8890E-03    -26.9189E-03    -26.9701E-03    -26.8193E-03     53.7894E-03    -26.9701E-03     5.61589E-03     55.4490E-03     201.802E+06    -40.9601E+06    -57.9726E+06    -250.689E+06    -57.9729E+06    -250.689E+06    -40.9601E+06     4.82745E+03
             510     43.1837E-03     1.94745E-03     43.1397E-03     53.8138E-03    -26.8743E-03    -26.9395E-03    -26.8224E-03     53.7619E-03    -26.9395E-03     4.00771E-03     54.7363E-03     199.753E+06    -54.6178E+06    -62.7215E+06    -258.264E+06    -62.7229E+06    -258.262E+06    -54.6178E+06    -365.450E+03
             511     43.1477E-03     973.414E-06     43.1367E-03     53.8388E-03    -26.8628E-03    -26.9760E-03    -26.9152E-03     53.8196E-03    -26.9044E-03     2.34166E-03     54.4284E-03     196.827E+06    -63.5738E+06    -66.0354E+06    -261.615E+06    -65.4794E+06    -261.611E+06    -64.1339E+06    -212.224E+03
             512     45.4187E-03     16.5595E-03     42.2923E-03     52.7137E-03    -25.6922E-03    -27.0215E-03    -24.9195E-03     51.5595E-03    -26.6400E-03     12.0411E-03     97.9708E-03     187.668E+06     207.373E+06     104.373E+06    -6.83832E+06    -6.83659E+06     207.371E+06     104.373E+06     141.978E+03
             513     45.0461E-03     15.5845E-03     42.2644E-03     53.0339E-03    -26.2420E-03    -26.7918E-03    -25.0773E-03     51.4876E-03    -26.4103E-03     21.3228E-03     109.445E-03     185.359E+06     194.997E+06     48.4858E+06    -11.8729E+06    -11.8709E+06     194.995E+06     48.4858E+06     232.344E+03
             514     44.7024E-03     14.6095E-03     42.2477E-03     53.0709E-03    -26.1510E-03    -26.9199E-03    -25.5765E-03     51.8957E-03    -26.3192E-03     19.0083E-03     99.2754E-03     141.051E+06     135.907E+06     7.39129E+06    -14.6291E+06    -14.6286E+06     135.906E+06     7.39129E+06     70.9014E+03
             515     44.3718E-03     13.6356E-03     42.2247E-03     53.6968E-03    -26.3915E-03    -27.3053E-03    -26.0181E-03     52.4095E-03    -26.3915E-03     20.1601E-03     100.522E-03     60.8774E+06     48.0755E+06    -8.13109E+06    -15.9481E+06    -15.9472E+06     48.0746E+06    -8.13109E+06    -67.8013E+03
             516     44.0637E-03     12.6611E-03     42.2055E-03     53.5356E-03    -26.5238E-03    -27.0118E-03    -26.0930E-03     52.6168E-03    -26.5238E-03     17.0738E-03     92.4211E-03     27.4776E+06     4.39873E+06    -12.2958E+06    -27.0715E+06    -16.7885E+06    -13.9950E+06    -4.18507E+06     44.6132E+03
             517     43.7780E-03     11.6869E-03     42.1893E-03     53.5466E-03    -26.6317E-03    -26.9149E-03    -26.1987E-03     52.8305E-03    -26.6317E-03     15.0844E-03     84.6814E-03     50.1795E+06    -38.9047E+03    -17.8786E+06    -56.4529E+06    -17.8795E+06    -56.4520E+06    -38.9047E+03     26.3915E+03
             518     43.5132E-03     10.7126E-03     42.1739E-03     53.6008E-03    -26.7231E-03    -26.8778E-03    -26.3139E-03     53.0373E-03    -26.7234E-03     13.3993E-03     78.0319E-03     82.0227E+06     4.33292E+06    -19.6410E+06    -87.0035E+06    -19.6412E+06    -87.0032E+06     4.33292E+06    -18.3839E+03
             519     43.2709E-03     9.73859E-03     42.1607E-03     53.6654E-03    -26.7991E-03    -26.8662E-03    -26.3830E-03     53.1824E-03    -26.7994E-03     12.4332E-03     72.7629E-03     107.103E+06     7.50027E+06    -22.2563E+06    -111.320E+06    -22.2566E+06    -111.320E+06     7.50027E+06    -12.6599E+03
             520     43.0495E-03     8.76462E-03     42.1478E-03     53.7134E-03    -26.8345E-03    -26.8789E-03    -26.4239E-03     53.2821E-03    -26.8582E-03     11.7474E-03     68.6160E-03     129.913E+06     6.59711E+06    -25.5745E+06    -136.370E+06    -25.5752E+06    -136.370E+06     6.59711E+06    -200.532E+03
             521     42.8503E-03     7.79041E-03     42.1361E-03     53.7687E-03    -26.8512E-03    -26.9176E-03    -26.4822E-03     53.3998E-03    -26.9176E-03     10.8746E-03     65.0598E-03     150.506E+06     5.73379E+06    -29.6626E+06    -159.316E+06    -29.6631E+06    -159.315E+06     5.73379E+06    -148.277E+03
             522     42.6729E-03     6.81658E-03     42.1249E-03     53.8133E-03    -26.8516E-03    -26.9618E-03    -26.5349E-03     53.4967E-03    -26.9618E-03     10.0803E-03     62.1580E-03     167.095E+06     2.00271E+06    -34.5517E+06    -180.328E+06    -34.5519E+06    -180.328E+06     2.00271E+06     110.828E+03
             523     42.5184E-03     5.84245E-03     42.1151E-03     53.8537E-03    -26.8616E-03    -26.9921E-03    -26.5941E-03     53.5862E-03    -26.9921E-03     9.26773E-03     59.7887E-03     181.880E+06    -5.05394E+06    -40.0106E+06    -201.865E+06    -40.0108E+06    -201.865E+06    -5.05394E+06     160.501E+03
             524     42.3861E-03     4.86865E-03     42.1056E-03     53.8984E-03    -26.8858E-03    -27.0126E-03    -26.6709E-03     53.6836E-03    -27.0126E-03     8.30296E-03     57.9024E-03     195.538E+06    -14.3407E+06    -46.0714E+06    -223.778E+06    -46.0717E+06    -223.778E+06    -14.3407E+06    -52.8438E+03
             525     42.2774E-03     3.89479E-03     42.0976E-03     53.8969E-03    -26.8923E-03    -27.0046E-03    -26.7349E-03     53.7395E-03    -27.0046E-03     7.09326E-03     56.4567E-03     201.538E+06    -27.4903E+06    -52.3964E+06    -240.288E+06    -52.3972E+06    -240.287E+06    -27.4903E+06    -345.956E+03
             526     42.1919E-03     2.92107E-03     42.0907E-03     53.8796E-03    -26.9006E-03    -26.9790E-03    -26.8007E-03     53.7798E-03    -26.9790E-03     5.61810E-03     55.4547E-03     201.185E+06    -41.7364E+06    -58.0463E+06    -250.543E+06    -58.0475E+06    -250.542E+06    -41.7364E+06    -377.348E+03
             527     42.1309E-03     1.94718E-03     42.0859E-03     53.8578E-03    -26.8952E-03    -26.9625E-03    -26.8507E-03     53.8070E-03    -26.9563E-03     3.95985E-03     54.7984E-03     199.688E+06    -54.1978E+06    -62.8679E+06    -258.060E+06    -62.8694E+06    -258.058E+06    -54.1978E+06    -340.384E+03
             528     42.0937E-03     973.727E-06     42.0824E-03     53.8577E-03    -26.8662E-03    -26.9915E-03    -26.9414E-03     53.8387E-03    -26.8973E-03     2.35992E-03     54.4565E-03     196.901E+06    -63.6859E+06    -67.0891E+06    -262.259E+06    -66.7631E+06    -262.255E+06    -64.0156E+06     288.904E+03
             529     44.4390E-03     16.5599E-03     41.2382E-03     52.6857E-03    -25.6906E-03    -26.9951E-03    -24.9386E-03     51.5732E-03    -26.6346E-03     11.8648E-03     97.9655E-03     187.550E+06     207.075E+06     103.875E+06    -6.97868E+06    -6.97779E+06     207.074E+06     103.875E+06    -114.792E+03
             530     44.0591E-03     15.5848E-03     41.2107E-03     53.0142E-03    -26.2468E-03    -26.7674E-03    -25.0979E-03     51.5048E-03    -26.4069E-03     21.1205E-03     109.414E-03     185.227E+06     194.855E+06     48.6825E+06    -12.0607E+06    -12.0598E+06     194.854E+06     48.6825E+06     117.978E+03
             531     43.7076E-03     14.6099E-03     41.1935E-03     52.9637E-03    -26.1599E-03    -26.8038E-03    -25.4671E-03     51.7871E-03    -26.3200E-03     18.9969E-03     99.1872E-03     140.958E+06     135.808E+06     7.85680E+06    -14.8853E+06    -14.8835E+06     135.806E+06     7.85680E+06     371.116E+03
             532     43.3695E-03     13.6353E-03     41.1703E-03     53.6290E-03    -26.3964E-03    -27.2326E-03    -25.9490E-03     52.3454E-03    -26.3964E-03     20.1106E-03     100.505E-03     60.8621E+06     48.0495E+06    -7.96703E+06    -16.0168E+06    -16.0150E+06     48.0478E+06    -7.96703E+06     199.953E+03
             533     43.0556E-03     12.6610E-03     41.1519E-03     53.6252E-03    -26.5281E-03    -27.0971E-03    -26.1930E-03     52.7210E-03    -26.5281E-03     16.9473E-03     92.5484E-03     27.4314E+06     4.67995E+06    -12.1839E+06    -26.7888E+06    -16.8470E+06    -13.6616E+06    -3.78417E+06    -18.0450E+03
             534     42.7626E-03     11.6869E-03     41.1347E-03     53.5892E-03    -26.6282E-03    -26.9610E-03    -26.2547E-03     52.8829E-03    -26.6282E-03     14.9979E-03     84.7240E-03     49.7971E+06     1.98188E+03    -18.3501E+06    -56.0955E+06    -18.3505E+06    -56.0950E+06     1.98188E+03    -85.9774E+03
             535     42.4928E-03     10.7130E-03     41.1202E-03     53.5721E-03    -26.7167E-03    -26.8555E-03    -26.2812E-03     52.9982E-03    -26.7170E-03     13.5194E-03     77.9617E-03     81.6571E+06     4.01273E+06    -20.1206E+06    -86.9906E+06    -20.1209E+06    -86.9903E+06     4.01273E+06    -62.1651E+03
             536     42.2443E-03     9.73862E-03     41.1065E-03     53.6156E-03    -26.7911E-03    -26.8245E-03    -26.3302E-03     53.1274E-03    -26.7972E-03     12.4906E-03     72.7052E-03     107.091E+06     7.23636E+06    -22.5248E+06    -111.575E+06    -22.5249E+06    -111.575E+06     7.23636E+06     1.18332E+03
             537     42.0182E-03     8.76440E-03     41.0940E-03     53.7048E-03    -26.8407E-03    -26.8641E-03    -26.4131E-03     53.2721E-03    -26.8590E-03     11.7683E-03     68.6053E-03     129.603E+06     6.40187E+06    -25.8861E+06    -136.285E+06    -25.8864E+06    -136.284E+06     6.40187E+06    -85.1179E+03
             538     41.8140E-03     7.79056E-03     41.0818E-03     53.7635E-03    -26.8433E-03    -26.9202E-03    -26.4720E-03     53.3922E-03    -26.9202E-03     10.9060E-03     65.0436E-03     150.562E+06     5.56112E+06    -29.8580E+06    -159.552E+06    -29.8587E+06    -159.551E+06     5.56112E+06    -189.747E+03
             539     41.6330E-03     6.81634E-03     41.0712E-03     53.8135E-03    -26.8470E-03    -26.9665E-03    -26.5308E-03     53.4973E-03    -26.9665E-03     10.0724E-03     62.1648E-03     167.154E+06     1.99264E+06    -34.7746E+06    -180.473E+06    -34.7751E+06    -180.473E+06     1.99264E+06    -32.8903E+03
             540     41.4743E-03     5.84255E-03     41.0608E-03     53.8808E-03    -26.8859E-03    -26.9948E-03    -26.6185E-03     53.6134E-03    -26.9948E-03     9.26886E-03     59.8176E-03     181.513E+06    -5.08792E+06    -40.3643E+06    -201.637E+06    -40.3644E+06    -201.637E+06    -5.08792E+06     51.1251E+03
             541     41.3394E-03     4.86866E-03     41.0517E-03     53.9024E-03    -26.8890E-03    -27.0134E-03    -26.6745E-03     53.6879E-03    -27.0134E-03     8.29577E-03     57.9050E-03     195.345E+06    -14.2806E+06    -46.3401E+06    -223.649E+06    -46.3401E+06    -223.649E+06    -14.2806E+06    -61.6052E+03
             542     41.2278E-03     3.89479E-03     41.0434E-03     53.8787E-03    -26.8737E-03    -27.0049E-03    -26.7158E-03     53.7208E-03    -27.0049E-03     7.10566E-03     56.4497E-03     201.243E+06    -28.0171E+06    -52.7505E+06    -240.437E+06    -52.7512E+06    -240.436E+06    -28.0171E+06    -291.703E+03
             543     41.1406E-03     2.92091E-03     41.0368E-03     53.8814E-03    -26.9012E-03    -26.9802E-03    -26.8031E-03     53.7812E-03    -26.9781E-03     5.62545E-03     55.4857E-03     200.204E+06    -43.1518E+06    -58.8337E+06    -250.704E+06    -58.8351E+06    -250.703E+06    -43.1518E+06    -501.440E+03
             544     41.0778E-03     1.94738E-03     41.0316E-03     53.8910E-03    -26.9259E-03    -26.9651E-03    -26.8988E-03     53.8410E-03    -26.9422E-03     3.92164E-03     54.8496E-03     198.969E+06    -55.2738E+06    -63.5899E+06    -258.250E+06    -63.5912E+06    -258.249E+06    -55.2738E+06    -379.638E+03
             545     41.0400E-03     973.601E-06     41.0285E-03     53.8076E-03    -26.8055E-03    -27.0021E-03    -26.9835E-03     53.7890E-03    -26.8055E-03     2.34657E-03     54.3921E-03     197.110E+06    -64.0996E+06    -67.0488E+06    -262.658E+06    -67.0544E+06    -262.653E+06    -64.0996E+06     497.976E+03
             546     43.4626E-03     16.5596E-03     40.1843E-03     52.7374E-03    -25.6808E-03    -27.0566E-03    -24.9696E-03     51.6062E-03    -26.6366E-03     11.9447E-03     97.9959E-03     187.757E+06     207.126E+06     104.231E+06    -7.23710E+06    -7.23649E+06     207.126E+06     104.231E+06    -161.188E+03
             547     43.0747E-03     15.5849E-03     40.1564E-03     53.1104E-03    -26.2868E-03    -26.8236E-03    -25.1711E-03     51.5747E-03    -26.4036E-03     21.3329E-03     109.481E-03     185.403E+06     194.800E+06     48.6431E+06    -12.2249E+06    -12.2235E+06     194.798E+06     48.6431E+06     260.132E+03
             548     42.7160E-03     14.6101E-03     40.1398E-03     52.9802E-03    -26.1954E-03    -26.7848E-03    -25.4816E-03     51.7939E-03    -26.3123E-03     19.0897E-03     99.1793E-03     141.154E+06     135.830E+06     7.55204E+06    -15.0361E+06    -15.0335E+06     135.828E+06     7.55204E+06     471.106E+03
             549     42.3704E-03     13.6351E-03     40.1165E-03     53.5703E-03    -26.3907E-03    -27.1796E-03    -25.9069E-03     52.2976E-03    -26.3907E-03     20.0001E-03     100.435E-03     60.9593E+06     48.0249E+06    -8.02632E+06    -16.2416E+06    -16.2397E+06     48.0230E+06    -8.02632E+06     118.489E+03
             550     42.0485E-03     12.6612E-03     40.0969E-03     53.5622E-03    -26.5243E-03    -27.0379E-03    -26.1457E-03     52.6699E-03    -26.5243E-03     16.8300E-03     92.5017E-03     27.3916E+06     4.43049E+06    -12.4208E+06    -26.9678E+06    -16.9528E+06    -13.9320E+06    -4.07328E+06    -102.924E+03
             551     41.7504E-03     11.6871E-03     40.0813E-03     53.5650E-03    -26.6283E-03    -26.9367E-03    -26.2248E-03     52.8531E-03    -26.6283E-03     15.0548E-03     84.6894E-03     49.8461E+06     165.786E+03    -17.9651E+06    -55.9338E+06    -17.9653E+06    -55.9336E+06     165.786E+03    -26.9757E+03
             552     41.4731E-03     10.7125E-03     40.0657E-03     53.5726E-03    -26.7190E-03    -26.8536E-03    -26.2746E-03     52.9937E-03    -26.7190E-03     13.5751E-03     77.9484E-03     81.8417E+06     4.12512E+06    -19.7765E+06    -87.0050E+06    -19.7766E+06    -87.0049E+06     4.12512E+06    -55.4458E+03
             553     41.2198E-03     9.73861E-03     40.0528E-03     53.6278E-03    -26.7936E-03    -26.8342E-03    -26.3392E-03     53.1386E-03    -26.7994E-03     12.5048E-03     72.7033E-03     107.119E+06     7.26901E+06    -22.5078E+06    -111.579E+06    -22.5079E+06    -111.578E+06     7.26901E+06    -77.8383E+03
             554     40.9877E-03     8.76456E-03     40.0396E-03     53.6969E-03    -26.8236E-03    -26.8733E-03    -26.4021E-03     53.2640E-03    -26.8619E-03     11.7685E-03     68.6001E-03     129.524E+06     6.49409E+06    -25.9912E+06    -136.172E+06    -25.9913E+06    -136.172E+06     6.49409E+06    -26.9136E+03
             555     40.7791E-03     7.79033E-03     40.0281E-03     53.7638E-03    -26.8407E-03    -26.9231E-03    -26.4705E-03     53.3936E-03    -26.9231E-03     10.8916E-03     65.0469E-03     150.445E+06     5.31557E+06    -30.2420E+06    -159.723E+06    -30.2424E+06    -159.722E+06     5.31557E+06    -69.9082E+03
             556     40.5933E-03     6.81651E-03     40.0169E-03     53.8301E-03    -26.8627E-03    -26.9674E-03    -26.5460E-03     53.5134E-03    -26.9674E-03     10.0831E-03     62.1724E-03     166.834E+06     1.53397E+06    -35.1509E+06    -180.577E+06    -35.1518E+06    -180.576E+06     1.53397E+06    -136.575E+03
             557     40.4313E-03     5.84248E-03     40.0069E-03     53.8728E-03    -26.8765E-03    -26.9964E-03    -26.6083E-03     53.6046E-03    -26.9964E-03     9.28158E-03     59.8076E-03     181.370E+06    -5.39089E+06    -40.5738E+06    -201.763E+06    -40.5743E+06    -201.762E+06    -5.39089E+06    -87.6273E+03
             558     40.2927E-03     4.86858E-03     39.9974E-03     53.9141E-03    -26.8978E-03    -27.0163E-03    -26.6838E-03     53.7002E-03    -27.0163E-03     8.28542E-03     57.9187E-03     195.194E+06    -14.3935E+06    -46.7310E+06    -223.717E+06    -46.7311E+06    -223.717E+06    -14.3935E+06    -77.6322E+03
             559     40.1788E-03     3.89479E-03     39.9896E-03     53.9099E-03    -26.9051E-03    -27.0048E-03    -26.7493E-03     53.7541E-03    -27.0048E-03     7.05799E-03     56.4803E-03     201.148E+06    -27.5655E+06    -53.2717E+06    -240.291E+06    -53.2723E+06    -240.291E+06    -27.5655E+06    -274.616E+03
             560     40.0891E-03     2.92106E-03     39.9825E-03     53.8687E-03    -26.8985E-03    -26.9702E-03    -26.8005E-03     53.7685E-03    -26.9681E-03     5.63463E-03     55.4720E-03     200.003E+06    -43.4083E+06    -59.3302E+06    -250.845E+06    -59.3308E+06    -250.845E+06    -43.4083E+06    -307.632E+03
             561     40.0249E-03     1.94728E-03     39.9775E-03     53.8579E-03    -26.9051E-03    -26.9528E-03    -26.8781E-03     53.8065E-03    -26.9284E-03     3.97121E-03     54.8175E-03     198.482E+06    -56.7472E+06    -64.1971E+06    -258.830E+06    -64.1979E+06    -258.829E+06    -56.7472E+06    -162.223E+03
             562     39.9861E-03     973.812E-06     39.9743E-03     53.7957E-03    -26.8236E-03    -26.9721E-03    -26.9538E-03     53.7774E-03    -26.8236E-03     2.30936E-03     54.3857E-03     196.741E+06    -64.6229E+06    -67.0951E+06    -262.582E+06    -67.1025E+06    -262.575E+06    -64.6229E+06     73.5274E+03
             563     42.4900E-03     16.5597E-03     39.1302E-03     52.7037E-03    -25.6294E-03    -27.0744E-03    -24.9389E-03     51.5787E-03    -26.6398E-03     12.0075E-03     97.9790E-03     187.594E+06     206.937E+06     104.003E+06    -7.23567E+06    -7.23532E+06     206.936E+06     104.003E+06    -48.5181E+03
             564     42.0936E-03     15.5846E-03     39.1024E-03     53.1878E-03    -26.3458E-03    -26.8420E-03    -25.2563E-03     51.6637E-03    -26.4074E-03     21.2572E-03     109.567E-03     185.501E+06     194.622E+06     48.6895E+06    -12.6843E+06    -12.6824E+06     194.620E+06     48.6895E+06     82.8066E+03
             565     41.7270E-03     14.6098E-03     39.0857E-03     53.0929E-03    -26.2481E-03    -26.8448E-03    -25.6032E-03     51.9130E-03    -26.3098E-03     19.0548E-03     99.2406E-03     141.265E+06     136.180E+06     8.03121E+06    -14.8693E+06    -14.8675E+06     136.179E+06     8.03121E+06     170.099E+03
             566     41.3737E-03     13.6361E-03     39.0620E-03     53.5495E-03    -26.3830E-03    -27.1665E-03    -25.8742E-03     52.2572E-03    -26.3830E-03     20.1653E-03     100.327E-03     60.1524E+06     47.8051E+06    -7.92374E+06    -15.3952E+06    -15.3947E+06     47.8045E+06    -7.92374E+06     38.4683E+03
             567     41.0452E-03     12.6611E-03     39.0436E-03     53.4583E-03    -26.5237E-03    -26.9346E-03    -26.0215E-03     52.5452E-03    -26.5237E-03     16.9885E-03     92.3955E-03     26.7261E+06     4.15846E+06    -12.1525E+06    -26.4520E+06    -16.2118E+06    -14.3758E+06    -3.85840E+06    -27.0525E+03
             568     40.7388E-03     11.6866E-03     39.0265E-03     53.5678E-03    -26.6335E-03    -26.9344E-03    -26.2273E-03     52.8607E-03    -26.6335E-03     14.9999E-03     84.7386E-03     49.9226E+06     647.345E+03    -17.5461E+06    -55.5720E+06    -17.5463E+06    -55.5717E+06     647.345E+03     71.5094E+03
             569     40.4564E-03     10.7130E-03     39.0123E-03     53.6047E-03    -26.7214E-03    -26.8833E-03    -26.3125E-03     53.0339E-03    -26.7214E-03     13.4880E-03     77.9992E-03     81.7904E+06     4.24218E+06    -19.6914E+06    -86.8425E+06    -19.6918E+06    -86.8420E+06     4.24218E+06     72.7475E+03
             570     40.1958E-03     9.73851E-03     38.9983E-03     53.6176E-03    -26.7831E-03    -26.8345E-03    -26.3307E-03     53.1305E-03    -26.7998E-03     12.4764E-03     72.6934E-03     107.252E+06     7.06596E+06    -22.5320E+06    -111.866E+06    -22.5323E+06    -111.866E+06     7.06596E+06    -21.7310E+03
             571     39.9590E-03     8.76443E-03     38.9860E-03     53.7015E-03    -26.8232E-03    -26.8783E-03    -26.4055E-03     53.2690E-03    -26.8635E-03     11.7640E-03     68.6075E-03     129.566E+06     6.53432E+06    -25.9659E+06    -136.181E+06    -25.9661E+06    -136.181E+06     6.53432E+06     9.02471E+03
             572     39.7447E-03     7.79047E-03     38.9737E-03     53.7709E-03    -26.8438E-03    -26.9271E-03    -26.4772E-03     53.4008E-03    -26.9236E-03     10.8903E-03     65.0512E-03     150.312E+06     5.29316E+06    -30.1945E+06    -159.585E+06    -30.1949E+06    -159.585E+06     5.29316E+06     23.0329E+03
             573     39.5548E-03     6.81637E-03     38.9631E-03     53.8239E-03    -26.8568E-03    -26.9671E-03    -26.5401E-03     53.5072E-03    -26.9671E-03     10.0838E-03     62.1654E-03     166.777E+06     1.27514E+06    -35.0397E+06    -180.655E+06    -35.0403E+06    -180.654E+06     1.27514E+06    -120.145E+03
             574     39.3884E-03     5.84249E-03     38.9526E-03     53.8803E-03    -26.8827E-03    -26.9976E-03    -26.6160E-03     53.6136E-03    -26.9976E-03     9.25472E-03     59.8176E-03     181.422E+06    -5.48263E+06    -40.7373E+06    -201.937E+06    -40.7378E+06    -201.936E+06    -5.48263E+06    -131.044E+03
             575     39.2467E-03     4.86861E-03     38.9436E-03     53.9208E-03    -26.9047E-03    -27.0161E-03    -26.6923E-03     53.7085E-03    -27.0161E-03     8.25730E-03     57.9267E-03     195.153E+06    -14.5129E+06    -47.1461E+06    -223.904E+06    -47.1462E+06    -223.904E+06    -14.5129E+06    -53.2695E+03
             576     39.1295E-03     3.89484E-03     38.9352E-03     53.9238E-03    -26.9250E-03    -26.9988E-03    -26.7687E-03     53.7676E-03    -26.9988E-03     7.07037E-03     56.4948E-03     200.813E+06    -27.8934E+06    -53.6154E+06    -240.288E+06    -53.6158E+06    -240.287E+06    -27.8934E+06    -138.466E+03
             577     39.0382E-03     2.92109E-03     38.9288E-03     53.8608E-03    -26.9008E-03    -26.9599E-03    -26.8004E-03     53.7603E-03    -26.9599E-03     5.64009E-03     55.4555E-03     200.050E+06    -43.2201E+06    -59.7266E+06    -250.969E+06    -59.7271E+06    -250.969E+06    -43.2201E+06    -34.1933E+03
             578     38.9720E-03     1.94732E-03     38.9233E-03     53.8003E-03    -26.8600E-03    -26.9403E-03    -26.8156E-03     53.7483E-03    -26.9326E-03     4.00546E-03     54.7678E-03     198.514E+06    -57.0477E+06    -64.7143E+06    -259.249E+06    -64.7148E+06    -259.249E+06    -57.0477E+06     111.304E+03
             579     38.9324E-03     973.528E-06     38.9203E-03     53.8298E-03    -26.8399E-03    -26.9899E-03    -26.9347E-03     53.8113E-03    -26.8766E-03     2.28631E-03     54.4668E-03     195.543E+06    -65.4033E+06    -68.0815E+06    -262.270E+06    -67.4720E+06    -262.266E+06    -66.0161E+06    -507.487E+03
             580     41.5208E-03     16.5594E-03     38.0758E-03     52.7111E-03    -25.6481E-03    -27.0630E-03    -24.9331E-03     51.5713E-03    -26.6381E-03     11.9469E-03     97.9888E-03     187.269E+06     206.638E+06     103.740E+06    -7.14379E+06    -7.14296E+06     206.637E+06     103.740E+06    -57.2395E+03
             581     41.1165E-03     15.5848E-03     38.0484E-03     53.2225E-03    -26.3910E-03    -26.8315E-03    -25.2817E-03     51.6883E-03    -26.4066E-03     21.3128E-03     109.614E-03     185.205E+06     194.716E+06     48.8739E+06    -12.2439E+06    -12.2426E+06     194.715E+06     48.8739E+06    -282.597E+03
             582     40.7410E-03     14.6105E-03     38.0311E-03     53.0337E-03    -26.2958E-03    -26.7379E-03    -25.5478E-03     51.8591E-03    -26.3114E-03     18.9919E-03     99.2207E-03     140.862E+06     136.192E+06     8.41677E+06    -14.4247E+06    -14.4232E+06     136.190E+06     8.41677E+06    -266.141E+03
             583     40.3804E-03     13.6350E-03     38.0087E-03     53.5030E-03    -26.3880E-03    -27.1149E-03    -25.8100E-03     52.1981E-03    -26.3880E-03     20.2638E-03     100.314E-03     59.9069E+06     47.5208E+06    -7.93041E+06    -15.4235E+06    -15.4198E+06     47.5171E+06    -7.93041E+06     58.6624E+03
             584     40.0434E-03     12.6612E-03     37.9891E-03     53.5489E-03    -26.5280E-03    -27.0208E-03    -26.0949E-03     52.6229E-03    -26.5280E-03     17.1164E-03     92.4722E-03     26.7974E+06     4.11657E+06    -12.1693E+06    -26.5857E+06    -16.3339E+06    -14.3773E+06    -3.92724E+06     207.731E+03
             585     39.7308E-03     11.6871E-03     37.9730E-03     53.5846E-03    -26.6336E-03    -26.9510E-03    -26.2437E-03     52.8773E-03    -26.6336E-03     15.0093E-03     84.7574E-03     49.8168E+06     319.985E+03    -17.7830E+06    -55.7729E+06    -17.7850E+06    -55.7709E+06     319.985E+03     240.260E+03
             586     39.4403E-03     10.7125E-03     37.9576E-03     53.6025E-03    -26.7219E-03    -26.8806E-03    -26.3113E-03     53.0332E-03    -26.7219E-03     13.4638E-03     78.0113E-03     81.7037E+06     4.23950E+06    -19.6815E+06    -86.7518E+06    -19.6828E+06    -86.7505E+06     4.23950E+06     190.581E+03
             587     39.1747E-03     9.73870E-03     37.9449E-03     53.6346E-03    -26.7827E-03    -26.8519E-03    -26.3502E-03     53.1496E-03    -26.7994E-03     12.4541E-03     72.7194E-03     107.169E+06     7.13316E+06    -22.4047E+06    -111.696E+06    -22.4056E+06    -111.695E+06     7.13316E+06     101.527E+03
             588     38.9309E-03     8.76444E-03     37.9315E-03     53.7004E-03    -26.8164E-03    -26.8840E-03    -26.4067E-03     53.2686E-03    -26.8619E-03     11.7507E-03     68.6042E-03     129.706E+06     6.53879E+06    -25.7175E+06    -136.244E+06    -25.7183E+06    -136.243E+06     6.53879E+06     84.7132E+03
             589     38.7120E-03     7.79043E-03     37.9200E-03     53.7689E-03    -26.8420E-03    -26.9270E-03    -26.4768E-03     53.4003E-03    -26.9235E-03     10.8705E-03     65.0549E-03     150.640E+06     5.65522E+06    -29.7899E+06    -159.545E+06    -29.7906E+06    -159.544E+06     5.65522E+06     50.6937E+03
             590     38.5167E-03     6.81644E-03     37.9088E-03     53.8312E-03    -26.8650E-03    -26.9662E-03    -26.5492E-03     53.5154E-03    -26.9662E-03     10.0679E-03     62.1740E-03     166.922E+06     1.54236E+06    -34.9911E+06    -180.608E+06    -34.9916E+06    -180.608E+06     1.54236E+06     54.9997E+03
             591     38.3464E-03     5.84250E-03     37.8987E-03     53.8762E-03    -26.8825E-03    -26.9936E-03    -26.6183E-03     53.6119E-03    -26.9936E-03     9.21432E-03     59.8119E-03     181.403E+06    -5.58678E+06    -40.7709E+06    -201.995E+06    -40.7711E+06    -201.995E+06    -5.58678E+06     20.2593E+03
             592     38.2008E-03     4.86866E-03     37.8893E-03     53.9067E-03    -26.8942E-03    -27.0125E-03    -26.6814E-03     53.6939E-03    -27.0125E-03     8.26538E-03     57.9160E-03     195.303E+06    -14.5793E+06    -46.9102E+06    -224.009E+06    -46.9104E+06    -224.009E+06    -14.5793E+06    -21.4204E+03
             593     38.0811E-03     3.89478E-03     37.8814E-03     53.9052E-03    -26.9069E-03    -26.9983E-03    -26.7499E-03     53.7482E-03    -26.9983E-03     7.08630E-03     56.4861E-03     201.023E+06    -28.1153E+06    -53.4518E+06    -240.564E+06    -53.4519E+06    -240.564E+06    -28.1153E+06    -8.06392E+03
             594     37.9869E-03     2.92106E-03     37.8744E-03     53.8743E-03    -26.9110E-03    -26.9634E-03    -26.8104E-03     53.7737E-03    -26.9634E-03     5.64161E-03     55.4752E-03     200.502E+06    -42.9537E+06    -59.5840E+06    -251.222E+06    -59.5842E+06    -251.222E+06    -42.9537E+06     88.0985E+03
             595     37.9197E-03     1.94738E-03     37.8697E-03     53.8231E-03    -26.8798E-03    -26.9434E-03    -26.8385E-03     53.7715E-03    -26.9330E-03     3.99066E-03     54.7895E-03     199.193E+06    -55.3511E+06    -64.0681E+06    -258.728E+06    -64.0684E+06    -258.727E+06    -55.3511E+06    -59.1271E+03
             596     37.8785E-03     973.592E-06     37.8660E-03     53.8037E-03    -26.8325E-03    -26.9713E-03    -26.9159E-03     53.7851E-03    -26.8692E-03     2.30274E-03     54.4272E-03     196.094E+06    -65.0259E+06    -68.2167E+06    -262.687E+06    -67.6186E+06    -262.672E+06    -65.6387E+06     481.805E+03
             597     40.5578E-03     16.5601E-03     37.0229E-03     52.7811E-03    -25.7067E-03    -27.0744E-03    -24.9839E-03     51.6192E-03    -26.6352E-03     11.9929E-03     98.0296E-03     187.503E+06     206.929E+06     103.943E+06    -7.09870E+06    -7.09754E+06     206.928E+06     103.943E+06    -113.347E+03
             598     40.1421E-03     15.5847E-03     36.9933E-03     53.0832E-03    -26.2440E-03    -26.8391E-03    -25.1244E-03     51.5243E-03    -26.4000E-03     21.4437E-03     109.495E-03     185.296E+06     194.504E+06     47.5696E+06    -12.0609E+06    -12.0593E+06     194.502E+06     47.5696E+06    -286.344E+03
             599     39.7592E-03     14.6097E-03     36.9777E-03     52.9733E-03    -26.1559E-03    -26.8173E-03    -25.4882E-03     51.8001E-03    -26.3119E-03     18.9858E-03     99.2266E-03     141.321E+06     135.817E+06     6.81286E+06    -14.9260E+06    -14.9243E+06     135.815E+06     6.81286E+06    -420.822E+03
             600     39.3899E-03     13.6357E-03     36.9544E-03     53.6013E-03    -26.3934E-03    -27.2079E-03    -25.9138E-03     52.3071E-03    -26.3934E-03     20.2069E-03     100.403E-03     60.4107E+06     47.5137E+06    -8.30368E+06    -16.0813E+06    -16.0774E+06     47.5099E+06    -8.30368E+06    -20.4304E+03
             601     39.0449E-03     12.6609E-03     36.9352E-03     53.5700E-03    -26.5288E-03    -27.0413E-03    -26.1204E-03     52.6492E-03    -26.5288E-03     17.0786E-03     92.4459E-03     26.9845E+06     3.94276E+06    -12.5247E+06    -26.9546E+06    -16.6480E+06    -14.6185E+06    -4.27021E+06     259.145E+03
             602     38.7242E-03     11.6867E-03     36.9186E-03     53.5896E-03    -26.6336E-03    -26.9560E-03    -26.2539E-03     52.8875E-03    -26.6336E-03     14.9504E-03     84.7665E-03     49.8552E+06     148.363E+03    -17.9678E+06    -55.9901E+06    -17.9697E+06    -55.9882E+06     148.363E+03     224.508E+03
             603     38.4274E-03     10.7129E-03     36.9039E-03     53.5802E-03    -26.7219E-03    -26.8583E-03    -26.2918E-03     53.0138E-03    -26.7219E-03     13.4304E-03     78.0110E-03     81.5701E+06     3.97644E+06    -20.0386E+06    -86.9024E+06    -20.0403E+06    -86.9006E+06     3.97644E+06     229.515E+03
             604     38.1541E-03     9.73846E-03     36.8904E-03     53.6521E-03    -26.8001E-03    -26.8521E-03    -26.3651E-03     53.1651E-03    -26.8001E-03     12.4799E-03     72.7415E-03     106.773E+06     7.21733E+06    -22.5000E+06    -111.255E+06    -22.5014E+06    -111.254E+06     7.21733E+06     240.967E+03
             605     37.9050E-03     8.76461E-03     36.8778E-03     53.7271E-03    -26.8314E-03    -26.8958E-03    -26.4350E-03     53.2951E-03    -26.8601E-03     11.7592E-03     68.6072E-03     129.584E+06     6.51070E+06    -25.8568E+06    -136.180E+06    -25.8578E+06    -136.179E+06     6.51070E+06     192.261E+03
             606     37.6799E-03     7.79041E-03     36.8657E-03     53.7708E-03    -26.8501E-03    -26.9208E-03    -26.4826E-03     53.4022E-03    -26.9196E-03     10.8704E-03     65.0541E-03     150.708E+06     5.53949E+06    -30.1306E+06    -159.803E+06    -30.1315E+06    -159.802E+06     5.53949E+06     237.771E+03
             607     37.4799E-03     6.81649E-03     36.8548E-03     53.8210E-03    -26.8598E-03    -26.9612E-03    -26.5444E-03     53.5057E-03    -26.9612E-03     10.0597E-03     62.1548E-03     166.764E+06     1.58201E+06    -35.0116E+06    -180.423E+06    -35.0122E+06    -180.423E+06     1.58201E+06     206.867E+03
             608     37.3049E-03     5.84257E-03     36.8446E-03     53.8597E-03    -26.8708E-03    -26.9889E-03    -26.6052E-03     53.5941E-03    -26.9889E-03     9.23630E-03     59.7911E-03     181.416E+06    -5.61479E+06    -40.4837E+06    -201.925E+06    -40.4838E+06    -201.925E+06    -5.61479E+06     41.9634E+03
             609     37.1558E-03     4.86860E-03     36.8354E-03     53.9034E-03    -26.8940E-03    -27.0094E-03    -26.6819E-03     53.6913E-03    -27.0094E-03     8.24839E-03     57.9154E-03     195.778E+06    -14.5269E+06    -46.6099E+06    -224.344E+06    -46.6101E+06    -224.344E+06    -14.5269E+06    -9.03637E+03
             610     37.0325E-03     3.89486E-03     36.8271E-03     53.8855E-03    -26.8847E-03    -27.0009E-03    -26.7292E-03     53.7301E-03    -27.0009E-03     7.05357E-03     56.4555E-03     201.830E+06    -27.3735E+06    -52.9608E+06    -240.743E+06    -52.9610E+06    -240.743E+06    -27.3735E+06    -94.9919E+03
             611     36.9363E-03     2.92100E-03     36.8206E-03     53.8828E-03    -26.9071E-03    -26.9757E-03    -26.8126E-03     53.7817E-03    -26.9692E-03     5.65915E-03     55.4682E-03     201.441E+06    -42.0243E+06    -58.6049E+06    -251.202E+06    -58.6053E+06    -251.202E+06    -42.0243E+06    -195.094E+03
             612     36.8667E-03     1.94730E-03     36.8152E-03     53.8692E-03    -26.9167E-03    -26.9525E-03    -26.8977E-03     53.8183E-03    -26.9206E-03     3.94326E-03     54.8206E-03     199.692E+06    -54.7110E+06    -63.8145E+06    -258.785E+06    -63.8152E+06    -258.784E+06    -54.7110E+06    -70.6636E+03
             613     36.8251E-03     973.833E-06     36.8123E-03     53.7397E-03    -26.8307E-03    -26.9090E-03    -26.8909E-03     53.7216E-03    -26.8307E-03     2.31485E-03     54.3325E-03     196.729E+06    -64.2932E+06    -67.7328E+06    -262.703E+06    -67.7472E+06    -262.689E+06    -64.2932E+06     1.02532E+06
             614     39.5962E-03     16.5594E-03     35.9673E-03     52.7254E-03    -25.6829E-03    -27.0425E-03    -24.9757E-03     51.6105E-03    -26.6348E-03     11.9849E-03     98.0081E-03     187.696E+06     207.083E+06     103.885E+06    -7.15366E+06    -7.15159E+06     207.080E+06     103.885E+06    -264.319E+03
             615     39.1744E-03     15.5850E-03     35.9408E-03     53.0008E-03    -26.1920E-03    -26.8088E-03    -25.0758E-03     51.4770E-03    -26.4012E-03     21.2455E-03     109.423E-03     185.430E+06     194.575E+06     47.4683E+06    -12.1377E+06    -12.1346E+06     194.572E+06     47.4683E+06    -187.265E+03
             616     38.7802E-03     14.6096E-03     35.9230E-03     52.9698E-03    -26.1053E-03    -26.8644E-03    -25.4786E-03     51.7932E-03    -26.3146E-03     19.0298E-03     99.1916E-03     140.937E+06     135.152E+06     6.37332E+06    -15.0692E+06    -15.0679E+06     135.151E+06     6.37332E+06    -56.2107E+03
             617     38.4026E-03     13.6352E-03     35.9004E-03     53.6894E-03    -26.3936E-03    -27.2958E-03    -26.0198E-03     52.4134E-03    -26.3936E-03     20.0769E-03     100.508E-03     60.4836E+06     47.3673E+06    -8.44742E+06    -16.2463E+06    -16.2439E+06     47.3649E+06    -8.44742E+06    -113.668E+03
             618     38.0495E-03     12.6612E-03     35.8812E-03     53.5514E-03    -26.5242E-03    -27.0272E-03    -26.1137E-03     52.6379E-03    -26.5242E-03     17.0203E-03     92.4173E-03     27.2683E+06     3.91165E+06    -12.5742E+06    -27.3274E+06    -17.0607E+06    -14.3812E+06    -4.54802E+06    -22.0638E+03
             619     37.7206E-03     11.6871E-03     35.8644E-03     53.5165E-03    -26.6321E-03    -26.8844E-03    -26.1803E-03     52.8124E-03    -26.6321E-03     14.9497E-03     84.6974E-03     49.8930E+06    -278.027E+03    -18.1791E+06    -56.4232E+06    -18.1804E+06    -56.4220E+06    -278.027E+03     193.364E+03
             620     37.4163E-03     10.7126E-03     35.8499E-03     53.5983E-03    -26.7236E-03    -26.8747E-03    -26.3048E-03     53.0284E-03    -26.7236E-03     13.4835E-03     78.0322E-03     81.3576E+06     3.87541E+06    -20.1117E+06    -86.7747E+06    -20.1141E+06    -86.7724E+06     3.87541E+06     372.182E+03
             621     37.1361E-03     9.73862E-03     35.8364E-03     53.6734E-03    -26.8001E-03    -26.8734E-03    -26.3850E-03     53.1851E-03    -26.8001E-03     12.4979E-03     72.7394E-03     106.523E+06     6.93511E+06    -22.9116E+06    -111.316E+06    -22.9134E+06    -111.315E+06     6.93511E+06     364.513E+03
             622     36.8801E-03     8.76439E-03     35.8236E-03     53.7442E-03    -26.8578E-03    -26.8864E-03    -26.4602E-03     53.3179E-03    -26.8578E-03     11.6876E-03     68.6353E-03     129.349E+06     6.25702E+06    -26.3611E+06    -136.270E+06    -26.3621E+06    -136.269E+06     6.25702E+06     323.276E+03
             623     36.6494E-03     7.79058E-03     35.8118E-03     53.7730E-03    -26.8543E-03    -26.9186E-03    -26.4898E-03     53.4037E-03    -26.9140E-03     10.8788E-03     65.0407E-03     150.269E+06     5.24694E+06    -30.4307E+06    -159.649E+06    -30.4315E+06    -159.648E+06     5.24694E+06     230.207E+03
             624     36.4438E-03     6.81651E-03     35.8007E-03     53.7932E-03    -26.8364E-03    -26.9568E-03    -26.5201E-03     53.4769E-03    -26.9568E-03     10.0728E-03     62.1240E-03     166.525E+06     1.48384E+06    -35.0200E+06    -180.250E+06    -35.0203E+06    -180.250E+06     1.48384E+06     111.135E+03
             625     36.2644E-03     5.84247E-03     35.7907E-03     53.8606E-03    -26.8755E-03    -26.9851E-03    -26.6088E-03     53.5939E-03    -26.9851E-03     9.25344E-03     59.7891E-03     181.375E+06    -5.84970E+06    -40.5111E+06    -202.042E+06    -40.5112E+06    -202.042E+06    -5.84970E+06     72.6590E+03
             626     36.1109E-03     4.86874E-03     35.7812E-03     53.8957E-03    -26.8901E-03    -27.0056E-03    -26.6787E-03     53.6843E-03    -27.0056E-03     8.23414E-03     57.9019E-03     195.858E+06    -14.7448E+06    -46.6704E+06    -224.587E+06    -46.6705E+06    -224.587E+06    -14.7448E+06    -39.8802E+03
             627     35.9848E-03     3.89481E-03     35.7734E-03     53.8957E-03    -26.8968E-03    -26.9989E-03    -26.7452E-03     53.7401E-03    -26.9948E-03     7.05926E-03     56.4573E-03     201.708E+06    -27.3534E+06    -52.9527E+06    -240.603E+06    -52.9530E+06    -240.603E+06    -27.3534E+06    -180.701E+03
             628     35.8854E-03     2.92105E-03     35.7663E-03     53.8746E-03    -26.9068E-03    -26.9678E-03    -26.8168E-03     53.7740E-03    -26.9572E-03     5.63920E-03     55.4500E-03     201.299E+06    -42.2680E+06    -59.0351E+06    -251.388E+06    -59.0360E+06    -251.387E+06    -42.2680E+06    -116.283E+03
             629     35.8143E-03     1.94744E-03     35.7613E-03     53.8094E-03    -26.8731E-03    -26.9363E-03    -26.8442E-03     53.7591E-03    -26.9148E-03     3.92873E-03     54.7514E-03     199.677E+06    -55.9006E+06    -64.1686E+06    -259.551E+06    -64.1700E+06    -259.549E+06    -55.9006E+06     22.0152E+03
             630     35.7713E-03     973.647E-06     35.7581E-03     53.7673E-03    -26.8161E-03    -26.9513E-03    -26.9098E-03     53.7487E-03    -26.8389E-03     2.35681E-03     54.3633E-03     196.781E+06    -64.2196E+06    -66.6855E+06    -262.213E+06    -66.4509E+06    -262.210E+06    -64.4572E+06    -161.004E+03
             631     38.6421E-03     16.5600E-03     34.9138E-03     52.6600E-03    -25.6681E-03    -26.9919E-03    -24.9146E-03     51.5486E-03    -26.6340E-03     11.8970E-03     97.9721E-03     187.636E+06     206.891E+06     103.528E+06    -7.26736E+06    -7.26563E+06     206.889E+06     103.528E+06    -343.951E+03
             632     38.2088E-03     15.5845E-03     34.8861E-03     53.1051E-03    -26.3444E-03    -26.7607E-03    -25.1915E-03     51.5943E-03    -26.4028E-03     21.1504E-03     109.571E-03     185.444E+06     194.445E+06     47.8496E+06    -12.5984E+06    -12.5958E+06     194.443E+06     47.8496E+06    -249.326E+03
             633     37.8067E-03     14.6101E-03     34.8696E-03     53.0109E-03    -26.2528E-03    -26.7580E-03    -25.5255E-03     51.8368E-03    -26.3113E-03     18.9883E-03     99.1947E-03     140.811E+06     135.154E+06     7.01907E+06    -15.1670E+06    -15.1651E+06     135.152E+06     7.01907E+06     175.963E+03
             634     37.4186E-03     13.6355E-03     34.8457E-03     53.5330E-03    -26.3889E-03    -27.1441E-03    -25.8602E-03     52.2491E-03    -26.3889E-03     20.0935E-03     100.374E-03     60.3790E+06     47.0833E+06    -8.85454E+06    -16.2914E+06    -16.2880E+06     47.0799E+06    -8.85454E+06    -19.4782E+03
             635     37.0573E-03     12.6613E-03     34.8272E-03     53.5400E-03    -26.5270E-03    -27.0130E-03    -26.0899E-03     52.6169E-03    -26.5270E-03     17.1087E-03     92.4485E-03     27.4691E+06     3.82645E+06    -12.6096E+06    -27.5931E+06    -16.9944E+06    -14.6051E+06    -4.77668E+06    -85.4041E+03
             636     36.7199E-03     11.6866E-03     34.8106E-03     53.5629E-03    -26.6356E-03    -26.9273E-03    -26.2094E-03     52.8450E-03    -26.6356E-03     15.1047E-03     84.7199E-03     50.1428E+06    -527.298E+03    -18.3168E+06     -56.945E+06    -18.3185E+06    -56.9433E+06    -527.298E+03     195.250E+03
             637     36.4074E-03     10.7127E-03     34.7957E-03     53.6364E-03    -26.7250E-03    -26.9114E-03    -26.3437E-03     53.0687E-03    -26.7250E-03     13.4558E-03     78.0756E-03     81.2122E+06     3.93321E+06    -20.2899E+06    -86.6291E+06    -20.2936E+06    -86.6253E+06     3.93321E+06     421.162E+03
             638     36.1199E-03     9.73856E-03     34.7822E-03     53.6897E-03    -26.7978E-03    -26.8919E-03    -26.4101E-03     53.2079E-03    -26.7978E-03     12.4202E-03     72.7618E-03     106.397E+06     6.94441E+06    -22.9420E+06    -111.183E+06    -22.9455E+06    -111.179E+06     6.94441E+06     496.567E+03
             639     35.8573E-03     8.76465E-03     34.7696E-03     53.7224E-03    -26.8424E-03    -26.8800E-03    -26.4406E-03     53.2951E-03    -26.8546E-03     11.6973E-03     68.6228E-03     129.277E+06     6.16842E+06    -26.3251E+06    -136.248E+06    -26.3267E+06    -136.247E+06     6.16842E+06     413.763E+03
             640     35.6200E-03     7.79048E-03     34.7576E-03     53.7676E-03    -26.8530E-03    -26.9146E-03    -26.4883E-03     53.3994E-03    -26.9110E-03     10.8642E-03     65.0401E-03     149.907E+06     5.12713E+06    -30.3453E+06    -159.333E+06    -30.3463E+06    -159.332E+06     5.12713E+06     211.995E+03
             641     35.4092E-03     6.81648E-03     34.7469E-03     53.8065E-03    -26.8548E-03    -26.9517E-03    -26.5388E-03     53.4905E-03    -26.9517E-03     10.0709E-03     62.1350E-03     166.198E+06     1.03613E+06    -35.3375E+06    -180.325E+06    -35.3376E+06    -180.324E+06     1.03613E+06     35.2347E+03
             642     35.2243E-03     5.84264E-03     34.7364E-03     53.8356E-03    -26.8552E-03    -26.9804E-03    -26.5891E-03     53.5695E-03    -26.9804E-03     9.24065E-03     59.7624E-03     181.217E+06    -6.17277E+06    -40.7979E+06    -202.190E+06    -40.7979E+06    -202.190E+06    -6.17277E+06     91.9878E+03
             643     35.0670E-03     4.86861E-03     34.7274E-03     53.8942E-03    -26.8920E-03    -27.0022E-03    -26.6818E-03     53.6823E-03    -27.0005E-03     8.24559E-03     57.9013E-03     195.456E+06    -15.1198E+06    -46.7891E+06    -224.459E+06    -46.7896E+06    -224.459E+06    -15.1198E+06    -146.812E+03
             644     34.9369E-03     3.89485E-03     34.7191E-03     53.9218E-03    -26.9316E-03    -26.9902E-03    -26.7820E-03     53.7664E-03    -26.9844E-03     7.05292E-03     56.4805E-03     201.520E+06    -27.5833E+06    -53.1870E+06    -240.650E+06    -53.1875E+06    -240.649E+06    -27.5833E+06    -187.151E+03
             645     34.8350E-03     2.92123E-03     34.7123E-03     53.8290E-03    -26.8799E-03    -26.9490E-03    -26.7845E-03     53.7295E-03    -26.9449E-03     5.60983E-03     55.3994E-03     201.581E+06    -42.4547E+06    -59.1492E+06    -251.819E+06    -59.1504E+06    -251.817E+06    -42.4547E+06    -33.5256E+03
             646     34.7619E-03     1.94731E-03     34.7073E-03     53.7688E-03    -26.8467E-03    -26.9220E-03    -26.7956E-03     53.7177E-03    -26.9220E-03     3.96448E-03     54.6946E-03     200.414E+06    -55.4526E+06    -63.4321E+06    -259.706E+06    -63.4338E+06    -259.705E+06    -55.4526E+06    -287.179E+03
             647     34.7177E-03     973.572E-06     34.7041E-03     53.8094E-03    -26.8096E-03    -26.9998E-03    -26.9525E-03     53.7909E-03    -26.8384E-03     2.31295E-03     54.3990E-03     197.310E+06    -63.9460E+06    -66.7838E+06    -262.654E+06    -66.5491E+06    -262.651E+06    -64.1835E+06    -436.051E+03
             648     37.6925E-03     16.5595E-03     33.8602E-03     52.7281E-03    -25.6192E-03    -27.1090E-03    -24.9534E-03     51.5894E-03    -26.6360E-03     12.0460E-03     98.0128E-03     187.686E+06     206.970E+06     103.507E+06    -7.23938E+06    -7.23918E+06     206.970E+06     103.507E+06    -111.942E+03
             649     37.2490E-03     15.5849E-03     33.8319E-03     53.2138E-03    -26.3408E-03    -26.8730E-03    -25.2825E-03     51.6826E-03    -26.4001E-03     21.2856E-03     109.618E-03     185.394E+06     194.094E+06     47.4171E+06    -12.8476E+06    -12.8468E+06     194.094E+06     47.4171E+06     18.5750E+03
             650     36.8364E-03     14.6102E-03     33.8152E-03     52.9912E-03    -26.2471E-03    -26.7440E-03    -25.5111E-03     51.8175E-03    -26.3064E-03     18.9668E-03     99.1954E-03     141.266E+06     135.400E+06     6.81118E+06    -15.3967E+06    -15.3917E+06     135.395E+06     6.81118E+06    -145.950E+03
             651     36.4398E-03     13.6355E-03     33.7924E-03     53.4523E-03    -26.3884E-03    -27.0638E-03    -25.7559E-03     52.1443E-03    -26.3884E-03     20.2748E-03     100.269E-03     60.0676E+06     46.9189E+06    -9.00434E+06    -16.0582E+06    -16.0508E+06     46.9115E+06    -9.00434E+06    -68.1892E+03
             652     36.0679E-03     12.6606E-03     33.7728E-03     53.5075E-03    -26.5339E-03    -26.9736E-03    -26.0514E-03     52.5853E-03    -26.5339E-03     17.0672E-03     92.4632E-03     26.9685E+06     3.29494E+06    -13.0445E+06    -27.5350E+06    -16.9027E+06    -15.5273E+06    -4.85454E+06     192.156E+03
             653     35.7225E-03     11.6869E-03     33.7566E-03     53.6583E-03    -26.6396E-03    -27.0188E-03    -26.3113E-03     52.9509E-03    -26.6396E-03     15.0275E-03     84.8712E-03     49.9829E+06    -481.252E+03    -18.5785E+06    -56.7734E+06    -18.5812E+06    -56.7707E+06    -481.252E+03     245.817E+03
             654     35.4012E-03     10.7127E-03     33.7414E-03     53.6700E-03    -26.7220E-03    -26.9479E-03    -26.3785E-03     53.1005E-03    -26.7220E-03     13.4708E-03     78.0851E-03     81.0735E+06     3.79215E+06    -20.3480E+06    -86.6059E+06    -20.3515E+06    -86.6024E+06     3.79215E+06     324.158E+03
             655     35.1061E-03     9.73868E-03     33.7283E-03     53.6490E-03    -26.7916E-03    -26.8574E-03    -26.3746E-03     53.1696E-03    -26.7949E-03     12.3870E-03     72.7482E-03     106.443E+06     6.86997E+06    -22.7568E+06    -111.231E+06    -22.7604E+06    -111.227E+06     6.86997E+06     452.607E+03
             656     34.8360E-03     8.76446E-03     33.7154E-03     53.7191E-03    -26.8386E-03    -26.8805E-03    -26.4343E-03     53.2884E-03    -26.8541E-03     11.7407E-03     68.6327E-03     129.291E+06     6.15975E+06    -26.1609E+06    -136.219E+06    -26.1631E+06    -136.217E+06     6.15975E+06     427.465E+03
             657     34.5924E-03     7.79051E-03     33.7037E-03     53.7870E-03    -26.8642E-03    -26.9228E-03    -26.5108E-03     53.4209E-03    -26.9102E-03     10.8346E-03     65.0727E-03     149.872E+06     5.29604E+06    -30.1955E+06    -159.135E+06    -30.1966E+06    -159.133E+06     5.29604E+06     305.802E+03
             658     34.3752E-03     6.81661E-03     33.6926E-03     53.8060E-03    -26.8570E-03    -26.9490E-03    -26.5420E-03     53.4910E-03    -26.9490E-03     10.0549E-03     62.1403E-03     166.436E+06     1.15817E+06    -35.0976E+06    -180.402E+06    -35.0981E+06    -180.401E+06     1.15817E+06     212.725E+03
             659     34.1856E-03     5.84256E-03     33.6826E-03     53.8426E-03    -26.8657E-03    -26.9769E-03    -26.5998E-03     53.5767E-03    -26.9769E-03     9.23752E-03     59.7814E-03     181.355E+06    -5.90855E+06    -40.7438E+06    -202.145E+06    -40.7439E+06    -202.145E+06    -5.90855E+06     68.8176E+03
             660     34.0233E-03     4.86868E-03     33.6732E-03     53.8999E-03    -26.9066E-03    -26.9933E-03    -26.6965E-03     53.6882E-03    -26.9916E-03     8.24436E-03     57.9073E-03     195.126E+06    -15.1797E+06    -46.9895E+06    -224.232E+06    -46.9898E+06    -224.231E+06    -15.1797E+06    -138.087E+03
             661     33.8896E-03     3.89500E-03     33.6650E-03     53.8786E-03    -26.9021E-03    -26.9765E-03    -26.7489E-03     53.7237E-03    -26.9748E-03     7.03588E-03     56.4360E-03     201.713E+06    -28.1338E+06    -53.2502E+06    -241.193E+06    -53.2519E+06    -241.191E+06    -28.1338E+06    -308.930E+03
             662     33.7850E-03     2.92107E-03     33.6584E-03     53.8203E-03    -26.8745E-03    -26.9458E-03    -26.7789E-03     53.7215E-03    -26.9427E-03     5.58819E-03     55.3847E-03     202.105E+06    -42.0389E+06    -58.5479E+06    -251.853E+06    -58.5503E+06    -251.851E+06    -42.0389E+06    -498.844E+03
             663     33.7096E-03     1.94737E-03     33.6533E-03     53.7948E-03    -26.8760E-03    -26.9188E-03    -26.8347E-03     53.7442E-03    -26.9095E-03     3.94304E-03     54.7087E-03     200.945E+06    -54.5665E+06    -63.3780E+06    -259.750E+06    -63.3794E+06    -259.749E+06    -54.5665E+06    -428.411E+03
             664     33.6640E-03     973.744E-06     33.6499E-03     53.7438E-03    -26.7999E-03    -26.9439E-03    -26.9194E-03     53.7253E-03    -26.8059E-03     2.32672E-03     54.3254E-03     197.473E+06    -64.3272E+06    -67.8251E+06    -263.518E+06    -67.6123E+06    -263.517E+06    -64.5410E+06    -137.336E+03
             665     36.7479E-03     16.5595E-03     32.8054E-03     52.6957E-03    -25.6115E-03    -27.0842E-03    -24.9097E-03     51.5474E-03    -26.6378E-03     12.0847E-03     97.9949E-03     187.724E+06     207.010E+06     103.496E+06    -7.24361E+06    -7.24311E+06     207.010E+06     103.496E+06     32.4801E+03
             666     36.2943E-03     15.5848E-03     32.7778E-03     53.1644E-03    -26.3144E-03    -26.8500E-03    -25.2071E-03     51.6107E-03    -26.4036E-03     21.4527E-03     109.540E-03     185.345E+06     194.306E+06     47.1569E+06    -12.3228E+06    -12.3215E+06     194.305E+06     47.1569E+06    -124.608E+03
             667     35.8712E-03     14.6098E-03     32.7612E-03     53.0317E-03    -26.2224E-03    -26.8093E-03    -25.5485E-03     51.8601E-03    -26.3116E-03     19.0003E-03     99.2831E-03     140.996E+06     135.201E+06     6.34524E+06    -15.0447E+06    -15.0397E+06     135.196E+06     6.34524E+06    -231.233E+03
             668     35.4645E-03     13.6353E-03     32.7385E-03     53.5639E-03    -26.3902E-03    -27.1737E-03    -25.8870E-03     52.2772E-03    -26.3902E-03     20.1446E-03     100.429E-03     60.1100E+06     46.5927E+06    -9.31336E+06    -16.4486E+06    -16.4407E+06     46.5848E+06    -9.31336E+06     47.2076E+03
             669     35.0833E-03     12.6613E-03     32.7189E-03     53.5277E-03    -26.5289E-03    -26.9988E-03    -26.0722E-03     52.6011E-03    -26.5289E-03     17.1250E-03     92.4534E-03     27.0533E+06     2.96241E+06    -13.3928E+06    -27.9597E+06    -17.3647E+06    -15.6863E+06    -5.33915E+06     378.467E+03
             670     34.7278E-03     11.6866E-03     32.7024E-03     53.6249E-03    -26.6350E-03    -26.9900E-03    -26.2806E-03     52.9156E-03    -26.6350E-03     15.0260E-03     84.8345E-03     49.8161E+06    -634.238E+03    -18.2709E+06    -56.6431E+06    -18.2748E+06    -56.6392E+06    -634.238E+03     332.148E+03
             671     34.3979E-03     10.7127E-03     32.6872E-03     53.6280E-03    -26.7163E-03    -26.9116E-03    -26.3435E-03     53.0642E-03    -26.7207E-03     13.4028E-03     78.0523E-03     81.3657E+06     3.46780E+06    -20.2613E+06    -87.1232E+06    -20.2633E+06    -87.1213E+06     3.46780E+06     270.912E+03
             672     34.0947E-03     9.73859E-03     32.6743E-03     53.6464E-03    -26.7883E-03    -26.8581E-03    -26.3673E-03     53.1634E-03    -26.7960E-03     12.4314E-03     72.7680E-03     106.369E+06     6.50455E+06    -23.2703E+06    -111.570E+06    -23.2728E+06    -111.567E+06     6.50455E+06     410.532E+03
             673     33.8169E-03     8.76454E-03     32.6614E-03     53.7457E-03    -26.8374E-03    -26.9083E-03    -26.4616E-03     53.3152E-03    -26.8537E-03     11.7405E-03     68.6612E-03     128.825E+06     5.94960E+06    -26.5099E+06    -135.991E+06    -26.5120E+06    -135.989E+06     5.94960E+06     406.160E+03
             674     33.5661E-03     7.79059E-03     32.6495E-03     53.7736E-03    -26.8503E-03    -26.9232E-03    -26.4966E-03     53.4072E-03    -26.9106E-03     10.8390E-03     65.0661E-03     149.916E+06     5.34832E+06    -30.4164E+06    -159.216E+06    -30.4171E+06    -159.215E+06     5.34832E+06     291.777E+03
             675     33.3430E-03     6.81651E-03     32.6387E-03     53.8201E-03    -26.8697E-03    -26.9504E-03    -26.5542E-03     53.5043E-03    -26.9500E-03     10.0692E-03     62.1728E-03     166.421E+06     1.44583E+06    -35.2631E+06    -180.247E+06    -35.2640E+06    -180.246E+06     1.44583E+06     345.674E+03
             676     33.1474E-03     5.84260E-03     32.6284E-03     53.8754E-03    -26.9040E-03    -26.9714E-03    -26.6384E-03     53.6094E-03    -26.9711E-03     9.24440E-03     59.8181E-03     181.097E+06    -6.03789E+06    -40.9219E+06    -202.028E+06    -40.9222E+06    -202.028E+06    -6.03789E+06     78.3823E+03
             677     32.9805E-03     4.86889E-03     32.6191E-03     53.8714E-03    -26.8858E-03    -26.9856E-03    -26.6733E-03     53.6589E-03    -26.9856E-03     8.25761E-03     57.8826E-03     195.448E+06    -14.9166E+06    -46.8432E+06    -224.339E+06    -46.8433E+06    -224.339E+06    -14.9166E+06     -93.726E+03
             678     32.8429E-03     3.89483E-03     32.6111E-03     53.8501E-03    -26.8790E-03    -26.9711E-03    -26.7234E-03     53.6945E-03    -26.9711E-03     7.04998E-03     56.4247E-03     201.769E+06    -28.3388E+06    -53.1875E+06    -241.338E+06    -53.1887E+06    -241.337E+06    -28.3388E+06    -305.109E+03
             679     32.7349E-03     2.92115E-03     32.6043E-03     53.8422E-03    -26.9051E-03    -26.9370E-03    -26.8126E-03     53.7441E-03    -26.9315E-03     5.56669E-03     55.4341E-03     201.225E+06    -43.1293E+06    -59.4517E+06    -251.992E+06    -59.4537E+06    -251.990E+06    -43.1293E+06    -547.218E+03
             680     32.6574E-03     1.94749E-03     32.5993E-03     53.7682E-03    -26.8693E-03    -26.8990E-03    -26.8307E-03     53.7180E-03    -26.8873E-03     3.94432E-03     54.7012E-03     200.301E+06    -55.6227E+06    -64.3597E+06    -260.122E+06    -64.3608E+06    -260.121E+06    -55.6227E+06    -392.428E+03
             681     32.6106E-03     973.730E-06     32.5960E-03     53.6985E-03    -26.8082E-03    -26.8903E-03    -26.8527E-03     53.6789E-03    -26.8262E-03     2.40061E-03     54.2763E-03     197.867E+06    -64.8675E+06    -67.8248E+06    -264.189E+06    -67.3140E+06    -264.188E+06    -65.3792E+06    -210.518E+03
             682     35.8111E-03     16.5599E-03     31.7522E-03     52.6374E-03    -25.7171E-03    -26.9203E-03    -24.8647E-03     51.4978E-03    -26.6332E-03     11.8848E-03     97.9405E-03     187.711E+06     207.184E+06     103.540E+06    -6.98375E+06    -6.98308E+06     207.184E+06     103.540E+06     171.361E+03
             683     35.3446E-03     15.5841E-03     31.7234E-03     52.9681E-03    -26.2787E-03    -26.6894E-03    -25.0263E-03     51.4285E-03    -26.4023E-03     21.2937E-03     109.473E-03     185.170E+06     193.664E+06     46.1038E+06    -12.5698E+06    -12.5687E+06     193.663E+06     46.1038E+06    -137.754E+03
             684     34.9113E-03     14.6098E-03     31.7073E-03     53.0508E-03    -26.1940E-03    -26.8569E-03    -25.5690E-03     51.8865E-03    -26.3175E-03     18.9445E-03     99.3475E-03     141.175E+06     134.749E+06     5.60893E+06    -15.6654E+06    -15.6640E+06     134.748E+06     5.60893E+06    -49.6897E+03
             685     34.4935E-03     13.6355E-03     31.6840E-03     53.6829E-03    -26.3950E-03    -27.2879E-03    -26.0038E-03     52.3989E-03    -26.3950E-03     20.1562E-03     100.554E-03     60.4812E+06     46.9376E+06    -9.04761E+06    -16.6628E+06    -16.6589E+06     46.9337E+06    -9.04761E+06     329.626E+03
             686     34.1027E-03     12.6608E-03     31.6654E-03     53.6182E-03    -26.5249E-03    -27.0933E-03    -26.1574E-03     52.6824E-03    -26.5249E-03     17.2383E-03     92.5112E-03     26.8484E+06     2.92179E+06    -13.3747E+06    -27.7911E+06    -17.4632E+06    -15.4671E+06    -5.31372E+06     365.689E+03
             687     33.7368E-03     11.6871E-03     31.6478E-03     53.5428E-03    -26.6298E-03    -26.9130E-03    -26.2002E-03     52.8300E-03    -26.6298E-03     15.0431E-03     84.7025E-03      49.772E+06    -1.05289E+06    -18.7557E+06    -57.0110E+06    -18.7606E+06    -57.0061E+06    -1.05289E+06     375.695E+03
             688     33.3983E-03     10.7127E-03     31.6336E-03     53.5600E-03    -26.7175E-03    -26.8425E-03    -26.2731E-03     52.9950E-03    -26.7219E-03     13.4145E-03     78.0302E-03     81.4199E+06     3.03089E+06    -20.6618E+06    -87.6063E+06    -20.6648E+06    -87.6033E+06     3.03089E+06     372.067E+03
             689     33.0857E-03     9.73846E-03     31.6200E-03     53.6948E-03    -26.7949E-03    -26.8998E-03    -26.4092E-03     53.2085E-03    -26.7993E-03     12.4778E-03     72.8158E-03     106.401E+06     6.42646E+06    -23.2803E+06    -111.661E+06    -23.2822E+06    -111.660E+06     6.42646E+06     397.328E+03
             690     32.8000E-03     8.76461E-03     31.6073E-03     53.7385E-03    -26.8344E-03    -26.9041E-03    -26.4538E-03     53.3096E-03    -26.8559E-03     11.7213E-03     68.6547E-03     128.555E+06     5.98323E+06    -26.6940E+06    -135.750E+06    -26.6966E+06    -135.748E+06     5.98323E+06     491.859E+03
             691     32.5418E-03     7.79044E-03     31.5956E-03     53.7756E-03    -26.8629E-03    -26.9127E-03    -26.4944E-03     53.4070E-03    -26.9127E-03     10.8702E-03     65.0746E-03     149.553E+06     5.05276E+06    -30.9945E+06    -159.229E+06    -30.9961E+06    -159.227E+06     5.05276E+06     357.216E+03
             692     32.3117E-03     6.81652E-03     31.5845E-03     53.8495E-03    -26.8995E-03    -26.9500E-03    -26.5838E-03     53.5334E-03    -26.9496E-03     10.0772E-03     62.2012E-03     165.956E+06     1.08760E+06    -35.8647E+06    -180.215E+06    -35.8651E+06    -180.215E+06     1.08760E+06     155.312E+03
             693     32.1104E-03     5.84274E-03     31.5743E-03     53.8533E-03    -26.8829E-03    -26.9704E-03    -26.6166E-03     53.5867E-03    -26.9701E-03     9.25443E-03     59.7928E-03     180.823E+06    -6.26855E+06    -41.0566E+06    -201.942E+06    -41.0569E+06    -201.942E+06    -6.26855E+06     45.3692E+03
             694     31.9385E-03     4.86865E-03     31.5652E-03     53.8688E-03    -26.8814E-03    -26.9874E-03    -26.6673E-03     53.6546E-03    -26.9874E-03     8.28820E-03     57.8820E-03     195.302E+06    -15.2374E+06    -47.1329E+06    -224.509E+06    -47.1331E+06    -224.509E+06    -15.2374E+06    -63.5686E+03
             695     31.7965E-03     3.89497E-03     31.5571E-03     53.8853E-03    -26.9116E-03    -26.9737E-03    -26.7552E-03     53.7289E-03    -26.9737E-03     7.06959E-03     56.4448E-03     201.911E+06    -27.7653E+06    -53.5438E+06    -241.291E+06    -53.5444E+06    -241.290E+06    -27.7653E+06    -255.855E+03
             696     31.6852E-03     2.92118E-03     31.5503E-03     53.8202E-03    -26.8875E-03    -26.9327E-03    -26.7911E-03     53.7213E-03    -26.9303E-03     5.59004E-03     55.4072E-03     201.501E+06    -43.0176E+06    -59.4059E+06    -252.164E+06    -59.4068E+06    -252.163E+06    -43.0176E+06    -380.943E+03
             697     31.6054E-03     1.94742E-03     31.5453E-03     53.7577E-03    -26.8521E-03    -26.9056E-03    -26.8156E-03     53.7071E-03    -26.8915E-03     3.94611E-03     54.7091E-03     200.218E+06    -56.2771E+06    -64.3212E+06    -260.376E+06    -64.3220E+06    -260.375E+06    -56.2771E+06    -293.937E+03
             698     31.5572E-03     973.618E-06     31.5422E-03     53.7284E-03    -26.8044E-03    -26.9240E-03    -26.8866E-03     53.7090E-03    -26.8224E-03     2.39784E-03     54.3046E-03     198.746E+06     -64.662E+06     -67.654E+06    -264.881E+06    -67.3571E+06    -264.880E+06    -64.9599E+06    -201.633E+03
             699     34.8793E-03     16.5598E-03     30.6976E-03     52.7182E-03    -25.7012E-03    -27.0170E-03    -24.9814E-03     51.6154E-03    -26.6340E-03     11.7921E-03     98.0071E-03     187.734E+06     207.041E+06     104.104E+06    -7.25925E+06    -7.25871E+06     207.041E+06     104.104E+06    -30.4594E+03
             700     34.4032E-03     15.5851E-03     30.6706E-03     52.9661E-03    -26.1839E-03    -26.7822E-03    -25.0490E-03     51.4482E-03    -26.3991E-03     21.2316E-03     109.405E-03     185.043E+06     194.083E+06     47.1707E+06    -12.0414E+06    -12.0381E+06     194.079E+06     47.1707E+06     531.179E+03
             701     33.9560E-03     14.6096E-03     30.6524E-03     52.8729E-03    -26.1019E-03    -26.7709E-03    -25.3845E-03     51.7017E-03    -26.3172E-03     18.9825E-03     99.1646E-03     140.054E+06     134.329E+06     6.03778E+06    -14.7862E+06    -14.7826E+06     134.325E+06     6.03778E+06     534.098E+03
             702     33.5282E-03     13.6350E-03     30.6305E-03     53.6926E-03    -26.4012E-03    -27.2914E-03    -26.0075E-03     52.4087E-03    -26.4012E-03     20.1623E-03     100.604E-03     59.9004E+06     46.4541E+06    -8.81917E+06    -16.5710E+06    -16.5669E+06     46.4500E+06    -8.81917E+06     330.664E+03
             703     33.1256E-03     12.6614E-03     30.6103E-03     53.6676E-03    -26.5277E-03    -27.1399E-03    -26.2119E-03     52.7396E-03    -26.5277E-03     17.1638E-03     92.5645E-03     27.3166E+06     3.12190E+06    -13.2784E+06    -28.1442E+06    -17.6703E+06    -15.3657E+06    -5.26466E+06     418.388E+03
             704     32.7507E-03     11.6869E-03     30.5945E-03     53.5223E-03    -26.6310E-03    -26.8912E-03    -26.1795E-03     52.8106E-03    -26.6310E-03     15.0469E-03     84.6846E-03     49.9243E+06    -1.13001E+06    -18.7835E+06    -57.2449E+06    -18.7900E+06    -57.2384E+06    -1.13001E+06     416.771E+03
             705     32.4013E-03     10.7124E-03     30.5792E-03     53.5833E-03    -26.7228E-03    -26.8605E-03    -26.2855E-03     53.0093E-03    -26.7238E-03     13.5130E-03     78.0333E-03     81.4461E+06     3.12548E+06    -20.5415E+06    -87.5318E+06    -20.5448E+06    -87.5284E+06     3.12548E+06     399.912E+03
             706     32.0799E-03     9.73870E-03     30.5659E-03     53.6621E-03    -26.8010E-03    -26.8611E-03    -26.3752E-03     53.1772E-03    -26.8020E-03     12.4568E-03     72.7866E-03     106.499E+06     6.32272E+06    -23.2123E+06    -111.815E+06    -23.2141E+06    -111.814E+06     6.32272E+06     388.109E+03
             707     31.7855E-03     8.76439E-03     30.5532E-03     53.7407E-03    -26.8527E-03    -26.8880E-03    -26.4487E-03     53.3100E-03    -26.8613E-03     11.7421E-03     68.6688E-03     128.801E+06     5.88882E+06    -26.5525E+06    -136.025E+06    -26.5556E+06    -136.022E+06     5.88882E+06     567.911E+03
             708     31.5194E-03     7.79050E-03     30.5415E-03     53.8192E-03    -26.8837E-03    -26.9355E-03    -26.5349E-03     53.4505E-03    -26.9156E-03     10.8796E-03     65.1165E-03     149.179E+06     5.03109E+06    -30.7329E+06    -158.778E+06    -30.7361E+06    -158.775E+06     5.03109E+06     561.398E+03
             709     31.2821E-03     6.81659E-03     30.5304E-03     53.8199E-03    -26.8670E-03    -26.9529E-03    -26.5488E-03     53.5017E-03    -26.9529E-03     10.1057E-03     62.1651E-03     165.738E+06     803.243E+03    -35.8738E+06    -180.185E+06    -35.8748E+06    -180.184E+06     803.243E+03     143.846E+03
             710     31.0746E-03     5.84252E-03     30.5204E-03     53.8546E-03    -26.8759E-03    -26.9787E-03    -26.6079E-03     53.5866E-03    -26.9787E-03     9.27888E-03     59.8004E-03      180.75E+06    -6.57003E+06    -41.5529E+06    -202.243E+06    -41.5539E+06    -202.242E+06    -6.57003E+06     188.128E+03
             711     30.8972E-03     4.86874E-03     30.5111E-03     53.9134E-03    -26.9216E-03    -26.9918E-03    -26.7071E-03     53.6989E-03    -26.9918E-03     8.29606E-03     57.9223E-03     194.332E+06    -15.7701E+06    -47.8758E+06    -224.135E+06    -47.8777E+06    -224.133E+06    -15.7701E+06     5.29485E+03
             712     30.7506E-03     3.89491E-03     30.5029E-03     53.8725E-03    -26.8962E-03    -26.9764E-03    -26.7400E-03     53.7163E-03    -26.9764E-03     7.06704E-03     56.4281E-03     201.247E+06    -28.4412E+06    -54.1774E+06    -241.281E+06    -54.1800E+06    -241.279E+06    -28.4412E+06    -627.776E+03
             713     30.6360E-03     2.92114E-03     30.4964E-03     53.8057E-03    -26.8604E-03    -26.9453E-03    -26.7604E-03     53.7057E-03    -26.9453E-03     5.62246E-03     55.3819E-03     201.684E+06    -43.3026E+06    -59.8917E+06    -252.723E+06    -59.8935E+06    -252.721E+06    -43.3026E+06    -509.794E+03
             714     30.5535E-03     1.94732E-03     30.4913E-03     53.8056E-03    -26.8769E-03    -26.9287E-03    -26.8422E-03     53.7539E-03    -26.9117E-03     3.99278E-03     54.7618E-03     200.131E+06    -56.4797E+06    -64.5529E+06    -260.501E+06    -64.5530E+06    -260.501E+06    -56.4797E+06    -113.484E+03
             715     30.5036E-03     973.825E-06     30.4881E-03     53.7652E-03    -26.8250E-03    -26.9402E-03    -26.9209E-03     53.7459E-03    -26.8250E-03     2.36990E-03     54.3509E-03     198.895E+06    -65.0849E+06    -68.1220E+06    -265.476E+06    -67.6300E+06    -265.476E+06    -65.5775E+06    -221.672E+03
             716     33.9551E-03     16.5595E-03     29.6434E-03     52.7096E-03    -25.6097E-03    -27.0999E-03    -24.9547E-03     51.5934E-03    -26.6387E-03     11.9669E-03     97.9932E-03     187.617E+06     206.701E+06     104.089E+06    -7.55835E+06    -7.55677E+06     206.699E+06     104.089E+06    -158.673E+03
             717     33.4663E-03     15.5848E-03     29.6160E-03     53.1423E-03    -26.2763E-03    -26.8660E-03    -25.2159E-03     51.6207E-03    -26.4048E-03     21.2570E-03     109.535E-03     185.123E+06     194.055E+06     48.1716E+06    -12.5917E+06    -12.5878E+06     194.051E+06     48.1716E+06     174.919E+03
             718     33.0089E-03     14.6100E-03     29.5996E-03     52.9250E-03    -26.1848E-03    -26.7402E-03    -25.4226E-03     51.7358E-03    -26.3132E-03     19.0868E-03     99.1233E-03     140.119E+06     134.489E+06     6.67510E+06    -14.9498E+06    -14.9415E+06     134.481E+06     6.67510E+06     816.569E+03
             719     32.5673E-03     13.6353E-03     29.5755E-03     53.5605E-03    -26.3961E-03    -27.1644E-03    -25.8623E-03     52.2585E-03    -26.3961E-03     20.2400E-03     100.421E-03     59.2442E+06     46.1510E+06    -9.02672E+06    -15.9422E+06    -15.9251E+06     46.1339E+06    -9.02672E+06     786.858E+03
             720     32.1542E-03     12.6609E-03     29.5566E-03     53.5820E-03    -26.5323E-03    -27.0497E-03    -26.1367E-03     52.6690E-03    -26.5323E-03     17.0075E-03     92.5143E-03     26.8338E+06     2.83705E+06    -13.2843E+06    -27.8056E+06    -17.0886E+06    -15.8581E+06    -5.30619E+06     585.538E+03
             721     31.7681E-03     11.6867E-03     29.5403E-03     53.5955E-03    -26.6364E-03    -26.9591E-03    -26.2512E-03     52.8876E-03    -26.6364E-03     15.0229E-03     84.7719E-03     49.9734E+06    -1.09524E+06    -18.6768E+06    -57.2660E+06    -18.6854E+06    -57.2574E+06    -1.09524E+06     482.083E+03
             722     31.4086E-03     10.7130E-03     29.5251E-03     53.6028E-03    -26.7246E-03    -26.8781E-03    -26.2992E-03     53.0249E-03    -26.7257E-03     13.5648E-03     78.0099E-03     81.4779E+06     3.06754E+06     -20.553E+06    -87.6098E+06    -20.5572E+06    -87.6056E+06     3.06754E+06     465.388E+03
             723     31.0772E-03     9.73833E-03     29.5120E-03     53.6435E-03    -26.8039E-03    -26.8396E-03    -26.3522E-03     53.1571E-03    -26.8049E-03     12.4706E-03     72.7578E-03     106.528E+06     6.41859E+06    -22.9960E+06    -111.715E+06    -22.9990E+06    -111.712E+06     6.41859E+06     508.817E+03
             724     30.7736E-03     8.76441E-03     29.4991E-03     53.7544E-03    -26.8416E-03    -26.9127E-03    -26.4615E-03     53.3255E-03    -26.8640E-03     11.7190E-03     68.6681E-03     128.913E+06     5.70652E+06    -26.3360E+06    -136.198E+06    -26.3387E+06    -136.195E+06     5.70652E+06     413.596E+03
             725     30.4990E-03     7.79046E-03     29.4873E-03     53.7834E-03    -26.8417E-03    -26.9417E-03    -26.4929E-03     53.4147E-03    -26.9218E-03     10.8739E-03     65.0754E-03     149.424E+06     5.11842E+06    -30.1677E+06    -158.790E+06    -30.1702E+06    -158.787E+06     5.11842E+06     452.828E+03
             726     30.2544E-03     6.81639E-03     29.4765E-03     53.8325E-03    -26.8658E-03    -26.9668E-03    -26.5473E-03     53.5140E-03    -26.9668E-03     10.1113E-03     62.1884E-03     166.428E+06     1.65319E+06    -35.0053E+06    -180.034E+06    -35.0119E+06    -180.028E+06     1.65319E+06     738.142E+03
             727     30.0399E-03     5.84248E-03     29.4663E-03     53.9081E-03    -26.9171E-03    -26.9910E-03    -26.6498E-03     53.6408E-03    -26.9910E-03     9.26855E-03     59.8570E-03     181.273E+06    -5.89532E+06    -41.1794E+06    -202.207E+06    -41.1858E+06    -202.200E+06    -5.89532E+06     501.726E+03
             728     29.8566E-03     4.86869E-03     29.4570E-03     53.9114E-03    -26.9107E-03    -27.0007E-03    -26.6974E-03     53.6981E-03    -27.0007E-03     8.27476E-03     57.9228E-03     194.218E+06    -15.4065E+06    -47.2813E+06    -223.564E+06    -47.2840E+06    -223.561E+06    -15.4065E+06    -280.200E+03
             729     29.7055E-03     3.89489E-03     29.4491E-03     53.8657E-03    -26.8737E-03    -26.9920E-03    -26.7175E-03     53.7095E-03    -26.9920E-03     7.06476E-03     56.4213E-03     201.764E+06    -28.3853E+06    -53.5074E+06    -241.499E+06    -53.5101E+06    -241.496E+06    -28.3853E+06    -658.685E+03
             730     29.5869E-03     2.92099E-03     29.4424E-03     53.8526E-03    -26.8845E-03    -26.9681E-03    -26.7838E-03     53.7519E-03    -26.9681E-03     5.64827E-03     55.4188E-03     202.476E+06    -43.1416E+06    -59.7222E+06    -253.362E+06    -59.7237E+06    -253.361E+06    -43.1416E+06    -449.955E+03
             731     29.5017E-03     1.94736E-03     29.4373E-03     53.8367E-03    -26.8923E-03    -26.9444E-03    -26.8451E-03     53.7841E-03    -26.9390E-03     4.02605E-03     54.7748E-03     200.464E+06    -56.6415E+06    -64.4818E+06    -260.876E+06    -64.4821E+06    -260.876E+06    -56.6415E+06    -226.953E+03
             732     29.4501E-03     973.533E-06     29.4340E-03     53.8352E-03    -26.8397E-03    -26.9956E-03    -26.9541E-03     53.8159E-03    -26.8618E-03     2.35586E-03     54.4108E-03     199.228E+06     -65.065E+06    -67.9016E+06    -265.695E+06    -67.4094E+06    -265.695E+06    -65.5577E+06    -12.5067E+03
             733     33.0393E-03     16.5596E-03     28.5898E-03     52.6447E-03    -25.6190E-03    -27.0257E-03    -24.8627E-03     51.5021E-03    -26.6394E-03     12.0341E-03     97.9258E-03     187.311E+06     206.440E+06     103.401E+06    -7.33852E+06    -7.33514E+06     206.436E+06     103.401E+06     265.334E+03
             734     32.5367E-03     15.5845E-03     28.5615E-03     53.2051E-03    -26.3986E-03    -26.8065E-03    -25.2710E-03     51.6755E-03    -26.4045E-03     21.2429E-03     109.687E-03     184.807E+06     192.827E+06     46.4471E+06    -13.3320E+06    -13.3292E+06     192.824E+06     46.4471E+06     83.9085E+03
             735     32.0671E-03     14.6101E-03     28.5455E-03     53.1427E-03    -26.3015E-03    -26.8413E-03    -25.6581E-03     51.9655E-03    -26.3073E-03     19.0127E-03     99.3188E-03     140.883E+06     134.377E+06     5.95319E+06    -15.9642E+06    -15.9595E+06     134.372E+06     5.95319E+06     329.474E+03
             736     31.6136E-03     13.6355E-03     28.5218E-03     53.4768E-03    -26.3859E-03    -27.0909E-03    -25.7915E-03     52.1774E-03    -26.3859E-03     20.1960E-03     100.258E-03     59.7782E+06     46.2229E+06    -9.25154E+06    -16.5489E+06    -16.5238E+06     46.1977E+06    -9.25154E+06     869.808E+03
             737     31.1881E-03     12.6609E-03     28.5026E-03     53.4246E-03    -26.5301E-03    -26.8945E-03    -25.9852E-03     52.5153E-03    -26.5301E-03     16.9472E-03     92.3539E-03     26.2599E+06     2.37255E+06    -13.3273E+06    -27.6483E+06    -17.1524E+06    -16.0436E+06    -5.40707E+06     813.387E+03
             738     30.7901E-03     11.6869E-03     28.4859E-03     53.5823E-03    -26.6414E-03    -26.9409E-03    -26.2336E-03     52.8749E-03    -26.6414E-03     15.0081E-03     84.7383E-03     49.9858E+06    -922.683E+03    -18.4805E+06    -57.0941E+06    -18.4952E+06    -57.0795E+06    -922.683E+03     638.039E+03
             739     30.4199E-03     10.7123E-03     28.4714E-03     53.6321E-03    -26.7301E-03    -26.9021E-03    -26.3260E-03     53.0561E-03    -26.7301E-03     13.5528E-03     78.0357E-03     81.5142E+06     3.06522E+06    -20.4500E+06    -87.6209E+06    -20.4557E+06    -87.6151E+06     3.06522E+06     587.691E+03
             740     30.0779E-03     9.73857E-03     28.4577E-03     53.6796E-03    -26.7949E-03    -26.8847E-03    -26.3859E-03     53.1923E-03    -26.8064E-03     12.4864E-03     72.7430E-03     106.511E+06     6.30803E+06    -22.9777E+06    -111.772E+06    -22.9817E+06    -111.768E+06     6.30803E+06     584.149E+03
             741     29.7647E-03     8.76452E-03     28.4450E-03     53.7123E-03    -26.8170E-03    -26.8953E-03    -26.4153E-03     53.2823E-03    -26.8670E-03     11.7317E-03     68.6080E-03     128.782E+06     5.73337E+06    -26.2392E+06    -136.015E+06    -26.2430E+06    -136.011E+06     5.73337E+06     503.099E+03
             742     29.4812E-03     7.79031E-03     28.4333E-03     53.7738E-03    -26.8448E-03    -26.9290E-03    -26.4758E-03     53.4048E-03    -26.9290E-03     10.8740E-03     65.0570E-03     149.393E+06     4.88309E+06    -30.5583E+06    -159.043E+06    -30.5608E+06    -159.040E+06     4.88309E+06     404.063E+03
             743     29.2283E-03     6.81631E-03     28.4223E-03     53.8658E-03    -26.8916E-03    -26.9742E-03    -26.5763E-03     53.5505E-03    -26.9742E-03     10.0642E-03     62.2137E-03     166.477E+06     1.48552E+06    -35.4315E+06    -180.336E+06    -35.4375E+06    -180.330E+06     1.48552E+06     750.480E+03
             744     29.0066E-03     5.84257E-03     28.4121E-03     53.8941E-03    -26.8959E-03    -26.9982E-03    -26.6287E-03     53.6269E-03    -26.9982E-03     9.26649E-03     59.8335E-03     181.050E+06    -5.70751E+06    -40.4699E+06    -201.601E+06    -40.4756E+06    -201.596E+06    -5.70751E+06     454.158E+03
             745     28.8173E-03     4.86861E-03     28.4030E-03     53.8905E-03    -26.8745E-03    -27.0159E-03    -26.6610E-03     53.6770E-03    -27.0159E-03     8.27511E-03     57.8965E-03     194.255E+06    -15.3243E+06    -46.5075E+06    -223.264E+06    -46.5084E+06    -223.263E+06    -15.3243E+06    -212.958E+03
             746     28.6608E-03     3.89470E-03     28.3950E-03     53.9172E-03    -26.9020E-03    -27.0152E-03    -26.7451E-03     53.7603E-03    -27.0152E-03     7.08667E-03     56.4519E-03     202.315E+06    -27.9775E+06    -53.0376E+06    -241.622E+06    -53.0389E+06    -241.621E+06    -27.9775E+06    -370.070E+03
             747     28.5383E-03     2.92104E-03     28.3884E-03     53.9180E-03    -26.9302E-03    -26.9878E-03    -26.8293E-03     53.8171E-03    -26.9878E-03     5.65262E-03     55.4570E-03     203.597E+06    -42.4640E+06    -58.6999E+06    -253.648E+06    -58.7012E+06    -253.647E+06    -42.4640E+06    -481.385E+03
             748     28.4498E-03     1.94725E-03     28.3831E-03     53.8680E-03    -26.9080E-03    -26.9600E-03    -26.8567E-03     53.8167E-03    -26.9600E-03     3.97142E-03     54.7736E-03     202.075E+06    -55.3729E+06    -63.3751E+06    -261.308E+06    -63.3757E+06    -261.307E+06    -55.3729E+06    -314.330E+03
             749     28.3968E-03     973.632E-06     28.3801E-03     53.8758E-03    -26.8428E-03    -27.0330E-03    -26.9818E-03     53.8563E-03    -26.8745E-03     2.41447E-03     54.4224E-03     200.051E+06    -64.1233E+06    -67.4659E+06    -265.819E+06    -67.0616E+06    -265.816E+06    -64.5300E+06     367.777E+03
             750     32.1315E-03     16.5596E-03     27.5357E-03     52.6888E-03    -25.6361E-03    -27.0527E-03    -24.9122E-03     51.5506E-03    -26.6383E-03     11.9960E-03     97.9006E-03     186.740E+06     205.941E+06     103.146E+06    -7.13323E+06    -7.13083E+06     205.938E+06     103.146E+06     461.980E+03
             751     31.6158E-03     15.5846E-03     27.5078E-03     53.1595E-03    -26.3251E-03    -26.8344E-03    -25.2170E-03     51.6212E-03    -26.4043E-03     21.3394E-03     109.551E-03     184.116E+06     192.966E+06     46.6717E+06    -12.2665E+06    -12.2631E+06     192.962E+06     46.6717E+06     620.094E+03
             752     31.1316E-03     14.6099E-03     27.4905E-03     53.1309E-03    -26.2322E-03    -26.8986E-03    -25.6472E-03     51.9586E-03    -26.3114E-03     19.0169E-03     99.3074E-03     140.069E+06     133.996E+06     6.20487E+06    -15.4441E+06    -15.4415E+06     133.993E+06     6.20487E+06     439.731E+03
             753     30.6667E-03     13.6358E-03     27.4683E-03     53.5986E-03    -26.3872E-03    -27.2114E-03    -25.9178E-03     52.3050E-03    -26.3872E-03     20.2071E-03     100.365E-03     59.5510E+06     45.9424E+06    -8.93697E+06    -16.7599E+06    -16.7467E+06     45.9291E+06    -8.93697E+06     576.368E+03
             754     30.2280E-03     12.6612E-03     27.4486E-03     53.4096E-03    -26.5274E-03    -26.8822E-03    -25.9466E-03     52.4740E-03    -26.5274E-03     17.1904E-03     92.2779E-03     26.9415E+06     2.81167E+06    -12.8294E+06    -28.0294E+06    -17.0918E+06    -15.9100E+06    -5.04532E+06     660.477E+03
             755     29.8177E-03     11.6865E-03     27.4321E-03     53.5283E-03    -26.6424E-03    -26.8859E-03    -26.1735E-03     52.8160E-03    -26.6424E-03     15.0361E-03     84.6628E-03     50.4632E+06    -546.965E+03    -17.9762E+06    -57.2262E+06    -17.9891E+06    -57.2134E+06    -546.965E+03     589.215E+03
             756     29.4357E-03     10.7128E-03     27.4171E-03     53.6468E-03    -26.7291E-03    -26.9177E-03    -26.3490E-03     53.0812E-03    -26.7322E-03     13.4368E-03     78.0463E-03     81.7286E+06     3.45601E+06    -19.8665E+06    -87.3976E+06    -19.8739E+06    -87.3902E+06     3.45601E+06     695.745E+03
             757     29.0826E-03     9.73848E-03     27.4037E-03     53.6406E-03    -26.7876E-03    -26.8530E-03    -26.3457E-03     53.1545E-03    -26.8088E-03     12.4663E-03     72.6813E-03      106.87E+06     6.25285E+06    -22.7017E+06      -112.1E+06    -22.7077E+06    -112.094E+06     6.25285E+06     696.737E+03
             758     28.7591E-03     8.76422E-03     27.3911E-03     53.7084E-03    -26.8358E-03    -26.8726E-03    -26.4053E-03     53.2780E-03    -26.8726E-03     11.7366E-03     68.5951E-03     128.866E+06     5.72752E+06    -26.1162E+06    -136.070E+06    -26.1226E+06    -136.064E+06     5.72752E+06     816.219E+03
             759     28.4659E-03     7.79031E-03     27.3792E-03     53.8106E-03    -26.8781E-03    -26.9325E-03    -26.5080E-03     53.4405E-03    -26.9325E-03     10.8948E-03     65.0705E-03     149.137E+06     4.65401E+06    -30.4387E+06    -158.897E+06    -30.4471E+06    -158.889E+06     4.65401E+06     945.529E+03
             760     28.2043E-03     6.81650E-03     27.3682E-03     53.8432E-03    -26.8695E-03    -26.9737E-03    -26.5521E-03     53.5258E-03    -26.9737E-03     10.0970E-03     62.1688E-03     165.613E+06     270.905E+03    -35.6120E+06    -180.323E+06    -35.6162E+06    -180.319E+06     270.905E+03     408.724E+03
             761     27.9750E-03     5.84233E-03     27.3581E-03     53.8583E-03    -26.8538E-03    -27.0044E-03    -26.5857E-03     53.5901E-03    -27.0044E-03     9.27627E-03     59.7846E-03     179.947E+06    -7.04055E+06    -41.0798E+06    -201.564E+06    -41.0816E+06    -201.562E+06    -7.04055E+06     249.462E+03
             762     27.7789E-03     4.86846E-03     27.3489E-03     53.9167E-03    -26.8861E-03    -27.0305E-03    -26.6743E-03     53.7048E-03    -27.0305E-03     8.24228E-03     57.9174E-03     193.392E+06    -15.8221E+06    -46.9986E+06    -222.888E+06    -47.0002E+06    -222.887E+06    -15.8221E+06     164.842E+03
             763     27.6170E-03     3.89469E-03     27.3410E-03     53.9578E-03    -26.9291E-03    -27.0287E-03    -26.7733E-03     53.8019E-03    -27.0287E-03     7.06876E-03     56.4927E-03     201.696E+06    -28.3313E+06    -53.2886E+06    -241.309E+06    -53.2901E+06    -241.307E+06    -28.3313E+06    -430.609E+03
             764     27.4897E-03     2.92093E-03     27.3340E-03     53.9507E-03    -26.9517E-03    -26.9990E-03    -26.8513E-03     53.8503E-03    -26.9990E-03     5.63562E-03     55.4854E-03     203.615E+06    -42.8491E+06    -59.2848E+06    -254.146E+06    -59.2865E+06    -254.145E+06    -42.8491E+06    -564.886E+03
             765     27.3986E-03     1.94733E-03     27.3293E-03     53.9156E-03    -26.9352E-03    -26.9804E-03    -26.9103E-03     53.8652E-03    -26.9549E-03     3.94442E-03     54.8179E-03     202.190E+06    -55.5822E+06    -64.1437E+06    -261.894E+06    -64.1443E+06    -261.893E+06    -55.5822E+06    -229.361E+03
             766     27.3430E-03     973.620E-06     27.3257E-03     53.8303E-03    -26.8610E-03    -26.9693E-03    -26.9406E-03     53.8112E-03    -26.8705E-03     2.38405E-03     54.3744E-03     199.677E+06    -64.4304E+06    -67.4320E+06    -265.581E+06    -67.0215E+06    -265.579E+06    -64.8429E+06     327.728E+03
             767     31.2329E-03     16.5595E-03     26.4816E-03     52.7550E-03    -25.6774E-03    -27.0776E-03    -24.9728E-03     51.6100E-03    -26.6372E-03     12.0089E-03     97.9235E-03     186.327E+06     205.570E+06     103.314E+06    -7.08232E+06    -7.08133E+06     205.569E+06     103.314E+06     427.778E+03
             768     30.7030E-03     15.5849E-03     26.4535E-03     53.0991E-03    -26.2552E-03    -26.8440E-03    -25.1527E-03     51.5562E-03    -26.4036E-03     21.3508E-03     109.416E-03     183.956E+06     192.827E+06     46.9306E+06    -12.2516E+06    -12.2496E+06     192.825E+06     46.9306E+06     555.776E+03
             769     30.2052E-03     14.6097E-03     26.4369E-03     52.9621E-03    -26.1687E-03    -26.7935E-03    -25.4584E-03     51.7755E-03    -26.3170E-03     19.0734E-03     99.1086E-03     139.129E+06     133.401E+06     6.07909E+06    -14.7218E+06    -14.7180E+06     133.397E+06     6.07909E+06     666.305E+03
             770     29.7252E-03     13.6351E-03     26.4134E-03     53.6417E-03    -26.4003E-03    -27.2414E-03    -25.9400E-03     52.3403E-03    -26.4003E-03     20.2538E-03     100.431E-03     58.5950E+06     45.7652E+06    -8.67045E+06    -15.6112E+06    -15.6065E+06     45.7605E+06    -8.67045E+06     497.374E+03
             771     29.2748E-03     12.6611E-03     26.3953E-03     53.6186E-03    -26.5329E-03    -27.0858E-03    -26.1495E-03     52.6824E-03    -26.5329E-03     17.2513E-03     92.4379E-03     26.7618E+06     3.11940E+06    -12.2542E+06    -27.4692E+06    -16.3772E+06    -15.4989E+06    -4.72793E+06     425.939E+03
             772     28.8508E-03     11.6869E-03     26.3777E-03     53.5557E-03    -26.6387E-03    -26.9170E-03    -26.1895E-03     52.8282E-03    -26.6387E-03     15.1993E-03     84.6009E-03     50.6399E+06    -671.102E+03    -17.5088E+06    -57.3988E+06    -17.5205E+06    -57.3870E+06    -671.102E+03     613.770E+03
             773     28.4564E-03     10.7125E-03     26.3630E-03     53.5791E-03    -26.7290E-03    -26.8501E-03    -26.2751E-03     53.0072E-03    -26.7322E-03     13.4953E-03     77.9584E-03     82.1732E+06     3.42263E+06    -19.3872E+06    -87.7440E+06    -19.3984E+06    -87.7328E+06     3.42263E+06     867.098E+03
             774     28.0917E-03     9.73837E-03     26.3497E-03     53.6538E-03    -26.8018E-03    -26.8520E-03    -26.3588E-03     53.1703E-03    -26.8115E-03     12.4342E-03     72.6974E-03     106.988E+06     6.25987E+06    -22.1574E+06    -112.058E+06    -22.1684E+06    -112.047E+06     6.25987E+06     950.798E+03
             775     27.7570E-03     8.76441E-03     26.3370E-03     53.7261E-03    -26.8404E-03    -26.8857E-03    -26.4258E-03     53.2990E-03    -26.8732E-03     11.6960E-03     68.5923E-03     129.047E+06     5.48685E+06    -25.5805E+06    -136.251E+06    -25.5905E+06    -136.240E+06     5.48685E+06     1.03676E+06
             776     27.4536E-03     7.79033E-03     26.3251E-03     53.7805E-03    -26.8467E-03    -26.9338E-03    -26.4754E-03     53.4092E-03    -26.9338E-03     10.9101E-03     65.0241E-03     149.258E+06     4.46646E+06    -29.3391E+06    -158.792E+06     -29.349E+06    -158.782E+06     4.46646E+06     1.03726E+06
             777     27.1826E-03     6.81615E-03     26.3142E-03     53.8459E-03    -26.8640E-03    -26.9819E-03    -26.5483E-03     53.5301E-03    -26.9819E-03     10.0662E-03     62.1777E-03     166.201E+06     754.222E+03    -34.1459E+06    -180.116E+06    -34.1590E+06    -180.103E+06     754.222E+03     910.417E+03
             778     26.9451E-03     5.84240E-03     26.3041E-03     53.8946E-03    -26.8820E-03    -27.0126E-03    -26.6197E-03     53.6323E-03    -27.0126E-03     9.17959E-03     59.8287E-03     180.200E+06    -6.63577E+06    -40.3863E+06    -201.315E+06    -40.3972E+06    -201.304E+06    -6.63577E+06     788.983E+03
             779     26.7417E-03     4.86845E-03     26.2948E-03     53.9332E-03    -26.9012E-03    -27.0320E-03    -26.6921E-03     53.7241E-03    -27.0320E-03     8.19362E-03     57.9347E-03     192.703E+06    -16.0727E+06    -46.7938E+06    -222.269E+06    -46.7955E+06    -222.267E+06    -16.0727E+06     165.483E+03
             780     26.5737E-03     3.89469E-03     26.2867E-03     53.9656E-03    -26.9324E-03    -27.0332E-03    -26.7784E-03     53.8117E-03    -27.0332E-03     7.02279E-03     56.4913E-03     202.027E+06    -27.8569E+06    -53.0646E+06    -241.278E+06    -53.0655E+06    -241.277E+06    -27.8569E+06    -341.764E+03
             781     26.4419E-03     2.92093E-03     26.2801E-03     53.9621E-03    -26.9576E-03    -27.0045E-03    -26.8583E-03     53.8628E-03    -27.0045E-03     5.61158E-03     55.4815E-03     204.403E+06    -42.1708E+06    -59.4494E+06    -254.624E+06    -59.4501E+06    -254.623E+06    -42.1708E+06    -277.094E+03
             782     26.3469E-03     1.94726E-03     26.2748E-03     53.9209E-03    -26.9451E-03    -26.9758E-03    -26.9205E-03     53.8708E-03    -26.9503E-03     3.92203E-03     54.8217E-03     202.427E+06    -56.0685E+06    -64.7970E+06    -262.691E+06    -64.7982E+06    -262.689E+06    -56.0685E+06    -266.242E+03
             783     26.2899E-03     973.822E-06     26.2719E-03     53.8053E-03    -26.8489E-03    -26.9565E-03    -26.9364E-03     53.7871E-03    -26.8507E-03     2.32311E-03     54.3748E-03     198.647E+06    -65.6184E+06    -68.1614E+06    -265.514E+06    -68.1588E+06    -265.511E+06    -65.6242E+06     144.605E+03
             784     30.3446E-03     16.5599E-03     25.4277E-03     52.7875E-03    -25.6992E-03    -27.0883E-03    -24.9708E-03     51.6129E-03    -26.6421E-03     12.1868E-03     97.9380E-03     185.939E+06     205.222E+06     103.502E+06    -6.98479E+06    -6.98210E+06     205.219E+06     103.502E+06     491.386E+03
             785     29.7994E-03     15.5845E-03     25.3994E-03     53.1167E-03    -26.2600E-03    -26.8567E-03    -25.1397E-03     51.5502E-03    -26.4105E-03     21.4656E-03     109.421E-03     183.614E+06     192.753E+06     47.4450E+06    -12.0518E+06    -12.0489E+06     192.751E+06     47.4450E+06     696.449E+03
             786     29.2873E-03     14.6100E-03     25.3830E-03     52.9577E-03    -26.1725E-03    -26.7852E-03    -25.4451E-03     51.7681E-03    -26.3231E-03     19.0750E-03     99.1158E-03     139.072E+06     133.365E+06     6.13067E+06    -14.6819E+06    -14.6799E+06     133.363E+06     6.13067E+06     286.245E+03
             787     28.7929E-03     13.6351E-03     25.3598E-03     53.6168E-03    -26.4058E-03    -27.2110E-03    -25.9139E-03     52.3197E-03    -26.4058E-03     20.1945E-03     100.418E-03     57.9233E+06     45.2160E+06    -9.14256E+06    -15.2026E+06    -15.1999E+06     45.2133E+06    -9.14256E+06     184.503E+03
             788     28.3272E-03     12.6608E-03     25.3403E-03     53.6549E-03    -26.5388E-03    -27.1162E-03    -26.2021E-03     52.7409E-03    -26.5388E-03     17.0559E-03     92.4950E-03     25.9571E+06     2.66869E+06    -12.1804E+06    -26.8886E+06    -15.6379E+06    -15.8507E+06    -4.91164E+06     515.025E+03
             789     27.8908E-03     11.6868E-03     25.3242E-03     53.6006E-03    -26.6412E-03    -26.9594E-03    -26.2321E-03     52.8734E-03    -26.6412E-03     15.2168E-03     84.6057E-03     50.4824E+06    -968.114E+03    -17.2947E+06    -57.4283E+06    -17.3212E+06    -57.4018E+06    -968.114E+03     946.437E+03
             790     27.4827E-03     10.7124E-03     25.3089E-03     53.5766E-03    -26.7324E-03    -26.8442E-03    -26.2662E-03     52.9986E-03    -26.7324E-03     13.5603E-03     77.9215E-03     81.9947E+06     2.69452E+06    -19.4539E+06    -88.0969E+06    -19.4733E+06    -88.0775E+06     2.69452E+06     1.09064E+06
             791     27.1054E-03     9.73846E-03     25.2956E-03     53.6729E-03    -26.8108E-03    -26.8621E-03    -26.3776E-03     53.1885E-03    -26.8108E-03     12.4511E-03     72.7034E-03     106.682E+06     5.47639E+06    -22.0125E+06    -112.247E+06    -22.0312E+06    -112.229E+06     5.47639E+06     1.27186E+06
             792     26.7589E-03     8.76432E-03     25.2829E-03     53.7477E-03    -26.8474E-03    -26.9003E-03    -26.4472E-03     53.3181E-03    -26.8709E-03     11.7310E-03     68.5975E-03     128.651E+06     4.78357E+06    -25.3406E+06    -136.251E+06    -25.3572E+06    -136.234E+06     4.78357E+06     1.29845E+06
             793     26.4446E-03     7.79020E-03     25.2711E-03     53.7826E-03    -26.8452E-03    -26.9374E-03    -26.4845E-03     53.4158E-03    -26.9313E-03     10.8425E-03     65.0385E-03     148.702E+06     3.87805E+06    -29.6486E+06    -158.724E+06    -29.6665E+06    -158.706E+06     3.87805E+06     1.29242E+06
             794     26.1635E-03     6.81635E-03     25.2600E-03     53.8351E-03    -26.8564E-03    -26.9787E-03    -26.5458E-03     53.5245E-03    -26.9787E-03     9.98420E-03     62.1665E-03     165.471E+06     40.5562E+03    -34.8941E+06    -180.095E+06    -34.9164E+06    -180.073E+06     40.5562E+03     1.49337E+06
             795     25.9170E-03     5.84234E-03     25.2499E-03     53.9036E-03    -26.8965E-03    -27.0071E-03    -26.6363E-03     53.6434E-03    -27.0071E-03     9.14384E-03     59.8425E-03     179.337E+06    -7.03983E+06    -40.2906E+06    -200.664E+06    -40.3046E+06    -200.650E+06    -7.03983E+06     1.25024E+06
             796     25.7060E-03     4.86856E-03     25.2408E-03     53.9390E-03    -26.9163E-03    -27.0227E-03    -26.7081E-03     53.7308E-03    -27.0227E-03     8.17799E-03     57.9419E-03     191.900E+06    -16.4153E+06    -46.4323E+06    -221.534E+06    -46.4375E+06    -221.529E+06    -16.4153E+06     698.066E+03
             797     25.5315E-03     3.89467E-03     25.2326E-03     53.9550E-03    -26.9329E-03    -27.0221E-03    -26.7804E-03     53.8025E-03    -27.0221E-03     6.98638E-03     56.4725E-03     201.733E+06    -28.2602E+06    -53.2680E+06    -241.310E+06    -53.2694E+06    -241.309E+06    -28.2602E+06     80.8406E+03
             798     25.3945E-03     2.92101E-03     25.2259E-03     53.9323E-03    -26.9350E-03    -26.9973E-03    -26.8366E-03     53.8340E-03    -26.9973E-03     5.58776E-03     55.4368E-03     204.789E+06    -41.8980E+06    -59.3138E+06    -254.796E+06    -59.3141E+06    -254.796E+06    -41.8980E+06    -152.257E+03
             799     25.2959E-03     1.94736E-03     25.2208E-03     53.8800E-03    -26.9166E-03    -26.9634E-03    -26.8662E-03     53.8296E-03    -26.9634E-03     3.93054E-03     54.7607E-03     203.295E+06    -55.5409E+06    -64.5438E+06    -263.164E+06    -64.5450E+06    -263.163E+06    -55.5409E+06    -302.459E+03
             800     25.2365E-03     973.492E-06     25.2177E-03     53.8587E-03    -26.8499E-03    -27.0089E-03    -26.9725E-03     53.8405E-03    -26.8680E-03     2.32531E-03     54.4187E-03     198.997E+06    -65.4673E+06    -68.4882E+06    -265.947E+06    -68.4923E+06    -265.943E+06    -65.4673E+06    -176.715E+03
             801     29.4665E-03     16.5591E-03     24.3736E-03     52.7287E-03    -25.6525E-03    -27.0762E-03    -24.9188E-03     51.5683E-03    -26.6495E-03     12.1452E-03     97.9356E-03     185.487E+06     204.640E+06     103.013E+06    -7.03108E+06    -7.02832E+06     204.637E+06     103.013E+06     214.279E+03
             802     28.9063E-03     15.5846E-03     24.3453E-03     53.1673E-03    -26.3197E-03    -26.8476E-03    -25.1885E-03     51.6094E-03    -26.4210E-03     21.4438E-03     109.496E-03     183.376E+06     192.595E+06     47.5437E+06    -12.0286E+06    -12.0230E+06     192.590E+06     47.5437E+06     681.924E+03
             803     28.3785E-03     14.6094E-03     24.3291E-03     53.0841E-03    -26.2258E-03    -26.8583E-03    -25.5786E-03     51.9056E-03    -26.3271E-03     19.0396E-03     99.2409E-03     140.133E+06     134.559E+06     6.45618E+06    -14.6534E+06    -14.6497E+06     134.555E+06     6.45618E+06     380.655E+03
             804     27.8689E-03     13.6354E-03     24.3054E-03     53.6301E-03    -26.3981E-03    -27.2320E-03    -25.9301E-03     52.3282E-03    -26.3981E-03     20.2666E-03     100.367E-03     58.4309E+06     44.9155E+06    -10.6917E+06    -15.7404E+06    -15.7384E+06     44.9136E+06    -10.6917E+06    -132.327E+03
             805     27.3886E-03     12.6610E-03     24.2865E-03     53.5542E-03    -26.5329E-03    -27.0212E-03    -26.1027E-03     52.6357E-03    -26.5329E-03     17.0494E-03     92.3856E-03     24.9186E+06     390.245E+03    -14.0431E+06    -27.7372E+06    -16.4867E+06    -17.6319E+06    -7.27133E+06     617.346E+03
             806     26.9369E-03     11.6865E-03     24.2698E-03     53.6179E-03    -26.6409E-03    -26.9770E-03    -26.2673E-03     52.9082E-03    -26.6409E-03     15.0446E-03     84.6878E-03     49.8231E+06    -2.16135E+06    -17.4856E+06    -57.6906E+06    -17.5339E+06    -57.6423E+06    -2.16135E+06     1.18458E+06
             807     26.5154E-03     10.7127E-03     24.2550E-03     53.6253E-03    -26.7297E-03    -26.8956E-03    -26.3218E-03     53.0515E-03    -26.7297E-03     13.5180E-03     77.9348E-03     81.6499E+06     1.87807E+06    -19.2667E+06    -88.2607E+06    -19.2995E+06    -88.2280E+06     1.87807E+06     1.41112E+06
             808     26.1244E-03     9.73825E-03     24.2415E-03     53.6401E-03    -26.8063E-03    -26.8338E-03    -26.3502E-03     53.1579E-03    -26.8077E-03     12.4174E-03     72.6711E-03     106.218E+06     4.65394E+06    -22.1821E+06    -112.402E+06    -22.2202E+06    -112.364E+06     4.65394E+06     1.78147E+06
             809     25.7652E-03     8.76425E-03     24.2288E-03     53.7688E-03    -26.8659E-03    -26.9029E-03    -26.4756E-03     53.3429E-03    -26.8673E-03     11.6799E-03     68.6362E-03     127.821E+06     3.81559E+06    -26.0457E+06    -136.288E+06    -26.0837E+06    -136.250E+06     3.81559E+06     1.93879E+06
             810     25.4391E-03     7.79044E-03     24.2169E-03     53.8154E-03    -26.8681E-03    -26.9472E-03    -26.5322E-03     53.4546E-03    -26.9224E-03     10.7597E-03     65.0777E-03     147.751E+06     2.78064E+06    -30.6603E+06    -158.824E+06    -30.7004E+06    -158.784E+06     2.78064E+06     2.14940E+06
             811     25.1475E-03     6.81632E-03     24.2061E-03     53.8098E-03    -26.8458E-03    -26.9640E-03    -26.5350E-03     53.4990E-03    -26.9640E-03     9.98684E-03     62.1331E-03     163.880E+06    -1.24571E+06    -35.6927E+06    -179.594E+06    -35.7212E+06    -179.566E+06    -1.24571E+06     1.87971E+06
             812     24.8911E-03     5.84239E-03     24.1958E-03     53.8687E-03    -26.8759E-03    -26.9928E-03    -26.6154E-03     53.6082E-03    -26.9928E-03     9.14572E-03     59.8075E-03     177.805E+06    -8.55491E+06    -41.3655E+06    -200.474E+06    -41.3801E+06    -200.459E+06    -8.55491E+06     1.42373E+06
             813     24.6717E-03     4.86851E-03     24.1866E-03     53.9315E-03    -26.9222E-03    -27.0092E-03    -26.7157E-03     53.7249E-03    -27.0092E-03     8.14589E-03     57.9408E-03     190.224E+06    -17.3560E+06    -47.4529E+06    -220.814E+06    -47.4621E+06    -220.805E+06    -17.3560E+06     1.23670E+06
             814     24.4903E-03     3.89484E-03     24.1786E-03     53.9302E-03    -26.9252E-03    -27.0050E-03    -26.7728E-03     53.7779E-03    -27.0050E-03     6.98319E-03     56.4441E-03     200.352E+06    -29.0588E+06    -53.4583E+06    -240.463E+06    -53.4618E+06    -240.459E+06    -29.0588E+06     408.451E+03
             815     24.3477E-03     2.92103E-03     24.1718E-03     53.8764E-03    -26.8890E-03    -26.9874E-03    -26.7905E-03     53.7779E-03    -26.9874E-03     5.58623E-03     55.3734E-03     204.405E+06    -42.8828E+06    -59.6038E+06    -255.101E+06    -59.6040E+06    -255.101E+06    -42.8828E+06    -155.316E+03
             816     24.2452E-03     1.94719E-03     24.1668E-03     53.8696E-03    -26.8998E-03    -26.9698E-03    -26.8501E-03     53.8187E-03    -26.9686E-03     3.95910E-03     54.7335E-03     203.034E+06    -55.8908E+06    -64.7815E+06      -263.2E+06    -64.7817E+06    -263.200E+06    -55.8908E+06    -151.189E+03
             817     24.1831E-03     973.691E-06     24.1635E-03     53.8846E-03    -26.8877E-03    -26.9969E-03    -26.9624E-03     53.8665E-03    -26.9041E-03     2.27428E-03     54.4017E-03     199.579E+06    -65.2402E+06    -68.6441E+06    -266.492E+06    -68.1340E+06    -266.491E+06    -65.7515E+06    -440.699E+03
             818     28.6008E-03     16.5596E-03     23.3192E-03     52.6656E-03    -25.6420E-03    -27.0236E-03    -24.8977E-03     51.5469E-03    -26.6492E-03     11.9564E-03     98.0011E-03     185.216E+06     204.232E+06     102.453E+06    -7.03343E+06    -7.03202E+06     204.231E+06     102.453E+06     162.944E+03
             819     28.0244E-03     15.5841E-03     23.2917E-03     53.1872E-03    -26.3953E-03    -26.7919E-03    -25.2395E-03     51.6570E-03    -26.4175E-03     21.3314E-03     109.580E-03     183.296E+06     192.020E+06     46.4106E+06    -12.3462E+06    -12.3419E+06     192.016E+06     46.4106E+06     546.090E+03
             820     27.4798E-03     14.6100E-03     23.2743E-03     53.0873E-03    -26.3100E-03    -26.7773E-03    -25.6095E-03     51.9417E-03    -26.3322E-03     18.8311E-03     99.3298E-03     140.500E+06     134.996E+06     7.67145E+06    -15.4376E+06    -15.4256E+06     134.985E+06     7.67145E+06     942.148E+03
             821     26.9549E-03     13.6351E-03     23.2519E-03     53.5424E-03    -26.3996E-03    -27.1427E-03    -25.8666E-03     52.2662E-03    -26.3996E-03     20.0862E-03     100.331E-03     59.2836E+06     44.8159E+06    -10.6659E+06    -17.4846E+06    -17.4615E+06     44.7927E+06    -10.6659E+06     637.912E+03
             822     26.4580E-03     12.6607E-03     23.2321E-03     53.5715E-03    -26.5212E-03    -27.0504E-03    -26.1173E-03     52.6385E-03    -26.5212E-03     17.1692E-03     92.3183E-03     24.2943E+06    -1.77474E+06    -16.5657E+06    -28.9600E+06    -18.5146E+06    -18.4918E+06    -10.2940E+06     311.843E+03
             823     25.9916E-03     11.6868E-03     23.2160E-03     53.6128E-03    -26.6307E-03    -26.9821E-03    -26.2841E-03     52.9149E-03    -26.6307E-03     14.9191E-03     84.7153E-03      48.692E+06    -4.32351E+06    -18.7699E+06    -58.4412E+06    -18.8427E+06    -58.3683E+06    -4.32351E+06     907.218E+03
             824     25.5543E-03     10.7124E-03     23.2006E-03     53.6123E-03    -26.7214E-03    -26.8908E-03    -26.3253E-03     53.0468E-03    -26.7214E-03     13.4209E-03     77.9197E-03     80.9621E+06     402.512E+03    -20.4555E+06    -88.9395E+06    -20.5175E+06    -88.8775E+06     402.512E+03     1.96115E+06
             825     25.1498E-03     9.73856E-03     23.1878E-03     53.6751E-03    -26.7954E-03    -26.8797E-03    -26.4035E-03     53.2003E-03    -26.7969E-03     12.3280E-03     72.7044E-03     104.984E+06     3.62521E+06    -23.4853E+06    -112.249E+06    -23.5566E+06    -112.177E+06     3.62521E+06     2.47026E+06
             826     24.7764E-03     8.76435E-03     23.1744E-03     53.7194E-03    -26.8131E-03    -26.9063E-03    -26.4461E-03     53.3002E-03    -26.8541E-03     11.5848E-03     68.5846E-03     126.982E+06     2.87261E+06    -26.8575E+06    -136.327E+06    -26.9229E+06    -136.262E+06     2.87261E+06     2.59974E+06
             827     24.4379E-03     7.79032E-03     23.1629E-03     53.7793E-03    -26.8448E-03    -26.9346E-03    -26.5118E-03     53.4220E-03    -26.9101E-03     10.7040E-03     65.0398E-03     147.081E+06     1.89558E+06    -30.8873E+06    -158.810E+06    -30.9350E+06    -158.762E+06     1.89558E+06     2.43464E+06
             828     24.1345E-03     6.81645E-03     23.1519E-03     53.8312E-03    -26.8738E-03    -26.9574E-03    -26.5731E-03     53.5248E-03    -26.9517E-03     9.91908E-03     62.1646E-03     163.243E+06    -1.38917E+06    -35.7285E+06    -179.059E+06    -35.7709E+06    -179.017E+06    -1.38917E+06     2.44048E+06
             829     23.8679E-03     5.84250E-03     23.1418E-03     53.8385E-03    -26.8634E-03    -26.9751E-03    -26.6052E-03     53.5803E-03    -26.9751E-03     9.10473E-03     59.7727E-03     176.827E+06    -8.96641E+06    -41.5896E+06    -199.820E+06    -41.6200E+06    -199.790E+06    -8.96641E+06     2.07048E+06
             830     23.6393E-03     4.86863E-03     23.1325E-03     53.8649E-03    -26.8738E-03    -26.9911E-03    -26.6672E-03     53.6583E-03    -26.9911E-03     8.13981E-03     57.8701E-03     188.862E+06    -18.4474E+06    -47.6854E+06    -220.202E+06    -47.6956E+06    -220.191E+06    -18.4474E+06     1.20288E+06
             831     23.4501E-03     3.89478E-03     23.1244E-03     53.8857E-03    -26.8903E-03    -26.9954E-03    -26.7379E-03     53.7333E-03    -26.9954E-03     6.98101E-03     56.3935E-03     199.027E+06    -29.8729E+06    -53.6930E+06    -239.711E+06    -53.6965E+06    -239.707E+06    -29.8729E+06     623.602E+03
             832     23.3017E-03     2.92099E-03     23.1179E-03     53.8890E-03    -26.9032E-03    -26.9858E-03    -26.8143E-03     53.7911E-03    -26.9768E-03     5.56651E-03     55.3715E-03     203.625E+06    -43.7645E+06    -59.7808E+06    -254.884E+06    -59.7820E+06    -254.883E+06    -43.7645E+06     221.511E+03
             833     23.1946E-03     1.94733E-03     23.1127E-03     53.8565E-03    -26.9007E-03    -26.9559E-03    -26.8608E-03     53.8065E-03    -26.9457E-03     3.92833E-03     54.7091E-03     202.534E+06    -56.9721E+06    -64.8731E+06    -263.319E+06    -64.8732E+06    -263.318E+06    -56.9721E+06     29.0575E+03
             834     23.1299E-03     973.583E-06     23.1094E-03     53.8340E-03    -26.8499E-03    -26.9841E-03    -26.9472E-03     53.8160E-03    -26.8688E-03     2.27423E-03     54.3316E-03     199.539E+06    -65.7425E+06    -68.9784E+06    -266.876E+06    -68.4680E+06    -266.875E+06    -66.2538E+06     45.1889E+03
             835     27.7481E-03     16.5592E-03     22.2654E-03     52.6943E-03    -25.6297E-03    -27.0646E-03    -24.9300E-03     51.5767E-03    -26.6468E-03     12.0191E-03     97.9601E-03     185.070E+06     203.925E+06     102.711E+06    -7.20164E+06    -7.20077E+06     203.925E+06     102.711E+06     171.217E+03
             836     27.1549E-03     15.5848E-03     22.2374E-03     53.1842E-03    -26.3606E-03    -26.8236E-03    -25.2342E-03     51.6400E-03    -26.4058E-03     21.4713E-03     109.482E-03     182.881E+06     191.015E+06     44.9273E+06    -12.3041E+06    -12.2975E+06     191.008E+06     44.9273E+06     750.635E+03
             837     26.5927E-03     14.6097E-03     22.2200E-03     53.0531E-03    -26.2856E-03    -26.7675E-03    -25.5763E-03     51.9070E-03    -26.3308E-03     18.8591E-03     99.3171E-03     139.110E+06     134.054E+06     7.99352E+06    -15.1307E+06    -15.1068E+06     134.030E+06     7.99352E+06     1.61634E+06
             838     26.0515E-03     13.6355E-03     22.1981E-03     53.5882E-03    -26.4025E-03    -27.1857E-03    -25.9380E-03     52.3405E-03    -26.4025E-03     19.8728E-03     100.403E-03     59.1472E+06     46.1770E+06    -8.38248E+06    -16.6717E+06    -16.6028E+06     46.1081E+06    -8.38248E+06     1.70763E+06
             839     25.5376E-03     12.6609E-03     22.1781E-03     53.5608E-03    -26.5108E-03    -27.0501E-03    -26.1282E-03     52.6389E-03    -26.5108E-03     17.0806E-03     92.2813E-03     26.2218E+06    -467.347E+03    -16.6176E+06    -29.5351E+06    -18.1827E+06    -18.1623E+06    -10.2750E+06     866.835E+03
             840     25.0542E-03     11.6867E-03     22.1615E-03     53.5776E-03    -26.6192E-03    -26.9584E-03    -26.2749E-03     52.8941E-03    -26.6192E-03     14.7447E-03     84.6805E-03     49.0252E+06    -5.48682E+06    -20.4844E+06    -60.1332E+06    -20.5604E+06    -60.0571E+06    -5.48682E+06     1.03616E+06
             841     24.6020E-03     10.7127E-03     22.1471E-03     53.6100E-03    -26.7038E-03    -26.9062E-03    -26.3536E-03     53.0574E-03    -26.7038E-03     13.2818E-03     77.9045E-03     79.8476E+06    -1.17897E+06    -22.4075E+06    -89.4896E+06    -22.4789E+06    -89.4181E+06    -1.17897E+06     2.14303E+06
             842     24.1807E-03     9.73844E-03     22.1330E-03     53.6551E-03    -26.7763E-03    -26.8788E-03    -26.4095E-03     53.1858E-03    -26.7763E-03     12.2485E-03     72.6425E-03     104.512E+06     2.46373E+06    -24.3428E+06    -112.832E+06    -24.4220E+06    -112.753E+06     2.46373E+06     2.61165E+06
             843     23.7940E-03     8.76471E-03     22.1209E-03     53.6828E-03    -26.7929E-03    -26.8899E-03    -26.4414E-03     53.2739E-03    -26.8324E-03     11.4439E-03     68.5240E-03     126.115E+06     2.29295E+06    -27.3948E+06    -136.012E+06    -27.4767E+06    -135.931E+06     2.29295E+06     2.88899E+06
             844     23.4410E-03     7.79041E-03     22.1086E-03     53.7142E-03    -26.8094E-03    -26.9048E-03    -26.4730E-03     53.3612E-03    -26.8881E-03     10.6300E-03     64.9381E-03     146.124E+06     1.23929E+06    -31.4226E+06    -158.449E+06    -31.4895E+06    -158.382E+06     1.23929E+06     2.81358E+06
             845     23.1253E-03     6.81655E-03     22.0979E-03     53.7885E-03    -26.8536E-03    -26.9349E-03    -26.5599E-03     53.4891E-03    -26.9292E-03     9.80396E-03     62.1076E-03     162.390E+06    -2.33164E+06    -36.2752E+06    -179.003E+06    -36.3270E+06    -178.951E+06    -2.33164E+06     2.71617E+06
             846     22.8474E-03     5.84263E-03     22.0877E-03     53.7961E-03    -26.8447E-03    -26.9513E-03    -26.5888E-03     53.5401E-03    -26.9513E-03     9.06319E-03     59.7096E-03     175.379E+06    -9.48285E+06    -41.4295E+06    -198.621E+06    -41.4683E+06    -198.582E+06    -9.48285E+06     2.41007E+06
             847     22.6089E-03     4.86870E-03     22.0785E-03     53.7920E-03    -26.8233E-03    -26.9687E-03    -26.6179E-03     53.5866E-03    -26.9687E-03     8.10844E-03     57.7810E-03     187.698E+06    -19.4059E+06    -47.3005E+06    -219.467E+06    -47.3200E+06    -219.448E+06    -19.4059E+06     1.68238E+06
             848     22.4115E-03     3.89475E-03     22.0705E-03     53.8476E-03    -26.8710E-03    -26.9766E-03    -26.7205E-03     53.6971E-03    -26.9766E-03     6.93556E-03     56.3489E-03     197.613E+06    -31.2026E+06    -53.9303E+06    -239.177E+06    -53.9395E+06    -239.168E+06    -31.2026E+06     1.09891E+06
             849     22.2562E-03     2.92105E-03     22.0637E-03     53.8864E-03    -26.9196E-03    -26.9667E-03    -26.8322E-03     53.7899E-03    -26.9578E-03     5.52305E-03     55.3470E-03     202.912E+06    -44.0811E+06    -59.6566E+06    -254.292E+06    -59.6593E+06    -254.290E+06    -44.0811E+06     642.617E+03
             850     22.1445E-03     1.94742E-03     22.0587E-03     53.8270E-03    -26.8892E-03    -26.9378E-03    -26.8619E-03     53.7778E-03    -26.9158E-03     3.89814E-03     54.6476E-03     202.654E+06    -57.0173E+06    -64.5028E+06    -263.287E+06    -64.5041E+06    -263.286E+06    -57.0173E+06     423.399E+03
             851     22.0769E-03     973.673E-06     22.0554E-03     53.7666E-03    -26.8234E-03    -26.9432E-03    -26.9056E-03     53.7479E-03    -26.8423E-03     2.34710E-03     54.2313E-03     199.892E+06    -65.2241E+06    -68.1925E+06    -266.582E+06    -67.6735E+06    -266.580E+06    -65.7452E+06     594.096E+03
             852     26.9098E-03     16.5597E-03     21.2112E-03     52.7752E-03    -25.6827E-03    -27.0924E-03    -24.9764E-03     51.6220E-03    -26.6456E-03     12.0785E-03     97.9179E-03     184.749E+06     203.571E+06     103.274E+06    -7.24452E+06    -7.24129E+06     203.568E+06     103.274E+06     385.253E+03
             853     26.2983E-03     15.5844E-03     21.1833E-03     53.1546E-03    -26.3080E-03    -26.8466E-03    -25.2037E-03     51.6033E-03    -26.3997E-03     21.4059E-03     109.445E-03     182.338E+06     189.879E+06     44.3423E+06    -12.6727E+06    -12.6640E+06     189.871E+06     44.3423E+06     829.366E+03
             854     25.7188E-03     14.6098E-03     21.1663E-03     53.0547E-03    -26.2300E-03    -26.8248E-03    -25.5781E-03     51.8997E-03    -26.3216E-03     18.8631E-03     99.2439E-03     138.088E+06     132.639E+06     6.72225E+06      -14.99E+06     -14.957E+06     132.606E+06     6.72225E+06     1.68247E+06
             855     25.1587E-03     13.6353E-03     21.1433E-03     53.7077E-03    -26.3946E-03    -27.3131E-03    -26.0664E-03     52.4610E-03    -26.3946E-03     19.8421E-03     100.424E-03     59.6136E+06     47.2495E+06    -7.63037E+06    -16.1140E+06    -15.9949E+06     47.1304E+06    -7.63037E+06     2.23752E+06
             856     24.6284E-03     12.6615E-03     21.1245E-03     53.5937E-03    -26.4986E-03    -27.0951E-03    -26.1949E-03     52.6935E-03    -26.4986E-03     16.9201E-03     92.2854E-03     28.5955E+06     1.57167E+06    -14.8910E+06    -30.2062E+06    -17.2640E+06    -17.4661E+06    -8.79541E+06     2.20195E+06
             857     24.1268E-03     11.6869E-03     21.1074E-03     53.5857E-03    -26.5994E-03    -26.9864E-03    -26.3035E-03     52.9029E-03    -26.5994E-03     14.7165E-03     84.5667E-03     50.7345E+06    -4.80398E+06    -19.0298E+06    -61.0468E+06    -19.1716E+06    -60.9050E+06    -4.80398E+06     2.09115E+06
             858     23.6574E-03     10.7130E-03     21.0928E-03     53.6050E-03    -26.6756E-03    -26.9294E-03    -26.4030E-03     53.0786E-03    -26.6756E-03     12.9681E-03     77.8475E-03     80.5495E+06    -1.05731E+06    -21.4320E+06     -89.817E+06    -21.5050E+06    -89.7440E+06    -1.05731E+06     2.17875E+06
             859     23.2204E-03     9.73897E-03     21.0793E-03     53.5540E-03    -26.7436E-03    -26.8104E-03    -26.3517E-03     53.0954E-03    -26.7436E-03     12.1003E-03     72.4601E-03     104.881E+06     1.77810E+06    -23.9933E+06    -113.575E+06    -24.0688E+06    -113.500E+06     1.77810E+06     2.56988E+06
             860     22.8170E-03     8.76460E-03     21.0665E-03     53.6538E-03    -26.7994E-03    -26.8543E-03    -26.4560E-03     53.2554E-03    -26.7994E-03     11.2840E-03     68.4334E-03     126.156E+06     1.83557E+06    -27.0604E+06    -136.258E+06    -27.1537E+06    -136.164E+06     1.83557E+06     3.15946E+06
             861     22.4501E-03     7.79093E-03     21.0549E-03     53.6652E-03    -26.7783E-03    -26.8869E-03    -26.4738E-03     53.3245E-03    -26.8507E-03     10.4416E-03     64.8303E-03     145.533E+06     1.08440E+06    -31.0480E+06    -157.826E+06    -31.1452E+06    -157.729E+06     1.08440E+06     3.45134E+06
             862     22.1202E-03     6.81665E-03     21.0437E-03     53.6566E-03    -26.7677E-03    -26.8889E-03    -26.4735E-03     53.3624E-03    -26.8889E-03     9.70266E-03     61.9144E-03     161.431E+06    -3.37081E+06    -35.7570E+06    -178.524E+06    -35.8160E+06    -178.465E+06    -3.37081E+06     2.77365E+06
             863     21.8302E-03     5.84277E-03     21.0338E-03     53.7207E-03    -26.8032E-03    -26.9174E-03    -26.5562E-03     53.4737E-03    -26.9174E-03     8.89461E-03     59.6064E-03     174.799E+06    -10.2638E+06    -41.0376E+06    -198.396E+06    -41.0911E+06    -198.343E+06    -10.2638E+06     2.74834E+06
             864     21.5809E-03     4.86875E-03     21.0246E-03     53.7478E-03    -26.8143E-03    -26.9335E-03    -26.6159E-03     53.5494E-03    -26.9335E-03     7.96854E-03     57.7147E-03     186.228E+06    -19.7880E+06    -47.4390E+06    -218.273E+06    -47.4921E+06    -218.220E+06    -19.7880E+06     2.84808E+06
             865     21.3743E-03     3.89497E-03     21.0164E-03     53.7788E-03    -26.8451E-03    -26.9337E-03    -26.6981E-03     53.6317E-03    -26.9337E-03     6.85261E-03     56.2584E-03     195.818E+06    -31.9842E+06    -53.9427E+06    -237.829E+06    -53.9629E+06    -237.809E+06    -31.9842E+06     1.74244E+06
             866     21.2117E-03     2.92115E-03     21.0096E-03     53.7906E-03    -26.8713E-03    -26.9193E-03    -26.7772E-03     53.6965E-03    -26.9193E-03     5.44837E-03     55.2259E-03     202.182E+06    -44.5942E+06    -59.9036E+06    -253.970E+06    -59.9088E+06    -253.965E+06    -44.5942E+06     971.931E+03
             867     21.0948E-03     1.94734E-03     21.0047E-03     53.7649E-03    -26.8667E-03    -26.8981E-03    -26.8324E-03     53.7176E-03    -26.8852E-03     3.80792E-03     54.5436E-03     202.608E+06    -56.1362E+06    -64.4368E+06    -262.745E+06    -64.4398E+06    -262.742E+06    -56.1362E+06     745.056E+03
             868     21.0239E-03     973.780E-06     21.0014E-03     53.6940E-03    -26.8037E-03    -26.8903E-03    -26.8671E-03     53.6761E-03    -26.8089E-03     2.31451E-03     54.1231E-03     199.657E+06    -64.9510E+06    -68.0228E+06    -266.119E+06    -67.5047E+06    -266.116E+06    -65.4721E+06     746.087E+03
             869     26.0875E-03     16.5596E-03     20.1579E-03     52.8727E-03    -25.7272E-03    -27.1455E-03    -25.0745E-03     51.7217E-03    -26.6472E-03     12.0999E-03     97.9955E-03     184.081E+06     202.951E+06     104.335E+06    -7.19188E+06    -7.18778E+06     202.947E+06     104.335E+06     705.481E+03
             870     25.4568E-03     15.5849E-03     20.1286E-03     53.2209E-03    -26.3230E-03    -26.8979E-03    -25.2950E-03     51.6946E-03    -26.3996E-03     21.1970E-03     109.444E-03     181.499E+06     189.953E+06     46.6122E+06    -12.1195E+06    -12.1141E+06     189.948E+06     46.6122E+06     886.578E+03
             871     24.8591E-03     14.6100E-03     20.1127E-03     53.0319E-03    -26.2239E-03    -26.8080E-03    -25.5900E-03     51.8905E-03    -26.3005E-03     18.7083E-03     99.0350E-03     137.378E+06     131.452E+06     5.33674E+06    -14.6054E+06    -14.5839E+06     131.430E+06     5.33674E+06     1.16612E+06
             872     24.2792E-03     13.6356E-03     20.0886E-03     53.6735E-03    -26.3722E-03    -27.3012E-03    -26.0549E-03     52.4271E-03    -26.3722E-03     19.8197E-03     100.212E-03     58.6612E+06     45.8611E+06    -9.15036E+06    -15.5638E+06    -15.3697E+06     45.6671E+06    -9.15036E+06     2.31634E+06
             873     23.7304E-03     12.6613E-03     20.0705E-03     53.7329E-03    -26.4793E-03    -27.2536E-03    -26.3874E-03     52.8667E-03    -26.4793E-03     16.6110E-03     92.3033E-03     28.0640E+06     2.00582E+06    -13.1775E+06    -29.3245E+06    -16.0415E+06    -17.0110E+06    -7.44369E+06     2.96532E+06
             874     23.2105E-03     11.6875E-03     20.0532E-03     53.6350E-03    -26.5615E-03    -27.0735E-03    -26.4148E-03     52.9763E-03    -26.5615E-03     14.4799E-03     84.3870E-03     51.4237E+06    -4.09367E+06    -17.0929E+06    -60.6880E+06    -17.3494E+06    -60.4315E+06    -4.09367E+06     3.02430E+06
             875     22.7227E-03     10.7135E-03     20.0385E-03     53.5430E-03    -26.6310E-03    -26.9120E-03    -26.4079E-03     53.0389E-03    -26.6310E-03     12.6679E-03     77.6441E-03     82.0806E+06    -286.305E+03    -19.3089E+06    -90.1938E+06    -19.4373E+06    -90.0654E+06    -286.305E+03     2.94027E+06
             876     22.2683E-03     9.73924E-03     20.0256E-03     53.5299E-03    -26.6903E-03    -26.8395E-03    -26.4123E-03     53.1026E-03    -26.6903E-03     11.6822E-03     72.3125E-03     105.706E+06     2.33333E+06    -22.2315E+06    -113.481E+06    -22.3415E+06    -113.371E+06     2.33333E+06     3.12747E+06
             877     21.8478E-03     8.76530E-03     20.0123E-03     53.5030E-03    -26.7115E-03    -26.7915E-03    -26.3851E-03     53.1241E-03    -26.7390E-03     10.9869E-03     68.1158E-03     127.141E+06     1.51645E+06    -25.6333E+06    -137.002E+06    -25.7442E+06    -136.891E+06     1.51645E+06     3.50543E+06
             878     21.4648E-03     7.79111E-03     20.0009E-03     53.5596E-03    -26.7295E-03    -26.8301E-03    -26.4495E-03     53.2398E-03    -26.7902E-03     10.1071E-03     64.6337E-03     145.688E+06     1.34351E+06    -29.3569E+06    -157.244E+06    -29.4656E+06    -157.136E+06     1.34351E+06     3.71779E+06
             879     21.1205E-03     6.81720E-03     19.9900E-03     53.5575E-03    -26.7172E-03    -26.8404E-03    -26.4558E-03     53.2816E-03    -26.8258E-03     9.38691E-03     61.7217E-03     161.437E+06    -2.68322E+06    -34.3316E+06    -177.583E+06    -34.4424E+06    -177.473E+06    -2.68322E+06     3.75938E+06
             880     20.8166E-03     5.84298E-03     19.9797E-03     53.5742E-03    -26.7246E-03    -26.8497E-03    -26.4941E-03     53.3437E-03    -26.8497E-03     8.57842E-03     59.3955E-03     175.244E+06    -10.5463E+06    -40.6291E+06    -198.878E+06    -40.7369E+06    -198.770E+06    -10.5463E+06     3.89234E+06
             881     20.5557E-03     4.86917E-03     19.9707E-03     53.6265E-03    -26.7635E-03    -26.8631E-03    -26.5782E-03     53.4413E-03    -26.8631E-03     7.69545E-03     57.5504E-03     185.214E+06    -19.2454E+06    -46.8818E+06    -216.710E+06    -46.9679E+06    -216.624E+06    -19.2454E+06     3.75205E+06
             882     20.3389E-03     3.89518E-03     19.9624E-03     53.6339E-03    -26.7729E-03    -26.8610E-03    -26.6340E-03     53.4950E-03    -26.8610E-03     6.64717E-03     56.0829E-03     194.948E+06    -30.7969E+06    -53.2305E+06    -235.961E+06    -53.2781E+06    -235.913E+06    -30.7969E+06     2.72088E+06
             883     20.1686E-03     2.92131E-03     19.9559E-03     53.6343E-03    -26.7909E-03    -26.8434E-03    -26.7021E-03     53.5455E-03    -26.8434E-03     5.28923E-03     55.0463E-03     201.732E+06    -43.9199E+06    -59.3623E+06    -252.901E+06    -59.3753E+06    -252.888E+06    -43.9199E+06     1.41067E+06
             884     20.0454E-03     1.94762E-03     19.9506E-03     53.5978E-03    -26.7845E-03    -26.8133E-03    -26.7403E-03     53.5536E-03    -26.8133E-03     3.66330E-03     54.3639E-03     202.384E+06    -55.8784E+06    -64.5424E+06    -262.438E+06    -64.5449E+06    -262.435E+06    -55.8784E+06     655.072E+03
             885     19.9715E-03     973.687E-06     19.9477E-03     53.5514E-03    -26.6844E-03    -26.8670E-03    -26.8359E-03     53.5349E-03    -26.6989E-03     2.23813E-03     53.9844E-03     198.759E+06    -65.1615E+06    -68.4317E+06    -265.525E+06    -68.4349E+06    -265.522E+06    -65.1615E+06     721.940E+03
             886     25.2808E-03     16.5596E-03     19.1023E-03     52.8754E-03    -25.7132E-03    -27.1622E-03    -25.1083E-03     51.7552E-03    -26.6470E-03     12.1920E-03     97.9963E-03     183.674E+06     202.444E+06     105.010E+06    -7.25329E+06    -7.25151E+06     202.442E+06     105.010E+06     522.800E+03
             887     24.6326E-03     15.5850E-03     19.0754E-03     53.3618E-03    -26.3640E-03    -26.9977E-03    -25.4462E-03     51.8380E-03    -26.3919E-03     21.3117E-03     109.345E-03     181.478E+06     190.069E+06     47.2792E+06    -12.0085E+06    -12.0055E+06     190.066E+06     47.2792E+06     683.153E+03
             888     24.0138E-03     14.6105E-03     19.0577E-03     53.1880E-03    -26.2395E-03    -26.9485E-03    -25.8018E-03     52.0692E-03    -26.2674E-03     18.6416E-03     98.8907E-03     137.098E+06     130.698E+06     3.47899E+06    -14.0394E+06    -14.0323E+06     130.691E+06     3.47899E+06     924.703E+03
             889     23.4156E-03     13.6359E-03     19.0356E-03     53.7397E-03    -26.3261E-03    -27.4136E-03    -26.2121E-03     52.5381E-03    -26.3261E-03     19.5192E-03     99.9856E-03     57.2051E+06     44.0679E+06    -10.9866E+06    -14.7836E+06    -14.5715E+06     43.8558E+06    -10.9866E+06     1.98094E+06
             890     22.8450E-03     12.6619E-03     19.0150E-03     53.7306E-03    -26.4306E-03    -27.3001E-03    -26.4851E-03     52.9156E-03    -26.4306E-03     16.0745E-03     92.0475E-03     27.0007E+06     1.41922E+06    -12.6946E+06    -28.6891E+06    -15.2317E+06    -17.6706E+06    -7.06225E+06     3.33884E+06
             891     22.3070E-03     11.6884E-03     18.9996E-03     53.6069E-03    -26.4994E-03    -27.1074E-03    -26.5114E-03     53.0108E-03    -26.4994E-03     13.8070E-03     84.1231E-03     51.8302E+06    -3.60643E+06    -16.2003E+06    -60.4890E+06    -16.5720E+06    -60.1173E+06    -3.60643E+06     3.68186E+06
             892     21.7990E-03     10.7139E-03     18.9844E-03     53.5196E-03    -26.5550E-03    -26.9646E-03    -26.4916E-03     53.0466E-03    -26.5550E-03     12.2569E-03     77.2869E-03     82.8809E+06     197.655E+03    -18.1375E+06    -90.3017E+06    -18.3334E+06    -90.1058E+06     197.655E+03     3.71137E+06
             893     21.3256E-03     9.74039E-03     18.9712E-03     53.4766E-03    -26.5992E-03    -26.8774E-03    -26.4992E-03     53.0984E-03    -26.5992E-03     10.9913E-03     71.9845E-03     106.543E+06     3.22365E+06    -20.6399E+06    -113.222E+06    -20.8164E+06    -113.045E+06     3.22365E+06     4.00092E+06
             894     20.8875E-03     8.76612E-03     18.9590E-03     53.3640E-03    -26.6022E-03    -26.7618E-03    -26.3989E-03     53.0286E-03    -26.6297E-03     10.3266E-03     67.7229E-03     127.716E+06     1.92383E+06    -23.9804E+06    -136.753E+06    -24.1320E+06    -136.601E+06     1.92383E+06     4.05267E+06
             895     20.4864E-03     7.79185E-03     18.9468E-03     53.3243E-03    -26.6100E-03    -26.7143E-03    -26.3719E-03     53.0437E-03    -26.6718E-03     9.43162E-03     64.1864E-03     146.485E+06     1.36919E+06    -28.2301E+06    -157.651E+06    -28.3765E+06    -157.504E+06     1.36919E+06     4.28251E+06
             896     20.1262E-03     6.81788E-03     18.9362E-03     53.3510E-03    -26.6315E-03    -26.7196E-03    -26.4097E-03     53.1147E-03    -26.7050E-03     8.66969E-03     61.3789E-03     162.384E+06    -1.55464E+06    -33.6144E+06    -177.569E+06    -33.8188E+06    -177.364E+06    -1.55464E+06     5.34932E+06
             897     19.8079E-03     5.84388E-03     18.9262E-03     53.3273E-03    -26.6111E-03    -26.7162E-03    -26.4066E-03     53.1228E-03    -26.7162E-03     8.06118E-03     59.0237E-03     174.958E+06    -9.54123E+06    -39.8087E+06    -197.646E+06    -40.0028E+06    -197.452E+06    -9.54123E+06     5.40508E+06
             898     19.5335E-03     4.86967E-03     18.9168E-03     53.3311E-03    -26.6099E-03    -26.7213E-03    -26.4446E-03     53.1659E-03    -26.7213E-03     7.23965E-03     57.1650E-03     184.331E+06    -18.8534E+06    -46.1681E+06    -215.307E+06    -46.2885E+06    -215.187E+06    -18.8534E+06     4.38015E+06
             899     19.3061E-03     3.89572E-03     18.9089E-03     53.3509E-03    -26.6315E-03    -26.7194E-03    -26.5085E-03     53.2279E-03    -26.7194E-03     6.24185E-03     55.7483E-03     194.041E+06    -29.5040E+06    -52.4413E+06    -233.970E+06    -52.5140E+06    -233.897E+06    -29.5040E+06     3.55973E+06
             900     19.1264E-03     2.92179E-03     18.9019E-03     53.3196E-03    -26.6179E-03    -26.7017E-03    -26.5375E-03     53.2392E-03    -26.7017E-03     5.01501E-03     54.6920E-03     200.835E+06    -42.8905E+06    -58.7639E+06    -251.156E+06    -58.7958E+06    -251.125E+06    -42.8905E+06     2.17659E+06
             901     18.9973E-03     1.94774E-03     18.8972E-03     53.3100E-03    -26.6207E-03    -26.6893E-03    -26.5976E-03     53.2690E-03    -26.6714E-03     3.53673E-03     54.0544E-03     201.861E+06    -56.1239E+06    -64.3509E+06    -261.949E+06    -64.3576E+06    -261.942E+06    -56.1239E+06     1.00935E+06
             902     18.9188E-03     973.960E-06     18.8937E-03     53.2686E-03    -26.5523E-03    -26.7163E-03    -26.6916E-03     53.2533E-03    -26.5617E-03     2.10152E-03     53.6913E-03     197.502E+06    -65.4105E+06    -68.2319E+06    -264.300E+06    -68.1420E+06    -264.295E+06    -65.5055E+06     502.724E+03
             903     24.4947E-03     16.5598E-03     18.0490E-03     52.9240E-03    -25.7570E-03    -27.1669E-03    -25.1816E-03     51.8257E-03    -26.6441E-03     12.1907E-03     97.9704E-03     183.220E+06     202.141E+06     106.098E+06    -7.07953E+06    -7.07866E+06     202.140E+06     106.098E+06     347.698E+03
             904     23.8247E-03     15.5848E-03     18.0203E-03     53.4569E-03    -26.3796E-03    -27.0773E-03    -25.5868E-03     51.9664E-03    -26.3796E-03     21.0837E-03     109.201E-03     180.971E+06     189.246E+06     47.6824E+06    -12.3494E+06    -12.3482E+06     189.245E+06     47.6824E+06     437.279E+03
             905     23.1863E-03     14.6107E-03     18.0038E-03     53.4967E-03    -26.2315E-03    -27.2652E-03    -26.1853E-03     52.4168E-03    -26.2315E-03     18.4008E-03     98.7949E-03     137.235E+06     130.139E+06     2.96335E+06    -14.9155E+06    -14.9071E+06     130.130E+06     2.96335E+06     910.395E+03
             906     22.5671E-03     13.6372E-03     17.9806E-03     53.9948E-03    -26.2608E-03    -27.7340E-03    -26.5914E-03     52.8521E-03    -26.2608E-03     19.1008E-03     99.6692E-03     56.7609E+06     42.8199E+06    -11.5666E+06    -15.7643E+06    -15.5815E+06     42.6372E+06    -11.5666E+06     1.91511E+06
             907     21.9765E-03     12.6634E-03     17.9612E-03     53.7133E-03    -26.3403E-03    -27.3730E-03    -26.6149E-03     52.9552E-03    -26.3403E-03     15.5125E-03     91.4507E-03     26.3638E+06     202.477E+03    -12.9409E+06    -29.1981E+06    -15.4730E+06    -18.9850E+06    -7.47864E+06     3.16233E+06
             908     21.4164E-03     11.6889E-03     17.9452E-03     53.6351E-03    -26.3876E-03    -27.2474E-03    -26.7276E-03     53.1152E-03    -26.3876E-03     12.8682E-03     83.6559E-03     52.2736E+06    -3.13238E+06    -15.4377E+06    -60.3834E+06    -15.8317E+06    -59.9895E+06    -3.13238E+06     3.91397E+06
             909     20.8884E-03     10.7159E-03     17.9304E-03     53.4772E-03    -26.4143E-03    -27.0629E-03    -26.6751E-03     53.0894E-03    -26.4143E-03     11.0854E-03     76.7312E-03     83.5528E+06     685.811E+03    -17.1392E+06    -90.3291E+06    -17.3941E+06    -90.0742E+06     685.811E+03     4.26906E+06
             910     20.3943E-03     9.74137E-03     17.9175E-03     53.2953E-03    -26.4331E-03    -26.8621E-03    -26.5552E-03     52.9883E-03    -26.4331E-03     9.86383E-03     71.3294E-03     107.363E+06     3.81613E+06    -19.8357E+06    -113.396E+06    -20.0721E+06    -113.160E+06     3.81613E+06     4.68196E+06
             911     19.9364E-03     8.76775E-03     17.9050E-03     53.2051E-03    -26.4350E-03    -26.7701E-03    -26.5112E-03     52.9462E-03    -26.4350E-03     9.03722E-03     67.1991E-03     127.900E+06     2.67752E+06    -23.5159E+06    -136.285E+06    -23.7544E+06    -136.047E+06     2.67752E+06     5.07103E+06
             912     19.5172E-03     7.79382E-03     17.8936E-03     52.9717E-03    -26.4116E-03    -26.5601E-03    -26.3080E-03     52.7549E-03    -26.4469E-03     8.25840E-03     63.4726E-03     146.910E+06     1.40009E+06    -28.0619E+06    -158.006E+06    -28.3082E+06    -157.760E+06     1.40009E+06     5.54770E+06
             913     19.1387E-03     6.81931E-03     17.8826E-03     52.8718E-03    -26.4048E-03    -26.4670E-03    -26.2202E-03     52.6872E-03    -26.4670E-03     7.61253E-03     60.6304E-03     163.259E+06    -1.22212E+06    -33.0678E+06    -178.051E+06    -33.3444E+06    -177.775E+06    -1.22212E+06     6.32081E+06
             914     18.8043E-03     5.84515E-03     17.8727E-03     52.8578E-03    -26.3880E-03    -26.4698E-03    -26.2282E-03     52.6980E-03    -26.4698E-03     7.08199E-03     58.3582E-03     174.632E+06    -8.05312E+06    -38.5582E+06    -195.919E+06    -38.8448E+06    -195.633E+06    -8.05312E+06     6.68362E+06
             915     18.5157E-03     4.87093E-03     17.8635E-03     52.8098E-03    -26.3511E-03    -26.4587E-03    -26.2172E-03     52.6758E-03    -26.4587E-03     6.47836E-03     56.4860E-03     182.925E+06    -18.6160E+06    -45.2042E+06    -213.356E+06    -45.4186E+06    -213.141E+06    -18.6160E+06     5.80835E+06
             916     18.2756E-03     3.89669E-03     17.8553E-03     52.7872E-03    -26.3381E-03    -26.4491E-03    -26.2379E-03     52.6869E-03    -26.4491E-03     5.59707E-03     55.0847E-03     191.629E+06    -30.4175E+06    -52.1531E+06    -231.971E+06    -52.2640E+06    -231.860E+06    -30.4175E+06     4.26810E+06
             917     18.0866E-03     2.92240E-03     17.8489E-03     52.7709E-03    -26.3327E-03    -26.4383E-03    -26.2666E-03     52.7049E-03    -26.4383E-03     4.51898E-03     54.0773E-03     198.789E+06    -42.7141E+06    -58.3411E+06    -248.823E+06    -58.3905E+06    -248.774E+06    -42.7141E+06      2.9415E+06
             918     17.9497E-03     1.94822E-03     17.8437E-03     52.7770E-03    -26.3421E-03    -26.4349E-03    -26.3251E-03     52.7421E-03    -26.4170E-03     3.24436E-03     53.4576E-03     200.951E+06    -55.4350E+06    -63.7082E+06    -260.371E+06    -63.7280E+06    -260.351E+06    -55.4350E+06     1.85156E+06
             919     17.8671E-03     974.123E-06     17.8405E-03     52.7628E-03    -26.3069E-03    -26.4558E-03    -26.4156E-03     52.7500E-03    -26.3345E-03     1.88644E-03     53.1379E-03     196.398E+06    -65.3259E+06    -67.8171E+06    -262.946E+06    -67.7288E+06    -262.940E+06    -65.4209E+06     691.951E+03
             920     23.7282E-03     16.5599E-03     16.9940E-03     53.1832E-03    -25.8303E-03    -27.3529E-03    -25.4794E-03     52.0974E-03    -26.6180E-03     12.2847E-03     98.0106E-03     182.719E+06     201.648E+06     104.129E+06    -6.75890E+06    -6.75811E+06     201.647E+06     104.129E+06     205.777E+03
             921     23.0386E-03     15.5859E-03     16.9663E-03     53.8016E-03    -26.3344E-03    -27.4673E-03    -26.0156E-03     52.3499E-03    -26.3344E-03     20.8427E-03     108.971E-03     180.257E+06     188.782E+06     46.6009E+06    -12.0171E+06    -12.0154E+06     188.780E+06     46.6009E+06     574.487E+03
             922     22.3776E-03     14.6115E-03     16.9487E-03     53.7647E-03    -26.1660E-03    -27.5987E-03    -26.5924E-03     52.7584E-03    -26.1660E-03     17.8316E-03     98.3303E-03     135.765E+06     129.312E+06     3.82063E+06    -14.3148E+06    -14.3056E+06     129.303E+06     3.82063E+06     944.802E+03
             923     21.7364E-03     13.6382E-03     16.9255E-03     54.2034E-03    -26.1582E-03    -28.0452E-03    -27.0226E-03     53.1809E-03    -26.1582E-03     18.0632E-03     99.0743E-03     54.8198E+06     41.5828E+06    -11.0636E+06    -14.8451E+06    -14.6897E+06     41.4273E+06    -11.0636E+06     1.76932E+06
             924     21.1246E-03     12.6645E-03     16.9073E-03     53.9887E-03    -26.1907E-03    -27.7980E-03    -27.1597E-03     53.3504E-03    -26.1907E-03     14.2684E-03     90.8466E-03     25.5923E+06    -304.449E+03    -12.5749E+06    -28.9082E+06    -15.0381E+06    -19.6729E+06    -7.07662E+06     2.83396E+06
             925     20.5421E-03     11.6919E-03     16.8902E-03     53.7176E-03    -26.1852E-03    -27.5324E-03    -27.1283E-03     53.3135E-03    -26.1852E-03     11.3025E-03     82.8550E-03     52.8863E+06    -2.79416E+06    -15.4896E+06    -60.8049E+06    -15.8396E+06    -60.4549E+06    -2.79416E+06     3.79810E+06
             926     19.9924E-03     10.7180E-03     16.8766E-03     53.3649E-03    -26.1620E-03    -27.2029E-03    -26.9361E-03     53.0981E-03    -26.1620E-03     9.16858E-03     75.8574E-03     83.8816E+06     1.20687E+06    -17.0445E+06    -90.2884E+06    -17.3504E+06    -89.9824E+06     1.20687E+06     4.71126E+06
             927     19.4766E-03     9.74462E-03     16.8636E-03     53.0410E-03    -26.1329E-03    -26.9081E-03    -26.7035E-03     52.8364E-03    -26.1329E-03     7.99209E-03     70.3507E-03     108.055E+06     4.07504E+06    -19.6101E+06    -113.849E+06    -19.9250E+06    -113.534E+06     4.07504E+06     5.39954E+06
             928     18.9971E-03     8.77057E-03     16.8513E-03     52.7335E-03    -26.0959E-03    -26.6376E-03    -26.4743E-03     52.5701E-03    -26.0959E-03     7.10482E-03     66.1091E-03     128.928E+06     3.32995E+06    -23.0722E+06    -136.751E+06    -23.4111E+06    -136.412E+06     3.32995E+06     6.18101E+06
             929     18.5576E-03     7.79643E-03     16.8404E-03     52.4433E-03    -26.0673E-03    -26.3760E-03    -26.2383E-03     52.3066E-03    -26.0683E-03     6.46271E-03     62.4163E-03     147.199E+06     2.04016E+06    -27.2580E+06    -157.604E+06    -27.6350E+06    -157.227E+06     2.04016E+06     6.95488E+06
             930     18.1600E-03     6.82222E-03     16.8298E-03     52.1764E-03    -26.0222E-03    -26.1542E-03    -26.0093E-03     52.0581E-03    -26.0489E-03     5.99981E-03     59.4864E-03     163.067E+06    -1.51695E+06    -32.3585E+06    -177.797E+06    -32.7234E+06    -177.432E+06    -1.51695E+06      7.2237E+06
             931     17.8073E-03     5.84754E-03     16.8198E-03     52.0110E-03    -25.9695E-03    -26.0415E-03    -25.8807E-03     51.9093E-03    -26.0286E-03     5.56547E-03     57.1853E-03     173.962E+06    -8.16967E+06    -37.8986E+06    -195.074E+06    -38.2513E+06    -194.722E+06    -8.16967E+06     7.43244E+06
             932     17.5029E-03     4.87300E-03     16.8108E-03     51.9099E-03    -25.9053E-03    -26.0045E-03    -25.8176E-03     51.8221E-03    -26.0045E-03     5.15813E-03     55.3640E-03     181.711E+06    -17.9588E+06    -43.7196E+06    -211.147E+06    -44.0372E+06    -210.830E+06    -17.9588E+06     7.24717E+06
             933     17.2491E-03     3.89830E-03     16.8028E-03     51.8458E-03    -25.8637E-03    -25.9821E-03    -25.7955E-03     51.7776E-03    -25.9821E-03     4.53932E-03     53.9952E-03     189.556E+06    -30.3374E+06    -50.0910E+06    -228.970E+06    -50.2894E+06    -228.772E+06    -30.3374E+06     5.72030E+06
             934     17.0488E-03     2.92372E-03     16.7962E-03     51.8498E-03    -25.8833E-03    -25.9665E-03    -25.8380E-03     51.8045E-03    -25.9665E-03     3.70033E-03     53.0586E-03     197.136E+06    -42.0946E+06    -56.5679E+06    -246.051E+06    -56.6538E+06    -245.965E+06    -42.0946E+06     3.87285E+06
             935     16.9039E-03     1.94914E-03     16.7911E-03     51.8237E-03    -25.8788E-03    -25.9450E-03    -25.8544E-03     51.7994E-03    -25.9450E-03     2.66348E-03     52.4209E-03     200.371E+06    -53.6927E+06    -62.3443E+06    -258.226E+06    -62.3828E+06    -258.187E+06    -53.6927E+06     2.62986E+06
             936     16.8162E-03     974.433E-06     16.7879E-03     51.8092E-03    -25.8395E-03    -25.9697E-03    -25.9248E-03     51.8001E-03    -25.8753E-03     1.60646E-03     52.1231E-03     195.879E+06    -63.6085E+06    -66.4519E+06    -260.883E+06    -66.2113E+06    -260.871E+06    -63.8618E+06     1.07067E+06
             937     22.9850E-03     16.5603E-03     15.9395E-03     53.6408E-03    -25.9224E-03    -27.7183E-03    -25.9748E-03     52.5562E-03    -26.5814E-03     12.5800E-03     98.0888E-03     182.481E+06     200.898E+06     101.679E+06    -7.09449E+06    -7.09360E+06     200.898E+06     101.679E+06    -74.5180E+03
             938     22.2731E-03     15.5863E-03     15.9109E-03     54.4880E-03    -26.2595E-03    -28.2285E-03    -26.8132E-03     53.0727E-03    -26.2595E-03     20.6276E-03     108.621E-03     180.007E+06     188.707E+06     45.2764E+06    -11.6898E+06    -11.6884E+06     188.706E+06     45.2764E+06     434.478E+03
             939     21.5908E-03     14.6138E-03     15.8934E-03     54.2770E-03    -26.0464E-03    -28.2306E-03    -27.3398E-03     53.3862E-03    -26.0464E-03     16.9075E-03     97.7090E-03     134.559E+06     128.914E+06     4.70262E+06    -13.5314E+06    -13.5236E+06     128.906E+06     4.70262E+06     863.284E+03
             940     20.9271E-03     13.6404E-03     15.8709E-03     54.6191E-03    -25.9728E-03    -28.6463E-03    -27.7956E-03     53.7684E-03    -25.9728E-03     16.5128E-03     98.2840E-03     53.4329E+06     40.6608E+06    -10.7554E+06    -14.2829E+06    -14.1382E+06     40.5161E+06    -10.7554E+06     1.65731E+06
             941     20.2918E-03     12.6684E-03     15.8515E-03     54.3020E-03    -25.9316E-03    -28.3705E-03    -27.9075E-03     53.8390E-03    -25.9316E-03     12.1658E-03     89.9413E-03     26.2717E+06    -44.4977E+03    -12.2003E+06    -29.3140E+06    -14.4885E+06    -20.4212E+06    -6.64902E+06     2.77150E+06
             942     19.6866E-03     11.6953E-03     15.8361E-03     53.7792E-03    -25.8505E-03    -27.9287E-03    -27.6671E-03     53.5176E-03    -25.8505E-03     9.03613E-03     81.7045E-03     54.2448E+06    -2.30384E+06    -15.1741E+06    -61.7652E+06    -15.5243E+06    -61.4151E+06    -2.30384E+06     3.89342E+06
             943     19.1133E-03     10.7225E-03     15.8222E-03     53.2433E-03    -25.7519E-03    -27.4914E-03    -27.3434E-03     53.0953E-03    -25.7519E-03     6.69521E-03     74.5875E-03     84.7530E+06     1.72164E+06    -16.9128E+06    -90.7891E+06    -17.2560E+06    -90.4459E+06     1.72164E+06     5.01860E+06
             944     18.5742E-03     9.74915E-03     15.8100E-03     52.6331E-03    -25.6498E-03    -26.9833E-03    -26.8848E-03     52.5346E-03    -25.6498E-03     5.38415E-03     68.9590E-03     108.965E+06     4.57240E+06    -19.0527E+06    -114.257E+06    -19.4289E+06    -113.880E+06     4.57240E+06     5.96341E+06
             945     18.0721E-03     8.77530E-03     15.7986E-03     52.0651E-03    -25.5494E-03    -26.5157E-03    -26.4428E-03     51.9922E-03    -25.5494E-03     4.53158E-03     64.5494E-03     130.272E+06     4.04014E+06    -21.7687E+06    -137.202E+06    -22.1715E+06    -136.799E+06     4.04014E+06     6.80302E+06
             946     17.6098E-03     7.80105E-03     15.7876E-03     51.6076E-03    -25.4643E-03    -26.1433E-03    -26.0892E-03     51.5534E-03    -25.4643E-03     3.81857E-03     60.8707E-03     148.690E+06     3.18128E+06    -25.4394E+06    -157.738E+06    -25.9077E+06    -157.269E+06     3.18128E+06     7.85319E+06
             947     17.1912E-03     6.82651E-03     15.7777E-03     51.1645E-03    -25.3847E-03    -25.7798E-03    -25.7327E-03     51.1173E-03    -25.3847E-03     3.52749E-03     57.9006E-03     163.517E+06    -451.146E+03    -30.2387E+06    -176.807E+06    -30.7411E+06    -176.304E+06    -451.146E+03     8.52828E+06
             948     16.8189E-03     5.85170E-03     15.7681E-03     50.7631E-03    -25.2951E-03    -25.4680E-03    -25.4065E-03     50.7201E-03    -25.3136E-03     3.39160E-03     55.4843E-03      173.78E+06    -7.39287E+06    -35.8924E+06    -193.655E+06    -36.3411E+06    -193.207E+06    -7.39287E+06     8.34807E+06
             949     16.4965E-03     4.87648E-03     15.7592E-03     50.4911E-03    -25.2058E-03    -25.2853E-03    -25.1949E-03     50.4535E-03    -25.2585E-03     3.20144E-03     53.6448E-03     181.494E+06    -16.5563E+06    -41.6819E+06    -209.283E+06    -42.0551E+06    -208.910E+06    -16.5563E+06     7.88624E+06
             950     16.2274E-03     3.90125E-03     15.7514E-03     50.3521E-03    -25.1416E-03    -25.2105E-03    -25.1103E-03     50.3207E-03    -25.2105E-03     2.94172E-03     52.3059E-03     188.322E+06    -28.6627E+06    -47.5331E+06    -225.676E+06    -47.8372E+06    -225.372E+06    -28.6627E+06     7.27430E+06
             951     16.0143E-03     2.92590E-03     15.7447E-03     50.2906E-03    -25.1175E-03    -25.1731E-03    -25.0952E-03     50.2683E-03    -25.1731E-03     2.47658E-03     51.3705E-03     195.598E+06    -40.8943E+06    -53.7571E+06    -242.588E+06    -53.9372E+06    -242.408E+06    -40.8943E+06     5.54777E+06
             952     15.8603E-03     1.95061E-03     15.7399E-03     50.2512E-03    -25.1074E-03    -25.1438E-03    -25.1025E-03     50.2391E-03    -25.1367E-03     1.81832E-03     50.7599E-03     199.827E+06    -51.2820E+06    -59.2872E+06    -254.973E+06    -59.3559E+06    -254.904E+06    -51.2820E+06     3.54328E+06
             953     15.7667E-03     975.424E-06     15.7365E-03     50.1665E-03    -25.0283E-03    -25.1382E-03    -25.1251E-03     50.1615E-03    -25.0365E-03     1.14553E-03     50.4017E-03     195.774E+06    -60.6506E+06    -63.6894E+06    -257.915E+06    -63.3960E+06    -257.890E+06    -60.9686E+06     1.69283E+06
             954     22.2666E-03     16.5606E-03     14.8844E-03     54.4323E-03    -26.1923E-03    -28.2400E-03    -26.8644E-03     53.4049E-03    -26.5405E-03     13.0179E-03     98.2582E-03     182.589E+06     200.772E+06     102.718E+06    -7.50431E+06    -7.50394E+06     200.772E+06     102.718E+06    -150.052E+03
             955     21.5325E-03     15.5885E-03     14.8541E-03     55.3096E-03    -26.1539E-03    -29.1558E-03    -27.8576E-03     54.0115E-03    -26.1539E-03     19.8029E-03     108.033E-03     179.708E+06     188.051E+06     45.9999E+06    -12.2293E+06    -12.2287E+06     188.050E+06     45.9999E+06     44.1201E+03
             956     20.8275E-03     14.6158E-03     14.8379E-03     55.0860E-03    -25.8535E-03    -29.2326E-03    -28.4809E-03     54.3344E-03    -25.8535E-03     15.6875E-03     97.0680E-03     134.891E+06     128.626E+06     4.31791E+06    -14.3417E+06    -14.3350E+06     128.619E+06     4.31791E+06     560.159E+03
             957     20.1405E-03     13.6448E-03     14.8141E-03     55.3215E-03    -25.6834E-03    -29.6381E-03    -28.9494E-03     54.6328E-03    -25.6834E-03     14.8875E-03     97.4085E-03     53.1289E+06     39.9661E+06    -11.0546E+06    -14.7672E+06    -14.6415E+06     39.8403E+06    -11.0546E+06     1.50434E+06
             958     19.4818E-03     12.6731E-03     14.7964E-03     54.6683E-03    -25.5402E-03    -29.1280E-03    -28.8197E-03     54.3599E-03    -25.5402E-03     9.90085E-03     88.8427E-03     25.8948E+06    -948.443E+03    -12.4610E+06    -29.7996E+06    -14.5865E+06    -21.7617E+06    -6.86078E+06     2.59464E+06
             959     18.8521E-03     11.7013E-03     14.7811E-03     53.9526E-03    -25.3552E-03    -28.5974E-03    -28.4614E-03     53.8166E-03    -25.3552E-03     6.31390E-03     80.4343E-03     55.2541E+06    -1.94070E+06    -14.7908E+06    -62.4262E+06    -15.1227E+06    -62.0942E+06    -1.94070E+06     3.86376E+06
             960     18.2540E-03     10.7290E-03     14.7681E-03     53.0683E-03    -25.1520E-03    -27.9163E-03    -27.8643E-03     53.0162E-03    -25.1520E-03     3.62775E-03     73.1057E-03     86.5224E+06     2.43599E+06    -15.9732E+06    -91.8031E+06    -16.3109E+06    -91.4654E+06     2.43599E+06     5.04060E+06
             961     17.6904E-03     9.75596E-03     14.7571E-03     52.1680E-03    -24.9472E-03    -27.2208E-03    -27.1960E-03     52.1432E-03    -24.9472E-03     2.13090E-03     67.3657E-03     110.467E+06     5.62469E+06    -18.0142E+06    -114.745E+06    -18.4042E+06    -114.355E+06     5.62469E+06     6.12597E+06
             962     17.1632E-03     8.78233E-03     14.7460E-03     51.3046E-03    -24.7428E-03    -26.5618E-03    -26.5453E-03     51.2881E-03    -24.7428E-03     1.15409E-03     62.7628E-03     131.428E+06     5.03010E+06    -20.8443E+06    -137.407E+06    -21.2814E+06    -136.970E+06     5.03010E+06     7.12008E+06
             963     16.6771E-03     7.80817E-03     14.7363E-03     50.4486E-03    -24.5627E-03    -25.8859E-03    -25.8746E-03     50.4373E-03    -24.5627E-03     525.528E-06     58.8533E-03     150.342E+06     4.37748E+06    -24.2220E+06    -158.209E+06    -24.7330E+06    -157.698E+06     4.37748E+06     8.25263E+06
             964     16.2348E-03     6.83324E-03     14.7267E-03     49.7079E-03    -24.3989E-03    -25.3090E-03    -25.2990E-03     49.6979E-03    -24.3989E-03     359.948E-06     55.7646E-03     164.535E+06     1.61942E+06    -28.1295E+06    -175.753E+06    -28.7043E+06    -175.178E+06     1.61942E+06     9.18870E+06
             965     15.8408E-03     5.85786E-03     14.7179E-03     49.0354E-03    -24.2492E-03    -24.7863E-03    -24.7766E-03     49.0258E-03    -24.2492E-03     469.614E-06     53.2330E-03     174.511E+06    -4.83351E+06    -32.8583E+06    -191.654E+06    -33.4027E+06    -191.110E+06    -4.83351E+06     9.25242E+06
             966     15.4985E-03     4.88203E-03     14.7095E-03     48.4875E-03    -24.1228E-03    -24.3647E-03    -24.3537E-03     48.4792E-03    -24.1255E-03     699.647E-06     51.2587E-03     182.196E+06    -14.2290E+06    -38.7305E+06    -207.418E+06    -39.2055E+06    -206.943E+06    -14.2290E+06     8.89647E+06
             967     15.2118E-03     3.90581E-03     14.7019E-03     48.1267E-03    -24.0071E-03    -24.1195E-03    -24.0961E-03     48.1197E-03    -24.0236E-03     847.504E-06     49.8297E-03     187.939E+06    -26.3110E+06    -44.9988E+06    -222.870E+06    -45.4100E+06    -222.459E+06    -26.3110E+06     8.50761E+06
             968     14.9846E-03     2.92947E-03     14.6954E-03     47.9074E-03    -23.9239E-03    -23.9835E-03    -23.9591E-03     47.9022E-03    -23.9431E-03     833.088E-06     48.8422E-03     193.929E+06    -38.6964E+06    -50.3876E+06    -238.177E+06    -50.6768E+06    -237.888E+06    -38.6964E+06     7.20755E+06
             969     14.8197E-03     1.95303E-03     14.6905E-03     47.7734E-03    -23.8740E-03    -23.8994E-03    -23.8908E-03     47.7704E-03    -23.8795E-03     685.835E-06     48.2022E-03     197.956E+06    -49.2984E+06    -55.5131E+06    -250.278E+06    -55.6541E+06    -250.137E+06    -49.2984E+06     4.99610E+06
             970     14.7198E-03     976.497E-06     14.6874E-03     47.6462E-03    -23.7547E-03    -23.8914E-03    -23.8899E-03     47.6446E-03    -23.7547E-03     519.616E-06     47.8076E-03     195.068E+06    -57.6146E+06    -60.0376E+06    -253.872E+06    -60.0169E+06    -253.828E+06    -57.6792E+06     2.51990E+06
             971     21.5746E-03     16.5621E-03     13.8260E-03     55.4357E-03    -26.4135E-03    -29.0223E-03    -28.0270E-03     54.4932E-03    -26.4662E-03     13.6074E-03     98.7398E-03     182.583E+06     200.842E+06     103.223E+06    -7.23569E+06    -7.23557E+06     200.841E+06     103.223E+06    -63.8412E+03
             972     20.8197E-03     15.5908E-03     13.7981E-03     56.2952E-03    -26.0002E-03    -30.2950E-03    -29.0940E-03     55.0941E-03    -26.0002E-03     19.3765E-03     107.918E-03     179.209E+06     187.959E+06     46.5881E+06    -12.0369E+06    -12.0367E+06     187.959E+06     46.5881E+06    -52.4399E+03
             973     20.0908E-03     14.6203E-03     13.7800E-03     56.1554E-03    -25.6028E-03    -30.5526E-03    -29.8858E-03     55.4885E-03    -25.6028E-03     15.0689E-03     96.9542E-03     134.233E+06     128.236E+06     5.15194E+06    -14.3807E+06    -14.3773E+06     128.233E+06     5.15194E+06     240.814E+03
             974     19.3800E-03     13.6499E-03     13.7574E-03     56.1710E-03    -25.3111E-03    -30.8599E-03    -30.3154E-03     55.6265E-03    -25.3111E-03     13.2868E-03     96.8947E-03     52.0972E+06     38.4822E+06    -11.3700E+06    -15.2441E+06    -15.1504E+06     38.3886E+06    -11.3700E+06     1.13381E+06
             975     18.6967E-03     12.6796E-03     13.7403E-03     55.3687E-03    -25.0356E-03    -30.3331E-03    -30.1397E-03     55.1753E-03    -25.0356E-03     7.80131E-03     88.2130E-03     24.9114E+06    -1.80901E+06    -13.1201E+06    -29.8407E+06    -15.3590E+06    -22.5429E+06    -6.86804E+06     2.26723E+06
             976     18.0415E-03     11.7092E-03     13.7255E-03     54.3244E-03    -24.7088E-03    -29.6156E-03    -29.5589E-03     54.2677E-03    -24.7088E-03     3.51769E-03     79.4282E-03     56.1396E+06    -1.43363E+06    -15.3759E+06    -63.1367E+06    -15.6447E+06    -62.8679E+06    -1.43363E+06     3.43051E+06
             977     17.4180E-03     10.7376E-03     13.7146E-03     53.0301E-03    -24.3609E-03    -28.6691E-03    -28.6577E-03     53.0186E-03    -24.3609E-03     344.383E-06     71.8351E-03     87.8972E+06     3.34999E+06    -16.2298E+06    -92.6713E+06    -16.5064E+06    -92.3948E+06     3.34999E+06     4.57815E+06
             978     16.8273E-03     9.76531E-03     13.7039E-03     51.7438E-03    -24.0116E-03    -27.7322E-03    -27.7146E-03     51.7262E-03    -24.0116E-03    -1.37468E-03     65.7978E-03     111.957E+06     7.32265E+06    -17.7394E+06    -115.031E+06    -18.0887E+06    -114.682E+06     7.32265E+06     5.80172E+06
             979     16.2743E-03     8.79223E-03     13.6948E-03     50.4126E-03    -23.6636E-03    -26.7490E-03    -26.7167E-03     50.3803E-03    -23.6636E-03    -2.54175E-03     60.8566E-03     133.515E+06     7.14513E+06    -19.9214E+06    -137.822E+06    -20.3528E+06    -137.390E+06     7.14513E+06     7.10084E+06
             980     15.7614E-03     7.81775E-03     13.6859E-03     49.0953E-03    -23.3461E-03    -25.7492E-03    -25.7041E-03     49.0502E-03    -23.3461E-03    -3.12709E-03     56.6103E-03     152.487E+06     6.86998E+06    -22.7276E+06    -158.246E+06    -23.2372E+06    -157.736E+06     6.86998E+06     8.28236E+06
             981     15.2938E-03     6.84263E-03     13.6776E-03     47.8666E-03    -23.0537E-03    -24.8129E-03    -24.7656E-03     47.8193E-03    -23.0537E-03    -3.17884E-03     53.1934E-03     165.820E+06     4.15869E+06    -26.3134E+06    -174.777E+06    -26.8504E+06    -174.240E+06     4.15869E+06     8.90063E+06
             982     14.8753E-03     5.86656E-03     13.6696E-03     46.7884E-03    -22.7894E-03    -23.9990E-03    -23.9603E-03     46.7497E-03    -22.7894E-03    -2.81310E-03     50.4238E-03     175.703E+06    -1.88355E+06    -30.6215E+06    -190.177E+06    -31.1679E+06    -189.630E+06    -1.88355E+06     9.31857E+06
             983     14.5108E-03     4.88976E-03     13.6622E-03     45.8789E-03    -22.5595E-03    -23.3194E-03    -23.2916E-03     45.8511E-03    -22.5595E-03    -2.23913E-03     48.2379E-03     183.805E+06    -10.4988E+06    -35.4048E+06    -205.462E+06    -35.9663E+06    -204.901E+06    -10.4988E+06     9.75125E+06
             984     14.2045E-03     3.91241E-03     13.6550E-03     45.1319E-03    -22.3634E-03    -22.7685E-03    -22.7516E-03     45.1150E-03    -22.3634E-03    -1.61943E-03     46.5559E-03     189.102E+06    -22.1177E+06    -40.6779E+06    -219.790E+06    -41.1767E+06    -219.291E+06    -22.1177E+06     9.40344E+06
             985     13.9609E-03     2.93461E-03     13.6490E-03     44.6092E-03    -22.2134E-03    -22.3958E-03    -22.3871E-03     44.6005E-03    -22.2134E-03    -1.07757E-03     45.3846E-03     194.017E+06    -34.3079E+06    -46.2694E+06    -234.006E+06    -46.6580E+06    -233.617E+06    -34.3079E+06     8.48886E+06
             986     13.7839E-03     1.95654E-03     13.6443E-03     44.2744E-03    -22.1018E-03    -22.1726E-03    -22.1690E-03     44.2708E-03    -22.1018E-03    -639.234E-06     44.6259E-03     196.329E+06    -45.3879E+06    -50.9142E+06    -244.402E+06    -51.1546E+06    -244.162E+06    -45.3879E+06     6.60308E+06
             987     13.6764E-03     978.328E-06     13.6413E-03     44.0728E-03    -21.9827E-03    -22.0901E-03    -22.0890E-03     44.0717E-03    -21.9827E-03    -246.878E-06     44.1939E-03     194.411E+06    -52.6254E+06    -54.3094E+06    -247.872E+06    -54.0509E+06    -247.803E+06    -52.9530E+06     2.94542E+06
             988     20.9143E-03     16.5640E-03     12.7688E-03     56.7614E-03    -26.3691E-03    -30.3923E-03    -29.5415E-03     55.9107E-03    -26.3691E-03     14.0958E-03     99.4152E-03     182.686E+06     200.835E+06     104.081E+06    -7.28915E+06    -7.28869E+06     200.835E+06     104.081E+06    -245.605E+03
             989     20.1357E-03     15.5933E-03     12.7395E-03     57.4996E-03    -25.8015E-03    -31.6980E-03    -30.6313E-03     56.4328E-03    -25.8015E-03     18.5535E-03     107.681E-03     178.695E+06     187.828E+06     47.5870E+06    -11.8465E+06    -11.8459E+06     187.828E+06     47.5870E+06    -202.541E+03
             990     19.3829E-03     14.6241E-03     12.7213E-03     57.2712E-03    -25.2969E-03    -31.9743E-03    -31.4338E-03     56.7307E-03    -25.2969E-03     13.7413E-03     96.7435E-03     132.574E+06     127.542E+06     7.77241E+06    -14.5689E+06    -14.5540E+06     127.527E+06     7.77241E+06     497.989E+03
             991     18.6481E-03     13.6557E-03     12.6994E-03     57.1474E-03    -24.8698E-03    -32.2775E-03    -31.8892E-03     56.7590E-03    -24.8698E-03     11.1858E-03     96.3351E-03     51.2729E+06     38.0586E+06    -8.76140E+06    -16.0049E+06    -15.9395E+06     37.9932E+06    -8.76140E+06     1.16308E+06
             992     17.9394E-03     12.6874E-03     12.6827E-03     56.2013E-03    -24.4331E-03    -31.7682E-03    -31.6615E-03     56.0946E-03    -24.4331E-03     5.34001E-03     87.6977E-03     26.6095E+06    -880.457E+03    -12.9019E+06    -31.0921E+06    -16.1424E+06    -23.2802E+06    -5.45185E+06     1.63848E+06
             993     17.2581E-03     11.7181E-03     12.6699E-03     54.8453E-03    -23.9376E-03    -30.9077E-03    -30.8820E-03     54.8196E-03    -23.9376E-03     401.226E-06     78.7127E-03     57.9613E+06     357.109E+03    -16.1344E+06    -63.9423E+06    -16.2969E+06    -63.7799E+06     357.109E+03     2.67633E+06
             994     16.6075E-03     10.7482E-03     12.6603E-03     53.1401E-03    -23.4120E-03    -29.7280E-03    -29.6911E-03     53.1031E-03    -23.4120E-03    -2.92582E-03     70.8172E-03     89.5546E+06     5.63253E+06    -16.7029E+06    -92.9642E+06    -16.8724E+06    -92.7947E+06     5.63253E+06     3.49765E+06
             995     15.9893E-03     9.77685E-03     12.6519E-03     51.3400E-03    -22.8833E-03    -28.4568E-03    -28.3759E-03     51.2592E-03    -22.8833E-03    -4.73253E-03     64.4181E-03     114.530E+06     10.1157E+06    -17.5132E+06    -115.687E+06    -17.7344E+06    -115.466E+06     10.1157E+06     4.55647E+06
             996     15.4073E-03     8.80383E-03     12.6443E-03     49.5235E-03    -22.3554E-03    -27.1681E-03    -27.0345E-03     49.3899E-03    -22.3554E-03    -6.10443E-03     59.0617E-03     136.534E+06     10.7083E+06    -18.8190E+06    -138.165E+06    -19.1343E+06    -137.850E+06     10.7083E+06     6.03303E+06
             997     14.8664E-03     7.83000E-03     12.6373E-03     47.6346E-03    -21.8581E-03    -25.7766E-03    -25.6094E-03     47.4675E-03    -21.8581E-03    -6.75096E-03     54.3760E-03     155.539E+06     10.9146E+06    -20.7287E+06    -158.009E+06    -21.1194E+06    -157.618E+06     10.9146E+06     7.23547E+06
             998     14.3707E-03     6.85437E-03     12.6307E-03     45.7982E-03    -21.3952E-03    -24.4030E-03    -24.2349E-03     45.6301E-03    -21.3952E-03    -6.63586E-03     50.4701E-03     168.960E+06     8.62129E+06    -23.3873E+06    -174.044E+06    -23.8170E+06    -173.614E+06     8.62129E+06     8.00647E+06
             999     13.9254E-03     5.87751E-03     12.6242E-03     44.1732E-03    -20.9737E-03    -23.1995E-03    -23.0515E-03     44.0252E-03    -20.9737E-03    -6.05826E-03     47.2950E-03     179.075E+06     3.27915E+06    -27.2292E+06    -189.084E+06    -27.7035E+06    -188.609E+06     3.27915E+06     8.73086E+06
            1000     13.5357E-03     4.89974E-03     12.6178E-03     42.7172E-03    -20.5981E-03    -22.1191E-03    -22.0051E-03     42.6032E-03    -20.5981E-03    -5.17773E-03     44.6979E-03     186.876E+06    -4.61959E+06    -31.7370E+06    -203.548E+06    -32.2455E+06    -203.040E+06    -4.61959E+06     9.31541E+06
            1001     13.2074E-03     3.92093E-03     12.6119E-03     41.4644E-03    -20.2726E-03    -21.1918E-03    -21.1174E-03     41.3900E-03    -20.2726E-03    -4.07223E-03     42.6346E-03     191.742E+06    -15.5708E+06    -36.3580E+06    -216.823E+06    -36.8725E+06    -216.309E+06    -15.5708E+06     9.60236E+06
            1002     12.9451E-03     2.94128E-03     12.6065E-03     40.5037E-03    -20.0189E-03    -20.4848E-03    -20.4424E-03     40.4614E-03    -20.0189E-03    -2.98927E-03     41.1274E-03     196.132E+06    -26.5990E+06    -40.7280E+06    -229.388E+06    -41.1299E+06    -228.986E+06    -26.5990E+06     8.52457E+06
            1003     12.7541E-03     1.96111E-03     12.6024E-03     39.8578E-03    -19.8340E-03    -20.0238E-03    -20.0044E-03     39.8383E-03    -19.8340E-03    -1.94628E-03     40.1440E-03     197.896E+06    -36.2764E+06    -44.0184E+06    -237.904E+06    -44.2340E+06    -237.688E+06    -36.2764E+06     6.24304E+06
            1004     12.6377E-03     980.627E-06     12.5996E-03     39.4677E-03    -19.6682E-03    -19.7995E-03    -19.7937E-03     39.4618E-03    -19.6682E-03    -1.02067E-03     39.5943E-03     196.299E+06    -43.5584E+06    -46.3405E+06    -241.225E+06    -46.0825E+06    -241.156E+06    -43.8860E+06     3.04589E+06
            1005     20.2849E-03     16.5654E-03     11.7075E-03     58.4028E-03    -26.2571E-03    -32.1457E-03    -31.3636E-03     57.6208E-03    -26.2571E-03     14.6126E-03     100.174E-03     183.013E+06     201.104E+06     105.922E+06    -7.44526E+06    -7.44452E+06     201.104E+06     105.922E+06    -366.493E+03
            1006     19.4872E-03     15.5986E-03     11.6806E-03     59.0144E-03    -25.5661E-03    -33.4483E-03    -32.4686E-03     58.0347E-03    -25.5661E-03     18.3054E-03     107.731E-03     178.670E+06     187.361E+06     48.7617E+06    -12.6596E+06    -12.6587E+06     187.360E+06     48.7617E+06    -144.480E+03
            1007     18.7090E-03     14.6306E-03     11.6608E-03     58.5907E-03    -24.9275E-03    -33.6631E-03    -33.1985E-03     58.1261E-03    -24.9275E-03     13.0217E-03     97.0886E-03     131.452E+06     127.009E+06     9.53078E+06    -14.8176E+06    -14.7979E+06     126.989E+06     9.53078E+06     220.501E+03
            1008     17.9498E-03     13.6638E-03     11.6402E-03     58.2046E-03    -24.3575E-03    -33.8471E-03    -33.5746E-03     57.9320E-03    -24.3575E-03     9.56197E-03     96.4733E-03     49.9311E+06     38.3608E+06    -4.97788E+06    -14.9199E+06    -14.8479E+06     38.2888E+06    -4.97788E+06     749.578E+03
            1009     17.2141E-03     12.6964E-03     11.6243E-03     57.0737E-03    -23.7544E-03    -33.3193E-03    -33.2578E-03     57.0123E-03    -23.7544E-03     3.20190E-03     87.6246E-03     28.0667E+06     977.989E+03    -10.8722E+06    -31.0095E+06    -15.2779E+06    -23.7877E+06    -1.83812E+06     1.09989E+06
            1010     16.5059E-03     11.7291E-03     11.6134E-03     55.3511E-03    -23.0783E-03    -32.2728E-03    -32.2372E-03     55.3155E-03    -23.0783E-03    -2.44705E-03     78.2623E-03     60.8262E+06     3.90973E+06    -15.6442E+06    -64.1546E+06    -15.7059E+06    -64.0929E+06     3.90973E+06     1.51895E+06
            1011     15.8266E-03     10.7599E-03     11.6062E-03     53.2408E-03    -22.3654E-03    -30.8754E-03    -30.7658E-03     53.1312E-03    -22.3654E-03    -5.81269E-03     70.0980E-03     92.5697E+06     9.66188E+06    -16.0630E+06    -93.0392E+06    -16.1199E+06    -92.9823E+06     9.66188E+06     1.88991E+06
            1012     15.1787E-03     9.78927E-03     11.6002E-03     51.0128E-03    -21.6404E-03    -29.3724E-03    -29.1727E-03     50.8131E-03    -21.6404E-03    -7.79767E-03     63.3943E-03     118.267E+06     14.6440E+06    -16.7920E+06    -116.138E+06    -16.8712E+06    -116.059E+06     14.6440E+06     2.47586E+06
            1013     14.5666E-03     8.81747E-03     11.5948E-03     48.5895E-03    -20.9100E-03    -27.6795E-03    -27.3917E-03     48.3016E-03    -20.9100E-03    -9.21425E-03     57.4949E-03     140.814E+06     15.4387E+06    -17.5540E+06    -138.922E+06    -17.6786E+06    -138.797E+06     15.4387E+06     3.52506E+06
            1014     13.9949E-03     7.84335E-03     11.5905E-03     46.1065E-03    -20.2153E-03    -25.8912E-03    -25.5517E-03     45.7670E-03    -20.2153E-03    -9.76278E-03     52.3356E-03     160.106E+06     16.6614E+06    -18.6864E+06    -158.158E+06    -18.8709E+06    -157.973E+06     16.6614E+06     4.79790E+06
            1015     13.4686E-03     6.86758E-03     11.5862E-03     43.6688E-03    -19.5556E-03    -24.1133E-03    -23.7724E-03     43.3279E-03    -19.5556E-03    -9.48483E-03     47.9157E-03     173.586E+06     15.2605E+06    -20.8079E+06    -173.504E+06    -21.0613E+06    -173.251E+06     15.2605E+06     6.04734E+06
            1016     12.9934E-03     5.89024E-03     11.5817E-03     41.3387E-03    -18.9465E-03    -22.3923E-03    -22.0881E-03     41.0345E-03    -18.9465E-03    -8.68312E-03     44.1258E-03     184.387E+06     10.7067E+06    -23.7879E+06    -188.475E+06    -24.0970E+06    -188.166E+06     10.7067E+06     6.99468E+06
            1017     12.5759E-03     4.91107E-03     11.5773E-03     39.2376E-03    -18.4075E-03    -20.8301E-03    -20.5891E-03     38.9966E-03    -18.4075E-03    -7.47929E-03     40.9712E-03     192.775E+06     4.77642E+06    -27.5328E+06    -202.084E+06    -27.8765E+06    -201.741E+06     4.77642E+06     7.62925E+06
            1018     12.2221E-03     3.93059E-03     11.5729E-03     37.4260E-03    -17.9334E-03    -19.4926E-03    -19.3256E-03     37.2590E-03    -17.9334E-03    -6.02247E-03     38.4387E-03     197.390E+06    -4.37311E+06    -31.3380E+06    -213.806E+06    -31.6754E+06    -213.469E+06    -4.37311E+06     7.51606E+06
            1019     11.9388E-03     2.94905E-03     11.5689E-03     35.9463E-03    -17.5367E-03    -18.4096E-03    -18.3108E-03     35.8475E-03    -17.5367E-03    -4.49609E-03     36.5101E-03     200.116E+06    -15.4935E+06    -34.2989E+06    -224.292E+06    -34.5295E+06    -224.061E+06    -15.4935E+06     6.13982E+06
            1020     11.7315E-03     1.96652E-03     11.5655E-03     34.8518E-03    -17.2295E-03    -17.6224E-03    -17.5754E-03     34.8048E-03    -17.2295E-03    -2.99240E-03     35.1794E-03     200.642E+06    -26.9422E+06    -37.2618E+06    -232.514E+06    -37.3606E+06    -232.415E+06    -26.9422E+06     4.09656E+06
            1021     11.6049E-03     983.441E-06     11.5632E-03     34.1491E-03    -16.9849E-03    -17.1642E-03    -17.1488E-03     34.1337E-03    -16.9849E-03    -1.62125E-03     34.3918E-03     198.614E+06    -36.0113E+06    -39.5341E+06    -236.348E+06    -39.4469E+06    -236.316E+06    -36.1310E+06     1.83092E+06
            1022     19.6940E-03     16.5685E-03     10.6461E-03     60.1089E-03    -26.1383E-03    -33.9706E-03    -33.2104E-03     59.3487E-03    -26.1383E-03     15.3942E-03     101.382E-03     183.227E+06     201.017E+06     107.992E+06    -7.82454E+06    -7.82372E+06     201.016E+06     107.992E+06    -80.4971E+03
            1023     18.8718E-03     15.6007E-03     10.6189E-03     60.4680E-03    -25.3283E-03    -35.1397E-03    -34.2264E-03     59.5547E-03    -25.3283E-03     18.0563E-03     108.398E-03     178.709E+06     187.675E+06     51.2774E+06    -12.8741E+06    -12.8682E+06     187.669E+06     51.2774E+06    -500.285E+03
            1024     18.0706E-03     14.6360E-03     10.5988E-03     59.9010E-03    -24.5547E-03    -35.3463E-03    -34.8863E-03     59.4410E-03    -24.5547E-03     13.1563E-03     97.9559E-03     130.935E+06     127.084E+06     11.2424E+06    -14.8219E+06    -14.8092E+06     127.071E+06     11.2424E+06    -940.433E+03
            1025     17.2866E-03     13.6707E-03     10.5800E-03     59.5096E-03    -23.8383E-03    -35.6713E-03    -35.4180E-03     59.2563E-03    -23.8383E-03     9.16909E-03     97.4308E-03     50.2287E+06     37.9996E+06    -2.48626E+06    -15.4031E+06    -15.3350E+06     37.8271E+06    -2.38188E+06    -348.533E+03
            1026     16.5242E-03     12.7059E-03     10.5645E-03     58.0407E-03    -23.0701E-03    -34.9706E-03    -34.9203E-03     57.9904E-03    -23.0701E-03     1.84593E-03     88.1745E-03     30.7947E+06     3.95731E+06    -8.24737E+06    -30.7199E+06    -14.7646E+06    -23.3368E+06     3.09157E+06     215.443E+03
            1027     15.7881E-03     11.7395E-03     10.5568E-03     55.8430E-03    -22.2163E-03    -33.6267E-03    -33.5501E-03     55.7664E-03    -22.2163E-03    -4.47452E-03     78.3736E-03     65.1613E+06     9.41208E+06    -14.8188E+06    -64.1716E+06    -14.8479E+06    -64.1424E+06     9.41208E+06    -326.492E+03
            1028     15.0790E-03     10.7718E-03     10.5521E-03     53.3221E-03    -21.3206E-03    -32.0015E-03    -31.8132E-03     53.1338E-03    -21.3206E-03    -7.87947E-03     69.9131E-03     97.2373E+06     15.7694E+06    -15.0006E+06    -93.1055E+06    -15.0358E+06    -93.0702E+06     15.7694E+06    -473.948E+03
            1029     14.4001E-03     9.80258E-03     10.5486E-03     50.5526E-03    -20.4091E-03    -30.1435E-03    -29.8369E-03     50.2461E-03    -20.4091E-03    -9.82490E-03     62.7191E-03     123.582E+06     21.5621E+06    -15.2319E+06    -116.206E+06    -15.2552E+06    -116.183E+06     21.5621E+06    -287.408E+03
            1030     13.7556E-03     8.83066E-03     10.5468E-03     47.5722E-03    -19.4922E-03    -28.0800E-03    -27.6639E-03     47.1561E-03    -19.4922E-03    -11.1478E-03     56.3561E-03     146.745E+06     22.6307E+06    -16.0061E+06    -139.531E+06    -16.0359E+06    -139.502E+06     22.6307E+06     60.4696E+03
            1031     13.1505E-03     7.85684E-03     10.5454E-03     44.5328E-03    -18.6126E-03    -25.9202E-03    -25.4522E-03     44.0648E-03    -18.6126E-03    -11.4265E-03     50.7089E-03     166.707E+06     24.4939E+06    -17.0159E+06    -159.022E+06    -17.0613E+06    -158.977E+06     24.4939E+06     1.15699E+06
            1032     12.5906E-03     6.88098E-03     10.5440E-03     41.5012E-03    -17.7720E-03    -23.7293E-03    -23.2652E-03     41.0371E-03    -17.7720E-03    -10.9550E-03     45.7550E-03     180.788E+06     24.5123E+06    -18.6650E+06    -173.923E+06    -18.7390E+06    -173.849E+06     24.5123E+06     2.51521E+06
            1033     12.0825E-03     5.90262E-03     10.5426E-03     38.5390E-03    -16.9907E-03    -21.5483E-03    -21.1398E-03     38.1305E-03    -16.9907E-03    -9.86151E-03     41.3317E-03     192.011E+06     21.6208E+06    -21.1648E+06    -188.132E+06      -21.27E+06    -188.026E+06     21.6208E+06     3.59033E+06
            1034     11.6332E-03     4.92240E-03     10.5405E-03     35.8490E-03    -16.2843E-03    -19.5646E-03    -19.2406E-03     35.5249E-03    -16.2843E-03    -8.43068E-03     37.6262E-03     199.887E+06     16.1979E+06    -24.2236E+06    -200.764E+06    -24.3476E+06    -200.640E+06     16.1979E+06     3.86070E+06
            1035     11.2509E-03     3.94039E-03     10.5383E-03     33.4658E-03    -15.6465E-03    -17.8193E-03    -17.5900E-03     33.2365E-03    -15.6465E-03    -6.80719E-03     34.5824E-03     202.214E+06     5.62626E+06    -27.5297E+06    -211.063E+06    -27.6199E+06    -210.973E+06     5.62626E+06     3.04835E+06
            1036     10.9431E-03     2.95673E-03     10.5361E-03     31.4656E-03    -15.0990E-03    -16.3666E-03    -16.2292E-03     31.3282E-03    -15.0990E-03    -5.05813E-03     32.2053E-03     202.365E+06    -8.71866E+06    -31.1331E+06    -221.289E+06    -31.1824E+06    -221.239E+06    -8.71866E+06     2.23627E+06
            1037     10.7170E-03     1.97199E-03     10.5341E-03     29.9359E-03    -14.6666E-03    -15.2693E-03    -15.2038E-03     29.8705E-03    -14.6666E-03    -3.34954E-03     30.5106E-03     201.157E+06    -23.0576E+06    -34.1788E+06    -229.493E+06    -34.2062E+06    -229.466E+06    -23.0576E+06     1.60052E+06
            1038     10.5788E-03     986.246E-06     10.5327E-03     28.9258E-03    -14.3496E-03    -14.5762E-03    -14.5545E-03     28.9041E-03    -14.3496E-03    -1.81082E-03     29.4494E-03     198.848E+06    -33.3507E+06    -36.7051E+06    -233.842E+06    -36.5900E+06    -233.838E+06    -33.4705E+06     351.179E+03
            1039     19.1404E-03     16.5693E-03     9.58200E-03     61.7119E-03    -26.0192E-03    -35.6927E-03    -34.9713E-03     60.9905E-03    -26.0192E-03     15.7655E-03     102.519E-03     183.480E+06     201.566E+06     111.566E+06    -7.55536E+06    -7.55143E+06     201.562E+06     111.566E+06     45.3370E+03
            1040     18.2998E-03     15.6070E-03     9.55541E-03     61.7287E-03    -25.0990E-03    -36.6297E-03    -35.8008E-03     60.8998E-03    -25.0990E-03     17.5486E-03     108.853E-03     178.698E+06     188.253E+06     55.1342E+06    -12.9849E+06    -12.9773E+06     188.245E+06     55.1342E+06    -936.885E+03
            1041     17.4732E-03     14.6408E-03     9.53733E-03     61.0912E-03    -24.2058E-03    -36.8854E-03    -36.4670E-03     60.6728E-03    -24.2058E-03     12.6906E-03     98.4742E-03     130.647E+06     127.046E+06     14.8907E+06     -16.357E+06    -16.3363E+06     127.026E+06     14.8907E+06    -1.33319E+06
            1042     16.6624E-03     13.6776E-03     9.51635E-03     60.4532E-03    -23.3653E-03    -37.0879E-03    -36.8815E-03     60.2468E-03    -23.3653E-03     8.19921E-03     97.8407E-03     52.8047E+06     40.2500E+06     1.73406E+06    -17.2864E+06    -17.1556E+06     38.4102E+06     3.44308E+06    -1.69868E+06
            1043     15.8744E-03     12.7143E-03     9.50500E-03     58.6720E-03    -22.4542E-03    -36.2178E-03    -36.1731E-03     58.6273E-03    -22.4542E-03     591.098E-06     88.5636E-03     36.0674E+06     8.80080E+06    -7.73315E+06    -31.9268E+06    -17.0061E+06    -22.6538E+06     8.80080E+06    -2.33227E+06
            1044     15.1088E-03     11.7494E-03     9.49884E-03     56.0738E-03    -21.4596E-03    -34.6142E-03    -34.5143E-03     55.9738E-03    -21.4596E-03    -5.55181E-03     78.5802E-03     70.1324E+06     16.3091E+06    -15.3678E+06    -63.7152E+06    -15.7748E+06    -63.3082E+06     16.3091E+06    -3.55974E+06
            1045     14.3696E-03     10.7828E-03     9.49822E-03     53.0700E-03    -20.4285E-03    -32.6416E-03    -32.4311E-03     52.8596E-03    -20.4285E-03    -8.41546E-03     69.9416E-03     103.730E+06     24.0659E+06    -13.9058E+06    -93.2570E+06    -14.2350E+06    -92.9278E+06     24.0659E+06    -4.44299E+06
            1046     13.6568E-03     9.81329E-03     9.49783E-03     49.8138E-03    -19.3874E-03    -30.4264E-03    -30.1057E-03     49.4930E-03    -19.3874E-03    -10.0449E-03     62.4719E-03     131.423E+06     30.5948E+06    -13.4137E+06    -117.140E+06    -13.6657E+06    -116.888E+06     30.5948E+06    -4.34671E+06
            1047     12.9782E-03     8.84216E-03     9.49993E-03     46.4047E-03    -18.3484E-03    -28.0563E-03    -27.6493E-03     45.9977E-03    -18.3484E-03    -10.9469E-03     55.7704E-03     155.004E+06     33.0432E+06    -13.8831E+06    -139.959E+06    -14.0573E+06    -139.784E+06     33.0432E+06    -4.10008E+06
            1048     12.3368E-03     7.86820E-03     9.50200E-03     42.9330E-03    -17.3467E-03    -25.5863E-03    -25.1585E-03     42.5052E-03    -17.3467E-03    -10.7526E-03     49.7266E-03     175.999E+06     35.2609E+06    -14.8288E+06    -160.330E+06    -14.9840E+06    -160.175E+06     35.2609E+06    -3.81766E+06
            1049     11.7399E-03     6.89153E-03     9.50436E-03     39.4926E-03    -16.3915E-03    -23.1011E-03    -22.6919E-03     39.0834E-03    -16.3915E-03    -10.0433E-03     44.2917E-03     191.387E+06     36.4165E+06    -16.4621E+06    -175.821E+06    -16.5620E+06    -175.721E+06     36.4165E+06    -2.54285E+06
            1050     11.1950E-03     5.91269E-03     9.50616E-03     36.1886E-03    -15.4822E-03    -20.7064E-03    -20.3549E-03     35.8371E-03    -15.4822E-03    -8.86421E-03     39.4875E-03     200.276E+06     32.8751E+06    -19.2407E+06    -188.274E+06    -19.2956E+06    -188.219E+06     32.8751E+06    -1.27306E+06
            1051     10.7101E-03     4.93141E-03     9.50724E-03     33.0635E-03    -14.6289E-03    -18.4346E-03    -18.1623E-03     32.7912E-03    -14.6289E-03    -7.41369E-03     35.3131E-03     203.700E+06     22.7082E+06    -22.8931E+06    -199.876E+06    -22.9494E+06    -199.819E+06     22.7082E+06    -1.46641E+06
            1052     10.2948E-03     3.94800E-03     9.50771E-03     30.2703E-03    -13.8602E-03    -16.4101E-03    -16.2201E-03     30.0803E-03    -13.8602E-03    -5.88304E-03     31.8383E-03     203.122E+06     7.76245E+06    -26.9598E+06    -210.418E+06    -27.0069E+06    -210.371E+06     7.76245E+06    -1.79856E+06
            1053     9.95871E-03     2.96286E-03     9.50775E-03     27.9194E-03    -13.2129E-03    -14.7065E-03    -14.5938E-03     27.8068E-03    -13.2129E-03    -4.30228E-03     29.0838E-03     202.229E+06    -8.54315E+06    -31.0139E+06    -220.993E+06    -31.0467E+06    -220.960E+06    -8.54315E+06    -1.67118E+06
            1054     9.71065E-03     1.97607E-03     9.50746E-03     26.1220E-03    -12.7147E-03    -13.4073E-03    -13.3544E-03     26.0691E-03    -12.7147E-03    -2.79947E-03     27.0979E-03     200.821E+06    -23.6220E+06    -34.6265E+06    -229.670E+06    -34.6426E+06    -229.654E+06    -23.6220E+06    -1.00585E+06
            1055     9.55843E-03     988.353E-06     9.50719E-03     24.9711E-03    -12.3599E-03    -12.6112E-03    -12.5940E-03     24.9539E-03    -12.3599E-03    -1.48703E-03     25.9043E-03     197.868E+06    -33.8253E+06    -37.2106E+06    -233.352E+06    -37.0650E+06    -233.348E+06    -33.9747E+06    -349.333E+03
            1056     18.6338E-03     16.5739E-03     8.51601E-03     63.2240E-03    -25.8929E-03    -37.3311E-03    -36.6289E-03     62.5218E-03    -25.8929E-03     15.8249E-03     103.117E-03     183.476E+06     201.271E+06     112.898E+06    -7.60205E+06    -7.59792E+06     201.267E+06     112.898E+06     204.157E+03
            1057     17.7685E-03     15.6077E-03     8.49235E-03     62.9615E-03    -24.8761E-03    -38.0854E-03    -37.2786E-03     62.1547E-03    -24.8761E-03     17.5555E-03     109.085E-03     178.744E+06     188.925E+06     58.3080E+06    -13.3095E+06    -13.3006E+06     188.916E+06     58.3080E+06    -757.848E+03
            1058     16.9206E-03     14.6473E-03     8.47127E-03     62.1705E-03    -23.8876E-03    -38.2829E-03    -37.8870E-03     61.7746E-03    -23.8876E-03     12.4923E-03     98.8500E-03     130.309E+06     128.607E+06     21.5150E+06    -16.3771E+06    -16.3391E+06     128.569E+06     21.5150E+06    -1.81709E+06
            1059     16.0860E-03     13.6847E-03     8.45523E-03     60.6439E-03    -22.9556E-03    -37.6884E-03    -37.5033E-03     60.4589E-03    -22.9556E-03     7.89628E-03     97.3480E-03     55.5085E+06     44.3038E+06     5.83556E+06    -17.9139E+06    -17.5259E+06     39.1209E+06     10.6305E+06    -3.07744E+06
            1060     15.2677E-03     12.7210E-03     8.44265E-03     58.3014E-03    -21.9890E-03    -36.3124E-03    -36.2669E-03     58.2560E-03    -21.9890E-03     492.257E-06     88.0365E-03     42.8768E+06     17.4149E+06    -6.23411E+06    -31.6251E+06    -17.4659E+06    -20.3933E+06     17.4149E+06    -5.59588E+06
            1061     14.4742E-03     11.7568E-03     8.44270E-03     55.4113E-03    -20.9591E-03    -34.4522E-03    -34.3821E-03     55.3412E-03    -20.9591E-03    -4.75689E-03     78.3554E-03     77.2676E+06     25.7009E+06    -14.6250E+06    -62.9817E+06    -16.4905E+06    -61.1162E+06     25.7009E+06    -8.42508E+06
            1062     13.7006E-03     10.7893E-03     8.44379E-03     52.1197E-03    -19.9055E-03    -32.2141E-03    -32.0794E-03     51.9850E-03    -19.9055E-03    -6.49265E-03     69.9920E-03     112.109E+06     33.6387E+06    -13.5939E+06    -94.2857E+06    -15.0303E+06    -92.8493E+06     33.6387E+06    -10.1011E+06
            1063     12.9548E-03     9.82072E-03     8.44867E-03     48.6011E-03    -18.8561E-03    -29.7450E-03    -29.5602E-03     48.4163E-03    -18.8561E-03    -7.16741E-03     62.4864E-03     141.058E+06     40.6801E+06    -12.3777E+06    -119.149E+06    -13.5931E+06    -117.934E+06     40.6801E+06    -10.6187E+06
            1064     12.2377E-03     8.84825E-03     8.45393E-03     45.1029E-03    -17.8202E-03    -27.2827E-03    -27.0785E-03     44.8987E-03    -17.8202E-03    -7.07310E-03     55.8119E-03     165.802E+06     44.6290E+06    -11.2163E+06    -141.852E+06    -12.1540E+06    -140.914E+06     44.6290E+06    -10.3058E+06
            1065     11.5575E-03     7.87380E-03     8.46048E-03     41.6929E-03    -16.8199E-03    -24.8730E-03    -24.6746E-03     41.4945E-03    -16.8199E-03    -6.60695E-03     49.7420E-03     188.378E+06     48.3099E+06    -11.8455E+06    -162.774E+06    -12.5241E+06    -162.095E+06     48.3099E+06    -9.59687E+06
            1066     10.9199E-03     6.89676E-03     8.46630E-03     38.2783E-03    -15.8308E-03    -22.4475E-03    -22.2682E-03     38.0990E-03    -15.8308E-03    -5.87550E-03     44.1717E-03     201.544E+06     46.1651E+06    -14.8363E+06    -178.796E+06    -15.3063E+06    -178.326E+06     46.1651E+06    -8.25058E+06
            1067     10.3337E-03     5.91726E-03     8.47174E-03     34.9456E-03    -14.8556E-03    -20.0900E-03    -19.9431E-03     34.7987E-03    -14.8556E-03    -4.97779E-03     39.2399E-03     204.560E+06     36.2524E+06    -18.3694E+06    -190.032E+06    -18.7230E+06    -189.678E+06     36.2524E+06    -7.13077E+06
            1068     9.80843E-03     4.93547E-03     8.47623E-03     31.7586E-03    -13.9402E-03    -17.8185E-03    -17.7087E-03     31.6488E-03    -13.9402E-03    -4.04906E-03     34.8444E-03     204.548E+06     22.1100E+06    -22.2549E+06    -200.902E+06    -22.5197E+06    -200.637E+06     22.1100E+06    -6.47398E+06
            1069     9.35518E-03     3.95146E-03     8.47971E-03     28.8465E-03    -13.1223E-03    -15.7242E-03    -15.6501E-03     28.7724E-03    -13.1223E-03    -3.09217E-03     31.0999E-03     203.175E+06     4.98920E+06    -26.9313E+06    -212.174E+06    -27.1241E+06    -211.981E+06     4.98920E+06    -5.73139E+06
            1070     8.98567E-03     2.96541E-03     8.48226E-03     26.4170E-03    -12.4431E-03    -13.9738E-03    -13.9315E-03     26.3746E-03    -12.4431E-03    -2.17844E-03     28.1530E-03     202.309E+06    -11.6403E+06    -31.9230E+06    -223.268E+06    -32.0372E+06    -223.153E+06    -11.6403E+06    -4.46264E+06
            1071     8.71145E-03     1.97793E-03     8.48394E-03     24.5599E-03    -11.9252E-03    -12.6347E-03    -12.6153E-03     24.5405E-03    -11.9252E-03    -1.38512E-03     26.0136E-03     201.206E+06    -25.8500E+06    -36.4352E+06    -232.104E+06    -36.4797E+06    -232.059E+06    -25.8500E+06    -2.76614E+06
            1072     8.54231E-03     989.204E-06     8.48484E-03     23.3569E-03    -11.5622E-03    -11.7947E-03    -11.7884E-03     23.3506E-03    -11.5622E-03    -729.152E-06     24.7554E-03     197.108E+06    -36.1959E+06    -39.7806E+06    -235.059E+06    -39.6435E+06    -235.047E+06    -36.3452E+06    -1.27005E+06
            1073     18.1722E-03     16.5737E-03     7.45264E-03     65.0466E-03    -25.8312E-03    -39.2154E-03    -38.4306E-03     64.2617E-03    -25.8312E-03     16.4108E-03     103.062E-03     184.347E+06     201.956E+06     115.354E+06    -7.77119E+06    -7.76988E+06     201.955E+06     115.354E+06     237.876E+03
            1074     17.2892E-03     15.6140E-03     7.42416E-03     64.0119E-03    -24.7311E-03    -39.2808E-03    -38.3244E-03     63.0555E-03    -24.7311E-03     19.2242E-03     108.131E-03     178.896E+06     189.886E+06     62.3514E+06    -13.2728E+06    -13.2656E+06     189.879E+06     62.3514E+06    -493.116E+03
            1075     16.4170E-03     14.6508E-03     7.40771E-03     62.4875E-03    -23.6896E-03    -38.7979E-03    -38.2946E-03     61.9841E-03    -23.6896E-03     14.1068E-03     98.0094E-03     131.346E+06     130.171E+06     26.2471E+06    -17.3433E+06    -17.2936E+06     130.121E+06     26.2471E+06    -1.97981E+06
            1076     15.5566E-03     13.6887E-03     7.39089E-03     60.0027E-03    -22.7611E-03    -37.2416E-03    -36.9652E-03     59.7263E-03    -22.7611E-03     9.65172E-03     96.1626E-03     62.1988E+06     50.8106E+06     11.3825E+06    -19.7049E+06    -18.2359E+06     42.3246E+06     18.3995E+06    -5.64175E+06
            1077     14.7127E-03     12.7252E-03     7.38455E-03     56.4798E-03    -21.8763E-03    -34.6035E-03    -34.5200E-03     56.3963E-03    -21.8763E-03     3.76663E-03     87.1104E-03     52.6166E+06     27.6964E+06    -1.44865E+06    -32.4751E+06    -17.0993E+06    -16.8245E+06     27.6964E+06    -10.0932E+06
            1078     13.8851E-03     11.7580E-03     7.38553E-03     53.4947E-03    -20.9857E-03    -32.5090E-03    -32.4438E-03     53.4295E-03    -20.9857E-03     744.200E-06     77.9402E-03     86.4303E+06     35.9113E+06    -11.7141E+06    -63.4906E+06    -16.2407E+06    -58.9640E+06     35.9113E+06    -13.8591E+06
            1079     13.0797E-03     10.7904E-03     7.39226E-03     50.4978E-03    -20.0937E-03    -30.4041E-03    -30.3216E-03     50.4153E-03    -20.0937E-03     223.619E-06     69.9984E-03     121.848E+06     43.5012E+06    -11.5028E+06    -96.1072E+06    -15.2265E+06    -92.3835E+06     43.5012E+06    -16.9257E+06
            1080     12.2946E-03     9.81824E-03     7.40004E-03     47.3402E-03    -19.2173E-03    -28.1229E-03    -28.0161E-03     47.2334E-03    -19.2173E-03     938.143E-06     62.9134E-03     151.993E+06     50.6380E+06    -10.0266E+06    -122.269E+06    -13.3952E+06    -118.901E+06     50.6380E+06    -18.6776E+06
            1081     11.5389E-03     8.84534E-03     7.40983E-03     44.5547E-03    -18.3507E-03    -26.2040E-03    -26.0830E-03     44.4337E-03    -18.3507E-03     1.60668E-03     57.0010E-03     178.315E+06     54.7932E+06    -9.49710E+06    -146.728E+06    -12.2056E+06    -144.019E+06     54.7932E+06    -18.4826E+06
            1082     10.8155E-03     7.86982E-03     7.41901E-03     41.8252E-03    -17.4745E-03    -24.3507E-03    -24.2214E-03     41.6959E-03    -17.4745E-03     1.97564E-03     51.3395E-03     198.668E+06     55.5825E+06    -11.3060E+06    -167.876E+06    -13.0629E+06    -166.119E+06     55.5825E+06    -15.9847E+06
            1083     10.1340E-03     6.89268E-03     7.42895E-03     39.0143E-03    -16.5505E-03    -22.4639E-03    -22.3453E-03     38.8957E-03    -16.5505E-03     2.13797E-03     46.2364E-03     205.995E+06     46.9072E+06    -14.4266E+06    -182.703E+06    -15.6498E+06    -181.479E+06     46.9072E+06    -13.9996E+06
            1084     9.50171E-03     5.91327E-03     7.43745E-03     36.0815E-03    -15.6117E-03    -20.4698E-03    -20.3731E-03     35.9848E-03    -15.6117E-03     2.03539E-03     41.4532E-03     205.231E+06     31.5212E+06    -18.1537E+06    -193.905E+06    -19.1126E+06    -192.946E+06     31.5212E+06    -12.6840E+06
            1085     8.93067E-03     4.93197E-03     7.44531E-03     33.1410E-03    -14.7305E-03    -18.4105E-03    -18.3396E-03     33.0701E-03    -14.7305E-03     1.72924E-03     37.0974E-03     204.514E+06     16.0685E+06    -22.6525E+06    -204.957E+06    -23.2792E+06    -204.330E+06     16.0685E+06    -10.4264E+06
            1086     8.43333E-03     3.94849E-03     7.45188E-03     30.4014E-03    -13.9365E-03    -16.4649E-03    -16.4150E-03     30.3516E-03    -13.9365E-03     1.50915E-03     33.3755E-03     203.119E+06    -832.391E+03    -28.1522E+06    -216.153E+06    -28.4887E+06    -215.816E+06    -832.391E+03    -7.78365E+06
            1087     8.02409E-03     2.96321E-03     7.45690E-03     28.0563E-03    -13.2674E-03    -14.7889E-03    -14.7591E-03     28.0264E-03    -13.2674E-03     1.19201E-03     30.3924E-03     202.188E+06    -17.0466E+06    -33.9603E+06    -227.116E+06    -34.1255E+06    -226.951E+06    -17.0466E+06    -5.54003E+06
            1088     7.71785E-03     1.97639E-03     7.46051E-03     26.2389E-03    -12.7510E-03    -13.4879E-03    -13.4732E-03     26.2243E-03    -12.7510E-03     824.574E-06     28.1844E-03     201.630E+06    -29.5579E+06    -38.6747E+06    -235.567E+06    -38.7458E+06    -235.496E+06    -29.5579E+06    -3.58081E+06
            1089     7.52788E-03     988.578E-06     7.46269E-03     25.0007E-03    -12.3765E-03    -12.6241E-03    -12.6195E-03     24.9960E-03    -12.3765E-03     427.629E-06     26.8405E-03     197.615E+06    -39.0288E+06    -42.3161E+06    -238.255E+06    -42.3366E+06    -238.234E+06    -39.0288E+06    -1.86750E+06
            1090     17.7615E-03     16.5749E-03     6.38322E-03     66.1220E-03    -25.9951E-03    -40.1270E-03    -38.8898E-03     64.8848E-03    -25.9951E-03     19.8632E-03     102.835E-03     185.389E+06     202.545E+06     118.303E+06    -8.25131E+06    -8.24931E+06     202.543E+06     118.303E+06     359.979E+03
            1091     16.8569E-03     15.6116E-03     6.35862E-03     64.6274E-03    -24.9112E-03    -39.7162E-03    -37.8817E-03     62.7929E-03    -24.9112E-03     26.6489E-03     108.670E-03     179.189E+06     189.024E+06     65.3834E+06    -15.2426E+06    -15.2413E+06     189.023E+06     65.3834E+06     205.346E+03
            1092     15.9645E-03     14.6506E-03     6.34225E-03     62.8009E-03    -23.9005E-03    -38.9004E-03    -37.5922E-03     61.4927E-03    -23.9005E-03     22.0653E-03     98.5555E-03     136.454E+06     133.979E+06     26.9037E+06    -19.5411E+06    -19.4349E+06     133.873E+06     26.9037E+06    -2.14023E+06
            1093     15.0800E-03     13.6876E-03     6.32898E-03     58.9302E-03    -23.0751E-03    -35.8551E-03    -35.0625E-03     58.1375E-03    -23.0751E-03     15.9204E-03     93.7815E-03     72.4087E+06     56.8981E+06     14.5139E+06    -23.3938E+06    -20.4012E+06     49.1983E+06     19.2211E+06    -9.60930E+06
            1094     14.2069E-03     12.7192E-03     6.32914E-03     54.1267E-03    -22.4271E-03    -31.6995E-03    -31.2050E-03     53.6321E-03    -22.4271E-03     11.6474E-03     84.5042E-03     60.5684E+06     30.8915E+06     5.18588E+06    -37.0247E+06    -18.4572E+06    -13.3816E+06     30.8915E+06    -16.2531E+06
            1095     13.3465E-03     11.7489E-03     6.33190E-03     51.1180E-03    -21.8722E-03    -29.2458E-03    -28.7450E-03     50.6172E-03    -21.8722E-03     10.9931E-03     76.0504E-03     93.0132E+06     40.7050E+06    -6.77261E+06    -66.1906E+06    -15.5574E+06    -57.4058E+06     40.7050E+06    -20.0649E+06
            1096     12.5039E-03     10.7761E-03     6.34207E-03     48.9519E-03    -21.3689E-03    -27.5830E-03    -27.0158E-03     48.3846E-03    -21.3689E-03     11.2801E-03     69.1816E-03     129.137E+06     49.5250E+06    -7.46320E+06    -98.2569E+06    -14.4514E+06    -91.2687E+06     49.5250E+06    -23.8991E+06
            1097     11.6820E-03     9.80330E-03     6.35337E-03     47.4627E-03    -20.8724E-03    -26.5903E-03    -25.7325E-03     46.6049E-03    -20.8724E-03     13.8999E-03     64.1399E-03     159.914E+06     55.1369E+06    -7.90525E+06    -126.643E+06    -14.5339E+06    -120.014E+06     55.1369E+06    -26.9114E+06
            1098     10.8833E-03     8.82805E-03     6.36485E-03     46.3490E-03    -20.3432E-03    -26.0058E-03    -25.0652E-03     45.4084E-03    -20.3432E-03     14.6925E-03     59.6381E-03     188.440E+06     57.8243E+06    -9.44848E+06    -154.988E+06    -14.7656E+06    -149.670E+06     57.8243E+06    -26.7691E+06
            1099     10.1160E-03     7.85261E-03     6.37726E-03     44.8896E-03    -19.7118E-03    -25.1778E-03    -24.2961E-03     44.0078E-03    -19.7118E-03     14.3107E-03     55.1333E-03     204.656E+06     52.9872E+06    -11.8134E+06    -176.124E+06    -15.3427E+06    -172.594E+06     52.9872E+06    -23.4010E+06
            1100     9.38593E-03     6.87573E-03     6.38905E-03     43.1047E-03    -18.9663E-03    -24.1384E-03    -23.3754E-03     42.3417E-03    -18.9663E-03     13.1919E-03     51.0021E-03     206.627E+06     39.0353E+06    -14.5859E+06    -188.982E+06    -16.9445E+06    -186.623E+06     39.0353E+06    -19.8373E+06
            1101     8.70385E-03     5.89824E-03     6.40060E-03     40.8515E-03    -18.1730E-03    -22.6785E-03    -22.0992E-03     40.2722E-03    -18.1730E-03     11.3036E-03     46.7546E-03     205.553E+06     22.7913E+06    -18.8656E+06    -200.303E+06    -20.3850E+06    -198.784E+06     22.7913E+06    -16.3526E+06
            1102     8.08083E-03     4.91875E-03     6.41138E-03     38.3175E-03    -17.3958E-03    -20.9217E-03    -20.5009E-03     37.8967E-03    -17.3958E-03     9.34700E-03     42.7794E-03     204.610E+06     6.93753E+06    -24.7650E+06    -211.616E+06    -25.6309E+06    -210.750E+06     6.93753E+06    -12.4959E+06
            1103     7.53189E-03     3.93773E-03     6.42057E-03     35.8768E-03    -16.6781E-03    -19.1987E-03    -18.9140E-03     35.5921E-03    -16.6781E-03     7.45639E-03     39.3114E-03     203.553E+06    -8.10862E+06    -30.7238E+06    -221.976E+06    -31.1273E+06    -221.573E+06    -8.10862E+06    -8.53211E+06
            1104     7.07477E-03     2.95507E-03     6.42805E-03     33.6641E-03    -16.0540E-03    -17.6101E-03    -17.4401E-03     33.4941E-03    -16.0540E-03     5.55885E-03     36.4120E-03     202.666E+06    -22.1879E+06    -35.9403E+06    -231.343E+06    -36.1012E+06    -231.182E+06    -22.1879E+06    -5.43844E+06
            1105     6.72864E-03     1.97098E-03     6.43350E-03     31.8876E-03    -15.5640E-03    -16.3235E-03    -16.2401E-03     31.8041E-03    -15.5640E-03     3.73885E-03     34.2166E-03     202.290E+06      -33.92E+06    -40.7208E+06    -239.509E+06    -40.7819E+06    -239.448E+06      -33.92E+06    -3.25255E+06
            1106     6.51197E-03     985.810E-06     6.43692E-03     30.6824E-03    -15.2150E-03    -15.4675E-03    -15.4222E-03     30.6548E-03    -15.2326E-03     1.97499E-03     32.8600E-03     198.874E+06    -41.6942E+06    -43.8332E+06    -241.620E+06    -43.8124E+06    -241.598E+06    -41.7366E+06    -1.94247E+06
            1107     17.3971E-03     16.5645E-03     5.31763E-03     65.9841E-03    -26.5132E-03    -39.4708E-03    -37.7051E-03     64.2183E-03    -26.5132E-03     23.1329E-03     100.720E-03     185.819E+06     202.364E+06     119.132E+06    -8.82885E+06    -8.81719E+06     202.352E+06     119.132E+06     1.19663E+06
            1108     16.4737E-03     15.6001E-03     5.29324E-03     64.2604E-03    -25.5368E-03    -38.7236E-03    -36.0618E-03     61.5986E-03    -25.5368E-03     32.4399E-03     106.349E-03     179.786E+06     187.300E+06     61.8852E+06    -16.7762E+06    -16.7531E+06     187.277E+06     61.8852E+06     1.43147E+06
            1109     15.5576E-03     14.6354E-03     5.27666E-03     60.5358E-03    -24.7067E-03    -35.8291E-03    -33.6535E-03     58.3602E-03    -24.7067E-03     28.3996E-03     95.2733E-03     147.504E+06     141.013E+06     15.8442E+06    -20.5479E+06    -20.4125E+06     140.877E+06     15.8442E+06    -1.39001E+06
            1110     14.6507E-03     13.6704E-03     5.26898E-03     55.6797E-03    -24.2699E-03    -31.4098E-03    -29.1280E-03     53.3979E-03    -24.2699E-03     26.3880E-03     89.0959E-03     85.6111E+06     64.9025E+06     4.49471E+06    -27.0183E+06    -22.9244E+06     59.9282E+06     5.37513E+06    -12.3762E+06
            1111     13.7534E-03     12.7007E-03     5.27703E-03     53.4173E-03    -24.1594E-03    -29.2579E-03    -25.8396E-03     49.9990E-03    -24.1594E-03     29.3640E-03     83.6336E-03     63.5688E+06     25.4590E+06     5.03197E+06    -45.0456E+06    -23.0786E+06    -10.7774E+06     19.3014E+06    -23.1849E+06
            1112     12.8600E-03     11.7254E-03     5.28136E-03     52.6269E-03    -24.1138E-03    -28.5131E-03    -24.7799E-03     48.8937E-03    -24.1138E-03     30.8225E-03     77.4204E-03     91.3309E+06     29.4975E+06    -4.36845E+06     -73.465E+06    -20.7657E+06    -57.0678E+06     29.4975E+06    -27.9281E+06
            1113     11.9827E-03     10.7495E-03     5.29482E-03     51.4724E-03    -24.0876E-03    -27.3848E-03    -24.2101E-03     48.2977E-03    -24.0876E-03     28.9738E-03     70.8566E-03     125.503E+06     39.0991E+06    -6.68817E+06    -102.606E+06    -18.3415E+06    -90.9530E+06     39.0991E+06    -30.8050E+06
            1114     11.1189E-03     9.77089E-03     5.30649E-03     51.5000E-03    -24.0418E-03    -27.4582E-03    -24.2140E-03     48.2559E-03    -24.0418E-03     30.2896E-03     67.3686E-03     156.937E+06     44.0612E+06    -7.78510E+06    -131.980E+06    -17.7551E+06    -122.010E+06     44.0612E+06    -33.4818E+06
            1115     10.2780E-03     8.79534E-03     5.31791E-03     51.6546E-03    -23.9253E-03    -27.7293E-03    -24.8679E-03     48.7932E-03    -23.9253E-03     29.0811E-03     63.8179E-03     188.075E+06     44.9908E+06    -10.5090E+06    -164.382E+06    -18.6058E+06    -156.285E+06     44.9908E+06    -33.9736E+06
            1116     9.46456E-03     7.82011E-03     5.33140E-03     51.6140E-03    -23.6453E-03    -27.9687E-03    -25.4902E-03     49.1355E-03    -23.6453E-03     27.2581E-03     61.1100E-03     205.848E+06     39.1018E+06    -13.7147E+06    -187.814E+06    -19.4788E+06    -182.050E+06     39.1018E+06    -30.7786E+06
            1117     8.68455E-03     6.84575E-03     5.34389E-03     50.7681E-03    -23.1810E-03    -27.5871E-03    -25.6461E-03     48.8271E-03    -23.1810E-03     24.1191E-03     58.0577E-03     206.641E+06     25.1797E+06    -17.1262E+06    -199.215E+06    -20.6795E+06    -195.662E+06     25.1797E+06    -24.8442E+06
            1118     7.94786E-03     5.87080E-03     5.35743E-03     49.1488E-03    -22.6307E-03    -26.5181E-03    -25.0749E-03     47.7055E-03    -22.6307E-03     20.5186E-03     54.7485E-03     205.852E+06     10.4784E+06    -22.0728E+06    -209.635E+06    -23.9600E+06    -207.748E+06     10.4784E+06    -18.3559E+06
            1119     7.26671E-03     4.89533E-03     5.37036E-03     47.3136E-03    -22.0556E-03    -25.2580E-03    -24.2007E-03     46.2563E-03    -22.0556E-03     17.2339E-03     51.7448E-03     205.127E+06    -3.12444E+06    -27.5750E+06    -219.325E+06    -28.4489E+06    -218.452E+06    -3.12444E+06    -12.6452E+06
            1120     6.65724E-03     3.91851E-03     5.38183E-03     45.3685E-03    -21.4884E-03    -23.8801E-03    -23.1615E-03     44.6499E-03    -21.4884E-03     13.8758E-03     48.8795E-03     204.358E+06    -16.2056E+06    -33.1314E+06    -228.452E+06    -33.5078E+06    -228.076E+06    -16.2056E+06    -8.30941E+06
            1121     6.14106E-03     2.94040E-03     5.39135E-03     43.4766E-03    -20.9704E-03    -22.5062E-03    -22.0849E-03     43.0553E-03    -20.9704E-03     10.3385E-03     46.3498E-03     203.742E+06    -27.7945E+06    -38.1234E+06    -236.480E+06    -38.2513E+06    -236.352E+06    -27.7945E+06    -4.67896E+06
            1122     5.74376E-03     1.96105E-03     5.39862E-03     41.8373E-03    -20.5554E-03    -21.2819E-03    -21.0830E-03     41.6385E-03    -20.5554E-03     6.88577E-03     44.3250E-03     203.118E+06    -37.1023E+06    -42.2580E+06    -242.737E+06    -42.2855E+06    -242.710E+06    -37.1023E+06    -2.15507E+06
            1123     5.49138E-03     980.756E-06     5.40309E-03     40.7639E-03    -20.2637E-03    -20.5001E-03    -20.4163E-03     40.6976E-03    -20.2814E-03     3.73229E-03     43.1381E-03     199.611E+06    -43.6602E+06    -45.5497E+06    -244.207E+06    -45.0727E+06    -244.195E+06    -44.1496E+06    -1.28949E+06
            1124     17.0885E-03     16.5507E-03     4.25347E-03     65.5875E-03    -27.4583E-03    -38.1292E-03    -35.2780E-03     62.7363E-03    -27.4583E-03     27.6454E-03     98.0359E-03     185.792E+06     203.727E+06     121.316E+06    -7.59419E+06    -7.51864E+06     203.652E+06     121.316E+06     3.09805E+06
            1125     16.1490E-03     15.5863E-03     4.22577E-03     63.6293E-03    -26.6947E-03    -36.9346E-03    -32.5717E-03     59.2665E-03    -26.6947E-03     39.9068E-03     102.476E-03     180.129E+06     186.174E+06     57.8015E+06    -16.7805E+06    -16.6520E+06     186.046E+06     57.8015E+06     4.40076E+06
            1126     15.2150E-03     14.6183E-03     4.21926E-03     56.7873E-03    -25.4375E-03    -31.3498E-03    -27.3916E-03     53.5581E-03    -26.1665E-03     32.4185E-03     87.5919E-03     165.721E+06     149.134E+06    -1.40347E+06    -27.6836E+06    -24.3540E+06     149.013E+06    -4.61220E+06     528.483E+03
            1127     14.2741E-03     13.6365E-03     4.21825E-03     50.7979E-03    -23.2094E-03    -27.5885E-03    -21.3812E-03     47.6614E-03    -26.2802E-03     29.9677E-03     78.8953E-03     107.829E+06     77.5595E+06    -19.5993E+06    -34.9601E+06    -27.1402E+06     73.4217E+06    -23.2816E+06    -12.7100E+06
            1128     13.3399E-03     12.6516E-03     4.22957E-03     50.9479E-03    -22.5874E-03    -28.3605E-03    -19.2474E-03     46.1399E-03    -26.8925E-03     36.0825E-03     75.9305E-03     63.0770E+06     19.2237E+06    -13.3171E+06    -49.7715E+06    -27.2502E+06    -6.85916E+06    -9.75544E+06    -26.6377E+06
            1129     12.4155E-03     11.6730E-03     4.22903E-03     53.7984E-03    -24.3143E-03    -29.4841E-03    -20.6937E-03     48.2230E-03    -27.5293E-03     40.4652E-03     74.1055E-03     81.0425E+06     8.96799E+06    -11.3514E+06    -79.9644E+06    -26.2215E+06    -56.3296E+06     203.264E+03    -34.3169E+06
            1130     11.5094E-03     10.6975E-03     4.24632E-03     56.0925E-03    -26.6082E-03    -29.4843E-03    -23.0688E-03     51.1124E-03    -28.0437E-03     39.6657E-03     71.3520E-03     113.727E+06     10.4850E+06    -10.1227E+06    -111.445E+06    -24.1672E+06    -94.5180E+06     7.60274E+06    -37.9515E+06
            1131     10.6136E-03     9.72381E-03     4.25404E-03     58.0227E-03    -28.1414E-03    -29.8813E-03    -24.5945E-03     53.0238E-03    -28.4292E-03     40.5800E-03     70.3361E-03     142.884E+06     13.1278E+06    -9.45458E+06    -138.881E+06    -22.3720E+06    -125.963E+06     13.1278E+06    -38.3868E+06
            1132     9.73453E-03     8.74939E-03     4.26723E-03     59.2445E-03    -28.6028E-03    -30.6417E-03    -26.1810E-03     54.8879E-03    -28.7069E-03     38.5453E-03     68.7158E-03     175.301E+06     13.7591E+06    -13.2170E+06    -172.851E+06    -23.1863E+06    -162.882E+06     13.7591E+06    -38.3672E+06
            1133     8.87504E-03     7.77638E-03     4.27718E-03     60.2677E-03    -28.8283E-03    -31.4394E-03    -27.8795E-03     56.7079E-03    -28.8283E-03     35.3113E-03     67.6465E-03     201.158E+06     12.9741E+06    -17.2068E+06    -201.179E+06    -24.6698E+06    -193.716E+06     12.9741E+06    -35.9964E+06
            1134     8.04511E-03     6.80544E-03     4.29065E-03     60.0533E-03    -28.7577E-03    -31.2956E-03    -28.6347E-03     57.3924E-03    -28.7577E-03     30.6520E-03     65.6828E-03     206.967E+06     6.40092E+06    -21.9470E+06    -213.143E+06    -26.3354E+06    -208.754E+06     6.40092E+06    -28.1308E+06
            1135     7.25060E-03     5.83436E-03     4.30483E-03     59.3778E-03    -28.5818E-03    -30.7959E-03    -28.7606E-03     57.3424E-03    -28.5818E-03     26.7329E-03     63.9438E-03     206.475E+06    -4.76745E+06    -26.6215E+06    -221.206E+06    -28.6657E+06    -219.161E+06    -4.76745E+06    -19.3830E+06
            1136     6.50390E-03     4.86300E-03     4.31880E-03     58.6659E-03    -28.3621E-03    -30.3038E-03    -28.7781E-03     57.1403E-03    -28.3621E-03     23.0290E-03     62.5064E-03     205.649E+06    -15.4971E+06    -31.1522E+06    -228.470E+06    -31.9651E+06    -227.657E+06    -15.4971E+06    -12.1770E+06
            1137     5.82294E-03     3.89153E-03     4.33159E-03     57.8021E-03    -28.1064E-03    -29.6957E-03    -28.6423E-03     56.7487E-03    -28.1064E-03     18.9784E-03     61.0454E-03     204.960E+06    -24.8383E+06    -35.6271E+06    -234.953E+06    -35.8858E+06    -234.694E+06    -24.8383E+06    -6.71375E+06
            1138     5.23271E-03     2.91964E-03     4.34245E-03     56.8085E-03    -27.8203E-03    -28.9883E-03    -28.3595E-03     56.1797E-03    -27.8203E-03     14.4588E-03     59.6013E-03     204.472E+06    -33.4985E+06    -40.0652E+06    -241.163E+06    -40.1295E+06    -241.099E+06    -33.4985E+06    -3.14675E+06
            1139     4.76691E-03     1.94710E-03     4.35112E-03     55.7570E-03    -27.5187E-03    -28.2383E-03    -27.9506E-03     55.4693E-03    -27.5187E-03     9.48391E-03     58.2207E-03     203.461E+06    -40.1351E+06    -43.6177E+06    -245.309E+06    -43.6286E+06    -245.298E+06    -40.1351E+06    -1.34332E+06
            1140     4.46418E-03     973.646E-06     4.35671E-03     54.7485E-03    -27.2332E-03    -27.5153E-03    -27.4289E-03     54.6622E-03    -27.2333E-03     4.97083E-03     57.0956E-03     200.481E+06    -44.5292E+06    -46.2331E+06    -245.855E+06    -45.7887E+06    -245.853E+06    -44.9761E+06    -286.965E+03
            1141     16.8317E-03     16.5268E-03     3.18904E-03     63.7126E-03    -28.4625E-03    -35.2501E-03    -29.8097E-03     58.7720E-03    -28.9623E-03     36.1466E-03     96.5961E-03     186.124E+06     201.796E+06     119.025E+06    -10.2743E+06    -10.1304E+06     201.652E+06     119.025E+06     4.99108E+06
            1142     15.8726E-03     15.5540E-03     3.16432E-03     62.0654E-03    -27.4318E-03    -34.6336E-03    -26.0198E-03     54.7004E-03    -28.6805E-03     50.2883E-03     98.3434E-03     179.638E+06     186.812E+06     61.2425E+06    -16.0126E+06    -15.7842E+06     186.583E+06     61.2425E+06     6.79410E+06
            1143     14.9186E-03     14.5794E-03     3.16323E-03     56.3132E-03    -26.2415E-03    -30.0718E-03    -21.6662E-03     50.2639E-03    -28.5977E-03     42.6150E-03     82.4474E-03     176.784E+06     157.259E+06     3.08470E+06    -34.9624E+06    -19.3592E+06     157.130E+06    -12.3896E+06     1.80504E+06
            1144     13.9685E-03     13.6030E-03     3.17457E-03     54.3695E-03    -25.3603E-03    -29.0092E-03    -19.8466E-03     48.8558E-03    -29.0092E-03     39.4293E-03     75.3429E-03     129.484E+06     87.7314E+06    -24.7526E+06    -51.9208E+06    -22.0789E+06     85.0577E+06    -51.9208E+06    -10.1369E+06
            1145     13.0160E-03     12.6210E-03     3.18232E-03     53.2201E-03    -23.3400E-03    -29.8800E-03    -18.7007E-03     48.5807E-03    -29.8800E-03     36.2255E-03     69.6234E-03     71.8451E+06     20.5220E+06    -34.3530E+06    -57.8486E+06    -25.4397E+06     1.36493E+06    -47.6048E+06    -24.7915E+06
            1146     12.0598E-03     11.6320E-03     3.18361E-03     53.4415E-03    -22.5112E-03    -30.9303E-03    -18.0937E-03     49.0240E-03    -30.9303E-03     35.4391E-03     66.3778E-03     74.9346E+06    -155.802E+03    -39.9257E+06    -82.0651E+06    -25.9202E+06    -54.7427E+06    -41.4837E+06    -35.7376E+06
            1147     11.1167E-03     10.6498E-03     3.18789E-03     56.9005E-03    -24.8828E-03    -32.0177E-03    -20.8882E-03     52.9059E-03    -32.0177E-03     35.1455E-03     66.5699E-03     101.118E+06    -6.53453E+06    -38.1677E+06    -116.004E+06    -24.8230E+06    -97.8764E+06    -38.0072E+06    -40.1884E+06
            1148     10.1889E-03     9.67371E-03     3.19899E-03     61.9310E-03    -28.9702E-03    -32.9608E-03    -24.7473E-03     57.7081E-03    -32.9608E-03     38.0527E-03     69.8051E-03     128.094E+06    -10.0397E+06    -36.0404E+06    -147.152E+06    -25.7241E+06    -133.471E+06    -34.0367E+06    -40.3246E+06
            1149     9.27205E-03     8.70015E-03     3.20598E-03     65.7343E-03    -31.6310E-03    -34.1034E-03    -28.1596E-03     61.8529E-03    -33.6934E-03     37.7808E-03     72.0235E-03     159.067E+06    -11.7279E+06    -34.5089E+06    -180.327E+06    -26.0802E+06    -170.450E+06    -30.0335E+06    -38.5756E+06
            1150     8.37297E-03     7.73108E-03     3.21513E-03     67.4919E-03    -32.5276E-03    -34.9643E-03    -30.2229E-03     64.4826E-03    -34.2597E-03     33.8715E-03     72.1649E-03     189.645E+06    -13.4177E+06    -32.8159E+06    -211.837E+06    -28.5263E+06    -204.791E+06    -24.7536E+06    -35.6183E+06
            1151     7.49253E-03     6.76183E-03     3.22733E-03     68.2043E-03    -32.9121E-03    -35.2922E-03    -31.1469E-03     65.8731E-03    -34.7261E-03     30.1910E-03     71.8698E-03     204.822E+06    -17.1057E+06    -31.6708E+06    -228.733E+06    -31.6704E+06    -224.381E+06    -21.4579E+06    -28.7323E+06
            1152     6.63898E-03     5.79387E-03     3.24146E-03     69.2747E-03    -33.6555E-03    -35.6193E-03    -32.2713E-03     67.3827E-03    -35.1114E-03     27.5205E-03     72.4771E-03     206.197E+06    -23.9746E+06    -32.8331E+06    -234.361E+06    -33.9195E+06    -232.443E+06    -24.8061E+06    -18.9808E+06
            1153     5.82153E-03     4.82671E-03     3.25472E-03     70.3208E-03    -34.4075E-03    -35.9133E-03    -33.4370E-03     68.8612E-03    -35.4242E-03     24.3990E-03     73.1965E-03     205.600E+06    -29.9090E+06    -35.9706E+06    -238.429E+06    -36.6228E+06    -237.776E+06    -29.9090E+06    -10.8675E+06
            1154     5.05745E-03     3.86052E-03     3.26714E-03     71.0980E-03    -34.9709E-03    -36.1270E-03    -34.4145E-03     70.0760E-03    -35.6615E-03     20.5294E-03     73.7164E-03     205.132E+06    -34.0918E+06    -39.1095E+06    -241.668E+06    -39.2655E+06    -241.512E+06    -34.0918E+06    -5.03415E+06
            1155     4.37341E-03     2.89494E-03     3.27812E-03     71.6366E-03    -35.4040E-03    -36.2326E-03    -35.1943E-03     71.0045E-03    -35.8102E-03     16.1806E-03     74.0545E-03     204.798E+06    -38.2167E+06    -41.5036E+06    -244.630E+06    -41.5234E+06    -244.610E+06    -38.2167E+06    -1.52860E+06
            1156     3.81149E-03     1.93019E-03     3.28661E-03     71.8933E-03    -35.6740E-03    -36.2192E-03    -35.7413E-03     71.5863E-03    -35.8450E-03     11.0964E-03     74.1173E-03     204.161E+06    -41.6643E+06    -43.6056E+06    -246.788E+06    -43.6090E+06    -246.785E+06    -41.6643E+06    -195.823E+03
            1157     3.43221E-03     965.877E-06     3.29350E-03     71.6781E-03    -35.7091E-03    -35.9691E-03    -35.8492E-03     71.5848E-03    -35.7356E-03     5.87960E-03     73.8074E-03     202.031E+06    -43.9787E+06    -45.4349E+06    -246.733E+06    -44.9574E+06    -246.729E+06    -44.4603E+06    -149.130E+03
            1158     16.6265E-03     16.4893E-03     2.13123E-03     60.5084E-03    -27.8244E-03    -32.6840E-03    -23.1700E-03     54.2103E-03    -31.0402E-03     42.0678E-03     93.2391E-03     184.533E+06     201.658E+06     117.504E+06    -9.03840E+06    -8.86432E+06     201.484E+06     117.504E+06     4.79571E+06
            1159     15.6542E-03     15.5119E-03     2.10547E-03     59.2840E-03    -26.3583E-03    -32.9257E-03    -19.8561E-03     51.1381E-03    -31.2820E-03     50.4324E-03     88.1780E-03     177.180E+06     187.668E+06     61.0008E+06    -11.0269E+06    -10.9037E+06     187.545E+06     61.0008E+06     3.52488E+06
            1160     14.6796E-03     14.5259E-03     2.11902E-03     56.2418E-03    -24.5634E-03    -31.6784E-03    -18.2066E-03     49.8851E-03    -31.6784E-03     43.0276E-03     75.3011E-03     175.690E+06     160.126E+06     8.20351E+06    -31.9787E+06    -10.2848E+06     160.016E+06    -13.3799E+06     2.79987E+06
            1161     13.7057E-03     13.5417E-03     2.11440E-03     59.6752E-03    -27.3711E-03    -32.3040E-03    -21.1880E-03     53.4920E-03    -32.3040E-03     43.9611E-03     74.9999E-03     145.697E+06     97.1643E+06    -11.9908E+06    -65.9317E+06    -10.8739E+06     96.0474E+06    -65.9317E+06    -4.65045E+06
            1162     12.7516E-03     12.5728E-03     2.12794E-03     62.0179E-03    -28.9471E-03    -33.0708E-03    -24.1090E-03     57.1798E-03    -33.0708E-03     40.4867E-03     74.0215E-03     98.3369E+06     29.7440E+06    -32.7413E+06    -81.6670E+06    -14.3371E+06     11.3397E+06    -81.6670E+06    -19.2542E+06
            1163     11.7942E-03     11.5996E-03     2.13354E-03     59.9059E-03    -25.9286E-03    -33.9773E-03    -22.2790E-03     56.2563E-03    -33.9773E-03     34.1777E-03     68.8856E-03     85.2971E+06     890.491E+03    -63.3552E+06    -93.9876E+06    -18.5391E+06    -52.6803E+06    -85.2329E+06    -30.6560E+06
            1164     10.8283E-03     10.6157E-03     2.13524E-03     58.8483E-03    -23.6475E-03    -35.2008E-03    -20.7201E-03     55.9209E-03    -35.2008E-03     30.3288E-03     65.2721E-03     98.5929E+06    -8.02391E+06    -81.2432E+06    -118.367E+06    -21.7153E+06    -99.3656E+06    -86.5528E+06    -34.4555E+06
            1165     9.86853E-03     9.63430E-03     2.13732E-03     64.1256E-03    -27.5863E-03    -36.5393E-03    -24.8804E-03     61.4197E-03    -36.5393E-03     30.4069E-03     69.1018E-03     122.212E+06    -13.8479E+06    -84.5630E+06    -151.627E+06    -23.6795E+06    -141.795E+06    -84.5630E+06    -34.5265E+06
            1166     8.92226E-03     8.66232E-03     2.13800E-03     68.8298E-03    -31.1146E-03    -37.7153E-03    -29.0600E-03     66.7752E-03    -37.7153E-03     27.2207E-03     72.4611E-03     148.235E+06    -19.9669E+06    -77.6168E+06    -186.122E+06    -26.7904E+06    -179.299E+06    -77.6168E+06    -32.0149E+06
            1167     7.98594E-03     7.69241E-03     2.14524E-03     71.0430E-03    -32.2271E-03    -38.8159E-03    -30.6823E-03     69.4982E-03    -38.8159E-03     24.2091E-03     73.5934E-03     176.332E+06    -26.4598E+06    -67.1739E+06    -218.391E+06    -31.0422E+06    -213.808E+06    -67.1739E+06    -28.6539E+06
            1168     7.06156E-03     6.72413E-03     2.15676E-03     73.7851E-03    -33.8513E-03    -39.9338E-03    -32.5107E-03     72.4445E-03    -39.9338E-03     23.2495E-03     75.8451E-03     199.164E+06    -32.1295E+06    -56.1144E+06    -241.530E+06    -35.1135E+06    -238.546E+06    -56.1144E+06    -24.0808E+06
            1169     6.15150E-03     5.75710E-03     2.16719E-03     77.0157E-03    -36.0230E-03    -40.9928E-03    -34.8640E-03     75.8568E-03    -40.9928E-03     22.1871E-03     78.9108E-03     205.754E+06    -36.6676E+06    -48.1698E+06    -247.716E+06    -38.1946E+06    -246.343E+06    -48.0163E+06    -16.1062E+06
            1170     5.26502E-03     4.79329E-03     2.17825E-03     80.1474E-03    -38.2083E-03    -41.9391E-03    -37.2847E-03     79.2238E-03    -41.9391E-03     20.2898E-03     82.0107E-03     205.591E+06    -39.0852E+06    -44.8222E+06    -247.436E+06    -40.1255E+06    -247.043E+06    -44.1751E+06    -8.29523E+06
            1171     4.41226E-03     3.83136E-03     2.18831E-03     82.9563E-03    -40.2000E-03    -42.7563E-03    -39.5379E-03     82.2942E-03    -42.7563E-03     17.4939E-03     84.7988E-03     205.282E+06    -40.7426E+06    -43.9234E+06    -247.590E+06    -41.8249E+06    -247.513E+06    -42.9179E+06    -3.38489E+06
            1172     3.61586E-03     2.87153E-03     2.19743E-03     85.2129E-03    -41.7593E-03    -43.4535E-03    -41.3492E-03     84.8027E-03    -43.4535E-03     13.8722E-03     87.0393E-03     205.081E+06    -41.7759E+06    -43.3457E+06    -247.637E+06    -42.8332E+06    -247.628E+06    -42.2966E+06    -911.227E+03
            1173     2.91873E-03     1.91282E-03     2.20456E-03     87.0251E-03    -42.9334E-03    -44.0917E-03    -42.7227E-03     86.8144E-03    -44.0917E-03     9.90188E-03     88.8533E-03     205.029E+06    -41.7556E+06    -42.9933E+06    -247.400E+06    -42.7425E+06    -247.398E+06    -42.0088E+06     327.038E+03
            1174     2.40784E-03     955.381E-06     2.21019E-03     88.8334E-03    -44.1429E-03    -44.6905E-03    -44.1498E-03     88.7581E-03    -44.6083E-03     5.79487E-03     90.6951E-03     202.910E+06    -42.7573E+06    -44.1403E+06    -246.355E+06    -43.4141E+06    -246.347E+06    -43.4921E+06     575.266E+03
            1175     16.4846E-03     16.4502E-03     1.06522E-03     62.2053E-03    -28.8267E-03    -33.3786E-03    -23.3549E-03     56.7335E-03    -33.3786E-03     41.8723E-03     86.4695E-03     181.832E+06     204.993E+06     116.614E+06    -2.58958E+06    -2.48627E+06     204.890E+06     116.614E+06     2.97737E+06
            1176     15.5032E-03     15.4669E-03     1.06162E-03     59.4620E-03    -25.7605E-03    -33.7016E-03    -20.9448E-03     54.6464E-03    -33.7016E-03     36.8398E-03     78.3663E-03     174.833E+06     186.363E+06     52.6119E+06    -7.67688E+06    -7.67272E+06     186.359E+06     52.6119E+06     458.225E+03
            1177     14.5254E-03     14.4867E-03     1.05917E-03     57.2399E-03    -23.0375E-03    -34.2024E-03    -20.2450E-03     54.4474E-03    -34.2024E-03     26.8270E-03     69.6550E-03     174.614E+06     158.846E+06     4.11054E+06    -30.1926E+06    -8.83128E+06     158.796E+06    -17.2016E+06     1.73866E+06
            1178     13.5510E-03     13.5092E-03     1.06378E-03     59.1627E-03    -24.2600E-03    -34.9027E-03    -21.8941E-03     56.7968E-03    -34.9027E-03     24.5636E-03     69.0987E-03     159.315E+06     103.886E+06    -6.16567E+06    -74.8169E+06    -5.88099E+06     103.601E+06    -74.8169E+06    -747.661E+03
            1179     12.5691E-03     12.5245E-03     1.05797E-03     62.6656E-03    -26.8938E-03    -35.7717E-03    -24.7076E-03     60.4794E-03    -35.7717E-03     24.5162E-03     70.7674E-03     124.673E+06     35.9447E+06    -16.8603E+06    -105.363E+06    -3.38645E+06     22.4708E+06    -105.363E+06    -10.0932E+06
            1180     11.6081E-03     11.5590E-03     1.06642E-03     65.7678E-03    -29.0980E-03    -36.6699E-03    -27.3320E-03     64.0019E-03    -36.6699E-03     23.3053E-03     72.0029E-03     105.838E+06     581.722E+03    -58.0433E+06    -117.618E+06    -7.54542E+06    -49.9162E+06    -117.618E+06    -17.6550E+06
            1181     10.6434E-03     10.5882E-03     1.08179E-03     67.1864E-03    -29.5873E-03    -37.5991E-03    -27.9873E-03     65.5864E-03    -37.5991E-03     23.0300E-03     71.9310E-03     111.107E+06    -9.09406E+06    -103.219E+06    -130.459E+06    -14.9454E+06    -103.585E+06    -124.242E+06    -20.5134E+06
            1182     9.67194E-03     9.61272E-03     1.06866E-03     67.8265E-03    -29.1026E-03    -38.7239E-03    -27.8776E-03     66.6015E-03    -38.7239E-03     19.0880E-03     71.2394E-03     124.657E+06    -16.9244E+06    -120.444E+06    -153.877E+06    -20.7864E+06    -147.404E+06    -123.055E+06    -20.2654E+06
            1183     8.70689E-03     8.64116E-03     1.06786E-03     68.6646E-03    -28.5449E-03    -40.1197E-03    -27.9869E-03     68.1066E-03    -40.1197E-03     12.8194E-03     70.8149E-03     144.069E+06    -24.5517E+06    -115.169E+06    -188.665E+06    -27.0680E+06    -186.149E+06    -115.169E+06    -18.1662E+06
            1184     7.74305E-03     7.66825E-03     1.07362E-03     71.8376E-03    -30.0947E-03    -41.7429E-03    -29.6576E-03     71.4005E-03    -41.7429E-03     11.9346E-03     73.3378E-03     169.064E+06    -30.4414E+06    -101.234E+06    -222.201E+06    -32.1675E+06    -220.475E+06    -101.234E+06    -16.1637E+06
            1185     6.78433E-03     6.69794E-03     1.07925E-03     76.7108E-03    -33.2742E-03    -43.4366E-03    -32.8399E-03     76.2765E-03    -43.4366E-03     12.3104E-03     77.8184E-03     193.936E+06    -35.7557E+06    -84.5574E+06    -248.752E+06    -36.8593E+06    -247.649E+06    -84.5574E+06    -13.6989E+06
            1186     5.83447E-03     5.73253E-03     1.08591E-03     81.7554E-03    -36.6985E-03    -45.0570E-03    -36.3025E-03     81.3594E-03    -45.0570E-03     12.2510E-03     82.7320E-03     205.417E+06    -39.8839E+06    -67.8323E+06    -257.591E+06    -40.4283E+06    -257.047E+06    -67.8323E+06    -9.48926E+06
            1187     4.89270E-03     4.76935E-03     1.09171E-03     86.5799E-03    -40.0409E-03    -46.5390E-03    -39.7144E-03     86.2534E-03    -46.5390E-03     11.4834E-03     87.6468E-03     205.905E+06    -42.2369E+06    -55.8219E+06    -254.519E+06    -42.3867E+06    -254.369E+06    -55.8219E+06    -4.61895E+06
            1188     3.96530E-03     3.81038E-03     1.09754E-03     91.0949E-03    -43.2380E-03    -47.8569E-03    -42.9976E-03     90.8545E-03    -47.8569E-03     10.1090E-03     92.3081E-03     205.489E+06    -42.9718E+06    -48.7117E+06    -251.256E+06    -42.9914E+06    -251.236E+06    -48.7117E+06    -1.62409E+06
            1189     3.06004E-03     2.85448E-03     1.10264E-03     95.0263E-03    -46.0445E-03    -48.9819E-03    -45.9005E-03     94.8824E-03    -48.9819E-03     7.90278E-03     96.3777E-03     205.242E+06    -42.8090E+06    -44.9918E+06    -249.130E+06    -43.0231E+06    -249.128E+06    -44.7800E+06    -477.402E+03
            1190     2.20017E-03     1.90092E-03     1.10783E-03     98.2240E-03    -48.3269E-03    -49.8971E-03    -48.2600E-03     98.1571E-03    -49.8971E-03     5.14258E-03     99.7210E-03     205.399E+06    -42.1455E+06    -43.4008E+06    -248.169E+06    -42.7810E+06    -248.167E+06    -42.7674E+06    -101.895E+03
            1191     1.45989E-03     948.911E-06     1.10944E-03     100.605E-03    -49.9933E-03    -50.6121E-03    -50.0984E-03     100.580E-03    -50.4813E-03     2.68876E-03     102.232E-03     203.302E+06    -41.9636E+06    -43.2676E+06    -245.914E+06    -43.0209E+06    -245.907E+06    -42.2167E+06     593.357E+03
            1192     58.9553E-03     973.546E-06     58.9473E-03     53.8371E-03    -26.8437E-03    -26.9933E-03    -26.9639E-03     53.8182E-03    -26.8542E-03     2.36264E-03     54.3898E-03     199.920E+06    -63.2527E+06    -65.7679E+06    -264.408E+06    -65.7730E+06    -264.403E+06    -63.2527E+06    -497.946E+03
            1193     58.9828E-03     1.94733E-03     58.9507E-03     53.8491E-03    -26.9049E-03    -26.9442E-03    -26.8540E-03     53.7982E-03    -26.9442E-03     3.95770E-03     54.7511E-03     202.554E+06    -54.5278E+06    -62.5019E+06    -260.915E+06    -62.5030E+06    -260.914E+06    -54.5278E+06     85.6270E+03
            1194     59.0281E-03     2.92111E-03     58.9558E-03     53.9129E-03    -26.9336E-03    -26.9793E-03    -26.8342E-03     53.8135E-03    -26.9793E-03     5.61116E-03     55.4619E-03     204.036E+06    -41.2801E+06    -57.8539E+06    -253.048E+06    -57.8564E+06    -253.045E+06    -41.2801E+06     275.674E+03
            1195     59.0909E-03     3.89469E-03     58.9624E-03     53.9477E-03    -26.9352E-03    -27.0124E-03    -26.7793E-03     53.7917E-03    -27.0124E-03     7.06312E-03     56.5015E-03     202.909E+06    -27.1525E+06    -52.1241E+06    -241.360E+06    -52.1260E+06    -241.358E+06    -27.1525E+06     165.083E+03
            1196     59.1713E-03     4.86863E-03     58.9707E-03     53.9110E-03    -26.8920E-03    -27.0190E-03    -26.6784E-03     53.6974E-03    -27.0190E-03     8.27953E-03     57.9159E-03     195.400E+06    -14.7154E+06    -45.6661E+06    -223.722E+06    -45.6679E+06    -223.721E+06    -14.7154E+06     341.014E+03
            1197     59.2686E-03     5.84247E-03     58.9799E-03     53.9183E-03    -26.9156E-03    -27.0027E-03    -26.6484E-03     53.6511E-03    -27.0027E-03     9.26962E-03     59.8583E-03     182.226E+06    -5.30191E+06    -39.6588E+06    -202.246E+06    -39.6626E+06    -202.242E+06    -5.30191E+06     565.293E+03
            1198     59.3826E-03     6.81631E-03     58.9901E-03     53.8666E-03    -26.8895E-03    -26.9771E-03    -26.5714E-03     53.5485E-03    -26.9771E-03     10.1083E-03     62.2181E-03     167.544E+06     1.55378E+06    -34.5934E+06    -181.101E+06    -34.5971E+06    -181.097E+06     1.55378E+06     566.786E+03
            1199     59.5132E-03     7.79031E-03     59.0011E-03     53.7608E-03    -26.8292E-03    -26.9317E-03    -26.4581E-03     53.3897E-03    -26.9317E-03     10.9044E-03     65.0479E-03     150.836E+06     5.30360E+06    -29.7652E+06    -159.977E+06    -29.7675E+06    -159.974E+06     5.30360E+06     529.848E+03
            1200     59.6602E-03     8.76446E-03     59.0129E-03     53.7149E-03    -26.8341E-03    -26.8809E-03    -26.4151E-03     53.2843E-03    -26.8693E-03     11.7396E-03     68.6281E-03     129.933E+06     6.49264E+06    -25.5954E+06    -136.469E+06    -25.5971E+06    -136.468E+06     6.49264E+06     356.134E+03
            1201     59.8237E-03     9.73846E-03     59.0257E-03     53.6431E-03    -26.8064E-03    -26.8367E-03    -26.3519E-03     53.1583E-03    -26.8064E-03     12.4506E-03     72.7326E-03     107.411E+06     7.02528E+06    -22.3759E+06    -112.014E+06    -22.3767E+06    -112.014E+06     7.02528E+06     181.011E+03
            1202     60.0031E-03     10.7128E-03     59.0391E-03     53.6464E-03    -26.7301E-03    -26.9163E-03    -26.3522E-03     53.0823E-03    -26.7301E-03     13.4183E-03     78.0668E-03     81.7565E+06     4.09946E+06    -19.9144E+06    -86.9738E+06    -19.9156E+06    -86.9726E+06     4.09946E+06     162.122E+03
            1203     60.1992E-03     11.6866E-03     59.0539E-03     53.5790E-03    -26.6427E-03    -26.9363E-03    -26.2285E-03     52.8712E-03    -26.6427E-03     15.0013E-03     84.7356E-03     49.9730E+06     257.968E+03    -18.0162E+06     -56.068E+06    -18.0193E+06    -56.0649E+06     257.968E+03     75.0825E+03
            1204     60.4126E-03     12.6611E-03     59.0709E-03     53.4806E-03    -26.5322E-03    -26.9484E-03    -26.0360E-03     52.5683E-03    -26.5322E-03     16.9972E-03     92.4172E-03     27.2216E+06     3.67991E+06    -12.6321E+06    -27.5253E+06    -17.0462E+06    -14.9887E+06    -4.44257E+06    -86.6333E+03
            1205     60.6423E-03     13.6355E-03     59.0895E-03     53.6256E-03    -26.3952E-03    -27.2304E-03    -25.9399E-03     52.3351E-03    -26.3952E-03     20.1599E-03     100.428E-03     61.0385E+06     47.9470E+06    -8.03717E+06    -16.5139E+06    -16.5030E+06     47.9361E+06    -8.03717E+06    -22.9895E+03
            1206     60.8913E-03     14.6096E-03     59.1127E-03     53.0379E-03    -26.1747E-03    -26.8632E-03    -25.5339E-03     51.8521E-03    -26.3182E-03     19.0877E-03     99.1975E-03     142.142E+06     136.582E+06     7.46864E+06    -15.4199E+06    -15.4198E+06     136.582E+06     7.46864E+06     55.3340E+03
            1207     61.1490E-03     15.5849E-03     59.1296E-03     53.1005E-03    -26.2675E-03    -26.8331E-03    -25.1605E-03     51.5714E-03    -26.4109E-03     21.2702E-03     109.544E-03     185.743E+06     194.543E+06     47.9627E+06    -12.7963E+06    -12.7960E+06     194.543E+06     47.9627E+06    -32.6477E+03
            1208     61.4312E-03     16.5596E-03     59.1571E-03     52.7005E-03    -25.6328E-03    -27.0678E-03    -24.9259E-03     51.5715E-03    -26.6456E-03     12.0354E-03     97.9683E-03     187.342E+06     206.509E+06     103.794E+06    -7.39129E+06    -7.39086E+06     206.509E+06     103.794E+06     69.2184E+03
            1209     60.0095E-03     973.740E-06     60.0016E-03     53.8442E-03    -26.8590E-03    -26.9851E-03    -26.9584E-03     53.8248E-03    -26.8663E-03     2.37872E-03     54.4035E-03     199.290E+06    -63.2453E+06    -67.0101E+06    -264.382E+06    -66.6432E+06    -264.381E+06    -63.6129E+06     125.380E+03
            1210     60.0363E-03     1.94723E-03     60.0047E-03     53.8744E-03    -26.9189E-03    -26.9555E-03    -26.8697E-03     53.8234E-03    -26.9537E-03     3.97454E-03     54.7817E-03     202.440E+06    -54.5715E+06    -63.2076E+06    -261.176E+06    -63.2083E+06    -261.175E+06    -54.5715E+06         156.855
            1211     60.0808E-03     2.92102E-03     60.0098E-03     53.8955E-03    -26.9102E-03    -26.9853E-03    -26.8119E-03     53.7954E-03    -26.9835E-03     5.62537E-03     55.4475E-03     204.015E+06    -41.7793E+06    -57.9788E+06    -253.360E+06    -57.9802E+06    -253.358E+06    -41.7793E+06     34.9803E+03
            1212     60.1430E-03     3.89482E-03     60.0167E-03     53.9342E-03    -26.9219E-03    -27.0123E-03    -26.7662E-03     53.7786E-03    -27.0123E-03     7.06275E-03     56.4789E-03     202.916E+06    -26.9670E+06    -51.8855E+06    -241.157E+06    -51.8872E+06    -241.155E+06    -26.9670E+06     228.957E+03
            1213     60.2216E-03     4.86851E-03     60.0245E-03     53.9307E-03    -26.9120E-03    -27.0187E-03    -26.6989E-03     53.7176E-03    -27.0187E-03     8.26726E-03     57.9385E-03     195.415E+06    -14.8503E+06    -45.8050E+06    -223.875E+06    -45.8058E+06    -223.874E+06    -14.8503E+06     209.129E+03
            1214     60.3177E-03     5.84250E-03     60.0341E-03     53.8847E-03    -26.8822E-03    -27.0025E-03    -26.6125E-03     53.6150E-03    -27.0025E-03     9.30811E-03     59.8232E-03     182.605E+06    -5.41991E+06    -39.9044E+06    -202.793E+06    -39.9092E+06    -202.788E+06    -5.41991E+06     737.794E+03
            1215     60.4299E-03     6.81637E-03     60.0442E-03     53.8402E-03    -26.8661E-03    -26.9740E-03    -26.5492E-03     53.5232E-03    -26.9740E-03     10.0892E-03     62.1927E-03     167.888E+06     1.98881E+06    -34.3655E+06    -181.086E+06    -34.3710E+06    -181.080E+06     1.98881E+06     858.511E+03
            1216     60.5582E-03     7.79043E-03     60.0550E-03     53.7860E-03    -26.8584E-03    -26.9277E-03    -26.4874E-03     53.4151E-03    -26.9277E-03     10.9025E-03     65.0718E-03     150.902E+06     5.42438E+06    -29.5671E+06    -159.899E+06    -29.5688E+06    -159.897E+06     5.42438E+06     456.156E+03
            1217     60.7031E-03     8.76441E-03     60.0671E-03     53.7321E-03    -26.8486E-03    -26.8835E-03    -26.4325E-03     53.3008E-03    -26.8682E-03     11.7543E-03     68.6437E-03     129.922E+06     6.49223E+06    -25.6399E+06    -136.469E+06    -25.6414E+06    -136.468E+06     6.49223E+06     393.108E+03
            1218     60.8639E-03     9.73852E-03     60.0797E-03     53.6796E-03    -26.8092E-03    -26.8703E-03    -26.3881E-03     53.1973E-03    -26.8092E-03     12.4244E-03     72.7794E-03     107.467E+06     7.23225E+06    -22.4612E+06    -111.950E+06    -22.4629E+06    -111.948E+06     7.23225E+06     336.491E+03
            1219     61.0405E-03     10.7125E-03     60.0931E-03     53.6631E-03    -26.7338E-03    -26.9293E-03    -26.3502E-03     53.0839E-03    -26.7338E-03     13.5859E-03     78.0599E-03     81.9554E+06     4.14777E+06    -19.8865E+06    -87.1374E+06    -19.8883E+06    -87.1357E+06     4.14777E+06     260.279E+03
            1220     61.2340E-03     11.6866E-03     60.1084E-03     53.5516E-03    -26.6442E-03    -26.9074E-03    -26.2020E-03     52.8462E-03    -26.6442E-03     14.9883E-03     84.7483E-03     50.1319E+06     128.147E+03    -18.0838E+06    -56.3433E+06    -18.0887E+06    -56.3384E+06     128.147E+03     167.200E+03
            1221     61.4427E-03     12.6611E-03     60.1241E-03     53.4483E-03    -26.5310E-03    -26.9173E-03    -25.9975E-03     52.5285E-03    -26.5310E-03     17.0287E-03     92.3584E-03     27.4226E+06     3.84142E+06    -12.7015E+06    -27.5707E+06    -17.0362E+06    -14.9327E+06    -4.46185E+06     315.816E+03
            1222     61.6705E-03     13.6355E-03     60.1442E-03     53.5824E-03    -26.3898E-03    -27.1925E-03    -25.8943E-03     52.2842E-03    -26.3898E-03     20.2447E-03     100.354E-03     60.9780E+06     47.8280E+06    -8.30454E+06    -16.4523E+06    -16.4458E+06     47.8216E+06    -8.30454E+06     320.191E+03
            1223     61.9151E-03     14.6100E-03     60.1666E-03     53.0574E-03    -26.2126E-03    -26.8448E-03    -25.5721E-03     51.8871E-03    -26.3150E-03     18.9885E-03     99.2460E-03     142.122E+06     136.528E+06     7.59998E+06    -15.5005E+06    -15.5004E+06     136.528E+06     7.59998E+06     65.6235E+03
            1224     62.1686E-03     15.5845E-03     60.1835E-03     53.1014E-03    -26.3077E-03    -26.7937E-03    -25.1641E-03     51.5741E-03    -26.4101E-03     21.2646E-03     109.579E-03     185.748E+06     194.579E+06     48.2121E+06    -12.8983E+06    -12.8981E+06     194.579E+06     48.2121E+06    -118.358E+03
            1225     62.4470E-03     16.5596E-03     60.2114E-03     52.6713E-03    -25.6451E-03    -27.0262E-03    -24.9028E-03     51.5454E-03    -26.6426E-03     11.9241E-03     98.0030E-03     187.059E+06     206.172E+06     103.587E+06    -7.39743E+06    -7.39682E+06     206.171E+06     103.587E+06    -223.784E+03
            1226     61.0632E-03     973.562E-06     61.0554E-03     53.8244E-03    -26.8521E-03    -26.9723E-03    -26.9409E-03     53.8054E-03    -26.8645E-03     2.34727E-03     54.3827E-03     199.358E+06    -63.8257E+06    -67.2051E+06    -264.847E+06    -66.8382E+06    -264.846E+06    -64.1933E+06     24.8321E+03
            1227     61.0900E-03     1.94742E-03     61.0589E-03     53.8758E-03    -26.9261E-03    -26.9497E-03    -26.8760E-03     53.8238E-03    -26.9478E-03     4.00586E-03     54.7765E-03     202.321E+06    -54.6193E+06    -63.3641E+06    -261.142E+06    -63.3655E+06    -261.140E+06    -54.6193E+06     202.404E+03
            1228     61.1337E-03     2.92091E-03     61.0639E-03     53.9041E-03    -26.9204E-03    -26.9837E-03    -26.8220E-03     53.8038E-03    -26.9819E-03     5.63799E-03     55.4621E-03     203.535E+06    -42.2053E+06    -58.6190E+06    -253.423E+06    -58.6204E+06    -253.422E+06    -42.2053E+06    -127.292E+03
            1229     61.1947E-03     3.89480E-03     61.0706E-03     53.9076E-03    -26.8999E-03    -27.0076E-03    -26.7428E-03     53.7504E-03    -27.0076E-03     7.08740E-03     56.4588E-03     202.368E+06    -28.0107E+06    -52.6211E+06    -241.516E+06    -52.6221E+06    -241.515E+06    -28.0107E+06    -53.6500E+03
            1230     61.2726E-03     4.86864E-03     61.0789E-03     53.9363E-03    -26.9179E-03    -27.0184E-03    -26.7041E-03     53.7225E-03    -27.0184E-03     8.28845E-03     57.9440E-03     195.371E+06    -14.6153E+06    -46.3538E+06    -223.888E+06    -46.3568E+06    -223.885E+06    -14.6153E+06     584.603E+03
            1231     61.3667E-03     5.84236E-03     61.0879E-03     53.8733E-03    -26.8718E-03    -27.0016E-03    -26.6041E-03     53.6057E-03    -27.0016E-03     9.26962E-03     59.8169E-03     182.728E+06    -5.48807E+06    -40.3522E+06    -203.129E+06    -40.3567E+06    -203.124E+06    -5.48807E+06     678.206E+03
            1232     61.4774E-03     6.81654E-03     61.0983E-03     53.8150E-03    -26.8454E-03    -26.9695E-03    -26.5288E-03     53.4983E-03    -26.9695E-03     10.0818E-03     62.1620E-03     167.837E+06     1.71248E+06    -34.4265E+06    -181.237E+06    -34.4293E+06    -181.234E+06     1.71248E+06     512.798E+03
            1233     61.6038E-03     7.79036E-03     61.1092E-03     53.8091E-03    -26.8819E-03    -26.9272E-03    -26.5156E-03     53.4417E-03    -26.9261E-03     10.8569E-03     65.1029E-03     151.076E+06     5.75223E+06    -29.3164E+06    -159.774E+06    -29.3187E+06    -159.771E+06     5.75223E+06     534.053E+03
            1234     61.7462E-03     8.76443E-03     61.1211E-03     53.7430E-03    -26.8637E-03    -26.8794E-03    -26.4430E-03     53.3117E-03    -26.8686E-03     11.7522E-03     68.6476E-03     130.304E+06     6.61120E+06    -25.4382E+06    -136.718E+06    -25.4423E+06    -136.714E+06     6.61120E+06     622.365E+03
            1235     61.9047E-03     9.73847E-03     61.1339E-03     53.6709E-03    -26.8085E-03    -26.8624E-03    -26.3730E-03     53.1815E-03    -26.8085E-03     12.5139E-03     72.7652E-03     107.524E+06     7.15351E+06    -22.4922E+06    -112.069E+06    -22.4966E+06    -112.065E+06     7.15351E+06     594.757E+03
            1236     62.0786E-03     10.7126E-03     61.1473E-03     53.5696E-03    -26.7282E-03    -26.8414E-03    -26.2569E-03     52.9850E-03    -26.7282E-03     13.6350E-03     77.9724E-03     82.2832E+06     3.90327E+06    -20.0183E+06    -87.6878E+06    -20.0213E+06    -87.6848E+06     3.90327E+06     413.362E+03
            1237     62.2688E-03     11.6870E-03     61.1622E-03     53.5568E-03    -26.6354E-03    -26.9214E-03    -26.2067E-03     52.8421E-03    -26.6354E-03     15.0863E-03     84.6983E-03     50.2516E+06     68.0810E+03    -18.1599E+06    -56.4515E+06    -18.1650E+06    -56.4463E+06     68.0810E+03     348.348E+03
            1238     62.4749E-03     12.6610E-03     61.1785E-03     53.5849E-03    -26.5294E-03    -27.0556E-03    -26.1445E-03     52.6739E-03    -26.5294E-03     16.9914E-03     92.5214E-03     26.9614E+06     4.22375E+06    -12.4844E+06    -26.6710E+06    -16.6866E+06    -14.2516E+06    -3.99335E+06     317.712E+03
            1239     62.6983E-03     13.6354E-03     61.1977E-03     53.5583E-03    -26.3920E-03    -27.1663E-03    -25.8688E-03     52.2608E-03    -26.3920E-03     20.2049E-03     100.388E-03     60.2353E+06     47.6841E+06    -8.08079E+06    -15.6020E+06    -15.5982E+06     47.6804E+06    -8.08079E+06     308.746E+03
            1240     62.9403E-03     14.6099E-03     61.2212E-03     52.9849E-03    -26.2061E-03    -26.7789E-03    -25.5007E-03     51.8145E-03    -26.3138E-03     18.9284E-03     99.2181E-03     141.404E+06     136.324E+06     7.81625E+06    -14.7578E+06    -14.7570E+06     136.323E+06     7.81625E+06     164.012E+03
            1241     63.1895E-03     15.5847E-03     61.2375E-03     53.1157E-03    -26.2998E-03    -26.8158E-03    -25.1693E-03     51.5768E-03    -26.4075E-03     21.2772E-03     109.539E-03     185.342E+06     194.823E+06     48.7095E+06    -12.1881E+06    -12.1878E+06     194.823E+06     48.7095E+06     59.3534E+03
            1242     63.4639E-03     16.5597E-03     61.2653E-03     52.7262E-03    -25.6779E-03    -27.0483E-03    -24.9321E-03     51.5721E-03    -26.6400E-03     12.0121E-03     97.9648E-03     186.568E+06     205.940E+06     103.617E+06    -7.05049E+06    -7.04942E+06     205.939E+06     103.617E+06    -213.617E+03
            1243     62.1173E-03     973.723E-06     62.1097E-03     53.8207E-03    -26.8523E-03    -26.9684E-03    -26.9403E-03     53.8019E-03    -26.8616E-03     2.34284E-03     54.3883E-03     199.580E+06    -63.6927E+06    -67.2618E+06    -265.028E+06    -66.8398E+06    -265.027E+06    -64.1159E+06     239.018E+03
            1244     62.1433E-03     1.94724E-03     62.1128E-03     53.8399E-03    -26.9013E-03    -26.9386E-03    -26.8488E-03     53.7874E-03    -26.9386E-03     4.01107E-03     54.7499E-03     202.402E+06    -54.9537E+06    -63.2190E+06    -261.341E+06    -63.2199E+06    -261.340E+06    -54.9537E+06     119.790E+03
            1245     62.1868E-03     2.92116E-03     62.1181E-03     53.9053E-03    -26.9296E-03    -26.9756E-03    -26.8289E-03     53.8046E-03    -26.9756E-03     5.65729E-03     55.4506E-03     203.974E+06    -41.3024E+06    -58.2544E+06    -253.168E+06    -58.2559E+06    -253.166E+06    -41.3024E+06     69.2489E+03
            1246     62.2466E-03     3.89472E-03     62.1246E-03     53.9424E-03    -26.9295E-03    -27.0129E-03    -26.7732E-03     53.7861E-03    -27.0129E-03     7.06853E-03     56.4889E-03     203.580E+06    -26.5695E+06    -52.6076E+06    -241.888E+06    -52.6089E+06    -241.887E+06    -26.5695E+06     148.541E+03
            1247     62.3234E-03     4.86862E-03     62.1329E-03     53.9065E-03    -26.8880E-03    -27.0185E-03    -26.6738E-03     53.6923E-03    -27.0185E-03     8.29177E-03     57.9148E-03     196.199E+06    -14.4902E+06    -46.2587E+06    -224.615E+06    -46.2620E+06    -224.612E+06    -14.4902E+06     635.121E+03
            1248     62.4162E-03     5.84256E-03     62.1422E-03     53.8882E-03    -26.8897E-03    -26.9985E-03    -26.6243E-03     53.6229E-03    -26.9985E-03     9.23436E-03     59.8323E-03     182.503E+06    -5.28801E+06    -39.9481E+06    -202.624E+06    -39.9510E+06    -202.622E+06    -5.28801E+06     518.809E+03
            1249     62.5248E-03     6.81631E-03     62.1522E-03     53.8305E-03    -26.8607E-03    -26.9697E-03    -26.5433E-03     53.5130E-03    -26.9697E-03     10.0915E-03     62.1757E-03     167.873E+06     1.64317E+06    -34.5638E+06    -181.367E+06    -34.5647E+06    -181.366E+06     1.64317E+06     298.900E+03
            1250     62.6497E-03     7.79048E-03     62.1634E-03     53.7776E-03    -26.8513E-03    -26.9263E-03    -26.4819E-03     53.4071E-03    -26.9252E-03     10.9008E-03     65.0589E-03     151.372E+06     5.35920E+06    -29.8570E+06    -160.516E+06    -29.8615E+06    -160.512E+06     5.35920E+06     678.422E+03
            1251     62.7897E-03     8.76439E-03     62.1751E-03     53.7405E-03    -26.8577E-03    -26.8829E-03    -26.4418E-03     53.3082E-03    -26.8664E-03     11.7636E-03     68.6455E-03     130.356E+06     6.55200E+06    -25.7381E+06    -136.905E+06    -25.7454E+06    -136.898E+06     6.55200E+06     875.124E+03
            1252     62.9459E-03     9.73855E-03     62.1880E-03     53.6320E-03    -26.8033E-03    -26.8288E-03    -26.3375E-03     53.1427E-03    -26.8052E-03     12.5080E-03     72.7359E-03     107.696E+06     7.34497E+06    -22.3311E+06    -112.066E+06    -22.3362E+06    -112.061E+06     7.34497E+06     665.662E+03
            1253     63.1170E-03     10.7128E-03     62.2012E-03     53.5488E-03    -26.7214E-03    -26.8274E-03    -26.2577E-03     52.9811E-03    -26.7233E-03     13.4434E-03     77.9918E-03     82.4513E+06     4.07698E+06    -19.7823E+06    -87.6705E+06    -19.7862E+06    -87.6667E+06     4.07698E+06     502.806E+03
            1254     63.3042E-03     11.6870E-03     62.2160E-03     53.5752E-03    -26.6317E-03    -26.9435E-03    -26.2313E-03     52.8630E-03    -26.6317E-03     15.0504E-03     84.6980E-03     50.4534E+06     167.638E+03    -17.9030E+06    -56.5573E+06    -17.9100E+06    -56.5503E+06     167.638E+03     469.010E+03
            1255     63.5080E-03     12.6612E-03     62.2331E-03     53.6293E-03    -26.5291E-03    -27.1002E-03    -26.1987E-03     52.7279E-03    -26.5291E-03     16.9377E-03     92.5925E-03     27.5149E+06     4.49051E+06    -12.2056E+06    -27.0562E+06    -16.8313E+06    -14.0413E+06    -3.89861E+06     235.038E+03
            1256     63.7272E-03     13.6352E-03     62.2514E-03     53.5915E-03    -26.3966E-03    -27.1949E-03    -25.9104E-03     52.3069E-03    -26.3966E-03     20.0853E-03     100.477E-03     60.4280E+06     47.6520E+06    -7.90759E+06    -16.0044E+06    -16.0036E+06     47.6512E+06    -7.90759E+06     155.716E+03
            1257     63.9660E-03     14.6099E-03     62.2752E-03     52.9240E-03    -26.1643E-03    -26.7598E-03    -25.4246E-03     51.7411E-03    -26.3165E-03     19.0107E-03     99.1535E-03     140.941E+06     135.780E+06     7.79691E+06    -14.8927E+06    -14.8919E+06     135.780E+06     7.79691E+06     130.406E+03
            1258     64.2113E-03     15.5849E-03     62.2913E-03     53.0543E-03    -26.2543E-03    -26.8000E-03    -25.1355E-03     51.5421E-03    -26.4066E-03     21.1201E-03     109.527E-03     185.134E+06     194.796E+06     48.8980E+06    -11.9916E+06    -11.9909E+06     194.795E+06     48.8980E+06    -46.3347E+03
            1259     64.4823E-03     16.5598E-03     62.3197E-03     52.7392E-03    -25.7057E-03    -27.0335E-03    -24.9771E-03     51.6172E-03    -26.6401E-03     11.9712E-03     98.0121E-03     186.459E+06     206.050E+06     103.927E+06    -6.80308E+06    -6.80132E+06     206.049E+06     103.927E+06    -27.5089E+03
            1260     63.1712E-03     973.605E-06     63.1637E-03     53.8098E-03    -26.8532E-03    -26.9566E-03    -26.9353E-03     53.7910E-03    -26.8557E-03     2.35609E-03     54.3905E-03     199.536E+06    -64.3698E+06    -67.1491E+06    -265.271E+06    -66.7173E+06    -265.270E+06    -64.8031E+06     290.349E+03
            1261     63.1970E-03     1.94741E-03     63.1669E-03     53.8458E-03    -26.9072E-03    -26.9386E-03    -26.8586E-03     53.7948E-03    -26.9362E-03     3.95697E-03     54.7836E-03     202.037E+06    -55.1308E+06    -63.4655E+06    -261.178E+06    -63.4661E+06    -261.177E+06    -55.1308E+06    -212.254E+03
            1262     63.2395E-03     2.92102E-03     63.1720E-03     53.8786E-03    -26.9056E-03    -26.9730E-03    -26.8047E-03     53.7778E-03    -26.9730E-03     5.64805E-03     55.4389E-03     204.162E+06    -41.6420E+06    -58.5546E+06    -253.687E+06    -58.5559E+06    -253.685E+06    -41.6420E+06     142.647E+03
            1263     63.2989E-03     3.89485E-03     63.1790E-03     53.9435E-03    -26.9347E-03    -27.0088E-03    -26.7787E-03     53.7875E-03    -27.0088E-03     7.07084E-03     56.4949E-03     203.882E+06    -26.5617E+06    -52.5822E+06    -242.167E+06    -52.5848E+06    -242.164E+06    -26.5617E+06     679.812E+03
            1264     63.3740E-03     4.86854E-03     63.1867E-03     53.9216E-03    -26.9034E-03    -27.0182E-03    -26.6907E-03     53.7089E-03    -27.0182E-03     8.25943E-03     57.9358E-03     196.481E+06    -14.2481E+06    -46.1227E+06    -224.703E+06    -46.1246E+06    -224.701E+06    -14.2481E+06     477.719E+03
            1265     63.4658E-03     5.84250E-03     63.1963E-03     53.8620E-03    -26.8656E-03    -26.9964E-03    -26.5973E-03     53.5936E-03    -26.9964E-03     9.28129E-03     59.7975E-03     182.703E+06    -5.37836E+06    -39.8608E+06    -202.853E+06    -39.8628E+06    -202.851E+06    -5.37836E+06     434.771E+03
            1266     63.5728E-03     6.81646E-03     63.2063E-03     53.8462E-03    -26.8777E-03    -26.9685E-03    -26.5605E-03     53.5289E-03    -26.9685E-03     10.0935E-03     62.1891E-03     168.241E+06     1.84608E+06    -34.5598E+06    -181.603E+06    -34.5638E+06    -181.599E+06     1.84608E+06     695.156E+03
            1267     63.6955E-03     7.79040E-03     63.2173E-03     53.7725E-03    -26.8477E-03    -26.9248E-03    -26.4777E-03     53.4025E-03    -26.9248E-03     10.8888E-03     65.0550E-03     151.667E+06     5.38883E+06    -30.0636E+06    -160.864E+06    -30.0694E+06    -160.858E+06     5.38883E+06     802.256E+03
            1268     63.8339E-03     8.76455E-03     63.2293E-03     53.6958E-03    -26.8223E-03    -26.8735E-03    -26.4017E-03     53.2640E-03    -26.8623E-03     11.7530E-03     68.6056E-03     130.541E+06     6.28060E+06    -25.9035E+06    -137.335E+06    -25.9095E+06    -137.329E+06     6.28060E+06     784.028E+03
            1269     63.9873E-03     9.73852E-03     63.2419E-03     53.6561E-03    -26.7941E-03    -26.8620E-03    -26.3682E-03     53.1688E-03    -26.8006E-03     12.4860E-03     72.7510E-03     107.685E+06     7.14258E+06     -22.396E+06    -112.214E+06    -22.4013E+06    -112.209E+06     7.14258E+06     675.019E+03
            1270     64.1560E-03     10.7127E-03     63.2553E-03     53.6419E-03    -26.7239E-03    -26.9180E-03    -26.3524E-03     53.0783E-03    -26.7259E-03     13.4148E-03     78.0724E-03     82.2880E+06     4.27453E+06    -19.7454E+06    -87.3496E+06    -19.7509E+06    -87.3442E+06     4.27453E+06     591.935E+03
            1271     64.3405E-03     11.6867E-03     63.2702E-03     53.5595E-03    -26.6375E-03    -26.9220E-03    -26.2148E-03     52.8523E-03    -26.6375E-03     14.9893E-03     84.7107E-03     50.7773E+06     106.392E+03    -17.8981E+06    -57.0195E+06    -17.9064E+06    -57.0113E+06     106.392E+03     512.260E+03
            1272     64.5410E-03     12.6610E-03     63.2869E-03     53.5359E-03    -26.5289E-03    -27.0070E-03    -26.0823E-03     52.6112E-03    -26.5289E-03     17.1184E-03     92.4105E-03     27.8785E+06     4.45541E+06    -12.0657E+06    -27.4625E+06    -16.5580E+06    -14.5390E+06    -3.97575E+06     426.304E+03
            1273     64.7579E-03     13.6353E-03     63.3061E-03     53.6184E-03    -26.3936E-03    -27.2247E-03    -25.9511E-03     52.3447E-03    -26.3936E-03     20.0509E-03     100.465E-03     60.6245E+06     48.0974E+06    -7.65873E+06    -15.8046E+06    -15.8005E+06     48.0933E+06    -7.65873E+06     107.580E+03
            1274     64.9918E-03     14.6099E-03     63.3284E-03     52.9811E-03    -26.1685E-03    -26.8126E-03    -25.4916E-03     51.8084E-03    -26.3169E-03     19.0119E-03     99.1832E-03     140.907E+06     136.101E+06     7.97796E+06    -14.4660E+06    -14.4657E+06     136.100E+06     7.97796E+06    -28.3346E+03
            1275     65.2351E-03     15.5846E-03     63.3462E-03     53.0697E-03    -26.2609E-03    -26.8088E-03    -25.1467E-03     51.5559E-03    -26.4092E-03     21.2238E-03     109.533E-03     184.895E+06     194.475E+06     48.7357E+06    -11.9575E+06    -11.9568E+06     194.474E+06     48.7357E+06     5.66192E+03
            1276     65.5007E-03     16.5596E-03     63.3728E-03     52.7148E-03    -25.6718E-03    -27.0430E-03    -24.9734E-03     51.6168E-03    -26.6434E-03     11.9661E-03     98.0549E-03     186.521E+06     205.787E+06     103.740E+06    -7.17657E+06    -7.17530E+06     205.786E+06     103.740E+06     131.147E+03
            1277     64.2251E-03     973.730E-06     64.2178E-03     53.8275E-03    -26.8468E-03    -26.9807E-03    -26.9559E-03     53.8088E-03    -26.8529E-03     2.35379E-03     54.4152E-03     199.568E+06    -64.7288E+06    -66.8032E+06    -265.318E+06    -66.7943E+06    -265.317E+06    -64.7389E+06    -193.338E+03
            1278     64.2505E-03     1.94725E-03     64.2210E-03     53.8599E-03    -26.9134E-03    -26.9465E-03    -26.8653E-03     53.8095E-03    -26.9442E-03     3.93630E-03     54.8008E-03     202.056E+06    -55.4054E+06    -63.7197E+06    -261.457E+06    -63.7216E+06    -261.455E+06    -55.4054E+06     61.1040E+03
            1279     64.2925E-03     2.92102E-03     64.2261E-03     53.8703E-03    -26.8944E-03    -26.9758E-03    -26.7944E-03     53.7702E-03    -26.9758E-03     5.62372E-03     55.4437E-03     204.014E+06    -42.5236E+06    -59.1056E+06    -254.292E+06    -59.1085E+06    -254.289E+06    -42.5236E+06     228.747E+03
            1280     64.3508E-03     3.89486E-03     64.2328E-03     53.8876E-03    -26.8878E-03    -26.9998E-03    -26.7297E-03     53.7295E-03    -26.9998E-03     7.10717E-03     56.4433E-03     203.401E+06    -28.0109E+06    -52.9538E+06    -242.695E+06    -52.9563E+06    -242.692E+06    -28.0109E+06     385.383E+03
            1281     64.4254E-03     4.86864E-03     64.2412E-03     53.9231E-03    -26.9127E-03    -27.0104E-03    -26.6992E-03     53.7096E-03    -27.0104E-03     8.28368E-03     57.9297E-03     196.057E+06    -14.3324E+06    -46.2764E+06    -224.372E+06    -46.2793E+06    -224.369E+06    -14.3324E+06     572.359E+03
            1282     64.5151E-03     5.84248E-03     64.2500E-03     53.8751E-03    -26.8802E-03    -26.9949E-03    -26.6125E-03     53.6074E-03    -26.9949E-03     9.26992E-03     59.8169E-03     182.980E+06    -5.23628E+06    -40.4005E+06    -203.239E+06    -40.4043E+06    -203.235E+06    -5.23628E+06     654.123E+03
            1283     64.6212E-03     6.81654E-03     64.2606E-03     53.8192E-03    -26.8533E-03    -26.9659E-03    -26.5355E-03     53.5014E-03    -26.9659E-03     10.1007E-03     62.1622E-03     168.900E+06     1.62078E+06    -34.9194E+06    -182.544E+06    -34.9260E+06    -182.538E+06     1.62078E+06     963.696E+03
            1284     64.7417E-03     7.79037E-03     64.2713E-03     53.7768E-03    -26.8537E-03    -26.9231E-03    -26.4862E-03     53.4071E-03    -26.9209E-03     10.8849E-03     65.0583E-03     151.677E+06     5.51515E+06    -29.9079E+06    -160.738E+06    -29.9136E+06    -160.732E+06     5.51515E+06     832.629E+03
            1285     64.8779E-03     8.76444E-03     64.2832E-03     53.7049E-03    -26.8281E-03    -26.8768E-03    -26.4128E-03     53.2722E-03    -26.8594E-03     11.7671E-03     68.6077E-03     130.670E+06     6.14983E+06    -25.9280E+06    -137.566E+06    -25.9310E+06    -137.563E+06     6.14983E+06     575.250E+03
            1286     65.0294E-03     9.73873E-03     64.2960E-03     53.6722E-03    -26.7949E-03    -26.8772E-03    -26.3838E-03     53.1832E-03    -26.7994E-03     12.5089E-03     72.7450E-03     107.888E+06     7.04139E+06    -22.4413E+06    -112.506E+06    -22.4468E+06    -112.501E+06     7.04139E+06     675.842E+03
            1287     65.1957E-03     10.7126E-03     64.3096E-03     53.6389E-03    -26.7252E-03    -26.9137E-03    -26.3385E-03     53.0638E-03    -26.7252E-03     13.5431E-03     78.0337E-03     82.6008E+06     4.29160E+06    -19.6248E+06    -87.6265E+06    -19.6313E+06    -87.6200E+06     4.29160E+06     666.894E+03
            1288     65.3773E-03     11.6868E-03     64.3242E-03     53.5534E-03    -26.6351E-03    -26.9183E-03    -26.2025E-03     52.8376E-03    -26.6351E-03     15.0873E-03     84.6882E-03     50.8921E+06     114.423E+03    -17.6736E+06    -57.0770E+06    -17.6810E+06    -57.0696E+06     114.423E+03     508.431E+03
            1289     65.5747E-03     12.6612E-03     64.3408E-03     53.5016E-03    -26.5247E-03    -26.9769E-03    -26.0390E-03     52.5636E-03    -26.5247E-03     17.2228E-03     92.3310E-03     27.5147E+06     4.27415E+06    -11.9395E+06    -27.2304E+06    -16.3521E+06    -14.6203E+06    -3.92331E+06     410.653E+03
            1290     65.7888E-03     13.6357E-03     64.3602E-03     53.5956E-03    -26.3887E-03    -27.2069E-03    -25.9250E-03     52.3137E-03    -26.3887E-03     20.1303E-03     100.416E-03     60.5481E+06     48.4770E+06    -7.11854E+06    -15.4219E+06    -15.4176E+06     48.4726E+06    -7.11854E+06     168.947E+03
            1291     66.0197E-03     14.6096E-03     64.3829E-03     53.0361E-03    -26.2004E-03    -26.8357E-03    -25.5586E-03     51.8709E-03    -26.3123E-03     18.9726E-03     99.2429E-03     141.001E+06     136.286E+06     8.11658E+06    -14.4371E+06    -14.4365E+06     136.285E+06     8.11658E+06     88.0097E+03
            1292     66.2584E-03     15.5849E-03     64.3994E-03     53.1669E-03    -26.2967E-03    -26.8702E-03    -25.2044E-03     51.6130E-03    -26.4086E-03     21.4836E-03     109.503E-03     184.777E+06     194.165E+06     48.6070E+06    -12.1267E+06    -12.1256E+06     194.164E+06     48.6070E+06     405.817E+03
            1293     66.5221E-03     16.5595E-03     64.4280E-03     52.7539E-03    -25.6477E-03    -27.1063E-03    -24.9671E-03     51.6117E-03    -26.6447E-03     11.9966E-03     98.0170E-03     186.511E+06     205.839E+06     103.827E+06    -7.15893E+06    -7.15804E+06     205.838E+06     103.827E+06     281.140E+03
            1294     65.2791E-03     973.542E-06     65.2719E-03     53.8312E-03    -26.8485E-03    -26.9827E-03    -26.9530E-03     53.8123E-03    -26.8593E-03     2.36591E-03     54.4273E-03     199.071E+06    -65.0320E+06    -67.7344E+06    -265.432E+06    -67.7353E+06    -265.431E+06    -65.0320E+06    -162.181E+03
            1295     65.3041E-03     1.94735E-03     65.2751E-03     53.8465E-03    -26.9034E-03    -26.9431E-03    -26.8526E-03     53.7956E-03    -26.9431E-03     3.95655E-03     54.7862E-03     202.283E+06    -56.1735E+06    -64.2997E+06    -262.378E+06    -64.3017E+06    -262.376E+06    -56.1735E+06     198.761E+03
            1296     65.3455E-03     2.92105E-03     65.2801E-03     53.8698E-03    -26.8976E-03    -26.9722E-03    -26.7971E-03     53.7693E-03    -26.9722E-03     5.63533E-03     55.4450E-03     203.945E+06    -42.8731E+06    -59.0872E+06    -254.399E+06    -59.0899E+06    -254.396E+06    -42.8731E+06     152.246E+03
            1297     65.4030E-03     3.89474E-03     65.2869E-03     53.8784E-03    -26.8792E-03    -26.9992E-03    -26.7214E-03     53.7206E-03    -26.9992E-03     7.10188E-03     56.4337E-03     203.743E+06    -27.8180E+06    -53.0065E+06    -242.950E+06    -53.0078E+06    -242.949E+06    -27.8180E+06     69.9766E+03
            1298     65.4763E-03     4.86880E-03     65.2950E-03     53.8896E-03    -26.8850E-03    -27.0046E-03    -26.6704E-03     53.6750E-03    -27.0046E-03     8.29813E-03     57.8862E-03     196.271E+06    -14.6775E+06    -46.5402E+06    -224.903E+06    -46.5429E+06    -224.900E+06    -14.6775E+06     511.475E+03
            1299     65.5653E-03     5.84253E-03     65.3045E-03     53.8967E-03    -26.9039E-03    -26.9929E-03    -26.6389E-03     53.6318E-03    -26.9929E-03     9.22952E-03     59.8460E-03     183.773E+06    -4.79551E+06    -40.3080E+06    -203.722E+06    -40.3152E+06    -203.715E+06    -4.79551E+06     1.02210E+06
            1300     65.6689E-03     6.81636E-03     65.3142E-03     53.8054E-03    -26.8397E-03    -26.9656E-03    -26.5223E-03     53.4879E-03    -26.9656E-03     10.0879E-03     62.1523E-03     169.749E+06     2.07229E+06    -34.7587E+06    -183.059E+06    -34.7668E+06    -183.051E+06     2.07229E+06     1.04497E+06
            1301     65.7886E-03     7.79065E-03     65.3257E-03     53.7473E-03    -26.8299E-03    -26.9173E-03    -26.4620E-03     53.3771E-03    -26.9151E-03     10.8930E-03     65.0172E-03     151.624E+06     5.41348E+06    -29.8649E+06    -160.739E+06    -29.8692E+06    -160.735E+06     5.41348E+06     709.298E+03
            1302     65.9223E-03     8.76458E-03     65.3371E-03     53.7556E-03    -26.8546E-03    -26.9010E-03    -26.4639E-03     53.3214E-03    -26.8575E-03     11.7906E-03     68.6540E-03     130.886E+06     6.58556E+06    -25.6182E+06    -137.390E+06    -25.6204E+06    -137.388E+06     6.58556E+06     490.023E+03
            1303     66.0719E-03     9.73840E-03     65.3503E-03     53.6513E-03    -26.7988E-03    -26.8525E-03    -26.3595E-03     53.1583E-03    -26.7988E-03     12.5591E-03     72.7285E-03     108.395E+06     7.18349E+06    -22.2374E+06    -112.874E+06    -22.2416E+06    -112.870E+06     7.18349E+06     596.952E+03
            1304     66.2355E-03     10.7128E-03     65.3634E-03     53.5596E-03    -26.7196E-03    -26.8400E-03    -26.2658E-03     52.9853E-03    -26.7196E-03     13.5190E-03     77.9711E-03     82.8506E+06     4.27482E+06    -19.5816E+06    -87.8861E+06    -19.5873E+06    -87.8803E+06     4.27482E+06     623.609E+03
            1305     66.4148E-03     11.6871E-03     65.3784E-03     53.5673E-03    -26.6287E-03    -26.9386E-03    -26.2315E-03     52.8602E-03    -26.6287E-03     15.0041E-03     84.7158E-03     50.8020E+06     467.087E+03    -17.5435E+06    -56.6649E+06    -17.5490E+06    -56.6595E+06     467.087E+03     416.547E+03
            1306     66.6091E-03     12.6611E-03     65.3947E-03     53.5505E-03    -26.5230E-03    -27.0276E-03    -26.1037E-03     52.6267E-03    -26.5230E-03     17.1002E-03     92.4494E-03     27.1414E+06     4.18519E+06    -11.7338E+06    -26.9511E+06    -16.2659E+06    -14.6236E+06    -3.61022E+06     309.340E+03
            1307     66.8203E-03     13.6354E-03     65.4142E-03     53.5183E-03    -26.3858E-03    -27.1325E-03    -25.8475E-03     52.2333E-03    -26.3858E-03     20.1252E-03     100.355E-03     60.3167E+06     48.0957E+06    -7.19127E+06    -15.5487E+06    -15.5449E+06     48.0919E+06    -7.19127E+06     294.374E+03
            1308     67.0482E-03     14.6104E-03     65.4370E-03     53.0456E-03    -26.2837E-03    -26.7619E-03    -25.5750E-03     51.8845E-03    -26.3096E-03     18.9113E-03     99.2384E-03     141.127E+06     136.300E+06     8.47387E+06    -14.7843E+06    -14.7821E+06     136.298E+06     8.47387E+06     501.477E+03
            1309     67.2834E-03     15.5845E-03     65.4537E-03     53.1921E-03    -26.3800E-03    -26.8122E-03    -25.2408E-03     51.6466E-03    -26.4058E-03     21.3855E-03     109.589E-03     184.795E+06     194.175E+06     48.5886E+06    -12.3100E+06    -12.3069E+06     194.172E+06     48.5886E+06     759.973E+03
            1310     67.5434E-03     16.5598E-03     65.4820E-03     52.6957E-03    -25.6593E-03    -27.0364E-03    -24.9105E-03     51.5489E-03    -26.6384E-03     11.9703E-03     97.9841E-03     186.473E+06     205.673E+06     103.159E+06    -7.20578E+06    -7.20435E+06     205.671E+06     103.159E+06     294.915E+03
            1311     66.3330E-03     973.761E-06     66.3259E-03     53.7870E-03    -26.8350E-03    -26.9521E-03    -26.9278E-03     53.7674E-03    -26.8396E-03     2.41475E-03     54.3783E-03     199.401E+06    -64.9445E+06    -67.9797E+06    -265.839E+06    -67.6407E+06    -265.838E+06    -65.2848E+06     146.690E+03
            1312     66.3577E-03     1.94730E-03     66.3292E-03     53.8338E-03    -26.8971E-03    -26.9367E-03    -26.8573E-03     53.7831E-03    -26.9258E-03     3.95657E-03     54.7733E-03     202.434E+06    -56.4135E+06    -64.5992E+06    -262.796E+06    -64.5999E+06    -262.795E+06    -56.4135E+06    -95.7032E+03
            1313     66.3984E-03     2.92105E-03     66.3341E-03     53.8583E-03    -26.8968E-03    -26.9614E-03    -26.7961E-03     53.7575E-03    -26.9614E-03     5.63730E-03     55.4358E-03     203.670E+06    -43.3188E+06    -59.7010E+06    -254.641E+06    -59.7019E+06    -254.640E+06    -43.3188E+06     116.856E+03
            1314     66.4552E-03     3.89494E-03     66.3409E-03     53.9097E-03    -26.9129E-03    -26.9968E-03    -26.7555E-03     53.7523E-03    -26.9968E-03     7.10003E-03     56.4633E-03     203.472E+06    -27.9429E+06    -53.6863E+06    -243.022E+06    -53.6869E+06    -243.022E+06    -27.9429E+06     176.628E+03
            1315     66.5274E-03     4.86852E-03     66.3490E-03     53.8804E-03    -26.8746E-03    -27.0059E-03    -26.6606E-03     53.6665E-03    -27.0059E-03     8.28160E-03     57.8830E-03     196.574E+06    -15.1533E+06    -47.2792E+06    -225.795E+06    -47.2804E+06    -225.794E+06    -15.1533E+06     296.274E+03
            1316     66.6151E-03     5.84264E-03     66.3584E-03     53.8375E-03    -26.8498E-03    -26.9877E-03    -26.5823E-03     53.5699E-03    -26.9877E-03     9.26789E-03     59.7725E-03     184.215E+06    -5.40940E+06    -40.7244E+06    -204.712E+06    -40.7313E+06    -204.705E+06    -5.40940E+06     958.859E+03
            1317     66.7177E-03     6.81656E-03     66.3685E-03     53.8305E-03    -26.8665E-03    -26.9640E-03    -26.5554E-03     53.5157E-03    -26.9603E-03     10.0525E-03     62.1729E-03     169.541E+06     2.30173E+06    -34.6147E+06    -182.645E+06    -34.6214E+06    -182.638E+06     2.30173E+06     904.825E+03
            1318     66.8349E-03     7.79043E-03     66.3793E-03     53.7700E-03    -26.8518E-03    -26.9183E-03    -26.4850E-03     53.3996E-03    -26.9146E-03     10.8921E-03     65.0412E-03     151.924E+06     5.79388E+06    -29.3235E+06    -160.614E+06    -29.3265E+06    -160.611E+06     5.79388E+06     571.924E+03
            1319     66.9676E-03     8.76453E-03     66.3916E-03     53.7110E-03    -26.8297E-03    -26.8813E-03    -26.4213E-03     53.2767E-03    -26.8553E-03     11.7903E-03     68.6099E-03     131.364E+06     6.62009E+06    -25.2916E+06    -137.752E+06    -25.2951E+06    -137.748E+06     6.62009E+06     606.080E+03
            1320     67.1144E-03     9.73877E-03     66.4040E-03     53.6485E-03    -26.7882E-03    -26.8602E-03    -26.3640E-03     53.1588E-03    -26.7948E-03     12.5142E-03     72.7289E-03     108.626E+06     7.20864E+06    -22.1940E+06    -113.081E+06    -22.1978E+06    -113.077E+06     7.20864E+06     573.098E+03
            1321     67.2760E-03     10.7128E-03     66.4176E-03     53.5921E-03    -26.7174E-03    -26.8747E-03    -26.3070E-03     53.0244E-03    -26.7174E-03     13.4537E-03     78.0143E-03     82.8399E+06     4.23932E+06    -19.5745E+06    -87.8986E+06    -19.5789E+06    -87.8942E+06     4.23932E+06     533.735E+03
            1322     67.4525E-03     11.6869E-03     66.4323E-03     53.5523E-03    -26.6278E-03    -26.9245E-03    -26.2208E-03     52.8486E-03    -26.6278E-03     14.9578E-03     84.7111E-03     50.7583E+06     301.082E+03    -17.6691E+06    -56.7761E+06    -17.6769E+06    -56.7683E+06     301.082E+03     436.689E+03
            1323     67.6445E-03     12.6612E-03     66.4491E-03     53.5396E-03    -26.5217E-03    -27.0179E-03    -26.0963E-03     52.6180E-03    -26.5217E-03     17.0853E-03     92.4238E-03     27.0702E+06     3.86917E+06    -11.9353E+06    -27.1932E+06    -16.4889E+06    -14.9554E+06    -3.81495E+06     430.893E+03
            1324     67.8522E-03     13.6356E-03     66.4680E-03     53.5779E-03    -26.3869E-03    -27.1911E-03    -25.9161E-03     52.3030E-03    -26.3869E-03     20.0597E-03     100.405E-03     60.5783E+06     47.8237E+06    -7.49496E+06    -16.2426E+06    -16.2309E+06     47.8120E+06    -7.49496E+06     712.043E+03
            1325     68.0772E-03     14.6098E-03     66.4910E-03     53.0328E-03    -26.2260E-03    -26.8067E-03    -25.5608E-03     51.8724E-03    -26.3116E-03     18.9125E-03     99.2149E-03     141.530E+06     136.201E+06     8.04656E+06    -15.3831E+06    -15.3744E+06     136.193E+06     8.04656E+06     897.642E+03
            1326     68.3099E-03     15.5848E-03     66.5083E-03     53.0728E-03    -26.3172E-03    -26.7557E-03    -25.1603E-03     51.5630E-03    -26.4028E-03     21.1571E-03     109.521E-03     184.827E+06     193.972E+06     47.8554E+06    -12.4177E+06    -12.4149E+06     193.969E+06     47.8554E+06     565.940E+03
            1327     68.5650E-03     16.5598E-03     66.5352E-03     52.6501E-03    -25.6698E-03    -26.9802E-03    -24.9101E-03     51.5458E-03    -26.6357E-03     11.9742E-03     97.9731E-03     186.535E+06     205.924E+06     103.130E+06    -6.95023E+06    -6.94924E+06     205.923E+06     103.130E+06     152.589E+03
            1328     67.3870E-03     973.665E-06     67.3800E-03     53.7509E-03    -26.7886E-03    -26.9623E-03    -26.9181E-03     53.7318E-03    -26.8138E-03     2.38020E-03     54.3423E-03     200.159E+06    -64.6009E+06    -68.1620E+06    -266.510E+06    -67.8249E+06    -266.507E+06    -64.9412E+06     353.309E+03
            1329     67.4113E-03     1.94741E-03     67.3832E-03     53.8052E-03    -26.8758E-03    -26.9294E-03    -26.8413E-03     53.7543E-03    -26.9130E-03     3.95619E-03     54.7273E-03     203.413E+06    -55.4186E+06    -64.4774E+06    -263.185E+06    -64.4798E+06    -263.182E+06    -55.4186E+06     357.489E+03
            1330     67.4514E-03     2.92113E-03     67.3881E-03     53.8780E-03    -26.9191E-03    -26.9589E-03    -26.8240E-03     53.7774E-03    -26.9535E-03     5.64011E-03     55.4462E-03     204.229E+06    -42.9033E+06    -59.8839E+06    -255.058E+06    -59.8845E+06    -255.057E+06    -42.9033E+06     319.371E+03
            1331     67.5074E-03     3.89476E-03     67.3950E-03     53.8939E-03    -26.9037E-03    -26.9902E-03    -26.7451E-03     53.7354E-03    -26.9902E-03     7.11884E-03     56.4444E-03     203.128E+06    -28.5186E+06    -54.3034E+06    -243.266E+06    -54.3049E+06    -243.264E+06    -28.5186E+06     440.003E+03
            1332     67.5788E-03     4.86874E-03     67.4032E-03     53.8739E-03    -26.8732E-03    -27.0007E-03    -26.6580E-03     53.6588E-03    -27.0007E-03     8.30827E-03     57.8766E-03     196.473E+06    -15.5699E+06    -48.0631E+06    -226.245E+06    -48.0648E+06    -226.244E+06    -15.5699E+06     485.412E+03
            1333     67.6649E-03     5.84253E-03     67.4122E-03     53.8282E-03    -26.8480E-03    -26.9802E-03    -26.5789E-03     53.5591E-03    -26.9802E-03     9.29014E-03     59.7560E-03     183.737E+06    -6.38869E+06    -41.4905E+06    -205.136E+06    -41.4940E+06    -205.133E+06    -6.38869E+06     274.299E+03
            1334     67.7664E-03     6.81661E-03     67.4227E-03     53.8135E-03    -26.8575E-03    -26.9560E-03    -26.5438E-03     53.4961E-03    -26.9523E-03     10.0947E-03     62.1426E-03     168.933E+06     1.52304E+06    -34.9439E+06    -182.650E+06    -34.9473E+06    -182.647E+06     1.52304E+06     239.159E+03
            1335     67.8820E-03     7.79050E-03     67.4335E-03     53.7899E-03    -26.8697E-03    -26.9202E-03    -26.5068E-03     53.4185E-03    -26.9117E-03     10.9097E-03     65.0614E-03     152.118E+06     5.66934E+06    -29.6284E+06    -160.993E+06    -29.6317E+06    -160.990E+06     5.66934E+06     597.077E+03
            1336     68.0124E-03     8.76459E-03     67.4453E-03     53.7064E-03    -26.8304E-03    -26.8760E-03    -26.4181E-03     53.2713E-03    -26.8531E-03     11.8001E-03     68.5910E-03     131.337E+06     6.33508E+06    -25.6736E+06    -138.039E+06    -25.6782E+06    -138.035E+06     6.33508E+06     717.364E+03
            1337     68.1575E-03     9.73861E-03     67.4582E-03     53.6418E-03    -26.7861E-03    -26.8557E-03    -26.3620E-03     53.1547E-03    -26.7927E-03     12.4818E-03     72.7060E-03     108.623E+06     7.04690E+06    -22.3403E+06    -113.236E+06    -22.3437E+06    -113.232E+06     7.04690E+06     555.827E+03
            1338     68.3168E-03     10.7127E-03     67.4717E-03     53.6130E-03    -26.7159E-03    -26.8971E-03    -26.3233E-03     53.0392E-03    -26.7159E-03     13.5224E-03     77.9900E-03     82.8837E+06     4.00767E+06    -19.7479E+06    -88.1594E+06    -19.7521E+06    -88.1553E+06     4.00767E+06     510.006E+03
            1339     68.4909E-03     11.6869E-03     67.4864E-03     53.5615E-03    -26.6279E-03    -26.9336E-03    -26.2268E-03     52.8547E-03    -26.6279E-03     14.9996E-03     84.7115E-03     50.7747E+06     273.119E+03    -17.7263E+06    -56.8181E+06    -17.7380E+06    -56.8064E+06     273.119E+03     574.280E+03
            1340     68.6801E-03     12.6613E-03     67.5030E-03     53.5273E-03    -26.5222E-03    -27.0051E-03    -26.0877E-03     52.6098E-03    -26.5222E-03     17.0382E-03     92.4116E-03     27.0917E+06     3.79440E+06    -12.0121E+06    -27.3042E+06    -16.5678E+06    -15.1533E+06    -3.80076E+06     748.903E+03
            1341     68.8853E-03     13.6354E-03     67.5223E-03     53.6405E-03    -26.3878E-03    -27.2527E-03    -25.9615E-03     52.3493E-03    -26.3878E-03     20.1943E-03     100.392E-03     60.1397E+06     47.3767E+06    -7.63063E+06    -16.1327E+06    -16.1007E+06     47.3447E+06    -7.63063E+06     1.16066E+06
            1342     69.1073E-03     14.6098E-03     67.5453E-03     53.0246E-03    -26.1618E-03    -26.8628E-03    -25.5395E-03     51.8507E-03    -26.3112E-03     19.0090E-03     99.1854E-03     141.202E+06     135.964E+06     7.69471E+06    -15.0252E+06    -15.0142E+06     135.953E+06     7.69471E+06     986.528E+03
            1343     69.3360E-03     15.5847E-03     67.5618E-03     53.0643E-03    -26.2562E-03    -26.8080E-03    -25.1416E-03     51.5472E-03    -26.4056E-03     21.2016E-03     109.503E-03     185.049E+06     194.369E+06     48.5143E+06    -12.2317E+06    -12.2309E+06     194.368E+06     48.5143E+06     210.515E+03
            1344     69.5888E-03     16.5597E-03     67.5897E-03     52.7063E-03    -25.6631E-03    -27.0433E-03    -24.9518E-03     51.5927E-03    -26.6408E-03     11.9876E-03     98.0081E-03     186.726E+06     206.215E+06     103.968E+06    -7.00036E+06    -7.00015E+06     206.215E+06     103.968E+06     59.7948E+03
            1345     68.4408E-03     973.640E-06     68.4339E-03     53.7362E-03    -26.8095E-03    -26.9267E-03    -26.8832E-03     53.7179E-03    -26.8347E-03     2.31079E-03     54.3346E-03     200.798E+06    -65.3740E+06    -68.8981E+06      -267.9E+06    -68.9109E+06    -267.887E+06    -65.3740E+06     1.11611E+06
            1346     68.4648E-03     1.94746E-03     68.4371E-03     53.7767E-03    -26.8659E-03    -26.9108E-03    -26.8209E-03     53.7250E-03    -26.9041E-03     3.97705E-03     54.7188E-03     203.521E+06    -55.7019E+06    -64.9247E+06    -263.657E+06    -64.9276E+06    -263.654E+06    -55.7019E+06     666.832E+03
            1347     68.5047E-03     2.92109E-03     68.4423E-03     53.8576E-03    -26.9073E-03    -26.9503E-03    -26.8108E-03     53.7556E-03    -26.9448E-03     5.68219E-03     55.4129E-03     205.206E+06    -42.4692E+06    -59.7853E+06    -255.743E+06    -59.7868E+06    -255.741E+06    -42.4692E+06     517.812E+03
            1348     68.5597E-03     3.89491E-03     68.4489E-03     53.8821E-03    -26.8994E-03    -26.9827E-03    -26.7416E-03     53.7243E-03    -26.9827E-03     7.10391E-03     56.4230E-03     204.360E+06    -27.7812E+06    -53.7867E+06    -243.865E+06    -53.7907E+06    -243.861E+06    -27.7812E+06     837.488E+03
            1349     68.6300E-03     4.86876E-03     68.4571E-03     53.8760E-03    -26.8837E-03    -26.9923E-03    -26.6692E-03     53.6615E-03    -26.9923E-03     8.29452E-03     57.8782E-03     196.675E+06    -15.1972E+06    -47.4366E+06    -225.979E+06    -47.4398E+06    -225.976E+06    -15.1972E+06     665.805E+03
            1350     68.7153E-03     5.84264E-03     68.4665E-03     53.8468E-03    -26.8719E-03    -26.9749E-03    -26.6037E-03     53.5786E-03    -26.9749E-03     9.28022E-03     59.7821E-03     183.433E+06    -6.24039E+06    -41.1766E+06    -204.622E+06    -41.1786E+06    -204.620E+06    -6.24039E+06    -206.895E+03
            1351     68.8149E-03     6.81651E-03     68.4764E-03     53.7811E-03    -26.8344E-03    -26.9468E-03    -26.5125E-03     53.4593E-03    -26.9468E-03     10.1567E-03     62.1035E-03     169.143E+06     765.654E+03    -35.7361E+06    -183.631E+06    -35.7387E+06    -183.629E+06     765.654E+03    -104.322E+03
            1352     68.9294E-03     7.79066E-03     68.4877E-03     53.7696E-03    -26.8459E-03    -26.9236E-03    -26.4918E-03     53.3968E-03    -26.9050E-03     10.9343E-03     65.0357E-03     152.077E+06     5.07581E+06    -30.7720E+06    -161.721E+06    -30.7741E+06    -161.719E+06     5.07581E+06     509.523E+03
            1353     69.0577E-03     8.76454E-03     68.4992E-03     53.7411E-03    -26.8491E-03    -26.8920E-03    -26.4567E-03     53.3057E-03    -26.8491E-03     11.8043E-03     68.6238E-03     131.065E+06     6.19152E+06    -26.2485E+06    -138.043E+06    -26.2508E+06    -138.040E+06     6.19152E+06     446.162E+03
            1354     69.2011E-03     9.73866E-03     68.5124E-03     53.6289E-03    -26.7898E-03    -26.8391E-03    -26.3463E-03     53.1361E-03    -26.7898E-03     12.5531E-03     72.6905E-03     108.686E+06     6.72679E+06    -22.6812E+06    -113.627E+06    -22.6837E+06    -113.624E+06     6.72679E+06     428.178E+03
            1355     69.3577E-03     10.7129E-03     68.5254E-03     53.5943E-03    -26.7129E-03    -26.8814E-03    -26.3037E-03     53.0166E-03    -26.7129E-03     13.5639E-03     77.9531E-03     82.8632E+06     4.11899E+06    -19.8294E+06    -88.0808E+06    -19.8338E+06    -88.0764E+06     4.11899E+06     520.905E+03
            1356     69.5300E-03     11.6870E-03     68.5408E-03     53.6159E-03    -26.6270E-03    -26.9889E-03    -26.2841E-03     52.9112E-03    -26.6270E-03     14.9936E-03     84.7423E-03     50.9303E+06     373.819E+03    -17.9158E+06    -56.9544E+06    -17.9316E+06    -56.9386E+06     373.819E+03     650.244E+03
            1357     69.7161E-03     12.6610E-03     68.5568E-03     53.5713E-03    -26.5246E-03    -27.0466E-03    -26.1385E-03     52.6631E-03    -26.5246E-03     16.9597E-03     92.5102E-03      27.249E+06     3.72896E+06    -12.2446E+06    -27.5340E+06    -16.6601E+06    -15.4634E+06    -3.92620E+06     942.913E+03
            1358     69.9189E-03     13.6356E-03     68.5764E-03     53.5444E-03    -26.3879E-03    -27.1565E-03    -25.8593E-03     52.2472E-03    -26.3879E-03     20.2035E-03     100.313E-03     59.3736E+06     46.9132E+06    -7.68703E+06    -15.6064E+06    -15.5733E+06     46.8802E+06    -7.68703E+06     930.865E+03
            1359     70.1379E-03     14.6101E-03     68.5994E-03     52.9868E-03    -26.2143E-03    -26.7724E-03    -25.5053E-03     51.8131E-03    -26.3077E-03     18.9669E-03     99.1754E-03     140.369E+06     135.745E+06     8.04717E+06    -14.2013E+06    -14.1962E+06     135.740E+06     8.04717E+06     690.591E+03
            1360     70.3635E-03     15.5848E-03     68.6158E-03     53.1564E-03    -26.3116E-03    -26.8448E-03    -25.2132E-03     51.6181E-03    -26.4050E-03     21.3074E-03     109.563E-03     185.061E+06     195.025E+06     49.3708E+06    -11.6270E+06    -11.6223E+06     195.020E+06     49.3708E+06     769.402E+03
            1361     70.6131E-03     16.5596E-03     68.6440E-03     52.7631E-03    -25.6818E-03    -27.0813E-03    -24.9741E-03     51.6155E-03    -26.6415E-03     12.0453E-03     97.9999E-03     186.970E+06     206.496E+06     104.180E+06    -7.04986E+06    -7.04630E+06     206.493E+06     104.180E+06     406.277E+03
            1362     69.4946E-03     973.779E-06     69.4878E-03     53.7311E-03    -26.8345E-03    -26.8966E-03    -26.8781E-03     53.7126E-03    -26.8345E-03     2.30862E-03     54.3239E-03     201.750E+06    -65.7044E+06    -68.9222E+06    -269.034E+06     -68.494E+06    -269.015E+06    -66.1516E+06     1.41340E+06
            1363     69.5184E-03     1.94733E-03     69.4911E-03     53.7787E-03    -26.8771E-03    -26.9016E-03    -26.8271E-03     53.7266E-03    -26.8995E-03     3.99693E-03     54.7227E-03     204.045E+06    -56.2935E+06    -64.7478E+06    -264.417E+06    -64.7489E+06    -264.416E+06    -56.2935E+06     263.032E+03
            1364     69.5576E-03     2.92124E-03     69.4962E-03     53.8182E-03    -26.8805E-03    -26.9377E-03    -26.7795E-03     53.7173E-03    -26.9377E-03     5.65454E-03     55.3777E-03     205.629E+06    -42.9710E+06    -59.8013E+06    -256.447E+06    -59.8035E+06    -256.445E+06    -42.9710E+06     610.658E+03
            1365     69.6121E-03     3.89498E-03     69.5030E-03     53.8787E-03    -26.9034E-03    -26.9753E-03    -26.7477E-03     53.7230E-03    -26.9753E-03     7.05758E-03     56.4217E-03     205.185E+06    -27.7178E+06    -53.5815E+06    -244.578E+06    -53.5851E+06    -244.574E+06    -27.7178E+06     760.056E+03
            1366     69.6814E-03     4.86869E-03     69.5111E-03     53.8736E-03    -26.8873E-03    -26.9863E-03    -26.6724E-03     53.6587E-03    -26.9863E-03     8.29991E-03     57.8752E-03     196.724E+06    -14.6996E+06    -46.5297E+06    -225.376E+06    -46.5318E+06    -225.374E+06    -14.6996E+06     472.088E+03
            1367     69.7655E-03     5.84266E-03     69.5204E-03     53.8379E-03    -26.8655E-03    -26.9724E-03    -26.5972E-03     53.5696E-03    -26.9724E-03     9.28333E-03     59.7791E-03     183.954E+06    -5.45813E+06    -40.7332E+06    -204.483E+06    -40.7368E+06    -204.479E+06    -5.45813E+06     301.736E+03
            1368     69.8639E-03     6.81666E-03     69.5305E-03     53.8003E-03    -26.8545E-03    -26.9458E-03    -26.5372E-03     53.4830E-03    -26.9458E-03     10.0876E-03     62.1462E-03     169.979E+06     1.02946E+06    -35.9382E+06    -184.380E+06    -35.9422E+06    -184.376E+06     1.02946E+06     248.607E+03
            1369     69.9765E-03     7.79061E-03     69.5415E-03     53.7510E-03    -26.8360E-03    -26.9150E-03    -26.4750E-03     53.3762E-03    -26.9012E-03     10.9563E-03     65.0234E-03     152.007E+06     4.68107E+06    -31.0568E+06    -162.009E+06    -31.0579E+06    -162.008E+06     4.68107E+06     56.1320E+03
            1370     70.1037E-03     8.76467E-03     69.5537E-03     53.7052E-03    -26.8253E-03    -26.8799E-03    -26.4284E-03     53.2726E-03    -26.8442E-03     11.7694E-03     68.6103E-03     131.130E+06     5.97815E+06    -26.5401E+06    -138.347E+06    -26.5405E+06    -138.346E+06     5.97815E+06     7.36489E+03
            1371     70.2444E-03     9.73876E-03     69.5660E-03     53.6510E-03    -26.7858E-03    -26.8652E-03    -26.3747E-03     53.1605E-03    -26.7858E-03     12.5239E-03     72.7316E-03     108.761E+06     6.75660E+06    -22.7223E+06    -113.695E+06    -22.7230E+06    -113.694E+06     6.75660E+06     169.052E+03
            1372     70.3998E-03     10.7128E-03     69.5799E-03     53.6243E-03    -26.7116E-03    -26.9127E-03    -26.3369E-03     53.0485E-03    -26.7116E-03     13.5555E-03     78.0137E-03     83.1897E+06     3.99145E+06    -19.7878E+06    -88.4975E+06    -19.7904E+06    -88.4950E+06     3.99145E+06     382.404E+03
            1373     70.5689E-03     11.6870E-03     69.5945E-03     53.6260E-03    -26.6270E-03    -26.9991E-03    -26.2911E-03     52.9180E-03    -26.6270E-03     15.0210E-03     84.7643E-03     51.3553E+06     36.0731E+03    -17.9394E+06    -57.6749E+06    -17.9535E+06    -57.6608E+06     36.0731E+03     586.022E+03
            1374     70.7535E-03     12.6612E-03     69.6115E-03     53.5934E-03    -26.5256E-03    -27.0678E-03    -26.1651E-03     52.6907E-03    -26.5256E-03     16.9342E-03     92.5664E-03     27.3351E+06     3.75521E+06    -12.1835E+06    -27.5809E+06    -16.5724E+06    -15.4132E+06    -4.02359E+06     762.338E+03
            1375     70.9524E-03     13.6352E-03     69.6299E-03     53.5261E-03    -26.3907E-03    -27.1354E-03    -25.8551E-03     52.2458E-03    -26.3907E-03     20.0538E-03     100.385E-03     59.4382E+06     47.1197E+06    -7.53522E+06    -15.5028E+06    -15.4863E+06     47.1031E+06    -7.53522E+06     705.373E+03
            1376     71.1693E-03     14.6102E-03     69.6535E-03     52.9513E-03    -26.2122E-03    -26.7391E-03    -25.4695E-03     51.7778E-03    -26.3082E-03     18.9570E-03     99.1489E-03     140.194E+06     135.222E+06     7.69114E+06    -14.5546E+06    -14.5508E+06     135.219E+06     7.69114E+06     635.626E+03
            1377     71.3918E-03     15.5848E-03     69.6700E-03     53.1345E-03    -26.3054E-03    -26.8292E-03    -25.2177E-03     51.6191E-03    -26.4014E-03     21.1703E-03     109.574E-03     185.098E+06     194.649E+06      48.468E+06    -11.9593E+06    -11.9536E+06     194.643E+06      48.468E+06     1.00019E+06
            1378     71.6383E-03     16.5599E-03     69.6980E-03     52.7424E-03    -25.6750E-03    -27.0674E-03    -24.9787E-03     51.6183E-03    -26.6396E-03     11.9197E-03     98.0348E-03     187.245E+06     207.034E+06     103.936E+06    -6.77420E+06    -6.76877E+06     207.029E+06     103.936E+06     825.687E+03
            1379     70.5486E-03     973.633E-06     70.5418E-03     53.7444E-03    -26.7996E-03    -26.9448E-03    -26.9236E-03     53.7256E-03    -26.8019E-03     2.34053E-03     54.3125E-03     202.553E+06    -65.4053E+06    -68.4504E+06    -269.461E+06    -67.4988E+06    -269.444E+06    -66.3740E+06    -87.8572E+03
            1380     70.5719E-03     1.94748E-03     70.5451E-03     53.7925E-03    -26.8878E-03    -26.9046E-03    -26.8373E-03     53.7411E-03    -26.9038E-03     3.97720E-03     54.7051E-03     205.086E+06    -56.7312E+06    -64.6421E+06    -265.632E+06    -64.6433E+06    -265.631E+06    -56.7312E+06     232.445E+03
            1381     70.6107E-03     2.92107E-03     70.5502E-03     53.8266E-03    -26.8842E-03    -26.9423E-03    -26.7838E-03     53.7261E-03    -26.9423E-03     5.63475E-03     55.3823E-03     206.163E+06    -43.2299E+06    -59.7434E+06    -257.112E+06    -59.7458E+06    -257.109E+06    -43.2299E+06     643.636E+03
            1382     70.6644E-03     3.89489E-03     70.5570E-03     53.8475E-03    -26.8742E-03    -26.9733E-03    -26.7173E-03     53.6906E-03    -26.9733E-03     7.07960E-03     56.3946E-03     204.946E+06    -28.2199E+06    -53.5610E+06    -244.623E+06    -53.5627E+06    -244.622E+06    -28.2199E+06     309.974E+03
            1383     70.7329E-03     4.86887E-03     70.5651E-03     53.8553E-03    -26.8746E-03    -26.9807E-03    -26.6610E-03     53.6417E-03    -26.9807E-03     8.27619E-03     57.8602E-03     196.456E+06    -15.2359E+06    -47.0517E+06    -225.634E+06    -47.0526E+06    -225.633E+06    -15.2359E+06     198.187E+03
            1384     70.8158E-03     5.84270E-03     70.5744E-03     53.8531E-03    -26.8824E-03    -26.9707E-03    -26.6155E-03     53.5862E-03    -26.9707E-03     9.25831E-03     59.8008E-03     184.526E+06    -5.51856E+06    -40.9738E+06    -205.188E+06    -40.9790E+06    -205.183E+06    -5.51856E+06     824.086E+03
            1385     70.9130E-03     6.81657E-03     70.5846E-03     53.8390E-03    -26.8908E-03    -26.9482E-03    -26.5762E-03     53.5244E-03    -26.9482E-03     10.0534E-03     62.2045E-03     169.999E+06     1.60102E+06    -35.1834E+06    -183.768E+06    -35.1880E+06    -183.764E+06     1.60102E+06     490.581E+03
            1386     71.0241E-03     7.79054E-03     70.5956E-03     53.7480E-03    -26.8443E-03    -26.9037E-03    -26.4757E-03     53.3794E-03    -26.9037E-03     10.8641E-03     65.0443E-03     152.202E+06     4.79011E+06    -30.1091E+06    -161.828E+06    -30.1105E+06    -161.827E+06     4.79011E+06    -358.870E+03
            1387     71.1494E-03     8.76470E-03     70.6075E-03     53.6811E-03    -26.8057E-03    -26.8754E-03    -26.4065E-03     53.2510E-03    -26.8445E-03     11.7298E-03     68.5994E-03     131.802E+06     5.74707E+06    -25.8686E+06    -138.979E+06    -25.8701E+06    -138.978E+06     5.74707E+06    -366.055E+03
            1388     71.2887E-03     9.73872E-03     70.6203E-03     53.6850E-03    -26.7863E-03    -26.8987E-03    -26.4123E-03     53.1985E-03    -26.7863E-03     12.4785E-03     72.7730E-03     108.796E+06     6.57624E+06    -22.3908E+06    -113.760E+06    -22.3913E+06    -113.760E+06     6.57624E+06    -93.5920E+03
            1389     71.4415E-03     10.7128E-03     70.6337E-03     53.6370E-03    -26.7136E-03    -26.9234E-03    -26.3529E-03     53.0665E-03    -26.7136E-03     13.4920E-03     78.0561E-03     83.5070E+06     3.30270E+06    -19.9867E+06    -89.3749E+06    -19.9880E+06    -89.3735E+06     3.30270E+06     195.070E+03
            1390     71.6090E-03     11.6869E-03     70.6488E-03     53.5675E-03    -26.6268E-03    -26.9407E-03    -26.2286E-03     52.8553E-03    -26.6268E-03     15.0497E-03     84.7291E-03     51.6443E+06    -597.263E+03    -18.0526E+06    -58.4958E+06    -18.0589E+06    -58.4895E+06    -597.263E+03     422.095E+03
            1391     71.7906E-03     12.6611E-03     70.6653E-03     53.5817E-03    -26.5232E-03    -27.0586E-03    -26.1459E-03     52.6691E-03    -26.5232E-03     17.0250E-03     92.5055E-03     27.2883E+06     3.52680E+06    -12.1232E+06    -27.7370E+06    -16.5412E+06    -15.6029E+06    -4.18928E+06     490.709E+03
            1392     71.9875E-03     13.6356E-03     70.6843E-03     53.6093E-03    -26.3919E-03    -27.2174E-03    -25.9531E-03     52.3449E-03    -26.3919E-03     19.9683E-03     100.527E-03     59.6282E+06     47.2989E+06    -7.45529E+06    -15.5680E+06    -15.5571E+06     47.2879E+06    -7.45529E+06     755.322E+03
            1393     72.2007E-03     14.6097E-03     70.7071E-03     53.0174E-03    -26.2247E-03    -26.7927E-03    -25.5263E-03     51.8432E-03    -26.3169E-03     19.0302E-03     99.1990E-03     140.317E+06     135.329E+06     8.10344E+06    -14.8087E+06    -14.7976E+06     135.318E+06     8.10344E+06     1.16653E+06
            1394     72.4212E-03     15.5848E-03     70.7245E-03     53.1037E-03    -26.3187E-03    -26.7850E-03    -25.1936E-03     51.6044E-03    -26.4108E-03     21.1432E-03     109.607E-03     185.259E+06     194.344E+06     48.5772E+06    -12.6694E+06    -12.6619E+06     194.336E+06     48.5772E+06     1.04061E+06
            1395     72.6639E-03     16.5594E-03     70.7519E-03     52.6352E-03    -25.6172E-03    -27.0180E-03    -24.9071E-03     51.5509E-03    -26.6438E-03     11.8109E-03     98.0663E-03     187.821E+06     207.293E+06     103.794E+06    -7.23199E+06    -7.22934E+06     207.291E+06     103.794E+06     734.905E+03
            1396     71.6023E-03     973.738E-06     71.5957E-03     53.7630E-03    -26.8175E-03    -26.9455E-03    -26.9242E-03     53.7441E-03    -26.8199E-03     2.31465E-03     54.2887E-03     203.159E+06    -65.2507E+06    -68.0268E+06    -269.783E+06    -67.5300E+06    -269.759E+06    -65.7722E+06    -1.35633E+06
            1397     71.6256E-03     1.94732E-03     71.5991E-03     53.8045E-03    -26.8891E-03    -26.9154E-03    -26.8410E-03     53.7526E-03    -26.9115E-03     4.00916E-03     54.6781E-03     206.264E+06    -56.8843E+06    -64.6961E+06    -266.907E+06    -64.6975E+06    -266.906E+06    -56.8843E+06     394.880E+03
            1398     71.6638E-03     2.92115E-03     71.6042E-03     53.8266E-03    -26.8797E-03    -26.9469E-03    -26.7790E-03     53.7259E-03    -26.9469E-03     5.64049E-03     55.3626E-03     206.882E+06    -43.3574E+06    -59.8693E+06    -257.968E+06    -59.8710E+06    -257.966E+06    -43.3574E+06     492.321E+03
            1399     71.7168E-03     3.89498E-03     71.6109E-03     53.8498E-03    -26.8779E-03    -26.9719E-03    -26.7205E-03     53.6924E-03    -26.9719E-03     7.09378E-03     56.3968E-03     204.138E+06    -28.9328E+06    -53.8175E+06    -244.333E+06    -53.8189E+06    -244.332E+06    -28.9328E+06     314.984E+03
            1400     71.7844E-03     4.86872E-03     71.6191E-03     53.8766E-03    -26.8954E-03    -26.9812E-03    -26.6837E-03     53.6649E-03    -26.9812E-03     8.24516E-03     57.8851E-03     195.990E+06    -16.4993E+06    -48.0251E+06    -226.319E+06    -48.0265E+06    -226.318E+06    -16.4993E+06     303.359E+03
            1401     71.8663E-03     5.84265E-03     71.6284E-03     53.8665E-03    -26.8942E-03    -26.9722E-03    -26.6303E-03     53.6025E-03    -26.9722E-03     9.20657E-03     59.8208E-03     183.677E+06    -6.90190E+06    -41.6466E+06    -205.460E+06    -41.6517E+06    -205.455E+06    -6.90190E+06     214.153E+03
            1402     71.9623E-03     6.81659E-03     71.6387E-03     53.8230E-03    -26.8737E-03    -26.9493E-03    -26.5585E-03     53.5078E-03    -26.9493E-03     10.0594E-03     62.1803E-03     168.736E+06     802.814E+03    -35.1929E+06    -183.015E+06    -35.1981E+06    -183.010E+06     802.814E+03    -265.188E+03
            1403     72.0719E-03     7.79050E-03     71.6496E-03     53.7683E-03    -26.8504E-03    -26.9179E-03    -26.4961E-03     53.4030E-03    -26.9069E-03     10.8229E-03     65.0704E-03     152.098E+06     4.46498E+06    -29.7596E+06    -161.829E+06    -29.7621E+06    -161.827E+06     4.46498E+06    -510.833E+03
            1404     72.1954E-03     8.76453E-03     71.6614E-03     53.7392E-03    -26.8303E-03    -26.9089E-03    -26.4566E-03     53.3070E-03    -26.8504E-03     11.7613E-03     68.6425E-03     131.731E+06     5.24538E+06    -25.6893E+06    -139.191E+06    -25.6915E+06    -139.189E+06     5.24538E+06    -497.436E+03
            1405     72.3331E-03     9.73867E-03     71.6745E-03     53.7069E-03    -26.7955E-03    -26.9114E-03    -26.4272E-03     53.2227E-03    -26.7955E-03     12.4573E-03     72.8007E-03     108.845E+06     6.14933E+06    -22.4601E+06    -114.133E+06    -22.4613E+06    -114.132E+06     6.14933E+06    -318.034E+03
            1406     72.4839E-03     10.7126E-03     71.6879E-03     53.5964E-03    -26.7222E-03    -26.8742E-03    -26.3156E-03     53.0377E-03    -26.7222E-03     13.3402E-03     78.0510E-03     84.0083E+06     3.15222E+06    -19.7635E+06    -89.9336E+06    -19.7646E+06    -89.9325E+06     3.15222E+06    -111.029E+03
            1407     72.6489E-03     11.6869E-03     71.7027E-03     53.4873E-03    -26.6292E-03    -26.8581E-03    -26.1503E-03     52.7795E-03    -26.6292E-03     14.9881E-03     84.6577E-03     52.0358E+06    -801.011E+03    -17.7404E+06    -59.0142E+06    -17.7442E+06    -59.0104E+06    -801.011E+03     201.962E+03
            1408     72.8284E-03     12.6614E-03     71.7194E-03     53.5341E-03    -26.5199E-03    -27.0143E-03    -26.0878E-03     52.6076E-03    -26.5199E-03     17.1331E-03     92.3964E-03     27.3187E+06     3.08016E+06    -12.1782E+06    -28.1805E+06    -16.5143E+06    -16.2566E+06    -4.50771E+06     468.671E+03
            1409     73.0229E-03     13.6352E-03     71.7386E-03     53.6612E-03    -26.3882E-03    -27.2730E-03    -26.0066E-03     52.3948E-03    -26.3882E-03     20.0209E-03     100.548E-03     59.4986E+06     46.9223E+06    -7.77960E+06    -15.7692E+06    -15.7574E+06     46.9105E+06    -7.77960E+06     713.495E+03
            1410     73.2332E-03     14.6100E-03     71.7611E-03     53.1002E-03    -26.2470E-03    -26.8532E-03    -25.6064E-03     51.9239E-03    -26.3175E-03     19.1019E-03     99.2776E-03     140.134E+06     135.212E+06     7.92955E+06    -14.6041E+06    -14.5896E+06     135.198E+06     7.92955E+06     1.46019E+06
            1411     73.4510E-03     15.5844E-03     71.7787E-03     53.0948E-03    -26.3421E-03    -26.7527E-03    -25.1575E-03     51.5700E-03    -26.4126E-03     21.3415E-03     109.541E-03     184.881E+06     194.497E+06     48.6051E+06    -11.9570E+06    -11.9442E+06     194.484E+06     48.6051E+06     1.47468E+06
            1412     73.6905E-03     16.5598E-03     71.8057E-03     52.6339E-03    -25.6496E-03    -26.9843E-03    -24.8961E-03     51.5402E-03    -26.6441E-03     11.9008E-03     98.0377E-03     188.033E+06     207.762E+06     103.814E+06    -6.99232E+06    -6.98938E+06     207.759E+06     103.814E+06     750.698E+03
            1413     72.6562E-03     973.642E-06     72.6497E-03     53.7858E-03    -26.8236E-03    -26.9622E-03    -26.9335E-03     53.7668E-03    -26.8333E-03     2.35202E-03     54.2927E-03     203.698E+06    -64.8708E+06    -68.7414E+06    -270.465E+06    -68.7583E+06    -270.449E+06    -64.8708E+06    -511.275E+03
            1414     72.6792E-03     1.94744E-03     72.6531E-03     53.8122E-03    -26.8832E-03    -26.9290E-03    -26.8358E-03     53.7610E-03    -26.9251E-03     3.96641E-03     54.6540E-03     207.480E+06    -56.1026E+06    -64.8613E+06    -267.800E+06    -64.8622E+06    -267.799E+06    -56.1026E+06     307.151E+03
            1415     72.7168E-03     2.92111E-03     72.6581E-03     53.8450E-03    -26.8945E-03    -26.9505E-03    -26.7952E-03     53.7458E-03    -26.9505E-03     5.60643E-03     55.3624E-03     207.063E+06    -44.2077E+06    -60.1971E+06    -258.768E+06    -60.1984E+06    -258.767E+06    -44.2077E+06     429.115E+03
            1416     72.7693E-03     3.89488E-03     72.6650E-03     53.8858E-03    -26.9093E-03    -26.9765E-03    -26.7540E-03     53.7305E-03    -26.9765E-03     7.04495E-03     56.4338E-03     202.865E+06    -30.4625E+06    -54.8113E+06    -244.364E+06    -54.8127E+06    -244.362E+06    -30.4625E+06     497.250E+03
            1417     72.8361E-03     4.86875E-03     72.6732E-03     53.8933E-03    -26.9037E-03    -26.9896E-03    -26.6913E-03     53.6809E-03    -26.9896E-03     8.25642E-03     57.9037E-03     195.275E+06    -17.5819E+06    -48.2711E+06    -226.367E+06    -48.2736E+06    -226.365E+06    -17.5819E+06     67.0196E+03
            1418     72.9170E-03     5.84250E-03     72.6825E-03     53.8646E-03    -26.8876E-03    -26.9770E-03    -26.6211E-03     53.5981E-03    -26.9770E-03     9.24994E-03     59.8116E-03     182.417E+06    -7.96033E+06    -41.6636E+06    -204.866E+06    -41.6697E+06    -204.860E+06    -7.96033E+06    -706.751E+03
            1419     73.0115E-03     6.81643E-03     72.6926E-03     53.8048E-03    -26.8528E-03    -26.9521E-03    -26.5367E-03     53.4888E-03    -26.9521E-03     10.0711E-03     62.1508E-03     167.758E+06    -174.789E+03    -35.6800E+06    -182.830E+06    -35.6893E+06    -182.821E+06    -174.789E+03    -1.12389E+06
            1420     73.1199E-03     7.79058E-03     72.7037E-03     53.8046E-03    -26.8596E-03    -26.9450E-03    -26.5271E-03     53.4391E-03    -26.9120E-03     10.8310E-03     65.0963E-03     151.576E+06     3.76890E+06    -30.5885E+06    -162.036E+06    -30.5965E+06    -162.028E+06     3.76890E+06    -949.014E+03
            1421     73.2418E-03     8.76449E-03     72.7155E-03     53.8138E-03    -26.8605E-03    -26.9533E-03    -26.5221E-03     53.3825E-03    -26.8605E-03     11.7592E-03     68.7210E-03     130.979E+06     4.73899E+06    -26.4008E+06    -138.996E+06    -26.4058E+06    -138.991E+06     4.73899E+06    -704.553E+03
            1422     73.3777E-03     9.73836E-03     72.7286E-03     53.6690E-03    -26.7780E-03    -26.8910E-03    -26.3767E-03     53.1828E-03    -26.8061E-03     12.4746E-03     72.7696E-03     109.065E+06     5.54653E+06    -22.8496E+06    -114.901E+06    -22.8555E+06    -114.896E+06     5.54653E+06    -671.888E+03
            1423     73.5265E-03     10.7126E-03     72.7419E-03     53.5463E-03    -26.6981E-03    -26.8482E-03    -26.2554E-03     52.9816E-03    -26.7262E-03     13.4045E-03     77.9819E-03     84.3241E+06     2.60675E+06    -19.7787E+06    -90.6474E+06    -19.7836E+06    -90.6424E+06     2.60675E+06    -540.625E+03
            1424     73.6892E-03     11.6868E-03     72.7565E-03     53.5180E-03    -26.6317E-03    -26.8862E-03    -26.1785E-03     52.8102E-03    -26.6317E-03     14.9952E-03     84.6577E-03     52.1615E+06    -1.00108E+06    -17.4985E+06    -59.2405E+06    -17.5008E+06    -59.2382E+06    -1.00108E+06    -115.484E+03
            1425     73.8666E-03     12.6611E-03     72.7734E-03     53.4760E-03    -26.5218E-03    -26.9542E-03    -26.0303E-03     52.5521E-03    -26.5218E-03     17.0930E-03     92.3439E-03     26.7673E+06     2.53087E+06    -12.1299E+06    -28.0711E+06    -16.1680E+06    -16.8836E+06    -4.61855E+06     581.405E+03
            1426     74.0588E-03     13.6359E-03     72.7927E-03     53.6145E-03    -26.3841E-03    -27.2305E-03    -25.9464E-03     52.3305E-03    -26.3841E-03     20.1382E-03     100.390E-03     59.0404E+06     45.9786E+06    -8.47320E+06    -16.1481E+06    -16.1098E+06     45.9402E+06    -8.47320E+06     1.26206E+06
            1427     74.2667E-03     14.6097E-03     72.8156E-03     53.0897E-03    -26.2092E-03    -26.8805E-03    -25.6096E-03     51.9185E-03    -26.3089E-03     19.0108E-03     99.2661E-03     140.765E+06     134.918E+06     6.79676E+06    -15.4297E+06    -15.4106E+06     134.899E+06     6.79676E+06     1.23534E+06
            1428     74.4811E-03     15.5849E-03     72.8323E-03     53.0820E-03    -26.3051E-03    -26.7769E-03    -25.1452E-03     51.5501E-03    -26.4049E-03     21.2985E-03     109.451E-03     185.206E+06     194.319E+06     47.7708E+06    -12.3404E+06    -12.3311E+06     194.310E+06     47.7708E+06     1.15775E+06
            1429     74.7182E-03     16.5596E-03     72.8601E-03     52.6879E-03    -25.6760E-03    -27.0120E-03    -24.9225E-03     51.5625E-03    -26.6400E-03     11.9856E-03     97.9449E-03     188.582E+06     208.258E+06     103.759E+06    -7.15068E+06    -7.14502E+06     208.253E+06     103.759E+06     1.05287E+06
            1430     73.7105E-03     973.692E-06     73.7040E-03     53.8137E-03    -26.7941E-03    -27.0196E-03    -26.9816E-03     53.7955E-03    -26.8139E-03     2.33188E-03     54.3304E-03     203.424E+06    -66.4385E+06    -69.8224E+06    -271.519E+06    -69.5499E+06    -271.517E+06    -66.7131E+06      558.92E+03
            1431     73.7326E-03     1.94726E-03     73.7069E-03     53.8342E-03    -26.8941E-03    -26.9401E-03    -26.8437E-03     53.7838E-03    -26.9401E-03     3.91855E-03     54.6813E-03     206.889E+06    -56.9096E+06    -66.1204E+06    -268.214E+06    -66.1213E+06    -268.213E+06    -56.9096E+06     333.106E+03
            1432     73.7701E-03     2.92111E-03     73.7123E-03     53.8896E-03    -26.9197E-03    -26.9700E-03    -26.8195E-03     53.7894E-03    -26.9700E-03     5.63546E-03     55.3761E-03     207.479E+06    -44.2172E+06    -60.9083E+06    -259.507E+06    -60.9091E+06    -259.507E+06    -44.2172E+06     366.054E+03
            1433     73.8218E-03     3.89478E-03     73.7189E-03     53.9127E-03    -26.9207E-03    -26.9920E-03    -26.7646E-03     53.7566E-03    -26.9920E-03     7.06686E-03     56.4495E-03     202.507E+06    -30.7642E+06    -54.6327E+06    -244.119E+06    -54.6336E+06    -244.118E+06    -30.7642E+06     120.727E+03
            1434     73.8878E-03     4.86855E-03     73.7272E-03     53.8840E-03    -26.8851E-03    -26.9988E-03    -26.6709E-03     53.6698E-03    -26.9988E-03     8.28836E-03     57.8951E-03     194.360E+06    -18.1397E+06    -48.1622E+06    -225.740E+06    -48.1657E+06    -225.736E+06    -18.1397E+06    -544.019E+03
            1435     73.9676E-03     5.84258E-03     73.7365E-03     53.8486E-03    -26.8680E-03    -26.9806E-03    -26.5998E-03     53.5804E-03    -26.9806E-03     9.28002E-03     59.7882E-03     181.202E+06    -8.60323E+06    -41.9426E+06    -204.150E+06    -41.9561E+06    -204.136E+06    -8.60323E+06    -1.32671E+06
            1436     74.0611E-03     6.81652E-03     73.7468E-03     53.8474E-03    -26.8872E-03    -26.9602E-03    -26.5745E-03     53.5312E-03    -26.9566E-03     10.0799E-03     62.1891E-03     167.166E+06    -937.825E+03    -36.2323E+06    -182.917E+06    -36.2507E+06    -182.899E+06    -937.825E+03    -1.56880E+06
            1437     74.1679E-03     7.79036E-03     73.7577E-03     53.8540E-03    -26.8991E-03    -26.9548E-03    -26.5621E-03     53.4845E-03    -26.9224E-03     10.8923E-03     65.1414E-03     151.165E+06     3.32813E+06    -31.2584E+06    -162.133E+06    -31.2739E+06    -162.117E+06     3.32813E+06    -1.40377E+06
            1438     74.2887E-03     8.76426E-03     73.7699E-03     53.7781E-03    -26.8528E-03    -26.9252E-03    -26.4747E-03     53.3435E-03    -26.8688E-03     11.8010E-03     68.6888E-03     130.690E+06     4.23486E+06    -26.8498E+06    -139.191E+06    -26.8660E+06    -139.175E+06     4.23486E+06    -1.29951E+06
            1439     74.4225E-03     9.73838E-03     73.7826E-03     53.6023E-03    -26.7626E-03    -26.8397E-03    -26.3098E-03     53.1164E-03    -26.8066E-03     12.4596E-03     72.6953E-03     109.019E+06     4.79811E+06    -23.0741E+06    -115.446E+06    -23.0917E+06    -115.429E+06     4.79811E+06    -1.23507E+06
            1440     74.5693E-03     10.7128E-03     73.7958E-03     53.5595E-03    -26.6956E-03    -26.8639E-03    -26.2651E-03     52.9888E-03    -26.7237E-03     13.4755E-03     77.9571E-03     84.0383E+06     1.84744E+06    -20.2508E+06    -91.0307E+06    -20.2636E+06    -91.0179E+06     1.84744E+06    -928.172E+03
            1441     74.7303E-03     11.6869E-03     73.8108E-03     53.5896E-03    -26.6338E-03    -26.9558E-03    -26.2527E-03     52.8864E-03    -26.6338E-03     14.9688E-03     84.7151E-03     51.9770E+06    -1.74025E+06    -18.3831E+06    -59.8165E+06    -18.3887E+06    -59.8109E+06    -1.74025E+06    -429.221E+03
            1442     74.9050E-03     12.6611E-03     73.8272E-03     53.5164E-03    -26.5291E-03    -26.9874E-03    -26.0799E-03     52.6090E-03    -26.5291E-03     16.9437E-03     92.4374E-03     26.6611E+06     1.49809E+06    -13.1136E+06    -28.9998E+06    -17.0917E+06    -18.0649E+06    -5.45872E+06     350.010E+03
            1443     75.0948E-03     13.6353E-03     73.8466E-03     53.5046E-03    -26.3895E-03    -27.1151E-03    -25.8303E-03     52.2198E-03    -26.3895E-03     20.1037E-03     100.320E-03     57.7475E+06     44.7701E+06    -8.74761E+06    -15.7699E+06    -15.7305E+06     44.7307E+06    -8.74761E+06     1.38332E+06
            1444     75.3010E-03     14.6102E-03     73.8700E-03     53.0198E-03    -26.2539E-03    -26.7659E-03    -25.5447E-03     51.8560E-03    -26.3113E-03     18.9032E-03     99.2088E-03     140.034E+06     135.008E+06     7.74063E+06    -14.5813E+06    -14.5561E+06     134.983E+06     7.74063E+06     1.51109E+06
            1445     75.5117E-03     15.5845E-03     73.8860E-03     53.1056E-03    -26.3477E-03    -26.7579E-03    -25.1992E-03     51.6044E-03    -26.4051E-03     21.0708E-03     109.547E-03     185.321E+06     194.471E+06     48.0766E+06    -12.4941E+06    -12.4840E+06     194.461E+06     48.0766E+06     1.10817E+06
            1446     75.7467E-03     16.5599E-03     73.9144E-03     52.6343E-03    -25.6428E-03    -26.9916E-03    -24.8876E-03     51.5264E-03    -26.6388E-03     11.9483E-03     97.9475E-03     189.107E+06     208.549E+06     103.551E+06    -7.47951E+06    -7.47507E+06     208.544E+06     103.551E+06     910.962E+03
            1447     74.7640E-03     973.565E-06     74.7577E-03     53.8079E-03    -26.8359E-03    -26.9720E-03    -26.9420E-03     53.7893E-03    -26.8473E-03     2.30667E-03     54.2965E-03     203.480E+06    -68.0643E+06    -70.0273E+06    -272.515E+06    -69.6432E+06    -272.509E+06    -68.4548E+06     71.5568E+03
            1448     74.7865E-03     1.94740E-03     74.7612E-03     53.8840E-03    -26.9239E-03    -26.9601E-03    -26.8886E-03     53.8324E-03    -26.9438E-03     3.99293E-03     54.7186E-03     206.322E+06    -57.8348E+06    -66.4175E+06    -268.262E+06    -66.4187E+06    -268.261E+06    -57.8348E+06     331.494E+03
            1449     74.8232E-03     2.92093E-03     74.7661E-03     53.9210E-03    -26.9292E-03    -26.9917E-03    -26.8309E-03     53.8198E-03    -26.9889E-03     5.65788E-03     55.3940E-03     207.762E+06    -43.9070E+06    -61.1643E+06    -259.737E+06    -61.1647E+06    -259.736E+06    -43.9070E+06    -62.4562E+03
            1450     74.8746E-03     3.89478E-03     74.7732E-03     53.8985E-03    -26.8963E-03    -27.0022E-03    -26.7384E-03     53.7406E-03    -27.0022E-03     7.10771E-03     56.4325E-03     202.061E+06    -31.0452E+06    -54.9343E+06    -243.962E+06    -54.9358E+06     -243.96E+06    -31.0452E+06    -387.594E+03
            1451     74.9394E-03     4.86863E-03     74.7811E-03     53.8920E-03    -26.8904E-03    -27.0016E-03    -26.6748E-03     53.6764E-03    -27.0016E-03     8.31504E-03     57.8986E-03     192.909E+06    -18.7693E+06    -48.5889E+06    -224.827E+06    -48.5949E+06    -224.821E+06    -18.7693E+06    -944.059E+03
            1452     75.0185E-03     5.84245E-03     74.7906E-03     53.8815E-03    -26.8961E-03    -26.9854E-03    -26.6276E-03     53.6131E-03    -26.9854E-03     9.28856E-03     59.8177E-03     179.624E+06    -9.26595E+06    -42.6171E+06    -203.215E+06    -42.6378E+06    -203.195E+06    -9.26595E+06    -1.71045E+06
            1453     75.1107E-03     6.81636E-03     74.8007E-03     53.8768E-03    -26.9087E-03    -26.9681E-03    -26.5954E-03     53.5599E-03    -26.9645E-03     10.0915E-03     62.2193E-03     166.321E+06    -1.94273E+06    -37.1835E+06    -183.048E+06    -37.2142E+06    -183.017E+06    -1.94273E+06    -2.07160E+06
            1454     75.2165E-03     7.79029E-03     74.8120E-03     53.8214E-03    -26.8833E-03    -26.9380E-03    -26.5195E-03     53.4471E-03    -26.9275E-03     10.9568E-03     65.1096E-03     150.488E+06     2.28364E+06    -31.9426E+06    -162.369E+06    -31.9771E+06    -162.335E+06     2.28364E+06    -2.03920E+06
            1455     75.3353E-03     8.76433E-03     74.8238E-03     53.7016E-03    -26.8274E-03    -26.8742E-03    -26.3989E-03     53.2661E-03    -26.8673E-03     11.8043E-03     68.6010E-03     130.307E+06     3.39444E+06    -27.2313E+06    -139.496E+06    -27.2720E+06    -139.455E+06     3.39444E+06    -2.08606E+06
            1456     75.4676E-03     9.73858E-03     74.8366E-03     53.6407E-03    -26.7866E-03    -26.8541E-03    -26.3551E-03     53.1590E-03    -26.8039E-03     12.4132E-03     72.7300E-03     108.596E+06     4.09699E+06    -23.5367E+06    -115.636E+06    -23.5733E+06    -115.600E+06     4.09699E+06    -1.81043E+06
            1457     75.6124E-03     10.7125E-03     74.8497E-03     53.6167E-03    -26.7271E-03    -26.8896E-03    -26.3246E-03     53.0517E-03    -26.7271E-03     13.4177E-03     78.0174E-03     83.7272E+06     1.40444E+06    -20.6981E+06    -91.1535E+06    -20.7258E+06    -91.1258E+06     1.40444E+06    -1.36331E+06
            1458     75.7717E-03     11.6867E-03     74.8650E-03     53.5874E-03    -26.6392E-03    -26.9482E-03    -26.2444E-03     52.8836E-03    -26.6392E-03     14.9694E-03     84.7143E-03     52.4188E+06    -2.40194E+06    -18.7310E+06    -60.8824E+06    -18.7455E+06    -60.8679E+06    -2.40194E+06    -711.467E+03
            1459     75.9441E-03     12.6608E-03     74.8813E-03     53.5855E-03    -26.5348E-03    -27.0506E-03    -26.1423E-03     52.6771E-03    -26.5348E-03     16.9723E-03     92.4991E-03     26.8206E+06     819.576E+03    -13.6365E+06    -29.7542E+06    -17.3504E+06    -18.9778E+06    -6.24299E+06     6.49170E+03
            1460     76.1316E-03     13.6353E-03     74.9006E-03     53.5371E-03    -26.3985E-03    -27.1386E-03    -25.8633E-03     52.2618E-03    -26.3985E-03     20.0357E-03     100.383E-03     57.6452E+06     44.0853E+06    -9.48383E+06    -16.3501E+06    -16.3359E+06     44.0711E+06    -9.48383E+06     851.603E+03
            1461     76.3346E-03     14.6099E-03     74.9234E-03     52.9068E-03    -26.1733E-03    -26.7335E-03    -25.4279E-03     51.7404E-03    -26.3125E-03     18.9177E-03     99.1047E-03     140.461E+06     134.589E+06     6.23887E+06    -15.1001E+06    -15.0808E+06     134.569E+06     6.23887E+06     1.61676E+06
            1462     76.5445E-03     15.5848E-03     74.9412E-03     53.0482E-03    -26.2612E-03    -26.7870E-03    -25.1575E-03     51.5579E-03    -26.4004E-03     21.0323E-03     109.529E-03     185.392E+06     194.300E+06     46.7902E+06    -12.2678E+06    -12.2574E+06     194.290E+06     46.7902E+06     1.28360E+06
            1463     76.7743E-03     16.5595E-03     74.9672E-03     52.6551E-03    -25.6284E-03    -27.0267E-03    -24.9285E-03     51.5685E-03    -26.6400E-03     11.9948E-03     98.0129E-03     188.931E+06     208.873E+06     103.654E+06    -6.94776E+06    -6.94500E+06     208.870E+06     103.654E+06     760.028E+03
            1464     75.8181E-03     973.828E-06     75.8118E-03     53.8233E-03    -26.8661E-03    -26.9572E-03    -26.9365E-03     53.8040E-03    -26.8674E-03     2.37325E-03     54.2486E-03     205.036E+06    -66.7042E+06    -69.5417E+06    -273.136E+06    -69.4311E+06    -273.130E+06    -66.8200E+06    -237.493E+03
            1465     75.8402E-03     1.94725E-03     75.8152E-03     53.9013E-03    -26.9328E-03    -26.9685E-03    -26.9030E-03     53.8494E-03    -26.9464E-03     4.00452E-03     54.7093E-03     206.186E+06    -58.3999E+06    -66.5148E+06    -268.502E+06    -66.5159E+06    -268.501E+06    -58.3999E+06     221.213E+03
            1466     75.8766E-03     2.92099E-03     75.8204E-03     53.9182E-03    -26.9280E-03    -26.9902E-03    -26.8295E-03     53.8170E-03    -26.9874E-03     5.66116E-03     55.4085E-03     206.247E+06    -45.4541E+06    -61.8220E+06    -259.348E+06    -61.8234E+06    -259.346E+06    -45.4541E+06    -258.119E+03
            1467     75.9269E-03     3.89473E-03     75.8270E-03     53.9177E-03    -26.9089E-03    -27.0088E-03    -26.7511E-03     53.7599E-03    -27.0088E-03     7.10751E-03     56.4482E-03     201.299E+06    -31.2067E+06    -55.7856E+06    -243.641E+06    -55.7915E+06    -243.635E+06    -31.2067E+06    -927.780E+03
            1468     75.9915E-03     4.86857E-03     75.8353E-03     53.9164E-03    -26.9090E-03    -27.0074E-03    -26.6950E-03     53.7023E-03    -27.0074E-03     8.28953E-03     57.9283E-03     191.399E+06    -19.2494E+06    -48.9463E+06    -223.745E+06    -48.9685E+06    -223.723E+06    -19.2494E+06    -1.76191E+06
            1469     76.0693E-03     5.84244E-03     75.8446E-03     53.9141E-03    -26.9198E-03    -26.9943E-03    -26.6494E-03     53.6437E-03    -26.9943E-03     9.32188E-03     59.8502E-03     178.938E+06    -9.56754E+06    -42.4620E+06    -202.656E+06    -42.4899E+06    -202.628E+06    -9.56754E+06    -2.03276E+06
            1470     76.1607E-03     6.81625E-03     75.8550E-03     53.8697E-03    -26.8974E-03    -26.9723E-03    -26.5767E-03     53.5490E-03    -26.9723E-03     10.1529E-03     62.2227E-03     165.722E+06    -2.20034E+06    -36.9773E+06    -182.541E+06    -37.0213E+06    -182.497E+06    -2.20034E+06    -2.38671E+06
            1471     76.2648E-03     7.79026E-03     75.8659E-03     53.7744E-03    -26.8470E-03    -26.9273E-03    -26.4752E-03     53.4026E-03    -26.9273E-03     10.9155E-03     65.0613E-03     149.685E+06     1.35695E+06    -31.9343E+06    -162.169E+06    -32.0090E+06    -162.094E+06     1.35695E+06    -3.06853E+06
            1472     76.3824E-03     8.76440E-03     75.8779E-03     53.7030E-03    -26.8286E-03    -26.8744E-03    -26.4095E-03     53.2749E-03    -26.8654E-03     11.7059E-03     68.5979E-03      129.97E+06     2.36720E+06    -27.5641E+06    -139.952E+06    -27.6415E+06    -139.875E+06     2.36720E+06    -2.92106E+06
            1473     76.5127E-03     9.73837E-03     75.8905E-03     53.6797E-03    -26.8034E-03    -26.8763E-03    -26.3894E-03     53.1942E-03    -26.8048E-03     12.4633E-03     72.7439E-03     108.375E+06     3.26123E+06    -23.7735E+06    -116.065E+06    -23.8397E+06    -115.998E+06     3.26123E+06    -2.44441E+06
            1474     76.6564E-03     10.7125E-03     75.9042E-03     53.6365E-03    -26.7296E-03    -26.9069E-03    -26.3394E-03     53.0691E-03    -26.7296E-03     13.4587E-03     78.0174E-03     83.5906E+06     587.628E+03    -20.7693E+06    -91.6052E+06    -20.8195E+06    -91.5550E+06     587.628E+03    -1.86474E+06
            1475     76.8128E-03     11.6867E-03     75.9186E-03     53.5767E-03    -26.6411E-03    -26.9356E-03    -26.2227E-03     52.8638E-03    -26.6411E-03     15.0509E-03     84.6894E-03     52.7383E+06    -3.36523E+06    -18.7921E+06    -62.0028E+06    -18.8260E+06    -61.9690E+06    -3.36523E+06    -1.10596E+06
            1476     76.9841E-03     12.6610E-03     75.9358E-03     53.5845E-03    -26.5346E-03    -27.0500E-03    -26.1316E-03     52.6662E-03    -26.5346E-03     17.0809E-03     92.4566E-03     26.8919E+06     24.5929E+03    -13.9059E+06    -30.4571E+06    -17.2860E+06    -19.9032E+06    -7.14915E+06    -276.964E+03
            1477     77.1684E-03     13.6351E-03     75.9543E-03     53.6129E-03    -26.4005E-03    -27.2124E-03    -25.9349E-03     52.3354E-03    -26.4005E-03     20.0626E-03     100.407E-03     57.0612E+06     43.0177E+06    -10.3955E+06    -16.6161E+06    -16.6032E+06     43.0047E+06    -10.3955E+06     821.949E+03
            1478     77.3698E-03     14.6095E-03     75.9780E-03     52.8884E-03    -26.1016E-03    -26.7868E-03    -25.3986E-03     51.7090E-03    -26.3104E-03     19.0233E-03     99.0895E-03     141.136E+06     134.053E+06     4.34133E+06    -15.9179E+06    -15.9019E+06     134.037E+06     4.34133E+06     1.37905E+06
            1479     77.5756E-03     15.5848E-03     75.9940E-03     52.9939E-03    -26.1862E-03    -26.8077E-03    -25.0778E-03     51.4728E-03    -26.3950E-03     21.2244E-03     109.387E-03     186.812E+06     194.610E+06     45.1862E+06    -13.1591E+06    -13.1544E+06     194.605E+06     45.1862E+06     891.365E+03
            1480     77.8055E-03     16.5597E-03     76.0228E-03     52.6784E-03    -25.6266E-03    -27.0517E-03    -24.9245E-03     51.5636E-03    -26.6390E-03     11.9784E-03     97.9032E-03     189.955E+06     209.266E+06     103.387E+06    -7.72662E+06    -7.72471E+06     209.264E+06     103.387E+06     557.843E+03
            1481     76.8722E-03     973.503E-06     76.8660E-03     53.8567E-03    -26.8402E-03    -27.0165E-03    -26.9826E-03     53.8369E-03    -26.8543E-03     2.44080E-03     54.2864E-03     203.745E+06    -68.2651E+06    -71.2326E+06    -273.469E+06    -71.0975E+06    -273.468E+06    -68.4011E+06     136.989E+03
            1482     76.8939E-03     1.94731E-03     76.8692E-03     53.8782E-03    -26.9142E-03    -26.9640E-03    -26.8679E-03     53.8261E-03    -26.9582E-03     4.00210E-03     54.6667E-03     206.211E+06    -58.5850E+06    -67.1814E+06    -268.934E+06    -67.1820E+06    -268.933E+06    -58.5850E+06    -127.970E+03
            1483     76.9298E-03     2.92101E-03     76.8744E-03     53.9275E-03    -26.9386E-03    -26.9889E-03    -26.8372E-03     53.8261E-03    -26.9889E-03     5.66972E-03     55.3892E-03     205.764E+06    -45.4206E+06    -62.0622E+06    -258.956E+06    -62.0636E+06    -258.954E+06    -45.4206E+06    -156.899E+03
            1484     76.9798E-03     3.89472E-03     76.8812E-03     53.9722E-03    -26.9591E-03    -27.0131E-03    -26.8013E-03     53.8143E-03    -27.0131E-03     7.10987E-03     56.4919E-03     199.241E+06    -31.8073E+06    -56.4381E+06    -242.186E+06    -56.4521E+06    -242.172E+06    -31.8073E+06    -1.19728E+06
            1485     77.0433E-03     4.86844E-03     76.8894E-03     53.9440E-03    -26.9271E-03    -27.0169E-03    -26.7130E-03     53.7299E-03    -27.0169E-03     8.29424E-03     57.9610E-03     188.725E+06    -20.2957E+06    -50.2208E+06    -222.180E+06    -50.2655E+06    -222.136E+06    -20.2957E+06    -2.66985E+06
            1486     77.1203E-03     5.84229E-03     76.8987E-03     53.8780E-03    -26.8790E-03    -26.9990E-03    -26.6081E-03     53.6071E-03    -26.9990E-03     9.32483E-03     59.8212E-03     177.482E+06    -11.3141E+06    -43.5048E+06    -202.682E+06    -43.5791E+06    -202.608E+06    -11.3141E+06    -3.20549E+06
            1487     77.2105E-03     6.81630E-03     76.9091E-03     53.8286E-03    -26.8594E-03    -26.9692E-03    -26.5368E-03     53.5059E-03    -26.9692E-03     10.1778E-03     62.1760E-03     164.268E+06    -3.45940E+06    -36.8197E+06    -181.834E+06    -36.9114E+06    -181.743E+06    -3.45940E+06    -3.42344E+06
            1488     77.3135E-03     7.79024E-03     76.9200E-03     53.7870E-03    -26.8626E-03    -26.9244E-03    -26.4908E-03     53.4152E-03    -26.9244E-03     10.9187E-03     65.0683E-03     148.816E+06     635.462E+03    -31.5734E+06    -161.647E+06    -31.6792E+06    -161.541E+06     635.462E+03    -3.69706E+06
            1489     77.4294E-03     8.76421E-03     76.9318E-03     53.7420E-03    -26.8499E-03    -26.8921E-03    -26.4423E-03     53.3080E-03    -26.8657E-03     11.7872E-03     68.6190E-03     129.638E+06     1.53017E+06    -27.5291E+06    -140.167E+06    -27.6433E+06    -140.052E+06     1.53017E+06    -3.56620E+06
            1490     77.5585E-03     9.73836E-03     76.9447E-03     53.6743E-03    -26.8054E-03    -26.8690E-03    -26.3792E-03     53.1846E-03    -26.8054E-03     12.5180E-03     72.7055E-03     107.848E+06     2.21211E+06    -24.1409E+06    -116.364E+06    -24.2516E+06    -116.253E+06     2.21211E+06    -3.16712E+06
            1491     77.7001E-03     10.7126E-03     76.9580E-03     53.6228E-03    -26.7295E-03    -26.8933E-03    -26.3270E-03     53.0565E-03    -26.7295E-03     13.4404E-03     78.0000E-03     83.7485E+06    -564.297E+03    -21.2038E+06    -92.6950E+06    -21.2954E+06    -92.6034E+06    -564.297E+03    -2.51891E+06
            1492     77.8551E-03     11.6866E-03     76.9730E-03     53.5817E-03    -26.6418E-03    -26.9399E-03    -26.2342E-03     52.8760E-03    -26.6418E-03     14.9824E-03     84.7152E-03     52.8778E+06    -4.04688E+06    -18.9077E+06    -62.6582E+06    -18.9861E+06    -62.5798E+06    -4.04688E+06    -1.76921E+06
            1493     78.0235E-03     12.6609E-03     76.9894E-03     53.5558E-03    -26.5346E-03    -27.0212E-03    -26.0945E-03     52.6290E-03    -26.5346E-03     17.1340E-03     92.4179E-03     26.0379E+06    -1.14793E+06    -14.4952E+06    -30.5918E+06    -17.3596E+06    -21.0307E+06    -7.84463E+06    -773.358E+03
            1494     78.2069E-03     13.6352E-03     77.0091E-03     53.5498E-03    -26.3966E-03    -27.1532E-03    -25.8818E-03     52.2784E-03    -26.3966E-03     20.0257E-03     100.364E-03     54.7676E+06     40.6942E+06    -11.2865E+06    -16.0740E+06    -16.0634E+06     40.6836E+06    -11.2865E+06     385.475E+03
            1495     78.4044E-03     14.6100E-03     77.0311E-03     52.9496E-03    -26.1997E-03    -26.7500E-03    -25.4726E-03     51.7812E-03    -26.3086E-03     18.9830E-03     99.1542E-03     139.953E+06     133.545E+06     4.49526E+06    -14.8204E+06    -14.8040E+06     133.528E+06     4.49526E+06     1.34428E+06
            1496     78.6090E-03     15.5845E-03     77.0487E-03     53.0573E-03    -26.2874E-03    -26.7700E-03    -25.1271E-03     51.5234E-03    -26.3963E-03     21.3538E-03     109.416E-03     187.816E+06     196.043E+06     45.5364E+06    -12.7777E+06    -12.7670E+06     196.033E+06     45.5364E+06     1.25364E+06
            1497     78.8348E-03     16.5597E-03     77.0760E-03     52.6154E-03    -25.6030E-03    -27.0124E-03    -24.8599E-03     51.4987E-03    -26.6387E-03     11.8419E-03     97.8535E-03     190.530E+06     209.718E+06     103.028E+06    -7.90387E+06    -7.90041E+06     209.715E+06     103.028E+06     114.437E+03
            1498     77.9261E-03     973.702E-06     77.9200E-03     53.8400E-03    -26.8516E-03    -26.9884E-03    -26.9528E-03     53.8199E-03    -26.8671E-03     2.44884E-03     54.2890E-03     200.658E+06    -71.1691E+06    -73.6158E+06    -273.031E+06    -73.4534E+06    -273.029E+06    -71.3341E+06     -328.15E+03
            1499     77.9476E-03     1.94728E-03     77.9233E-03     53.8801E-03    -26.9241E-03    -26.9561E-03    -26.8720E-03     53.8281E-03    -26.9561E-03     4.01171E-03     54.6614E-03     204.180E+06    -60.6744E+06    -69.7853E+06    -269.220E+06    -69.7867E+06    -269.218E+06    -60.6744E+06    -376.194E+03
            1500     77.9832E-03     2.92098E-03     77.9285E-03     53.9502E-03    -26.9568E-03    -26.9935E-03    -26.8544E-03     53.8479E-03    -26.9935E-03     5.69141E-03     55.3895E-03     203.554E+06    -46.9006E+06    -64.2036E+06    -258.525E+06    -64.2131E+06    -258.516E+06    -46.9006E+06    -683.424E+03
            1501     78.0326E-03     3.89464E-03     77.9354E-03     53.9742E-03    -26.9591E-03    -27.0151E-03    -26.8001E-03     53.8153E-03    -27.0151E-03     7.13855E-03     56.4856E-03     196.142E+06    -33.3566E+06    -57.3268E+06    -240.354E+06    -57.3518E+06    -240.329E+06    -33.3566E+06    -1.76614E+06
            1502     78.0954E-03     4.86839E-03     77.9435E-03     53.9466E-03    -26.9277E-03    -27.0189E-03    -26.7118E-03     53.7307E-03    -27.0189E-03     8.32562E-03     57.9618E-03     185.998E+06    -21.4254E+06    -50.7460E+06    -220.320E+06    -50.8078E+06    -220.259E+06    -21.4254E+06    -3.09364E+06
            1503     78.1714E-03     5.84225E-03     77.9528E-03     53.8686E-03    -26.8697E-03    -26.9989E-03    -26.5988E-03     53.5977E-03    -26.9989E-03     9.32689E-03     59.8160E-03     174.774E+06    -12.6962E+06    -44.3289E+06    -201.124E+06    -44.4844E+06    -200.968E+06    -12.6962E+06    -4.76032E+06
            1504     78.2604E-03     6.81624E-03     77.9630E-03     53.7921E-03    -26.8270E-03    -26.9651E-03    -26.5034E-03     53.4685E-03    -26.9651E-03     10.1859E-03     62.1187E-03     162.514E+06    -5.45082E+06    -37.9889E+06    -181.761E+06    -38.1739E+06    -181.576E+06    -5.45082E+06    -5.08671E+06
            1505     78.3624E-03     7.79029E-03     77.9742E-03     53.7717E-03    -26.8516E-03    -26.9201E-03    -26.4792E-03     53.3993E-03    -26.9201E-03     10.9296E-03     65.0458E-03     147.496E+06    -749.080E+03    -32.5389E+06    -161.547E+06    -32.6960E+06    -161.390E+06    -749.080E+03    -4.44542E+06
            1506     78.4768E-03     8.76435E-03     77.9858E-03     53.7593E-03    -26.8593E-03    -26.9001E-03    -26.4609E-03     53.3243E-03    -26.8634E-03     11.8014E-03     68.6418E-03     128.491E+06     681.834E+03    -28.0352E+06    -139.736E+06    -28.2128E+06    -139.558E+06     681.834E+03    -4.39307E+06
            1507     78.6044E-03     9.73832E-03     77.9988E-03     53.6835E-03    -26.8054E-03    -26.8781E-03    -26.3887E-03     53.1942E-03    -26.8054E-03     12.5173E-03     72.7369E-03     107.753E+06     1.42476E+06    -24.2060E+06    -116.825E+06    -24.3941E+06    -116.637E+06     1.42476E+06    -4.13014E+06
            1508     78.7441E-03     10.7123E-03     78.0121E-03     53.6167E-03    -26.7285E-03    -26.8882E-03    -26.3169E-03     53.0454E-03    -26.7285E-03     13.4899E-03     78.0083E-03     84.0106E+06    -1.62603E+06    -21.2696E+06    -93.7060E+06    -21.4428E+06    -93.5329E+06    -1.62603E+06    -3.49467E+06
            1509     78.8974E-03     11.6867E-03     78.0270E-03     53.5906E-03    -26.6404E-03    -26.9502E-03    -26.2415E-03     52.8819E-03    -26.6404E-03     15.0257E-03     84.7279E-03     53.1619E+06    -4.96385E+06    -18.7235E+06    -63.5682E+06    -18.8684E+06    -63.4233E+06    -4.96385E+06    -2.49908E+06
            1510     79.0638E-03     12.6608E-03     78.0435E-03     53.5117E-03    -26.5318E-03    -26.9798E-03    -26.0538E-03     52.5857E-03    -26.5318E-03     17.1098E-03     92.3932E-03     25.6968E+06    -2.49686E+06    -15.0239E+06    -31.3516E+06    -17.4733E+06    -22.4654E+06    -8.93372E+06    -1.27736E+06
            1511     79.2447E-03     13.6353E-03     78.0628E-03     53.5375E-03    -26.3926E-03    -27.1449E-03    -25.8717E-03     52.2643E-03    -26.3926E-03     20.0456E-03     100.368E-03     54.2598E+06     39.3035E+06    -12.4156E+06    -16.8702E+06    -16.8554E+06     39.2887E+06    -12.4156E+06    -286.851E+03
            1512     79.4403E-03     14.6096E-03     78.0854E-03     52.9963E-03    -26.2025E-03    -26.7939E-03    -25.5391E-03     51.8425E-03    -26.3035E-03     18.8637E-03     99.2200E-03     139.844E+06     132.493E+06     2.94717E+06    -15.4289E+06    -15.4211E+06     132.486E+06     2.94717E+06     807.597E+03
            1513     79.6423E-03     15.5847E-03     78.1026E-03     53.0505E-03    -26.2901E-03    -26.7604E-03    -25.1198E-03     51.5108E-03    -26.3911E-03     21.3398E-03     109.455E-03     188.148E+06     196.648E+06     44.4870E+06    -12.0469E+06    -12.0375E+06     196.638E+06     44.4870E+06     1.08886E+06
            1514     79.8659E-03     16.5594E-03     78.1303E-03     52.6006E-03    -25.5954E-03    -27.0052E-03    -24.8310E-03     51.4668E-03    -26.6358E-03     11.9502E-03     97.8912E-03     190.107E+06     210.634E+06     102.989E+06    -6.38623E+06    -6.38288E+06     210.631E+06     102.989E+06     40.8826E+03
            1515     78.9801E-03     973.584E-06     78.9741E-03     53.8507E-03    -26.9012E-03    -26.9495E-03    -26.9282E-03     53.8313E-03    -26.9031E-03     2.38215E-03     54.2383E-03     200.507E+06    -70.5034E+06    -73.8090E+06    -272.622E+06    -73.7835E+06    -272.618E+06    -70.5324E+06    -43.1684E+03
            1516     79.0014E-03     1.94730E-03     78.9774E-03     53.9341E-03    -26.9651E-03    -26.9690E-03    -26.9127E-03     53.8818E-03    -26.9690E-03     4.02009E-03     54.6701E-03     203.428E+06    -60.9438E+06    -70.6280E+06    -269.020E+06    -70.6344E+06    -269.013E+06    -60.9438E+06    -377.788E+03
            1517     79.0366E-03     2.92087E-03     78.9826E-03     53.9634E-03    -26.9601E-03    -27.0033E-03    -26.8573E-03     53.8606E-03    -27.0033E-03     5.70516E-03     55.4004E-03     200.698E+06    -48.2650E+06    -64.6835E+06    -256.639E+06    -64.7112E+06    -256.611E+06    -48.2650E+06    -1.89193E+06
            1518     79.0855E-03     3.89462E-03     78.9895E-03     53.9392E-03    -26.9229E-03    -27.0163E-03    -26.7622E-03     53.7785E-03    -27.0163E-03     7.17133E-03     56.4479E-03     193.557E+06    -34.8085E+06    -57.5088E+06    -238.693E+06    -57.5792E+06    -238.622E+06    -34.8085E+06    -3.33561E+06
            1519     79.1475E-03     4.86843E-03     78.9976E-03     53.9255E-03    -26.9120E-03    -27.0134E-03    -26.6948E-03     53.7082E-03    -27.0134E-03     8.35243E-03     57.9387E-03     183.751E+06    -22.1188E+06    -49.8311E+06    -218.131E+06    -49.9634E+06    -217.999E+06    -22.1188E+06    -4.44497E+06
            1520     79.2226E-03     5.84227E-03     79.0069E-03     53.8947E-03    -26.8955E-03    -26.9992E-03    -26.6266E-03     53.6259E-03    -26.9992E-03     9.29570E-03     59.8488E-03     173.247E+06    -12.2117E+06    -43.3127E+06    -198.893E+06    -43.5091E+06    -198.697E+06    -12.2117E+06    -5.43935E+06
            1521     79.3105E-03     6.81616E-03     79.0170E-03     53.8150E-03    -26.8457E-03    -26.9694E-03    -26.5249E-03     53.4943E-03    -26.9694E-03     10.1426E-03     62.1564E-03     161.844E+06    -5.82224E+06    -38.3715E+06    -181.461E+06    -38.6165E+06    -181.216E+06    -5.82224E+06    -5.84559E+06
            1522     79.4112E-03     7.79024E-03     79.0282E-03     53.7801E-03    -26.8507E-03    -26.9294E-03    -26.4847E-03     53.4059E-03    -26.9211E-03     10.9542E-03     65.0462E-03     146.235E+06    -2.11822E+06    -33.2141E+06    -161.399E+06    -33.4955E+06    -161.118E+06    -2.11822E+06    -5.92679E+06
            1523     79.5245E-03     8.76416E-03     79.0401E-03     53.7375E-03    -26.8460E-03    -26.8915E-03    -26.4439E-03     53.3080E-03    -26.8640E-03     11.7292E-03     68.6420E-03     127.619E+06    -397.480E+03    -28.1936E+06    -139.619E+06    -28.4986E+06    -139.314E+06    -397.480E+03    -5.76109E+06
            1524     79.6504E-03     9.73826E-03     79.0529E-03     53.6409E-03    -26.7865E-03    -26.8544E-03    -26.3472E-03     53.1504E-03    -26.8032E-03     12.5208E-03     72.7113E-03     107.656E+06     368.305E+03    -24.0767E+06    -117.405E+06    -24.3920E+06    -117.090E+06     368.305E+03    -5.36779E+06
            1525     79.7886E-03     10.7126E-03     79.0661E-03     53.6326E-03    -26.7251E-03    -26.9075E-03    -26.3316E-03     53.0567E-03    -26.7251E-03     13.5561E-03     78.0187E-03     84.0188E+06    -2.42532E+06    -20.8591E+06    -94.1202E+06    -21.1566E+06    -93.8228E+06    -2.42532E+06    -4.62021E+06
            1526     79.9399E-03     11.6865E-03     79.0811E-03     53.5676E-03    -26.6367E-03    -26.9309E-03    -26.2268E-03     52.8635E-03    -26.6367E-03     14.9684E-03     84.7423E-03     53.9380E+06    -6.28776E+06    -18.7615E+06    -65.3267E+06    -19.0379E+06    -65.0504E+06    -6.28776E+06    -3.47516E+06
            1527     80.1044E-03     12.6609E-03     79.0975E-03     53.4806E-03    -26.5268E-03    -26.9538E-03    -26.0358E-03     52.5626E-03    -26.5268E-03     17.0375E-03     92.4120E-03      25.679E+06    -3.90989E+06    -15.4804E+06    -32.3424E+06    -17.2357E+06    -24.3440E+06    -10.1531E+06    -2.00422E+06
            1528     80.2829E-03     13.6353E-03     79.1165E-03     53.5909E-03    -26.3882E-03    -27.2027E-03    -25.9038E-03     52.2920E-03    -26.3882E-03     20.2351E-03     100.433E-03     53.0264E+06     38.1383E+06    -13.1867E+06    -16.2368E+06    -16.1842E+06     38.0857E+06    -13.1867E+06    -541.512E+03
            1529     80.4772E-03     14.6098E-03     79.1400E-03     53.0447E-03    -26.2121E-03    -26.8326E-03    -25.5711E-03     51.8723E-03    -26.3012E-03     18.9738E-03     99.2476E-03     139.530E+06     131.990E+06     2.30786E+06    -15.2432E+06    -15.2426E+06     131.989E+06     2.30786E+06     134.521E+03
            1530     80.6755E-03     15.5843E-03     79.1560E-03     53.0138E-03    -26.2984E-03    -26.7154E-03    -25.0872E-03     51.4748E-03    -26.3875E-03     21.2658E-03     109.488E-03     188.702E+06     196.932E+06     43.7332E+06    -12.2252E+06    -12.2246E+06     196.931E+06     43.7332E+06     54.3030E+03
            1531     80.8977E-03     16.5599E-03     79.1847E-03     52.6004E-03    -25.6405E-03    -26.9599E-03    -24.8187E-03     51.4508E-03    -26.6321E-03     11.9633E-03     97.9099E-03     190.735E+06     210.620E+06     102.166E+06    -7.02824E+06    -7.02816E+06     210.619E+06     102.166E+06     14.5967E+03
            1532     80.0340E-03     973.678E-06     80.0281E-03     53.9264E-03    -26.9164E-03    -27.0099E-03    -26.9893E-03     53.9065E-03    -26.9172E-03     2.40537E-03     54.2221E-03     201.808E+06    -69.5785E+06    -73.1281E+06    -273.117E+06    -73.1392E+06    -273.106E+06    -69.5785E+06     876.113E+03
            1533     80.0553E-03     1.94716E-03     80.0316E-03     53.9872E-03    -26.9848E-03    -27.0024E-03    -26.9317E-03     53.9341E-03    -27.0024E-03     4.05636E-03     54.6551E-03     203.694E+06    -59.2348E+06    -68.6477E+06    -267.458E+06    -68.6586E+06    -267.447E+06    -59.2348E+06    -858.587E+03
            1534     80.0901E-03     2.92083E-03     80.0368E-03     53.9726E-03    -26.9546E-03    -27.0180E-03    -26.8528E-03     53.8709E-03    -27.0180E-03     5.68305E-03     55.3848E-03     198.545E+06    -48.1610E+06    -63.1358E+06    -253.749E+06    -63.1823E+06    -253.702E+06    -48.1610E+06    -2.78809E+06
            1535     80.1382E-03     3.89458E-03     80.0435E-03     53.9192E-03    -26.9021E-03    -27.0171E-03    -26.7427E-03     53.7597E-03    -27.0171E-03     7.13955E-03     56.4346E-03     190.200E+06    -36.0939E+06    -57.1466E+06    -235.918E+06    -57.2939E+06    -235.771E+06    -36.0939E+06    -4.89199E+06
            1536     80.1997E-03     4.86840E-03     80.0518E-03     53.8884E-03    -26.8813E-03    -27.0071E-03    -26.6633E-03     53.6704E-03    -27.0071E-03     8.36262E-03     57.9007E-03     180.422E+06    -24.0185E+06    -50.6531E+06    -216.253E+06    -50.8978E+06    -216.008E+06    -24.0185E+06    -6.30498E+06
            1537     80.2739E-03     5.84225E-03     80.0610E-03     53.8947E-03    -26.9003E-03    -26.9944E-03    -26.6316E-03     53.6260E-03    -26.9944E-03     9.29546E-03     59.8375E-03     171.146E+06    -13.5820E+06    -44.1199E+06    -197.930E+06    -44.3757E+06    -197.675E+06    -13.5820E+06    -6.21189E+06
            1538     80.3608E-03     6.81616E-03     80.0712E-03     53.8744E-03    -26.9031E-03    -26.9713E-03    -26.5861E-03     53.5575E-03    -26.9713E-03     10.0920E-03     62.2323E-03     160.077E+06    -6.16460E+06    -37.9176E+06    -179.734E+06    -38.2432E+06    -179.408E+06    -6.16460E+06    -6.64969E+06
            1539     80.4601E-03     7.79008E-03     80.0821E-03     53.7863E-03    -26.8539E-03    -26.9325E-03    -26.4847E-03     53.4089E-03    -26.9242E-03     10.9958E-03     65.0550E-03     145.209E+06    -3.03372E+06    -32.4463E+06    -160.694E+06    -32.8809E+06    -160.259E+06    -3.03372E+06    -7.41540E+06
            1540     80.5724E-03     8.76411E-03     80.0944E-03     53.7095E-03    -26.8078E-03    -26.9017E-03    -26.4125E-03     53.2758E-03    -26.8633E-03     11.7869E-03     68.6138E-03     127.174E+06    -1.90490E+06    -27.8868E+06    -140.059E+06    -28.3632E+06    -139.583E+06    -1.90490E+06    -7.24807E+06
            1541     80.6963E-03     9.73834E-03     80.1065E-03     53.6529E-03    -26.7856E-03    -26.8673E-03    -26.3656E-03     53.1679E-03    -26.8023E-03     12.4522E-03     72.7411E-03     106.954E+06    -804.563E+03    -24.0305E+06    -117.459E+06    -24.5260E+06    -116.964E+06    -804.563E+03    -6.73854E+06
            1542     80.8335E-03     10.7124E-03     80.1205E-03     53.5795E-03    -26.7239E-03    -26.8556E-03    -26.2816E-03     53.0055E-03    -26.7239E-03     13.5207E-03     77.9696E-03     84.6423E+06    -3.62049E+06    -20.6862E+06    -95.4656E+06    -21.1601E+06    -94.9917E+06    -3.62049E+06    -5.89884E+06
            1543     80.9827E-03     11.6865E-03     80.1350E-03     53.5348E-03    -26.6313E-03    -26.9035E-03    -26.1997E-03     52.8310E-03    -26.6313E-03     14.9610E-03     84.6536E-03      54.895E+06    -7.48812E+06    -18.1753E+06    -66.9075E+06    -18.6767E+06    -66.4060E+06    -7.48812E+06    -4.75184E+06
            1544     81.1451E-03     12.6610E-03     80.1513E-03     53.5574E-03    -26.5242E-03    -27.0332E-03    -26.1207E-03     52.6449E-03    -26.5242E-03     17.0037E-03     92.4561E-03     25.0604E+06    -5.23017E+06    -15.5413E+06    -32.6182E+06    -16.7257E+06    -25.5956E+06    -11.0684E+06    -3.28542E+06
            1545     81.3220E-03     13.6353E-03     80.1708E-03     53.5915E-03    -26.3894E-03    -27.2021E-03    -25.9223E-03     52.3117E-03    -26.3894E-03     20.0906E-03     100.445E-03     51.0968E+06     36.1833E+06    -14.0774E+06    -15.5871E+06    -15.2704E+06     35.9184E+06    -14.1291E+06    -1.42716E+06
            1546     81.5137E-03     14.6098E-03     80.1937E-03     52.9585E-03    -26.1759E-03    -26.7825E-03    -25.4962E-03     51.7999E-03    -26.3036E-03     18.8593E-03     99.1673E-03     138.478E+06     131.592E+06     2.68497E+06    -14.2425E+06    -14.1866E+06     131.588E+06     2.63321E+06    -11.1771E+03
            1547     81.7106E-03     15.5847E-03     80.2106E-03     53.0390E-03    -26.2632E-03    -26.7758E-03    -25.1419E-03     51.5328E-03    -26.3909E-03     21.0965E-03     109.504E-03     188.881E+06     197.343E+06     44.3283E+06    -12.1700E+06    -12.1684E+06     197.342E+06     44.3283E+06     63.5180E+03
            1548     81.9286E-03     16.5594E-03     80.2376E-03     52.6272E-03    -25.6061E-03    -27.0211E-03    -24.8789E-03     51.5150E-03    -26.6362E-03     11.9446E-03     97.9267E-03     190.705E+06     210.284E+06     101.862E+06    -7.35808E+06    -7.35776E+06     210.283E+06     101.862E+06    -201.052E+03
            1549     81.0882E-03     973.483E-06     81.0823E-03     54.0163E-03    -26.9125E-03    -27.1038E-03    -27.0735E-03     53.9966E-03    -26.9232E-03     2.41321E-03     54.2714E-03     199.962E+06    -71.1093E+06    -73.2297E+06    -272.115E+06    -73.1776E+06    -272.099E+06    -71.1766E+06     6.41243E+03
            1550     81.1092E-03     1.94715E-03     81.0858E-03     53.9882E-03    -26.9668E-03    -27.0214E-03    -26.9143E-03     53.9357E-03    -27.0214E-03     4.02628E-03     54.6384E-03     199.867E+06    -62.1516E+06    -69.2141E+06    -265.433E+06    -69.2318E+06    -265.415E+06    -62.1516E+06    -1.74935E+06
            1551     81.1435E-03     2.92080E-03     81.0909E-03     53.9493E-03    -26.9291E-03    -27.0202E-03    -26.8272E-03     53.8473E-03    -27.0202E-03     5.68504E-03     55.3542E-03     193.467E+06    -50.5913E+06    -64.4838E+06    -250.599E+06    -64.5631E+06    -250.520E+06    -50.5913E+06    -3.48097E+06
            1552     81.1912E-03     3.89447E-03     81.0977E-03     53.9177E-03    -26.9015E-03    -27.0162E-03    -26.7425E-03     53.7587E-03    -27.0162E-03     7.13147E-03     56.4332E-03     184.976E+06    -37.7729E+06    -58.4301E+06    -232.183E+06    -58.6397E+06    -231.973E+06    -37.7729E+06    -5.87535E+06
            1553     81.2518E-03     4.86834E-03     81.1058E-03     53.8756E-03    -26.8695E-03    -27.0061E-03    -26.6521E-03     53.6581E-03    -27.0061E-03     8.35008E-03     57.8805E-03     176.374E+06    -26.0145E+06    -52.3011E+06    -214.033E+06    -52.6306E+06    -213.704E+06    -26.0145E+06    -7.24903E+06
            1554     81.3253E-03     5.84227E-03     81.1152E-03     53.8711E-03    -26.8834E-03    -26.9877E-03    -26.6131E-03     53.6008E-03    -26.9877E-03     9.31839E-03     59.7999E-03     167.634E+06    -16.4273E+06    -45.7352E+06    -196.777E+06    -46.2088E+06    -196.304E+06    -16.4273E+06    -8.24344E+06
            1555     81.4112E-03     6.81608E-03     81.1253E-03     53.8789E-03    -26.9137E-03    -26.9652E-03    -26.5931E-03     53.5583E-03    -26.9652E-03     10.1498E-03     62.2166E-03     156.876E+06    -8.25126E+06    -38.6009E+06    -178.076E+06    -39.1719E+06    -177.506E+06    -8.25126E+06    -8.76328E+06
            1556     81.5094E-03     7.78996E-03     81.1363E-03     53.7854E-03    -26.8618E-03    -26.9236E-03    -26.4900E-03     53.4137E-03    -26.9236E-03     10.9180E-03     65.0693E-03     143.420E+06    -4.23581E+06    -32.6762E+06    -159.742E+06    -33.2933E+06    -159.125E+06    -4.23581E+06    -8.77625E+06
            1557     81.6199E-03     8.76428E-03     81.1479E-03     53.7153E-03    -26.8171E-03    -26.8982E-03    -26.4162E-03     53.2789E-03    -26.8626E-03     11.8119E-03     68.6052E-03     126.048E+06    -3.23495E+06    -27.9106E+06    -139.793E+06    -28.6239E+06    -139.080E+06    -3.23495E+06    -8.83002E+06
            1558     81.7433E-03     9.73803E-03     81.1612E-03     53.6735E-03    -26.8034E-03    -26.8702E-03    -26.3832E-03     53.1866E-03    -26.8034E-03     12.4854E-03     72.7629E-03     106.675E+06    -1.90945E+06    -23.6423E+06    -117.774E+06    -24.4082E+06    -117.009E+06    -1.90945E+06    -8.39793E+06
            1559     81.8777E-03     10.7122E-03     81.1739E-03     53.5143E-03    -26.7226E-03    -26.7917E-03    -26.2225E-03     52.9450E-03    -26.7226E-03     13.4456E-03     77.9351E-03     85.4224E+06    -5.01002E+06    -20.2469E+06    -96.9875E+06    -21.0132E+06    -96.2212E+06    -5.01002E+06    -7.56270E+06
            1560     82.0260E-03     11.6869E-03     81.1891E-03     53.5384E-03    -26.6270E-03    -26.9113E-03    -26.1971E-03     52.8241E-03    -26.6270E-03     15.0738E-03     84.5861E-03     55.8098E+06    -8.63191E+06    -17.4114E+06    -68.2937E+06    -18.2211E+06    -67.4839E+06    -8.63191E+06    -6.19979E+06
            1561     82.1865E-03     12.6607E-03     81.2055E-03     53.6451E-03    -26.5241E-03    -27.1209E-03    -26.2087E-03     52.7328E-03    -26.5241E-03     17.0288E-03     92.5269E-03     25.3765E+06    -6.27768E+06    -15.6517E+06    -33.6525E+06    -16.5221E+06    -26.9834E+06    -12.0764E+06    -4.61329E+06
            1562     82.3612E-03     13.6349E-03     81.2247E-03     53.6310E-03    -26.3935E-03    -27.2375E-03    -25.9519E-03     52.3453E-03    -26.3935E-03     20.1301E-03     100.430E-03     50.4171E+06      34.504E+06    -15.1865E+06    -16.4985E+06    -15.6213E+06     33.8595E+06    -15.4191E+06    -2.53344E+06
            1563     82.5508E-03     14.6095E-03     81.2477E-03     52.9302E-03    -26.1352E-03    -26.7950E-03    -25.4663E-03     51.7676E-03    -26.3013E-03     18.8583E-03     99.1198E-03     137.868E+06     130.045E+06     731.631E+03    -14.5400E+06    -14.2970E+06     130.035E+06     498.991E+03    -559.770E+03
            1564     82.7452E-03     15.5846E-03     81.2643E-03     53.0122E-03    -26.2181E-03    -26.7941E-03    -25.1066E-03     51.4908E-03    -26.3842E-03     21.1453E-03     109.424E-03     188.975E+06     197.477E+06     42.6475E+06    -11.3997E+06    -11.3962E+06     197.474E+06     42.6475E+06     126.792E+03
            1565     82.9619E-03     16.5593E-03     81.2925E-03     52.6292E-03    -25.5862E-03    -27.0430E-03    -24.8599E-03     51.4930E-03    -26.6331E-03     12.0812E-03     97.8384E-03     190.248E+06     210.450E+06     101.259E+06    -6.53222E+06    -6.53124E+06     210.449E+06     101.259E+06    -33.7978E+03
            1566     82.1425E-03     973.510E-06     82.1368E-03     54.0621E-03    -26.9607E-03    -27.1014E-03    -27.0585E-03     54.0427E-03    -26.9842E-03     2.40562E-03     54.3074E-03     195.756E+06    -73.1400E+06    -75.0686E+06    -269.849E+06    -74.7540E+06    -269.833E+06    -73.4705E+06    -1.47081E+06
            1567     82.1630E-03     1.94701E-03     82.1399E-03     53.9764E-03    -26.9448E-03    -27.0316E-03    -26.8930E-03     53.9246E-03    -27.0316E-03     3.99527E-03     54.6250E-03     194.823E+06    -64.5658E+06    -70.9482E+06    -262.480E+06    -71.0099E+06    -262.419E+06    -64.5658E+06    -3.00359E+06
            1568     82.1970E-03     2.92075E-03     82.1451E-03     53.9160E-03    -26.8973E-03    -27.0187E-03    -26.7935E-03     53.8122E-03    -27.0187E-03     5.72530E-03     55.3151E-03     188.832E+06    -51.9487E+06    -65.2558E+06    -247.049E+06    -65.3993E+06    -246.905E+06    -51.9487E+06    -4.84185E+06
            1569     82.2441E-03     3.89455E-03     82.1518E-03     53.9236E-03    -26.9119E-03    -27.0117E-03    -26.7515E-03     53.7632E-03    -27.0117E-03     7.16917E-03     56.4327E-03     180.267E+06    -38.8476E+06    -59.3275E+06    -228.448E+06    -59.5951E+06    -228.180E+06    -38.8476E+06    -6.60163E+06
            1570     82.3041E-03     4.86826E-03     82.1600E-03     53.9146E-03    -26.9072E-03    -27.0073E-03    -26.6903E-03     53.6977E-03    -27.0073E-03     8.34229E-03     57.9123E-03     172.455E+06    -26.9098E+06    -52.6033E+06    -210.757E+06    -53.0827E+06    -210.278E+06    -26.9098E+06    -8.52537E+06
            1571     82.3767E-03     5.84209E-03     82.1692E-03     53.8669E-03    -26.8766E-03    -26.9904E-03    -26.6052E-03     53.5955E-03    -26.9904E-03     9.33709E-03     59.8028E-03     164.262E+06    -17.4698E+06    -45.6301E+06    -193.986E+06    -46.3591E+06    -193.257E+06    -17.4698E+06    -10.2689E+06
            1572     82.4617E-03     6.81610E-03     82.1795E-03     53.8260E-03    -26.8625E-03    -26.9635E-03    -26.5413E-03     53.5048E-03    -26.9635E-03     10.1529E-03     62.1609E-03     154.552E+06    -9.97923E+06    -39.5264E+06    -177.163E+06    -40.4100E+06    -176.280E+06    -9.97923E+06    -10.9277E+06
            1573     82.5588E-03     7.79011E-03     82.1904E-03     53.8148E-03    -26.8690E-03    -26.9458E-03    -26.5237E-03     53.4450E-03    -26.9213E-03     10.8952E-03     65.0956E-03     141.302E+06    -5.72370E+06    -33.4730E+06    -158.838E+06    -34.4583E+06    -157.853E+06    -5.72370E+06    -10.9488E+06
            1574     82.6679E-03     8.76379E-03     82.2021E-03     53.7312E-03    -26.8374E-03    -26.8938E-03    -26.4307E-03     53.2946E-03    -26.8639E-03     11.8150E-03     68.6328E-03     124.864E+06    -4.31896E+06    -27.6943E+06    -139.217E+06    -28.7936E+06    -138.117E+06    -4.31896E+06    -10.9309E+06
            1575     82.7899E-03     9.73828E-03     82.2151E-03     53.5907E-03    -26.7735E-03    -26.8172E-03    -26.2996E-03     53.0996E-03    -26.8000E-03     12.5260E-03     72.6582E-03     106.701E+06    -3.41489E+06    -23.1566E+06    -118.603E+06    -24.3242E+06    -117.436E+06    -3.41489E+06    -10.4248E+06
            1576     82.9230E-03     10.7124E-03     82.2281E-03     53.5834E-03    -26.7127E-03    -26.8706E-03    -26.3019E-03     53.0214E-03    -26.7195E-03     13.3817E-03     78.0009E-03     85.3149E+06    -6.13089E+06    -19.7754E+06    -97.4149E+06    -20.9365E+06    -96.2538E+06    -6.13089E+06    -9.37244E+06
            1577     83.0689E-03     11.6864E-03     82.2427E-03     53.5668E-03    -26.6294E-03    -26.9374E-03    -26.2198E-03     52.8492E-03    -26.6294E-03     15.0972E-03     84.6598E-03     56.9145E+06    -9.86651E+06    -17.0292E+06    -70.0115E+06    -18.2833E+06    -68.7575E+06    -9.86651E+06    -7.85798E+06
            1578     83.2288E-03     12.6609E-03     82.2601E-03     53.5405E-03    -26.5222E-03    -27.0182E-03    -26.0951E-03     52.6173E-03    -26.5222E-03     17.1176E-03     92.4347E-03     26.4358E+06    -7.72772E+06    -16.1131E+06    -35.5988E+06    -16.4111E+06    -29.4260E+06    -13.6025E+06    -5.90120E+06
            1579     83.4005E-03     13.6352E-03     82.2783E-03     53.6623E-03    -26.3884E-03    -27.2739E-03    -25.9731E-03     52.3615E-03    -26.3884E-03     20.2454E-03     100.413E-03     49.2247E+06     32.6932E+06    -15.7005E+06    -17.2811E+06    -15.2829E+06     31.5958E+06    -16.6013E+06    -3.41002E+06
            1580     83.5887E-03     14.6097E-03     82.3021E-03     53.0062E-03    -26.1532E-03    -26.8530E-03    -25.5351E-03     51.8299E-03    -26.2948E-03     18.9674E-03     99.1940E-03     136.876E+06     128.484E+06    -341.930E+03    -14.9215E+06    -13.9887E+06     128.452E+06    -1.24274E+06    -1.66510E+06
            1581     83.7802E-03     15.5843E-03     82.3180E-03     52.9614E-03    -26.2316E-03    -26.7298E-03    -25.0428E-03     51.4161E-03    -26.3733E-03     21.2523E-03     109.386E-03     189.233E+06     196.836E+06     40.1728E+06    -11.6511E+06    -11.6460E+06     196.831E+06     40.1728E+06    -380.981E+03
            1582     83.9950E-03     16.5599E-03     82.3464E-03     52.5679E-03    -25.5885E-03    -26.9794E-03    -24.7788E-03     51.4017E-03    -26.6228E-03     12.0660E-03     97.7547E-03     190.556E+06     210.274E+06     99.8137E+06    -6.93922E+06    -6.93839E+06     210.273E+06     99.8137E+06     237.682E+03
            1583     83.1966E-03     973.462E-06     83.1909E-03     54.0155E-03    -26.9435E-03    -27.0720E-03    -27.0216E-03     53.9960E-03    -26.9744E-03     2.39871E-03     54.2346E-03     192.233E+06    -73.7670E+06    -76.0828E+06    -267.142E+06    -75.8537E+06    -267.108E+06    -74.0302E+06    -2.44108E+06
            1584     83.2171E-03     1.94710E-03     83.1943E-03     53.9557E-03    -26.9425E-03    -27.0132E-03    -26.8905E-03     53.9036E-03    -27.0132E-03     4.01311E-03     54.6015E-03     189.724E+06    -65.0574E+06    -72.0348E+06    -258.154E+06    -72.1427E+06    -258.046E+06    -65.0574E+06    -4.18007E+06
            1585     83.2503E-03     2.92076E-03     83.1991E-03     53.9222E-03    -26.9172E-03    -27.0049E-03    -26.8128E-03     53.8177E-03    -27.0049E-03     5.74070E-03     55.3221E-03     183.203E+06    -53.7921E+06    -66.8405E+06    -243.147E+06    -67.0965E+06    -242.891E+06    -53.7921E+06    -6.48369E+06
            1586     83.2973E-03     3.89450E-03     83.2062E-03     53.9205E-03    -26.9176E-03    -27.0029E-03    -26.7554E-03     53.7583E-03    -27.0029E-03     7.21127E-03     56.4243E-03     175.152E+06    -40.7448E+06    -60.1241E+06    -224.751E+06    -60.5675E+06    -224.308E+06    -40.7448E+06    -8.30576E+06
            1587     83.3564E-03     4.86824E-03     83.2141E-03     53.9275E-03    -26.9233E-03    -27.0041E-03    -26.7058E-03     53.7099E-03    -27.0041E-03     8.35821E-03     57.9298E-03     167.429E+06    -27.8864E+06    -52.9726E+06    -206.420E+06    -53.7021E+06    -205.691E+06    -27.8864E+06    -10.3780E+06
            1588     83.4282E-03     5.84208E-03     83.2234E-03     53.8940E-03    -26.8993E-03    -26.9947E-03    -26.6277E-03     53.6224E-03    -26.9947E-03     9.34239E-03     59.8369E-03     160.621E+06    -18.0095E+06    -46.1089E+06    -190.821E+06    -47.1021E+06    -189.828E+06    -18.0095E+06    -11.8812E+06
            1589     83.5122E-03     6.81592E-03     83.2336E-03     53.8175E-03    -26.8503E-03    -26.9672E-03    -26.5319E-03     53.4991E-03    -26.9672E-03     10.1101E-03     62.1679E-03     152.164E+06    -10.9089E+06    -39.3937E+06    -175.300E+06    -40.6418E+06    -174.052E+06    -10.9089E+06    -12.8491E+06
            1590     83.6082E-03     7.78994E-03     83.2445E-03     53.7624E-03    -26.8201E-03    -26.9422E-03    -26.4692E-03     53.3869E-03    -26.9177E-03     10.9646E-03     65.0306E-03     139.303E+06    -7.18412E+06    -33.0320E+06    -157.595E+06    -34.5687E+06    -156.058E+06    -7.18412E+06    -13.6578E+06
            1591     83.7164E-03     8.76407E-03     83.2564E-03     53.7221E-03    -26.8046E-03    -26.9175E-03    -26.4279E-03     53.2847E-03    -26.8568E-03     11.8362E-03     68.6132E-03     123.671E+06    -6.04195E+06    -27.4640E+06    -139.021E+06    -29.1557E+06    -137.329E+06    -6.04195E+06    -13.5409E+06
            1592     83.8362E-03     9.73797E-03     83.2687E-03     53.6249E-03    -26.7689E-03    -26.8560E-03    -26.3427E-03     53.1382E-03    -26.7954E-03     12.4736E-03     72.6962E-03     106.300E+06    -5.05667E+06    -22.6197E+06    -119.040E+06    -24.3864E+06    -117.273E+06    -5.05667E+06    -12.8445E+06
            1593     83.9685E-03     10.7124E-03     83.2824E-03     53.6348E-03    -26.7132E-03    -26.9216E-03    -26.3480E-03     53.0680E-03    -26.7200E-03     13.4493E-03     78.0195E-03     85.9991E+06    -7.44768E+06    -18.6267E+06    -98.4290E+06    -20.3570E+06    -96.6987E+06    -7.44768E+06    -11.5635E+06
            1594     84.1128E-03     11.6863E-03     83.2970E-03     53.5632E-03    -26.6313E-03    -26.9319E-03    -26.2283E-03     52.8597E-03    -26.6313E-03     14.9559E-03     84.7084E-03     58.5494E+06    -11.4843E+06    -15.9925E+06    -72.1277E+06    -17.7466E+06    -70.3736E+06    -11.4843E+06    -9.60890E+06
            1595     84.2699E-03     12.6608E-03     83.3134E-03     53.5078E-03    -26.5217E-03    -26.9861E-03    -26.0610E-03     52.5827E-03    -26.5217E-03     17.1045E-03     92.3583E-03     27.9000E+06    -9.12960E+06    -16.7886E+06    -37.7599E+06    -16.3465E+06    -31.7233E+06    -15.6083E+06    -7.21551E+06
            1596     84.4411E-03     13.6352E-03     83.3330E-03     53.5769E-03    -26.3877E-03    -27.1892E-03    -25.9213E-03     52.3090E-03    -26.3877E-03     20.0105E-03     100.369E-03     48.2682E+06     30.9847E+06    -16.3218E+06    -18.1882E+06    -14.8651E+06     29.1677E+06    -17.8278E+06    -4.80714E+06
            1597     84.6264E-03     14.6095E-03     83.3558E-03     52.9102E-03    -26.1627E-03    -26.7476E-03    -25.4712E-03     51.7583E-03    -26.2871E-03     18.8302E-03     99.1616E-03     135.163E+06     126.229E+06    -1.41235E+06    -15.1848E+06    -13.5828E+06     126.133E+06    -2.91841E+06    -2.53955E+06
            1598     84.8163E-03     15.5847E-03     83.3722E-03     52.9720E-03    -26.2360E-03    -26.7360E-03    -25.0899E-03     51.4504E-03    -26.3605E-03     21.2181E-03     109.398E-03     188.710E+06     195.677E+06     37.9364E+06    -11.5298E+06    -11.5248E+06     195.672E+06     37.9364E+06    -605.120E+03
            1599     85.0281E-03     16.5593E-03     83.4000E-03     52.5185E-03    -25.5257E-03    -26.9927E-03    -24.7872E-03     51.4045E-03    -26.6173E-03     11.9711E-03     97.8284E-03     190.386E+06     210.103E+06     98.8509E+06    -6.78975E+06    -6.78962E+06     210.103E+06     98.8509E+06     128.560E+03
            1600     84.2509E-03     973.573E-06     84.2453E-03     53.8992E-03    -26.8570E-03    -27.0422E-03    -27.0054E-03     53.8802E-03    -26.8749E-03     2.34399E-03     54.1077E-03     186.493E+06    -74.8916E+06    -77.0777E+06    -262.464E+06    -77.1369E+06    -262.405E+06    -74.8916E+06    -2.96529E+06
            1601     84.2708E-03     1.94720E-03     84.2483E-03     53.9353E-03    -26.9452E-03    -26.9902E-03    -26.9147E-03     53.8830E-03    -26.9683E-03     4.01828E-03     54.5780E-03     183.458E+06    -66.9358E+06    -73.4254E+06    -253.535E+06    -73.5834E+06    -253.377E+06    -66.9358E+06    -5.18300E+06
            1602     84.3041E-03     2.92075E-03     84.2535E-03     53.9573E-03    -26.9594E-03    -26.9979E-03    -26.8661E-03     53.8538E-03    -26.9877E-03     5.72465E-03     55.3563E-03     176.355E+06    -55.6430E+06    -68.3598E+06    -237.982E+06    -68.7357E+06    -237.606E+06    -55.6430E+06    -7.70634E+06
            1603     84.3501E-03     3.89442E-03     84.2602E-03     53.9098E-03    -26.9127E-03    -26.9971E-03    -26.7498E-03     53.7469E-03    -26.9971E-03     7.21741E-03     56.4120E-03     168.442E+06    -42.7656E+06    -61.8361E+06    -219.906E+06    -62.5881E+06    -219.154E+06    -42.7656E+06    -10.6523E+06
            1604     84.4090E-03     4.86824E-03     84.2685E-03     53.8951E-03    -26.8982E-03    -26.9969E-03    -26.6781E-03     53.6749E-03    -26.9969E-03     8.40782E-03     57.8961E-03     161.795E+06    -29.8991E+06    -54.2780E+06    -202.479E+06    -55.3640E+06    -201.393E+06    -29.8991E+06    -12.5122E+06
            1605     84.4798E-03     5.84199E-03     84.2776E-03     53.8903E-03    -26.9026E-03    -26.9877E-03    -26.6303E-03     53.6179E-03    -26.9877E-03     9.35529E-03     59.8280E-03     155.962E+06    -19.7855E+06    -47.1368E+06    -187.610E+06    -48.5140E+06    -186.233E+06    -19.7855E+06    -13.7498E+06
            1606     84.5629E-03     6.81589E-03     84.2878E-03     53.8186E-03    -26.8575E-03    -26.9611E-03    -26.5346E-03     53.4957E-03    -26.9611E-03     10.1778E-03     62.1579E-03     148.064E+06    -12.6350E+06    -39.8868E+06    -172.431E+06    -41.7191E+06    -170.599E+06    -12.6350E+06    -15.3122E+06
            1607     84.6576E-03     7.78988E-03     84.2985E-03     53.7311E-03    -26.8210E-03    -26.9102E-03    -26.4439E-03     53.3540E-03    -26.9102E-03     10.9885E-03     64.9963E-03     136.461E+06    -9.07025E+06    -32.9118E+06    -155.872E+06    -35.1741E+06    -153.610E+06    -9.07025E+06    -16.4146E+06
            1608     84.7646E-03     8.76405E-03     84.3104E-03     53.7061E-03    -26.8154E-03    -26.8907E-03    -26.4217E-03     53.2704E-03    -26.8487E-03     11.8091E-03     68.5656E-03     122.197E+06    -7.98419E+06    -27.1752E+06    -138.636E+06    -29.6980E+06    -136.113E+06    -7.98419E+06    -16.4745E+06
            1609     84.8835E-03     9.73811E-03     84.3231E-03     53.7227E-03    -26.7933E-03    -26.9294E-03    -26.4429E-03     53.2363E-03    -26.7933E-03     12.4860E-03     72.7738E-03     105.646E+06    -6.80783E+06    -22.1574E+06    -119.283E+06    -24.8120E+06    -116.628E+06    -6.80783E+06    -15.7428E+06
            1610     85.0137E-03     10.7119E-03     84.3361E-03     53.6285E-03    -26.7224E-03    -26.9061E-03    -26.3371E-03     53.0596E-03    -26.7224E-03     13.4695E-03     78.0195E-03     87.0398E+06    -9.32654E+06    -17.7667E+06    -100.203E+06    -20.4580E+06    -97.5113E+06    -9.32654E+06    -14.5408E+06
            1611     85.1570E-03     11.6864E-03     84.3513E-03     53.5913E-03    -26.6350E-03    -26.9563E-03    -26.2632E-03     52.8983E-03    -26.6350E-03     14.8633E-03     84.7607E-03     61.6054E+06    -12.2531E+06    -15.1563E+06    -75.2516E+06    -16.8754E+06    -72.6204E+06    -13.1653E+06    -12.2526E+06
            1612     85.3117E-03     12.6605E-03     84.3670E-03     53.6063E-03    -26.5313E-03    -27.0750E-03    -26.1542E-03     52.6855E-03    -26.5313E-03     17.0683E-03     92.4499E-03     30.5433E+06    -8.10875E+06    -16.5525E+06    -39.3640E+06    -14.1447E+06    -33.6056E+06    -16.2749E+06    -8.90638E+06
            1613     85.4819E-03     13.6347E-03     84.3875E-03     53.4453E-03    -26.3933E-03    -27.0520E-03    -25.7890E-03     52.1823E-03    -26.3933E-03     19.9532E-03     100.304E-03     47.0536E+06     29.1192E+06    -16.1363E+06    -19.4971E+06    -13.2171E+06     25.9008E+06    -19.1979E+06    -5.96944E+06
            1614     85.6639E-03     14.6098E-03     84.4088E-03     52.8551E-03    -26.2302E-03    -26.6249E-03    -25.4203E-03     51.6986E-03    -26.2783E-03     18.8913E-03     99.0729E-03     133.265E+06     123.109E+06    -2.80881E+06    -16.3872E+06    -13.1754E+06     122.959E+06    -5.87045E+06    -2.81207E+06
            1615     85.8532E-03     15.5844E-03     84.4269E-03     52.9768E-03    -26.3063E-03    -26.6705E-03    -25.1292E-03     51.4835E-03    -26.3543E-03     21.1185E-03     109.397E-03     188.383E+06     194.793E+06     36.2773E+06    -11.3392E+06    -11.3347E+06     194.788E+06     36.2773E+06    -800.505E+03
            1616     86.0617E-03     16.5597E-03     84.4535E-03     52.4548E-03    -25.5191E-03    -26.9357E-03    -24.7710E-03     51.3905E-03    -26.6195E-03     11.8307E-03     97.8547E-03     189.853E+06     209.811E+06     98.8168E+06    -6.50521E+06    -6.50234E+06     209.808E+06     98.8168E+06    -148.732E+03
            1617     85.3050E-03     973.676E-06     85.2994E-03     53.8460E-03    -26.8430E-03    -27.0029E-03    -26.9845E-03     53.8275E-03    -26.8430E-03     2.33645E-03     54.0518E-03     179.657E+06    -75.9744E+06    -78.2333E+06    -256.744E+06    -78.2672E+06    -256.672E+06    -76.0129E+06    -3.05323E+06
            1618     85.3249E-03     1.94717E-03     85.3026E-03     53.9303E-03    -26.9412E-03    -26.9891E-03    -26.9277E-03     53.8782E-03    -26.9505E-03     3.99615E-03     54.5716E-03     176.547E+06    -67.9788E+06    -74.6085E+06    -247.729E+06    -74.8597E+06    -247.478E+06    -67.9788E+06     -6.3449E+06
            1619     85.3577E-03     2.92076E-03     85.3078E-03     53.9335E-03    -26.9462E-03    -26.9873E-03    -26.8520E-03     53.8291E-03    -26.9771E-03     5.74927E-03     55.3272E-03     169.629E+06    -56.4994E+06    -68.9676E+06    -231.990E+06    -69.5139E+06    -231.443E+06    -56.4994E+06    -9.17565E+06
            1620     85.4033E-03     3.89437E-03     85.3145E-03     53.9087E-03    -26.9211E-03    -26.9876E-03    -26.7573E-03     53.7448E-03    -26.9876E-03     7.23817E-03     56.4053E-03     161.424E+06    -43.6060E+06    -62.4211E+06    -213.581E+06    -63.4424E+06    -212.560E+06    -43.6060E+06    -12.1790E+06
            1621     85.4613E-03     4.86817E-03     85.3225E-03     53.8662E-03    -26.8793E-03    -26.9870E-03    -26.6560E-03     53.6430E-03    -26.9870E-03     8.46151E-03     57.8577E-03     156.260E+06    -31.7602E+06    -55.3595E+06    -198.469E+06    -56.9342E+06    -196.894E+06    -31.7602E+06    -14.7828E+06
            1622     85.5317E-03     5.84204E-03     85.3320E-03     53.8306E-03    -26.8579E-03    -26.9728E-03    -26.5830E-03     53.5557E-03    -26.9728E-03     9.39509E-03     59.7556E-03     151.387E+06    -21.6730E+06    -47.4126E+06    -184.276E+06    -49.4287E+06    -182.259E+06    -21.6730E+06    -16.3483E+06
            1623     85.6134E-03     6.81595E-03     85.3417E-03     53.8125E-03    -26.8662E-03    -26.9463E-03    -26.5416E-03     53.4879E-03    -26.9463E-03     10.2044E-03     62.1411E-03     143.648E+06    -13.9080E+06    -39.7765E+06    -168.730E+06    -42.3986E+06    -166.108E+06    -13.9080E+06    -18.0349E+06
            1624     85.7075E-03     7.78994E-03     85.3528E-03     53.7945E-03    -26.8731E-03    -26.9214E-03    -26.5158E-03     53.4180E-03    -26.9022E-03     10.9905E-03     65.0437E-03     133.471E+06    -10.7594E+06    -33.0200E+06    -153.946E+06    -36.2280E+06    -150.738E+06    -10.7594E+06    -19.3438E+06
            1625     85.8130E-03     8.76380E-03     85.3643E-03     53.7511E-03    -26.8473E-03    -26.9037E-03    -26.4674E-03     53.3156E-03    -26.8482E-03     11.8119E-03     68.5956E-03     120.349E+06    -9.84534E+06    -27.0209E+06    -137.855E+06    -30.6151E+06    -134.261E+06    -9.84534E+06    -19.5176E+06
            1626     85.9307E-03     9.73795E-03     85.3772E-03     53.6971E-03    -26.7938E-03    -26.9032E-03    -26.4131E-03     53.2069E-03    -26.7938E-03     12.5297E-03     72.7205E-03     105.142E+06    -8.87726E+06    -21.8169E+06    -119.877E+06    -25.7408E+06    -115.953E+06    -8.87726E+06    -19.1091E+06
            1627     86.0598E-03     10.7120E-03     85.3905E-03     53.6584E-03    -26.7230E-03    -26.9354E-03    -26.3738E-03     53.0968E-03    -26.7230E-03     13.3938E-03     78.0360E-03     87.4574E+06    -11.7427E+06    -17.8118E+06    -102.003E+06    -21.7095E+06    -98.1049E+06    -11.7427E+06    -17.6262E+06
            1628     86.2005E-03     11.6862E-03     85.4046E-03     53.6354E-03    -26.6405E-03    -26.9948E-03    -26.2887E-03     52.9292E-03    -26.6405E-03     14.9885E-03     84.7743E-03     63.3870E+06    -13.5630E+06    -16.0742E+06    -78.1499E+06    -18.4335E+06    -74.0249E+06    -15.3287E+06    -15.4027E+06
            1629     86.3552E-03     12.6601E-03     85.4222E-03     53.5425E-03    -26.5361E-03    -27.0063E-03    -26.0846E-03     52.6208E-03    -26.5361E-03     17.0925E-03     92.4167E-03     34.0761E+06    -8.42432E+06    -18.5754E+06    -44.0030E+06    -15.2842E+06    -37.1431E+06    -18.5754E+06    -12.1263E+06
            1630     86.5211E-03     13.6351E-03     85.4400E-03     53.5028E-03    -26.4088E-03    -27.0940E-03    -25.8390E-03     52.2478E-03    -26.4088E-03     19.8839E-03     100.391E-03     46.1409E+06     26.7406E+06    -16.9381E+06    -21.3440E+06    -13.5707E+06     21.2428E+06    -19.2136E+06    -6.65215E+06
            1631     86.7033E-03     14.6095E-03     85.4636E-03     52.8838E-03    -26.1597E-03    -26.7241E-03    -25.4368E-03     51.7311E-03    -26.2943E-03     18.8377E-03     99.1456E-03     130.786E+06     120.668E+06    -3.17067E+06    -16.0355E+06    -13.6605E+06     120.569E+06    -5.44619E+06    -2.41479E+06
            1632     86.8893E-03     15.5844E-03     85.4803E-03     52.8606E-03    -26.2149E-03    -26.6457E-03    -25.0075E-03     51.3571E-03    -26.3495E-03     21.0883E-03     109.295E-03     188.698E+06     193.745E+06     33.7076E+06    -12.2771E+06    -12.2657E+06     193.734E+06     33.7076E+06    -1.38669E+06
            1633     87.0964E-03     16.5594E-03     85.5078E-03     52.4206E-03    -25.5129E-03    -26.9078E-03    -24.7157E-03     51.3274E-03    -26.6117E-03     11.8681E-03     97.7225E-03     190.135E+06     209.061E+06     96.8012E+06    -7.37015E+06    -7.36579E+06     209.056E+06     96.8012E+06    -494.671E+03
            1634     86.3592E-03     973.553E-06     86.3537E-03     53.8760E-03    -26.8568E-03    -27.0193E-03    -26.9783E-03     53.8565E-03    -26.8782E-03     2.38623E-03     54.0821E-03     172.104E+06    -77.0878E+06    -79.3882E+06    -250.323E+06    -79.2638E+06    -250.229E+06    -77.3058E+06    -3.58934E+06
            1635     86.3789E-03     1.94709E-03     86.3569E-03     53.8877E-03    -26.9157E-03    -26.9720E-03    -26.8794E-03     53.8346E-03    -26.9552E-03     4.04357E-03     54.5289E-03     168.801E+06    -68.2238E+06    -75.2850E+06    -240.425E+06    -75.6339E+06    -240.076E+06    -68.2238E+06    -7.23018E+06
            1636     86.4114E-03     2.92074E-03     86.3620E-03     53.8731E-03    -26.9106E-03    -26.9625E-03    -26.8051E-03     53.7676E-03    -26.9625E-03     5.77328E-03     55.2632E-03     162.261E+06    -57.2760E+06    -69.6470E+06    -225.350E+06    -70.4415E+06    -224.555E+06    -57.2760E+06    -10.8587E+06
            1637     86.4565E-03     3.89452E-03     86.3687E-03     53.8646E-03    -26.9005E-03    -26.9640E-03    -26.7341E-03     53.6981E-03    -26.9640E-03     7.29447E-03     56.3505E-03     154.139E+06    -45.0664E+06    -62.9622E+06    -207.341E+06    -64.2992E+06    -206.004E+06    -45.0664E+06    -13.6589E+06
            1638     86.5140E-03     4.86812E-03     86.3769E-03     53.8444E-03    -26.8766E-03    -26.9677E-03    -26.6524E-03     53.6201E-03    -26.9677E-03     8.48036E-03     57.8284E-03     149.713E+06    -32.7552E+06    -55.9264E+06    -192.687E+06    -57.9769E+06    -190.637E+06    -32.7552E+06    -16.4709E+06
            1639     86.5832E-03     5.84208E-03     86.3858E-03     53.8061E-03    -26.8519E-03    -26.9543E-03    -26.5750E-03     53.5293E-03    -26.9543E-03     9.42467E-03     59.7160E-03     145.782E+06    -23.4926E+06    -48.1580E+06    -180.033E+06    -51.1441E+06    -177.047E+06    -23.4926E+06    -19.3985E+06
            1640     86.6646E-03     6.81598E-03     86.3961E-03     53.8213E-03    -26.8856E-03    -26.9358E-03    -26.5650E-03     53.4958E-03    -26.9308E-03     10.2250E-03     62.1276E-03     138.866E+06    -15.8401E+06    -39.9974E+06    -165.197E+06    -43.7326E+06    -161.462E+06    -15.8401E+06    -21.1358E+06
            1641     86.7572E-03     7.78981E-03     86.4068E-03     53.8274E-03    -26.8926E-03    -26.9348E-03    -26.5536E-03     53.4505E-03    -26.8968E-03     11.0005E-03     65.0637E-03     130.165E+06    -11.9529E+06    -32.9972E+06    -151.339E+06    -37.3770E+06    -146.960E+06    -11.9529E+06    -22.2173E+06
            1642     86.8619E-03     8.76383E-03     86.4187E-03     53.7994E-03    -26.8469E-03    -26.9524E-03    -26.5114E-03     53.3583E-03    -26.8469E-03     11.8928E-03     68.6260E-03     118.271E+06    -11.5554E+06    -26.7767E+06    -136.687E+06    -31.7647E+06    -131.699E+06    -11.5554E+06    -22.7617E+06
            1643     86.9780E-03     9.73767E-03     86.4312E-03     53.6989E-03    -26.7949E-03    -26.9040E-03    -26.4131E-03     53.2080E-03    -26.7949E-03     12.5408E-03     72.7162E-03     104.379E+06    -10.9291E+06    -21.5221E+06    -120.189E+06    -26.9483E+06    -114.763E+06    -10.9291E+06    -22.4007E+06
            1644     87.1056E-03     10.7120E-03     86.4445E-03     53.6538E-03    -26.7237E-03    -26.9301E-03    -26.3631E-03     53.0868E-03    -26.7237E-03     13.4477E-03     78.0228E-03     88.8248E+06    -12.9049E+06    -18.4818E+06    -104.351E+06    -22.6963E+06    -98.9116E+06    -14.1299E+06    -21.0042E+06
            1645     87.2454E-03     11.6858E-03     86.4593E-03     53.5719E-03    -26.6365E-03    -26.9354E-03    -26.2266E-03     52.8631E-03    -26.6365E-03     15.0101E-03     84.6840E-03     65.3700E+06    -13.4489E+06    -18.0275E+06    -80.8902E+06    -19.1035E+06    -75.3311E+06    -17.9320E+06    -18.3009E+06
            1646     87.3971E-03     12.6607E-03     86.4752E-03     53.5019E-03    -26.5260E-03    -26.9759E-03    -26.0512E-03     52.5772E-03    -26.5260E-03     17.1025E-03     92.3225E-03     36.8289E+06    -9.66783E+06    -22.7725E+06    -49.0614E+06    -17.7283E+06    -41.0009E+06    -22.7725E+06    -14.5527E+06
            1647     87.5627E-03     13.6346E-03     86.4947E-03     53.6372E-03    -26.4046E-03    -27.2326E-03    -25.9594E-03     52.3640E-03    -26.4046E-03     20.0608E-03     100.423E-03     47.0679E+06     22.7812E+06    -20.9236E+06    -26.8336E+06    -16.3551E+06     14.9592E+06    -23.5801E+06    -8.88578E+06
            1648     87.7419E-03     14.6089E-03     86.5172E-03     52.8797E-03    -26.0856E-03    -26.7941E-03    -25.4341E-03     51.7211E-03    -26.2869E-03     18.8775E-03     99.1663E-03     129.799E+06     118.103E+06    -6.42699E+06    -16.2246E+06    -13.2345E+06     117.770E+06    -9.08345E+06    -3.58097E+06
            1649     87.9262E-03     15.5844E-03     86.5340E-03     52.7610E-03    -26.1253E-03    -26.6357E-03    -24.9104E-03     51.2371E-03    -26.3267E-03     21.1782E-03     109.227E-03     188.669E+06     193.029E+06     28.8690E+06    -10.8276E+06    -10.8163E+06     193.018E+06     28.8690E+06    -1.38462E+06
            1650     88.1315E-03     16.5598E-03     86.5617E-03     52.3815E-03    -25.4764E-03    -26.9051E-03    -24.6660E-03     51.2621E-03    -26.5961E-03     11.8483E-03     97.6564E-03     189.679E+06     208.125E+06     93.8690E+06    -7.23012E+06    -7.22602E+06     208.120E+06     93.8690E+06    -847.291E+03
            1651     87.4131E-03     973.454E-06     87.4077E-03     53.8631E-03    -26.8637E-03    -26.9994E-03    -26.9455E-03     53.8429E-03    -26.8975E-03     2.38439E-03     54.0704E-03     164.239E+06    -77.2301E+06    -78.9506E+06    -242.317E+06    -78.9295E+06    -242.159E+06    -77.4096E+06    -4.83366E+06
            1652     87.4330E-03     1.94719E-03     87.4113E-03     53.8173E-03    -26.8823E-03    -26.9349E-03    -26.8272E-03     53.7621E-03    -26.9349E-03     4.13191E-03     54.4552E-03     160.570E+06    -68.8789E+06    -75.0681E+06    -232.427E+06    -75.5087E+06    -231.986E+06    -68.8789E+06    -8.01825E+06
            1653     87.4649E-03     2.92079E-03     87.4161E-03     53.8332E-03    -26.8956E-03    -26.9376E-03    -26.7886E-03     53.7261E-03    -26.9376E-03     5.81562E-03     55.2204E-03     154.220E+06    -57.5331E+06    -69.8865E+06    -217.530E+06    -70.9123E+06    -216.505E+06    -57.5331E+06    -11.9652E+06
            1654     87.5097E-03     3.89443E-03     87.4230E-03     53.8085E-03    -26.8674E-03    -26.9411E-03    -26.7007E-03     53.6417E-03    -26.9411E-03     7.29798E-03     56.2927E-03     147.419E+06    -45.5077E+06    -63.2681E+06    -200.981E+06    -65.0535E+06    -199.196E+06    -45.5077E+06    -15.4126E+06
            1655     87.5664E-03     4.86839E-03     87.4310E-03     53.8190E-03    -26.8746E-03    -26.9444E-03    -26.6505E-03     53.5949E-03    -26.9444E-03     8.47746E-03     57.7925E-03     143.241E+06    -33.2024E+06    -55.4694E+06    -186.257E+06    -58.1760E+06    -183.551E+06    -33.2024E+06    -18.4134E+06
            1656     87.6351E-03     5.84203E-03     87.4402E-03     53.8422E-03    -26.9019E-03    -26.9403E-03    -26.6255E-03     53.5659E-03    -26.9403E-03     9.42185E-03     59.7522E-03     139.910E+06    -23.5887E+06    -47.4517E+06    -173.894E+06    -51.3857E+06    -169.960E+06    -23.5887E+06    -21.7923E+06
            1657     87.7154E-03     6.81591E-03     87.4501E-03     53.8226E-03    -26.8953E-03    -26.9272E-03    -26.5702E-03     53.4925E-03    -26.9223E-03     10.2919E-03     62.1077E-03     134.772E+06    -17.1578E+06    -40.0050E+06    -161.890E+06    -45.0340E+06    -156.861E+06    -17.1578E+06    -24.1340E+06
            1658     87.8074E-03     7.78982E-03     87.4612E-03     53.8176E-03    -26.8807E-03    -26.9369E-03    -26.5477E-03     53.4362E-03    -26.8886E-03     11.0667E-03     65.0344E-03     126.392E+06    -13.4143E+06    -32.7188E+06    -148.329E+06    -38.6075E+06    -142.441E+06    -13.4143E+06    -25.2906E+06
            1659     87.9105E-03     8.76370E-03     87.4726E-03     53.7872E-03    -26.8398E-03    -26.9474E-03    -26.5029E-03     53.3427E-03    -26.8398E-03     11.9355E-03     68.6011E-03     115.983E+06    -13.1734E+06    -26.3806E+06    -135.172E+06    -33.1554E+06    -128.398E+06    -13.1734E+06    -26.1637E+06
            1660     88.0259E-03     9.73781E-03     87.4856E-03     53.7228E-03    -26.7882E-03    -26.9346E-03    -26.4365E-03     53.2247E-03    -26.7882E-03     12.6364E-03     72.7141E-03     104.288E+06    -13.1308E+06    -20.5764E+06    -120.904E+06    -27.8742E+06    -113.606E+06    -13.1308E+06    -25.9637E+06
            1661     88.1516E-03     10.7116E-03     87.4984E-03     53.6203E-03    -26.7172E-03    -26.9031E-03    -26.3248E-03     53.0420E-03    -26.7172E-03     13.5723E-03     77.9590E-03     90.3238E+06    -13.1233E+06    -18.5692E+06    -106.019E+06    -23.0118E+06    -98.5342E+06    -16.1653E+06    -24.8374E+06
            1662     88.2901E-03     11.6863E-03     87.5133E-03     53.5588E-03    -26.6273E-03    -26.9315E-03    -26.2290E-03     52.8564E-03    -26.6273E-03     14.9598E-03     84.6549E-03     69.7667E+06    -11.5561E+06    -20.7569E+06    -85.3243E+06    -18.9558E+06    -77.9246E+06    -20.7569E+06    -22.0403E+06
            1663     88.4399E-03     12.6601E-03     87.5290E-03     53.5751E-03    -26.5221E-03    -27.0530E-03    -26.1375E-03     52.6596E-03    -26.5221E-03     17.0204E-03     92.4124E-03     42.4757E+06    -6.66361E+06    -24.5829E+06    -53.1521E+06    -15.2267E+06    -44.5890E+06    -24.5829E+06    -17.1131E+06
            1664     88.6041E-03     13.6349E-03     87.5487E-03     53.5717E-03    -26.3912E-03    -27.1806E-03    -25.8993E-03     52.2905E-03    -26.3912E-03     20.1108E-03     100.350E-03     47.4198E+06     20.7172E+06    -20.6673E+06    -30.9343E+06    -13.0610E+06     9.49217E+06    -27.3155E+06    -11.8956E+06
            1665     88.7813E-03     14.6096E-03     87.5710E-03     52.8625E-03    -26.1465E-03    -26.7160E-03    -25.4525E-03     51.7096E-03    -26.2571E-03     18.8098E-03     99.1189E-03     128.251E+06     113.066E+06    -9.33325E+06    -19.8434E+06    -12.3776E+06     112.248E+06    -15.9815E+06    -5.85317E+06
            1666     88.9633E-03     15.5842E-03     87.5877E-03     52.7975E-03    -26.1992E-03    -26.5983E-03    -24.9639E-03     51.2737E-03    -26.3098E-03     21.1494E-03     109.304E-03     188.969E+06     192.099E+06     25.3270E+06    -10.5842E+06    -10.5668E+06     192.081E+06     25.3270E+06    -1.39713E+06
            1667     89.1665E-03     16.5594E-03     87.6154E-03     52.3034E-03    -25.4242E-03    -26.8791E-03    -24.5842E-03     51.1748E-03    -26.5906E-03     11.8361E-03     97.6286E-03     188.440E+06     207.579E+06     93.0083E+06    -6.19484E+06    -6.19113E+06     207.575E+06     93.0083E+06    -806.032E+03
            1668     88.4677E-03     973.622E-06     88.4623E-03     53.7660E-03    -26.8238E-03    -26.9421E-03    -26.9093E-03     53.7456E-03    -26.8362E-03     2.45604E-03     53.9711E-03     155.414E+06    -76.4117E+06    -78.2286E+06    -232.720E+06    -78.2486E+06    -232.505E+06    -76.6064E+06    -5.14064E+06
            1669     88.4866E-03     1.94717E-03     88.4652E-03     53.7779E-03    -26.8590E-03    -26.9189E-03    -26.8277E-03     53.7223E-03    -26.8946E-03     4.12311E-03     54.4133E-03     152.252E+06    -68.9864E+06    -74.8893E+06    -224.082E+06    -75.5002E+06    -223.471E+06    -68.9864E+06    -9.23328E+06
            1670     88.5188E-03     2.92088E-03     88.4706E-03     53.7793E-03    -26.8700E-03    -26.9093E-03    -26.7615E-03     53.6708E-03    -26.9093E-03     5.86165E-03     55.1600E-03     146.350E+06    -57.2052E+06    -69.3535E+06    -209.212E+06    -70.6212E+06    -207.945E+06    -57.2052E+06    -12.9760E+06
            1671     88.5628E-03     3.89458E-03     88.4771E-03     53.7994E-03    -26.8771E-03    -26.9223E-03    -26.7114E-03     53.6333E-03    -26.9218E-03     7.28425E-03     56.2822E-03     140.932E+06    -44.3493E+06    -62.1886E+06    -193.336E+06    -64.5009E+06    -191.024E+06    -44.3493E+06    -17.0138E+06
            1672     88.6190E-03     4.86823E-03     88.4852E-03     53.8028E-03    -26.8743E-03    -26.9284E-03    -26.6478E-03     53.5759E-03    -26.9280E-03     8.52413E-03     57.7669E-03     137.338E+06    -32.6757E+06    -53.9544E+06    -179.403E+06    -57.5498E+06    -175.808E+06    -32.6757E+06    -20.7497E+06
            1673     88.6872E-03     5.84212E-03     88.4945E-03     53.8401E-03    -26.9005E-03    -26.9396E-03    -26.6331E-03     53.5600E-03    -26.9269E-03     9.48639E-03     59.7336E-03     134.361E+06    -23.1444E+06    -45.8926E+06    -167.427E+06    -50.7425E+06    -162.577E+06    -23.1444E+06    -23.6790E+06
            1674     88.7664E-03     6.81586E-03     88.5044E-03     53.8347E-03    -26.9048E-03    -26.9298E-03    -26.5891E-03     53.5031E-03    -26.9141E-03     10.3163E-03     62.1212E-03     130.567E+06    -16.8153E+06    -38.4433E+06    -156.844E+06    -44.6971E+06    -150.590E+06    -16.8153E+06    -26.3481E+06
            1675     88.8575E-03     7.78983E-03     88.5154E-03     53.8023E-03    -26.8705E-03    -26.9319E-03    -26.5365E-03     53.4148E-03    -26.8783E-03     11.1521E-03     64.9884E-03     123.348E+06    -14.4186E+06    -31.3593E+06    -145.333E+06    -39.0243E+06    -137.668E+06    -14.4186E+06    -28.4418E+06
            1676     88.9597E-03     8.76372E-03     88.5270E-03     53.7689E-03    -26.8309E-03    -26.9379E-03    -26.4943E-03     53.3252E-03    -26.8309E-03     11.9264E-03     68.5790E-03     114.411E+06    -14.0339E+06    -24.6052E+06    -133.332E+06    -33.3869E+06    -124.550E+06    -14.0339E+06    -29.5335E+06
            1677     89.0734E-03     9.73770E-03     88.5395E-03     53.6645E-03    -26.7771E-03    -26.8873E-03    -26.3873E-03     53.1645E-03    -26.7771E-03     12.6476E-03     72.6386E-03     104.450E+06    -14.5391E+06    -18.8501E+06    -121.040E+06    -28.5056E+06    -111.384E+06    -14.5391E+06    -29.7877E+06
            1678     89.1983E-03     10.7121E-03     88.5528E-03     53.6364E-03    -26.7058E-03    -26.9306E-03    -26.3560E-03     53.0618E-03    -26.7058E-03     13.5475E-03     77.9265E-03     91.5517E+06    -13.7006E+06    -18.6349E+06    -107.540E+06    -24.1929E+06    -97.5984E+06    -18.0841E+06    -28.6944E+06
            1679     89.3344E-03     11.6858E-03     88.5668E-03     53.6758E-03    -26.6265E-03    -27.0493E-03    -26.3486E-03     52.9752E-03    -26.6265E-03     14.9520E-03     84.7749E-03     73.7844E+06    -10.2218E+06    -22.6336E+06    -89.2691E+06    -20.4418E+06    -79.0490E+06    -22.6336E+06    -26.3511E+06
            1680     89.4838E-03     12.6603E-03     88.5837E-03     53.6393E-03    -26.5300E-03    -27.1093E-03    -26.2141E-03     52.7442E-03    -26.5300E-03     16.8711E-03     92.5188E-03     50.0512E+06    -4.93281E+06    -27.0752E+06    -60.5065E+06    -16.6991E+06    -48.7403E+06    -27.0752E+06    -21.9804E+06
            1681     89.6448E-03     13.6345E-03     88.6019E-03     53.5060E-03    -26.4173E-03    -27.0887E-03    -25.8593E-03     52.2766E-03    -26.4173E-03     19.6726E-03     100.525E-03     46.6440E+06     17.2358E+06    -22.8761E+06    -33.4687E+06    -14.3001E+06     2.42369E+06    -27.2327E+06    -14.3060E+06
            1682     89.8213E-03     14.6092E-03     88.6253E-03     52.7514E-03    -26.1403E-03    -26.6111E-03    -25.3572E-03     51.6244E-03    -26.2672E-03     18.5836E-03     99.1640E-03     123.664E+06     106.858E+06    -12.8465E+06    -19.9044E+06    -13.9716E+06     105.875E+06    -17.7961E+06     -6.9209E+06
            1683     90.0008E-03     15.5843E-03     88.6413E-03     52.7060E-03    -26.1653E-03    -26.5408E-03    -24.9138E-03     51.2060E-03    -26.2922E-03     20.9713E-03     109.286E-03     189.742E+06     190.247E+06     21.2377E+06    -12.3964E+06    -11.7415E+06     190.185E+06     20.6447E+06    -3.01240E+06
            1684     90.2022E-03     16.5597E-03     88.6692E-03     52.1804E-03    -25.3523E-03    -26.8281E-03    -24.4935E-03     51.0730E-03    -26.5795E-03     11.8138E-03     97.5666E-03     188.251E+06     206.707E+06     90.8499E+06    -6.57111E+06    -6.55492E+06     206.691E+06     90.8499E+06    -1.15127E+06
            1685     89.5218E-03     973.715E-06     89.5165E-03     53.6576E-03    -26.7578E-03    -26.8998E-03    -26.8783E-03     53.6361E-03    -26.7578E-03     2.52684E-03     53.8590E-03     146.177E+06    -75.7430E+06    -78.0909E+06    -223.070E+06    -78.0862E+06    -222.827E+06    -75.9913E+06    -5.26895E+06
            1686     89.5408E-03     1.94721E-03     89.5196E-03     53.7548E-03    -26.8460E-03    -26.9088E-03    -26.8396E-03     53.6990E-03    -26.8593E-03     4.14023E-03     54.3881E-03     143.783E+06    -67.2042E+06    -73.8782E+06    -214.189E+06    -74.6914E+06    -213.376E+06    -67.2042E+06    -10.2554E+06
            1687     89.5723E-03     2.92087E-03     89.5246E-03     53.7478E-03    -26.8380E-03    -26.9098E-03    -26.7523E-03     53.6394E-03    -26.8870E-03     5.85498E-03     55.1250E-03     139.144E+06    -55.9509E+06    -67.4566E+06    -200.467E+06    -69.1738E+06    -198.749E+06    -55.9509E+06    -14.7216E+06
            1688     89.6162E-03     3.89459E-03     89.5315E-03     53.7495E-03    -26.8493E-03    -26.9002E-03    -26.6808E-03     53.5806E-03    -26.8997E-03     7.33946E-03     56.2218E-03     134.263E+06    -43.0544E+06    -59.7117E+06    -184.840E+06    -62.6206E+06    -181.931E+06    -43.0544E+06    -18.6263E+06
            1689     89.6717E-03     4.86834E-03     89.5395E-03     53.7907E-03    -26.8719E-03    -26.9188E-03    -26.6513E-03     53.5595E-03    -26.9082E-03     8.60602E-03     57.7451E-03     131.175E+06    -31.5189E+06    -52.0669E+06    -171.751E+06    -56.4567E+06    -167.361E+06    -31.5189E+06    -22.3421E+06
            1690     89.7391E-03     5.84216E-03     89.5487E-03     53.8193E-03    -26.8868E-03    -26.9325E-03    -26.6243E-03     53.5328E-03    -26.9084E-03     9.59365E-03     59.6883E-03     128.950E+06    -22.7659E+06    -44.2577E+06    -161.111E+06    -50.2258E+06    -155.143E+06    -22.7659E+06    -25.6090E+06
            1691     89.8178E-03     6.81596E-03     89.5589E-03     53.8429E-03    -26.9001E-03    -26.9428E-03    -26.6101E-03     53.5102E-03    -26.9001E-03     10.3415E-03     62.1139E-03     125.851E+06    -16.0905E+06    -36.2399E+06    -150.797E+06    -43.9331E+06    -143.104E+06    -16.0905E+06    -28.5366E+06
            1692     89.9075E-03     7.78975E-03     89.5694E-03     53.8024E-03    -26.8695E-03    -26.9329E-03    -26.5434E-03     53.4129E-03    -26.8695E-03     11.1759E-03     64.9790E-03     120.351E+06    -13.8024E+06    -28.9305E+06    -140.964E+06    -38.3678E+06    -131.527E+06    -13.8024E+06    -31.0248E+06
            1693     90.0091E-03     8.76375E-03     89.5814E-03     53.7596E-03    -26.8223E-03    -26.9373E-03    -26.4920E-03     53.3143E-03    -26.8223E-03     11.9523E-03     68.5514E-03     112.971E+06    -14.3683E+06    -22.5566E+06    -131.184E+06    -33.4470E+06    -120.293E+06    -14.3683E+06    -32.5313E+06
            1694     90.1211E-03     9.73775E-03     89.5935E-03     53.6844E-03    -26.7729E-03    -26.9115E-03    -26.4247E-03     53.1976E-03    -26.7729E-03     12.4853E-03     72.6669E-03     103.903E+06    -14.1572E+06    -17.3900E+06    -119.626E+06    -28.9094E+06    -107.541E+06    -14.7236E+06    -33.0259E+06
            1695     90.2447E-03     10.7118E-03     89.6067E-03     53.6665E-03    -26.7054E-03    -26.9610E-03    -26.3901E-03     53.0955E-03    -26.7054E-03     13.4995E-03     77.9480E-03     93.4359E+06    -12.5435E+06    -19.3682E+06    -109.059E+06    -25.1509E+06    -96.5780E+06    -19.2416E+06    -32.3279E+06
            1696     90.3801E-03     11.6860E-03     89.6214E-03     53.7297E-03    -26.6282E-03    -27.1015E-03    -26.3993E-03     53.0275E-03    -26.6282E-03     14.9828E-03     84.7814E-03     76.9889E+06    -8.83645E+06    -24.5372E+06    -92.2809E+06    -21.9854E+06    -79.1319E+06    -24.5372E+06    -30.1931E+06
            1697     90.5268E-03     12.6598E-03     89.6372E-03     53.6798E-03    -26.5331E-03    -27.1467E-03    -26.2488E-03     52.7819E-03    -26.5331E-03     16.8964E-03     92.5198E-03     55.3966E+06    -5.10773E+06    -30.8554E+06    -67.3663E+06    -19.8251E+06    -52.6489E+06    -30.8554E+06    -26.0898E+06
            1698     90.6872E-03     13.6341E-03     89.6564E-03     53.5526E-03    -26.4208E-03    -27.1318E-03    -25.9008E-03     52.3216E-03    -26.4208E-03     19.7057E-03     100.570E-03     49.6466E+06     12.4785E+06    -27.8773E+06    -42.2452E+06    -17.1791E+06    -7.53900E+06    -32.9259E+06    -18.1953E+06
            1699     90.8601E-03     14.6090E-03     89.6779E-03     52.7130E-03    -26.0829E-03    -26.6300E-03    -25.3123E-03     51.5692E-03    -26.2569E-03     18.7533E-03     99.0857E-03     122.288E+06     102.010E+06    -15.6533E+06    -23.6260E+06    -13.3040E+06     99.6612E+06    -23.6260E+06     -9.4175E+06
            1700     91.0396E-03     15.5842E-03     89.6958E-03     52.5304E-03    -26.0858E-03    -26.4446E-03    -24.7879E-03     51.0477E-03    -26.2597E-03     20.9112E-03     109.166E-03     189.345E+06     187.631E+06     16.1009E+06    -13.5872E+06    -10.5417E+06     187.509E+06     13.1768E+06    -4.63328E+06
            1701     91.2372E-03     16.5595E-03     89.7218E-03     52.0640E-03    -25.3215E-03    -26.7426E-03    -24.4410E-03     50.9986E-03    -26.5577E-03     11.6970E-03     97.5115E-03     187.615E+06     204.779E+06     86.3891E+06    -6.67340E+06    -6.64428E+06     204.750E+06     86.3891E+06    -1.89455E+06
            1702     90.5756E-03     973.591E-06     90.5704E-03     53.6465E-03    -26.7501E-03    -26.8963E-03    -26.8646E-03     53.6251E-03    -26.7604E-03     2.48492E-03     53.8481E-03     137.961E+06    -73.1182E+06    -75.1331E+06    -212.067E+06    -75.3995E+06    -211.747E+06    -73.1718E+06    -6.22821E+06
            1703     90.5950E-03     1.94740E-03     90.5740E-03     53.6881E-03    -26.8186E-03    -26.8695E-03    -26.7873E-03     53.6317E-03    -26.8444E-03     4.17650E-03     54.3183E-03     135.991E+06    -64.0678E+06    -70.2037E+06    -203.004E+06    -71.2267E+06    -201.981E+06    -64.0678E+06    -11.1335E+06
            1704     90.6260E-03     2.92082E-03     90.5790E-03     53.7051E-03    -26.8199E-03    -26.8852E-03    -26.7332E-03     53.5956E-03    -26.8624E-03     5.87360E-03     55.0809E-03     132.215E+06    -53.2466E+06    -63.9003E+06    -190.447E+06    -66.1227E+06    -188.224E+06    -53.2466E+06    -16.3413E+06
            1705     90.6693E-03     3.89467E-03     90.5856E-03     53.7008E-03    -26.8284E-03    -26.8724E-03    -26.6548E-03     53.5272E-03    -26.8724E-03     7.43648E-03     56.1608E-03     128.039E+06    -41.5367E+06    -56.7847E+06    -176.492E+06    -60.3900E+06    -172.887E+06    -41.5367E+06    -20.2832E+06
            1706     90.7246E-03     4.86850E-03     90.5938E-03     53.7703E-03    -26.8678E-03    -26.9024E-03    -26.6516E-03     53.5365E-03    -26.8849E-03     8.65792E-03     57.7119E-03     125.572E+06    -29.4960E+06    -48.8077E+06    -163.594E+06    -54.0528E+06    -158.349E+06    -29.4960E+06    -23.8008E+06
            1707     90.7912E-03     5.84216E-03     90.6030E-03     53.8154E-03    -26.8922E-03    -26.9232E-03    -26.6346E-03     53.5268E-03    -26.8922E-03     9.62505E-03     59.6770E-03     124.507E+06    -20.4139E+06    -40.7550E+06    -153.838E+06    -47.8760E+06    -146.717E+06    -20.4139E+06    -27.3666E+06
            1708     90.8691E-03     6.81603E-03     90.6131E-03     53.8303E-03    -26.8859E-03    -26.9445E-03    -26.6061E-03     53.4920E-03    -26.8859E-03     10.4282E-03     62.0752E-03     122.123E+06    -14.3517E+06    -33.0351E+06    -144.737E+06    -42.1869E+06    -135.585E+06    -14.3517E+06    -30.5252E+06
            1709     90.9581E-03     7.78983E-03     90.6239E-03     53.8296E-03    -26.8599E-03    -26.9697E-03    -26.5825E-03     53.4424E-03    -26.8599E-03     11.1523E-03     64.9982E-03     117.363E+06    -12.2035E+06    -25.8911E+06    -135.767E+06    -37.0033E+06    -124.655E+06    -12.2035E+06    -33.0601E+06
            1710     91.0580E-03     8.76378E-03     90.6353E-03     53.7718E-03    -26.8165E-03    -26.9553E-03    -26.5101E-03     53.3266E-03    -26.8165E-03     11.9479E-03     68.5302E-03     111.386E+06    -13.3488E+06    -19.4452E+06    -127.608E+06    -32.4516E+06    -114.602E+06    -13.3488E+06    -35.1005E+06
            1711     91.1696E-03     9.73767E-03     90.6481E-03     53.7614E-03    -26.7705E-03    -26.9909E-03    -26.4995E-03     53.2701E-03    -26.7705E-03     12.5574E-03     72.6902E-03     104.111E+06    -12.4707E+06    -15.8345E+06    -118.205E+06    -28.1181E+06    -103.765E+06    -14.6271E+06    -36.0245E+06
            1712     91.2912E-03     10.7116E-03     90.6606E-03     53.7407E-03    -26.7099E-03    -27.0308E-03    -26.4588E-03     53.1687E-03    -26.7099E-03     13.5215E-03     77.9963E-03     95.4882E+06    -9.42105E+06    -19.4828E+06    -109.375E+06    -24.2832E+06    -94.5129E+06    -19.4828E+06    -35.5340E+06
            1713     91.4255E-03     11.6858E-03     90.6756E-03     53.6724E-03    -26.6300E-03    -27.0424E-03    -26.3334E-03     52.9634E-03    -26.6300E-03     15.0416E-03     84.6284E-03     81.2075E+06    -5.72030E+06    -25.8317E+06    -94.8530E+06    -21.2892E+06    -79.2842E+06    -25.8317E+06    -33.7063E+06
            1714     91.5710E-03     12.6599E-03     90.6916E-03     53.5843E-03    -26.5309E-03    -27.0534E-03    -26.1559E-03     52.6868E-03    -26.5309E-03     16.8774E-03     92.4090E-03     62.4227E+06    -1.93297E+06    -32.2877E+06    -72.8005E+06    -18.4662E+06    -56.2673E+06    -32.2877E+06    -29.8235E+06
            1715     91.7287E-03     13.6346E-03     90.7097E-03     53.5978E-03    -26.4025E-03    -27.1953E-03    -25.9463E-03     52.3488E-03    -26.4025E-03     19.8422E-03     100.469E-03     55.4888E+06     12.0314E+06    -30.3756E+06    -50.3530E+06    -15.5938E+06    -15.2548E+06    -37.8486E+06    -23.4208E+06
            1716     91.9008E-03     14.6089E-03     90.7322E-03     52.7743E-03    -26.0305E-03    -26.7438E-03    -25.3906E-03     51.6263E-03    -26.2358E-03     18.7571E-03     99.0714E-03     121.040E+06     96.3851E+06    -17.6131E+06    -29.9252E+06    -12.3415E+06     91.1136E+06    -29.9252E+06    -14.1425E+06
            1717     92.0769E-03     15.5842E-03     90.7485E-03     52.4920E-03    -26.0388E-03    -26.4532E-03    -24.7382E-03     50.9822E-03    -26.2440E-03     20.9864E-03     109.097E-03     185.557E+06     182.845E+06     13.9082E+06    -14.5869E+06     -9.4969E+06     182.594E+06     9.06910E+06    -5.77705E+06
            1718     92.2740E-03     16.5598E-03     90.7759E-03     52.0445E-03    -25.2960E-03    -26.7485E-03    -24.3915E-03     50.9308E-03    -26.5393E-03     11.8467E-03     97.3570E-03     185.898E+06     202.709E+06     83.1737E+06    -6.06498E+06    -6.04386E+06     202.688E+06     83.1737E+06    -1.82166E+06
            1719     91.6300E-03     973.597E-06     91.6248E-03     53.6810E-03    -26.7606E-03    -26.9205E-03    -26.8733E-03     53.6599E-03    -26.7866E-03     2.47720E-03     53.8841E-03     129.511E+06    -68.5847E+06    -70.4588E+06    -199.018E+06    -70.8543E+06    -198.622E+06    -68.5847E+06    -6.43945E+06
            1720     91.6488E-03     1.94712E-03     91.6281E-03     53.5929E-03    -26.7558E-03    -26.8372E-03    -26.6984E-03     53.5355E-03    -26.8372E-03     4.19701E-03     54.2223E-03     127.863E+06    -60.7303E+06    -66.1881E+06    -191.215E+06    -67.4648E+06    -189.938E+06    -60.7303E+06    -12.1551E+06
            1721     91.6798E-03     2.92116E-03     91.6333E-03     53.6127E-03    -26.7737E-03    -26.8390E-03    -26.6697E-03     53.5012E-03    -26.8315E-03     5.92800E-03     54.9827E-03     125.354E+06    -49.6887E+06    -59.8639E+06    -179.799E+06    -62.5734E+06    -177.090E+06    -49.6887E+06    -17.5065E+06
            1722     91.7225E-03     3.89474E-03     91.6398E-03     53.7067E-03    -26.8399E-03    -26.8668E-03    -26.6854E-03     53.5301E-03    -26.8447E-03     7.49863E-03     56.1586E-03     122.814E+06    -37.9876E+06    -52.2657E+06    -167.305E+06    -56.7402E+06    -162.831E+06    -37.9876E+06    -22.0452E+06
            1723     91.7774E-03     4.86847E-03     91.6482E-03     53.7495E-03    -26.8621E-03    -26.8875E-03    -26.6459E-03     53.5104E-03    -26.8645E-03     8.75413E-03     57.6726E-03     121.444E+06    -26.4130E+06    -44.0467E+06    -155.699E+06    -50.2779E+06    -149.467E+06    -26.4130E+06    -25.5174E+06
            1724     91.8434E-03     5.84233E-03     91.6573E-03     53.7987E-03    -26.8750E-03    -26.9237E-03    -26.6314E-03     53.5064E-03    -26.8750E-03     9.68791E-03     59.6403E-03     120.401E+06    -17.1408E+06    -36.1688E+06    -145.921E+06    -44.3627E+06    -137.727E+06    -17.1408E+06    -28.7385E+06
            1725     91.9205E-03     6.81608E-03     91.6674E-03     53.8334E-03    -26.8729E-03    -26.9605E-03    -26.6188E-03     53.4917E-03    -26.8729E-03     10.4801E-03     62.0608E-03     119.138E+06    -11.1154E+06    -28.3950E+06    -137.940E+06    -38.8526E+06    -127.482E+06    -11.1154E+06    -32.1068E+06
            1726     92.0086E-03     7.78996E-03     91.6783E-03     53.8417E-03    -26.8498E-03    -26.9919E-03    -26.6014E-03     53.4512E-03    -26.8498E-03     11.2035E-03     64.9696E-03     115.625E+06    -9.33316E+06    -20.9083E+06    -130.256E+06    -33.6211E+06    -117.543E+06    -9.33316E+06    -34.9843E+06
            1727     92.1076E-03     8.76363E-03     91.6898E-03     53.8234E-03    -26.8111E-03    -27.0123E-03    -26.5663E-03     53.3773E-03    -26.8111E-03     11.9683E-03     68.5395E-03     110.368E+06    -10.4222E+06    -14.4996E+06    -122.733E+06    -29.2219E+06    -107.789E+06    -10.6434E+06    -37.3177E+06
            1728     92.2176E-03     9.73781E-03     91.7020E-03     53.7903E-03    -26.7694E-03    -27.0209E-03    -26.5208E-03     53.2902E-03    -26.7694E-03     12.6708E-03     72.6655E-03     105.168E+06    -8.85215E+06    -12.9018E+06    -115.943E+06    -25.6516E+06    -99.2772E+06    -12.7679E+06    -38.7573E+06
            1729     92.3388E-03     10.7117E-03     91.7154E-03     53.7932E-03    -26.7122E-03    -27.0810E-03    -26.5048E-03     53.2170E-03    -26.7122E-03     13.5897E-03     77.9969E-03     98.0494E+06    -5.11092E+06    -18.1151E+06    -108.859E+06    -22.4614E+06    -91.5088E+06    -18.1151E+06    -38.6917E+06
            1730     92.4705E-03     11.6855E-03     91.7292E-03     53.6644E-03    -26.6343E-03    -27.0301E-03    -26.3234E-03     52.9577E-03    -26.6343E-03     15.0124E-03     84.6003E-03     86.2838E+06    -1.45454E+06    -24.9991E+06    -96.8365E+06    -19.3624E+06    -78.9286E+06    -24.9991E+06    -37.1752E+06
            1731     92.6151E-03     12.6601E-03     91.7457E-03     53.5068E-03    -26.5330E-03    -26.9737E-03    -26.0971E-03     52.6302E-03    -26.5330E-03     16.6822E-03     92.3639E-03     70.5926E+06     2.33835E+06    -32.1436E+06    -78.1034E+06    -16.8486E+06    -58.9164E+06    -32.1436E+06    -34.1081E+06
            1732     92.7707E-03     13.6344E-03     91.7633E-03     53.5307E-03    -26.4036E-03    -27.1272E-03    -25.8881E-03     52.2917E-03    -26.4036E-03     19.7189E-03     100.390E-03     59.8485E+06     13.1429E+06    -33.0999E+06    -53.5400E+06    -14.5186E+06    -20.9777E+06    -38.0006E+06    -28.0286E+06
            1733     92.9417E-03     14.6091E-03     91.7863E-03     52.7514E-03    -26.0635E-03    -26.6880E-03    -25.3711E-03     51.6042E-03    -26.2331E-03     18.7122E-03     99.0380E-03     116.139E+06     89.0410E+06    -21.2821E+06    -31.9776E+06    -12.4458E+06     80.2047E+06    -31.9776E+06    -18.3930E+06
            1734     93.1147E-03     15.5843E-03     91.8013E-03     52.5294E-03    -26.0573E-03    -26.4721E-03    -24.7835E-03     51.0105E-03    -26.2269E-03     21.0007E-03     109.062E-03     179.959E+06     175.254E+06     10.8363E+06    -16.2128E+06    -9.88707E+06     174.723E+06     5.04150E+06    -7.87846E+06
            1735     93.3109E-03     16.5598E-03     91.8297E-03     51.9707E-03    -25.2095E-03    -26.7612E-03    -24.3164E-03     50.8325E-03    -26.5161E-03     11.8828E-03     97.2126E-03     184.422E+06     200.555E+06     79.9422E+06    -5.91668E+06    -5.89307E+06     200.532E+06     79.9422E+06    -1.73147E+06
            1736     92.6843E-03     973.554E-06     92.6792E-03     53.5823E-03    -26.7337E-03    -26.8485E-03    -26.8038E-03     53.5605E-03    -26.7567E-03     2.52570E-03     53.7839E-03     122.266E+06    -62.1162E+06    -64.7281E+06    -185.663E+06    -64.4347E+06    -185.208E+06    -62.8644E+06    -6.68001E+06
            1737     92.7027E-03     1.94741E-03     92.6823E-03     53.5474E-03    -26.7354E-03    -26.8120E-03    -26.6906E-03     53.4888E-03    -26.7982E-03     4.23632E-03     54.1738E-03     121.224E+06    -54.4106E+06    -60.0977E+06    -178.357E+06    -61.5686E+06    -176.886E+06    -54.4106E+06    -12.7045E+06
            1738     92.7333E-03     2.92105E-03     92.6873E-03     53.5874E-03    -26.7610E-03    -26.8264E-03    -26.6670E-03     53.4720E-03    -26.8051E-03     6.02588E-03     54.9491E-03     119.619E+06    -43.9108E+06    -54.0917E+06    -168.278E+06    -57.2215E+06    -165.148E+06    -43.9108E+06    -18.3407E+06
            1739     92.7761E-03     3.89490E-03     92.6943E-03     53.6626E-03    -26.8174E-03    -26.8452E-03    -26.6618E-03     53.4834E-03    -26.8216E-03     7.55919E-03     56.1051E-03     117.760E+06    -32.8329E+06    -46.6862E+06    -156.896E+06    -51.9656E+06    -151.617E+06    -32.8329E+06    -23.3393E+06
            1740     92.8301E-03     4.86863E-03     92.7023E-03     53.7233E-03    -26.8417E-03    -26.8816E-03    -26.6376E-03     53.4793E-03    -26.8417E-03     8.83538E-03     57.6237E-03     118.160E+06    -22.2238E+06    -38.5336E+06    -147.689E+06    -45.9896E+06    -140.233E+06    -22.2238E+06    -27.4162E+06
            1741     92.8957E-03     5.84243E-03     92.7118E-03     53.7976E-03    -26.8541E-03    -26.9435E-03    -26.6433E-03     53.4974E-03    -26.8541E-03     9.82102E-03     59.6043E-03     117.871E+06    -13.1633E+06    -29.8280E+06    -138.470E+06    -39.3155E+06    -128.983E+06    -13.1633E+06    -30.5771E+06
            1742     92.9720E-03     6.81620E-03     92.7218E-03     53.8402E-03    -26.8589E-03    -26.9813E-03    -26.6365E-03     53.4954E-03    -26.8589E-03     10.5298E-03     62.0345E-03     117.109E+06    -6.46646E+06    -21.7005E+06    -130.435E+06    -33.4225E+06    -118.713E+06    -6.46646E+06    -33.6568E+06
            1743     93.0592E-03     7.78997E-03     92.7326E-03     53.8333E-03    -26.8394E-03    -26.9939E-03    -26.5980E-03     53.4374E-03    -26.8394E-03     11.2786E-03     64.9122E-03     114.676E+06    -4.85433E+06    -14.5291E+06    -123.997E+06    -28.6805E+06    -109.846E+06    -4.85433E+06    -36.6691E+06
            1744     93.1573E-03     8.76405E-03     92.7441E-03     53.8685E-03    -26.8037E-03    -27.0648E-03    -26.6129E-03     53.4166E-03    -26.8037E-03     12.0560E-03     68.5333E-03     109.942E+06    -5.95066E+06    -9.17938E+06    -117.459E+06    -24.9179E+06    -101.042E+06    -6.62847E+06    -38.9374E+06
            1745     93.2662E-03     9.73753E-03     92.7565E-03     53.8291E-03    -26.7697E-03    -27.0594E-03    -26.5578E-03     53.3275E-03    -26.7697E-03     12.6963E-03     72.6772E-03     105.635E+06    -3.86145E+06    -8.75308E+06    -111.810E+06    -22.1742E+06    -93.4974E+06    -8.75308E+06    -40.4887E+06
            1746     93.3857E-03     10.7118E-03     92.7693E-03     53.7536E-03    -26.7120E-03    -27.0416E-03    -26.4594E-03     53.1714E-03    -26.7120E-03     13.6509E-03     77.8899E-03     100.507E+06    -452.057E+03    -15.0933E+06    -107.306E+06    -19.9530E+06    -87.8051E+06    -15.0933E+06    -41.2590E+06
            1747     93.5168E-03     11.6858E-03     92.7838E-03     53.6826E-03    -26.6331E-03    -27.0496E-03    -26.3504E-03     52.9835E-03    -26.6331E-03     14.9461E-03     84.5856E-03     90.7367E+06     2.33612E+06    -23.1840E+06    -98.2318E+06    -17.9981E+06    -77.8976E+06    -23.1840E+06    -40.3328E+06
            1748     93.6586E-03     12.6598E-03     92.7990E-03     53.5529E-03    -26.5378E-03    -27.0152E-03    -26.1286E-03     52.6663E-03    -26.5378E-03     16.7631E-03     92.3671E-03     76.1876E+06     5.49086E+06    -30.4125E+06    -81.3966E+06    -16.0105E+06    -59.8953E+06    -30.4125E+06    -37.3597E+06
            1749     93.8137E-03     13.6344E-03     92.8176E-03     53.4561E-03    -26.4060E-03    -27.0501E-03    -25.8198E-03     52.2257E-03    -26.4060E-03     19.6701E-03     100.332E-03     64.6101E+06     14.2215E+06    -35.7098E+06    -56.7276E+06    -14.0443E+06    -26.3501E+06    -37.8214E+06    -32.2154E+06
            1750     93.9813E-03     14.6095E-03     92.8389E-03     52.6829E-03    -26.0757E-03    -26.6072E-03    -25.3245E-03     51.5516E-03    -26.2271E-03     18.6167E-03     98.9424E-03     111.360E+06     81.0087E+06    -24.9856E+06    -34.9375E+06    -12.2506E+06     67.9410E+06    -34.6049E+06    -22.2212E+06
            1751     94.1546E-03     15.5845E-03     92.8559E-03     52.4931E-03    -26.0473E-03    -26.4459E-03    -24.8015E-03     51.0002E-03    -26.1987E-03     20.9032E-03     109.005E-03     173.139E+06     165.317E+06     6.33212E+06    -18.8594E+06    -10.5112E+06     164.477E+06    -1.17547E+06    -9.89039E+06
            1752     94.3466E-03     16.5601E-03     92.8818E-03     51.7910E-03    -25.0634E-03    -26.7277E-03    -24.2160E-03     50.6965E-03    -26.4805E-03     11.7835E-03     97.1177E-03     183.328E+06     197.488E+06     74.7581E+06    -6.63587E+06    -6.58601E+06     197.438E+06     74.7581E+06    -2.44934E+06
            1753     93.7383E-03     973.851E-06     93.7333E-03     53.4047E-03    -26.6435E-03    -26.7612E-03    -26.7322E-03     53.3829E-03    -26.6507E-03     2.53641E-03     53.6039E-03     115.990E+06    -55.1026E+06    -57.4639E+06    -172.251E+06    -57.2981E+06    -171.668E+06    -55.8508E+06    -7.61394E+06
            1754     93.7567E-03     1.94749E-03     93.7365E-03     53.5045E-03    -26.7235E-03    -26.7809E-03    -26.7136E-03     53.4443E-03    -26.7307E-03     4.27787E-03     54.1241E-03     115.426E+06    -47.1437E+06    -52.0251E+06    -164.907E+06    -53.7880E+06    -163.144E+06    -47.1437E+06    -13.5417E+06
            1755     93.7871E-03     2.92122E-03     93.7416E-03     53.5911E-03    -26.7723E-03    -26.8188E-03    -26.6952E-03     53.4717E-03    -26.7765E-03     6.13327E-03     54.9447E-03     116.065E+06    -35.4053E+06    -45.4012E+06    -156.124E+06    -48.8280E+06    -152.697E+06    -35.4053E+06    -18.9666E+06
            1756     93.8293E-03     3.89494E-03     93.7485E-03     53.6347E-03    -26.7994E-03    -26.8353E-03    -26.6473E-03     53.4510E-03    -26.8036E-03     7.65238E-03     56.0649E-03     115.013E+06    -24.4059E+06    -37.8522E+06    -145.546E+06    -43.6177E+06    -139.780E+06    -24.4059E+06    -23.9822E+06
            1757     93.8831E-03     4.86881E-03     93.7567E-03     53.7083E-03    -26.8224E-03    -26.8859E-03    -26.6389E-03     53.4613E-03    -26.8224E-03     8.89047E-03     57.5944E-03     116.137E+06    -14.9760E+06    -29.9179E+06    -137.859E+06    -38.3320E+06    -129.445E+06    -14.9760E+06    -28.8694E+06
            1758     93.9479E-03     5.84257E-03     93.7660E-03     53.7661E-03    -26.8328E-03    -26.9332E-03    -26.6247E-03     53.4576E-03    -26.8328E-03     9.94765E-03     59.5313E-03     116.982E+06    -7.49582E+06    -22.0004E+06    -131.050E+06    -32.7685E+06    -120.282E+06    -7.49582E+06    -32.4446E+06
            1759     94.0238E-03     6.81636E-03     93.7764E-03     53.8224E-03    -26.8369E-03    -26.9855E-03    -26.6297E-03     53.4666E-03    -26.8369E-03     10.6969E-03     61.9510E-03     116.058E+06    -1.04437E+06    -14.0218E+06    -123.039E+06    -27.2275E+06    -109.833E+06    -1.04437E+06    -35.5003E+06
            1760     94.1099E-03     7.79026E-03     93.7869E-03     53.8738E-03    -26.8279E-03    -27.0459E-03    -26.6444E-03     53.4723E-03    -26.8279E-03     11.3633E-03     64.9090E-03     114.717E+06     1.54233E+06    -7.00146E+06    -117.155E+06    -22.3412E+06    -101.815E+06     1.54233E+06    -38.1107E+06
            1761     94.2072E-03     8.76388E-03     93.7987E-03     53.8624E-03    -26.7967E-03    -27.0657E-03    -26.6059E-03     53.4026E-03    -26.7967E-03     12.1580E-03     68.4742E-03     110.519E+06     300.227E+03    -3.06014E+06    -111.855E+06    -19.0992E+06    -94.7818E+06    -734.334E+03    -39.7731E+06
            1762     94.3150E-03     9.73807E-03     93.8109E-03     53.8335E-03    -26.7627E-03    -27.0708E-03    -26.5630E-03     53.3256E-03    -26.7627E-03     12.7770E-03     72.6087E-03     105.684E+06     1.58614E+06    -3.37418E+06    -106.458E+06    -17.2930E+06    -87.5786E+06    -3.37418E+06    -41.0012E+06
            1763     94.4331E-03     10.7117E-03     93.8236E-03     53.7424E-03    -26.7072E-03    -27.0352E-03    -26.4506E-03     53.1579E-03    -26.7072E-03     13.6753E-03     77.8093E-03     101.188E+06     4.25547E+06    -10.0367E+06    -103.144E+06    -16.3117E+06    -82.5766E+06    -10.0367E+06    -42.2481E+06
            1764     94.5626E-03     11.6860E-03     93.8378E-03     53.6187E-03    -26.6251E-03    -26.9937E-03    -26.2893E-03     52.9143E-03    -26.6251E-03     14.9901E-03     84.4496E-03     94.1565E+06     6.52172E+06    -19.6284E+06    -97.7404E+06    -15.3666E+06     -75.852E+06    -19.6284E+06    -42.4254E+06
            1765     94.7033E-03     12.6603E-03     93.8532E-03     53.5629E-03    -26.5294E-03    -27.0335E-03    -26.1434E-03     52.6728E-03    -26.5294E-03     16.8018E-03     92.2708E-03     81.1530E+06     8.88658E+06    -27.7937E+06    -83.6654E+06    -14.1625E+06    -60.6163E+06    -27.7937E+06    -39.9098E+06
            1766     94.8559E-03     13.6348E-03     93.8708E-03     53.5475E-03    -26.4035E-03    -27.1441E-03    -25.9236E-03     52.3271E-03    -26.4035E-03     19.6224E-03     100.377E-03     68.7170E+06     15.9111E+06    -36.2474E+06    -59.2646E+06    -13.5698E+06    -29.7837E+06    -36.2474E+06    -35.3687E+06
            1767     95.0225E-03     14.6091E-03     93.8928E-03     52.6839E-03    -26.0130E-03    -26.6709E-03    -25.3394E-03     51.5690E-03    -26.2295E-03     18.4880E-03     98.9889E-03     104.904E+06     71.6884E+06    -27.9465E+06    -37.7176E+06    -13.0180E+06     55.0578E+06    -36.0156E+06    -25.7007E+06
            1768     95.1930E-03     15.5848E-03     93.9085E-03     52.3146E-03    -25.9499E-03    -26.3647E-03    -24.6348E-03     50.8012E-03    -26.1664E-03     20.9467E-03     108.815E-03     164.303E+06     153.107E+06     28.1623E+03    -20.3684E+06    -10.8923E+06     151.700E+06    -8.04088E+06    -11.9327E+06
            1769     95.3844E-03     16.5602E-03     93.9358E-03     51.6080E-03    -24.9824E-03    -26.6256E-03    -24.0581E-03     50.4854E-03    -26.4273E-03     11.8243E-03     96.8638E-03     182.145E+06     193.813E+06     68.3897E+06    -7.01869E+06    -6.93574E+06     193.730E+06     68.3897E+06    -3.58439E+06
            1770     94.7924E-03     973.801E-06     94.7874E-03     53.3180E-03    -26.5963E-03    -26.7217E-03    -26.6997E-03     53.2960E-03    -26.5963E-03     2.53366E-03     53.5161E-03     109.908E+06    -46.4773E+06    -48.3950E+06    -157.329E+06    -48.5737E+06    -156.535E+06    -47.0924E+06    -8.44400E+06
            1771     94.8106E-03     1.94763E-03     94.7906E-03     53.4197E-03    -26.6848E-03    -26.7349E-03    -26.6731E-03     53.3579E-03    -26.6848E-03     4.33216E-03     54.0353E-03     109.980E+06    -39.0107E+06    -42.6845E+06    -150.761E+06    -44.9719E+06    -148.474E+06    -39.0107E+06    -15.1509E+06
            1772     94.8409E-03     2.92137E-03     94.7959E-03     53.5252E-03    -26.7349E-03    -26.7903E-03    -26.6679E-03     53.4028E-03    -26.7349E-03     6.20710E-03     54.8673E-03     113.337E+06    -27.0628E+06    -35.1528E+06    -144.203E+06    -39.3735E+06    -139.983E+06    -27.0628E+06    -20.8144E+06
            1773     94.8827E-03     3.89519E-03     94.8028E-03     53.6214E-03    -26.7729E-03    -26.8485E-03    -26.6581E-03     53.4310E-03    -26.7729E-03     7.78544E-03     56.0296E-03     114.276E+06    -14.7941E+06    -26.2406E+06    -134.351E+06    -32.7332E+06    -127.859E+06    -14.7941E+06    -25.4627E+06
            1774     94.9360E-03     4.86890E-03     94.8111E-03     53.6912E-03    -26.8022E-03    -26.8890E-03    -26.6335E-03     53.4357E-03    -26.8022E-03     9.04250E-03     57.5584E-03     116.488E+06    -4.44557E+06    -18.2903E+06    -127.232E+06    -26.9055E+06    -118.616E+06    -4.44557E+06    -29.3734E+06
            1775     95.0002E-03     5.84276E-03     94.8204E-03     53.7281E-03    -26.8103E-03    -26.9177E-03    -26.6014E-03     53.4117E-03    -26.8103E-03     10.0691E-03     59.4569E-03     117.720E+06     1.97203E+06    -11.1381E+06    -121.734E+06    -22.3314E+06    -110.541E+06     1.97203E+06    -33.2104E+06
            1776     95.0753E-03     6.81677E-03     94.8306E-03     53.7851E-03    -26.8072E-03    -26.9779E-03    -26.6077E-03     53.4149E-03    -26.8072E-03     10.9049E-03     61.8386E-03     116.369E+06     6.67364E+06    -4.06021E+06    -114.682E+06    -18.1503E+06    -100.592E+06     6.67364E+06    -36.8486E+06
            1777     95.1610E-03     7.79038E-03     94.8416E-03     53.8618E-03    -26.8026E-03    -27.0593E-03    -26.6413E-03     53.4438E-03    -26.8026E-03     11.5952E-03     64.8129E-03     115.881E+06     8.86324E+06     1.18947E+06    -110.640E+06    -14.5617E+06    -94.8886E+06     8.86324E+06    -38.8932E+06
            1778     95.2569E-03     8.76438E-03     94.8529E-03     53.8804E-03    -26.7766E-03    -27.1038E-03    -26.6284E-03     53.4050E-03    -26.7766E-03     12.3653E-03     68.3927E-03     111.123E+06     7.35858E+06     4.15485E+06    -105.322E+06    -12.1220E+06    -88.2527E+06     6.56594E+06    -39.8588E+06
            1779     95.3638E-03     9.73814E-03     94.8653E-03     53.8183E-03    -26.7447E-03    -27.0736E-03    -26.5571E-03     53.3018E-03    -26.7447E-03     12.8848E-03     72.4923E-03     106.349E+06     8.16698E+06     3.50789E+06    -100.399E+06    -10.5865E+06    -81.6453E+06     3.50789E+06    -41.0205E+06
            1780     95.4809E-03     10.7123E-03     94.8780E-03     53.6857E-03    -26.6899E-03    -26.9958E-03    -26.4119E-03     53.1018E-03    -26.6899E-03     13.6590E-03     77.6751E-03     101.858E+06     10.3581E+06    -3.24004E+06    -97.4704E+06    -9.82477E+06    -77.2875E+06    -3.24004E+06    -42.0375E+06
            1781     95.6086E-03     11.6863E-03     94.8917E-03     53.6258E-03    -26.6090E-03    -27.0167E-03    -26.3037E-03     52.9127E-03    -26.6090E-03     15.0809E-03     84.3166E-03     95.5135E+06     11.4392E+06    -13.5881E+06    -93.9093E+06    -10.3700E+06    -72.1000E+06    -13.5881E+06    -42.6330E+06
            1782     95.7479E-03     12.6607E-03     94.9071E-03     53.6020E-03    -26.5147E-03    -27.0874E-03    -26.2105E-03     52.7252E-03    -26.5147E-03     16.7064E-03     92.2139E-03     85.1022E+06     12.4437E+06    -24.1537E+06    -84.3763E+06    -11.3803E+06    -60.5523E+06    -24.1537E+06    -41.5951E+06
            1783     95.8991E-03     13.6349E-03     94.9248E-03     53.5093E-03    -26.3988E-03    -27.1106E-03    -25.8978E-03     52.2965E-03    -26.3988E-03     19.5245E-03     100.294E-03     70.3794E+06     16.4959E+06    -32.7933E+06    -62.1752E+06    -11.9458E+06    -33.7335E+06    -32.7933E+06    -36.8488E+06
            1784     96.0636E-03     14.6098E-03     94.9461E-03     52.6788E-03    -26.0573E-03    -26.6215E-03    -25.3166E-03     51.5466E-03    -26.2300E-03     18.6175E-03     98.9437E-03     96.2444E+06     62.6255E+06    -26.2279E+06    -39.3979E+06    -12.2850E+06     43.2341E+06    -33.9492E+06    -27.4613E+06
            1785     96.2318E-03     15.5849E-03     94.9614E-03     52.2194E-03    -25.9513E-03    -26.2681E-03    -24.5779E-03     50.7019E-03    -26.1240E-03     20.9527E-03     108.707E-03     155.728E+06     141.339E+06    -6.50798E+06    -21.1645E+06    -11.2057E+06     139.102E+06    -14.2293E+06    -15.2349E+06
            1786     96.4213E-03     16.5615E-03     94.9883E-03     51.3618E-03    -24.8585E-03    -26.5033E-03    -23.8781E-03     50.2373E-03    -26.3592E-03     11.7394E-03     96.5994E-03     179.038E+06     188.304E+06     60.6428E+06    -7.00379E+06    -6.74755E+06     188.048E+06     60.6428E+06    -5.62160E+06
            1787     95.8463E-03     973.862E-06     95.8414E-03     53.2985E-03    -26.5813E-03    -26.7172E-03    -26.6809E-03     53.2750E-03    -26.5941E-03     2.61242E-03     53.4952E-03     106.136E+06    -33.1227E+06    -34.7080E+06    -140.039E+06    -34.9944E+06    -139.098E+06    -33.7775E+06    -9.10715E+06
            1788     95.8647E-03     1.94763E-03     95.8449E-03     53.3303E-03    -26.6443E-03    -26.6859E-03    -26.6085E-03     53.2656E-03    -26.6571E-03     4.43673E-03     53.9404E-03     106.612E+06    -27.3581E+06    -29.7188E+06    -135.125E+06    -32.4400E+06    -132.364E+06    -27.3978E+06    -16.4188E+06
            1789     95.8945E-03     2.92156E-03     95.8500E-03     53.4162E-03    -26.6852E-03    -26.7310E-03    -26.6034E-03     53.2887E-03    -26.6852E-03     6.32546E-03     54.7404E-03     110.815E+06    -17.7502E+06    -23.1413E+06    -131.146E+06    -28.3153E+06    -125.973E+06    -17.7502E+06    -22.8833E+06
            1790     95.9362E-03     3.89536E-03     95.8571E-03     53.4928E-03    -26.7151E-03    -26.7777E-03    -26.5767E-03     53.2918E-03    -26.7151E-03     7.98452E-03     55.8672E-03     113.418E+06    -6.46480E+06    -15.3087E+06    -124.035E+06    -22.9229E+06    -116.421E+06    -6.46480E+06    -27.6119E+06
            1791     95.9889E-03     4.86932E-03     95.8653E-03     53.5955E-03    -26.7449E-03    -26.8506E-03    -26.5800E-03     53.3249E-03    -26.7449E-03     9.29745E-03     57.4061E-03     117.083E+06     4.61815E+06    -7.28381E+06    -117.947E+06    -16.6690E+06    -108.561E+06     4.61815E+06    -30.7960E+06
            1792     96.0526E-03     5.84321E-03     95.8747E-03     53.6852E-03    -26.7572E-03    -26.9280E-03    -26.5932E-03     53.3504E-03    -26.7572E-03     10.3535E-03     59.3398E-03     118.212E+06     11.9495E+06     745.530E+03    -111.444E+06    -10.9038E+06    -99.7946E+06     11.9495E+06    -34.0737E+06
            1793     96.1270E-03     6.81693E-03     95.8850E-03     53.7094E-03    -26.7574E-03    -26.9520E-03    -26.5604E-03     53.3179E-03    -26.7574E-03     11.2044E-03     61.6751E-03     117.692E+06     16.2755E+06     7.02923E+06    -105.766E+06    -6.78058E+06    -91.9560E+06     16.2755E+06    -36.9476E+06
            1794     96.2119E-03     7.79116E-03     95.8959E-03     53.7827E-03    -26.7521E-03    -27.0306E-03    -26.5872E-03     53.3393E-03    -26.7521E-03     11.9317E-03     64.5979E-03     117.927E+06     17.7089E+06     10.7616E+06    -103.516E+06    -4.23641E+06    -88.5179E+06     17.7089E+06    -38.5439E+06
            1795     96.3071E-03     8.76489E-03     95.9074E-03     53.8599E-03    -26.7276E-03    -27.1323E-03    -26.6317E-03     53.3593E-03    -26.7276E-03     12.6879E-03     68.2035E-03     113.052E+06     16.3254E+06     13.2188E+06    -98.2424E+06    -2.28564E+06    -81.7384E+06     15.3258E+06    -39.7568E+06
            1796     96.4130E-03     9.73874E-03     95.9198E-03     53.7863E-03    -26.7005E-03    -27.0858E-03    -26.5410E-03     53.2415E-03    -26.7005E-03     13.2265E-03     72.2477E-03     108.325E+06     16.6560E+06     12.1566E+06    -93.8204E+06    -1.13988E+06    -76.0245E+06     12.1566E+06    -40.5753E+06
            1797     96.5282E-03     10.7127E-03     95.9319E-03     53.6883E-03    -26.6496E-03    -27.0387E-03    -26.4367E-03     53.0862E-03    -26.6496E-03     13.8789E-03     77.4597E-03     103.085E+06     17.1507E+06     4.77247E+06    -91.4344E+06    -1.43487E+06    -72.8487E+06     4.77247E+06    -40.8732E+06
            1798     96.6550E-03     11.6872E-03     95.9458E-03     53.6643E-03    -26.5785E-03    -27.0858E-03    -26.3506E-03     52.9291E-03    -26.5785E-03     15.3079E-03     84.1068E-03     95.5847E+06     16.7464E+06    -5.30815E+06    -87.7974E+06    -3.19040E+06    -67.8605E+06    -5.30815E+06    -40.9820E+06
            1799     96.7930E-03     12.6609E-03     95.9613E-03     53.6067E-03    -26.4886E-03    -27.1182E-03    -26.2017E-03     52.6903E-03    -26.4886E-03     17.0784E-03     91.9251E-03     85.0994E+06     15.3174E+06    -17.3479E+06    -80.8494E+06    -6.48986E+06    -59.0422E+06    -17.3479E+06    -40.1416E+06
            1800     96.9420E-03     13.6355E-03     95.9782E-03     53.4546E-03    -26.3739E-03    -27.0808E-03    -25.8575E-03     52.2313E-03    -26.3739E-03     19.6160E-03     100.104E-03     70.5056E+06     16.4221E+06    -28.2448E+06    -63.6128E+06    -9.69104E+06    -37.4997E+06    -28.2448E+06    -36.7115E+06
            1801     97.1047E-03     14.6106E-03     95.9992E-03     52.6535E-03    -26.0780E-03    -26.5754E-03    -25.3046E-03     51.5166E-03    -26.2120E-03     18.6737E-03     98.7908E-03     89.1778E+06     56.3346E+06    -23.6451E+06    -39.3248E+06    -10.4259E+06     33.7694E+06    -29.9787E+06    -29.1083E+06
            1802     97.2716E-03     15.5859E-03     96.0148E-03     52.2078E-03    -25.9448E-03    -26.2630E-03    -24.6382E-03     50.7169E-03    -26.0787E-03     20.8498E-03     108.678E-03     145.563E+06     130.771E+06    -9.54650E+06    -19.3671E+06    -9.07651E+06     127.509E+06    -16.5752E+06    -18.1191E+06
            1803     97.4578E-03     16.5611E-03     96.0404E-03     51.0750E-03    -24.6068E-03    -26.4683E-03    -23.7093E-03     49.9932E-03    -26.2840E-03     11.7691E-03     96.3981E-03     172.932E+06     180.396E+06     54.2306E+06    -6.96161E+06    -5.82144E+06     179.951E+06     53.5354E+06    -7.51923E+06
            1804     96.9004E-03     973.784E-06     96.8955E-03     53.1712E-03    -26.4861E-03    -26.6851E-03    -26.6469E-03     53.1458E-03    -26.4989E-03     2.68468E-03     53.3645E-03     102.062E+06    -19.3413E+06    -19.8746E+06    -121.668E+06    -20.7398E+06    -120.561E+06    -19.5832E+06    -9.81908E+06
            1805     96.9184E-03     1.94790E-03     96.8988E-03     53.1876E-03    -26.5677E-03    -26.6198E-03    -26.5306E-03     53.1174E-03    -26.5868E-03     4.62044E-03     53.7854E-03     103.692E+06    -13.8314E+06    -14.9653E+06    -118.082E+06    -18.0912E+06    -114.916E+06    -13.8712E+06    -17.3463E+06
            1806     96.9483E-03     2.92172E-03     96.9043E-03     53.2323E-03    -26.5989E-03    -26.6334E-03    -26.4900E-03     53.0952E-03    -26.6052E-03     6.54535E-03     54.5325E-03     109.820E+06    -5.02702E+06    -8.88051E+06    -116.713E+06    -14.5640E+06    -111.030E+06    -5.02702E+06    -23.9837E+06
            1807     96.9893E-03     3.89584E-03     96.9110E-03     53.2820E-03    -26.6161E-03    -26.6659E-03    -26.4495E-03     53.0655E-03    -26.6161E-03     8.26836E-03     55.6037E-03     113.533E+06     3.78950E+06    -2.20771E+06    -112.609E+06    -10.4510E+06    -104.366E+06     3.78950E+06    -28.8882E+06
            1808     97.0419E-03     4.86988E-03     96.9196E-03     53.3809E-03    -26.6321E-03    -26.7488E-03    -26.4535E-03     53.0856E-03    -26.6321E-03     9.68714E-03     57.0936E-03     117.558E+06     13.0522E+06     4.72340E+06    -108.426E+06    -5.75166E+06    -97.9507E+06     13.0522E+06    -32.7779E+06
            1809     97.1049E-03     5.84382E-03     96.9289E-03     53.4759E-03    -26.6415E-03    -26.8344E-03    -26.4642E-03     53.1057E-03    -26.6415E-03     10.8605E-03     58.9863E-03     118.944E+06     20.2371E+06     11.4556E+06    -102.843E+06    -883.521E+03    -90.5036E+06     20.2371E+06    -35.4007E+06
            1810     97.1788E-03     6.81798E-03     96.9393E-03     53.5629E-03    -26.6440E-03    -26.9190E-03    -26.4847E-03     53.1286E-03    -26.6440E-03     11.7800E-03     61.3386E-03     118.349E+06     24.6521E+06     16.5808E+06    -97.5209E+06     2.97872E+06    -83.9189E+06     24.6521E+06    -36.9626E+06
            1811     97.2626E-03     7.79181E-03     96.9499E-03     53.6549E-03    -26.6439E-03    -27.0109E-03    -26.5136E-03     53.1575E-03    -26.6439E-03     12.6097E-03     64.2150E-03     119.518E+06     26.4218E+06     20.5567E+06    -95.8931E+06     6.12087E+06    -81.4572E+06     26.4218E+06    -38.3552E+06
            1812     97.3575E-03     8.76583E-03     96.9621E-03     53.6653E-03    -26.6188E-03    -27.0464E-03    -26.4852E-03     53.1040E-03    -26.6188E-03     13.3982E-03     67.6795E-03     115.437E+06     25.1248E+06     22.4195E+06    -91.6381E+06     8.11278E+06    -76.0800E+06     23.8734E+06    -39.3722E+06
            1813     97.4616E-03     9.74000E-03     96.9737E-03     53.6443E-03    -26.5928E-03    -27.0515E-03    -26.4422E-03     53.0350E-03    -26.5928E-03     13.9596E-03     71.6962E-03     111.067E+06     25.0472E+06     20.9842E+06    -87.9861E+06     8.80816E+06    -71.7471E+06     20.9842E+06    -39.6233E+06
            1814     97.5766E-03     10.7141E-03     96.9866E-03     53.7376E-03    -26.5522E-03    -27.1854E-03    -26.4945E-03     53.0468E-03    -26.5522E-03     14.8541E-03     76.9802E-03     105.013E+06     24.4528E+06     14.1078E+06    -85.2524E+06     8.25280E+06    -69.0524E+06     14.1078E+06    -38.8520E+06
            1815     97.7013E-03     11.6877E-03     96.9997E-03     53.6951E-03    -26.4962E-03    -27.1989E-03    -26.3903E-03     52.8865E-03    -26.4962E-03     16.0632E-03     83.6141E-03     95.4162E+06     22.2392E+06     4.36222E+06    -80.7711E+06     5.65202E+06    -64.1839E+06     4.36222E+06    -37.7397E+06
            1816     97.8380E-03     12.6627E-03     97.0151E-03     53.5569E-03    -26.4154E-03    -27.1415E-03    -26.1519E-03     52.5673E-03    -26.4154E-03     17.7232E-03     91.3374E-03     84.0576E+06     18.5241E+06    -8.20220E+06    -75.2780E+06     1.34076E+06    -58.0946E+06    -8.20220E+06    -36.1289E+06
            1817     97.9856E-03     13.6369E-03     97.0320E-03     53.5844E-03    -26.3077E-03    -27.2766E-03    -25.9980E-03     52.3058E-03    -26.3077E-03     20.1277E-03     99.7250E-03     68.1952E+06     17.5696E+06    -20.5815E+06    -60.0128E+06    -3.89206E+06    -38.5511E+06    -20.5815E+06    -33.5671E+06
            1818     98.1460E-03     14.6113E-03     97.0522E-03     52.7746E-03    -26.0586E-03    -26.7160E-03    -25.4341E-03     51.6019E-03    -26.1678E-03     19.0367E-03     98.5431E-03     81.6404E+06     52.1334E+06    -20.7949E+06    -34.6394E+06    -8.47085E+06     28.4252E+06    -23.2553E+06    -29.1281E+06
            1819     98.3113E-03     15.5867E-03     97.0678E-03     52.1053E-03    -25.8925E-03    -26.2128E-03    -24.5836E-03     50.5852E-03    -26.0016E-03     21.1103E-03     108.374E-03     136.964E+06     120.215E+06    -13.1481E+06    -19.9594E+06    -9.00441E+06     115.894E+06    -19.7820E+06    -20.6596E+06
            1820     98.4954E-03     16.5633E-03     97.0927E-03     50.7799E-03    -24.4041E-03    -26.3758E-03    -23.5389E-03     49.7035E-03    -26.1646E-03     11.7539E-03     96.0271E-03     166.161E+06     170.233E+06     47.5448E+06    -10.2317E+06    -5.28208E+06     169.457E+06     43.3713E+06    -9.34709E+06
            1821     97.9543E-03     974.246E-06     97.9494E-03     52.8192E-03    -26.3367E-03    -26.4826E-03    -26.4432E-03     52.7918E-03    -26.3486E-03     2.75764E-03     53.0054E-03     95.7483E+06    -6.42605E+06    -6.68862E+06    -102.305E+06    -7.84264E+06    -100.949E+06    -6.62820E+06    -10.5071E+06
            1822     97.9723E-03     1.94804E-03     97.9529E-03     52.8189E-03    -26.3881E-03    -26.4309E-03    -26.3339E-03     52.7402E-03    -26.4063E-03     4.87154E-03     53.3953E-03     98.9447E+06    -1.47037E+06    -2.08959E+06    -100.722E+06    -5.66656E+06    -97.1449E+06    -1.47037E+06    -18.1236E+06
            1823     98.0016E-03     2.92241E-03     97.9580E-03     52.8592E-03    -26.4071E-03    -26.4521E-03    -26.2904E-03     52.7038E-03    -26.4134E-03     6.93940E-03     54.1083E-03     106.322E+06     5.77215E+06     3.56904E+06    -101.627E+06    -2.68938E+06    -95.3682E+06     5.77215E+06    -24.7376E+06
            1824     98.0425E-03     3.89650E-03     97.9651E-03     52.9214E-03    -26.4182E-03    -26.5032E-03    -26.2575E-03     52.6758E-03    -26.4182E-03     8.77167E-03     55.1481E-03     112.026E+06     13.4010E+06     10.1392E+06    -100.216E+06     1.27550E+06    -91.3525E+06     13.4010E+06    -29.8916E+06
            1825     98.0943E-03     4.87077E-03     97.9733E-03     52.9586E-03    -26.4215E-03    -26.5371E-03    -26.1961E-03     52.6176E-03    -26.4215E-03     10.3532E-03     56.5155E-03     116.593E+06     21.1473E+06     16.4454E+06    -97.7076E+06     5.24310E+06    -86.5053E+06     21.1473E+06    -33.9197E+06
            1826     98.1571E-03     5.84516E-03     97.9829E-03     53.0412E-03    -26.4194E-03    -26.6218E-03    -26.1883E-03     52.6077E-03    -26.4194E-03     11.6907E-03     58.3114E-03     119.895E+06     27.2904E+06     21.5826E+06    -95.3424E+06     8.94658E+06    -82.7064E+06     27.2904E+06    -36.2893E+06
            1827     98.2300E-03     6.81939E-03     97.9930E-03     53.1803E-03    -26.4140E-03    -26.7662E-03    -26.2434E-03     52.6574E-03    -26.4140E-03     12.8519E-03     60.5998E-03     118.670E+06     31.5200E+06     25.5122E+06    -90.0326E+06     12.1303E+06    -76.6507E+06     31.5200E+06    -36.9586E+06
            1828     98.3138E-03     7.79357E-03     98.0044E-03     53.2687E-03    -26.4118E-03    -26.8569E-03    -26.2497E-03     52.6615E-03    -26.4118E-03     13.8642E-03     63.3621E-03     119.407E+06     33.4518E+06     28.2304E+06    -88.4621E+06     14.0089E+06    -74.2406E+06     33.4518E+06    -38.1717E+06
            1829     98.4068E-03     8.76794E-03     98.0154E-03     53.3036E-03    -26.3843E-03    -26.9194E-03    -26.2250E-03     52.6092E-03    -26.3843E-03     14.8216E-03     66.6990E-03     116.512E+06     31.9633E+06     28.5976E+06    -86.1874E+06     15.3554E+06    -71.4213E+06     30.4394E+06    -38.7105E+06
            1830     98.5111E-03     9.74212E-03     98.0282E-03     53.3822E-03    -26.3607E-03    -27.0215E-03    -26.2637E-03     52.6244E-03    -26.3607E-03     15.4970E-03     70.7003E-03     111.885E+06     30.8907E+06     27.8416E+06    -82.4759E+06     15.9170E+06    -67.5022E+06     27.8416E+06    -38.3771E+06
            1831     98.6238E-03     10.7164E-03     98.0399E-03     53.5665E-03    -26.3333E-03    -27.2332E-03    -26.3698E-03     52.7031E-03    -26.3333E-03     16.5611E-03     75.9078E-03     107.049E+06     29.1748E+06     21.4869E+06    -81.4085E+06     15.1411E+06    -67.3747E+06     21.4869E+06    -36.7745E+06
            1832     98.7491E-03     11.6909E-03     98.0546E-03     53.7164E-03    -26.2975E-03    -27.4188E-03    -26.4469E-03     52.7445E-03    -26.2975E-03     17.6246E-03     82.6236E-03     95.4177E+06     25.4563E+06     12.7368E+06    -75.6250E+06     12.4691E+06    -62.6378E+06     12.7368E+06    -33.7207E+06
            1833     98.8823E-03     12.6643E-03     98.0679E-03     53.6972E-03    -26.2496E-03    -27.4476E-03    -26.3060E-03     52.5555E-03    -26.2496E-03     19.0445E-03     90.5563E-03     82.6872E+06     20.0359E+06     1.45914E+06    -70.0273E+06     7.60541E+06    -57.5968E+06     1.45914E+06    -30.9447E+06
            1834     99.0301E-03     13.6393E-03     98.0863E-03     53.7508E-03    -26.1678E-03    -27.5830E-03    -26.1173E-03     52.2851E-03    -26.1678E-03     21.5767E-03     98.8599E-03     63.2327E+06     17.0452E+06    -10.8300E+06    -54.4090E+06     1.59530E+06    -38.9591E+06    -10.8300E+06    -28.1756E+06
            1835     99.1879E-03     14.6136E-03     98.1055E-03     52.9982E-03    -26.0368E-03    -26.9613E-03    -25.6342E-03     51.7004E-03    -26.0662E-03     20.0307E-03     98.0416E-03     71.3160E+06     50.4023E+06    -10.4356E+06    -25.9054E+06    -3.14493E+06     27.6419E+06    -10.4356E+06    -26.2181E+06
            1836     99.3511E-03     15.5889E-03     98.1205E-03     52.1909E-03    -25.8650E-03    -26.3259E-03    -24.6691E-03     50.5636E-03    -25.8944E-03     21.8412E-03     107.910E-03     124.368E+06     111.382E+06    -7.90557E+06    -17.3939E+06    -5.98463E+06     106.661E+06    -14.5942E+06    -21.3245E+06
            1837     99.5325E-03     16.5645E-03     98.1445E-03     50.6628E-03    -24.3181E-03    -26.3447E-03    -23.4934E-03     49.5050E-03    -26.0116E-03     12.0922E-03     95.5178E-03     156.003E+06     157.949E+06     43.0250E+06    -13.1237E+06    -5.38472E+06     156.899E+06     36.3364E+06    -10.7965E+06
            1838     99.0079E-03     974.161E-06     99.0031E-03     52.1406E-03    -26.0190E-03    -26.1217E-03    -26.0766E-03     52.1087E-03    -26.0321E-03     2.97378E-03     52.3153E-03     90.6419E+06     8.75379E+06     8.20429E+06    -82.1606E+06     7.34986E+06    -80.7865E+06     8.23412E+06    -10.2583E+06
            1839     99.0254E-03     1.94901E-03     99.0062E-03     52.1263E-03    -26.0435E-03    -26.0828E-03    -25.9777E-03     52.0343E-03    -26.0566E-03     5.22042E-03     52.6644E-03     94.4294E+06     11.5843E+06     11.0144E+06    -83.1282E+06     7.68451E+06    -79.5327E+06     11.3186E+06    -17.8117E+06
            1840     99.0546E-03     2.92331E-03     99.0115E-03     52.1693E-03    -26.0529E-03    -26.1164E-03    -25.9325E-03     51.9854E-03    -26.0529E-03     7.49308E-03     53.3342E-03     101.747E+06     16.5388E+06     15.8191E+06    -85.5648E+06     9.23459E+06    -78.9425E+06     16.5011E+06    -24.8537E+06
            1841     99.0950E-03     3.89796E-03     99.0183E-03     52.1693E-03    -26.0420E-03    -26.1274E-03    -25.8290E-03     51.8710E-03    -26.0420E-03     9.57673E-03     54.2436E-03     108.660E+06     21.8628E+06     20.4042E+06    -87.5166E+06     11.2833E+06    -78.0453E+06     21.5124E+06    -30.5551E+06
            1842     99.1465E-03     4.87258E-03     99.0267E-03     52.1805E-03    -26.0184E-03    -26.1621E-03    -25.7362E-03     51.7546E-03    -26.0184E-03     11.4590E-03     55.4778E-03     112.637E+06     26.7892E+06     24.8225E+06    -86.8154E+06     13.6502E+06    -75.1676E+06     26.3138E+06    -34.1633E+06
            1843     99.2084E-03     5.84735E-03     99.0359E-03     52.2564E-03    -26.0009E-03    -26.2555E-03    -25.6970E-03     51.6980E-03    -26.0009E-03     13.1298E-03     57.1362E-03     117.021E+06     31.4102E+06     28.1686E+06    -87.1907E+06     15.6200E+06    -74.4794E+06     31.2475E+06    -36.1439E+06
            1844     99.2813E-03     6.82208E-03     99.0466E-03     52.3301E-03    -25.9740E-03    -26.3560E-03    -25.6624E-03     51.6364E-03    -25.9740E-03     14.6387E-03     59.1825E-03     116.510E+06     34.0489E+06     30.5250E+06    -84.1711E+06     17.3626E+06    -71.0022E+06     34.0424E+06    -36.5321E+06
            1845     99.3637E-03     7.79701E-03     99.0573E-03     52.4684E-03    -25.9556E-03    -26.5128E-03    -25.6906E-03     51.6462E-03    -25.9556E-03     15.9519E-03     61.7880E-03     115.716E+06     36.7049E+06     32.1514E+06    -81.1959E+06     18.6222E+06    -67.6602E+06     36.6984E+06    -36.7384E+06
            1846     99.4567E-03     8.77160E-03     99.0691E-03     52.6742E-03    -25.9277E-03    -26.7464E-03    -25.7946E-03     51.7224E-03    -25.9277E-03     17.1966E-03     65.0666E-03     113.804E+06     35.3277E+06     30.3996E+06    -80.8490E+06     18.2616E+06    -67.1056E+06     33.7224E+06    -36.8841E+06
            1847     99.5593E-03     9.74646E-03     99.0811E-03     52.9223E-03    -25.9119E-03    -27.0104E-03    -25.9512E-03     51.8630E-03    -25.9119E-03     18.1945E-03     69.0163E-03     108.072E+06     32.2029E+06     28.9687E+06    -77.4352E+06     16.9364E+06    -63.6341E+06     30.4342E+06    -36.0878E+06
            1848     99.6723E-03     10.7208E-03     99.0940E-03     53.2521E-03    -25.9113E-03    -27.3408E-03    -26.1584E-03     52.0696E-03    -25.9113E-03     19.2827E-03     74.1590E-03     105.207E+06     28.7454E+06     23.2270E+06    -79.0634E+06     14.8240E+06    -66.6075E+06     24.6925E+06    -34.1522E+06
            1849     99.7951E-03     11.6950E-03     99.1075E-03     53.5884E-03    -25.9011E-03    -27.6873E-03    -26.3656E-03     52.2667E-03    -25.9011E-03     20.4671E-03     80.8080E-03     94.8496E+06     23.4776E+06     15.8383E+06    -74.9427E+06     12.7438E+06    -64.2089E+06     15.8383E+06    -30.6691E+06
            1850     99.9293E-03     12.6695E-03     99.1229E-03     53.8832E-03    -25.8987E-03    -27.9845E-03    -26.5107E-03     52.4094E-03    -25.8987E-03     21.6947E-03     88.9728E-03     81.4767E+06     18.9042E+06     7.29734E+06    -67.6127E+06     10.0194E+06    -58.7280E+06     7.29734E+06    -26.1065E+06
            1851     100.073E-03     13.6432E-03     99.1385E-03     54.1312E-03    -25.8680E-03    -28.2632E-03    -26.4310E-03     52.2989E-03    -25.8680E-03     24.1974E-03     97.3959E-03     58.6680E+06     15.8079E+06    -2.92009E+06    -49.2988E+06     5.19496E+06    -38.6859E+06    -2.92009E+06    -22.6206E+06
            1852     100.232E-03     14.6178E-03     99.1603E-03     53.3592E-03    -25.8342E-03    -27.5250E-03    -25.9560E-03     51.7902E-03    -25.8342E-03     21.9815E-03     96.9984E-03     63.1025E+06     50.3519E+06     2.89542E+06    -19.6682E+06     730.796E+03     29.9529E+06     2.89542E+06    -22.5704E+06
            1853     100.391E-03     15.5924E-03     99.1722E-03     52.5944E-03    -25.7302E-03    -26.8642E-03    -25.0929E-03     50.8231E-03    -25.7302E-03     22.9179E-03     107.241E-03     107.381E+06     104.005E+06     4.44132E+06    -8.96488E+06    -1.46987E+06     99.7198E+06     1.23109E+06    -19.7287E+06
            1854     100.571E-03     16.5690E-03     99.1970E-03     51.0192E-03    -24.4549E-03    -26.5643E-03    -23.9193E-03     49.7601E-03    -25.8409E-03     12.6956E-03     95.2470E-03     138.488E+06     145.398E+06     44.7287E+06    -6.10015E+06    -1.82230E+06     144.330E+06     41.5185E+06    -10.0483E+06
            1855     100.060E-03     975.202E-06     100.056E-03     50.9115E-03    -25.3787E-03    -25.5327E-03    -25.4920E-03     50.8719E-03    -25.3799E-03     3.26053E-03     51.0672E-03     83.8922E+06     21.1482E+06     20.0768E+06    -63.2745E+06     19.6563E+06    -62.0997E+06     20.3938E+06    -9.00735E+06
            1856     100.078E-03     1.94988E-03     100.059E-03     50.9406E-03    -25.4365E-03    -25.5040E-03    -25.3874E-03     50.8251E-03    -25.4377E-03     5.76890E-03     51.4229E-03     87.4264E+06     22.8405E+06     21.9211E+06    -65.0416E+06     19.3013E+06    -61.6254E+06     22.0440E+06    -16.6594E+06
            1857     100.107E-03     2.92511E-03     100.064E-03     50.8870E-03    -25.4175E-03    -25.4695E-03    -25.2345E-03     50.6520E-03    -25.4175E-03     8.33634E-03     51.9285E-03       94.51E+06     25.8319E+06     24.4151E+06    -69.3694E+06     19.3390E+06    -62.9994E+06     24.5380E+06    -23.5914E+06
            1858     100.147E-03     3.90030E-03     100.071E-03     50.8214E-03    -25.3693E-03    -25.4520E-03    -25.0632E-03     50.4325E-03    -25.3693E-03     10.7598E-03     52.6680E-03     101.036E+06     28.2711E+06     26.3306E+06    -73.7121E+06     18.9906E+06    -64.4316E+06     26.3306E+06    -29.2743E+06
            1859     100.197E-03     4.87587E-03     100.079E-03     50.8065E-03    -25.3103E-03    -25.4963E-03    -24.9210E-03     50.2313E-03    -25.3103E-03     13.0931E-03     53.7257E-03     105.000E+06     29.5084E+06     27.7557E+06    -76.3539E+06     18.3076E+06    -65.1531E+06     27.7557E+06    -32.5318E+06
            1860     100.259E-03     5.85129E-03     100.088E-03     50.8390E-03    -25.2583E-03    -25.5807E-03    -24.8027E-03     50.0610E-03    -25.2583E-03     15.2369E-03     55.1435E-03     108.221E+06     30.9943E+06     28.7683E+06    -78.3160E+06     17.4586E+06    -66.1963E+06     30.1842E+06    -34.0553E+06
            1861     100.331E-03     6.82708E-03     100.098E-03     50.9222E-03    -25.2022E-03    -25.7199E-03    -24.7304E-03     49.9327E-03    -25.2022E-03     17.1856E-03     56.9602E-03     108.449E+06     31.1560E+06     29.2659E+06    -78.2183E+06     16.5183E+06    -65.4642E+06     31.1496E+06    -34.7342E+06
            1862     100.413E-03     7.80272E-03     100.109E-03     51.1527E-03    -25.1619E-03    -25.9908E-03    -24.7879E-03     49.9498E-03    -25.1619E-03     18.9893E-03     59.3613E-03     106.598E+06     32.8794E+06     28.7612E+06    -75.6823E+06     15.8131E+06    -62.7278E+06     32.8729E+06    -34.3857E+06
            1863     100.505E-03     8.77845E-03     100.121E-03     51.5967E-03    -25.1429E-03    -26.4537E-03    -25.0430E-03     50.1859E-03    -25.1429E-03     20.6574E-03     62.5718E-03     105.517E+06     32.4721E+06     26.0885E+06    -76.0682E+06     14.3688E+06    -63.8006E+06     31.9242E+06    -33.2204E+06
            1864     100.608E-03     9.75347E-03     100.134E-03     52.1246E-03    -25.1419E-03    -26.9827E-03    -25.3885E-03     50.5304E-03    -25.1419E-03     22.0852E-03     66.4611E-03     98.6459E+06     28.7444E+06     22.2945E+06    -72.9299E+06     10.9938E+06    -61.0814E+06     28.1965E+06    -31.4527E+06
            1865     100.720E-03     10.7285E-03     100.147E-03     52.7504E-03    -25.1762E-03    -27.5742E-03    -25.8012E-03     50.9773E-03    -25.1762E-03     23.4530E-03     71.5514E-03     97.3774E+06     24.4085E+06     18.2891E+06    -75.8648E+06     8.14400E+06    -64.5147E+06     23.2034E+06    -30.8024E+06
            1866     100.842E-03     11.7030E-03     100.161E-03     53.3948E-03    -25.2113E-03    -28.1835E-03    -26.2327E-03     51.4439E-03    -25.2113E-03     24.7959E-03     78.1578E-03     91.2037E+06     16.9291E+06     12.4495E+06    -76.4206E+06     6.11130E+06    -66.8069E+06     13.6536E+06    -28.1589E+06
            1867     100.975E-03     12.6771E-03     100.176E-03     54.1053E-03    -25.2723E-03    -28.8329E-03    -26.7443E-03     52.0166E-03    -25.2723E-03     25.8725E-03     86.5041E-03     78.0362E+06     11.3493E+06     5.52526E+06    -69.3406E+06     3.62061E+06    -62.1634E+06     6.07679E+06    -22.7940E+06
            1868     101.119E-03     13.6510E-03     100.193E-03     54.7876E-03    -25.3350E-03    -29.4525E-03    -27.0798E-03     52.4148E-03    -25.3350E-03     27.7776E-03     95.4188E-03     53.5630E+06     10.1480E+06     57.3695E+03    -47.2445E+06     1.23516E+06    -38.8832E+06     608.903E+03    -18.5819E+06
            1869     101.275E-03     14.6244E-03     100.213E-03     54.0036E-03    -25.4079E-03    -28.5957E-03    -26.6439E-03     52.0518E-03    -25.4079E-03     24.7485E-03     95.5266E-03     58.5448E+06     48.9145E+06     12.2578E+06    -17.5788E+06    -2.37970E+06     33.7154E+06     12.2578E+06    -17.7597E+06
            1870     101.433E-03     15.5988E-03     100.226E-03     53.4867E-03    -25.4226E-03    -28.0641E-03    -26.0725E-03     51.4951E-03    -25.4226E-03     24.7799E-03     106.269E-03     98.9005E+06     97.9233E+06     14.0157E+06    -9.30316E+06    -6.41996E+06     95.0401E+06     14.0157E+06    -16.4979E+06
            1871     101.609E-03     16.5729E-03     100.248E-03     52.0786E-03    -24.8572E-03    -27.2213E-03    -25.1254E-03     50.7276E-03    -25.6022E-03     13.2392E-03     95.3659E-03     127.870E+06     134.016E+06     48.4930E+06    -6.67333E+06    -5.70156E+06     133.044E+06     48.4930E+06    -9.45645E+06
            1872     101.111E-03     975.846E-06     101.107E-03     48.9403E-03    -24.3954E-03    -24.5449E-03    -24.4835E-03     48.8880E-03    -24.4045E-03     3.66903E-03     49.0720E-03     74.1041E+06     28.6816E+06     27.2047E+06    -46.1482E+06     27.3185E+06    -45.1020E+06     27.5217E+06    -7.84061E+06
            1873     101.129E-03     1.95195E-03     101.110E-03     48.8875E-03    -24.4087E-03    -24.4788E-03    -24.3168E-03     48.7346E-03    -24.4179E-03     6.49191E-03     49.2949E-03     76.1844E+06     29.4479E+06     27.0761E+06    -47.8794E+06     26.2852E+06    -44.7166E+06     27.0761E+06    -15.0249E+06
            1874     101.157E-03     2.92799E-03     101.115E-03     48.7695E-03    -24.3555E-03    -24.4141E-03    -24.0963E-03     48.4517E-03    -24.3555E-03     9.46863E-03     49.6441E-03     82.6453E+06     30.2479E+06     26.5284E+06    -54.1807E+06     24.4739E+06    -48.4068E+06     26.5284E+06    -21.1913E+06
            1875     101.196E-03     3.90451E-03     101.121E-03     48.6775E-03    -24.2721E-03    -24.4055E-03    -23.8680E-03     48.1401E-03    -24.2721E-03     12.3454E-03     50.2249E-03     88.1237E+06     30.0320E+06     26.4023E+06    -59.8457E+06     21.9311E+06    -51.7448E+06     26.4023E+06    -25.6849E+06
            1876     101.247E-03     4.88093E-03     101.129E-03     48.6144E-03    -24.1769E-03    -24.4375E-03    -23.6291E-03     47.8060E-03    -24.1769E-03     15.1400E-03     51.0525E-03     92.3725E+06     27.6500E+06     25.1362E+06    -65.9512E+06     18.1945E+06    -56.4957E+06     25.1362E+06    -28.1861E+06
            1877     101.307E-03     5.85802E-03     101.138E-03     48.6298E-03    -24.0755E-03    -24.5543E-03    -23.4340E-03     47.5095E-03    -24.0755E-03     17.8198E-03     52.2024E-03     93.4407E+06     24.8232E+06     23.2285E+06    -69.4035E+06     14.1079E+06    -59.0096E+06     23.5499E+06    -29.4382E+06
            1878     101.379E-03     6.83484E-03     101.148E-03     48.8404E-03    -23.9906E-03    -24.8498E-03    -23.3927E-03     47.3833E-03    -23.9906E-03     20.3560E-03     53.8454E-03     92.8831E+06     22.8709E+06     20.1017E+06    -71.3372E+06     9.49583E+06    -60.4830E+06     22.6225E+06    -29.6193E+06
            1879     101.460E-03     7.81190E-03     101.159E-03     49.2559E-03    -23.9339E-03    -25.3221E-03    -23.5141E-03     47.4479E-03    -23.9339E-03     22.7640E-03     56.0783E-03     89.0759E+06     21.9709E+06     15.2533E+06    -70.1946E+06     3.98601E+06    -58.9274E+06     21.9709E+06    -28.8464E+06
            1880     101.552E-03     8.78851E-03     101.171E-03     49.9798E-03    -23.9295E-03    -26.0503E-03    -23.8971E-03     47.8266E-03    -23.9295E-03     25.0372E-03     59.1805E-03     88.9597E+06     21.6249E+06     9.19972E+06    -72.6733E+06    -1.26436E+06    -62.2092E+06     21.6249E+06    -27.2091E+06
            1881     101.654E-03     9.76492E-03     101.184E-03     50.9071E-03    -23.9572E-03    -26.9499E-03    -24.5161E-03     48.4733E-03    -23.9572E-03     26.9243E-03     63.0894E-03     82.6037E+06     18.8861E+06     4.87512E+06    -69.6011E+06    -5.49177E+06    -59.2342E+06     18.8861E+06    -25.3879E+06
            1882     101.766E-03     10.7404E-03     101.198E-03     52.0151E-03    -24.0509E-03    -27.9642E-03    -25.3107E-03     49.3616E-03    -24.0509E-03     28.5016E-03     68.3214E-03     82.0098E+06     16.0997E+06     1.38699E+06    -71.7704E+06    -9.50966E+06    -60.8737E+06     16.0997E+06    -25.7439E+06
            1883     101.889E-03     11.7153E-03     101.213E-03     53.2400E-03    -24.1810E-03    -29.0591E-03    -26.2604E-03     50.4413E-03    -24.1810E-03     29.7299E-03     75.2371E-03     81.9683E+06     8.32993E+06    -3.17260E+06    -78.2153E+06    -12.4426E+06    -68.5161E+06     7.90071E+06    -25.0341E+06
            1884     102.021E-03     12.6894E-03     101.229E-03     54.5228E-03    -24.3515E-03    -30.1713E-03    -27.2865E-03     51.6381E-03    -24.3515E-03     30.6592E-03     83.9826E-03     71.1994E+06     1.64689E+06    -6.03743E+06    -72.8476E+06    -13.1937E+06    -65.2621E+06     1.21768E+06    -20.9888E+06
            1885     102.165E-03     13.6620E-03     101.247E-03     55.5931E-03    -24.5506E-03    -31.0425E-03    -28.0304E-03     52.5810E-03    -24.5506E-03     31.7028E-03     93.4339E-03     50.5856E+06     3.08611E+06    -5.02037E+06    -50.8589E+06    -12.7405E+06    -39.8228E+06    -229.824E+03    -17.4852E+06
            1886     102.320E-03     14.6345E-03     101.268E-03     55.0250E-03    -24.7736E-03    -30.2514E-03    -27.9223E-03     52.6960E-03    -24.7736E-03     27.4335E-03     94.4119E-03     58.4558E+06     44.8010E+06     16.9616E+06    -21.4819E+06    -11.4676E+06     34.7867E+06     16.9616E+06    -14.8715E+06
            1887     102.475E-03     15.6074E-03     101.280E-03     55.0160E-03    -24.9468E-03    -30.0692E-03    -27.8033E-03     52.7501E-03    -24.9468E-03     27.0869E-03     105.664E-03     97.1574E+06     96.3120E+06     23.3441E+06    -11.7932E+06    -10.1259E+06     94.6447E+06     23.3441E+06    -13.1812E+06
            1888     102.652E-03     16.5802E-03     101.304E-03     54.4796E-03    -25.1323E-03    -29.3473E-03    -27.6623E-03     52.9668E-03    -25.3046E-03     13.6267E-03     96.5851E-03     123.366E+06     126.432E+06     59.4239E+06    -8.24021E+06    -7.28841E+06     125.480E+06     59.4239E+06    -10.4457E+06
            1889     102.160E-03     977.305E-06     102.155E-03     46.0026E-03    -22.9453E-03    -23.0573E-03    -22.9692E-03     45.9327E-03    -22.9634E-03     4.10844E-03     46.1078E-03     65.6501E+06     36.0422E+06     33.0920E+06    -31.0036E+06     34.7465E+06    -30.1865E+06     33.5705E+06    -6.44815E+06
            1890     102.177E-03     1.95476E-03     102.158E-03     45.7902E-03    -22.8715E-03    -22.9187E-03    -22.6944E-03     45.5841E-03    -22.8896E-03     7.28194E-03     46.1089E-03     63.7337E+06     33.1984E+06     28.7542E+06    -32.6237E+06     30.7867E+06    -30.2120E+06     28.7542E+06    -12.1116E+06
            1891     102.205E-03     2.93259E-03     102.163E-03     45.6563E-03    -22.7754E-03    -22.8809E-03    -22.4471E-03     45.2225E-03    -22.7754E-03     10.6757E-03     46.3392E-03     67.7916E+06     29.5333E+06     24.6728E+06    -40.5545E+06     25.2660E+06    -36.2871E+06     24.6728E+06    -16.6277E+06
            1892     102.243E-03     3.91045E-03     102.169E-03     45.5280E-03    -22.6464E-03    -22.8817E-03    -22.1316E-03     44.7779E-03    -22.6464E-03     14.0660E-03     46.7274E-03     70.0072E+06     24.0435E+06     19.6661E+06    -48.0415E+06     18.3857E+06    -42.3837E+06     19.6661E+06    -19.3193E+06
            1893     102.293E-03     4.88897E-03     102.176E-03     45.4824E-03    -22.5098E-03    -22.9726E-03    -21.8298E-03     44.3396E-03    -22.5098E-03     17.3631E-03     47.3640E-03     71.9501E+06     17.0576E+06     14.6180E+06    -56.0698E+06     10.6056E+06    -49.6179E+06     14.6180E+06    -20.7109E+06
            1894     102.353E-03     5.86735E-03     102.185E-03     45.5950E-03    -22.3716E-03    -23.2234E-03    -21.6113E-03     43.9830E-03    -22.3716E-03     20.6269E-03     48.3388E-03     69.8253E+06     9.90648E+06     7.86920E+06    -60.8896E+06     1.69669E+06    -53.8854E+06     9.07477E+06    -20.8811E+06
            1895     102.424E-03     6.84632E-03     102.195E-03     46.0038E-03    -22.2711E-03    -23.7326E-03    -21.6054E-03     43.8766E-03    -22.2711E-03     23.7977E-03     49.8487E-03     67.6372E+06     6.31092E+06    -1.16497E+06    -64.4473E+06    -7.90482E+06    -57.4591E+06     6.06256E+06    -19.8581E+06
            1896     102.505E-03     7.82478E-03     102.206E-03     46.7882E-03    -22.2281E-03    -24.5602E-03    -21.9059E-03     44.1339E-03    -22.2281E-03     26.8246E-03     52.1001E-03     64.4570E+06     5.95451E+06    -9.97499E+06    -64.0709E+06    -17.2754E+06    -56.7705E+06     5.95451E+06    -18.3000E+06
            1897     102.597E-03     8.80313E-03     102.218E-03     47.9863E-03    -22.2717E-03    -25.7145E-03    -22.5761E-03     44.8478E-03    -22.2717E-03     29.6120E-03     55.3406E-03     67.8495E+06     8.37761E+06    -17.2258E+06    -67.4737E+06    -25.0135E+06    -59.6860E+06     8.37761E+06    -18.0883E+06
            1898     102.699E-03     9.78043E-03     102.232E-03     49.4734E-03    -22.3811E-03    -27.0924E-03    -23.6241E-03     46.0052E-03    -22.3811E-03     31.7284E-03     59.5505E-03     67.9571E+06     9.17781E+06    -20.0789E+06    -67.4449E+06    -30.0879E+06    -57.4359E+06     9.17781E+06    -18.4779E+06
            1899     102.812E-03     10.7568E-03     102.247E-03     51.2722E-03    -22.5881E-03    -28.6840E-03    -25.0383E-03     47.6265E-03    -22.5881E-03     33.2776E-03     65.2742E-03     69.2834E+06     10.6323E+06    -21.2800E+06    -67.9839E+06    -32.9342E+06    -56.3298E+06     10.6323E+06    -19.5503E+06
            1900     102.934E-03     11.7314E-03     102.264E-03     53.2494E-03    -22.8673E-03    -30.3820E-03    -26.7031E-03     49.5705E-03    -22.8673E-03     34.2452E-03     72.8294E-03     74.3081E+06     5.39294E+06    -20.8752E+06    -77.6511E+06    -32.8387E+06    -65.6876E+06     5.39294E+06    -22.8194E+06
            1901     103.068E-03     12.7043E-03     102.282E-03     55.1297E-03    -23.2027E-03    -31.9270E-03    -28.2962E-03     51.4989E-03    -23.2027E-03     34.7736E-03     82.1804E-03     70.3788E+06    -1.16385E+06    -18.6950E+06    -78.5442E+06    -29.1374E+06    -68.1019E+06    -1.16385E+06    -22.3261E+06
            1902     103.212E-03     13.6762E-03     102.301E-03     56.5988E-03    -23.5795E-03    -33.0193E-03    -29.4831E-03     53.0626E-03    -23.5795E-03     34.8778E-03     92.2509E-03     54.2887E+06     2.20146E+06    -9.36615E+06    -56.7759E+06    -24.2351E+06    -39.9540E+06     248.436E+03    -19.4485E+06
            1903     103.366E-03     14.6471E-03     102.323E-03     56.5168E-03    -24.0054E-03    -32.5114E-03    -29.9521E-03     53.9574E-03    -24.0054E-03     29.2903E-03     94.4199E-03     62.8957E+06     43.6780E+06     22.5990E+06    -26.3452E+06    -17.6544E+06     34.9872E+06     22.5990E+06    -18.0017E+06
            1904     103.520E-03     15.6175E-03     102.335E-03     57.3227E-03    -24.4021E-03    -32.9206E-03    -30.5695E-03     54.9716E-03    -24.4021E-03     28.4688E-03     106.340E-03     96.4110E+06     97.0866E+06     35.0543E+06    -11.3298E+06    -8.81069E+06     94.5675E+06     35.0543E+06    -15.5460E+06
            1905     103.696E-03     16.5875E-03     102.360E-03     58.2545E-03    -25.0153E-03    -33.2392E-03    -31.6681E-03     56.6834E-03    -25.0153E-03     13.5450E-03     99.2883E-03     116.715E+06     120.293E+06     73.4772E+06    -3.96628E+06    -2.90115E+06     119.228E+06     73.4772E+06    -10.5550E+06
            1906     103.205E-03     979.224E-06     103.200E-03     41.8232E-03    -20.8521E-03    -20.9711E-03    -20.8714E-03     41.7326E-03    -20.8612E-03     4.41659E-03     41.8983E-03     51.2081E+06     32.5941E+06     30.0484E+06    -19.8122E+06     31.7111E+06    -19.4078E+06     30.5269E+06    -4.01387E+06
            1907     103.221E-03     1.95890E-03     103.203E-03     41.6125E-03    -20.7673E-03    -20.8452E-03    -20.5617E-03     41.3381E-03    -20.7764E-03     8.00155E-03     41.8394E-03     46.7307E+06     26.7825E+06     23.1715E+06    -21.6326E+06     25.6857E+06    -20.5359E+06     23.1715E+06    -6.73572E+06
            1908     103.249E-03     2.93864E-03     103.207E-03     41.4380E-03    -20.6270E-03    -20.8111E-03    -20.2277E-03     40.8547E-03    -20.6270E-03     11.7744E-03     41.9189E-03     46.7895E+06     18.5111E+06     14.3895E+06    -30.1996E+06     16.6990E+06    -28.3875E+06     14.3895E+06    -8.71768E+06
            1909     103.287E-03     3.91896E-03     103.212E-03     41.3362E-03    -20.4555E-03    -20.8807E-03    -19.8637E-03     40.3192E-03    -20.4555E-03     15.5772E-03     42.1718E-03     45.8128E+06     8.16346E+06     4.07409E+06    -39.5525E+06     5.86789E+06    -37.2569E+06     4.07409E+06    -9.47241E+06
            1910     103.335E-03     4.89933E-03     103.219E-03     41.4075E-03    -20.2887E-03    -21.1187E-03    -19.5464E-03     39.8352E-03    -20.2887E-03     19.3800E-03     42.7094E-03     44.0598E+06    -3.06607E+06    -6.42857E+06    -48.6458E+06    -6.80778E+06    -46.2399E+06    -5.09279E+06    -8.80170E+06
            1911     103.395E-03     5.88032E-03     103.227E-03     41.8058E-03    -20.1558E-03    -21.6500E-03    -19.4183E-03     39.5741E-03    -20.1558E-03     23.1898E-03     43.7151E-03     41.7211E+06    -10.7739E+06    -18.3516E+06    -54.9183E+06    -20.7341E+06    -52.3300E+06    -10.9797E+06    -6.97613E+06
            1912     103.465E-03     6.86092E-03     103.237E-03     42.6334E-03    -20.0942E-03    -22.5392E-03    -19.5989E-03     39.6931E-03    -20.0942E-03     26.8914E-03     45.3733E-03     43.6043E+06    -11.4714E+06    -31.0303E+06    -58.7893E+06    -33.8523E+06    -55.9673E+06    -11.4714E+06    -5.65531E+06
            1913     103.546E-03     7.84162E-03     103.249E-03     43.9941E-03    -20.1252E-03    -23.8689E-03    -20.2430E-03     40.3683E-03    -20.1252E-03     30.3920E-03     47.9472E-03     48.0220E+06    -6.96642E+06    -39.5220E+06    -59.4366E+06    -43.5930E+06    -55.3656E+06    -6.96642E+06    -5.83371E+06
            1914     103.639E-03     8.82103E-03     103.262E-03     45.9153E-03    -20.2768E-03    -25.6385E-03    -21.4459E-03     41.7226E-03    -20.2768E-03     33.5154E-03     51.7190E-03     57.5217E+06     1.31804E+06    -40.4270E+06    -63.1875E+06    -48.8719E+06    -54.7426E+06     1.31804E+06    -8.50999E+06
            1915     103.742E-03     9.79927E-03     103.278E-03     48.1740E-03    -20.5356E-03    -27.6383E-03    -23.1331E-03     43.6687E-03    -20.5356E-03     35.7795E-03     56.5938E-03     64.3554E+06     7.20297E+06    -38.5598E+06    -65.9787E+06    -50.0522E+06    -54.4863E+06     7.20297E+06    -11.9615E+06
            1916     103.856E-03     10.7755E-03     103.295E-03     50.7435E-03    -20.9050E-03    -29.8385E-03    -25.2195E-03     46.1245E-03    -20.9050E-03     37.4085E-03     62.9575E-03     67.4218E+06     11.7584E+06    -31.6317E+06    -65.5107E+06    -47.6056E+06    -49.5368E+06     11.7584E+06    -16.0879E+06
            1917     103.980E-03     11.7495E-03     103.314E-03     53.5410E-03    -21.3782E-03    -32.1628E-03    -27.6519E-03     49.0302E-03    -21.3782E-03     38.2206E-03     71.2949E-03     74.7301E+06     9.14105E+06    -23.7486E+06    -75.8261E+06    -42.4649E+06    -57.1098E+06     9.14105E+06    -23.4916E+06
            1918     104.115E-03     12.7214E-03     103.334E-03     56.0744E-03    -21.9343E-03    -34.1401E-03    -29.9382E-03     51.8725E-03    -21.9343E-03     37.9947E-03     81.4871E-03     77.0866E+06     1.20385E+06    -21.8115E+06    -84.7405E+06    -36.0633E+06    -70.4888E+06     1.20385E+06    -26.0970E+06
            1919     104.259E-03     13.6913E-03     103.356E-03     58.0948E-03    -22.5368E-03    -35.5580E-03    -31.7145E-03     54.2513E-03    -22.5368E-03     37.1356E-03     92.3563E-03     65.0311E+06     8.48400E+06    -5.86993E+06    -62.3664E+06    -27.3003E+06    -37.0475E+06     4.59540E+06    -25.5907E+06
            1920     104.414E-03     14.6596E-03     103.380E-03     58.6718E-03    -23.2195E-03    -35.4522E-03    -32.8679E-03     56.0874E-03    -23.2195E-03     30.0501E-03     95.8561E-03     70.8610E+06     48.9467E+06     30.8302E+06    -28.8953E+06    -16.4406E+06     36.4920E+06     30.8302E+06    -25.6008E+06
            1921     104.567E-03     15.6272E-03     103.393E-03     60.4940E-03    -23.9009E-03    -36.5932E-03    -34.2759E-03     58.1767E-03    -23.9009E-03     29.2451E-03     108.289E-03     92.7108E+06     92.2283E+06     45.7696E+06    -12.8682E+06    -8.62635E+06     87.9865E+06     45.7696E+06    -19.3125E+06
            1922     104.745E-03     16.5920E-03     103.423E-03     62.3240E-03    -24.7729E-03    -37.5511E-03    -35.9447E-03     60.7176E-03    -24.7729E-03     14.3068E-03     102.167E-03     110.937E+06     113.248E+06     79.0781E+06    -5.70497E+06    -4.72357E+06     110.391E+06     80.9544E+06    -9.21234E+06
            1923     104.245E-03     982.086E-06     104.241E-03     36.5021E-03    -18.1862E-03    -18.3159E-03    -18.2030E-03     36.3892E-03    -18.1862E-03     4.63449E-03     36.5485E-03     31.7511E+06     16.7834E+06     15.3647E+06    -15.6452E+06     15.8402E+06    -15.2876E+06     15.9503E+06    -58.9274E+03
            1924     104.261E-03     1.96393E-03     104.242E-03     36.3766E-03    -18.1160E-03    -18.2607E-03    -17.9145E-03     36.0305E-03    -18.1160E-03     8.38497E-03     36.5165E-03     27.6965E+06     9.79580E+06     7.85764E+06    -18.8024E+06     8.92885E+06    -17.9354E+06     7.85764E+06     860.916E+03
            1925     104.288E-03     2.94650E-03     104.246E-03     36.2478E-03    -17.9569E-03    -18.2909E-03    -17.5413E-03     35.4982E-03    -17.9569E-03     12.4634E-03     36.5391E-03     27.5123E+06      503.52E+03    -4.34731E+06    -28.8974E+06    -1.77528E+06    -26.6186E+06    -4.34731E+06     2.15802E+06
            1926     104.325E-03     3.92913E-03     104.251E-03     36.2804E-03    -17.7765E-03    -18.5039E-03    -17.1868E-03     34.9634E-03    -17.7765E-03     16.5734E-03     36.7822E-03     28.7266E+06    -11.5877E+06    -18.0284E+06    -42.7509E+06    -16.3192E+06    -38.0194E+06    -18.0284E+06     4.56111E+06
            1927     104.373E-03     4.91244E-03     104.257E-03     36.6641E-03    -17.6303E-03    -19.0338E-03    -16.9878E-03     34.6181E-03    -17.6303E-03     20.7634E-03     37.4494E-03     30.9619E+06    -23.1191E+06    -28.8324E+06    -56.4550E+06    -32.9642E+06    -47.9456E+06    -27.4966E+06     7.98983E+06
            1928     104.432E-03     5.89547E-03     104.265E-03     37.5716E-03    -17.5678E-03    -20.0038E-03    -17.1124E-03     34.6802E-03    -17.5678E-03     24.9940E-03     38.7772E-03     35.1164E+06    -27.1753E+06    -37.8009E+06    -65.8861E+06    -48.3809E+06    -53.9329E+06    -28.5485E+06     10.1686E+06
            1929     104.502E-03     6.87853E-03     104.275E-03     39.0970E-03    -17.6154E-03    -21.4817E-03    -17.7149E-03     35.3302E-03    -17.6154E-03     29.1405E-03     40.9667E-03     41.6822E+06    -21.5812E+06    -45.1929E+06    -67.9834E+06    -58.9283E+06    -54.2480E+06    -21.5812E+06     8.96157E+06
            1930     104.584E-03     7.86030E-03     104.288E-03     41.2496E-03    -17.7875E-03    -23.4620E-03    -18.8839E-03     36.6715E-03    -17.7875E-03     33.1019E-03     44.1999E-03     50.4859E+06    -10.2979E+06    -49.3815E+06    -65.7252E+06    -63.5064E+06    -51.6002E+06    -10.2979E+06     4.64516E+06
            1931     104.677E-03     8.84101E-03     104.303E-03     43.9888E-03    -18.0932E-03    -25.8956E-03    -20.6743E-03     38.7675E-03    -18.0932E-03     36.6871E-03     48.6692E-03     59.3837E+06     1.54574E+06    -46.4481E+06    -64.4829E+06    -63.2533E+06    -47.6777E+06     1.54574E+06    -1.71859E+06
            1932     104.783E-03     9.81935E-03     104.321E-03     47.1249E-03    -18.5357E-03    -28.5892E-03    -23.0689E-03     41.6046E-03    -18.5357E-03     39.3140E-03     54.3399E-03     66.5082E+06     9.55622E+06    -41.4413E+06    -65.6069E+06    -58.9935E+06    -48.0547E+06     9.55622E+06    -9.00095E+06
            1933     104.899E-03     10.7954E-03     104.342E-03     50.5426E-03    -19.1084E-03    -31.4342E-03    -25.8729E-03     44.9813E-03    -19.1084E-03     41.1902E-03     61.4739E-03     69.3730E+06     15.2709E+06    -28.4804E+06    -63.9475E+06    -52.0462E+06    -40.3817E+06     15.2709E+06    -16.3300E+06
            1934     105.026E-03     11.7687E-03     104.364E-03     54.1812E-03    -19.8234E-03    -34.3578E-03    -29.0609E-03     48.8843E-03    -19.8234E-03     41.9328E-03     70.5723E-03     77.3301E+06     15.8861E+06    -17.2366E+06    -72.2784E+06    -45.0859E+06    -44.4290E+06     15.8861E+06    -25.5025E+06
            1935     105.163E-03     12.7384E-03     104.388E-03     57.5500E-03    -20.6433E-03    -36.9067E-03    -32.2441E-03     52.8874E-03    -20.6433E-03     40.8544E-03     81.8249E-03     87.2574E+06     6.41056E+06    -15.8402E+06    -89.1997E+06    -36.5602E+06    -68.4797E+06     6.41056E+06    -32.2936E+06
            1936     105.309E-03     13.7057E-03     104.413E-03     60.3065E-03    -21.5181E-03    -38.7884E-03    -34.7331E-03     56.2512E-03    -21.5181E-03     39.2281E-03     93.7284E-03     80.3498E+06     17.3293E+06     3.52705E+06    -68.8311E+06    -26.0368E+06    -31.9523E+06     10.0144E+06    -34.3221E+06
            1937     105.465E-03     14.6708E-03     104.440E-03     61.5967E-03    -22.4970E-03    -39.0997E-03    -36.5081E-03     59.0052E-03    -22.4970E-03     30.9072E-03     98.4138E-03     77.9381E+06     50.8323E+06     35.4114E+06    -33.5644E+06    -17.4763E+06     34.7442E+06     35.4114E+06    -31.6270E+06
            1938     105.618E-03     15.6340E-03     104.454E-03     63.8835E-03    -23.4383E-03    -40.4451E-03    -38.0935E-03     61.5319E-03    -23.4383E-03     30.3563E-03     110.796E-03     88.0198E+06     80.4021E+06     43.0860E+06    -17.8922E+06    -12.1147E+06     74.6247E+06     43.0860E+06    -20.4409E+06
            1939     105.799E-03     16.5960E-03     104.489E-03     65.6819E-03    -24.5484E-03    -41.1335E-03    -39.4292E-03     63.9776E-03    -24.5484E-03     15.8057E-03     104.350E-03     107.009E+06     108.369E+06     73.0731E+06    -8.33304E+06    -7.44232E+06     101.392E+06     79.1588E+06    -8.82963E+06
            1940     105.279E-03     984.749E-06     105.274E-03     30.4108E-03    -15.1353E-03    -15.2755E-03    -15.1418E-03     30.2771E-03    -15.1353E-03     4.61423E-03     30.4343E-03     22.2009E+06    -3.68603E+06    -9.49273E+06    -27.6685E+06    -10.4206E+06    -21.5196E+06    -8.90711E+06     7.01064E+06
            1941     105.295E-03     1.97007E-03     105.276E-03     30.3230E-03    -15.0536E-03    -15.2695E-03    -14.8567E-03     29.9102E-03    -15.0536E-03     8.34358E-03     30.3914E-03     26.2577E+06    -7.80161E+06    -20.8337E+06    -36.8159E+06    -20.8235E+06    -23.7940E+06    -20.8337E+06     11.6423E+06
            1942     105.320E-03     2.95521E-03     105.279E-03     30.3550E-03    -14.9065E-03    -15.4485E-03    -14.5442E-03     29.4506E-03    -14.9065E-03     12.5109E-03     30.4935E-03     33.4441E+06    -15.2202E+06    -35.1965E+06    -53.0396E+06    -35.4656E+06    -32.7942E+06    -35.1965E+06     16.5864E+06
            1943     105.357E-03     3.94108E-03     105.283E-03     30.7413E-03    -14.7847E-03    -15.9565E-03    -14.3482E-03     29.1329E-03    -14.7847E-03     16.8342E-03     30.9830E-03     40.3312E+06    -25.2956E+06    -45.8592E+06    -71.4287E+06    -51.2032E+06    -45.5211E+06    -45.8592E+06     21.6359E+06
            1944     105.404E-03     4.92663E-03     105.289E-03     31.7079E-03    -14.7434E-03    -16.9645E-03    -14.4676E-03     29.2110E-03    -14.7434E-03     21.3186E-03     32.1208E-03     46.8168E+06    -33.0060E+06    -47.2801E+06    -84.9705E+06    -64.3909E+06    -53.5855E+06    -47.2801E+06     24.8541E+06
            1945     105.463E-03     5.91222E-03     105.298E-03     33.3590E-03    -14.8194E-03    -18.5396E-03    -15.0344E-03     29.8538E-03    -14.8194E-03     25.9338E-03     34.0923E-03     50.6302E+06    -33.8250E+06    -42.8735E+06    -88.2528E+06    -71.2953E+06    -55.0205E+06    -38.6355E+06     23.5204E+06
            1946     105.534E-03     6.89664E-03     105.309E-03     35.7015E-03    -15.0282E-03    -20.6733E-03    -16.1468E-03     31.1750E-03    -15.0282E-03     30.5610E-03     37.0198E-03     53.4125E+06    -23.2070E+06    -39.8601E+06    -82.3780E+06    -71.8545E+06    -50.3837E+06    -23.2070E+06     18.0169E+06
            1947     105.618E-03     7.88000E-03     105.323E-03     38.7014E-03    -15.3763E-03    -23.3251E-03    -17.8671E-03     33.2434E-03    -15.3763E-03     35.0878E-03     41.0293E-03     57.4546E+06    -6.64552E+06    -40.6823E+06    -72.3073E+06    -68.1319E+06    -44.8577E+06    -6.64552E+06     10.3195E+06
            1948     105.713E-03     8.86106E-03     105.341E-03     42.2887E-03    -15.8629E-03    -26.4259E-03    -20.2213E-03     36.0842E-03    -15.8629E-03     39.3453E-03     46.2526E-03     61.3492E+06     6.84884E+06    -37.0436E+06    -63.1762E+06    -61.9447E+06    -38.2752E+06     6.84884E+06     967.204E+03
            1949     105.821E-03     9.83991E-03     105.363E-03     46.3166E-03    -16.5090E-03    -29.8077E-03    -23.2707E-03     39.7797E-03    -16.5090E-03     42.6077E-03     52.7105E-03     66.5791E+06     16.0704E+06    -31.5075E+06    -59.9671E+06    -54.1623E+06    -37.3122E+06     16.0704E+06    -9.28620E+06
            1950     105.940E-03     10.8152E-03     105.387E-03     50.7007E-03    -17.3133E-03    -33.3874E-03    -26.8693E-03     44.1826E-03    -17.3133E-03     44.9256E-03     60.7415E-03     69.9890E+06     21.9782E+06    -19.1383E+06    -58.1010E+06    -46.4642E+06    -30.7751E+06     21.9782E+06    -17.6678E+06
            1951     106.071E-03     11.7870E-03     105.415E-03     55.1887E-03    -18.2895E-03    -36.8992E-03    -30.7450E-03     49.0345E-03    -18.2895E-03     45.9121E-03     70.4814E-03     78.2593E+06     25.6812E+06    -6.16041E+06    -63.4011E+06    -39.5748E+06    -29.9867E+06     25.6812E+06    -27.0328E+06
            1952     106.212E-03     12.7550E-03     105.443E-03     59.6212E-03    -19.3843E-03    -40.2368E-03    -34.8982E-03     54.2825E-03    -19.3843E-03     44.8018E-03     82.7049E-03     94.2957E+06     14.0364E+06    -4.53221E+06    -87.2051E+06    -32.6949E+06    -59.0425E+06     14.0364E+06    -38.0689E+06
            1953     106.361E-03     13.7189E-03     105.472E-03     63.2325E-03    -20.5590E-03    -42.6735E-03    -38.2595E-03     58.8185E-03    -20.5590E-03     42.2432E-03     95.8719E-03     90.7894E+06     20.5268E+06     11.1222E+06    -74.4527E+06    -26.7252E+06    -29.7371E+06     13.6586E+06    -40.2150E+06
            1954     106.519E-03     14.6804E-03     105.503E-03     64.7982E-03    -21.8383E-03    -42.9599E-03    -40.2129E-03     62.0513E-03    -21.8383E-03     33.0080E-03     101.176E-03     80.7071E+06     46.5869E+06     35.9887E+06    -38.8192E+06    -21.6357E+06     29.4035E+06     35.9887E+06    -33.7698E+06
            1955     106.673E-03     15.6399E-03     105.520E-03     67.2204E-03    -23.0199E-03    -44.2006E-03    -41.6795E-03     64.6994E-03    -23.0199E-03     32.5214E-03     113.244E-03     84.3837E+06     69.3554E+06     36.9407E+06    -23.2767E+06    -15.0478E+06     61.1264E+06     36.9407E+06    -24.0399E+06
            1956     106.854E-03     16.5989E-03     105.557E-03     68.5750E-03    -24.3477E-03    -44.2273E-03    -42.4379E-03     66.7857E-03    -24.3477E-03     17.5605E-03     106.270E-03     101.152E+06     104.288E+06     63.9536E+06    -8.20709E+06    -6.20339E+06     90.6344E+06     75.6038E+06    -11.1976E+06
            1957     106.307E-03     988.185E-06     106.302E-03     23.8383E-03    -11.8500E-03    -11.9884E-03    -11.8405E-03     23.6905E-03    -11.8500E-03     4.26420E-03     23.8466E-03     41.2489E+06    -31.4178E+06    -65.7422E+06    -75.1173E+06    -66.3404E+06    -40.1947E+06    -65.7422E+06     14.4863E+06
            1958     106.322E-03     1.97614E-03     106.303E-03     23.8812E-03    -11.7852E-03    -12.0961E-03    -11.6319E-03     23.4170E-03    -11.7852E-03     7.85073E-03     23.9036E-03     54.3962E+06    -27.1237E+06    -73.2464E+06    -86.5666E+06    -74.0520E+06    -39.6383E+06    -73.2464E+06     23.0985E+06
            1959     106.347E-03     2.96474E-03     106.306E-03     24.2913E-03    -11.7268E-03    -12.5645E-03    -11.5375E-03     23.2643E-03    -11.7268E-03     11.9176E-03     24.3393E-03     63.5913E+06    -28.5891E+06    -77.3451E+06    -100.137E+06    -82.8027E+06    -45.9236E+06    -77.3451E+06     30.1686E+06
            1960     106.383E-03     3.95295E-03     106.310E-03     25.3145E-03    -11.7554E-03    -13.5591E-03    -11.7137E-03     23.4692E-03    -11.7554E-03     16.3672E-03     25.4181E-03     65.1106E+06    -34.4021E+06    -73.0118E+06    -109.114E+06    -87.8648E+06    -55.6510E+06    -73.0118E+06     33.4633E+06
            1961     106.431E-03     4.94120E-03     106.316E-03     27.0346E-03    -11.8858E-03    -15.1488E-03    -12.2834E-03     24.1691E-03    -11.8858E-03     21.1155E-03     27.2704E-03     62.2078E+06    -37.0552E+06    -60.4884E+06    -107.220E+06    -86.0017E+06    -58.2733E+06    -60.4884E+06     32.1149E+06
            1962     106.490E-03     5.92831E-03     106.325E-03     29.4652E-03    -12.1347E-03    -17.3305E-03    -13.3160E-03     25.4507E-03    -12.1347E-03     26.1311E-03     29.9873E-03     57.6254E+06    -34.4838E+06    -44.3281E+06    -96.1785E+06    -79.1551E+06    -53.4761E+06    -42.3592E+06     26.9179E+06
            1963     106.563E-03     6.91446E-03     106.338E-03     32.5678E-03    -12.5166E-03    -20.0513E-03    -14.8642E-03     27.3808E-03    -12.5166E-03     31.3178E-03     33.6325E-03     54.7947E+06    -21.9500E+06    -34.2184E+06    -81.3064E+06    -70.5718E+06    -44.9531E+06    -21.9500E+06     19.5423E+06
            1964     106.648E-03     7.89858E-03     106.355E-03     36.3445E-03    -13.0390E-03    -23.3054E-03    -17.0312E-03     30.0702E-03    -13.0390E-03     36.5600E-03     38.3571E-03     54.9921E+06    -2.89319E+06    -31.8763E+06    -65.6536E+06    -61.3349E+06    -36.1950E+06    -2.89319E+06     10.4540E+06
            1965     106.747E-03     8.88059E-03     106.377E-03     40.7759E-03    -13.7155E-03    -27.0604E-03    -19.8969E-03     33.6124E-03    -13.7155E-03     41.6595E-03     44.3254E-03     57.7346E+06     13.4010E+06    -25.6915E+06    -52.8992E+06    -51.7023E+06    -26.8884E+06     13.4010E+06     95.6564E+03
            1966     106.858E-03     9.85924E-03     106.402E-03     45.7143E-03    -14.5665E-03    -31.1478E-03    -23.5275E-03     38.0940E-03    -14.5665E-03     45.8876E-03     51.5629E-03     64.6553E+06     24.7337E+06    -17.0959E+06    -49.4796E+06    -42.2728E+06    -24.3027E+06     24.7337E+06    -11.4023E+06
            1967     106.982E-03     10.8342E-03     106.432E-03     51.0463E-03    -15.5925E-03    -35.4538E-03    -27.7840E-03     43.3765E-03    -15.5925E-03     49.1120E-03     60.3320E-03     68.9513E+06     30.7644E+06    -7.67267E+06    -48.4414E+06    -33.2487E+06    -22.8654E+06     30.7644E+06    -19.3041E+06
            1968     107.117E-03     11.8048E-03     106.465E-03     56.4525E-03    -16.8038E-03    -39.6487E-03    -32.3807E-03     49.1845E-03    -16.8038E-03     50.7138E-03     70.6987E-03     75.6867E+06     36.2997E+06     6.78199E+06    -49.2905E+06    -27.2014E+06    -15.3071E+06     36.2997E+06    -26.6620E+06
            1969     107.262E-03     12.7711E-03     106.499E-03     61.9657E-03    -18.1692E-03    -43.7965E-03    -37.3948E-03     55.5640E-03    -18.1692E-03     50.2918E-03     83.6165E-03     96.3058E+06     25.9429E+06     9.15716E+06    -77.1359E+06    -24.4200E+06    -43.5588E+06     25.9429E+06    -39.1317E+06
            1970     107.417E-03     13.7319E-03     106.535E-03     66.4317E-03    -19.6284E-03    -46.8033E-03    -41.6101E-03     61.2385E-03    -19.6284E-03     47.1776E-03     97.8995E-03     95.4032E+06     26.6907E+06     16.3032E+06    -73.4094E+06    -20.1440E+06    -30.8591E+06     20.5875E+06    -42.9236E+06
            1971     107.576E-03     14.6895E-03     106.568E-03     68.1616E-03    -21.1762E-03    -46.9854E-03    -43.8220E-03     64.9982E-03    -21.1762E-03     36.7308E-03     103.880E-03     79.6218E+06     46.6482E+06     38.9399E+06    -36.4425E+06    -13.7096E+06     23.7003E+06     39.1548E+06    -36.0622E+06
            1972     107.732E-03     15.6467E-03     106.589E-03     70.7315E-03    -22.6378E-03    -48.0937E-03    -45.2174E-03     67.8553E-03    -22.6378E-03     35.9864E-03     115.470E-03     75.8137E+06     60.7870E+06     42.0745E+06    -20.7300E+06    -9.60226E+06     49.4442E+06     42.2895E+06    -26.0749E+06
            1973     107.914E-03     16.6014E-03     106.629E-03     71.7322E-03    -24.1778E-03    -47.5543E-03    -45.5839E-03     69.7618E-03    -24.1778E-03     19.6442E-03     108.337E-03     93.2172E+06     94.8349E+06     61.8500E+06    -9.55917E+06    -6.85427E+06     76.2523E+06     77.7277E+06    -12.4469E+06
            1974     107.327E-03     990.931E-06     107.323E-03     17.4386E-03    -8.64229E-03    -8.79632E-03    -8.64163E-03     17.2839E-03    -8.64229E-03     3.70845E-03     17.4431E-03     84.7432E+06    -62.5023E+06    -145.557E+06    -148.731E+06    -144.324E+06    -66.1067E+06    -146.359E+06     15.0821E+06
            1975     107.342E-03     1.98235E-03     107.324E-03     17.7866E-03    -8.64275E-03    -9.14389E-03    -8.64697E-03     17.2897E-03    -8.64275E-03     7.01230E-03     17.8017E-03     92.5203E+06    -52.4780E+06    -140.962E+06    -148.162E+06    -139.565E+06    -60.1633E+06    -141.874E+06     24.0443E+06
            1976     107.367E-03     2.97327E-03     107.326E-03     18.7868E-03    -8.74291E-03    -10.0439E-03    -8.92809E-03     17.6710E-03    -8.74291E-03     10.9453E-03     18.8279E-03     86.9050E+06    -48.6830E+06    -126.072E+06    -141.326E+06    -129.323E+06    -60.4861E+06    -126.271E+06     29.1273E+06
            1977     107.404E-03     3.96414E-03     107.331E-03     20.5212E-03    -8.96452E-03    -11.5567E-03    -9.55153E-03     18.5161E-03    -8.96452E-03     15.4129E-03     20.6217E-03     71.1518E+06    -48.6323E+06    -102.428E+06    -127.560E+06    -113.800E+06    -62.3921E+06    -102.428E+06     28.7641E+06
            1978     107.452E-03     4.95388E-03     107.338E-03     22.9212E-03    -9.28030E-03    -13.6409E-03    -10.5222E-03     19.8025E-03    -9.28030E-03     20.3455E-03     23.1583E-03     55.3178E+06    -46.4438E+06    -77.3574E+06    -108.750E+06    -95.8487E+06    -59.3448E+06    -77.3574E+06     24.4495E+06
            1979     107.513E-03     5.94286E-03     107.349E-03     25.9609E-03    -9.70353E-03    -16.2573E-03    -11.8795E-03     21.5831E-03    -9.70353E-03     25.6906E-03     26.4735E-03     45.2636E+06    -39.9893E+06    -52.2256E+06    -89.4352E+06    -78.6556E+06    -51.5858E+06    -51.4087E+06     19.8315E+06
            1980     107.587E-03     6.93010E-03     107.364E-03     29.6813E-03    -10.2475E-03    -19.4338E-03    -13.7338E-03     23.9813E-03    -10.2475E-03     31.4280E-03     30.7016E-03     42.7687E+06    -23.8178E+06    -34.0657E+06    -70.4691E+06    -63.5833E+06    -39.2950E+06    -25.4743E+06     14.1417E+06
            1981     107.675E-03     7.91552E-03     107.384E-03     34.1314E-03    -10.9293E-03    -23.2020E-03    -16.2176E-03     27.1469E-03    -10.9293E-03     37.4780E-03     36.0272E-03     44.5352E+06    -1.54895E+06    -24.1726E+06    -52.4080E+06    -50.1116E+06    -26.4690E+06    -1.54895E+06     5.71495E+06
            1982     107.777E-03     8.89798E-03     107.409E-03     39.3340E-03    -11.7697E-03    -27.5643E-03    -19.4513E-03     31.2210E-03    -11.7697E-03     43.6451E-03     42.6411E-03     50.6074E+06     18.3632E+06    -15.6447E+06    -39.7580E+06    -38.5675E+06    -16.8352E+06     18.3632E+06    -2.79585E+06
            1983     107.893E-03     9.87716E-03     107.440E-03     45.0996E-03    -12.7839E-03    -32.3157E-03    -23.4804E-03     36.2644E-03    -12.7839E-03     49.1752E-03     50.4914E-03     60.3701E+06     32.0049E+06    -4.00815E+06    -37.3628E+06    -30.7223E+06    -10.6486E+06     32.0049E+06    -12.3302E+06
            1984     108.022E-03     10.8519E-03     107.475E-03     51.3039E-03    -13.9885E-03    -37.3154E-03    -28.2527E-03     42.2412E-03    -13.9885E-03     53.6261E-03     59.8303E-03     69.9775E+06     37.9232E+06     2.53007E+06    -42.6369E+06    -24.8159E+06    -15.2909E+06     37.9232E+06    -21.0663E+06
            1985     108.163E-03     11.8221E-03     107.515E-03     57.6901E-03    -15.3858E-03    -42.3043E-03    -33.5504E-03     48.9362E-03    -15.3858E-03     56.3940E-03     70.7853E-03     74.4886E+06     44.4109E+06     15.9118E+06    -39.6122E+06    -19.0579E+06    -4.64253E+06     44.4109E+06    -25.7458E+06
            1986     108.315E-03     12.7864E-03     107.557E-03     64.0134E-03    -16.9743E-03    -47.0391E-03    -39.0998E-03     56.0741E-03    -16.9743E-03     57.0487E-03     83.9821E-03     94.7472E+06     40.9981E+06     22.9562E+06    -61.3123E+06    -15.1490E+06    -23.2071E+06     40.9981E+06    -37.3191E+06
            1987     108.474E-03     13.7459E-03     107.600E-03     69.3990E-03    -18.6528E-03    -50.7462E-03    -44.2314E-03     62.8842E-03    -18.6528E-03     54.1162E-03     98.9907E-03     98.9268E+06     35.5735E+06     20.6356E+06    -69.9460E+06    -11.1877E+06    -31.2665E+06     28.7172E+06    -45.6976E+06
            1988     108.637E-03     14.7011E-03     107.638E-03     71.8668E-03    -20.4445E-03    -51.4224E-03    -47.5711E-03     68.0155E-03    -20.4445E-03     41.6608E-03     106.678E-03     78.5561E+06     46.8555E+06     34.9961E+06    -36.7214E+06    -8.45001E+06     13.5810E+06     39.9992E+06    -35.8666E+06
            1989     108.793E-03     15.6535E-03     107.661E-03     74.4681E-03    -22.2188E-03    -52.2493E-03    -49.0019E-03     71.2207E-03    -22.2188E-03     39.5026E-03     117.801E-03     70.3590E+06     55.4675E+06     45.0655E+06    -19.1310E+06    -8.64374E+06     39.9771E+06     50.0686E+06    -23.5946E+06
            1990     108.977E-03     16.6064E-03     107.705E-03     75.1993E-03    -23.9775E-03    -51.2218E-03    -49.0215E-03     72.9991E-03    -23.9775E-03     21.4869E-03     110.785E-03     86.2592E+06     86.8148E+06     60.2905E+06    -8.54186E+06    -5.30843E+06     62.4559E+06      81.416E+06    -12.3417E+06
            1991     108.342E-03     993.739E-06     108.337E-03     12.3948E-03    -6.10116E-03    -6.29361E-03    -6.14747E-03     12.2486E-03    -6.10116E-03     3.05304E-03     12.4138E-03     98.0193E+06    -84.9091E+06    -181.995E+06    -183.829E+06    -181.115E+06    -85.7891E+06    -183.829E+06     7.61492E+06
            1992     108.356E-03     1.98705E-03     108.338E-03     13.0777E-03    -6.17575E-03    -6.90198E-03    -6.40731E-03     12.5831E-03    -6.17575E-03     6.02022E-03     13.1369E-03     100.596E+06    -72.5176E+06    -170.981E+06    -174.992E+06    -168.952E+06    -74.5466E+06    -174.992E+06     11.1687E+06
            1993     108.382E-03     2.98036E-03     108.341E-03     14.4962E-03    -6.35613E-03    -8.14002E-03    -6.99997E-03     13.3561E-03    -6.35613E-03     9.77787E-03     14.6132E-03     93.7109E+06    -65.1572E+06    -152.869E+06    -163.460E+06    -152.015E+06    -68.1149E+06    -161.356E+06     11.5692E+06
            1994     108.420E-03     3.97257E-03     108.347E-03     16.6441E-03    -6.66333E-03    -9.98073E-03    -7.91063E-03     14.5740E-03    -6.66333E-03     14.1792E-03     16.8362E-03     80.1064E+06    -59.6405E+06    -129.547E+06    -146.856E+06    -131.389E+06    -63.2255E+06    -141.428E+06     8.44044E+06
            1995     108.469E-03     4.96416E-03     108.356E-03     19.4565E-03    -7.11247E-03    -12.3440E-03    -9.11584E-03     16.2283E-03    -7.11247E-03     19.1596E-03     19.7872E-03     60.3500E+06    -54.0647E+06    -104.070E+06    -120.476E+06    -108.759E+06    -57.6215E+06    -112.231E+06     4.60399E+06
            1996     108.532E-03     5.95420E-03     108.369E-03     22.9242E-03    -7.69386E-03    -15.2304E-03    -10.6770E-03     18.3708E-03    -7.69386E-03     24.7101E-03     23.5215E-03     41.6918E+06    -45.4335E+06    -74.1159E+06    -91.0595E+06    -84.7078E+06    -49.8906E+06    -76.0105E+06     1.58291E+06
            1997     108.609E-03     6.94283E-03     108.387E-03     27.0782E-03    -8.37818E-03    -18.7000E-03    -12.6976E-03     21.0758E-03    -8.37818E-03     30.8839E-03     28.1448E-03     32.8553E+06    -28.1209E+06    -43.3022E+06    -64.5898E+06    -60.7645E+06    -35.3737E+06    -39.8747E+06    -599.525E+03
            1998     108.699E-03     7.92905E-03     108.410E-03     32.0058E-03    -9.18666E-03    -22.8191E-03    -15.3297E-03     24.5163E-03    -9.18666E-03     37.6414E-03     33.8577E-03     33.6980E+06    -5.58977E+06    -20.6481E+06    -43.9594E+06    -42.4702E+06    -20.2303E+06    -7.49678E+06    -2.75642E+06
            1999     108.805E-03     8.91269E-03     108.440E-03     37.7635E-03    -10.1379E-03    -27.6256E-03    -18.7118E-03     28.8498E-03    -10.1379E-03     44.8523E-03     40.8694E-03     44.3095E+06     17.4806E+06    -6.94446E+06    -33.2755E+06    -30.9879E+06    -9.23201E+06     17.4806E+06    -6.64243E+06
            2000     108.926E-03     9.89250E-03     108.476E-03     44.1449E-03    -11.2532E-03    -32.8917E-03    -22.9021E-03     34.1553E-03    -11.2532E-03     51.7172E-03     49.0742E-03     56.2785E+06     36.2846E+06     7.36042E+06    -28.2145E+06    -22.2381E+06     1.38409E+06     36.2846E+06    -13.1227E+06
            2001     109.061E-03     10.8681E-03     108.518E-03     51.2230E-03    -12.5740E-03    -38.6489E-03    -28.0708E-03     40.6449E-03    -12.5740E-03     57.8468E-03     58.9455E-03     71.2880E+06     47.5158E+06     14.4905E+06     -34.269E+06    -14.6200E+06    -5.15850E+06     47.5158E+06    -21.9838E+06
            2002     109.208E-03     11.8378E-03     108.565E-03     58.3564E-03    -14.0797E-03    -44.2767E-03    -33.7223E-03     47.8019E-03    -14.0797E-03     62.2237E-03     70.0745E-03     74.6571E+06     53.2663E+06     20.4136E+06    -31.8601E+06    -9.33641E+06    -2.11003E+06     53.2663E+06    -24.4591E+06
            2003     109.367E-03     12.8027E-03     108.615E-03     65.4040E-03    -15.7953E-03    -49.6086E-03    -39.7199E-03     55.5152E-03    -15.7953E-03     64.3037E-03     83.2735E-03     86.1671E+06     56.6885E+06     27.9822E+06    -39.4140E+06    -10.4272E+06    -1.00458E+06     56.6885E+06    -30.5037E+06
            2004     109.533E-03     13.7613E-03     108.665E-03     72.1690E-03    -17.6446E-03    -54.5244E-03    -46.2696E-03     63.9142E-03    -17.6446E-03     62.1540E-03     99.0880E-03     100.298E+06     43.1267E+06     23.6703E+06    -64.7488E+06    -14.3673E+06    -23.1336E+06     39.5491E+06    -43.8816E+06
            2005     109.703E-03     14.7133E-03     108.712E-03     75.7391E-03    -19.6574E-03    -56.0818E-03    -51.3085E-03     70.9659E-03    -19.6574E-03     47.5736E-03     108.969E-03     85.1592E+06     42.6978E+06     29.1651E+06    -48.1834E+06    -10.6853E+06    -4.75543E+06     39.1202E+06    -37.7202E+06
            2006     109.859E-03     15.6619E-03     108.737E-03     78.2046E-03    -21.6936E-03    -56.5110E-03    -52.9870E-03     74.6805E-03    -21.6936E-03     42.5568E-03     119.740E-03     63.9211E+06     51.5305E+06     41.5371E+06    -16.5618E+06    -5.13668E+06     31.1633E+06     50.4792E+06    -20.9873E+06
            2007     110.044E-03     16.6100E-03     108.783E-03     78.8497E-03    -23.6992E-03    -55.1506E-03    -52.8587E-03     76.5578E-03    -23.6992E-03     24.0490E-03     113.337E-03     78.1992E+06     79.8987E+06     52.5675E+06    -6.62799E+06    -4.03454E+06     51.0254E+06     78.8474E+06    -9.88407E+06
            2008     109.352E-03     995.141E-06     109.347E-03     9.50837E-03    -4.65710E-03    -4.85127E-03    -4.73156E-03     9.40483E-03    -4.67327E-03     2.22317E-03     9.56041E-03     75.9642E+06    -89.4962E+06    -164.337E+06    -166.526E+06    -164.799E+06    -89.9378E+06    -165.622E+06    -2.23759E+06
            2009     109.367E-03     1.99031E-03     109.349E-03     10.3210E-03    -4.79439E-03    -5.52663E-03    -5.13629E-03     9.93068E-03    -4.79439E-03     4.73421E-03     10.4720E-03     80.6058E+06    -75.2757E+06    -153.237E+06    -158.212E+06    -154.144E+06    -76.2446E+06    -156.336E+06    -4.56840E+06
            2010     109.394E-03     2.98453E-03     109.353E-03     11.7869E-03    -4.99431E-03    -6.79263E-03    -5.81728E-03     10.8116E-03    -4.99431E-03     8.17325E-03     12.0680E-03     83.9031E+06    -63.7491E+06    -142.192E+06    -151.833E+06    -141.265E+06    -65.6489E+06    -150.860E+06    -7.84490E+06
            2011     109.432E-03     3.97828E-03     109.360E-03     13.9637E-03    -5.29078E-03    -8.67290E-03    -6.79085E-03     12.0816E-03    -5.29078E-03     12.4356E-03     14.3676E-03     85.2002E+06    -54.0728E+06    -131.582E+06    -144.583E+06    -128.134E+06    -57.5216E+06    -144.583E+06    -12.7643E+06
            2012     109.483E-03     4.97062E-03     109.370E-03     16.8687E-03    -5.73185E-03    -11.1368E-03    -8.07749E-03     13.8093E-03    -5.73185E-03     17.4411E-03     17.4017E-03     78.5381E+06    -46.3932E+06    -119.294E+06    -128.988E+06    -113.317E+06    -52.3700E+06    -128.988E+06    -17.6875E+06
            2013     109.548E-03     5.96184E-03     109.386E-03     20.5120E-03    -6.32100E-03    -14.1910E-03    -9.72563E-03     16.0466E-03    -6.32100E-03     23.2227E-03     21.2496E-03     67.9456E+06    -35.4689E+06    -99.6827E+06    -106.374E+06    -94.5878E+06    -44.5660E+06    -102.372E+06    -21.9768E+06
            2014     109.627E-03     6.95113E-03     109.406E-03     24.8763E-03    -7.05215E-03    -17.8241E-03    -11.8049E-03     18.8570E-03    -7.05215E-03     29.7110E-03     25.9918E-03     56.7408E+06    -21.7632E+06    -67.5465E+06    -83.4540E+06    -71.9306E+06    -33.2866E+06    -67.5465E+06    -23.5469E+06
            2015     109.721E-03     7.93859E-03     109.433E-03     30.0568E-03    -7.93397E-03    -22.1228E-03    -14.4527E-03     22.3867E-03    -7.93397E-03     36.9487E-03     31.8510E-03     45.0128E+06    -7.47152E+06    -30.9256E+06    -58.2913E+06    -47.6200E+06    -21.5220E+06    -27.5465E+06    -19.0407E+06
            2016     109.830E-03     8.92297E-03     109.467E-03     36.0844E-03    -8.95456E-03    -27.1298E-03    -17.7859E-03     26.7405E-03    -8.95456E-03     44.8643E-03     38.9551E-03     44.2447E+06     13.8767E+06    -1.10984E+06    -35.7247E+06    -27.5605E+06    -5.55356E+06     10.1562E+06    -14.9072E+06
            2017     109.956E-03     9.90407E-03     109.509E-03     42.8139E-03    -10.1194E-03    -32.6944E-03    -21.9272E-03     32.0467E-03    -10.1194E-03     52.7840E-03     47.2361E-03     54.3754E+06     37.6778E+06     14.2897E+06    -23.9086E+06    -16.8893E+06     7.27041E+06     37.6778E+06    -14.3342E+06
            2018     110.096E-03     10.8807E-03     109.557E-03     50.3091E-03    -11.4605E-03    -38.8486E-03    -26.9957E-03     38.4561E-03    -11.4605E-03     60.4933E-03     57.0494E-03     71.8838E+06     53.7335E+06     22.5937E+06    -27.9699E+06    -13.4966E+06     8.12044E+06     53.7335E+06    -20.1609E+06
            2019     110.252E-03     11.8522E-03     109.613E-03     57.8695E-03    -12.9881E-03    -44.8814E-03    -32.7591E-03     45.7472E-03    -12.9881E-03     66.1869E-03     67.9336E-03     82.8580E+06     60.5314E+06     23.9519E+06    -33.9486E+06    -7.92384E+06    -2.07294E+06     60.5314E+06    -25.7144E+06
            2020     110.416E-03     12.8180E-03     109.670E-03     65.9609E-03    -14.7349E-03    -51.2259E-03    -39.4663E-03     54.2013E-03    -14.7349E-03     70.2974E-03     81.3794E-03     80.9887E+06     71.0959E+06     30.2329E+06    -21.9822E+06    -587.821E+03     8.83851E+06     71.0959E+06    -23.8101E+06
            2021     110.594E-03     13.7764E-03     109.732E-03     74.2316E-03    -16.6943E-03    -57.5373E-03    -47.3366E-03     64.0309E-03    -16.6943E-03     69.9906E-03     97.4867E-03     91.0599E+06     62.8223E+06     33.4344E+06    -37.7298E+06    -2.19362E+06    -2.10174E+06     62.8223E+06    -32.9641E+06
            2022     110.771E-03     14.7264E-03     109.787E-03     78.8829E-03    -18.8516E-03    -60.0313E-03    -53.9870E-03     72.8386E-03    -18.8516E-03     54.8316E-03     108.916E-03     88.4453E+06     43.8972E+06     22.5641E+06    -52.4985E+06    -8.53644E+06    -21.3979E+06     43.8972E+06    -36.3365E+06
            2023     110.931E-03     15.6708E-03     109.819E-03     81.6390E-03    -21.0843E-03    -60.5546E-03    -56.6342E-03     77.7186E-03    -21.0843E-03     46.3778E-03     120.637E-03     66.1176E+06     45.4524E+06     29.5489E+06    -26.7080E+06    -11.0469E+06     13.8879E+06     45.4524E+06    -18.6761E+06
            2024     111.111E-03     16.6173E-03     109.862E-03     83.2043E-03    -23.3761E-03    -59.8283E-03    -57.5051E-03     80.8811E-03    -23.3761E-03     28.3514E-03     116.025E-03     79.2868E+06     80.4536E+06     45.9245E+06    -7.78277E+06    -6.44908E+06     44.5908E+06     80.4536E+06    -7.65067E+06
            2025     110.360E-03     995.657E-06     110.356E-03     8.99121E-03    -4.42046E-03    -4.57075E-03    -4.49397E-03     8.94349E-03    -4.44952E-03     1.39856E-03     9.06861E-03     53.4637E+06    -77.7428E+06    -129.307E+06    -132.805E+06    -130.719E+06    -79.5765E+06    -129.560E+06    -8.77904E+06
            2026     110.376E-03     1.99074E-03     110.358E-03     9.66228E-03    -4.58044E-03    -5.08183E-03    -4.87253E-03     9.45297E-03    -4.58044E-03     3.23562E-03     9.89304E-03     61.6663E+06    -62.5658E+06    -119.363E+06    -127.729E+06    -123.441E+06    -66.8534E+06    -119.363E+06    -14.9160E+06
            2027     110.403E-03     2.98575E-03     110.363E-03     10.8652E-03    -4.79825E-03    -6.06699E-03    -5.46031E-03     10.2586E-03    -4.79825E-03     6.05948E-03     11.3247E-03     67.8823E+06    -48.3721E+06    -108.479E+06    -120.887E+06    -113.200E+06    -55.6781E+06    -108.859E+06    -20.6485E+06
            2028     110.443E-03     3.97978E-03     110.371E-03     12.7231E-03    -5.08117E-03    -7.64196E-03    -6.31839E-03     11.3996E-03    -5.08117E-03     9.86496E-03     13.4223E-03     72.8462E+06    -36.7612E+06    -99.8908E+06    -114.866E+06    -103.190E+06    -47.3181E+06    -101.010E+06    -25.6944E+06
            2029     110.495E-03     4.97307E-03     110.383E-03     15.3546E-03    -5.45110E-03    -9.90353E-03    -7.50630E-03     12.9574E-03    -5.45110E-03     14.6927E-03     16.2589E-03     78.5620E+06    -26.4815E+06    -92.7724E+06    -111.164E+06    -94.4534E+06    -41.6582E+06    -94.3059E+06    -31.5104E+06
            2030     110.562E-03     5.96478E-03     110.401E-03     18.8478E-03    -5.93834E-03    -12.9095E-03    -9.08807E-03     15.0264E-03    -5.93834E-03     20.6026E-03     19.9365E-03     84.6312E+06    -14.7141E+06    -83.4828E+06    -106.671E+06    -85.8226E+06    -34.7679E+06    -84.2776E+06    -37.3932E+06
            2031     110.643E-03     6.95490E-03     110.424E-03     23.1938E-03    -6.57757E-03    -16.6162E-03    -11.1327E-03     17.7103E-03    -6.57757E-03     27.4161E-03     24.5410E-03     84.5933E+06    -5.04359E+06    -67.3498E+06    -99.5704E+06    -76.2545E+06    -28.3595E+06    -67.3498E+06    -40.5011E+06
            2032     110.739E-03     7.94255E-03     110.454E-03     28.4486E-03    -7.37809E-03    -21.0705E-03    -13.7270E-03     21.1051E-03    -7.37809E-03     35.1899E-03     30.2603E-03     77.0313E+06     1.80126E+06    -43.3990E+06    -86.3763E+06    -61.2067E+06    -23.3683E+06    -43.3990E+06    -39.7524E+06
            2033     110.853E-03     8.92794E-03     110.493E-03     34.4988E-03    -8.35104E-03    -26.1478E-03    -16.9060E-03     25.2571E-03    -8.35104E-03     43.5920E-03     37.0952E-03      65.757E+06     13.9853E+06    -11.6061E+06    -60.1171E+06    -39.0407E+06    -9.42355E+06    -9.27360E+06    -32.6465E+06
            2034     110.983E-03     9.90998E-03     110.540E-03     41.3199E-03    -9.51328E-03    -31.8066E-03    -20.8577E-03     30.3710E-03    -9.51328E-03     52.1790E-03     45.1624E-03     59.7579E+06     34.8971E+06     12.3113E+06    -32.2417E+06    -17.5092E+06     3.18618E+06     29.2898E+06    -21.8444E+06
            2035     111.130E-03     10.8880E-03     110.595E-03     48.7529E-03    -10.8350E-03    -37.9180E-03    -25.5734E-03     36.4084E-03    -10.8350E-03     60.5686E-03     54.4340E-03     67.4117E+06     60.0859E+06     26.7784E+06    -15.8710E+06    -5.95546E+06     16.8629E+06     60.0859E+06    -16.4518E+06
            2036     111.291E-03     11.8613E-03     110.657E-03     56.4435E-03    -12.3201E-03    -44.1234E-03    -31.2247E-03     43.5448E-03    -12.3201E-03     67.1864E-03     64.7603E-03     85.4263E+06     70.9507E+06     24.7146E+06    -25.9587E+06    -6.33195E+06     5.08783E+06     70.9507E+06    -21.4900E+06
            2037     111.464E-03     12.8285E-03     110.724E-03     65.4483E-03    -13.9977E-03    -51.4506E-03    -38.3377E-03     52.3353E-03    -13.9977E-03     73.7119E-03     78.0859E-03     87.8556E+06     73.4881E+06     24.9673E+06    -27.5638E+06    -7.59436E+06     4.99791E+06     73.4881E+06    -22.0594E+06
            2038     111.652E-03     13.7885E-03     110.797E-03     74.0807E-03    -15.9464E-03    -58.1343E-03    -46.1824E-03     62.1287E-03    -15.9464E-03     75.4516E-03     92.6873E-03     90.1570E+06     77.9852E+06     35.6619E+06    -25.1725E+06    -6.85582E+06     17.3453E+06     77.9852E+06    -23.0416E+06
            2039     111.840E-03     14.7396E-03     110.865E-03     80.0054E-03    -18.1264E-03    -61.8790E-03    -54.3168E-03     72.4432E-03    -18.1264E-03     61.9929E-03     105.010E-03     98.6976E+06     56.2296E+06     21.1668E+06    -54.5908E+06    -7.88265E+06    -25.5413E+06     56.2296E+06    -28.4386E+06
            2040     112.006E-03     15.6837E-03     110.902E-03     85.1288E-03    -20.4860E-03    -64.6428E-03    -60.3250E-03     80.8110E-03    -20.4860E-03     49.9249E-03     120.708E-03     78.0836E+06     48.6401E+06     24.0072E+06    -37.7547E+06    -4.90592E+06    -8.84156E+06     48.6401E+06    -17.6881E+06
            2041     112.186E-03     16.6236E-03     110.947E-03     87.9669E-03    -23.0513E-03    -64.9156E-03    -62.7455E-03     85.7968E-03    -23.0513E-03     31.1268E-03     118.918E-03     78.5068E+06     86.3591E+06     42.2896E+06    -2.42066E+06    -1.12057E+06     40.9895E+06     86.3591E+06    -6.64763E+06
            2042     111.369E-03     994.640E-06     111.365E-03     10.7619E-03    -5.32131E-03    -5.44059E-03    -5.38757E-03     10.7494E-03    -5.36184E-03     668.466E-06     10.8372E-03     32.5956E+06    -56.3264E+06    -84.5880E+06    -91.4688E+06    -86.5808E+06    -61.2144E+06    -84.5880E+06    -10.9542E+06
            2043     111.386E-03     1.98933E-03     111.368E-03     11.2640E-03    -5.47559E-03    -5.78844E-03    -5.72127E-03     11.1969E-03    -5.47559E-03     1.76320E-03     11.5030E-03     45.4900E+06    -41.7550E+06     -77.169E+06    -92.6439E+06    -83.3981E+06    -51.0008E+06     -77.169E+06    -18.8439E+06
            2044     111.413E-03     2.98336E-03     111.373E-03     12.1061E-03    -5.68289E-03    -6.42325E-03    -6.18625E-03     11.8691E-03    -5.68289E-03     3.68754E-03     12.6218E-03     56.7431E+06    -27.8557E+06    -66.5799E+06    -92.4477E+06    -78.6475E+06    -41.6559E+06    -66.5799E+06    -25.9482E+06
            2045     111.454E-03     3.97712E-03     111.383E-03     13.3981E-03    -5.94951E-03    -7.44860E-03    -6.82731E-03     12.7768E-03    -5.94951E-03     6.58466E-03     14.2712E-03     64.0617E+06    -17.2795E+06    -55.0515E+06    -90.4004E+06    -72.3015E+06    -35.3784E+06    -55.0515E+06    -31.1197E+06
            2046     111.507E-03     4.97000E-03     111.396E-03     15.3626E-03    -6.27647E-03    -9.08611E-03    -7.74697E-03     14.0234E-03    -6.27647E-03     10.6814E-03     16.6096E-03     71.6636E+06    -6.35065E+06    -43.8077E+06    -87.8502E+06    -65.7779E+06    -28.4230E+06    -43.8077E+06    -35.9887E+06
            2047     111.575E-03     5.96196E-03     111.416E-03     18.1920E-03    -6.68657E-03    -11.5054E-03    -9.03283E-03     15.7194E-03    -6.68657E-03     16.0783E-03     19.7605E-03     79.1528E+06     2.01476E+06    -33.9508E+06    -87.2207E+06    -61.6739E+06    -23.5320E+06    -33.9508E+06    -40.2568E+06
            2048     111.658E-03     6.95228E-03     111.441E-03     22.0444E-03    -7.19510E-03    -14.8493E-03    -10.7967E-03     17.9918E-03    -7.19510E-03     22.8663E-03     23.8859E-03     85.3010E+06     8.10689E+06    -26.2103E+06    -87.2148E+06    -59.1506E+06    -19.9573E+06    -26.2103E+06    -43.3650E+06
            2049     111.757E-03     7.94071E-03     111.475E-03     27.0474E-03    -7.83106E-03    -19.2163E-03    -13.1673E-03     20.9984E-03    -7.83106E-03     31.0887E-03     29.2080E-03     92.5910E+06     14.5689E+06    -18.8277E+06    -88.1049E+06    -56.7637E+06    -16.7722E+06    -18.8277E+06    -47.2046E+06
            2050     111.874E-03     8.92618E-03     111.517E-03     32.9929E-03    -8.62569E-03    -24.3672E-03    -16.1424E-03     24.7681E-03    -8.62569E-03     40.1652E-03     35.6026E-03     91.4333E+06     17.7236E+06    -8.24642E+06    -82.5609E+06    -50.9331E+06    -13.9042E+06    -8.24642E+06    -46.5034E+06
            2051     112.008E-03     9.90887E-03     111.569E-03     39.7918E-03    -9.63171E-03    -30.1601E-03    -19.8462E-03     29.4779E-03    -9.63171E-03     49.5939E-03     43.1826E-03     81.7521E+06     25.0657E+06     9.83702E+06    -62.5913E+06    -36.8924E+06    -6.32036E+06     15.5241E+06    -37.2872E+06
            2052     112.159E-03     10.8879E-03     111.630E-03     47.0191E-03    -10.8480E-03    -36.1710E-03    -24.2218E-03     35.0698E-03    -10.8480E-03     58.3455E-03     51.6714E-03     75.8099E+06     49.9265E+06     25.2341E+06    -32.2914E+06    -17.7805E+06     10.7232E+06     49.9265E+06    -23.8279E+06
            2053     112.327E-03     11.8625E-03     111.699E-03     54.9177E-03    -12.2606E-03    -42.6571E-03    -29.8298E-03     42.0903E-03    -12.2606E-03     65.9007E-03     61.5946E-03     81.2531E+06     75.7041E+06     22.1736E+06    -14.8933E+06    -4.06196E+06     11.3422E+06     75.7041E+06    -15.5724E+06
            2054     112.508E-03     12.8317E-03     111.774E-03     64.0057E-03    -13.8565E-03    -50.1492E-03    -36.6458E-03     50.5023E-03    -13.8565E-03     73.7080E-03     74.0089E-03     90.3596E+06      83.414E+06     22.6337E+06    -18.7644E+06    -320.563E+03     4.18984E+06      83.414E+06    -15.8878E+06
            2055     112.707E-03     13.7929E-03     111.860E-03     71.5855E-03    -15.6639E-03    -55.9216E-03    -43.2167E-03     58.8806E-03    -15.6639E-03     76.1631E-03     85.6953E-03     93.1768E+06     90.5843E+06     34.1811E+06    -15.8528E+06    -2.44486E+06     20.7732E+06     90.5843E+06    -12.6908E+06
            2056     112.902E-03     14.7500E-03     111.935E-03     79.1720E-03    -17.7300E-03    -61.4419E-03    -52.5169E-03     70.2470E-03    -17.7300E-03     67.2575E-03     98.1964E-03     104.674E+06     75.8904E+06     21.7964E+06    -41.8948E+06    -8.10964E+06    -11.9887E+06     75.8904E+06    -18.6594E+06
            2057     113.088E-03     15.6922E-03     111.994E-03     88.3575E-03    -20.0870E-03    -68.2705E-03    -63.3892E-03     83.4763E-03    -20.0870E-03     53.3753E-03     119.529E-03     84.7096E+06     49.3106E+06     14.8057E+06    -45.1046E+06    -6.06510E+06    -24.2338E+06     49.3106E+06    -23.1524E+06
            2058     113.264E-03     16.6269E-03     112.037E-03     91.2278E-03    -22.8076E-03    -68.4202E-03    -66.5944E-03     89.4020E-03    -22.8076E-03     29.4679E-03     121.791E-03     74.0069E+06     76.9611E+06     35.2413E+06    -6.99471E+06     2.21989E+06     26.0267E+06     76.9611E+06    -6.15934E+06
            2059     112.382E-03     993.089E-06     112.377E-03     14.5282E-03    -7.20203E-03    -7.32619E-03    -7.28577E-03     14.5268E-03    -7.24108E-03     650.552E-09     14.5831E-03     21.3434E+06    -30.2429E+06    -40.8260E+06    -54.0025E+06    -42.7801E+06    -41.4654E+06    -40.8260E+06    -10.3459E+06
            2060     112.398E-03     1.98567E-03     112.380E-03     15.0348E-03    -7.36721E-03    -7.66757E-03    -7.65860E-03     15.0258E-03    -7.36721E-03     373.179E-06     15.2158E-03     33.9423E+06    -18.2536E+06    -36.6391E+06    -57.0441E+06    -42.1492E+06    -33.1485E+06    -36.6391E+06    -18.1454E+06
            2061     112.426E-03     2.97804E-03     112.387E-03     15.7477E-03    -7.59348E-03    -8.15425E-03    -8.11225E-03     15.7057E-03    -7.59348E-03     1.30093E-03     16.1675E-03     46.7363E+06    -7.42073E+06    -27.9800E+06    -60.2069E+06    -41.0871E+06    -26.5405E+06    -27.9800E+06    -24.8669E+06
            2062     112.467E-03     3.96979E-03     112.397E-03     16.6770E-03    -7.87532E-03    -8.80164E-03    -8.64946E-03     16.5248E-03    -7.87532E-03     3.07304E-03     17.4574E-03     57.4807E+06     989.649E+03    -16.1708E+06    -62.5421E+06    -39.0116E+06    -22.5408E+06    -16.1708E+06    -30.3635E+06
            2063     112.521E-03     4.96116E-03     112.411E-03     17.9374E-03    -8.18487E-03    -9.75251E-03    -9.31741E-03     17.5023E-03    -8.18487E-03     5.91996E-03     19.1754E-03     65.5670E+06     8.08082E+06    -5.95631E+06    -62.7715E+06    -37.4200E+06    -17.4689E+06    -5.75811E+06    -33.6767E+06
            2064     112.589E-03     5.95168E-03     112.432E-03     19.7471E-03    -8.54281E-03    -11.2043E-03    -10.1944E-03     18.7372E-03    -8.54281E-03     10.0226E-03     21.4786E-03     72.1112E+06     14.1552E+06     2.52288E+06    -62.7152E+06    -36.5339E+06    -13.9487E+06     4.44542E+06    -35.5644E+06
            2065     112.674E-03     6.94140E-03     112.460E-03     22.4633E-03    -8.96966E-03    -13.4937E-03    -11.4598E-03     20.4295E-03    -8.96966E-03     15.7401E-03     24.6691E-03     80.1570E+06     22.5770E+06     9.07153E+06    -63.4233E+06    -35.8944E+06    -10.7604E+06     14.8800E+06    -37.9750E+06
            2066     112.775E-03     7.92957E-03     112.496E-03     26.2852E-03    -9.48231E-03    -16.8029E-03    -13.2205E-03     22.7028E-03    -9.48231E-03     23.1197E-03     28.9326E-03     87.4137E+06     29.4262E+06     13.1263E+06    -64.8646E+06    -37.2820E+06    -8.09201E+06     23.0619E+06    -39.5547E+06
            2067     112.894E-03     8.91586E-03     112.541E-03     31.3435E-03    -10.0985E-03    -21.2450E-03    -15.6289E-03     25.7273E-03    -10.0985E-03     32.0420E-03     34.4140E-03     94.1934E+06     32.0816E+06     11.7082E+06    -70.3080E+06    -42.2329E+06    -9.93531E+06     25.6501E+06    -41.0787E+06
            2068     113.031E-03     9.89910E-03     112.597E-03     37.5907E-03    -10.8564E-03    -26.7342E-03    -18.7276E-03     29.5840E-03    -10.8564E-03     42.2440E-03     41.0761E-03     97.3138E+06     32.4259E+06     12.0070E+06    -72.7328E+06    -45.9371E+06    -10.8545E+06     28.4917E+06    -40.3129E+06
            2069     113.188E-03     10.8786E-03     112.664E-03     44.6995E-03    -11.8101E-03    -32.8894E-03    -22.7324E-03     34.5425E-03    -11.8101E-03     52.2631E-03     48.8100E-03     93.9619E+06     41.9310E+06     18.4905E+06    -60.7652E+06    -42.0514E+06    -223.366E+03     41.9310E+06    -33.0115E+06
            2070     113.360E-03     11.8546E-03     112.738E-03     52.9692E-03    -13.0142E-03    -39.9550E-03    -28.1020E-03     41.1162E-03    -13.0142E-03     61.9663E-03     58.3945E-03     94.4701E+06     64.2281E+06     19.5040E+06    -41.1177E+06    -28.8462E+06     7.23244E+06     64.2281E+06    -23.8003E+06
            2071     113.551E-03     12.8232E-03     112.825E-03     61.7399E-03    -14.4475E-03    -47.2924E-03    -34.1625E-03     48.6100E-03    -14.4475E-03     70.9547E-03     69.4584E-03     99.3227E+06     82.8744E+06     20.7773E+06    -29.3783E+06    -13.0136E+06     4.41254E+06     82.8744E+06    -17.2980E+06
            2072     113.753E-03     13.7889E-03     112.914E-03     69.2485E-03    -16.0833E-03    -53.1652E-03    -40.8693E-03     56.9526E-03    -16.0833E-03     73.3109E-03     79.9650E-03     97.9790E+06     94.6112E+06     19.6834E+06    -14.3295E+06    -3.49564E+06     8.84954E+06     94.6112E+06    -6.39135E+06
            2073     113.961E-03     14.7477E-03     113.003E-03     77.0221E-03    -18.0158E-03    -59.0064E-03    -49.7795E-03     67.7953E-03    -18.0158E-03     67.7685E-03     91.5758E-03     102.237E+06     99.8659E+06     16.1153E+06    -12.5501E+06    -3.78556E+06     7.35071E+06     99.8659E+06    -3.77072E+06
            2074     114.167E-03     15.6944E-03     113.083E-03     86.5371E-03    -20.1657E-03    -66.3714E-03    -60.3150E-03     80.4806E-03    -20.1657E-03     58.4758E-03     111.811E-03     91.2279E+06     61.3343E+06     6.15523E+06    -41.2689E+06    -14.7237E+06    -20.3900E+06     61.3343E+06    -15.8558E+06
            2075     114.355E-03     16.6240E-03     113.140E-03     91.4745E-03    -22.6906E-03    -68.7839E-03    -66.3535E-03     89.0441E-03    -22.6906E-03     32.2821E-03     119.862E-03     86.8751E+06     58.8078E+06     22.3924E+06    -38.4553E+06    -18.3244E+06     2.26141E+06     58.8078E+06    -10.5081E+06
            2076     113.398E-03     990.306E-06     113.394E-03     20.0619E-03    -9.93756E-03    -10.1244E-03    -10.0660E-03     20.0596E-03    -9.99360E-03    -472.704E-06     20.0926E-03     26.6169E+06    -418.658E+03    -3.98034E+06    -28.4536E+06    -5.08226E+06    -23.7900E+06    -3.98034E+06    -8.66974E+06
            2077     113.415E-03     1.98039E-03     113.398E-03     20.6983E-03    -10.1618E-03    -10.5364E-03    -10.5308E-03     20.6926E-03    -10.1618E-03    -746.056E-06     20.7987E-03     32.9678E+06     7.25460E+06    -179.006E+03    -28.5135E+06    -5.09644E+06    -17.2498E+06     908.385E+03    -15.1336E+06
            2078     113.444E-03     2.96975E-03     113.405E-03     21.5511E-03    -10.4392E-03    -11.1119E-03    -11.1048E-03     21.5441E-03    -10.4392E-03    -616.644E-06     21.7998E-03     41.4768E+06     13.7885E+06     5.85995E+06    -30.8794E+06    -5.97411E+06    -13.3177E+06     8.06089E+06    -19.9566E+06
            2079     113.485E-03     3.95860E-03     113.416E-03     22.5780E-03    -10.7751E-03    -11.8029E-03    -11.7878E-03     22.5629E-03    -10.7751E-03     85.5614E-06     23.0765E-03     50.0691E+06     19.8147E+06     11.0276E+06    -33.9385E+06    -8.14461E+06    -10.9115E+06     15.9599E+06    -23.8470E+06
            2080     113.539E-03     4.94660E-03     113.431E-03     23.6746E-03    -11.1530E-03    -12.5216E-03    -12.4654E-03     23.6184E-03    -11.1530E-03     1.51777E-03     24.5423E-03     58.2667E+06     26.3852E+06     14.6462E+06    -36.2748E+06    -10.4218E+06    -9.62981E+06     24.8082E+06    -25.7605E+06
            2081     113.608E-03     5.93413E-03     113.453E-03     24.9799E-03    -11.5559E-03    -13.4240E-03    -13.2313E-03     24.7872E-03    -11.5559E-03     3.92203E-03     26.3474E-03     65.4303E+06     34.0287E+06     18.0872E+06    -36.8629E+06    -12.2205E+06    -6.55524E+06     34.0287E+06    -27.0540E+06
            2082     113.692E-03     6.92082E-03     113.481E-03     26.6837E-03    -11.9938E-03    -14.6899E-03    -14.1608E-03     26.1547E-03    -11.9938E-03     7.52407E-03     28.6593E-03     72.7204E+06     42.6587E+06     18.5131E+06    -37.8019E+06    -15.0495E+06    -4.23928E+06     42.6587E+06    -27.5171E+06
            2083     113.794E-03     7.90652E-03     113.519E-03     28.9467E-03    -12.4807E-03    -16.4661E-03    -15.2943E-03     27.7749E-03    -12.4807E-03     12.4239E-03     31.5815E-03     80.0887E+06     50.7441E+06     16.0966E+06    -39.1488E+06    -19.3096E+06    -3.74261E+06     50.7441E+06    -26.3857E+06
            2084     113.914E-03     8.89122E-03     113.567E-03     32.0049E-03    -13.0260E-03    -18.9789E-03    -16.7428E-03     29.7688E-03    -13.0260E-03     18.8533E-03     35.3488E-03     88.4719E+06     58.6298E+06     14.0338E+06    -41.3499E+06    -23.5852E+06    -3.73089E+06     58.6298E+06    -25.7266E+06
            2085     114.054E-03     9.87423E-03     113.626E-03     36.0985E-03    -13.6275E-03    -22.4710E-03    -18.6918E-03     32.3193E-03    -13.6275E-03     26.7941E-03     40.1337E-03     95.6143E+06     61.6589E+06     12.4411E+06    -46.8566E+06    -27.8459E+06    -6.56953E+06     61.6589E+06    -27.5238E+06
            2086     114.212E-03     10.8560E-03     113.695E-03     41.3539E-03    -14.3178E-03    -27.0361E-03    -21.3989E-03     35.7167E-03    -14.3178E-03     36.0914E-03     46.0007E-03     98.1152E+06     62.6942E+06     11.3609E+06    -48.6890E+06    -31.8318E+06    -5.49628E+06     62.6942E+06    -26.4979E+06
            2087     114.392E-03     11.8321E-03     113.779E-03     47.8774E-03    -15.1494E-03    -32.7279E-03    -24.8217E-03     39.9711E-03    -15.1494E-03     47.1629E-03     53.3083E-03     101.636E+06     68.2686E+06     15.1119E+06    -47.4856E+06    -36.3923E+06     4.01862E+06     68.2686E+06    -22.7937E+06
            2088     114.586E-03     12.8064E-03     113.869E-03     56.1533E-03    -16.1713E-03    -39.9820E-03    -29.7415E-03     45.9128E-03    -16.1713E-03     59.0404E-03     63.0752E-03     107.248E+06     74.9426E+06     10.3724E+06    -47.5385E+06    -38.4459E+06     1.27982E+06     74.9426E+06    -19.2221E+06
            2089     114.799E-03     13.7727E-03     113.970E-03     65.4584E-03    -17.4456E-03    -48.0128E-03    -36.9505E-03     54.3960E-03    -17.4456E-03     67.1208E-03     74.7391E-03     106.380E+06     82.8564E+06     1.58689E+06    -35.7065E+06    -29.6899E+06    -4.42978E+06     82.8564E+06    -12.3159E+06
            2090     115.016E-03     14.7281E-03     114.069E-03     72.9192E-03    -18.9974E-03    -53.9217E-03    -43.8728E-03     62.8702E-03    -18.9974E-03     68.0581E-03     85.0538E-03     102.966E+06     97.7821E+06     11.9383E+06    -15.2532E+06    -11.6772E+06     8.36236E+06     97.7821E+06    -4.65996E+06
            2091     115.232E-03     15.6820E-03     114.160E-03     80.1260E-03    -20.7129E-03    -59.4130E-03    -51.2758E-03     71.9887E-03    -20.7129E-03     64.6358E-03     98.4841E-03     94.5626E+06     83.2503E+06     12.4288E+06    -23.0895E+06    -1.47991E+06    -9.18082E+06     83.2503E+06    -2.22575E+06
            2092     115.437E-03     16.6367E-03     114.232E-03     88.6154E-03    -22.7804E-03    -65.8350E-03    -62.1404E-03     84.9208E-03    -22.7804E-03     38.8763E-03     111.437E-03     88.8894E+06     69.9193E+06     29.2942E+06    -30.0904E+06     1.92097E+06    -2.71719E+06     69.9193E+06    -7.10662E+06
            2093     114.422E-03     987.090E-06     114.417E-03     27.0981E-03    -13.4485E-03    -13.6497E-03    -13.6009E-03     27.0940E-03    -13.4931E-03    -767.005E-06     27.1095E-03     43.6177E+06     34.4856E+06     31.4190E+06    -10.5696E+06     30.9790E+06    -9.05958E+06     33.4155E+06    -6.20446E+06
            2094     114.439E-03     1.97341E-03     114.422E-03     27.7981E-03    -13.6943E-03    -14.1038E-03    -14.0940E-03     27.7882E-03    -13.6943E-03    -1.26437E-03     27.8371E-03     43.8064E+06     36.3589E+06     30.9180E+06    -9.88935E+06     28.0231E+06    -6.45599E+06     35.8204E+06    -9.62837E+06
            2095     114.468E-03     2.95940E-03     114.430E-03     28.9862E-03    -14.0186E-03    -14.9676E-03    -14.9535E-03     28.9722E-03    -14.0186E-03    -1.56340E-03     29.0922E-03     45.0368E+06     38.5319E+06     29.2838E+06    -10.1154E+06     23.5349E+06    -4.36648E+06     38.5319E+06    -11.7539E+06
            2096     114.510E-03     3.94412E-03     114.442E-03     30.4676E-03    -14.4677E-03    -15.9999E-03    -15.9847E-03     30.4524E-03    -14.4677E-03    -1.65431E-03     30.7061E-03     49.4258E+06     44.0306E+06     25.9530E+06    -11.3119E+06     18.2391E+06    -3.59803E+06     44.0306E+06    -12.9127E+06
            2097     114.565E-03     4.92790E-03     114.459E-03     32.1630E-03    -15.0102E-03    -17.1528E-03    -17.1379E-03     32.1480E-03    -15.0102E-03    -1.44058E-03     32.6293E-03     57.8405E+06     52.3482E+06     22.7778E+06    -13.4276E+06     13.2516E+06    -3.90148E+06     52.3482E+06    -14.0647E+06
            2098     114.634E-03     5.91046E-03     114.481E-03     33.9541E-03    -15.5999E-03    -18.3542E-03    -18.3333E-03     33.9332E-03    -15.5999E-03    -803.736E-06     34.7884E-03     63.9738E+06     59.1136E+06     20.2050E+06    -13.6569E+06     8.40387E+06    -1.85577E+06     59.1136E+06    -14.5051E+06
            2099     114.719E-03     6.89166E-03     114.511E-03     35.7873E-03    -16.2381E-03    -19.5492E-03    -19.4965E-03     35.7346E-03    -16.2381E-03     288.899E-06     37.1666E-03     72.0075E+06     66.6267E+06     16.5727E+06    -14.4589E+06     3.75049E+06    -1.63675E+06     66.6267E+06    -13.6762E+06
            2100     114.820E-03     7.87197E-03     114.550E-03     37.6374E-03    -16.9145E-03    -20.7229E-03    -20.5825E-03     37.4969E-03    -16.9145E-03     1.99221E-03     39.7618E-03     81.8413E+06     76.6521E+06     13.5796E+06    -14.7148E+06     800.463E+03    -1.93569E+06     76.6521E+06    -12.5473E+06
            2101     114.940E-03     8.85068E-03     114.599E-03     39.5713E-03    -17.5997E-03    -21.9716E-03    -21.6351E-03     39.2348E-03    -17.5997E-03     4.31152E-03     42.6985E-03     90.1719E+06     85.4490E+06     12.1212E+06    -14.1844E+06    -965.381E+03    -1.09788E+06     85.4490E+06    -11.7202E+06
            2102     115.079E-03     9.82914E-03     114.658E-03     41.4003E-03    -18.2717E-03    -23.1287E-03    -22.4681E-03     40.7397E-03    -18.2717E-03     7.21811E-03     45.8010E-03     96.2766E+06     89.7940E+06     11.2560E+06    -16.2094E+06    -3.77853E+06    -1.17488E+06     89.7940E+06    -11.4471E+06
            2103     115.239E-03     10.8048E-03     114.731E-03     42.9314E-03    -18.9012E-03    -24.0302E-03    -22.7638E-03     41.6650E-03    -18.9012E-03     11.6423E-03     48.7100E-03     100.359E+06     90.0022E+06     8.46195E+06    -20.8402E+06    -7.48023E+06    -4.89798E+06     90.0022E+06    -11.8261E+06
            2104     115.416E-03     11.7837E-03     114.813E-03     45.5299E-03    -19.4988E-03    -26.0311E-03    -23.6750E-03     43.1737E-03    -19.4988E-03     17.9505E-03     52.9906E-03     99.9198E+06     92.2865E+06     11.5884E+06    -17.8638E+06    -8.23923E+06     1.96382E+06     92.2865E+06    -9.46768E+06
            2105     115.616E-03     12.7604E-03     114.910E-03     49.9204E-03    -20.1603E-03    -29.7601E-03    -25.9600E-03     46.1204E-03    -20.1603E-03     25.1314E-03     59.5773E-03     102.024E+06     94.8145E+06     10.2630E+06    -16.6934E+06    -8.23776E+06     1.80739E+06     94.8145E+06    -6.97350E+06
            2106     115.835E-03     13.7344E-03     115.017E-03     53.4840E-03    -19.5092E-03    -33.9748E-03    -27.4936E-03     48.3392E-03    -20.8456E-03     32.8627E-03     65.1662E-03     101.916E+06     90.4625E+06     7.06390E+06    -22.0850E+06    -9.15524E+06    -5.86583E+06     90.4625E+06    -8.05593E+06
            2107     116.064E-03     14.7066E-03     115.129E-03     57.4164E-03    -20.1875E-03    -37.2288E-03    -30.1219E-03     51.6458E-03    -21.5239E-03     39.6026E-03     71.4917E-03     92.8429E+06     86.2895E+06     13.5620E+06    -18.0470E+06    -8.73545E+06     4.25048E+06     86.2895E+06    -7.47623E+06
            2108     116.283E-03     15.6736E-03     115.222E-03     65.9510E-03    -22.4192E-03    -43.5317E-03    -38.1762E-03     60.5955E-03    -22.4192E-03     44.0615E-03     83.6251E-03     90.4857E+06     77.7180E+06     12.6534E+06    -24.7563E+06    -779.559E+03    -11.3233E+06     77.7180E+06    -3.41636E+06
            2109     116.508E-03     16.6212E-03     115.317E-03     73.9537E-03    -23.6652E-03    -50.2885E-03    -47.7042E-03     71.3694E-03    -23.6652E-03     28.8240E-03     93.8043E-03     83.1947E+06     66.5896E+06     30.1701E+06    -25.8674E+06     9.04858E+06    -3.61326E+06     65.4570E+06    -4.17370E+06


