********************************************************************************
Field Output Report, written Thu Apr 10 16:04:05 2025

Source 1
---------

   ODB: F:/Abaqus_calc/Vel_40/odb/Correct/aisi_1020_2a_8_red_2000_cal_30_vel_40_fric_050.odb
   Step: Step-1
   Frame: Increment   3104194: Step Time =   0.3734

Loc 1 : Nodal values from source 1

Output sorted by column "Nodal Label".

Field Output reported at nodes for region: DIE_2A_8_D0_36-1.Region_1
   Computation algorithm: EXTRAPOLATE_COMPUTE_AVERAGE
   Averaged at nodes
   Averaging regions: ODB_REGIONS

      Node Label  COORD.Magnitude     COORD.COOR1     COORD.COOR2
                          @Loc 1          @Loc 1          @Loc 1
------------------------------------------------------------------
               1     184.684E-03     15.4045E-03     184.040E-03


Field Output reported at nodes for region: DIE_2A_8_D0_36-1.Region_2
   Computation algorithm: EXTRAPOLATE_COMPUTE_AVERAGE
   Averaged at nodes
   Averaging regions: ODB_REGIONS

      Node Label  COORD.Magnitude     COORD.COOR1     COORD.COOR2
                          @Loc 1          @Loc 1          @Loc 1
------------------------------------------------------------------
               1     184.684E-03     15.4045E-03     184.040E-03


Field Output reported at nodes for part: WIRE_1-1
   Computation algorithm: EXTRAPOLATE_COMPUTE_AVERAGE
   Averaged at nodes
   Averaging regions: ODB_REGIONS

      Node Label  COORD.Magnitude     COORD.COOR1     COORD.COOR2    PE.Max. Prin    PE.Mid. Prin    PE.Min. Prin         PE.PE11         PE.PE22         PE.PE33         PE.PE12            PEEQ         S.Mises     S.Max. Prin     S.Mid. Prin     S.Min. Prin           S.S11           S.S22           S.S33           S.S12
                          @Loc 1          @Loc 1          @Loc 1          @Loc 1          @Loc 1          @Loc 1          @Loc 1          @Loc 1          @Loc 1          @Loc 1          @Loc 1          @Loc 1          @Loc 1          @Loc 1          @Loc 1          @Loc 1          @Loc 1          @Loc 1          @Loc 1
----------------------------------------------------------------------------------------------------------------------------------------------------------------------------------------------------------------------------------------------------------------------------------------------------------------------------------
               1     88.3577E-03     14.3451E-03     87.1854E-03     456.960E-03    -228.409E-03    -228.550E-03    -227.191E-03     455.600E-03    -228.409E-03     60.9893E-03     477.618E-03     133.644E+06     148.191E+06     93.1180E+06    -4.18492E+06    -4.18216E+06     93.1153E+06     148.191E+06     398.769E+03
               2     86.5841E-03    -976.497E-09     86.5841E-03     455.471E-03    -227.276E-03    -228.194E-03    -227.275E-03     455.470E-03    -228.194E-03    -495.273E-06     455.530E-03     94.8079E+06    -108.777E+06    -109.762E+06    -204.070E+06    -108.800E+06    -204.059E+06    -109.750E+06     728.780E+03
               3     3.34171E-06     3.34171E-06     208.167E-18     475.605E-03    -236.346E-03    -239.259E-03    -239.258E-03     475.604E-03    -236.346E-03     1.34354E-03     475.690E-03     62.8311E+06    -52.2043E+06    -54.9283E+06    -116.353E+06    -55.0113E+06    -116.270E+06    -52.2043E+06     2.25576E+06
               4     14.2482E-03     14.2482E-03     208.167E-18     587.522E-03    -230.168E-03    -357.355E-03    -355.074E-03     585.242E-03    -230.168E-03     92.7361E-03     611.651E-03     121.241E+06     143.101E+06     69.8143E+06     3.15606E+06     3.17151E+06     69.7988E+06     143.101E+06    -1.01487E+06
               5     174.448E-03     14.4095E-03     173.852E-03     344.818E-03    -117.865E-03    -226.953E-03    -117.865E-03     344.818E-03    -226.953E-03    -707.916E-06     373.575E-03     108.650E+06     91.8329E+06     43.3494E+06    -32.6179E+06    -29.5502E+06     40.2816E+06     91.8329E+06    -14.9545E+06
               6     172.056E-03     3.09495E-06     172.056E-03     546.289E-03    -272.399E-03    -273.890E-03    -273.754E-03     546.153E-03    -272.399E-03    -21.1107E-03     546.455E-03     96.3509E+06     77.8001E+06     75.9289E+06    -19.4728E+06     75.4949E+06    -19.0388E+06     77.8001E+06    -6.41943E+06
               7     88.1371E-03     13.5475E-03     87.0897E-03     457.309E-03    -228.347E-03    -228.962E-03    -227.417E-03     455.764E-03    -228.347E-03     64.9296E-03     482.626E-03     120.087E+06     128.395E+06     78.6377E+06    -8.56990E+06    -8.55270E+06     78.6205E+06     128.395E+06     833.808E+03
               8     87.9123E-03     12.7493E-03     86.9829E-03     457.048E-03    -228.221E-03    -228.828E-03    -227.488E-03     455.724E-03    -228.236E-03     59.4934E-03     482.587E-03     96.4797E+06     93.9879E+06     49.7228E+06    -16.5738E+06    -16.5148E+06     49.6638E+06     93.9879E+06     1.72153E+06
               9     87.7225E-03     11.9520E-03     86.9045E-03     456.297E-03    -228.087E-03    -228.210E-03    -227.304E-03     455.466E-03    -228.162E-03     47.6080E-03     476.693E-03     83.5898E+06     73.0840E+06     30.2246E+06    -23.2331E+06    -23.1028E+06     30.0942E+06     73.0840E+06     2.54707E+06
              10     87.5469E-03     11.1545E-03     86.8334E-03     455.990E-03    -227.868E-03    -228.122E-03    -227.244E-03     455.366E-03    -228.122E-03     41.1045E-03     474.261E-03     79.5800E+06     62.4268E+06     21.6148E+06    -29.2755E+06    -29.0871E+06     21.4264E+06     62.4268E+06     3.05101E+06
              11     87.3910E-03     10.3573E-03     86.7751E-03     455.760E-03    -227.671E-03    -228.089E-03    -227.244E-03     455.333E-03    -228.089E-03     34.0121E-03     471.524E-03     77.8372E+06     53.4973E+06     17.5182E+06    -35.7255E+06    -35.4717E+06     17.2644E+06     53.4973E+06     3.64834E+06
              12     87.2516E-03     9.56035E-03     86.7263E-03     455.588E-03    -227.534E-03    -228.054E-03    -227.244E-03     455.298E-03    -228.054E-03     27.9956E-03     469.292E-03     76.4032E+06     43.5519E+06     15.8405E+06    -42.7398E+06    -42.3632E+06     15.4638E+06     43.5519E+06     4.65150E+06
              13     87.1276E-03     8.76321E-03     86.6858E-03     455.421E-03    -227.396E-03    -228.026E-03    -227.211E-03     455.236E-03    -228.026E-03     22.3196E-03     467.245E-03     74.9732E+06     32.6324E+06     13.0951E+06    -50.0933E+06    -49.5551E+06     12.5569E+06     32.6324E+06     5.77248E+06
              14     87.0178E-03     7.96633E-03     86.6524E-03     455.357E-03    -227.356E-03    -228.001E-03    -227.246E-03     455.248E-03    -228.001E-03     17.1399E-03     465.450E-03     73.3245E+06     20.8736E+06     8.86817E+06    -57.6483E+06    -56.8665E+06     8.08639E+06     20.8736E+06     7.12593E+06
              15     86.9234E-03     7.16939E-03     86.6273E-03     455.332E-03    -227.356E-03    -227.976E-03    -227.296E-03     455.272E-03    -227.976E-03     12.6527E-03     463.813E-03     68.7374E+06     7.05931E+06    -821.269E+03    -65.2689E+06    -64.1899E+06    -1.90023E+06     7.05931E+06     8.20619E+06
              16     86.8427E-03     6.37263E-03     86.6086E-03     455.348E-03    -227.382E-03    -227.966E-03    -227.352E-03     455.318E-03    -227.966E-03     8.82516E-03     462.319E-03     58.4148E+06    -9.41663E+06    -28.7227E+06    -73.4683E+06    -71.7445E+06    -30.4465E+06    -9.41663E+06     8.05860E+06
              17     86.7746E-03     5.57599E-03     86.5952E-03     455.386E-03    -227.417E-03    -227.969E-03    -227.405E-03     455.374E-03    -227.969E-03     5.48166E-03     460.954E-03     51.2256E+06    -27.0838E+06    -63.6785E+06    -85.1206E+06    -79.1848E+06    -69.6142E+06    -27.0838E+06     7.25785E+06
              18     86.7194E-03     4.77897E-03     86.5877E-03     455.456E-03    -227.489E-03    -227.967E-03    -227.486E-03     455.453E-03    -227.967E-03     2.53076E-03     459.714E-03     53.8665E+06    -44.4268E+06    -82.9251E+06    -105.504E+06    -85.9872E+06    -102.442E+06    -44.4268E+06     6.37476E+06
              19     86.6752E-03     3.98248E-03     86.5836E-03     455.626E-03    -227.676E-03    -227.950E-03    -227.676E-03     455.626E-03    -227.950E-03     254.781E-06     458.701E-03     61.2402E+06    -61.2783E+06    -91.5109E+06    -131.328E+06    -92.3518E+06    -130.487E+06    -61.2783E+06     5.43718E+06
              20     86.6404E-03     3.18656E-03     86.5817E-03     455.736E-03    -227.791E-03    -227.945E-03    -227.828E-03     455.735E-03    -227.907E-03    -1.08180E-03     457.784E-03     70.1403E+06    -76.7807E+06    -97.6473E+06    -154.777E+06    -98.0041E+06    -154.420E+06    -76.7807E+06     4.27522E+06
              21     86.6152E-03     2.38995E-03     86.5822E-03     455.708E-03    -227.781E-03    -227.927E-03    -227.863E-03     455.707E-03    -227.844E-03    -1.59581E-03     456.911E-03     78.0915E+06    -90.1919E+06    -102.816E+06    -173.736E+06    -102.952E+06    -173.601E+06    -90.1919E+06     2.99165E+06
              22     86.5986E-03     1.59291E-03     86.5840E-03     455.585E-03    -227.713E-03    -227.872E-03    -227.804E-03     455.584E-03    -227.780E-03    -1.40786E-03     456.157E-03     84.2494E+06    -100.252E+06    -106.184E+06    -187.265E+06    -106.246E+06    -187.202E+06    -100.252E+06     2.19646E+06
              23     86.5890E-03     795.933E-06     86.5854E-03     455.484E-03    -227.465E-03    -228.019E-03    -227.511E-03     455.483E-03    -227.973E-03    -816.016E-06     455.672E-03     90.9024E+06    -106.443E+06    -108.403E+06    -198.303E+06    -107.945E+06    -198.276E+06    -106.929E+06     1.32422E+06
              24     85.0100E-03     316.690E-09     85.0100E-03     455.369E-03    -227.201E-03    -228.168E-03    -227.753E-03     455.368E-03    -227.615E-03    -754.262E-06     455.427E-03     90.7329E+06    -108.080E+06    -108.630E+06    -199.086E+06    -108.643E+06    -199.073E+06    -108.080E+06     972.189E+03
              25     83.4320E-03     571.288E-09     83.4320E-03     455.996E-03    -227.709E-03    -228.288E-03    -228.288E-03     455.996E-03    -227.709E-03    -2.96728E-06     456.055E-03     87.8019E+06    -105.777E+06    -107.813E+06    -194.575E+06    -106.318E+06    -194.573E+06    -107.275E+06     417.850E+03
              26     81.8548E-03    -544.899E-09     81.8548E-03     456.370E-03    -227.870E-03    -228.500E-03    -227.896E-03     456.370E-03    -228.473E-03    -248.711E-06     456.432E-03     85.5842E+06    -105.860E+06    -108.747E+06    -192.851E+06    -107.257E+06    -192.843E+06    -107.358E+06     704.185E+03
              27     80.2763E-03    -399.685E-09     80.2763E-03     456.021E-03    -227.291E-03    -228.730E-03    -228.126E-03     456.020E-03    -227.894E-03    -880.345E-06     456.079E-03     82.3366E+06    -105.353E+06    -108.047E+06    -189.004E+06    -106.750E+06    -188.996E+06    -106.658E+06     662.091E+03
              28     78.6997E-03     1.71815E-06     78.6997E-03     455.710E-03    -227.093E-03    -228.617E-03    -228.616E-03     455.709E-03    -227.093E-03    -383.966E-06     455.773E-03     79.1870E+06    -105.476E+06    -107.358E+06    -185.585E+06    -106.054E+06    -185.583E+06    -106.782E+06     309.909E+03
              29     77.1228E-03    -616.216E-09     77.1228E-03     456.037E-03    -227.520E-03    -228.516E-03    -228.207E-03     456.036E-03    -227.829E-03    -6.75640E-06     456.098E-03     76.9308E+06    -105.942E+06    -106.572E+06    -183.184E+06    -106.576E+06    -183.180E+06    -105.942E+06     562.114E+03
              30     75.5454E-03     125.841E-09     75.5454E-03     456.330E-03    -227.950E-03    -228.380E-03    -227.949E-03     456.329E-03    -228.380E-03    -943.399E-06     456.387E-03     74.5402E+06    -105.597E+06    -106.003E+06    -180.339E+06    -106.008E+06    -180.334E+06    -105.597E+06     137.875E+03
              31     73.9673E-03    -315.606E-09     73.9673E-03     455.835E-03    -227.764E-03    -228.071E-03    -227.948E-03     455.835E-03    -227.886E-03    -1.19572E-03     455.896E-03     72.2993E+06    -105.476E+06    -106.823E+06    -178.437E+06    -105.842E+06    -178.422E+06    -106.471E+06     471.172E+03
              32     72.3908E-03     599.351E-09     72.3908E-03     455.580E-03    -227.552E-03    -228.028E-03    -227.737E-03     455.580E-03    -227.843E-03    -618.474E-06     455.640E-03     69.5542E+06    -102.941E+06    -104.933E+06    -173.470E+06    -103.952E+06    -173.456E+06    -103.936E+06     853.879E+03
              33     70.8136E-03    -1.05056E-06     70.8136E-03     455.751E-03    -227.469E-03    -228.281E-03    -227.469E-03     455.750E-03    -228.281E-03    -603.768E-06     455.813E-03     67.7070E+06    -104.277E+06    -105.316E+06    -172.492E+06    -105.279E+06    -172.487E+06    -104.319E+06    -217.184E+03
              34     69.2364E-03     219.408E-09     69.2364E-03     456.260E-03    -227.639E-03    -228.620E-03    -228.098E-03     456.259E-03    -228.161E-03    -924.086E-06     456.319E-03     66.2377E+06    -104.569E+06    -105.526E+06    -171.275E+06    -104.616E+06    -171.228E+06    -105.526E+06     805.840E+03
              35     67.6585E-03     504.250E-09     67.6585E-03     456.736E-03    -227.934E-03    -228.802E-03    -228.802E-03     456.736E-03    -227.934E-03    -803.988E-06     456.796E-03     62.5427E+06    -102.009E+06    -103.890E+06    -165.471E+06    -103.019E+06    -165.427E+06    -102.923E+06     1.01899E+06
              36     66.0777E-03     158.433E-09     66.0777E-03     456.308E-03    -227.814E-03    -228.495E-03    -228.222E-03     456.308E-03    -228.086E-03    -372.560E-06     456.369E-03     61.2102E+06    -101.772E+06    -103.022E+06    -163.595E+06    -103.027E+06    -163.590E+06    -101.772E+06    -503.701E+03
              37     64.5012E-03    -587.616E-09     64.5012E-03     455.858E-03    -227.785E-03    -228.073E-03    -227.800E-03     455.857E-03    -228.057E-03    -434.334E-06     455.921E-03     61.5062E+06    -102.736E+06    -103.827E+06    -164.779E+06    -103.038E+06    -164.760E+06    -103.545E+06     348.710E+03
              38     62.9245E-03     604.656E-09     62.9245E-03     455.648E-03    -227.582E-03    -228.065E-03    -228.065E-03     455.647E-03    -227.582E-03    -753.014E-06     455.706E-03     59.7354E+06    -100.389E+06    -101.639E+06    -160.739E+06    -100.408E+06    -160.719E+06    -101.639E+06     1.03765E+06
              39     61.3462E-03     136.798E-09     61.3462E-03     455.516E-03    -227.194E-03    -228.323E-03    -227.661E-03     455.516E-03    -227.855E-03     385.407E-06     455.573E-03     57.9911E+06    -100.406E+06    -101.587E+06    -158.978E+06    -101.158E+06    -158.966E+06    -100.847E+06    -114.028E+03
              40     59.7699E-03    -1.18199E-06     59.7699E-03     455.769E-03    -227.549E-03    -228.220E-03    -227.549E-03     455.768E-03    -228.220E-03    -319.594E-06     455.826E-03     56.5361E+06    -100.189E+06    -101.914E+06    -157.567E+06    -100.974E+06    -157.522E+06    -101.174E+06     573.619E+03
              41     58.1935E-03     1.15715E-06     58.1935E-03     455.714E-03    -227.674E-03    -228.040E-03    -228.030E-03     455.713E-03    -227.683E-03    -1.21482E-03     455.775E-03     54.9771E+06    -97.6577E+06    -100.505E+06    -153.997E+06    -99.5605E+06    -153.956E+06    -98.6432E+06     752.756E+03
              42     56.6174E-03    -568.604E-09     56.6174E-03     455.762E-03    -227.642E-03    -228.120E-03    -228.119E-03     455.762E-03    -227.642E-03    -796.226E-06     455.823E-03     53.4413E+06    -98.7707E+06    -101.824E+06    -153.670E+06    -100.645E+06    -153.658E+06    -99.9624E+06    -796.726E+03
              43     55.0374E-03     749.421E-09     55.0374E-03     456.115E-03    -227.815E-03    -228.300E-03    -228.300E-03     456.115E-03    -227.815E-03    -507.035E-06     456.169E-03     52.1103E+06    -98.2505E+06    -99.8348E+06    -151.131E+06    -98.2951E+06    -151.086E+06    -99.8348E+06     437.553E+03
              44     53.4608E-03    -172.139E-09     53.4608E-03     456.122E-03    -227.653E-03    -228.468E-03    -228.018E-03     456.122E-03    -228.104E-03    -243.597E-06     456.178E-03     50.2700E+06    -97.6594E+06    -99.3309E+06    -148.738E+06    -99.0032E+06    -148.673E+06    -98.0520E+06     102.586E+03
              45     51.8825E-03    -530.169E-09     51.8825E-03     455.849E-03    -227.478E-03    -228.371E-03    -227.920E-03     455.848E-03    -227.928E-03    -876.796E-06     455.906E-03     49.2263E+06    -96.8407E+06    -99.8846E+06    -147.517E+06    -98.1656E+06    -147.471E+06    -98.6057E+06    -210.207E+03
              46     50.3052E-03     1.21795E-06     50.3052E-03     455.594E-03    -227.468E-03    -228.126E-03    -227.910E-03     455.593E-03    -227.683E-03    -224.473E-06     455.653E-03     47.1431E+06    -96.9860E+06    -100.642E+06    -145.850E+06    -98.8959E+06    -145.831E+06    -98.7510E+06     397.584E+03
              47     48.7285E-03    -1.53897E-06     48.7285E-03     455.058E-03    -227.385E-03    -227.673E-03    -227.384E-03     455.057E-03    -227.673E-03    -879.710E-06     455.115E-03     45.1499E+06    -96.0838E+06    -99.9811E+06    -143.056E+06    -97.9836E+06    -143.047E+06    -98.0898E+06     132.481E+03
              48     47.1536E-03     1.40010E-06     47.1536E-03     454.373E-03    -226.979E-03    -227.394E-03    -227.320E-03     454.371E-03    -227.052E-03    -922.096E-06     454.429E-03     43.9163E+06    -96.8516E+06    -100.254E+06    -142.368E+06    -98.2735E+06    -142.343E+06    -98.8575E+06    -255.525E+03
              49     45.5779E-03    -837.777E-09     45.5779E-03     454.753E-03    -227.024E-03    -227.729E-03    -227.366E-03     454.753E-03    -227.386E-03    -6.67665E-06     454.814E-03     42.2510E+06    -98.4350E+06    -101.053E+06    -141.934E+06    -99.8908E+06    -141.875E+06    -99.6562E+06     298.702E+03
              50     44.0020E-03     248.851E-09     44.0020E-03     455.081E-03    -227.110E-03    -227.972E-03    -227.610E-03     455.081E-03    -227.472E-03    -1.11350E-03     455.146E-03     39.1406E+06    -96.3134E+06    -99.3438E+06    -136.875E+06    -98.1627E+06    -136.835E+06    -97.5346E+06     862.255E+03
              51     42.4253E-03     569.147E-09     42.4253E-03     454.459E-03    -226.960E-03    -227.499E-03    -227.461E-03     454.459E-03    -226.998E-03    -596.536E-06     454.522E-03     38.1231E+06    -96.6748E+06    -101.017E+06    -136.781E+06    -98.5050E+06    -136.760E+06    -99.2078E+06    -726.215E+03
              52     40.8507E-03    -655.157E-09     40.8507E-03     454.343E-03    -226.835E-03    -227.508E-03    -226.835E-03     454.343E-03    -227.508E-03    -256.836E-06     454.402E-03     39.1588E+06    -96.5852E+06    -102.104E+06    -138.207E+06    -99.6166E+06    -138.161E+06    -99.1182E+06     1.03256E+03
              53     39.2758E-03    -323.651E-09     39.2758E-03     454.607E-03    -226.734E-03    -227.872E-03    -227.236E-03     454.606E-03    -227.370E-03    -1.06702E-03     454.662E-03     37.7437E+06    -94.9071E+06    -101.145E+06    -135.380E+06    -97.9198E+06    -135.352E+06    -98.1592E+06     870.147E+03
              54     37.6997E-03     1.08960E-06     37.6997E-03     454.831E-03    -227.057E-03    -227.773E-03    -227.559E-03     454.830E-03    -227.271E-03    -622.944E-06     454.885E-03     36.0235E+06    -96.0432E+06    -101.451E+06    -134.456E+06    -98.2481E+06    -134.407E+06    -99.2952E+06     1.07985E+06
              55     36.1248E-03    -1.40372E-06     36.1248E-03     455.419E-03    -227.538E-03    -227.881E-03    -227.538E-03     455.418E-03    -227.881E-03    -656.726E-06     455.478E-03     35.1415E+06    -97.1720E+06    -100.209E+06    -133.715E+06    -99.4474E+06    -133.595E+06    -98.0528E+06    -271.976E+03
              56     34.5447E-03     1.18893E-06     34.5447E-03     456.200E-03    -228.019E-03    -228.182E-03    -228.018E-03     456.199E-03    -228.182E-03    -335.895E-06     456.260E-03     34.5860E+06    -97.9048E+06    -98.7880E+06    -132.916E+06    -98.0984E+06    -132.722E+06    -98.7880E+06     278.907E+03
              57     32.9680E-03    -1.24034E-06     32.9680E-03     457.212E-03    -228.545E-03    -228.667E-03    -228.633E-03     457.211E-03    -228.578E-03    -297.290E-06     457.267E-03     33.6444E+06    -97.7227E+06    -98.1658E+06    -131.584E+06    -98.3064E+06    -131.441E+06    -97.7251E+06     821.560E+03
              58     31.3864E-03     1.38631E-06     31.3864E-03     458.478E-03    -229.027E-03    -229.452E-03    -229.451E-03     458.478E-03    -229.027E-03    -421.409E-06     458.536E-03     33.2889E+06    -97.3813E+06    -98.3092E+06    -131.124E+06    -97.8446E+06    -131.102E+06    -97.8684E+06    -502.159E+03
              59     29.8042E-03    -856.238E-09     29.8042E-03     460.082E-03    -229.823E-03    -230.260E-03    -230.259E-03     460.082E-03    -229.823E-03    -430.987E-06     460.143E-03     30.2524E+06    -97.7565E+06    -98.5922E+06    -128.418E+06    -98.1214E+06    -128.402E+06    -98.2436E+06     561.148E+03
              60     28.2195E-03     1.02092E-06     28.2195E-03     462.655E-03    -230.934E-03    -231.721E-03    -231.034E-03     462.654E-03    -231.619E-03    -146.744E-06     462.714E-03     28.9081E+06    -97.3547E+06    -98.4518E+06    -126.794E+06    -97.7668E+06    -126.731E+06    -98.1032E+06    -400.000E+03
              61     26.6271E-03    -2.11303E-06     26.6271E-03     465.811E-03    -232.480E-03    -233.331E-03    -232.480E-03     465.811E-03    -233.331E-03     86.1420E-06     465.871E-03     30.2091E+06    -97.6874E+06    -98.6542E+06    -128.365E+06    -97.9624E+06    -128.308E+06    -98.4359E+06    -498.355E+03
              62     25.0299E-03     1.85472E-06     25.0299E-03     468.241E-03    -233.928E-03    -234.313E-03    -234.148E-03     468.241E-03    -234.093E-03     234.801E-06     468.302E-03     30.6293E+06    -97.5234E+06    -97.8997E+06    -128.339E+06    -97.7712E+06    -128.310E+06    -97.6814E+06    -206.073E+03
              63     23.4329E-03    -1.50826E-06     23.4329E-03     470.439E-03    -234.688E-03    -235.751E-03    -234.907E-03     470.438E-03    -235.531E-03     1.04454E-03     470.491E-03     31.3218E+06    -95.8403E+06    -96.7178E+06    -127.588E+06    -95.8803E+06    -127.548E+06    -96.7178E+06    -11.3429E+03
              64     21.8277E-03     167.478E-09     21.8277E-03     472.013E-03    -235.507E-03    -236.506E-03    -235.662E-03     472.013E-03    -236.351E-03     123.198E-06     472.062E-03     30.9279E+06    -96.3705E+06    -97.0926E+06    -127.647E+06    -96.4297E+06    -127.591E+06    -97.0899E+06    -193.305E+03
              65     20.2253E-03     79.5040E-09     20.2253E-03     471.790E-03    -235.682E-03    -236.107E-03    -236.107E-03     471.790E-03    -235.682E-03    -436.461E-06     471.839E-03     30.1708E+06    -96.6402E+06    -96.9357E+06    -126.957E+06    -97.0089E+06    -126.883E+06    -96.6402E+06    -20.6016E+03
              66     18.6241E-03     350.363E-09     18.6241E-03     469.306E-03    -234.377E-03    -234.930E-03    -234.645E-03     469.306E-03    -234.660E-03    -979.153E-06     469.355E-03     29.2570E+06    -96.1396E+06    -96.5226E+06    -125.586E+06    -96.4865E+06    -125.532E+06    -96.2297E+06     221.728E+03
              67     17.0238E-03    -797.441E-09     17.0238E-03     462.965E-03    -231.202E-03    -231.763E-03    -231.478E-03     462.964E-03    -231.486E-03    -1.87307E-03     463.015E-03     28.2914E+06    -95.9549E+06    -96.0637E+06    -124.301E+06    -95.9958E+06    -124.278E+06    -96.0451E+06    -266.744E+03
              68     15.4457E-03     1.24273E-06     15.4457E-03     453.147E-03    -226.271E-03    -226.876E-03    -226.873E-03     453.144E-03    -226.271E-03    -2.68585E-03     453.197E-03     26.9338E+06    -96.7664E+06    -97.0932E+06    -123.861E+06    -97.1122E+06    -123.842E+06    -96.7664E+06    -192.776E+03
              69     13.8791E-03    -713.192E-09     13.8791E-03     440.614E-03    -219.923E-03    -220.691E-03    -220.243E-03     440.607E-03    -220.364E-03    -4.11766E-03     440.670E-03     25.8826E+06    -97.2394E+06    -98.2364E+06    -123.604E+06    -97.5628E+06    -123.589E+06    -97.9283E+06    -510.608E+03
              70     12.3394E-03    -6.30302E-09     12.3394E-03     426.903E-03    -213.117E-03    -213.786E-03    -213.336E-03     426.894E-03    -213.558E-03    -4.84020E-03     426.966E-03     23.6461E+06    -97.7527E+06    -99.0121E+06    -122.003E+06    -98.3287E+06    -121.998E+06    -98.4416E+06    -303.877E+03
              71     10.8153E-03     378.477E-09     10.8153E-03     415.348E-03    -207.446E-03    -207.902E-03    -207.897E-03     415.343E-03    -207.446E-03    -3.60633E-03     415.432E-03     21.7428E+06    -97.9020E+06    -98.8651E+06    -120.110E+06    -98.4994E+06    -120.083E+06    -98.2946E+06     268.504E+03
              72     9.30820E-03    -10.6762E-09     9.30820E-03     407.667E-03    -203.487E-03    -204.180E-03    -203.713E-03     407.665E-03    -203.952E-03    -2.25741E-03     407.774E-03     17.1730E+06    -100.176E+06    -101.022E+06    -117.754E+06    -100.724E+06    -117.660E+06    -100.569E+06     1.14487E+06
              73     7.81038E-03    -742.174E-09     7.81038E-03     408.503E-03    -203.805E-03    -204.698E-03    -203.805E-03     408.503E-03    -204.698E-03    -546.600E-06     408.618E-03     12.3478E+06    -103.312E+06    -103.815E+06    -115.898E+06    -103.870E+06    -115.793E+06    -103.361E+06     197.852E+03
              74     6.30597E-03     61.7307E-09     6.30597E-03     420.260E-03    -208.991E-03    -211.269E-03    -210.839E-03     420.258E-03    -209.419E-03    -1.12589E-03     420.382E-03     14.9591E+06    -102.800E+06    -103.053E+06    -117.884E+06    -103.040E+06    -117.848E+06    -102.849E+06    -627.534E+03
              75     4.77008E-03     2.93314E-06     4.77008E-03     437.501E-03    -217.728E-03    -219.774E-03    -219.569E-03     437.493E-03    -217.924E-03     1.59644E-03     437.632E-03     27.8758E+06    -90.5083E+06    -90.7356E+06    -118.496E+06    -90.7396E+06    -118.492E+06    -90.5083E+06    -91.9564E+03
              76     3.20053E-03    -3.22565E-06     3.20053E-03     455.546E-03    -226.337E-03    -229.209E-03    -226.326E-03     455.535E-03    -229.209E-03     5.33729E-03     455.679E-03     46.4704E+06    -72.1055E+06    -73.1306E+06    -119.075E+06    -72.1322E+06    -119.072E+06    -73.1068E+06    -184.158E+03
              77     1.60727E-03    -1.03301E-06     1.60727E-03     470.046E-03    -232.957E-03    -237.089E-03    -234.409E-03     470.042E-03    -235.633E-03     3.01587E-03     470.154E-03     58.7415E+06    -59.2423E+06    -61.6057E+06    -119.130E+06    -60.6484E+06    -119.086E+06    -60.2437E+06     859.022E+03
              78     787.304E-06     787.304E-06     208.167E-18     474.529E-03    -236.268E-03    -238.261E-03    -237.721E-03     474.526E-03    -236.805E-03     2.69088E-03     474.631E-03     59.5415E+06    -52.6713E+06    -54.4064E+06    -113.056E+06    -54.4481E+06    -113.015E+06    -52.6713E+06     1.20698E+06
              79     1.57523E-03     1.57523E-03     208.167E-18     469.927E-03    -233.433E-03    -236.494E-03    -233.426E-03     469.920E-03    -236.494E-03     4.35905E-03     470.035E-03     51.1770E+06    -52.9232E+06    -53.6718E+06    -104.470E+06    -53.6721E+06    -104.470E+06    -52.9232E+06     115.290E+03
              80     2.36904E-03     2.36904E-03     208.167E-18     462.407E-03    -227.819E-03    -234.588E-03    -227.809E-03     462.397E-03    -234.588E-03     5.29206E-03     462.569E-03     38.5772E+06    -52.2333E+06    -53.1014E+06    -91.2364E+06    -53.1060E+06    -91.2319E+06    -52.2333E+06    -226.326E+03
              81     3.16817E-03     3.16817E-03     208.167E-18     454.496E-03    -222.300E-03    -232.196E-03    -222.288E-03     454.485E-03    -232.196E-03     5.48524E-03     454.789E-03     21.3188E+06    -51.1165E+06    -51.9252E+06    -72.8273E+06    -52.0512E+06    -72.7013E+06    -51.1165E+06    -1.08030E+06
              82     3.97100E-03     3.97100E-03     208.167E-18     446.503E-03    -216.860E-03    -229.642E-03    -216.847E-03     446.489E-03    -229.642E-03     5.83783E-03     447.007E-03     14.4918E+06    -40.8704E+06    -49.4179E+06    -55.9164E+06    -50.3198E+06    -46.7833E+06    -49.1017E+06    -1.71834E+06
              83     4.77794E-03     4.77794E-03     208.167E-18     438.573E-03    -211.518E-03    -227.055E-03    -211.505E-03     438.560E-03    -227.055E-03     5.93367E-03     439.434E-03     21.3984E+06    -24.5731E+06    -42.9647E+06    -47.9116E+06    -47.7093E+06    -24.7753E+06    -42.9647E+06    -2.15986E+06
              84     5.59117E-03     5.59117E-03     208.167E-18     431.741E-03    -207.192E-03    -224.550E-03    -207.184E-03     431.733E-03    -224.550E-03     4.54240E-03     433.194E-03     26.1207E+06    -14.9976E+06    -32.7601E+06    -44.7313E+06     -44.601E+06    -15.1279E+06    -32.7601E+06    -1.78783E+06
              85     6.40678E-03     6.40678E-03     208.167E-18     425.939E-03    -203.736E-03    -222.202E-03    -203.733E-03     425.935E-03    -222.202E-03     2.85451E-03     427.879E-03     28.2063E+06    -9.61523E+06    -21.8576E+06    -41.6605E+06    -41.6422E+06    -9.63348E+06    -21.8576E+06    -469.561E+03
              86     7.22312E-03     7.22312E-03     208.167E-18     421.595E-03    -201.531E-03    -220.065E-03    -201.527E-03     421.592E-03    -220.065E-03     2.78427E-03     423.717E-03     29.6974E+06    -5.18456E+06    -12.8755E+06    -37.9349E+06    -37.9313E+06    -5.18812E+06    -12.8755E+06     291.843E+03
              87     8.04350E-03     8.04350E-03     208.167E-18     426.400E-03    -207.862E-03    -218.539E-03    -207.832E-03     426.371E-03    -218.539E-03     7.75728E-03     429.100E-03     29.1800E+06    -2.26686E+06    -7.98547E+06    -33.8819E+06    -33.6910E+06    -2.45774E+06    -7.98547E+06    -1.45687E+06
              88     8.85190E-03     8.85190E-03     208.167E-18     438.422E-03    -216.501E-03    -221.921E-03    -220.235E-03     438.394E-03    -218.160E-03     6.84053E-03     442.356E-03     29.0736E+06     1.80011E+06    -991.576E+03    -28.4806E+06    -28.2745E+06     1.47028E+06    -867.840E+03    -2.21253E+06
              89     9.64769E-03     9.64769E-03     208.167E-18     441.955E-03    -218.559E-03    -223.396E-03    -223.393E-03     441.952E-03    -218.559E-03     2.83307E-03     446.615E-03     33.7377E+06     10.4474E+06     5.16738E+06    -25.3957E+06    -25.2501E+06     5.02174E+06     10.4474E+06     889.392E+03
              90     10.4469E-03     10.4469E-03     208.167E-18     439.136E-03    -218.932E-03    -220.204E-03    -220.179E-03     439.112E-03    -218.932E-03     7.23067E-03     444.388E-03     42.2192E+06     22.1398E+06     8.12504E+06    -25.2527E+06    -25.1242E+06     7.99653E+06     22.1398E+06     1.57005E+06
              91     11.2532E-03     11.2532E-03     208.167E-18     444.552E-03    -219.320E-03    -225.232E-03    -225.209E-03     444.529E-03    -219.320E-03     6.70343E-03     450.859E-03     51.6252E+06     35.9272E+06     17.0252E+06    -22.4812E+06    -22.4661E+06     17.0101E+06     35.9272E+06    -390.820E+03
              92     12.0559E-03     12.0559E-03     208.167E-18     463.783E-03    -220.437E-03    -243.346E-03    -243.306E-03     463.743E-03    -220.437E-03     8.87464E-03     472.163E-03     65.4406E+06     55.7905E+06     30.5761E+06    -18.4853E+06    -18.4360E+06     30.5268E+06     55.7905E+06     432.941E+03
              93     12.8181E-03     12.8181E-03     208.167E-18     497.525E-03    -222.944E-03    -274.581E-03    -274.187E-03     497.132E-03    -222.944E-03     31.4939E-03     510.301E-03     87.7155E+06     85.1732E+06     43.9946E+06    -15.4397E+06    -15.3521E+06     43.9070E+06     85.1732E+06     2.27696E+06
              94     13.5567E-03     13.5567E-03     208.167E-18     552.816E-03    -227.389E-03    -325.426E-03    -323.931E-03     551.320E-03    -227.389E-03     70.3667E-03     572.659E-03     111.233E+06     122.728E+06     60.0771E+06    -5.57276E+06    -5.51304E+06     60.0174E+06     122.728E+06     787.890E+03
              95     14.4205E-03     14.2979E-03     1.87587E-03     556.319E-03    -229.510E-03    -326.810E-03    -324.924E-03     554.434E-03    -229.510E-03     81.3221E-03     587.036E-03     121.754E+06     137.177E+06     65.9584E+06    -3.38129E+06    -3.37174E+06     65.9489E+06     137.177E+06    -251.454E+03
              96     14.7564E-03     14.3271E-03     3.53345E-03     503.539E-03    -228.719E-03    -274.820E-03    -273.321E-03     502.040E-03    -228.719E-03     68.2321E-03     534.126E-03     120.339E+06     132.611E+06     65.2862E+06    -6.31962E+06    -6.31779E+06     65.2844E+06     132.611E+06     275.749E+03
              97     15.2314E-03     14.3375E-03     5.14122E-03     478.047E-03    -228.412E-03    -249.635E-03    -248.442E-03     476.854E-03    -228.412E-03     58.3999E-03     498.820E-03     117.559E+06     132.190E+06     67.1329E+06    -3.51669E+06    -3.51618E+06     67.1324E+06     132.190E+06    -112.135E+03
              98     15.8499E-03     14.3412E-03     6.74921E-03     471.401E-03    -228.241E-03    -243.160E-03    -242.278E-03     470.520E-03    -228.241E-03     50.1533E-03     488.739E-03     117.128E+06     131.669E+06     66.2018E+06    -3.55453E+06    -3.55268E+06     66.2000E+06     131.669E+06    -349.216E+03
              99     16.5903E-03     14.3418E-03     8.33976E-03     466.462E-03    -228.286E-03    -238.176E-03    -237.391E-03     465.677E-03    -228.286E-03     46.9260E-03     483.377E-03     117.441E+06     131.726E+06     65.2686E+06    -3.87466E+06    -3.87329E+06     65.2673E+06     131.726E+06    -200.496E+03
             100     17.4463E-03     14.3419E-03     9.93394E-03     462.299E-03    -228.385E-03    -233.914E-03    -233.069E-03     461.455E-03    -228.385E-03     48.2345E-03     479.718E-03     116.955E+06     131.295E+06     64.9989E+06    -3.74581E+06    -3.74580E+06     64.9989E+06     131.295E+06     24.5962E+03
             101     18.3959E-03     14.3421E-03     11.5201E-03     459.603E-03    -228.474E-03    -231.128E-03    -230.088E-03     458.562E-03    -228.474E-03     53.5564E-03     477.849E-03     116.596E+06     131.220E+06     65.1639E+06    -3.40557E+06    -3.40354E+06     65.1619E+06     131.220E+06    -256.022E+03
             102     19.4267E-03     14.3413E-03     13.1044E-03     456.784E-03    -227.291E-03    -229.493E-03    -227.067E-03     455.635E-03    -228.569E-03     56.0331E-03     475.715E-03     116.293E+06     130.934E+06     65.1506E+06    -3.34050E+06    -3.33230E+06     65.1424E+06     130.934E+06     195.552E+03
             103     20.5219E-03     14.3421E-03     14.6782E-03     454.328E-03    -225.684E-03    -228.644E-03    -224.368E-03     453.012E-03    -228.644E-03     59.7296E-03     473.932E-03     115.976E+06     130.379E+06     64.9741E+06    -3.52669E+06    -3.51689E+06     64.9643E+06     130.379E+06     106.733E+03
             104     21.6749E-03     14.3413E-03     16.2520E-03     453.576E-03    -224.914E-03    -228.662E-03    -223.600E-03     452.263E-03    -228.662E-03     59.6150E-03     473.721E-03     116.069E+06     129.930E+06     64.5141E+06    -4.08201E+06    -4.07531E+06     64.5074E+06     129.930E+06    -27.6173E+03
             105     22.8729E-03     14.3421E-03     17.8178E-03     452.304E-03    -223.607E-03    -228.696E-03    -222.406E-03     451.102E-03    -228.696E-03     56.9341E-03     472.238E-03     116.108E+06     130.534E+06     65.0917E+06    -3.52323E+06    -3.51856E+06     65.0870E+06     130.534E+06     91.2101E+03
             106     24.1167E-03     14.3412E-03     19.3893E-03     451.901E-03    -223.182E-03    -228.719E-03    -221.894E-03     450.614E-03    -228.719E-03     58.8682E-03     471.831E-03     116.038E+06     130.310E+06     64.9408E+06    -3.66602E+06    -3.66390E+06     64.9387E+06     130.310E+06    -99.3150E+03
             107     25.3983E-03     14.3418E-03     20.9615E-03     452.140E-03    -223.433E-03    -228.707E-03    -222.050E-03     450.757E-03    -228.707E-03     61.0723E-03     472.646E-03     115.816E+06     130.058E+06     64.9856E+06    -3.65850E+06    -3.65780E+06     64.9849E+06     130.058E+06     210.849E+03
             108     26.7068E-03     14.3419E-03     22.5291E-03     452.366E-03    -223.679E-03    -228.687E-03    -222.326E-03     451.013E-03    -228.687E-03     60.4364E-03     473.211E-03     115.648E+06     129.713E+06     64.8626E+06    -3.80844E+06    -3.80800E+06     64.8621E+06     129.713E+06    -20.0324E+03
             109     28.0419E-03     14.3416E-03     24.0970E-03     453.037E-03    -224.367E-03    -228.670E-03    -223.102E-03     451.772E-03    -228.670E-03     58.4745E-03     473.338E-03     115.491E+06     129.394E+06     64.6828E+06    -3.94384E+06    -3.94357E+06     64.6826E+06     129.394E+06    -99.5848E+03
             110     29.4044E-03     14.3417E-03     25.6697E-03     453.669E-03    -225.012E-03    -228.657E-03    -223.707E-03     452.364E-03    -228.657E-03     59.4020E-03     473.606E-03     115.128E+06     129.336E+06     64.9816E+06    -3.58092E+06    -3.57843E+06     64.9791E+06     129.336E+06     288.557E+03
             111     30.7894E-03     14.3415E-03     27.2453E-03     454.267E-03    -225.623E-03    -228.644E-03    -224.237E-03     452.881E-03    -228.644E-03     61.3348E-03     474.663E-03     114.964E+06     128.859E+06     64.6709E+06    -3.86581E+06    -3.86139E+06     64.6664E+06     128.859E+06     549.131E+03
             112     32.1885E-03     14.3417E-03     28.8170E-03     454.528E-03    -225.897E-03    -228.631E-03    -224.512E-03     453.144E-03    -228.631E-03     61.3197E-03     475.064E-03     114.952E+06     128.760E+06     64.5641E+06    -3.95180E+06    -3.94958E+06     64.5619E+06     128.760E+06     356.604E+03
             113     33.6031E-03     14.3419E-03     30.3888E-03     455.322E-03    -226.721E-03    -228.601E-03    -225.365E-03     453.966E-03    -228.601E-03     60.7504E-03     475.958E-03     115.192E+06     129.339E+06     64.9029E+06    -3.65243E+06    -3.65214E+06     64.9026E+06     129.339E+06     88.7699E+03
             114     35.0346E-03     14.3418E-03     31.9646E-03     456.098E-03    -227.525E-03    -228.573E-03    -226.202E-03     454.775E-03    -228.573E-03     60.0969E-03     476.679E-03     115.354E+06     129.424E+06     64.8240E+06    -3.75580E+06    -3.75574E+06     64.8239E+06     129.424E+06     36.0692E+03
             115     36.4793E-03     14.3420E-03     33.5417E-03     456.478E-03    -227.921E-03    -228.557E-03    -226.567E-03     455.124E-03    -228.557E-03     60.8155E-03     477.043E-03     115.135E+06     129.255E+06     64.8878E+06    -3.66968E+06    -3.66956E+06     64.8877E+06     129.255E+06     89.7565E+03
             116     37.9328E-03     14.3421E-03     35.1170E-03     457.060E-03    -228.376E-03    -228.684E-03    -227.188E-03     455.728E-03    -228.539E-03     60.3874E-03     477.643E-03     115.369E+06     129.556E+06     64.9436E+06    -3.64116E+06    -3.64100E+06     64.9434E+06     129.556E+06    -17.4958E+03
             117     39.3981E-03     14.3419E-03     36.6950E-03     457.666E-03    -228.522E-03    -229.144E-03    -227.816E-03     456.338E-03    -228.522E-03     60.3264E-03     478.218E-03     115.683E+06     129.807E+06     64.8760E+06    -3.75568E+06    -3.75523E+06     64.8755E+06     129.807E+06     47.7411E+03
             118     40.8727E-03     14.3423E-03     38.2737E-03     457.708E-03    -228.508E-03    -229.200E-03    -227.888E-03     456.396E-03    -228.508E-03     59.9638E-03     478.220E-03     115.535E+06     129.882E+06     65.1449E+06    -3.50677E+06    -3.50626E+06     65.1444E+06     129.882E+06     31.9391E+03
             119     42.3530E-03     14.3423E-03     39.8507E-03     457.286E-03    -228.511E-03    -228.775E-03    -227.487E-03     455.998E-03    -228.511E-03     59.4046E-03     477.802E-03     115.694E+06     129.806E+06     64.9339E+06    -3.76727E+06    -3.76696E+06     64.9336E+06     129.806E+06    -6.22201E+03
             120     43.8410E-03     14.3423E-03     41.4287E-03     457.863E-03    -228.505E-03    -229.358E-03    -228.040E-03     456.545E-03    -228.505E-03     60.1272E-03     478.290E-03     115.938E+06     130.261E+06     65.1476E+06    -3.59686E+06    -3.59628E+06     65.1470E+06     130.261E+06    -51.6543E+03
             121     45.3367E-03     14.3419E-03     43.0085E-03     458.407E-03    -228.497E-03    -229.910E-03    -228.590E-03     457.087E-03    -228.497E-03     60.2295E-03     478.827E-03     115.721E+06     129.826E+06     64.9725E+06    -3.77839E+06    -3.77690E+06     64.9711E+06     129.826E+06     68.9333E+03
             122     46.8388E-03     14.3423E-03     44.5889E-03     458.003E-03    -228.502E-03    -229.501E-03    -228.140E-03     456.643E-03    -228.502E-03     61.0918E-03     478.581E-03     115.700E+06     129.726E+06     64.9321E+06    -3.85303E+06    -3.85195E+06     64.9310E+06     129.726E+06     215.242E+03
             123     48.3424E-03     14.3425E-03     46.1658E-03     458.005E-03    -228.495E-03    -229.510E-03    -228.152E-03     456.647E-03    -228.495E-03     61.0289E-03     478.659E-03     116.298E+06     130.628E+06     65.2491E+06    -3.64580E+06    -3.64532E+06     65.2486E+06     130.628E+06    -101.414E+03
             124     49.8521E-03     14.3424E-03     47.7444E-03     458.403E-03    -228.490E-03    -229.913E-03    -228.594E-03     457.085E-03    -228.490E-03     60.1910E-03     479.009E-03     116.707E+06     131.141E+06     65.2410E+06    -3.60935E+06    -3.60889E+06     65.2405E+06     131.141E+06    -121.902E+03
             125     51.3676E-03     14.3421E-03     49.3248E-03     457.979E-03    -228.511E-03    -229.468E-03    -228.155E-03     456.666E-03    -228.511E-03     60.0302E-03     478.550E-03     116.499E+06     130.808E+06     65.1961E+06    -3.70043E+06    -3.69881E+06     65.1945E+06     130.808E+06     240.500E+03
             126     52.8844E-03     14.3423E-03     50.9024E-03     456.884E-03    -228.187E-03    -228.697E-03    -227.044E-03     455.579E-03    -228.535E-03     59.7487E-03     477.511E-03     116.471E+06     130.255E+06     65.0650E+06    -4.21315E+06    -4.21060E+06     65.0625E+06     130.255E+06     56.4155E+03
             127     54.4000E-03     14.3425E-03     52.4752E-03     457.198E-03    -228.166E-03    -229.032E-03    -227.383E-03     455.897E-03    -228.514E-03     59.6829E-03     477.805E-03     117.012E+06     131.550E+06     65.7951E+06    -3.54725E+06    -3.54574E+06     65.7936E+06     131.550E+06    -320.676E+03
             128     55.9266E-03     14.3428E-03     54.0561E-03     458.003E-03    -228.479E-03    -229.524E-03    -228.244E-03     456.723E-03    -228.479E-03     59.2730E-03     478.424E-03     117.673E+06     132.197E+06     66.1002E+06    -3.66257E+06    -3.66194E+06     66.0996E+06     132.197E+06    -94.5976E+03
             129     57.4554E-03     14.3427E-03     55.6364E-03     457.880E-03    -228.486E-03    -229.394E-03    -228.052E-03     456.537E-03    -228.486E-03     60.6758E-03     478.338E-03     118.047E+06     132.560E+06     66.7507E+06    -3.72262E+06    -3.71834E+06     66.7465E+06     132.560E+06     431.678E+03
             130     58.9859E-03     14.3427E-03     57.2156E-03     457.686E-03    -228.498E-03    -229.188E-03    -227.802E-03     456.300E-03    -228.498E-03     61.6335E-03     478.197E-03     118.515E+06     133.290E+06     68.0804E+06    -3.50655E+06    -3.50119E+06     68.0750E+06     133.290E+06     589.679E+03
             131     60.5159E-03     14.3428E-03     58.7917E-03     457.250E-03    -228.438E-03    -228.813E-03    -227.422E-03     455.927E-03    -228.505E-03     60.1974E-03     477.766E-03     118.954E+06     133.264E+06     68.8081E+06    -4.00784E+06    -4.00482E+06     68.8051E+06     133.264E+06     465.634E+03
             132     62.0475E-03     14.3428E-03     60.3670E-03     456.931E-03    -228.428E-03    -228.504E-03    -227.124E-03     455.628E-03    -228.504E-03     59.7124E-03     477.521E-03       119.6E+06     133.920E+06     70.9330E+06    -3.99830E+06    -3.99525E+06     70.9299E+06     133.920E+06     474.159E+03
             133     63.5848E-03     14.3432E-03     61.9460E-03     457.168E-03    -228.479E-03    -228.688E-03    -227.355E-03     455.844E-03    -228.488E-03     60.2111E-03     477.655E-03     120.291E+06     134.888E+06     73.1404E+06    -3.73739E+06    -3.73555E+06     73.1386E+06     134.888E+06     52.5498E+03
             134     65.1226E-03     14.3430E-03     63.5234E-03     457.812E-03    -228.472E-03    -229.341E-03    -228.008E-03     456.479E-03    -228.472E-03     60.4658E-03     478.388E-03     120.921E+06     135.424E+06     73.5591E+06    -3.91280E+06    -3.91213E+06     73.5584E+06     135.424E+06    -142.770E+03
             135     66.6633E-03     14.3431E-03     65.1020E-03     457.682E-03    -228.475E-03    -229.207E-03    -227.945E-03     456.420E-03    -228.475E-03     58.8027E-03     477.661E-03     121.603E+06     136.107E+06     73.9239E+06    -4.01301E+06    -4.01298E+06     73.9239E+06     136.107E+06     40.1537E+03
             136     68.2033E-03     14.3432E-03     66.6781E-03     456.951E-03    -228.397E-03    -228.554E-03    -227.208E-03     455.699E-03    -228.491E-03     58.5224E-03     476.819E-03     121.952E+06     137.062E+06     74.7678E+06    -3.45507E+06    -3.45197E+06     74.7647E+06     137.062E+06     371.237E+03
             137     69.7476E-03     14.3434E-03     68.2568E-03     457.027E-03    -228.389E-03    -228.638E-03    -227.227E-03     455.710E-03    -228.484E-03     60.0296E-03     477.491E-03     122.799E+06     137.296E+06     76.1507E+06    -4.06310E+06    -4.05797E+06     76.1456E+06     137.296E+06     637.098E+03
             138     71.2934E-03     14.3435E-03     69.8356E-03     457.184E-03    -228.476E-03    -228.707E-03    -227.362E-03     455.839E-03    -228.476E-03     60.6802E-03     477.746E-03     123.569E+06     137.796E+06     77.4111E+06    -4.35482E+06    -4.35234E+06     77.4086E+06     137.796E+06     154.733E+03
             139     72.8382E-03     14.3435E-03     71.4120E-03     457.232E-03    -228.476E-03    -228.756E-03    -227.400E-03     455.876E-03    -228.476E-03     60.9194E-03     477.894E-03     124.156E+06     139.032E+06     78.4860E+06    -3.78103E+06    -3.77863E+06     78.4836E+06     139.032E+06     151.096E+03
             140     74.3860E-03     14.3436E-03     72.9900E-03     457.270E-03    -228.470E-03    -228.800E-03    -227.455E-03     455.925E-03    -228.470E-03     60.6817E-03     477.876E-03     125.026E+06     139.732E+06     80.2609E+06    -3.92299E+06    -3.91751E+06     80.2554E+06     139.732E+06     672.977E+03
             141     75.9346E-03     14.3437E-03     74.5675E-03     457.187E-03    -228.469E-03    -228.719E-03    -227.372E-03     455.841E-03    -228.469E-03     60.7211E-03     477.813E-03     125.871E+06     140.382E+06     82.0619E+06    -4.07050E+06    -4.06698E+06     82.0584E+06     140.382E+06     381.713E+03
             142     77.4838E-03     14.3437E-03     76.1446E-03     457.273E-03    -228.466E-03    -228.807E-03    -227.458E-03     455.924E-03    -228.466E-03     60.7849E-03     477.910E-03     126.623E+06     141.263E+06     83.1199E+06    -3.98970E+06    -3.98948E+06     83.1197E+06     141.263E+06     92.2085E+03
             143     79.0351E-03     14.3439E-03     77.7226E-03     457.371E-03    -228.457E-03    -228.914E-03    -227.570E-03     456.027E-03    -228.457E-03     60.6710E-03     478.093E-03     127.316E+06     141.767E+06     83.4091E+06    -4.26696E+06    -4.26670E+06     83.4088E+06     141.767E+06      53.987E+03
             144     80.5867E-03     14.3440E-03     79.2999E-03     457.066E-03    -228.369E-03    -228.697E-03    -227.305E-03     455.764E-03    -228.459E-03     59.6964E-03     477.281E-03     127.858E+06     142.736E+06     84.2076E+06    -3.91050E+06    -3.90788E+06     84.2050E+06     142.736E+06     292.823E+03
             145     82.1379E-03     14.3441E-03     80.8757E-03     456.694E-03    -228.235E-03    -228.459E-03    -226.934E-03     455.393E-03    -228.459E-03     59.6386E-03     476.769E-03     128.988E+06     143.683E+06     86.0747E+06     -4.0634E+06    -4.06020E+06     86.0715E+06     143.683E+06     506.949E+03
             146     83.6923E-03     14.3446E-03     82.4538E-03     456.810E-03    -228.312E-03    -228.499E-03    -227.025E-03     455.470E-03    -228.445E-03     60.5355E-03     477.331E-03     129.942E+06     144.537E+06     87.3835E+06    -4.18487E+06    -4.18368E+06     87.3823E+06     144.537E+06     330.660E+03
             147     85.2474E-03     14.3445E-03     84.0318E-03     456.914E-03    -228.421E-03    -228.493E-03    -227.117E-03     455.556E-03    -228.439E-03     60.9406E-03     477.520E-03     130.967E+06     145.476E+06     88.7472E+06    -4.28544E+06    -4.28290E+06     88.7447E+06     145.476E+06     466.572E+03
             148     86.8015E-03     14.3447E-03     85.6080E-03     456.939E-03    -228.412E-03    -228.528E-03    -227.137E-03     455.567E-03    -228.430E-03     61.2719E-03     477.637E-03     132.249E+06     146.693E+06     90.9450E+06    -4.30197E+06    -4.29727E+06     90.9403E+06     146.693E+06     666.703E+03
             149     89.9139E-03     14.3454E-03     88.7622E-03     456.977E-03    -228.389E-03    -228.588E-03    -227.233E-03     455.621E-03    -228.389E-03     60.9139E-03     477.606E-03     134.769E+06     149.350E+06     94.4297E+06    -4.20718E+06    -4.20683E+06     94.4294E+06     149.350E+06     162.322E+03
             150     91.4717E-03     14.3457E-03     90.3397E-03     456.862E-03    -228.335E-03    -228.527E-03    -227.132E-03     455.503E-03    -228.371E-03     60.9672E-03     477.497E-03     135.925E+06     150.639E+06     95.9207E+06    -4.11371E+06    -4.10673E+06     95.9137E+06     150.639E+06     706.881E+03
             151     93.0297E-03     14.3463E-03     91.9168E-03     456.461E-03    -228.107E-03    -228.354E-03    -226.741E-03     455.095E-03    -228.354E-03     61.1065E-03     477.125E-03     137.765E+06     151.867E+06     98.3392E+06    -4.62606E+06    -4.61856E+06     98.3317E+06     151.867E+06     790.977E+03
             152     94.5866E-03     14.3467E-03     93.4923E-03     456.573E-03    -228.116E-03    -228.458E-03    -226.869E-03     455.196E-03    -228.327E-03     61.3550E-03     477.257E-03     139.254E+06     153.589E+06     100.736E+06     -4.3537E+06    -4.35195E+06     100.735E+06     153.589E+06     428.544E+03
             153     96.1463E-03     14.3470E-03     95.0698E-03     456.724E-03    -228.290E-03    -228.434E-03    -227.064E-03     455.354E-03    -228.290E-03     61.2213E-03     477.384E-03     140.736E+06     155.121E+06     102.968E+06    -4.24455E+06    -4.23945E+06     102.963E+06     155.121E+06     695.963E+03
             154     97.7053E-03     14.3480E-03     96.6461E-03     456.330E-03    -228.068E-03    -228.262E-03    -226.703E-03     454.952E-03    -228.249E-03     61.3516E-03     476.983E-03     142.577E+06     156.401E+06     105.206E+06    -4.70300E+06    -4.69845E+06     105.202E+06     156.401E+06     619.463E+03
             155     99.2645E-03     14.3488E-03     98.2220E-03     456.159E-03    -227.960E-03    -228.199E-03    -226.573E-03     454.772E-03    -228.199E-03     61.5381E-03     476.792E-03     143.997E+06     158.092E+06     106.791E+06    -4.52998E+06    -4.52953E+06     106.790E+06     158.092E+06     210.344E+03
             156     100.825E-03     14.3496E-03     99.7985E-03     455.953E-03    -227.812E-03    -228.141E-03    -226.423E-03     454.564E-03    -228.141E-03     61.5681E-03     476.622E-03     144.990E+06     159.384E+06     108.074E+06    -4.28244E+06    -4.27841E+06     108.070E+06     159.384E+06     540.124E+03
             157     102.384E-03     14.3510E-03     101.373E-03     455.670E-03    -227.611E-03    -228.059E-03    -226.200E-03     454.259E-03    -228.059E-03     62.0357E-03     476.385E-03     146.844E+06     160.720E+06     110.735E+06    -4.58582E+06    -4.57860E+06     110.728E+06     160.720E+06     910.697E+03
             158     103.944E-03     14.3527E-03     102.948E-03     455.523E-03    -227.582E-03    -227.941E-03    -226.165E-03     454.106E-03    -227.941E-03     62.1569E-03     476.272E-03     148.815E+06     162.587E+06     114.267E+06    -4.38063E+06    -4.37342E+06     114.259E+06     162.587E+06     924.341E+03
             159     105.504E-03     14.3549E-03     104.523E-03     454.740E-03    -226.931E-03    -227.809E-03    -225.545E-03     453.354E-03    -227.809E-03     61.4138E-03     475.012E-03     150.902E+06     164.127E+06     117.335E+06    -4.62435E+06    -4.61692E+06     117.327E+06     164.127E+06     950.736E+03
             160     107.062E-03     14.3574E-03     106.094E-03     454.007E-03    -226.357E-03    -227.650E-03    -224.956E-03     452.606E-03    -227.650E-03     61.6765E-03     474.245E-03     152.909E+06     165.697E+06     120.046E+06    -4.83760E+06    -4.83165E+06     120.040E+06     165.697E+06     858.110E+03
             161     108.622E-03     14.3603E-03     107.668E-03     453.847E-03    -226.391E-03    -227.457E-03    -224.957E-03     452.414E-03    -227.457E-03     62.3899E-03     474.625E-03     154.762E+06     167.311E+06     122.960E+06    -4.78165E+06    -4.77123E+06     122.949E+06     167.311E+06     1.11195E+06
             162     110.181E-03     14.3632E-03     109.241E-03     453.583E-03    -226.327E-03    -227.256E-03    -224.870E-03     452.126E-03    -227.256E-03     62.8988E-03     474.550E-03     157.103E+06     169.151E+06     126.832E+06    -4.77156E+06    -4.75952E+06     126.820E+06     169.151E+06     1.23976E+06
             163     111.740E-03     14.3662E-03     110.812E-03     453.569E-03    -226.522E-03    -227.047E-03    -225.059E-03     452.106E-03    -227.047E-03     63.0251E-03     474.786E-03     159.482E+06     170.967E+06     130.465E+06    -4.85810E+06    -4.85179E+06     130.459E+06     170.967E+06     912.986E+03
             164     113.299E-03     14.3690E-03     112.385E-03     453.525E-03    -226.682E-03    -226.843E-03    -225.250E-03     452.092E-03    -226.843E-03     62.3602E-03     474.856E-03     161.898E+06     172.813E+06     133.936E+06    -4.97948E+06    -4.97235E+06     133.929E+06     172.813E+06     978.482E+03
             165     114.860E-03     14.3719E-03     113.957E-03     453.167E-03    -226.509E-03    -226.658E-03    -225.076E-03     451.734E-03    -226.658E-03     62.3536E-03     474.681E-03     164.272E+06     174.791E+06     137.626E+06    -4.87642E+06    -4.86674E+06     137.616E+06     174.791E+06     1.17423E+06
             166     116.419E-03     14.3744E-03     115.528E-03     453.061E-03    -226.424E-03    -226.638E-03    -225.148E-03     451.623E-03    -226.475E-03     62.4632E-03     474.820E-03     166.996E+06     176.852E+06     141.539E+06    -4.97113E+06    -4.96029E+06     141.528E+06     176.852E+06     1.25858E+06
             167     117.979E-03     14.3770E-03     117.100E-03     452.604E-03    -226.133E-03    -226.470E-03    -224.881E-03     451.189E-03    -226.308E-03     61.9108E-03     474.538E-03     169.919E+06     178.886E+06     145.368E+06    -5.29171E+06    -5.28433E+06     145.361E+06     178.886E+06     988.236E+03
             168     119.538E-03     14.3794E-03     118.670E-03     452.046E-03    -225.893E-03    -226.154E-03    -224.482E-03     450.636E-03    -226.154E-03     61.7775E-03     474.159E-03     172.290E+06     181.173E+06     148.833E+06    -4.99462E+06    -4.98956E+06     148.828E+06     181.173E+06     855.745E+03
             169     121.096E-03     14.3818E-03     120.239E-03     452.149E-03    -225.900E-03    -226.249E-03    -224.770E-03     450.756E-03    -225.986E-03     61.4141E-03     474.449E-03     174.626E+06     182.914E+06     151.822E+06    -5.16775E+06    -5.16298E+06     151.817E+06     182.914E+06     824.131E+03
             170     122.657E-03     14.3840E-03     121.810E-03     452.249E-03    -225.824E-03    -226.425E-03    -225.038E-03     450.862E-03    -225.824E-03     61.2894E-03     474.768E-03     176.104E+06     183.516E+06     154.093E+06    -5.44400E+06    -5.44255E+06     154.092E+06     183.516E+06     470.805E+03
             171     124.217E-03     14.3861E-03     123.381E-03     452.014E-03    -225.685E-03    -226.329E-03    -224.935E-03     450.620E-03    -225.685E-03     61.4439E-03     474.748E-03     177.265E+06     184.508E+06     157.047E+06    -4.88204E+06    -4.87497E+06     157.039E+06     184.508E+06     922.697E+03
             172     125.776E-03     14.3879E-03     124.950E-03     451.650E-03    -225.561E-03    -226.089E-03    -224.709E-03     450.270E-03    -225.561E-03     61.1047E-03     474.547E-03     180.145E+06     185.981E+06     161.383E+06    -5.18972E+06    -5.17476E+06     161.368E+06     185.981E+06     1.57671E+06
             173     127.336E-03     14.3897E-03     126.520E-03     451.145E-03    -225.449E-03    -225.696E-03    -224.318E-03     449.767E-03    -225.449E-03     61.0204E-03     474.190E-03     183.787E+06     188.272E+06     166.232E+06    -5.53969E+06    -5.52598E+06     166.218E+06     188.272E+06     1.52475E+06
             174     128.894E-03     14.3916E-03     128.088E-03     450.848E-03    -225.339E-03    -225.508E-03    -224.120E-03     449.460E-03    -225.339E-03     61.2173E-03     474.086E-03     187.347E+06     191.053E+06     170.618E+06    -5.67093E+06    -5.66335E+06     170.611E+06     191.053E+06     1.12684E+06
             175     130.453E-03     14.3932E-03     129.657E-03     450.481E-03    -225.097E-03    -225.384E-03    -223.877E-03     449.116E-03    -225.239E-03     60.6713E-03     473.925E-03     190.473E+06     193.922E+06     174.696E+06    -5.43393E+06    -5.42762E+06     174.690E+06     193.922E+06     1.05427E+06
             176     132.011E-03     14.3949E-03     131.224E-03     449.323E-03    -224.156E-03    -225.167E-03    -222.850E-03     448.017E-03    -225.167E-03     59.2542E-03     472.402E-03     193.612E+06     196.212E+06     178.746E+06    -5.53702E+06    -5.53037E+06     178.740E+06     196.212E+06     1.09676E+06
             177     133.565E-03     14.3962E-03     132.787E-03     448.656E-03    -223.563E-03    -225.093E-03    -222.256E-03     447.349E-03    -225.093E-03     59.2208E-03     471.791E-03     195.681E+06     197.125E+06     182.144E+06    -5.61338E+06    -5.60930E+06     182.140E+06     197.125E+06     868.411E+03
             178     135.124E-03     14.3973E-03     134.355E-03     448.610E-03    -223.594E-03    -225.016E-03    -222.262E-03     447.278E-03    -225.016E-03     59.7849E-03     472.360E-03     197.196E+06     197.764E+06     184.187E+06    -5.86852E+06    -5.86695E+06     184.186E+06     197.764E+06     409.667E+03
             179     136.680E-03     14.3985E-03     135.919E-03     447.940E-03    -222.977E-03    -224.963E-03    -221.663E-03     446.626E-03    -224.963E-03     59.3216E-03     471.329E-03     197.531E+06     198.155E+06     185.328E+06    -5.47665E+06    -5.47532E+06     185.327E+06     198.155E+06     380.863E+03
             180     138.233E-03     14.3992E-03     137.481E-03     447.394E-03    -222.477E-03    -224.918E-03    -221.172E-03     446.090E-03    -224.918E-03     59.0616E-03     470.804E-03     198.767E+06     198.635E+06     187.356E+06    -5.52853E+06    -5.52453E+06     187.352E+06     198.635E+06     865.487E+03
             181     139.789E-03     14.4002E-03     139.046E-03     447.383E-03    -222.514E-03    -224.869E-03    -221.175E-03     446.044E-03    -224.869E-03     59.8400E-03     471.245E-03     201.815E+06     200.784E+06     190.518E+06    -5.96837E+06    -5.96371E+06     190.513E+06     200.784E+06     954.058E+03
             182     141.346E-03     14.4011E-03     140.611E-03     447.443E-03    -222.614E-03    -224.829E-03    -221.221E-03     446.050E-03    -224.829E-03     61.0224E-03     471.353E-03     204.921E+06     204.048E+06     193.604E+06    -5.89572E+06    -5.89302E+06     193.601E+06     204.048E+06     711.321E+03
             183     142.901E-03     14.4018E-03     142.174E-03     447.757E-03    -222.975E-03    -224.782E-03    -221.560E-03     446.342E-03    -224.782E-03     61.5586E-03     471.731E-03     206.366E+06     205.615E+06     194.229E+06    -6.20681E+06    -6.20565E+06     194.227E+06     205.615E+06     55.8515E+03
             184     144.458E-03     14.4025E-03     143.738E-03     448.483E-03    -223.761E-03    -224.722E-03    -222.342E-03     447.063E-03    -224.722E-03     61.7155E-03     472.389E-03     205.031E+06     205.370E+06     192.434E+06    -5.82198E+06    -5.82146E+06     192.434E+06     205.370E+06    -298.106E+03
             185     146.017E-03     14.4031E-03     145.304E-03     449.631E-03    -224.432E-03    -225.199E-03    -223.525E-03     448.185E-03    -224.660E-03     62.4093E-03     473.511E-03     203.669E+06     204.613E+06     188.742E+06    -6.51703E+06    -6.50872E+06     188.734E+06     204.613E+06    -977.461E+03
             186     147.577E-03     14.4037E-03     146.872E-03     451.294E-03    -224.588E-03    -226.706E-03    -225.243E-03     449.831E-03    -224.588E-03     62.9223E-03     475.185E-03     198.943E+06     201.869E+06      182.92E+06    -5.86779E+06    -5.85082E+06     182.903E+06     201.869E+06    -1.78899E+06
             187     149.141E-03     14.4038E-03     148.443E-03     453.344E-03    -224.513E-03    -228.830E-03    -227.357E-03     451.870E-03    -224.513E-03     63.3320E-03     477.165E-03     194.178E+06     198.699E+06     177.922E+06    -5.02968E+06    -5.02093E+06     177.914E+06     198.699E+06    -936.307E+03
             188     150.708E-03     14.4042E-03     150.018E-03     455.920E-03    -224.438E-03    -231.482E-03    -229.970E-03     454.408E-03    -224.438E-03     64.4027E-03     479.588E-03     193.742E+06     198.081E+06     175.410E+06    -5.99819E+06    -5.99721E+06     175.409E+06     198.081E+06    -333.190E+03
             189     152.280E-03     14.4045E-03     151.597E-03     458.771E-03    -224.355E-03    -234.416E-03    -232.879E-03     457.235E-03    -224.355E-03     65.2013E-03     482.262E-03     193.208E+06     199.616E+06     172.196E+06    -5.80498E+06    -5.79866E+06     172.190E+06     199.616E+06    -978.401E+03
             190     153.856E-03     14.4054E-03     153.180E-03     461.872E-03    -224.252E-03    -237.620E-03    -236.047E-03     460.298E-03    -224.252E-03     66.2700E-03     485.102E-03     190.055E+06     198.641E+06     165.130E+06    -5.92704E+06    -5.89301E+06     165.096E+06     198.641E+06    -2.23361E+06
             191     155.439E-03     14.4059E-03     154.770E-03     465.854E-03    -224.106E-03    -241.748E-03    -240.123E-03     464.229E-03    -224.106E-03     67.7544E-03     488.821E-03     183.213E+06     193.896E+06     157.709E+06    -4.70638E+06    -4.67662E+06     157.679E+06     193.896E+06    -1.25863E+06
             192     157.029E-03     14.4066E-03     156.366E-03     470.237E-03    -223.947E-03    -246.290E-03    -244.650E-03     468.597E-03    -223.947E-03     68.4776E-03     492.993E-03     178.590E+06     187.190E+06     152.838E+06    -6.07001E+06    -6.04902E+06     152.817E+06     187.190E+06    -972.735E+03
             193     158.624E-03     14.4067E-03     157.968E-03     474.937E-03    -223.784E-03    -251.153E-03    -249.499E-03     473.283E-03    -223.784E-03     69.2397E-03     497.377E-03     170.426E+06     179.540E+06     146.740E+06    -4.88977E+06    -4.86607E+06     146.716E+06     179.540E+06    -1.78378E+06
             194     160.230E-03     14.4071E-03     159.581E-03     480.147E-03    -223.620E-03    -256.527E-03    -254.848E-03     478.468E-03    -223.620E-03     70.2633E-03     502.166E-03     161.726E+06     170.575E+06     137.002E+06    -5.30222E+06    -5.22372E+06     136.923E+06     170.575E+06    -2.82064E+06
             195     161.843E-03     14.4069E-03     161.200E-03     484.581E-03    -223.489E-03    -261.092E-03    -259.413E-03     482.902E-03    -223.489E-03     70.6795E-03     506.105E-03     152.870E+06     164.237E+06     125.422E+06    -4.15679E+06    -4.07251E+06     125.338E+06     164.237E+06    -3.04985E+06
             196     163.461E-03     14.4076E-03     162.824E-03     487.453E-03    -223.410E-03    -264.044E-03    -262.375E-03     485.785E-03    -223.410E-03     70.7520E-03     508.443E-03     147.640E+06     160.481E+06     110.675E+06    -5.55599E+06    -5.33667E+06     110.456E+06     160.481E+06    -4.21784E+06
             197     165.082E-03     14.4078E-03     164.452E-03     488.639E-03    -223.374E-03    -265.265E-03    -263.620E-03     486.995E-03    -223.374E-03     70.3470E-03     509.040E-03     144.073E+06     161.685E+06     94.4190E+06    -2.96425E+06    -2.75449E+06     94.2092E+06     161.685E+06    -3.45381E+06
             198     166.703E-03     14.4092E-03     166.079E-03     488.061E-03    -223.360E-03    -264.701E-03    -263.084E-03     486.444E-03    -223.360E-03     69.7061E-03     507.837E-03     143.197E+06     159.273E+06     77.6518E+06    -6.06979E+06     -5.6255E+06     77.2075E+06     159.273E+06    -4.37948E+06
             199     168.323E-03     14.4094E-03     167.705E-03     483.893E-03    -223.419E-03    -260.474E-03    -258.959E-03     482.378E-03    -223.419E-03     67.0669E-03     502.957E-03     141.914E+06     160.973E+06     65.7711E+06    -900.773E+03    -313.102E+03     65.1834E+06     160.973E+06    -2.59323E+06
             200     169.928E-03     14.4118E-03     169.316E-03     472.710E-03    -223.614E-03    -249.095E-03    -247.833E-03     471.447E-03    -223.614E-03     60.2510E-03     490.316E-03     142.517E+06     156.906E+06     57.2138E+06    -5.58595E+06    -5.07989E+06     56.7078E+06     156.906E+06    -1.99206E+06
             201     171.506E-03     14.4123E-03     170.899E-03     450.678E-03    -217.845E-03    -232.832E-03    -225.653E-03     449.723E-03    -224.070E-03     50.7228E-03     466.918E-03     131.513E+06     148.699E+06     52.6299E+06     619.299E+03     1.30119E+06     51.9480E+06     148.699E+06    -1.86404E+06
             202     173.051E-03     14.4145E-03     172.449E-03     390.581E-03    -164.906E-03    -225.675E-03    -164.505E-03     390.180E-03    -225.675E-03     22.4402E-03     412.926E-03     110.692E+06     122.328E+06     48.6689E+06    -1.29091E+06     562.194E+03     46.8158E+06     122.328E+06    -5.54822E+06
             203     174.280E-03     13.4629E-03     173.759E-03     353.033E-03    -123.168E-03    -229.865E-03    -122.248E-03     352.114E-03    -229.865E-03    -30.3049E-03     381.141E-03     109.881E+06     82.4458E+06     15.4978E+06    -42.5883E+06    -21.3513E+06    -5.73916E+06     82.4458E+06    -10.2823E+06
             204     174.049E-03     12.5591E-03     173.596E-03     369.078E-03    -133.609E-03    -235.470E-03    -129.723E-03     365.192E-03    -235.470E-03    -84.9428E-03     393.899E-03     109.779E+06     91.4831E+06     4.73761E+06    -31.8884E+06    -12.0893E+06    -15.0615E+06     91.4831E+06    -1.54897E+06
             205     173.812E-03     11.6874E-03     173.418E-03     386.180E-03    -145.518E-03    -240.662E-03    -137.878E-03     378.540E-03    -240.662E-03    -125.931E-03     406.121E-03     112.035E+06     109.222E+06     14.5265E+06    -14.3201E+06    -11.3719E+06     11.5783E+06     109.222E+06    -3.94133E+06
             206     173.583E-03     10.8403E-03     173.244E-03     405.386E-03    -159.897E-03    -245.489E-03    -149.616E-03     395.105E-03    -245.489E-03    -151.005E-03     421.380E-03     117.436E+06     111.132E+06     7.90623E+06    -16.6346E+06    -7.23259E+06    -1.49577E+06     111.132E+06    -11.2903E+06
             207     173.370E-03     10.0112E-03     173.081E-03     425.924E-03    -176.011E-03    -249.913E-03    -164.398E-03     414.311E-03    -249.913E-03    -165.596E-03     438.587E-03     121.032E+06     116.167E+06     10.1514E+06    -15.6976E+06    -1.63793E+06    -3.90827E+06     116.167E+06    -12.8732E+06
             208     173.176E-03     9.19812E-03     172.931E-03     445.985E-03    -192.153E-03    -253.832E-03    -180.198E-03     434.030E-03    -253.832E-03    -173.016E-03     455.860E-03     122.940E+06     119.532E+06     13.9448E+06    -15.4155E+06     2.91860E+06    -4.38927E+06     119.532E+06    -14.0665E+06
             209     172.993E-03     8.39700E-03     172.789E-03     463.659E-03    -206.435E-03    -257.224E-03    -194.808E-03     452.032E-03    -257.224E-03    -174.949E-03     471.329E-03     121.341E+06     120.372E+06     19.2239E+06    -14.1407E+06     9.88849E+06    -4.80524E+06     120.372E+06    -14.9353E+06
             210     172.830E-03     7.60686E-03     172.662E-03     479.051E-03    -218.897E-03    -260.154E-03    -208.090E-03     468.244E-03    -260.154E-03    -172.242E-03     484.808E-03     118.954E+06     118.743E+06     23.9416E+06    -14.6761E+06     16.9355E+06    -7.67006E+06     118.743E+06    -14.5341E+06
             211     172.679E-03     6.82542E-03     172.544E-03     492.097E-03    -229.402E-03    -262.695E-03    -219.791E-03     482.486E-03    -262.695E-03    -165.289E-03     496.319E-03     112.337E+06     114.576E+06     28.3235E+06    -12.4496E+06     23.2329E+06    -7.35894E+06     114.576E+06    -13.4770E+06
             212     172.548E-03     6.05046E-03     172.441E-03     503.775E-03    -238.888E-03    -264.887E-03    -230.675E-03     495.562E-03    -264.887E-03    -155.108E-03     506.764E-03     103.165E+06     108.967E+06     34.6227E+06    -8.67552E+06     29.4617E+06    -3.51448E+06     108.967E+06    -14.0212E+06
             213     172.431E-03     5.28192E-03     172.350E-03     514.502E-03    -247.801E-03    -266.701E-03    -241.048E-03     507.749E-03    -266.701E-03    -142.602E-03     516.468E-03     98.2257E+06     103.748E+06     41.4747E+06    -9.35753E+06     36.5103E+06    -4.39316E+06     103.748E+06    -15.0437E+06
             214     172.331E-03     4.51959E-03     172.272E-03     522.851E-03    -254.708E-03    -268.143E-03    -249.369E-03     517.512E-03    -268.143E-03    -128.100E-03     524.066E-03     93.3302E+06     99.1478E+06     48.5579E+06    -8.43830E+06     43.8500E+06    -3.73046E+06     99.1478E+06    -15.6880E+06
             215     172.246E-03     3.75930E-03     172.205E-03     529.246E-03    -259.929E-03    -269.317E-03    -255.901E-03     525.218E-03    -269.317E-03    -112.122E-03     529.956E-03     92.6707E+06     94.3727E+06     55.2323E+06    -11.2448E+06     51.2888E+06    -7.30128E+06     94.3727E+06    -15.4757E+06
             216     172.178E-03     3.00248E-03     172.152E-03     534.507E-03    -264.273E-03    -270.234E-03    -261.424E-03     531.658E-03    -270.234E-03    -94.7232E-03     534.897E-03     87.4528E+06     88.4283E+06     61.4979E+06    -9.22205E+06     58.7189E+06    -6.44304E+06     88.4283E+06    -13.7295E+06
             217     172.122E-03     2.24862E-03     172.107E-03     538.178E-03    -267.227E-03    -270.952E-03    -265.417E-03     536.369E-03    -270.952E-03    -75.5964E-03     538.401E-03     82.7035E+06     81.0434E+06     66.4646E+06    -7.81431E+06     64.1681E+06    -5.51783E+06     81.0434E+06    -12.8168E+06
             218     172.082E-03     1.49502E-03     172.075E-03     540.721E-03    -268.983E-03    -271.739E-03    -268.017E-03     539.755E-03    -271.739E-03    -54.7720E-03     540.896E-03     84.9626E+06     75.9141E+06     70.1863E+06    -11.7163E+06     69.7289E+06    -10.1176E+06     74.7728E+06    -11.2025E+06
             219     172.053E-03     745.110E-06     172.052E-03     544.089E-03    -271.049E-03    -273.040E-03    -271.432E-03     543.726E-03    -272.294E-03    -32.4293E-03     544.263E-03     90.2954E+06     76.2162E+06     74.1393E+06    -15.0992E+06     74.5366E+06    -14.3552E+06     75.0749E+06    -7.92298E+06
             220     170.317E-03    -1.88993E-06     170.317E-03     513.242E-03    -255.939E-03    -257.303E-03    -256.609E-03     513.167E-03    -256.557E-03    -13.8762E-03     513.349E-03     62.1944E+06     25.6848E+06     22.4308E+06    -37.9853E+06     23.2723E+06    -36.5085E+06     23.3665E+06    -7.37542E+06
             221     168.700E-03     996.522E-09     168.700E-03     461.872E-03    -230.470E-03    -231.402E-03    -230.776E-03     461.864E-03    -231.088E-03    -3.63865E-03     461.910E-03     26.7713E+06    -67.2555E+06    -81.1838E+06    -95.9380E+06    -80.7000E+06    -82.4934E+06    -81.1838E+06    -8.38952E+06
             222     167.145E-03    -453.589E-09     167.145E-03     431.406E-03    -215.398E-03    -216.008E-03    -215.712E-03     431.406E-03    -215.694E-03    -615.445E-06     431.436E-03     50.7411E+06    -132.676E+06    -181.888E+06    -184.689E+06    -182.151E+06    -134.452E+06    -182.651E+06    -7.63178E+06
             223     165.623E-03    -16.5841E-09     165.623E-03     410.834E-03    -205.157E-03    -205.677E-03    -205.155E-03     410.832E-03    -205.677E-03     1.26037E-03     410.865E-03     84.4015E+06    -179.884E+06    -263.605E+06    -264.950E+06    -263.518E+06    -180.554E+06    -264.367E+06    -7.48169E+06
             224     164.125E-03    -346.043E-09     164.125E-03     396.493E-03    -198.113E-03    -198.379E-03    -198.109E-03     396.488E-03    -198.379E-03     3.31666E-03     396.524E-03     53.3601E+06    -201.860E+06    -250.127E+06    -256.329E+06    -248.387E+06    -209.802E+06    -250.127E+06    -2.89187E+06
             225     162.649E-03     253.259E-09     162.649E-03     386.331E-03    -192.950E-03    -193.381E-03    -193.331E-03     386.323E-03    -192.992E-03     4.18291E-03     386.358E-03     39.4650E+06    -173.009E+06    -177.634E+06    -214.462E+06    -175.670E+06    -214.277E+06    -175.157E+06     1.30829E+06
             226     161.185E-03     402.357E-09     161.185E-03     380.198E-03    -189.625E-03    -190.573E-03    -190.559E-03     380.184E-03    -189.625E-03     5.58055E-03     380.220E-03     77.6993E+06    -134.922E+06    -137.894E+06    -214.034E+06    -137.433E+06    -214.000E+06    -135.416E+06    -1.10930E+06
             227     159.725E-03     489.507E-09     159.725E-03     377.748E-03    -188.249E-03    -189.499E-03    -189.482E-03     377.731E-03    -188.249E-03     6.26484E-03     377.774E-03     90.2896E+06    -129.465E+06    -131.242E+06    -220.627E+06    -129.499E+06    -220.594E+06    -131.242E+06    -1.31026E+06
             228     158.269E-03     614.469E-09     158.269E-03     378.608E-03    -188.956E-03    -189.652E-03    -189.631E-03     378.587E-03    -188.956E-03     6.90232E-03     378.637E-03     95.8972E+06    -132.567E+06    -136.319E+06    -230.281E+06    -135.115E+06    -230.204E+06    -133.848E+06    -2.02712E+06
             229     156.809E-03    -616.083E-09     156.809E-03     382.822E-03    -191.301E-03    -191.521E-03    -191.502E-03     382.803E-03    -191.301E-03     6.52026E-03     382.846E-03     103.490E+06    -139.320E+06    -143.075E+06    -244.631E+06    -141.907E+06    -244.515E+06    -140.603E+06    -3.38424E+06
             230     155.340E-03     940.098E-09     155.340E-03     389.946E-03    -194.829E-03    -195.116E-03    -195.096E-03     389.926E-03    -194.829E-03     6.74381E-03     389.966E-03     107.865E+06    -149.621E+06    -152.097E+06    -258.703E+06    -150.877E+06    -258.640E+06    -150.904E+06    -2.59622E+06
             231     153.858E-03    -843.149E-09     153.858E-03     399.500E-03    -199.620E-03    -199.880E-03    -199.671E-03     399.480E-03    -199.810E-03     6.69513E-03     399.521E-03     115.870E+06    -157.856E+06    -159.925E+06    -274.746E+06    -159.147E+06    -274.649E+06    -158.732E+06    -3.27438E+06
             232     152.361E-03     508.599E-09     152.361E-03     409.527E-03    -204.629E-03    -204.898E-03    -204.696E-03     409.515E-03    -204.819E-03     5.35388E-03     409.552E-03     125.481E+06    -164.204E+06    -165.270E+06    -290.213E+06    -164.278E+06    -290.139E+06    -165.270E+06    -1.88366E+06
             233     150.850E-03    -393.658E-09     150.850E-03     419.045E-03    -209.472E-03    -209.573E-03    -209.543E-03     419.036E-03    -209.494E-03     4.59136E-03     419.077E-03     133.792E+06    -165.044E+06    -166.127E+06    -299.374E+06    -165.987E+06    -299.323E+06    -165.235E+06    -1.61284E+06
             234     149.323E-03     364.142E-09     149.323E-03     427.611E-03    -213.696E-03    -213.915E-03    -213.691E-03     427.606E-03    -213.915E-03     3.57727E-03     427.651E-03     138.609E+06    -166.565E+06    -171.099E+06    -307.366E+06    -167.508E+06    -307.315E+06    -170.207E+06    -1.57385E+06
             235     147.786E-03    -726.355E-09     147.786E-03     434.703E-03    -217.123E-03    -217.580E-03    -217.380E-03     434.700E-03    -217.321E-03     2.57430E-03     434.745E-03     140.655E+06    -165.717E+06    -173.661E+06    -310.175E+06    -170.020E+06    -310.174E+06    -169.359E+06     155.519E+03
             236     146.236E-03     1.19000E-06     146.236E-03     440.203E-03    -219.577E-03    -220.626E-03    -220.625E-03     440.201E-03    -219.577E-03     1.72317E-03     440.252E-03     144.596E+06    -164.549E+06    -173.725E+06    -313.515E+06    -168.862E+06    -313.504E+06    -169.423E+06    -1.01888E+06
             237     144.683E-03     22.7467E-09     144.683E-03     444.216E-03    -221.704E-03    -222.513E-03    -222.492E-03     444.216E-03    -221.723E-03     1.43743E-03     444.270E-03     149.683E+06    -162.423E+06    -171.592E+06    -316.479E+06    -166.747E+06    -316.449E+06    -167.297E+06     251.102E+03
             238     143.120E-03    -6.46371E-09     143.120E-03     447.387E-03    -223.450E-03    -223.937E-03    -223.450E-03     447.387E-03    -223.937E-03     1.00948E-03     447.438E-03     152.271E+06    -161.618E+06    -169.652E+06    -317.746E+06    -165.977E+06    -317.681E+06    -165.357E+06    -753.370E+03
             239     141.557E-03    -779.455E-09     141.557E-03     449.077E-03    -224.239E-03    -224.838E-03    -224.239E-03     449.077E-03    -224.838E-03    -214.594E-06     449.133E-03     156.131E+06    -160.416E+06    -168.456E+06    -320.411E+06    -164.797E+06    -320.331E+06    -164.155E+06    -315.460E+03
             240     139.990E-03     615.822E-09     139.990E-03     449.595E-03    -224.508E-03    -225.087E-03    -224.954E-03     449.595E-03    -224.640E-03    -270.231E-06     449.656E-03     160.042E+06    -158.049E+06    -167.024E+06    -322.390E+06    -162.418E+06    -322.322E+06    -162.723E+06    -95.1186E+03
             241     138.423E-03     48.0018E-09     138.423E-03     450.327E-03    -224.833E-03    -225.494E-03    -225.279E-03     450.327E-03    -225.048E-03     277.605E-06     450.385E-03     162.779E+06    -156.302E+06    -165.410E+06    -323.444E+06    -160.796E+06    -323.383E+06    -160.975E+06    -258.827E+03
             242     136.855E-03    -342.122E-09     136.855E-03     450.782E-03    -225.221E-03    -225.561E-03    -225.346E-03     450.781E-03    -225.436E-03    -294.541E-06     450.841E-03     164.924E+06    -156.028E+06    -163.698E+06    -324.651E+06    -160.517E+06    -324.596E+06    -159.264E+06    -115.308E+03
             243     135.286E-03     508.515E-09     135.286E-03     450.429E-03    -224.902E-03    -225.527E-03    -225.027E-03     450.429E-03    -225.402E-03    -173.924E-06     450.495E-03     165.473E+06    -155.434E+06    -159.879E+06    -323.075E+06    -156.736E+06    -322.982E+06    -158.670E+06     762.214E+03
             244     133.719E-03    -1.29288E-06     133.719E-03     449.665E-03    -224.323E-03    -225.341E-03    -224.323E-03     449.664E-03    -225.341E-03    -481.020E-06     449.725E-03     163.601E+06    -153.745E+06    -155.344E+06    -318.138E+06    -155.039E+06    -318.053E+06    -154.135E+06     1.01586E+06
             245     132.154E-03     461.276E-09     132.154E-03     448.834E-03    -223.734E-03    -225.101E-03    -224.582E-03     448.834E-03    -224.252E-03    -1.13227E-03     448.893E-03     162.769E+06    -152.886E+06    -153.378E+06    -315.900E+06    -152.921E+06    -315.866E+06    -153.378E+06    -229.634E+03
             246     130.589E-03     896.403E-09     130.589E-03     448.235E-03    -223.448E-03    -224.788E-03    -224.297E-03     448.235E-03    -223.938E-03    -138.092E-06     448.296E-03     163.139E+06    -150.163E+06    -150.571E+06    -313.505E+06    -150.181E+06    -313.487E+06    -150.571E+06     451.579E+03
             247     129.025E-03    -1.68389E-06     129.025E-03     447.965E-03    -223.707E-03    -224.258E-03    -223.766E-03     447.964E-03    -224.198E-03    -556.958E-06     448.026E-03     161.278E+06    -147.870E+06    -149.231E+06    -309.822E+06    -148.946E+06    -309.800E+06    -148.177E+06     563.741E+03
             248     127.461E-03     1.79154E-06     127.461E-03     447.484E-03    -223.408E-03    -224.075E-03    -224.075E-03     447.483E-03    -223.408E-03    -792.326E-06     447.545E-03     158.794E+06    -146.560E+06    -148.754E+06    -306.439E+06    -147.631E+06    -306.421E+06    -147.700E+06     943.726E+03
             249     125.898E-03    -832.447E-09     125.898E-03     447.334E-03    -223.288E-03    -224.046E-03    -223.895E-03     447.334E-03    -223.439E-03     27.9239E-06     447.394E-03     158.502E+06    -142.794E+06    -144.843E+06    -302.310E+06    -143.711E+06    -302.301E+06    -143.934E+06     562.967E+03
             250     124.335E-03     602.259E-09     124.335E-03     447.877E-03    -223.759E-03    -224.118E-03    -223.759E-03     447.877E-03    -224.118E-03    -199.087E-06     447.940E-03     159.613E+06    -140.445E+06    -142.195E+06    -300.926E+06    -141.373E+06    -300.907E+06    -141.286E+06    -109.424E+03
             251     122.770E-03    -943.730E-09     122.770E-03     448.028E-03    -223.851E-03    -224.177E-03    -223.968E-03     448.028E-03    -224.059E-03    -715.565E-06     448.087E-03     158.957E+06    -139.096E+06    -140.303E+06    -298.652E+06    -139.495E+06    -298.619E+06    -139.936E+06     436.740E+03
             252     121.208E-03     1.13636E-06     121.208E-03     448.230E-03    -223.906E-03    -224.324E-03    -224.324E-03     448.229E-03    -223.906E-03    -514.480E-06     448.286E-03     158.022E+06    -137.484E+06    -138.183E+06    -295.854E+06    -138.211E+06    -295.825E+06    -137.484E+06     675.598E+03
             253     119.642E-03    -650.460E-09     119.642E-03     448.661E-03    -224.082E-03    -224.579E-03    -224.579E-03     448.661E-03    -224.082E-03    -484.404E-06     448.720E-03     155.187E+06    -135.116E+06    -136.663E+06    -291.069E+06    -135.511E+06    -291.007E+06    -136.330E+06     1.41519E+06
             254     118.077E-03     950.921E-09     118.077E-03     449.022E-03    -224.308E-03    -224.714E-03    -224.713E-03     449.021E-03    -224.308E-03    -293.056E-06     449.080E-03     151.021E+06    -129.984E+06    -132.570E+06    -282.281E+06    -131.429E+06    -282.209E+06    -131.198E+06     983.792E+03
             255     116.510E-03    -598.868E-09     116.510E-03     450.059E-03    -224.776E-03    -225.284E-03    -224.986E-03     450.059E-03    -225.073E-03     145.929E-06     450.120E-03     148.201E+06    -131.487E+06    -132.955E+06    -280.413E+06    -132.878E+06    -280.394E+06    -131.583E+06    -646.347E+03
             256     114.942E-03     123.268E-09     114.942E-03     451.354E-03    -225.403E-03    -225.951E-03    -225.653E-03     451.354E-03    -225.701E-03    -458.891E-06     451.412E-03     146.815E+06    -129.561E+06    -131.020E+06    -277.096E+06    -129.591E+06    -277.065E+06    -131.020E+06     1.86969E+06
             257     113.371E-03     262.544E-09     113.371E-03     452.325E-03    -225.865E-03    -226.459E-03    -226.115E-03     452.325E-03    -226.209E-03     112.852E-06     452.384E-03     145.090E+06    -124.304E+06    -127.248E+06    -270.844E+06    -125.922E+06    -270.807E+06    -125.668E+06     577.566E+03
             258     111.800E-03    -793.676E-09     111.800E-03     453.128E-03    -226.338E-03    -226.789E-03    -226.338E-03     453.127E-03    -226.789E-03    -451.311E-06     453.190E-03     145.470E+06    -123.548E+06    -125.914E+06    -270.185E+06    -125.144E+06    -270.169E+06    -124.334E+06    -186.855E+03
             259     110.229E-03     614.944E-09     110.229E-03     453.637E-03    -226.643E-03    -226.994E-03    -226.642E-03     453.637E-03    -226.994E-03    -846.228E-06     453.697E-03     143.406E+06    -123.607E+06    -124.474E+06    -267.444E+06    -123.703E+06    -267.428E+06    -124.393E+06     1.47409E+06
             260     108.653E-03    -1.00373E-06     108.653E-03     453.955E-03    -226.553E-03    -227.402E-03    -227.156E-03     453.955E-03    -226.798E-03    -849.873E-06     454.012E-03     139.364E+06    -120.599E+06    -121.064E+06    -260.195E+06    -120.692E+06    -260.182E+06    -120.984E+06     1.26157E+06
             261     107.080E-03     1.96136E-06     107.080E-03     454.619E-03    -226.534E-03    -228.085E-03    -228.085E-03     454.618E-03    -226.534E-03    -320.492E-06     454.682E-03     137.049E+06    -119.272E+06    -119.956E+06    -256.662E+06    -119.279E+06    -256.655E+06    -119.956E+06    -89.5626E+03
             262     105.505E-03    -452.795E-09     105.505E-03     455.029E-03    -226.450E-03    -228.579E-03    -227.397E-03     455.029E-03    -227.631E-03    -57.1483E-06     455.095E-03     134.359E+06    -119.263E+06    -119.596E+06    -253.788E+06    -119.343E+06    -253.741E+06    -119.563E+06     1.14806E+06
             263     103.929E-03    -1.42855E-06     103.929E-03     455.042E-03    -226.671E-03    -228.372E-03    -226.670E-03     455.042E-03    -228.372E-03    -686.583E-06     455.105E-03     130.319E+06    -116.932E+06    -117.530E+06    -247.548E+06    -117.582E+06    -247.496E+06    -116.932E+06     872.692E+03
             264     102.354E-03     607.020E-09     102.354E-03     455.622E-03    -227.153E-03    -228.469E-03    -227.949E-03     455.622E-03    -227.673E-03    -525.744E-06     455.685E-03     127.464E+06    -117.100E+06    -118.432E+06    -245.224E+06    -117.683E+06    -245.205E+06    -117.867E+06    -53.1892E+03
             265     100.776E-03     654.478E-09     100.776E-03     455.795E-03    -227.210E-03    -228.585E-03    -228.585E-03     455.795E-03    -227.210E-03    -527.351E-06     455.856E-03     125.924E+06    -114.747E+06    -116.578E+06    -241.576E+06    -115.825E+06    -241.562E+06    -115.515E+06     1.33044E+06
             266     99.2006E-03     278.542E-09     99.2006E-03     455.416E-03    -227.249E-03    -228.167E-03    -228.167E-03     455.416E-03    -227.249E-03    -630.847E-06     455.479E-03     123.384E+06    -113.391E+06    -114.710E+06    -237.427E+06    -114.718E+06    -237.418E+06    -113.391E+06     166.150E+03
             267     97.6245E-03     267.120E-09     97.6245E-03     455.283E-03    -227.293E-03    -227.990E-03    -227.990E-03     455.283E-03    -227.293E-03    -722.142E-06     455.345E-03     122.290E+06    -112.728E+06    -115.156E+06    -236.203E+06    -112.989E+06    -236.197E+06    -114.900E+06     37.7801E+03
             268     96.0483E-03     279.334E-09     96.0483E-03     455.611E-03    -227.175E-03    -228.436E-03    -227.532E-03     455.611E-03    -228.079E-03     174.692E-06     455.672E-03     120.549E+06    -111.871E+06    -116.627E+06    -234.727E+06    -114.458E+06    -234.724E+06    -114.043E+06     312.942E+03
             269     94.4714E-03    -1.69035E-06     94.4714E-03     455.864E-03    -227.304E-03    -228.560E-03    -227.302E-03     455.862E-03    -228.560E-03    -920.425E-06     455.923E-03     117.853E+06    -109.792E+06    -114.850E+06    -230.092E+06    -112.398E+06    -230.070E+06    -112.266E+06     995.465E+03
             270     92.8958E-03     1.10084E-06     92.8958E-03     455.793E-03    -227.573E-03    -228.220E-03    -227.866E-03     455.791E-03    -227.925E-03    -1.15213E-03     455.851E-03     112.747E+06    -107.824E+06    -113.233E+06    -223.177E+06    -110.781E+06    -223.155E+06    -110.298E+06     944.306E+03
             271     91.3179E-03    -597.948E-09     91.3179E-03     456.492E-03    -228.089E-03    -228.403E-03    -228.384E-03     456.492E-03    -228.108E-03    -406.683E-06     456.551E-03     107.045E+06    -107.927E+06    -114.112E+06    -217.930E+06    -110.875E+06    -217.917E+06    -111.177E+06     610.355E+03
             272     89.7395E-03     534.009E-09     89.7395E-03     456.462E-03    -228.011E-03    -228.451E-03    -228.432E-03     456.461E-03    -228.030E-03    -1.53630E-03     456.524E-03     102.608E+06    -107.187E+06    -112.967E+06    -212.562E+06    -109.730E+06    -212.548E+06    -110.437E+06     1.09915E+06
             273     88.1627E-03     164.317E-09     88.1627E-03     455.730E-03    -227.403E-03    -228.328E-03    -227.823E-03     455.729E-03    -227.906E-03    -429.351E-06     455.792E-03     98.3039E+06    -108.031E+06    -111.533E+06    -208.030E+06    -110.563E+06    -208.029E+06    -109.003E+06     323.590E+03
             274     86.5790E-03     13.5465E-03     85.5126E-03     457.395E-03    -228.361E-03    -229.034E-03    -227.473E-03     455.842E-03    -228.370E-03     65.1042E-03     482.718E-03     118.858E+06     127.560E+06     76.9455E+06    -8.22452E+06    -8.20182E+06     76.9228E+06     127.560E+06     1.17753E+06
             275     86.3518E-03     12.7494E-03     85.4054E-03     457.233E-03    -228.256E-03    -228.977E-03    -227.650E-03     455.907E-03    -228.256E-03     59.5599E-03     482.733E-03     95.2928E+06     94.0006E+06     49.0437E+06    -15.3560E+06    -15.3067E+06     48.9944E+06     94.0006E+06     1.72294E+06
             276     86.1602E-03     11.9520E-03     85.3272E-03     456.405E-03    -228.125E-03    -228.280E-03    -227.399E-03     455.574E-03    -228.175E-03     47.5945E-03     476.774E-03     82.0198E+06     72.7824E+06     29.1945E+06    -21.8196E+06    -21.7323E+06     29.1071E+06     72.7824E+06     2.05924E+06
             277     85.9835E-03     11.1546E-03     85.2569E-03     455.996E-03    -227.865E-03    -228.132E-03    -227.243E-03     455.375E-03    -228.132E-03     41.0124E-03     474.253E-03     78.0136E+06     61.5396E+06     20.6515E+06    -28.3996E+06    -28.2323E+06     20.4842E+06     61.5396E+06     2.82294E+06
             278     85.8252E-03     10.3569E-03     85.1980E-03     455.752E-03    -227.650E-03    -228.102E-03    -227.229E-03     455.331E-03    -228.102E-03     33.7519E-03     471.511E-03     76.4279E+06     52.7762E+06     16.6283E+06    -34.9749E+06    -34.7557E+06     16.4092E+06     52.7762E+06     3.35330E+06
             279     85.6838E-03     9.55973E-03     85.1489E-03     455.670E-03    -227.601E-03    -228.069E-03    -227.316E-03     455.386E-03    -228.069E-03     27.7317E-03     469.388E-03     75.1342E+06     43.3618E+06     14.2717E+06    -41.8741E+06    -41.5561E+06     13.9536E+06     43.3618E+06     4.15872E+06
             280     85.5580E-03     8.76323E-03     85.1080E-03     455.543E-03    -227.508E-03    -228.035E-03    -227.322E-03     455.357E-03    -228.035E-03     22.3802E-03     467.373E-03     73.8064E+06     32.8356E+06     11.9451E+06    -49.0758E+06    -48.5852E+06     11.4545E+06     32.8356E+06     5.41889E+06
             281     85.4478E-03     7.96630E-03     85.0756E-03     455.353E-03    -227.345E-03    -228.008E-03    -227.233E-03     455.240E-03    -228.008E-03     17.3473E-03     465.445E-03     71.7978E+06     21.0460E+06     7.35998E+06    -56.5511E+06    -55.8808E+06     6.68966E+06     21.0460E+06     6.48658E+06
             282     85.3515E-03     7.16935E-03     85.0498E-03     455.266E-03    -227.280E-03    -227.986E-03    -227.219E-03     455.205E-03    -227.986E-03     12.7382E-03     463.752E-03     68.0806E+06     7.20874E+06    -603.493E+03    -64.4014E+06    -63.5343E+06    -1.47057E+06     7.20874E+06     7.36977E+06
             283     85.2698E-03     6.37257E-03     85.0313E-03     455.317E-03    -227.335E-03    -227.982E-03    -227.306E-03     455.288E-03    -227.982E-03     8.71721E-03     462.294E-03     58.3592E+06    -9.08441E+06    -25.7921E+06    -72.5844E+06    -71.1697E+06    -27.2068E+06    -9.08441E+06     7.50781E+06
             284     85.2009E-03     5.57562E-03     85.0183E-03     455.450E-03    -227.463E-03    -227.987E-03    -227.452E-03     455.439E-03    -227.987E-03     5.27337E-03     461.017E-03     50.0038E+06    -26.6376E+06    -61.2512E+06    -83.2162E+06    -78.5775E+06    -65.8899E+06    -26.6376E+06     6.90573E+06
             285     85.1446E-03     4.77924E-03     85.0103E-03     455.648E-03    -227.682E-03    -227.966E-03    -227.679E-03     455.646E-03    -227.966E-03     2.41864E-03     459.908E-03     51.4434E+06    -43.9871E+06    -82.0965E+06    -102.142E+06    -85.6298E+06    -98.6085E+06    -43.9871E+06     5.99088E+06
             286     85.0991E-03     3.98293E-03     85.0058E-03     455.677E-03    -227.754E-03    -227.923E-03    -227.754E-03     455.677E-03    -227.923E-03     401.261E-06     458.753E-03     58.1357E+06    -60.6796E+06    -91.1880E+06    -127.258E+06    -92.0111E+06    -126.435E+06    -60.6796E+06     5.02526E+06
             287     85.0647E-03     3.18600E-03     85.0051E-03     455.553E-03    -227.667E-03    -227.886E-03    -227.667E-03     455.553E-03    -227.886E-03    -685.933E-06     457.601E-03     66.4288E+06    -76.2510E+06    -97.2188E+06    -150.395E+06    -97.5594E+06    -150.054E+06    -76.2510E+06     4.07732E+06
             288     85.0390E-03     2.38939E-03     85.0054E-03     455.602E-03    -227.724E-03    -227.877E-03    -227.738E-03     455.601E-03    -227.863E-03    -1.26036E-03     456.804E-03     74.4255E+06    -89.8828E+06    -102.177E+06    -169.580E+06    -102.322E+06    -169.435E+06    -89.8828E+06     2.97382E+06
             289     85.0223E-03     1.59331E-03     85.0074E-03     455.695E-03    -227.794E-03    -227.901E-03    -227.881E-03     455.694E-03    -227.813E-03    -1.39751E-03     456.266E-03     80.8217E+06    -100.290E+06    -105.863E+06    -183.712E+06    -105.913E+06    -183.662E+06    -100.290E+06     1.85592E+06
             290     85.0120E-03     797.424E-06     85.0082E-03     455.531E-03    -227.487E-03    -228.044E-03    -227.836E-03     455.530E-03    -227.694E-03    -1.02088E-03     455.719E-03     87.0246E+06    -106.321E+06    -107.981E+06    -194.157E+06    -107.998E+06    -194.139E+06    -106.321E+06     1.15902E+06
             291     85.0211E-03     13.5465E-03     83.9349E-03     457.285E-03    -228.374E-03    -228.911E-03    -227.357E-03     455.740E-03    -228.383E-03     64.9322E-03     482.595E-03     117.586E+06     126.567E+06     75.2744E+06    -7.94767E+06    -7.93976E+06     75.2665E+06     126.567E+06     710.720E+03
             292     84.7916E-03     12.7487E-03     83.8278E-03     457.132E-03    -228.277E-03    -228.855E-03    -227.524E-03     455.801E-03    -228.277E-03     59.6694E-03     482.654E-03     94.1795E+06     92.9494E+06     48.5357E+06    -15.1663E+06    -15.1337E+06     48.5031E+06     92.9494E+06     1.31376E+06
             293     84.5984E-03     11.9514E-03     83.7499E-03     456.544E-03    -228.196E-03    -228.347E-03    -227.508E-03     455.707E-03    -228.199E-03     47.7732E-03     476.920E-03     80.8303E+06     71.4767E+06     28.2231E+06    -21.7466E+06    -21.6684E+06     28.1448E+06     71.4767E+06     1.91933E+06
             294     84.4198E-03     11.1542E-03     83.6797E-03     456.281E-03    -228.062E-03    -228.219E-03    -227.510E-03     455.657E-03    -228.147E-03     41.1460E-03     474.548E-03     76.7669E+06     60.6162E+06     19.4893E+06    -27.9186E+06    -27.7663E+06     19.3371E+06     60.6162E+06     2.64160E+06
             295     84.2598E-03     10.3574E-03     83.6208E-03     455.908E-03    -227.805E-03    -228.103E-03    -227.381E-03     455.484E-03    -228.103E-03     33.8745E-03     471.652E-03     75.2772E+06     52.1840E+06     16.0807E+06    -34.3070E+06    -34.0811E+06     15.8548E+06     52.1840E+06     3.34958E+06
             296     84.1167E-03     9.56043E-03     83.5717E-03     455.638E-03    -227.569E-03    -228.069E-03    -227.283E-03     455.352E-03    -228.069E-03     27.7885E-03     469.353E-03     73.8808E+06     42.8739E+06     13.1526E+06    -41.1594E+06    -40.8776E+06     12.8708E+06     42.8739E+06     3.88765E+06
             297     83.9892E-03     8.76291E-03     83.5309E-03     455.477E-03    -227.434E-03    -228.043E-03    -227.249E-03     455.292E-03    -228.043E-03     22.2840E-03     467.324E-03     72.5763E+06     32.7389E+06     10.2989E+06    -48.3388E+06    -47.9399E+06     9.90008E+06     32.7389E+06     4.77829E+06
             298     83.8772E-03     7.96608E-03     83.4980E-03     455.353E-03    -227.330E-03    -228.023E-03    -227.219E-03     455.242E-03    -228.023E-03     17.2526E-03     465.456E-03     70.7897E+06     21.5626E+06     6.21154E+06    -55.5791E+06    -54.9974E+06     5.62982E+06     21.5626E+06     5.93089E+06
             299     83.7802E-03     7.16927E-03     83.4729E-03     455.273E-03    -227.269E-03    -228.003E-03    -227.207E-03     455.211E-03    -228.003E-03     12.8135E-03     463.762E-03     67.4350E+06     7.94066E+06    -556.888E+03    -63.2875E+06    -62.4923E+06    -1.35203E+06     7.94066E+06     6.99622E+06
             300     83.6966E-03     6.37236E-03     83.4537E-03     455.381E-03    -227.386E-03    -227.995E-03    -227.357E-03     455.351E-03    -227.995E-03     8.75032E-03     462.362E-03     57.9379E+06    -8.50340E+06    -23.6193E+06    -71.4624E+06     -70.235E+06    -24.8467E+06    -8.50340E+06     7.23859E+06
             301     83.6274E-03     5.57587E-03     83.4413E-03     455.554E-03    -227.565E-03    -227.988E-03    -227.554E-03     455.543E-03    -227.988E-03     5.27329E-03     461.119E-03     49.0611E+06    -25.9826E+06    -58.4787E+06    -81.3337E+06    -77.8296E+06    -61.9828E+06    -25.9826E+06     6.57685E+06
             302     83.5691E-03     4.77919E-03     83.4323E-03     455.552E-03    -227.582E-03    -227.970E-03    -227.579E-03     455.549E-03    -227.970E-03     2.54676E-03     459.811E-03     49.4701E+06    -43.2919E+06    -80.7980E+06    -99.0626E+06    -84.8802E+06    -94.9804E+06    -43.2919E+06     5.67158E+06
             303     83.5241E-03     3.98255E-03     83.4291E-03     455.557E-03    -227.605E-03    -227.952E-03    -227.604E-03     455.556E-03    -227.952E-03     569.569E-06     458.636E-03     55.2883E+06    -60.1197E+06    -90.4454E+06    -123.458E+06    -91.2396E+06    -122.664E+06    -60.1197E+06     4.66986E+06
             304     83.4889E-03     3.18614E-03     83.4281E-03     455.640E-03    -227.704E-03    -227.936E-03    -227.703E-03     455.640E-03    -227.936E-03    -730.082E-06     457.685E-03     63.5189E+06    -75.4676E+06    -96.5850E+06    -146.611E+06    -96.8981E+06    -146.298E+06    -75.4676E+06     3.80491E+06
             305     83.4630E-03     2.38946E-03     83.4288E-03     455.671E-03    -227.733E-03    -227.939E-03    -227.746E-03     455.671E-03    -227.924E-03    -1.35013E-03     456.873E-03      71.493E+06    -88.8855E+06    -101.310E+06    -165.648E+06    -101.462E+06    -165.495E+06    -88.8855E+06     2.99599E+06
             306     83.4447E-03     1.59275E-03     83.4295E-03     455.724E-03    -227.748E-03    -227.976E-03    -227.789E-03     455.723E-03    -227.934E-03    -1.29338E-03     456.301E-03     77.8097E+06    -99.8344E+06    -105.040E+06    -180.064E+06    -105.098E+06    -180.006E+06    -99.8344E+06     1.89361E+06
             307     83.4363E-03     795.762E-06     83.4325E-03     455.887E-03    -227.742E-03    -228.145E-03    -228.058E-03     455.887E-03    -227.828E-03    -571.214E-06     456.077E-03     84.1910E+06    -105.166E+06    -107.272E+06    -190.387E+06    -106.534E+06    -190.376E+06    -105.914E+06     827.966E+03
             308     83.4654E-03     13.5467E-03     82.3587E-03     457.086E-03    -228.328E-03    -228.758E-03    -227.127E-03     455.522E-03    -228.395E-03     65.2567E-03     482.918E-03     116.482E+06     125.163E+06     73.8163E+06    -8.17014E+06    -8.16545E+06     73.8116E+06     125.163E+06     548.715E+03
             309     83.2329E-03     12.7485E-03     82.2508E-03     457.034E-03    -228.302E-03    -228.732E-03    -227.372E-03     455.673E-03    -228.302E-03     60.2415E-03     483.187E-03     93.0367E+06     91.3275E+06     47.4857E+06    -15.4813E+06    -15.4537E+06     47.4581E+06     91.3275E+06     1.17550E+06
             310     83.0367E-03     11.9509E-03     82.1722E-03     456.662E-03    -228.229E-03    -228.433E-03    -227.594E-03     455.823E-03    -228.229E-03     47.8318E-03     477.195E-03     79.8333E+06     70.1319E+06     27.8598E+06    -21.9216E+06    -21.8700E+06     27.8082E+06     70.1319E+06     1.58488E+06
             311     82.8560E-03     11.1540E-03     82.1018E-03     456.392E-03    -228.107E-03    -228.286E-03    -227.589E-03     455.764E-03    -228.175E-03     41.2798E-03     474.795E-03     75.7240E+06     59.3449E+06     18.2867E+06    -28.0297E+06    -27.9414E+06     18.1984E+06     59.3449E+06     1.93974E+06
             312     82.6945E-03     10.3568E-03     82.0434E-03     456.037E-03    -227.908E-03    -228.130E-03    -227.474E-03     455.603E-03    -228.130E-03     34.3096E-03     471.844E-03     74.1964E+06     50.9560E+06     14.5802E+06    -34.3445E+06    -34.1630E+06     14.3986E+06     50.9560E+06     2.89009E+06
             313     82.5499E-03     9.55971E-03     81.9945E-03     455.838E-03    -227.749E-03    -228.088E-03    -227.454E-03     455.542E-03    -228.088E-03     28.2749E-03     469.572E-03     72.7903E+06     42.0888E+06     12.3808E+06    -40.7995E+06    -40.5372E+06     12.1185E+06     42.0888E+06     3.70720E+06
             314     82.4207E-03     8.76327E-03     81.9535E-03     455.587E-03    -227.531E-03    -228.056E-03    -227.343E-03     455.399E-03    -228.056E-03     22.4710E-03     467.447E-03     71.4093E+06     32.4998E+06     9.23683E+06    -47.5879E+06    -47.2716E+06     8.92049E+06     32.4998E+06     4.22277E+06
             315     82.3075E-03     7.96614E-03     81.9211E-03     455.355E-03    -227.320E-03    -228.036E-03    -227.208E-03     455.244E-03    -228.036E-03     17.3166E-03     465.472E-03     69.8525E+06     21.5527E+06     4.87880E+06    -55.0587E+06    -54.6010E+06     4.42117E+06     21.5527E+06     5.17983E+06
             316     82.2086E-03     7.16910E-03     81.8954E-03     455.320E-03    -227.301E-03    -228.019E-03    -227.239E-03     455.258E-03    -228.019E-03     12.8053E-03     463.815E-03     66.7504E+06     8.47170E+06    -1.49395E+06    -62.6433E+06    -61.9407E+06    -2.19661E+06     8.47170E+06     6.47426E+06
             317     82.1243E-03     6.37230E-03     81.8767E-03     455.393E-03    -227.385E-03    -228.007E-03    -227.356E-03     455.363E-03    -228.007E-03     8.78318E-03     462.379E-03     57.9206E+06    -7.42836E+06    -21.4687E+06    -70.4963E+06    -69.3555E+06    -22.6096E+06    -7.42836E+06     7.13349E+06
             318     82.0526E-03     5.57568E-03     81.8629E-03     455.467E-03    -227.461E-03    -228.006E-03    -227.450E-03     455.455E-03    -228.006E-03     5.40578E-03     461.039E-03     48.4298E+06    -25.2495E+06    -55.0896E+06    -79.6945E+06    -76.8882E+06    -57.8959E+06    -25.2495E+06     6.43318E+06
             319     81.9954E-03     4.77916E-03     81.8560E-03     455.512E-03    -227.505E-03    -228.006E-03    -227.502E-03     455.508E-03    -228.006E-03     2.65168E-03     459.777E-03     47.3729E+06    -42.7401E+06    -79.3614E+06    -96.0535E+06    -83.9167E+06    -91.4982E+06    -42.7401E+06     5.26220E+06
             320     81.9485E-03     3.98218E-03     81.8517E-03     455.655E-03    -227.657E-03    -227.998E-03    -227.656E-03     455.654E-03    -227.998E-03     527.947E-06     458.734E-03     52.7300E+06    -59.4882E+06    -89.6427E+06    -119.852E+06    -90.4438E+06    -119.051E+06    -59.4882E+06     4.46697E+06
             321     81.9127E-03     3.18563E-03     81.8508E-03     455.757E-03    -227.780E-03    -227.978E-03    -227.779E-03     455.757E-03    -227.978E-03    -885.523E-06     457.806E-03     60.8313E+06    -74.8963E+06    -95.8352E+06    -143.169E+06    -96.1382E+06    -142.866E+06    -74.8963E+06     3.58247E+06
             322     81.8864E-03     2.38945E-03     81.8515E-03     455.688E-03    -227.710E-03    -227.979E-03    -227.709E-03     455.688E-03    -227.979E-03    -1.38953E-03     456.894E-03     68.8290E+06    -87.9166E+06    -100.623E+06    -162.102E+06    -100.753E+06    -161.971E+06    -87.9166E+06     2.73538E+06
             323     81.8690E-03     1.59275E-03     81.8535E-03     455.791E-03    -227.752E-03    -228.039E-03    -227.751E-03     455.791E-03    -228.039E-03    -1.30776E-03     456.367E-03     74.9262E+06    -98.4453E+06    -104.246E+06    -176.044E+06    -104.313E+06    -175.977E+06    -98.4453E+06     2.07995E+06
             324     81.8578E-03     796.591E-06     81.8539E-03     456.160E-03    -227.867E-03    -228.293E-03    -227.879E-03     456.160E-03    -228.280E-03    -720.629E-06     456.349E-03     81.5574E+06    -104.426E+06    -107.205E+06    -187.335E+06    -106.481E+06    -187.310E+06    -105.175E+06     1.22156E+06
             325     81.9112E-03     13.5457E-03     80.7834E-03     457.203E-03    -228.293E-03    -228.910E-03    -227.258E-03     455.663E-03    -228.405E-03     64.7312E-03     482.685E-03     115.832E+06     124.373E+06     72.7680E+06    -8.28958E+06    -8.28164E+06     72.7601E+06     124.373E+06     727.680E+03
             326     81.6739E-03     12.7477E-03     80.6729E-03     457.076E-03    -228.189E-03    -228.886E-03    -227.429E-03     455.737E-03    -228.308E-03     59.6953E-03     482.939E-03     92.4779E+06     90.7718E+06     46.6787E+06    -15.4383E+06    -15.4183E+06     46.6587E+06     90.7718E+06     1.05412E+06
             327     81.4757E-03     11.9507E-03     80.5945E-03     456.386E-03    -228.033E-03    -228.353E-03    -227.323E-03     455.564E-03    -228.241E-03     47.3632E-03     476.695E-03     78.8536E+06     69.4007E+06     27.4482E+06    -21.5480E+06    -21.5044E+06     27.4046E+06     69.4007E+06     1.39269E+06
             328     81.2929E-03     11.1533E-03     80.5241E-03     456.281E-03    -228.042E-03    -228.239E-03    -227.457E-03     455.658E-03    -228.201E-03     41.0702E-03     474.647E-03     74.4287E+06     58.0542E+06     17.3297E+06    -27.8472E+06    -27.7826E+06     17.2651E+06     58.0542E+06     1.68993E+06
             329     81.1299E-03     10.3562E-03     80.4662E-03     456.124E-03    -227.963E-03    -228.162E-03    -227.538E-03     455.699E-03    -228.162E-03     33.9558E-03     471.973E-03     73.0891E+06     49.9063E+06     13.0950E+06    -34.1941E+06    -34.0869E+06     12.9878E+06     49.9063E+06     2.21359E+06
             330     80.9825E-03     9.55954E-03     80.4163E-03     455.877E-03    -227.756E-03    -228.121E-03    -227.465E-03     455.586E-03    -228.121E-03     28.0630E-03     469.646E-03     71.8750E+06     41.3130E+06     11.2271E+06    -40.6498E+06    -40.4698E+06     11.0470E+06     41.3130E+06     3.02733E+06
             331     80.8522E-03     8.76256E-03     80.3760E-03     455.662E-03    -227.573E-03    -228.089E-03    -227.384E-03     455.472E-03    -228.089E-03     22.5944E-03     467.547E-03     70.3813E+06     31.7002E+06     8.33687E+06    -47.3300E+06    -47.0770E+06     8.08388E+06     31.7002E+06     3.72431E+06
             332     80.7379E-03     7.96588E-03     80.3439E-03     455.560E-03    -227.496E-03    -228.064E-03    -227.381E-03     455.445E-03    -228.064E-03     17.6132E-03     465.694E-03     68.7705E+06     21.1458E+06     3.63198E+06    -54.6562E+06    -54.2823E+06     3.25807E+06     21.1458E+06     4.62020E+06
             333     80.6374E-03     7.16911E-03     80.3181E-03     455.456E-03    -227.418E-03    -228.038E-03    -227.355E-03     455.393E-03    -228.038E-03     12.9709E-03     463.965E-03     65.9523E+06     8.56785E+06    -2.83226E+06    -62.2777E+06    -61.7103E+06    -3.39968E+06     8.56785E+06     5.74533E+06
             334     80.5515E-03     6.37243E-03     80.2990E-03     455.333E-03    -227.309E-03    -228.024E-03    -227.279E-03     455.303E-03    -228.024E-03     8.83895E-03     462.328E-03     57.7947E+06    -7.03521E+06    -20.2688E+06    -69.9626E+06    -69.0456E+06    -21.1858E+06    -7.03521E+06     6.46778E+06
             335     80.4796E-03     5.57540E-03     80.2862E-03     455.380E-03    -227.344E-03    -228.036E-03    -227.332E-03     455.369E-03    -228.036E-03     5.33965E-03     460.966E-03     48.0077E+06    -24.6048E+06    -51.9309E+06    -78.5891E+06    -76.4210E+06    -54.0990E+06    -24.6048E+06     6.18595E+06
             336     80.4204E-03     4.77841E-03     80.2783E-03     455.632E-03    -227.590E-03    -228.042E-03    -227.588E-03     455.630E-03    -228.042E-03     2.52312E-03     459.905E-03     45.6386E+06    -42.3068E+06    -77.6394E+06    -93.7638E+06    -83.5970E+06    -87.8062E+06    -42.3068E+06     5.24540E+06
             337     80.3731E-03     3.98241E-03     80.2744E-03     455.756E-03    -227.731E-03    -228.024E-03    -227.731E-03     455.755E-03    -228.024E-03     452.387E-06     458.834E-03     50.1842E+06    -59.2195E+06    -89.1993E+06    -116.588E+06    -90.0618E+06    -115.725E+06    -59.2195E+06     4.29395E+06
             338     80.3365E-03     3.18601E-03     80.2733E-03     455.738E-03    -227.728E-03    -228.010E-03    -227.727E-03     455.738E-03    -228.010E-03    -946.646E-06     457.789E-03     57.9392E+06    -74.6252E+06    -95.5243E+06    -139.840E+06    -95.8147E+06    -139.549E+06    -74.6252E+06     3.40441E+06
             339     80.3104E-03     2.38901E-03     80.2749E-03     455.828E-03    -227.803E-03    -228.025E-03    -227.818E-03     455.827E-03    -228.009E-03    -1.56502E-03     457.036E-03     65.9478E+06    -87.6335E+06    -100.328E+06    -158.881E+06    -100.452E+06    -158.757E+06    -87.6335E+06     2.58697E+06
             340     80.2916E-03     1.59258E-03     80.2758E-03     455.929E-03    -227.905E-03    -228.024E-03    -227.922E-03     455.928E-03    -228.006E-03    -1.40301E-03     456.507E-03     71.8907E+06    -97.9792E+06    -103.957E+06    -172.621E+06    -104.017E+06    -172.561E+06    -97.9792E+06     1.93122E+06
             341     80.2805E-03     795.987E-06     80.2766E-03     455.988E-03    -227.621E-03    -228.368E-03    -228.040E-03     455.988E-03    -227.948E-03    -1.00924E-03     456.178E-03     78.2290E+06    -103.987E+06    -106.866E+06    -183.615E+06    -106.237E+06    -183.591E+06    -104.640E+06     1.15443E+06
             342     80.3554E-03     13.5464E-03     79.2053E-03     457.540E-03    -228.351E-03    -229.189E-03    -227.613E-03     456.009E-03    -228.396E-03     64.5884E-03     482.603E-03     114.919E+06     124.172E+06     72.0320E+06    -7.57319E+06    -7.56487E+06     72.0236E+06     124.172E+06     644.914E+03
             343     80.1169E-03     12.7496E-03     79.0959E-03     457.123E-03    -228.165E-03    -228.959E-03    -227.513E-03     455.798E-03    -228.285E-03     59.4142E-03     482.455E-03     91.7432E+06     90.6217E+06     46.4073E+06    -14.7918E+06    -14.7747E+06     46.3903E+06     90.6217E+06     999.408E+03
             344     79.9170E-03     11.9509E-03     79.0184E-03     456.202E-03    -227.983E-03    -228.219E-03    -227.173E-03     455.392E-03    -228.219E-03     46.9807E-03     476.292E-03     78.0706E+06     68.8173E+06     26.3475E+06    -21.2605E+06    -21.2206E+06     26.3076E+06     68.8173E+06     1.29916E+06
             345     79.7304E-03     11.1532E-03     78.9464E-03     456.156E-03    -227.970E-03    -228.186E-03    -227.366E-03     455.552E-03    -228.186E-03     40.4183E-03     474.249E-03     73.6236E+06     57.7612E+06     16.8675E+06    -27.2232E+06    -27.1475E+06     16.7918E+06     57.7612E+06     1.80172E+06
             346     79.5650E-03     10.3565E-03     78.8881E-03     455.980E-03    -227.826E-03    -228.153E-03    -227.419E-03     455.572E-03    -228.153E-03     33.2345E-03     471.691E-03     71.9799E+06     49.4322E+06     12.5080E+06    -33.4768E+06    -33.3729E+06     12.4041E+06     49.4322E+06     2.17913E+06
             347     79.4165E-03     9.55941E-03     78.8391E-03     455.630E-03    -227.504E-03    -228.126E-03    -227.224E-03     455.350E-03    -228.126E-03     27.5160E-03     469.355E-03     70.7665E+06     40.5415E+06     10.0319E+06    -40.2764E+06    -40.1350E+06     9.89053E+06     40.5415E+06     2.65722E+06
             348     79.2845E-03     8.76222E-03     78.7988E-03     455.534E-03    -227.422E-03    -228.112E-03    -227.238E-03     455.350E-03    -228.112E-03     22.3160E-03     467.408E-03     69.5853E+06     30.8428E+06     7.02787E+06    -47.4699E+06    -47.2520E+06     6.81003E+06     30.8428E+06     3.41581E+06
             349     79.1674E-03     7.96537E-03     78.7657E-03     455.625E-03    -227.529E-03    -228.095E-03    -227.416E-03     455.511E-03    -228.095E-03     17.4678E-03     465.761E-03     68.0282E+06     20.4701E+06     2.58331E+06    -54.6592E+06    -54.3469E+06     2.27096E+06     20.4701E+06     4.18699E+06
             350     79.0662E-03     7.16891E-03     78.7406E-03     455.532E-03    -227.463E-03    -228.069E-03    -227.400E-03     455.469E-03    -228.069E-03     13.0114E-03     464.056E-03     65.0531E+06     8.07129E+06    -3.97237E+06    -62.1225E+06    -61.6773E+06    -4.41759E+06     8.07129E+06     5.02143E+06
             351     78.9792E-03     6.37197E-03     78.7217E-03     455.480E-03    -227.433E-03    -228.048E-03    -227.402E-03     455.450E-03    -228.048E-03     8.82924E-03     462.485E-03     57.5602E+06    -7.32809E+06    -19.9924E+06    -70.0013E+06    -69.2946E+06    -20.6992E+06    -7.32809E+06     5.77466E+06
             352     78.9063E-03     5.57532E-03     78.7091E-03     455.552E-03    -227.513E-03    -228.040E-03    -227.502E-03     455.542E-03    -228.040E-03     5.07992E-03     461.142E-03     47.8367E+06    -24.5409E+06    -49.5172E+06    -78.2317E+06    -76.6222E+06    -51.1266E+06    -24.5409E+06     5.73513E+06
             353     78.8456E-03     4.77896E-03     78.7006E-03     455.559E-03    -227.520E-03    -228.039E-03    -227.518E-03     455.557E-03    -228.039E-03     2.26551E-03     459.833E-03     44.0385E+06    -41.9274E+06    -76.2216E+06    -91.5837E+06    -83.4181E+06    -84.3871E+06    -41.9274E+06     4.95635E+06
             354     78.7974E-03     3.98206E-03     78.6968E-03     455.596E-03    -227.549E-03    -228.047E-03    -227.549E-03     455.596E-03    -228.047E-03     385.338E-06     458.683E-03     47.7948E+06    -58.7894E+06    -88.8931E+06    -113.268E+06    -89.8249E+06    -112.336E+06    -58.7894E+06     4.11078E+06
             355     78.7608E-03     3.18528E-03     78.6964E-03     455.807E-03    -227.752E-03    -228.055E-03    -227.752E-03     455.807E-03    -228.055E-03    -792.769E-06     457.860E-03     55.1521E+06    -74.2856E+06    -95.1906E+06    -136.521E+06    -95.4972E+06    -136.214E+06    -74.2856E+06     3.36390E+06
             356     78.7331E-03     2.38934E-03     78.6968E-03     456.021E-03    -227.950E-03    -228.071E-03    -227.991E-03     456.021E-03    -228.030E-03    -1.39349E-03     457.225E-03     62.8441E+06    -87.7244E+06    -100.224E+06    -155.749E+06    -100.350E+06    -155.623E+06    -87.7244E+06     2.49857E+06
             357     78.7148E-03     1.59316E-03     78.6986E-03     456.006E-03    -227.959E-03    -228.047E-03    -228.046E-03     456.005E-03    -227.959E-03    -1.31181E-03     456.585E-03     68.8967E+06    -98.0720E+06    -103.682E+06    -169.543E+06    -103.728E+06    -169.497E+06    -98.0720E+06     1.61664E+06
             358     78.7033E-03     796.912E-06     78.6992E-03     455.815E-03    -227.504E-03    -228.312E-03    -228.311E-03     455.815E-03    -227.504E-03    -740.129E-06     456.009E-03     75.2478E+06    -103.870E+06    -106.080E+06    -180.196E+06    -105.438E+06    -180.185E+06    -104.522E+06     753.343E+03
             359     78.8000E-03     13.5463E-03     77.6270E-03     457.632E-03    -228.392E-03    -229.240E-03    -227.690E-03     456.082E-03    -228.392E-03     65.0330E-03     483.021E-03     114.255E+06     122.943E+06     70.9882E+06    -8.05655E+06    -8.05330E+06     70.9849E+06     122.943E+06     269.862E+03
             360     78.5604E-03     12.7480E-03     77.5192E-03     457.274E-03    -228.272E-03    -229.002E-03    -227.662E-03     455.937E-03    -228.275E-03     59.7676E-03     482.881E-03     91.1028E+06     89.4885E+06     45.6199E+06    -15.1927E+06    -15.1771E+06     45.6043E+06     89.4885E+06     808.218E+03
             361     78.3577E-03     11.9516E-03     77.4408E-03     456.528E-03    -228.166E-03    -228.362E-03    -227.508E-03     455.703E-03    -228.195E-03     47.4312E-03     476.884E-03     77.6065E+06     68.0412E+06     25.7281E+06    -21.4975E+06     -21.462E+06     25.6926E+06     68.0412E+06     1.26891E+06
             362     78.1697E-03     11.1546E-03     77.3697E-03     456.085E-03    -227.873E-03    -228.211E-03    -227.317E-03     455.469E-03    -228.152E-03     40.8257E-03     474.184E-03     73.1632E+06     57.0068E+06     16.0213E+06    -27.4525E+06    -27.3877E+06     15.9565E+06     57.0068E+06     1.65136E+06
             363     78.0011E-03     10.3569E-03     77.3105E-03     455.717E-03    -227.589E-03    -228.129E-03    -227.173E-03     455.302E-03    -228.129E-03     33.5225E-03     471.326E-03     71.2888E+06     48.5828E+06     11.5064E+06    -33.5691E+06    -33.4664E+06     11.4037E+06     48.5828E+06     2.13600E+06
             364     77.8517E-03     9.55967E-03     77.2625E-03     455.607E-03    -227.495E-03    -228.111E-03    -227.218E-03     455.329E-03    -228.111E-03     27.3939E-03     469.237E-03     69.9793E+06     40.0312E+06     9.23651E+06    -39.9713E+06    -39.8237E+06     9.08888E+06     40.0312E+06     2.68453E+06
             365     77.7170E-03     8.76250E-03     77.2214E-03     455.505E-03    -227.405E-03    -228.100E-03    -227.224E-03     455.323E-03    -228.100E-03     22.0997E-03     467.307E-03     68.7543E+06     30.9620E+06     6.34334E+06    -46.6813E+06    -46.4729E+06     6.13498E+06     30.9620E+06     3.29677E+06
             366     77.5981E-03     7.96555E-03     77.1882E-03     455.436E-03    -227.345E-03    -228.091E-03    -227.237E-03     455.328E-03    -228.091E-03     17.0389E-03     465.540E-03     67.0862E+06     20.4881E+06     1.76568E+06    -53.9016E+06    -53.6288E+06     1.49289E+06     20.4881E+06     3.86947E+06
             367     77.4952E-03     7.16840E-03     77.1629E-03     455.456E-03    -227.378E-03    -228.078E-03    -227.319E-03     455.397E-03    -228.078E-03     12.5257E-03     463.969E-03     64.0721E+06     7.83033E+06    -5.08896E+06    -61.6933E+06    -61.2969E+06    -5.48535E+06     7.83033E+06     4.67707E+06
             368     77.4067E-03     6.37194E-03     77.1440E-03     455.548E-03    -227.491E-03    -228.058E-03    -227.462E-03     455.519E-03    -228.058E-03     8.62831E-03     462.555E-03     57.1120E+06    -7.30024E+06    -19.5837E+06    -69.5031E+06    -68.9159E+06    -20.1708E+06    -7.30024E+06     5.30972E+06
             369     77.3322E-03     5.57567E-03     77.1309E-03     455.586E-03    -227.543E-03    -228.042E-03    -227.532E-03     455.575E-03    -228.042E-03     5.23644E-03     461.173E-03     47.4298E+06    -24.1990E+06    -47.2366E+06    -77.2522E+06    -76.0939E+06    -48.3949E+06    -24.1990E+06     5.12577E+06
             370     77.2716E-03     4.77892E-03     77.1237E-03     455.555E-03    -227.515E-03    -228.040E-03    -227.512E-03     455.552E-03    -228.040E-03     2.45549E-03     459.831E-03     42.6612E+06    -41.6350E+06    -75.0182E+06    -89.6589E+06    -83.0655E+06    -81.6115E+06    -41.6350E+06     4.55990E+06
             371     77.2228E-03     3.98203E-03     77.1201E-03     455.601E-03    -227.552E-03    -228.050E-03    -227.551E-03     455.601E-03    -228.050E-03     260.284E-06     458.692E-03     45.6947E+06    -58.4787E+06    -88.6659E+06    -110.417E+06    -89.6619E+06    -109.421E+06    -58.4787E+06     3.87929E+06
             372     77.1842E-03     3.18554E-03     77.1184E-03     455.752E-03    -227.685E-03    -228.067E-03    -227.685E-03     455.752E-03    -228.067E-03    -1.00788E-03     457.806E-03     52.7160E+06    -73.9254E+06    -95.0379E+06    -133.573E+06    -95.3354E+06    -133.275E+06    -73.9254E+06     3.21978E+06
             373     77.1563E-03     2.38880E-03     77.1193E-03     455.947E-03    -227.841E-03    -228.106E-03    -227.865E-03     455.946E-03    -228.081E-03    -1.32083E-03     457.155E-03     60.2150E+06    -87.2986E+06    -99.7061E+06    -152.597E+06    -99.8359E+06    -152.468E+06    -87.2986E+06     2.46124E+06
             374     77.1370E-03     1.59249E-03     77.1206E-03     456.107E-03    -227.967E-03    -228.139E-03    -228.037E-03     456.106E-03    -228.070E-03    -1.07105E-03     456.684E-03     66.1572E+06    -97.6609E+06    -103.159E+06    -166.341E+06    -103.202E+06    -166.298E+06    -97.6609E+06     1.45769E+06
             375     77.1266E-03     796.147E-06     77.1225E-03     456.097E-03    -227.767E-03    -228.330E-03    -228.154E-03     456.096E-03    -227.942E-03    -424.943E-06     456.288E-03     72.7845E+06    -103.977E+06    -105.605E+06    -177.555E+06    -105.614E+06    -177.546E+06    -103.977E+06     753.807E+03
             376     77.2464E-03     13.5460E-03     76.0494E-03     457.638E-03    -228.402E-03    -229.236E-03    -227.697E-03     456.098E-03    -228.402E-03     64.8446E-03     482.903E-03     113.639E+06     122.338E+06     70.0716E+06    -8.02613E+06    -8.02074E+06     70.0662E+06     122.338E+06     353.659E+03
             377     77.0048E-03     12.7491E-03     75.9420E-03     457.365E-03    -228.282E-03    -229.082E-03    -227.751E-03     456.034E-03    -228.282E-03     59.6974E-03     482.883E-03     90.5101E+06     88.6896E+06     44.4008E+06    -15.3851E+06    -15.3674E+06     44.3831E+06     88.6896E+06     866.329E+03
             378     76.7979E-03     11.9512E-03     75.8623E-03     456.583E-03    -228.190E-03    -228.392E-03    -227.549E-03     455.746E-03    -228.197E-03     47.7737E-03     477.035E-03     76.7771E+06     67.0324E+06     25.2404E+06    -21.5564E+06    -21.5255E+06     25.2096E+06     67.0324E+06     1.17410E+06
             379     76.6094E-03     11.1539E-03     75.7930E-03     456.170E-03    -227.959E-03    -228.211E-03    -227.392E-03     455.544E-03    -228.152E-03     41.1996E-03     474.445E-03     72.1984E+06     55.8743E+06     15.1589E+06    -27.4855E+06    -27.4380E+06     15.1114E+06     55.8743E+06     1.39739E+06
             380     76.4387E-03     10.3566E-03     75.7338E-03     455.802E-03    -227.675E-03    -228.127E-03    -227.249E-03     455.376E-03    -228.127E-03     33.9142E-03     471.496E-03     70.6961E+06     48.0117E+06     10.5525E+06    -33.4913E+06    -33.4191E+06     10.4802E+06     48.0117E+06     1.75436E+06
             381     76.2861E-03     9.55959E-03     75.6847E-03     455.735E-03    -227.632E-03    -228.104E-03    -227.348E-03     455.452E-03    -228.104E-03     27.6923E-03     469.365E-03     69.4515E+06     39.9513E+06     8.55064E+06    -39.5862E+06    -39.4715E+06     8.43595E+06     39.9513E+06     2.29723E+06
             382     76.1501E-03     8.76297E-03     75.6443E-03     455.603E-03    -227.524E-03    -228.079E-03    -227.340E-03     455.419E-03    -228.079E-03     22.2661E-03     467.371E-03     68.0135E+06     30.6458E+06     5.55256E+06    -46.3063E+06    -46.1301E+06     5.37636E+06     30.6458E+06     2.99117E+06
             383     76.0296E-03     7.96589E-03     75.6111E-03     455.404E-03    -227.338E-03    -228.066E-03    -227.228E-03     455.293E-03    -228.066E-03     17.1817E-03     465.463E-03     66.3263E+06     20.4840E+06     827.610E+03    -53.4105E+06    -53.1461E+06     563.262E+03     20.4840E+06     3.75745E+06
             384     75.9248E-03     7.16917E-03     75.5855E-03     455.381E-03    -227.326E-03    -228.056E-03    -227.266E-03     455.322E-03    -228.056E-03     12.5392E-03     463.855E-03     63.2590E+06     8.29433E+06    -5.95454E+06    -60.8349E+06    -60.4323E+06    -6.35713E+06     8.29433E+06     4.65572E+06
             385     75.8345E-03     6.37215E-03     75.5663E-03     455.306E-03    -227.258E-03    -228.048E-03    -227.230E-03     455.278E-03    -228.048E-03     8.51299E-03     462.290E-03     56.6970E+06    -6.93974E+06    -18.6791E+06    -68.5697E+06    -68.0526E+06    -19.1962E+06    -6.93974E+06     5.03744E+06
             386     75.7591E-03     5.57498E-03     75.5537E-03     455.357E-03    -227.293E-03    -228.064E-03    -227.282E-03     455.347E-03    -228.064E-03     5.22740E-03     460.938E-03     47.1688E+06    -23.8880E+06    -45.2381E+06    -76.4815E+06    -75.5698E+06    -46.1498E+06    -23.8880E+06     4.72706E+06
             387     75.6971E-03     4.77834E-03     75.5462E-03     455.673E-03    -227.595E-03    -228.079E-03    -227.592E-03     455.670E-03    -228.079E-03     2.57307E-03     459.951E-03     41.6093E+06    -41.2786E+06    -73.7778E+06    -88.0568E+06    -82.6786E+06    -79.1560E+06    -41.2786E+06     4.27507E+06
             388     75.6471E-03     3.98235E-03     75.5422E-03     455.841E-03    -227.780E-03    -228.061E-03    -227.779E-03     455.841E-03    -228.061E-03     481.402E-06     458.934E-03     43.7531E+06    -58.3338E+06    -88.2204E+06    -107.883E+06    -89.2860E+06    -106.818E+06    -58.3338E+06     3.66868E+06
             389     75.6089E-03     3.18568E-03     75.5417E-03     455.830E-03    -227.779E-03    -228.051E-03    -227.788E-03     455.830E-03    -228.042E-03    -914.431E-06     457.888E-03     50.4397E+06    -73.7479E+06    -94.7655E+06    -130.947E+06    -95.0414E+06    -130.671E+06    -73.7479E+06     2.96165E+06
             390     75.5796E-03     2.38906E-03     75.5418E-03     455.844E-03    -227.789E-03    -228.056E-03    -227.796E-03     455.843E-03    -228.047E-03    -1.69420E-03     457.053E-03     57.7685E+06    -86.6845E+06    -99.3696E+06    -149.591E+06    -99.4844E+06    -149.476E+06    -86.6845E+06     2.28922E+06
             391     75.5598E-03     1.59240E-03     75.5430E-03     455.967E-03    -227.885E-03    -228.081E-03    -227.884E-03     455.965E-03    -228.081E-03    -1.67771E-03     456.543E-03     63.5846E+06    -97.2501E+06    -102.857E+06    -163.381E+06    -102.909E+06    -163.329E+06    -97.2501E+06     1.61947E+06
             392     75.5481E-03     796.221E-06     75.5439E-03     456.201E-03    -227.958E-03    -228.243E-03    -227.957E-03     456.200E-03    -228.243E-03    -1.16673E-03     456.389E-03     70.3235E+06    -103.801E+06    -105.218E+06    -174.815E+06    -105.236E+06    -174.797E+06    -103.801E+06     713.113E+03
             393     75.6935E-03     13.5459E-03     74.4716E-03     457.581E-03    -228.408E-03    -229.173E-03    -227.631E-03     456.039E-03    -228.408E-03     64.8704E-03     482.843E-03     112.997E+06     121.665E+06     69.1595E+06    -8.03028E+06      -8.022E+06     69.1512E+06     121.665E+06     636.058E+03
             394     75.4487E-03     12.7481E-03     74.3639E-03     457.332E-03    -228.294E-03    -229.038E-03    -227.703E-03     455.997E-03    -228.294E-03     59.7807E-03     482.848E-03     89.9821E+06     88.3568E+06     43.9010E+06    -15.1553E+06    -15.1411E+06     43.8867E+06     88.3568E+06     855.288E+03
             395     75.2411E-03     11.9510E-03     74.2859E-03     456.567E-03    -228.206E-03    -228.361E-03    -227.521E-03     455.734E-03    -228.213E-03     47.6598E-03     476.990E-03     76.1638E+06     66.6372E+06     24.5932E+06    -21.2516E+06    -21.2333E+06     24.5750E+06     66.6372E+06     879.728E+03
             396     75.0482E-03     11.1537E-03     74.2148E-03     456.262E-03    -228.052E-03    -228.210E-03    -227.480E-03     455.647E-03    -228.167E-03     40.8124E-03     474.562E-03     71.3820E+06     55.4447E+06     14.5799E+06    -26.9729E+06    -26.9312E+06     14.5381E+06     55.4447E+06     1.26913E+06
             397     74.8767E-03     10.3569E-03     74.1570E-03     455.936E-03    -227.803E-03    -228.133E-03    -227.380E-03     455.513E-03    -228.133E-03     33.8711E-03     471.717E-03     69.7657E+06     47.4379E+06     10.3329E+06    -32.9913E+06    -32.9280E+06     10.2696E+06     47.4379E+06     1.64755E+06
             398     74.7213E-03     9.55966E-03     74.1073E-03     455.763E-03    -227.658E-03    -228.105E-03    -227.368E-03     455.473E-03    -228.105E-03     27.9974E-03     469.452E-03     68.5722E+06     39.1276E+06     7.54028E+06    -39.4991E+06    -39.4254E+06     7.46665E+06     39.1276E+06     1.84829E+06
             399     74.5830E-03     8.76262E-03     74.0665E-03     455.680E-03    -227.599E-03    -228.080E-03    -227.413E-03     455.493E-03    -228.080E-03     22.3871E-03     467.474E-03     67.2163E+06     30.3278E+06     4.16619E+06    -45.9880E+06    -45.8569E+06     4.03509E+06     30.3278E+06     2.50747E+06
             400     74.4615E-03     7.96590E-03     74.0341E-03     455.512E-03    -227.453E-03    -228.059E-03    -227.340E-03     455.399E-03    -228.059E-03     17.3748E-03     465.569E-03     65.5935E+06     20.3863E+06    -473.992E+03    -53.0603E+06    -52.8125E+06    -721.728E+03     20.3863E+06     3.55820E+06
             401     74.3542E-03     7.16892E-03     74.0077E-03     455.280E-03    -227.231E-03    -228.049E-03    -227.169E-03     455.218E-03    -228.049E-03     12.8431E-03     463.740E-03     62.7349E+06     8.30459E+06    -7.08875E+06    -60.6568E+06    -60.2718E+06     -7.4737E+06     8.30459E+06     4.50378E+06
             402     74.2633E-03     6.37225E-03     73.9894E-03     455.198E-03    -227.146E-03    -228.052E-03    -227.117E-03     455.168E-03    -228.052E-03     8.74241E-03     462.158E-03     56.9358E+06    -6.57367E+06    -17.6203E+06    -68.2112E+06    -67.7037E+06    -18.1278E+06    -6.57367E+06     5.02274E+06
             403     74.1867E-03     5.57528E-03     73.9769E-03     455.389E-03    -227.318E-03    -228.072E-03    -227.307E-03     455.378E-03    -228.072E-03     5.22187E-03     460.952E-03     47.2595E+06    -23.7462E+06    -42.9354E+06    -76.0776E+06    -75.2399E+06    -43.7730E+06    -23.7462E+06     4.78025E+06
             404     74.1223E-03     4.77845E-03     73.9681E-03     455.613E-03    -227.520E-03    -228.092E-03    -227.518E-03     455.610E-03    -228.092E-03     2.33358E-03     459.880E-03     40.5976E+06    -41.1615E+06    -72.6419E+06    -86.7191E+06    -82.3688E+06    -76.9922E+06    -41.1615E+06     4.10626E+06
             405     74.0717E-03     3.98153E-03     73.9646E-03     455.854E-03    -227.767E-03    -228.086E-03    -227.767E-03     455.853E-03    -228.086E-03     354.201E-06     458.944E-03     41.9846E+06    -57.9538E+06    -87.4955E+06    -105.300E+06    -88.6478E+06    -104.147E+06    -57.9538E+06     3.49761E+06
             406     74.0322E-03     3.18551E-03     73.9636E-03     456.060E-03    -227.979E-03    -228.081E-03    -228.018E-03     456.060E-03    -228.042E-03    -881.857E-06     458.121E-03     48.2350E+06    -73.3581E+06    -93.9741E+06    -128.109E+06    -94.2330E+06    -127.850E+06    -73.3581E+06     2.71221E+06
             407     74.0030E-03     2.38955E-03     73.9644E-03     455.967E-03    -227.929E-03    -228.038E-03    -227.993E-03     455.966E-03    -227.973E-03    -1.56253E-03     457.175E-03     55.3378E+06    -86.5928E+06    -99.3753E+06    -147.073E+06    -99.4613E+06    -146.988E+06    -86.5928E+06     1.93917E+06
             408     73.9832E-03     1.59320E-03     73.9660E-03     455.807E-03    -227.830E-03    -227.976E-03    -227.882E-03     455.806E-03    -227.924E-03    -1.47371E-03     456.385E-03     60.9511E+06    -97.0258E+06    -103.098E+06    -160.709E+06    -103.146E+06    -160.661E+06    -97.0258E+06     1.62823E+06
             409     73.9707E-03     796.364E-06     73.9664E-03     455.804E-03    -227.788E-03    -228.016E-03    -227.906E-03     455.804E-03    -227.898E-03    -1.19662E-03     455.996E-03     67.8744E+06    -103.430E+06    -105.525E+06    -172.321E+06    -105.056E+06    -172.292E+06    -103.928E+06     1.03517E+06
             410     74.1423E-03     13.5459E-03     72.8943E-03     457.519E-03    -228.409E-03    -229.109E-03    -227.576E-03     455.985E-03    -228.409E-03     64.7086E-03     482.758E-03     112.254E+06     121.125E+06     68.4974E+06    -7.76738E+06    -7.75880E+06     68.4888E+06     121.125E+06     762.026E+03
             411     73.8948E-03     12.7484E-03     72.7868E-03     457.241E-03    -228.300E-03    -228.941E-03    -227.616E-03     455.916E-03    -228.300E-03     59.5618E-03     482.767E-03     89.3361E+06     88.0076E+06      44.135E+06    -14.7278E+06    -14.7188E+06     44.1260E+06     88.0076E+06     704.715E+03
             412     73.6832E-03     11.9509E-03     72.7076E-03     456.607E-03    -228.223E-03    -228.383E-03    -227.553E-03     455.777E-03    -228.223E-03     47.5799E-03     477.040E-03     75.5386E+06     66.3869E+06     24.0304E+06    -20.7807E+06    -20.7677E+06     24.0174E+06     66.3869E+06     723.293E+03
             413     73.4893E-03     11.1539E-03     72.6379E-03     456.298E-03    -228.067E-03    -228.230E-03    -227.505E-03     455.681E-03    -228.176E-03     40.8679E-03     474.584E-03     70.6495E+06     55.0704E+06     13.6565E+06    -26.5017E+06    -26.4685E+06     13.6234E+06     55.0704E+06     1.10516E+06
             414     73.3145E-03     10.3563E-03     72.5793E-03     456.033E-03    -227.895E-03    -228.138E-03    -227.472E-03     455.610E-03    -228.138E-03     33.8602E-03     471.816E-03     68.6951E+06     46.8313E+06     9.79187E+06    -32.3779E+06    -32.3163E+06     9.73023E+06     46.8313E+06     1.58088E+06
             415     73.1573E-03     9.55954E-03     72.5301E-03     455.820E-03    -227.716E-03    -228.104E-03    -227.430E-03     455.534E-03    -228.104E-03     27.8146E-03     469.532E-03     67.3523E+06     38.5239E+06     6.96730E+06    -38.7783E+06    -38.6882E+06     6.87723E+06     38.5239E+06     2.00498E+06
             416     73.0167E-03     8.76265E-03     72.4890E-03     455.603E-03    -227.520E-03    -228.083E-03    -227.336E-03     455.419E-03    -228.083E-03     22.2772E-03     467.436E-03     66.2987E+06     29.8017E+06     2.76335E+06    -45.7175E+06    -45.5959E+06     2.64176E+06     29.8017E+06     2.40028E+06
             417     72.8928E-03     7.96591E-03     72.4562E-03     455.451E-03    -227.378E-03    -228.073E-03    -227.265E-03     455.338E-03    -228.073E-03     17.4137E-03     465.537E-03     65.0054E+06     20.3879E+06    -1.99459E+06    -52.8082E+06    -52.5986E+06    -2.20425E+06     20.3879E+06     3.20791E+06
             418     72.7850E-03     7.16912E-03     72.4311E-03     455.316E-03    -227.248E-03    -228.067E-03    -227.186E-03     455.253E-03    -228.067E-03     12.8453E-03     463.786E-03     62.1306E+06     8.53837E+06    -8.19575E+06    -60.1949E+06    -59.8563E+06    -8.53436E+06     8.53837E+06     4.15936E+06
             419     72.6922E-03     6.37155E-03     72.4125E-03     455.334E-03    -227.275E-03    -228.060E-03    -227.246E-03     455.306E-03    -228.060E-03     8.66565E-03     462.296E-03     56.8141E+06    -6.45990E+06    -17.2283E+06    -67.8502E+06    -67.4077E+06    -17.6709E+06    -6.45990E+06     4.69308E+06
             420     72.6130E-03     5.57511E-03     72.3986E-03     455.455E-03    -227.390E-03    -228.065E-03    -227.379E-03     455.444E-03    -228.065E-03     5.22667E-03     461.009E-03     47.2464E+06    -23.3042E+06    -40.6254E+06    -75.3930E+06    -74.6024E+06    -41.4160E+06    -23.3042E+06     4.72215E+06
             421     72.5488E-03     4.77870E-03     72.3913E-03     455.610E-03    -227.533E-03    -228.077E-03    -227.530E-03     455.607E-03    -228.077E-03     2.43200E-03     459.869E-03     39.6345E+06    -40.8549E+06    -70.8997E+06    -85.3523E+06    -81.7158E+06    -74.5363E+06    -40.8549E+06     4.17695E+06
             422     72.4964E-03     3.98214E-03     72.3870E-03     455.796E-03    -227.723E-03    -228.073E-03    -227.722E-03     455.795E-03    -228.073E-03     308.160E-06     458.878E-03     40.4763E+06    -57.5855E+06    -87.0781E+06    -103.110E+06    -88.4623E+06    -101.726E+06    -57.5855E+06     3.46247E+06
             423     72.4554E-03     3.18552E-03     72.3853E-03     455.919E-03    -227.837E-03    -228.082E-03    -227.866E-03     455.919E-03    -228.052E-03    -1.00419E-03     457.973E-03     46.4126E+06    -72.8447E+06    -93.9396E+06    -125.625E+06    -94.2585E+06    -125.306E+06    -72.8447E+06     2.91969E+06
             424     72.4262E-03     2.38906E-03     72.3868E-03     456.015E-03    -227.913E-03    -228.102E-03    -228.014E-03     456.014E-03    -228.001E-03    -1.45641E-03     457.224E-03     53.0446E+06    -86.7468E+06    -98.9253E+06    -144.628E+06    -99.0518E+06    -144.502E+06    -86.7468E+06     2.18193E+06
             425     72.4061E-03     1.59277E-03     72.3886E-03     455.954E-03    -227.912E-03    -228.042E-03    -228.041E-03     455.953E-03    -227.912E-03    -1.26344E-03     456.534E-03     58.8770E+06    -97.0472E+06    -102.374E+06    -158.352E+06    -102.410E+06    -158.316E+06    -97.0472E+06     1.12498E+06
             426     72.3940E-03     796.779E-06     72.3896E-03     455.708E-03    -227.707E-03    -228.002E-03    -227.856E-03     455.708E-03    -227.852E-03    -829.901E-06     455.901E-03     65.6874E+06    -101.868E+06    -104.272E+06    -168.722E+06    -103.789E+06    -168.707E+06    -102.366E+06     708.535E+03
             427     72.5920E-03     13.5459E-03     71.3169E-03     457.611E-03    -228.415E-03    -229.196E-03    -227.654E-03     456.069E-03    -228.415E-03     64.8918E-03     482.849E-03     111.645E+06     120.963E+06     67.7524E+06    -7.32452E+06    -7.31797E+06     67.7459E+06     120.963E+06     467.836E+03
             428     72.3416E-03     12.7482E-03     71.2095E-03     457.261E-03    -228.285E-03    -228.975E-03    -227.628E-03     455.932E-03    -228.303E-03     59.6499E-03     482.719E-03     88.7927E+06     87.8188E+06     43.9630E+06    -14.3134E+06    -14.2864E+06     43.9360E+06     87.8188E+06     1.03330E+06
             429     72.1271E-03     11.9508E-03     71.1302E-03     456.460E-03    -228.189E-03    -228.271E-03    -227.397E-03     455.627E-03    -228.230E-03     47.6669E-03     476.858E-03     74.7515E+06     65.4881E+06     23.6855E+06    -20.7805E+06    -20.7470E+06     23.6519E+06     65.4881E+06     1.12734E+06
             430     71.9303E-03     11.1533E-03     71.0603E-03     456.393E-03    -228.133E-03    -228.260E-03    -227.586E-03     455.773E-03    -228.187E-03     40.9834E-03     474.672E-03     70.0234E+06     54.0956E+06     13.2979E+06    -26.7558E+06    -26.7333E+06     13.2754E+06     54.0956E+06     945.340E+03
             431     71.7531E-03     10.3568E-03     71.0018E-03     456.222E-03    -228.018E-03    -228.204E-03    -227.658E-03     455.800E-03    -228.142E-03     33.8208E-03     471.984E-03     68.3574E+06     46.1889E+06     8.87330E+06    -32.6658E+06    -32.6249E+06     8.83249E+06     46.1889E+06     1.26063E+06
             432     71.5933E-03     9.55983E-03     70.9522E-03     455.867E-03    -227.767E-03    -228.100E-03    -227.483E-03     455.583E-03    -228.100E-03     27.7218E-03     469.573E-03     66.8996E+06     38.1161E+06     6.03317E+06    -38.7382E+06    -38.6387E+06     5.93373E+06     38.1161E+06     2.06585E+06
             433     71.4514E-03     8.76287E-03     70.9120E-03     455.526E-03    -227.447E-03    -228.079E-03    -227.264E-03     455.343E-03    -228.079E-03     22.2054E-03     467.373E-03     65.5184E+06     29.3614E+06     2.13761E+06    -45.3518E+06    -45.2015E+06     1.98728E+06     29.3614E+06     2.66467E+06
             434     71.3252E-03     7.96550E-03     70.8790E-03     455.353E-03    -227.275E-03    -228.078E-03    -227.165E-03     455.243E-03    -228.078E-03     17.2114E-03     465.463E-03     64.1000E+06     20.0156E+06    -3.10574E+06    -52.4185E+06    -52.2403E+06    -3.28396E+06     20.0156E+06     2.95065E+06
             435     71.2155E-03     7.16839E-03     70.8538E-03     455.426E-03    -227.352E-03    -228.075E-03    -227.291E-03     455.365E-03    -228.075E-03     12.7100E-03     463.919E-03     61.3845E+06     8.56813E+06    -9.35774E+06    -59.7338E+06    -59.4721E+06    -9.61951E+06     8.56813E+06     3.58379E+06
             436     71.1206E-03     6.37255E-03     70.8345E-03     455.425E-03    -227.370E-03    -228.055E-03    -227.341E-03     455.396E-03    -228.055E-03     8.66274E-03     462.396E-03     56.4402E+06    -6.07804E+06    -17.1678E+06    -67.1762E+06    -66.8009E+06    -17.5431E+06    -6.07804E+06     4.30030E+06
             437     71.0410E-03     5.57541E-03     70.8219E-03     455.422E-03    -227.369E-03    -228.053E-03    -227.358E-03     455.411E-03    -228.053E-03     5.21536E-03     460.985E-03     47.2636E+06    -22.8433E+06    -39.1530E+06    -74.9445E+06    -74.2101E+06    -39.8874E+06    -22.8433E+06     4.62823E+06
             438     70.9744E-03     4.77826E-03     70.8134E-03     455.640E-03    -227.581E-03    -228.060E-03    -227.578E-03     455.638E-03    -228.060E-03     2.45433E-03     459.902E-03     39.2899E+06    -40.2650E+06    -68.9972E+06    -84.5003E+06    -81.5432E+06    -71.9543E+06    -40.2650E+06     4.45207E+06
             439     70.9209E-03     3.98208E-03     70.8090E-03     455.750E-03    -227.702E-03    -228.048E-03    -227.702E-03     455.750E-03    -228.048E-03     336.867E-06     458.828E-03     39.0223E+06    -57.3144E+06    -86.0563E+06    -101.237E+06    -88.2017E+06    -99.0919E+06    -57.3144E+06     3.74599E+06
             440     70.8801E-03     3.18558E-03     70.8085E-03     455.770E-03    -227.728E-03    -228.042E-03    -227.727E-03     455.769E-03    -228.042E-03    -1.02468E-03     457.817E-03     44.3702E+06    -72.8072E+06    -93.5518E+06    -123.316E+06    -93.9020E+06    -122.966E+06    -72.8072E+06     2.89994E+06
             441     70.8491E-03     2.38895E-03     70.8088E-03     455.949E-03    -227.873E-03    -228.076E-03    -227.917E-03     455.948E-03    -228.031E-03    -1.61667E-03     457.153E-03     50.9946E+06    -85.7863E+06    -97.9479E+06    -141.567E+06    -98.0680E+06    -141.446E+06    -85.7863E+06     2.06945E+06
             442     70.8285E-03     1.59287E-03     70.8106E-03     456.028E-03    -227.956E-03    -228.073E-03    -228.051E-03     456.027E-03    -227.976E-03    -1.67749E-03     456.605E-03     56.7715E+06    -96.3792E+06    -101.366E+06    -155.401E+06    -101.405E+06    -155.362E+06    -96.3792E+06     1.15634E+06
             443     70.8172E-03     796.212E-06     70.8127E-03     455.862E-03    -227.702E-03    -228.160E-03    -227.753E-03     455.861E-03    -228.108E-03    -1.09115E-03     456.053E-03     63.6820E+06    -102.731E+06    -104.244E+06    -167.151E+06    -104.235E+06    -167.139E+06    -102.752E+06     222.807E+03
             444     71.0421E-03     13.5453E-03     69.7388E-03     457.494E-03    -228.420E-03    -229.075E-03    -227.537E-03     455.956E-03    -228.420E-03     64.7885E-03     482.739E-03     111.188E+06     119.783E+06     66.5113E+06    -8.01095E+06    -8.00686E+06     66.5072E+06     119.783E+06     377.844E+03
             445     70.7891E-03     12.7483E-03     69.6317E-03     457.241E-03    -228.297E-03    -228.944E-03    -227.595E-03     455.909E-03    -228.315E-03     59.6888E-03     482.718E-03     88.5953E+06     86.9982E+06     43.1219E+06    -14.9276E+06    -14.9017E+06     43.0961E+06     86.9982E+06     987.869E+03
             446     70.5729E-03     11.9505E-03     69.5537E-03     456.631E-03    -228.197E-03    -228.434E-03    -227.559E-03     455.797E-03    -228.238E-03     47.6904E-03     477.005E-03     74.4418E+06     65.0093E+06     23.8827E+06    -20.9004E+06    -20.8584E+06     23.8406E+06     65.0093E+06     1.30655E+06
             447     70.3717E-03     11.1534E-03     69.4822E-03     456.454E-03    -228.099E-03    -228.356E-03    -227.652E-03     455.839E-03    -228.187E-03     40.8492E-03     474.751E-03     69.3602E+06     53.4932E+06     13.5815E+06    -26.5967E+06    -26.5618E+06     13.5466E+06     53.4932E+06     1.16623E+06
             448     70.1916E-03     10.3564E-03     69.4234E-03     456.153E-03    -227.947E-03    -228.206E-03    -227.591E-03     455.735E-03    -228.144E-03     33.6839E-03     471.928E-03     67.6723E+06     45.5163E+06     8.00289E+06    -32.5868E+06    -32.5506E+06     7.96672E+06     45.5163E+06     1.19686E+06
             449     70.0307E-03     9.55956E-03     69.3752E-03     455.845E-03    -227.736E-03    -228.109E-03    -227.450E-03     455.560E-03    -228.109E-03     27.8124E-03     469.555E-03     66.4526E+06     37.7032E+06     4.50141E+06    -38.7622E+06    -38.6904E+06     4.42967E+06     37.7032E+06     1.70981E+06
             450     69.8857E-03     8.76265E-03     69.3342E-03     455.669E-03    -227.586E-03    -228.083E-03    -227.401E-03     455.485E-03    -228.083E-03     22.2889E-03     467.514E-03     65.0901E+06     29.2087E+06     1.42977E+06    -45.1173E+06    -44.9783E+06     1.29079E+06     29.2087E+06     2.50938E+06
             451     69.7589E-03     7.96603E-03     69.3025E-03     455.547E-03    -227.484E-03    -228.063E-03    -227.375E-03     455.438E-03    -228.063E-03     17.0801E-03     465.661E-03     63.4719E+06     19.5085E+06    -3.24713E+06    -52.1777E+06    -51.9878E+06    -3.43697E+06     19.5085E+06     3.03279E+06
             452     69.6458E-03     7.16926E-03     69.2759E-03     455.342E-03    -227.290E-03    -228.051E-03    -227.231E-03     455.283E-03    -228.051E-03     12.5165E-03     463.848E-03     60.7224E+06     8.03549E+06    -10.0150E+06    -59.6389E+06    -59.4155E+06    -10.2384E+06     8.03549E+06     3.30644E+06
             453     69.5498E-03     6.37162E-03     69.2573E-03     455.310E-03    -227.267E-03    -228.043E-03    -227.238E-03     455.281E-03    -228.043E-03     8.58430E-03     462.301E-03     56.1536E+06    -6.04640E+06    -18.0787E+06    -67.1741E+06    -66.8414E+06    -18.4115E+06    -6.04640E+06     3.98233E+06
             454     69.4684E-03     5.57518E-03     69.2443E-03     455.517E-03    -227.481E-03    -228.035E-03    -227.470E-03     455.506E-03    -228.035E-03     5.23955E-03     461.088E-03     47.4860E+06    -22.5893E+06    -38.2710E+06    -75.1269E+06    -74.4264E+06    -38.9716E+06    -22.5893E+06     4.67981E+06
             455     69.4005E-03     4.77911E-03     69.2358E-03     455.604E-03    -227.576E-03    -228.028E-03    -227.574E-03     455.601E-03    -228.028E-03     2.38913E-03     459.864E-03     38.8996E+06    -39.7883E+06    -67.0396E+06    -83.5330E+06    -81.3260E+06    -69.2465E+06    -39.7883E+06     4.38423E+06
             456     69.3461E-03     3.98211E-03     69.2317E-03     455.629E-03    -227.609E-03    -228.020E-03    -227.609E-03     455.628E-03    -228.020E-03     170.555E-06     458.706E-03     37.4711E+06    -56.6307E+06    -84.8012E+06    -98.6866E+06    -87.3100E+06    -96.1778E+06    -56.6307E+06     3.53141E+06
             457     69.3040E-03     3.18557E-03     69.2308E-03     455.753E-03    -227.736E-03    -228.017E-03    -227.735E-03     455.753E-03    -228.017E-03    -1.07389E-03     457.801E-03     42.5349E+06    -71.8654E+06    -92.3867E+06    -120.306E+06    -92.6976E+06    -119.995E+06    -71.8654E+06     2.54633E+06
             458     69.2727E-03     2.38931E-03     69.2314E-03     455.803E-03    -227.777E-03    -228.027E-03    -227.776E-03     455.803E-03    -228.027E-03    -1.50674E-03     457.008E-03     49.3813E+06    -84.8346E+06    -97.6171E+06    -139.197E+06    -97.7110E+06    -139.103E+06    -84.8346E+06     1.92523E+06
             459     69.2511E-03     1.59262E-03     69.2328E-03     455.923E-03    -227.841E-03    -228.082E-03    -227.860E-03     455.922E-03    -228.062E-03    -1.47975E-03     456.499E-03     54.8215E+06    -95.5535E+06    -101.571E+06    -153.046E+06    -101.626E+06    -152.991E+06    -95.5535E+06     1.64083E+06
             460     69.2401E-03     796.645E-06     69.2355E-03     456.160E-03    -227.786E-03    -228.374E-03    -228.035E-03     456.159E-03    -228.124E-03    -1.14322E-03     456.347E-03     61.7405E+06    -102.435E+06    -104.298E+06    -165.074E+06    -103.860E+06    -165.033E+06    -102.913E+06     1.09718E+06
             461     69.4955E-03     13.5462E-03     68.1625E-03     457.292E-03    -228.387E-03    -228.905E-03    -227.300E-03     455.735E-03    -228.434E-03     65.1096E-03     483.287E-03     110.407E+06     119.192E+06     65.3847E+06    -7.79026E+06    -7.78091E+06     65.3753E+06     119.192E+06     782.871E+03
             462     69.2381E-03     12.7473E-03     68.0545E-03     457.298E-03    -228.339E-03    -228.959E-03    -227.590E-03     455.929E-03    -228.339E-03     60.4638E-03     483.664E-03     87.8289E+06     86.5814E+06     42.7573E+06    -14.5004E+06    -14.4855E+06     42.7423E+06     86.5814E+06     905.027E+03
             463     69.0177E-03     11.9505E-03     67.9752E-03     456.948E-03    -228.256E-03    -228.692E-03    -227.844E-03     456.100E-03    -228.256E-03     48.1184E-03     477.517E-03     73.7832E+06     64.7176E+06     23.9176E+06    -20.4314E+06    -20.4074E+06     23.8936E+06     64.7176E+06     987.864E+03
             464     68.8145E-03     11.1539E-03     67.9046E-03     456.556E-03    -228.130E-03    -228.426E-03    -227.732E-03     455.927E-03    -228.195E-03     41.2584E-03     475.001E-03     68.6708E+06     53.1168E+06     13.1969E+06    -26.1747E+06    -26.1336E+06     13.1558E+06     53.1168E+06     1.24242E+06
             465     68.6323E-03     10.3566E-03     67.8464E-03     456.096E-03    -227.921E-03    -228.175E-03    -227.521E-03     455.674E-03    -228.153E-03     33.8206E-03     471.943E-03     66.7452E+06     45.0817E+06     7.52157E+06    -31.9603E+06    -31.8973E+06     7.45856E+06     45.0817E+06     1.53622E+06
             466     68.4678E-03     9.55944E-03     67.7972E-03     455.881E-03    -227.760E-03    -228.121E-03    -227.476E-03     455.597E-03    -228.121E-03     27.7259E-03     469.642E-03     65.5269E+06     37.1386E+06     3.76256E+06    -38.3221E+06    -38.2483E+06     3.68878E+06     37.1386E+06     1.72749E+06
             467     68.3215E-03     8.76249E-03     67.7573E-03     455.775E-03    -227.681E-03    -228.094E-03    -227.496E-03     455.590E-03    -228.094E-03     22.3251E-03     467.652E-03     64.5477E+06     28.8282E+06     120.609E+03    -45.0522E+06    -44.9397E+06     8.13842E+03     28.8282E+06     2.21821E+06
             468     68.1904E-03     7.96586E-03     67.7236E-03     455.665E-03    -227.599E-03    -228.065E-03    -227.486E-03     455.552E-03    -228.065E-03     17.3967E-03     465.785E-03     63.1828E+06     19.7000E+06    -3.68197E+06    -51.7851E+06    -51.5985E+06    -3.86860E+06     19.7000E+06     2.97770E+06
             469     68.0781E-03     7.16922E-03     67.6996E-03     455.523E-03    -227.486E-03    -228.037E-03    -227.425E-03     455.462E-03    -228.037E-03     12.7454E-03     464.019E-03     60.2590E+06     8.32255E+06    -10.0683E+06    -58.9736E+06    -58.7229E+06    -10.3189E+06     8.32255E+06     3.46299E+06
             470     67.9795E-03     6.37259E-03     67.6801E-03     455.411E-03    -227.403E-03    -228.008E-03    -227.375E-03     455.383E-03    -228.008E-03     8.45535E-03     462.399E-03     55.6237E+06    -5.64230E+06    -18.8387E+06    -66.6276E+06    -66.2915E+06    -19.1748E+06    -5.64230E+06     3.95824E+06
             471     67.8957E-03     5.57565E-03     67.6664E-03     455.397E-03    -227.408E-03    -227.990E-03    -227.398E-03     455.388E-03    -227.990E-03     4.94635E-03     460.971E-03     46.9271E+06    -21.9908E+06    -37.4234E+06    -74.1714E+06    -73.6296E+06    -37.9652E+06    -21.9908E+06     4.21618E+06
             472     67.8268E-03     4.77868E-03     67.6582E-03     455.445E-03    -227.457E-03    -227.988E-03    -227.455E-03     455.442E-03    -227.988E-03     2.30071E-03     459.707E-03     38.0041E+06    -39.2706E+06    -65.2286E+06    -81.8833E+06    -80.3951E+06    -66.7168E+06    -39.2706E+06     3.70559E+06
             473     67.7717E-03     3.98241E-03     67.6545E-03     455.532E-03    -227.539E-03    -227.994E-03    -227.538E-03     455.532E-03    -227.994E-03     323.647E-06     458.613E-03     36.4165E+06    -55.6323E+06    -84.1056E+06    -96.3228E+06    -86.7433E+06    -93.6851E+06    -55.6323E+06     3.06580E+06
             474     67.7282E-03     3.18577E-03     67.6532E-03     455.642E-03    -227.634E-03    -228.007E-03    -227.634E-03     455.641E-03    -228.007E-03    -921.679E-06     457.695E-03     41.2647E+06    -70.8065E+06    -92.1555E+06    -117.831E+06    -92.4906E+06    -117.496E+06    -70.8065E+06     2.67012E+06
             475     67.6963E-03     2.38905E-03     67.6542E-03     455.710E-03    -227.666E-03    -228.045E-03    -227.665E-03     455.709E-03    -228.045E-03    -1.48342E-03     456.917E-03     47.5931E+06    -84.6733E+06    -97.2672E+06    -137.081E+06    -97.3985E+06     -136.95E+06    -84.6733E+06     2.19197E+06
             476     67.6747E-03     1.59239E-03     67.6559E-03     455.916E-03    -227.770E-03    -228.146E-03    -227.769E-03     455.915E-03    -228.146E-03    -1.35277E-03     456.492E-03     53.2390E+06    -95.3437E+06    -101.102E+06    -151.164E+06    -101.154E+06    -151.112E+06    -95.3437E+06     1.52522E+06
             477     67.6612E-03     795.527E-06     67.6565E-03     456.420E-03    -227.909E-03    -228.510E-03    -228.343E-03     456.419E-03    -228.076E-03    -966.367E-06     456.609E-03     59.3330E+06    -100.728E+06    -103.240E+06    -161.273E+06    -102.817E+06    -161.239E+06    -101.185E+06     1.07774E+06
             478     67.9509E-03     13.5443E-03     66.5874E-03     457.484E-03    -228.387E-03    -229.097E-03    -227.540E-03     455.974E-03    -228.434E-03     64.0590E-03     483.037E-03     109.772E+06     119.146E+06     64.5042E+06    -7.21112E+06    -7.20331E+06     64.4964E+06     119.146E+06     622.329E+03
             479     67.6870E-03     12.7473E-03     66.4758E-03     457.326E-03    -228.232E-03    -229.094E-03    -227.677E-03     456.002E-03    -228.326E-03     59.3344E-03     483.338E-03     87.2537E+06     86.5078E+06     42.5672E+06    -13.9526E+06    -13.9343E+06     42.5489E+06     86.5078E+06     971.939E+03
             480     67.4642E-03     11.9499E-03     66.3974E-03     456.510E-03    -228.020E-03    -228.490E-03    -227.449E-03     455.698E-03    -228.250E-03     47.0523E-03     476.789E-03     72.9497E+06     64.2807E+06     23.6460E+06    -19.9076E+06    -19.8755E+06     23.6140E+06     64.2807E+06     1.12777E+06
             481     67.2573E-03     11.1526E-03     66.3262E-03     456.336E-03    -228.001E-03    -228.334E-03    -227.505E-03     455.715E-03    -228.210E-03     40.9905E-03     474.711E-03     67.7936E+06     52.4867E+06     12.3088E+06    -25.7818E+06    -25.7308E+06     12.2577E+06     52.4867E+06     1.34816E+06
             482     67.0730E-03     10.3561E-03     66.2687E-03     456.188E-03    -227.991E-03    -228.197E-03    -227.588E-03     455.764E-03    -228.176E-03     33.9091E-03     472.061E-03     65.9203E+06     44.4877E+06     6.87589E+06    -31.5932E+06    -31.5094E+06     6.79211E+06     44.4877E+06     1.78078E+06
             483     66.9062E-03     9.55927E-03     66.2197E-03     456.013E-03    -227.874E-03    -228.139E-03    -227.585E-03     455.724E-03    -228.139E-03     27.9722E-03     469.801E-03     64.5826E+06     36.8357E+06     3.83131E+06    -37.5496E+06    -37.4394E+06     3.72115E+06     36.8357E+06     2.11366E+06
             484     66.7567E-03     8.76271E-03     66.1791E-03     455.843E-03    -227.735E-03    -228.108E-03    -227.549E-03     455.657E-03    -228.108E-03     22.4387E-03     467.743E-03     63.5144E+06     28.6457E+06    -390.306E+03    -44.1786E+06    -44.0643E+06    -504.609E+03     28.6457E+06     2.21248E+06
             485     66.6248E-03     7.96558E-03     66.1469E-03     455.710E-03    -227.628E-03    -228.082E-03    -227.517E-03     455.599E-03    -228.082E-03     17.2792E-03     465.848E-03     62.4748E+06     20.0859E+06    -4.90868E+06    -50.9728E+06    -50.8328E+06    -5.04868E+06     20.0859E+06     2.51994E+06
             486     66.5084E-03     7.16877E-03     66.1209E-03     455.721E-03    -227.676E-03    -228.045E-03    -227.615E-03     455.660E-03    -228.045E-03     12.6929E-03     464.223E-03     59.9913E+06     9.51879E+06    -10.6144E+06    -57.9081E+06    -57.6645E+06    -10.8581E+06     9.51879E+06     3.33524E+06
             487     66.4088E-03     6.37268E-03     66.1023E-03     455.624E-03    -227.635E-03    -227.989E-03    -227.606E-03     455.595E-03    -227.989E-03     8.74109E-03     462.611E-03     55.1284E+06    -4.56017E+06    -18.7311E+06    -65.3370E+06    -65.0045E+06    -19.0636E+06    -4.56017E+06     3.91734E+06
             488     66.3243E-03     5.57612E-03     66.0895E-03     455.375E-03    -227.427E-03    -227.948E-03    -227.416E-03     455.364E-03    -227.948E-03     5.19185E-03     460.945E-03     46.3909E+06    -21.0480E+06    -36.2536E+06    -72.7502E+06    -72.3085E+06    -36.6952E+06    -21.0480E+06     3.86819E+06
             489     66.2538E-03     4.77934E-03     66.0812E-03     455.291E-03    -227.345E-03    -227.947E-03    -227.342E-03     455.289E-03    -227.947E-03     2.22627E-03     459.552E-03     37.6234E+06    -38.4252E+06    -63.2388E+06    -80.7154E+06    -79.5274E+06    -64.4268E+06    -38.4252E+06     3.55188E+06
             490     66.1971E-03     3.98221E-03     66.0772E-03     455.387E-03    -227.421E-03    -227.966E-03    -227.421E-03     455.387E-03    -227.966E-03     241.198E-06     458.470E-03     35.3678E+06    -55.2564E+06    -82.9422E+06    -94.8666E+06    -86.1899E+06    -91.6190E+06    -55.2564E+06     3.00666E+06
             491     66.1528E-03     3.18559E-03     66.0761E-03     455.555E-03    -227.558E-03    -227.997E-03    -227.558E-03     455.555E-03    -227.997E-03    -971.960E-06     457.611E-03     39.7502E+06    -70.5758E+06    -91.6742E+06    -115.886E+06    -91.9873E+06    -115.573E+06    -70.5758E+06     2.46631E+06
             492     66.1201E-03     2.38902E-03     66.0769E-03     455.759E-03    -227.728E-03    -228.032E-03    -227.727E-03     455.758E-03    -228.032E-03    -1.63506E-03     456.969E-03     46.0456E+06    -83.9601E+06    -96.4918E+06    -134.748E+06    -96.6068E+06    -134.633E+06    -83.9601E+06     1.99875E+06
             493     66.0974E-03     1.59261E-03     66.0782E-03     455.962E-03    -227.869E-03    -228.093E-03    -227.889E-03     455.961E-03    -228.072E-03    -1.45188E-03     456.542E-03     51.6383E+06    -94.4769E+06    -99.6141E+06    -148.403E+06    -99.6568E+06    -148.360E+06    -94.4769E+06     1.32011E+06
             494     66.0835E-03     796.568E-06     66.0787E-03     456.181E-03    -227.865E-03    -228.316E-03    -228.089E-03     456.180E-03    -228.091E-03    -755.188E-06     456.371E-03     57.8739E+06    -100.292E+06    -101.921E+06    -158.959E+06    -101.930E+06    -158.949E+06    -100.292E+06     190.897E+03
             495     66.4048E-03     13.5467E-03     65.0083E-03     458.072E-03    -228.399E-03    -229.673E-03    -228.174E-03     456.573E-03    -228.399E-03     63.9323E-03     483.169E-03     109.425E+06     118.323E+06     63.6010E+06    -7.65972E+06    -7.65810E+06     63.5994E+06     118.323E+06     155.615E+03
             496     66.1393E-03     12.7495E-03     64.8989E-03     457.341E-03    -228.166E-03    -229.174E-03    -227.770E-03     456.036E-03    -228.266E-03     58.9521E-03     482.974E-03     87.0086E+06     85.7089E+06     41.7280E+06    -14.4887E+06    -14.4770E+06     41.7164E+06     85.7089E+06     615.366E+03
             497     65.9137E-03     11.9515E-03     64.8211E-03     455.951E-03    -227.751E-03    -228.200E-03    -226.953E-03     455.153E-03    -228.200E-03     46.6167E-03     476.174E-03     72.6771E+06     63.7216E+06     23.1441E+06    -20.1474E+06    -20.1068E+06     23.1036E+06     63.7216E+06     1.24772E+06
             498     65.7030E-03     11.1535E-03     64.7494E-03     455.760E-03    -227.565E-03    -228.195E-03    -226.951E-03     455.146E-03    -228.195E-03     40.7652E-03     473.880E-03     67.2114E+06     52.0986E+06     12.0150E+06    -25.4940E+06    -25.4177E+06     11.9387E+06     52.0986E+06     1.67009E+06
             499     65.5142E-03     10.3558E-03     64.6905E-03     456.033E-03    -227.847E-03    -228.186E-03    -227.426E-03     455.613E-03    -228.186E-03     33.7422E-03     471.782E-03     65.1586E+06     43.9585E+06     6.27753E+06    -31.2553E+06    -31.1644E+06     6.18663E+06     43.9585E+06     1.83597E+06
             500     65.3449E-03     9.55899E-03     64.6419E-03     456.096E-03    -227.941E-03    -228.155E-03    -227.659E-03     455.814E-03    -228.155E-03     27.6220E-03     469.810E-03     63.9135E+06     36.4806E+06     3.26729E+06    -37.1619E+06    -37.0553E+06     3.16065E+06     36.4806E+06     2.06106E+06
             501     65.1928E-03     8.76196E-03     64.6013E-03     455.937E-03    -227.819E-03    -228.119E-03    -227.635E-03     455.754E-03    -228.119E-03     22.2325E-03     467.816E-03     62.9249E+06     28.8115E+06    -111.629E+03    -43.3524E+06    -43.2268E+06    -237.215E+03     28.8115E+06     2.30747E+06
             502     65.0583E-03     7.96585E-03     64.5688E-03     455.814E-03    -227.729E-03    -228.086E-03    -227.618E-03     455.704E-03    -228.086E-03     17.1966E-03     465.955E-03     61.8536E+06     20.3103E+06    -5.26849E+06    -50.2187E+06    -50.0847E+06    -5.40246E+06     20.3103E+06     2.43933E+06
             503     64.9404E-03     7.16941E-03     64.5434E-03     455.619E-03    -227.568E-03    -228.051E-03    -227.506E-03     455.558E-03    -228.051E-03     12.7982E-03     464.141E-03     59.4162E+06     9.61518E+06    -11.6650E+06    -57.4757E+06    -57.2896E+06    -11.8512E+06     9.61518E+06     2.88346E+06
             504     64.8382E-03     6.37225E-03     64.5243E-03     455.553E-03    -227.543E-03    -228.010E-03    -227.513E-03     455.522E-03    -228.010E-03     8.85442E-03     462.555E-03     54.8357E+06    -4.01466E+06    -19.1001E+06    -64.7603E+06    -64.4833E+06    -19.3771E+06    -4.01466E+06     3.52328E+06
             505     64.7524E-03     5.57582E-03     64.5118E-03     455.525E-03    -227.558E-03    -227.968E-03    -227.546E-03     455.514E-03    -227.968E-03     5.39581E-03     461.095E-03     46.6799E+06    -20.3195E+06    -35.1892E+06    -72.3935E+06    -71.9194E+06    -35.6634E+06    -20.3195E+06     4.01542E+06
             506     64.6811E-03     4.77927E-03     64.5043E-03     455.436E-03    -227.493E-03    -227.943E-03    -227.490E-03     455.433E-03    -227.943E-03     2.58181E-03     459.694E-03     37.5715E+06    -37.7998E+06    -60.9101E+06    -80.1771E+06    -79.0340E+06    -62.0532E+06    -37.7998E+06     3.88589E+06
             507     64.6233E-03     3.98272E-03     64.5004E-03     455.436E-03    -227.499E-03    -227.937E-03    -227.499E-03     455.436E-03    -227.937E-03     393.575E-06     458.516E-03     34.0890E+06    -54.9919E+06    -81.5112E+06    -93.3375E+06    -85.6089E+06    -89.2398E+06    -54.9919E+06     3.12173E+06
             508     64.5775E-03     3.18582E-03     64.4989E-03     455.534E-03    -227.587E-03    -227.947E-03    -227.586E-03     455.534E-03    -227.947E-03    -1.05082E-03     457.584E-03     37.9646E+06    -70.5068E+06    -91.0744E+06    -113.729E+06    -91.4075E+06    -113.396E+06    -70.5068E+06     2.35393E+06
             509     64.5437E-03     2.38927E-03     64.4994E-03     455.692E-03    -227.728E-03    -227.964E-03    -227.727E-03     455.691E-03    -227.964E-03    -1.58484E-03     456.901E-03     44.4215E+06    -83.3549E+06    -95.9398E+06    -132.521E+06    -96.0260E+06    -132.434E+06    -83.3549E+06     1.64578E+06
             510     64.5202E-03     1.59286E-03     64.5006E-03     455.865E-03    -227.879E-03    -227.986E-03    -227.899E-03     455.864E-03    -227.966E-03    -1.16456E-03     456.446E-03     49.6988E+06    -93.3657E+06    -99.2732E+06    -145.662E+06    -99.3085E+06    -145.627E+06    -93.3657E+06     1.21625E+06
             511     64.5059E-03     796.283E-06     64.5010E-03     455.900E-03    -227.864E-03    -228.036E-03    -227.892E-03     455.900E-03    -228.008E-03    -585.500E-06     456.093E-03     56.8202E+06    -100.166E+06    -102.173E+06    -157.945E+06    -101.793E+06    -157.921E+06    -100.570E+06     746.468E+03
             512     64.8588E-03     13.5456E-03     63.4286E-03     457.987E-03    -228.402E-03    -229.585E-03    -228.032E-03     456.434E-03    -228.402E-03     65.1055E-03     483.339E-03     108.717E+06     117.459E+06     62.5057E+06    -7.75874E+06    -7.75580E+06     62.5028E+06     117.459E+06     103.491E+03
             513     64.5924E-03     12.7486E-03     63.3218E-03     457.441E-03    -228.272E-03    -229.169E-03    -227.794E-03     456.072E-03    -228.278E-03     60.5790E-03     483.285E-03     86.4771E+06     85.0631E+06     40.5661E+06    -14.5821E+06    -14.5701E+06     40.5542E+06     85.0631E+06     635.532E+03
             514     64.3635E-03     11.9515E-03     63.2442E-03     456.559E-03    -227.977E-03    -228.582E-03    -227.516E-03     455.713E-03    -228.197E-03     47.9695E-03     476.981E-03     72.4597E+06     63.2410E+06     22.6280E+06    -20.3876E+06    -20.3512E+06     22.5915E+06     63.2410E+06     1.18472E+06
             515     64.1516E-03     11.1535E-03     63.1746E-03     456.019E-03    -227.613E-03    -228.406E-03    -227.239E-03     455.403E-03    -228.164E-03     40.8662E-03     474.040E-03     67.2451E+06     51.8517E+06     12.0418E+06    -25.7869E+06    -25.7182E+06     11.9731E+06     51.8517E+06     1.57955E+06
             516     63.9564E-03     10.3559E-03     63.1124E-03     455.738E-03    -227.584E-03    -228.154E-03    -227.167E-03     455.321E-03    -228.154E-03     33.5727E-03     471.376E-03     65.2493E+06     43.9621E+06     6.32379E+06    -31.3668E+06    -31.2875E+06     6.24446E+06     43.9621E+06     1.70543E+06
             517     63.7844E-03     9.55918E-03     63.0640E-03     455.911E-03    -227.775E-03    -228.136E-03    -227.502E-03     455.638E-03    -228.136E-03     27.1623E-03     469.524E-03     63.7640E+06     36.1606E+06     2.52030E+06    -37.3482E+06    -37.2627E+06     2.43482E+06     36.1606E+06     1.84058E+06
             518     63.6298E-03     8.76272E-03     63.0235E-03     455.846E-03    -227.739E-03    -228.107E-03    -227.561E-03     455.668E-03    -228.107E-03     21.9375E-03     467.665E-03     62.7043E+06     28.4086E+06    -489.940E+03    -43.4918E+06    -43.3642E+06    -617.538E+03     28.4086E+06     2.32521E+06
             519     63.4923E-03     7.96558E-03     62.9906E-03     455.671E-03    -227.590E-03    -228.081E-03    -227.481E-03     455.562E-03    -228.081E-03     17.0904E-03     465.780E-03     61.4387E+06     19.7360E+06    -5.08675E+06    -50.2173E+06    -50.0640E+06    -5.23998E+06     19.7360E+06     2.62429E+06
             520     63.3728E-03     7.16869E-03     62.9660E-03     455.543E-03    -227.485E-03    -228.059E-03    -227.424E-03     455.483E-03    -228.059E-03     12.6957E-03     464.054E-03     58.8198E+06     8.86061E+06    -12.0998E+06    -57.5479E+06    -57.3792E+06    -12.2685E+06     8.86061E+06     2.75715E+06
             521     63.2685E-03     6.37230E-03     62.9468E-03     455.399E-03    -227.360E-03    -228.039E-03    -227.331E-03     455.369E-03    -228.039E-03     8.84403E-03     462.395E-03     54.5840E+06    -4.41676E+06    -20.1149E+06    -65.0897E+06    -64.8346E+06    -20.3700E+06    -4.41676E+06     3.34699E+06
             522     63.1806E-03     5.57545E-03     62.9341E-03     455.442E-03    -227.419E-03    -228.023E-03    -227.407E-03     455.430E-03    -228.023E-03     5.44123E-03     461.015E-03     46.8968E+06    -20.1954E+06    -34.5351E+06    -72.4858E+06    -72.0693E+06    -34.9516E+06    -20.1954E+06     3.84734E+06
             523     63.1080E-03     4.77886E-03     62.9268E-03     455.624E-03    -227.618E-03    -228.005E-03    -227.615E-03     455.620E-03    -228.005E-03     2.81969E-03     459.888E-03     37.6030E+06    -37.4780E+06    -58.9511E+06     -79.886E+06    -78.9931E+06    -59.8440E+06    -37.4780E+06     3.67067E+06
             524     63.0487E-03     3.98234E-03     62.9228E-03     455.725E-03    -227.752E-03    -227.973E-03    -227.751E-03     455.724E-03    -227.973E-03     796.068E-06     458.798E-03     33.2482E+06    -54.3657E+06    -80.2688E+06    -91.8317E+06    -85.2666E+06    -86.8339E+06    -54.3657E+06     3.19418E+06
             525     63.0025E-03     3.18613E-03     62.9219E-03     455.693E-03    -227.754E-03    -227.940E-03    -227.753E-03     455.693E-03    -227.940E-03    -681.915E-06     457.739E-03     36.4872E+06    -69.7333E+06    -90.3262E+06    -111.231E+06    -90.7909E+06    -110.766E+06    -69.7333E+06     2.57328E+06
             526     62.9677E-03     2.38943E-03     62.9223E-03     455.707E-03    -227.758E-03    -227.950E-03    -227.794E-03     455.707E-03    -227.913E-03    -1.30965E-03     456.918E-03     42.3030E+06    -83.1609E+06    -95.6086E+06    -130.084E+06    -95.7312E+06    -129.961E+06    -83.1609E+06     1.91556E+06
             527     62.9434E-03     1.59275E-03     62.9233E-03     455.754E-03    -227.815E-03    -227.939E-03    -227.878E-03     455.753E-03    -227.875E-03    -1.27143E-03     456.332E-03     47.5481E+06    -94.0324E+06    -99.7397E+06    -144.084E+06    -99.7942E+06    -144.030E+06    -94.0324E+06     1.12969E+06
             528     62.9283E-03     796.525E-06     62.9233E-03     455.694E-03    -227.709E-03    -227.985E-03    -227.977E-03     455.694E-03    -227.717E-03    -943.841E-06     455.884E-03     55.0781E+06    -99.5409E+06    -101.586E+06    -155.597E+06    -100.983E+06    -155.574E+06    -100.166E+06     814.939E+03
             529     63.3165E-03     13.5454E-03     61.8507E-03     457.468E-03    -228.431E-03    -229.036E-03    -227.508E-03     455.944E-03    -228.436E-03     64.4686E-03     482.536E-03     108.159E+06     116.928E+06     61.6631E+06    -7.69652E+06    -7.69005E+06     61.6567E+06     116.928E+06     440.162E+03
             530     63.0472E-03     12.7469E-03     61.7451E-03     457.398E-03    -228.331E-03    -229.067E-03    -227.732E-03     456.063E-03    -228.331E-03     59.8019E-03     482.882E-03     86.1199E+06     84.4912E+06     39.5194E+06    -14.7932E+06    -14.7798E+06     39.5060E+06     84.4912E+06     818.553E+03
             531     62.8118E-03     11.9497E-03     61.6646E-03     457.111E-03    -228.237E-03    -228.874E-03    -228.037E-03     456.274E-03    -228.237E-03     47.7803E-03     477.461E-03     72.2458E+06     62.7950E+06     22.0971E+06    -20.5942E+06    -20.5667E+06     22.0697E+06     62.7950E+06     1.01391E+06
             532     62.5981E-03     11.1547E-03     61.5963E-03     456.827E-03    -228.030E-03    -228.798E-03    -228.050E-03     456.209E-03    -228.159E-03     40.9914E-03     474.874E-03     67.0515E+06     51.5208E+06     11.8668E+06    -25.8955E+06    -25.8446E+06     11.8160E+06     51.5208E+06     1.36378E+06
             533     62.4028E-03     10.3575E-03     61.5373E-03     455.949E-03    -227.602E-03    -228.347E-03    -227.414E-03     455.524E-03    -228.110E-03     33.8920E-03     471.539E-03     65.1917E+06     43.7930E+06     6.17448E+06    -31.4729E+06    -31.3973E+06     6.09889E+06     43.7930E+06     1.66821E+06
             534     62.2245E-03     9.55951E-03     61.4858E-03     455.544E-03    -227.448E-03    -228.095E-03    -227.168E-03     455.263E-03    -228.095E-03     27.5203E-03     469.104E-03     63.8542E+06     36.0863E+06     2.12437E+06    -37.5433E+06    -37.4414E+06     2.02245E+06     36.0863E+06     1.99561E+06
             535     62.0677E-03     8.76255E-03     61.4460E-03     455.622E-03    -227.537E-03    -228.085E-03    -227.359E-03     455.444E-03    -228.085E-03     21.9353E-03     467.394E-03     62.5975E+06     28.0238E+06    -923.885E+03    -43.7568E+06    -43.6445E+06    -1.03622E+06     28.0238E+06     2.15986E+06
             536     61.9280E-03     7.96582E-03     61.4135E-03     455.511E-03    -227.437E-03    -228.074E-03    -227.329E-03     455.403E-03    -228.074E-03     17.0471E-03     465.573E-03     61.1665E+06     19.3870E+06    -5.10914E+06    -50.2180E+06    -50.0834E+06    -5.24376E+06     19.3870E+06     2.42308E+06
             537     61.8051E-03     7.16920E-03     61.3879E-03     455.407E-03    -227.338E-03    -228.069E-03    -227.278E-03     455.347E-03    -228.069E-03     12.6236E-03     463.882E-03     58.5109E+06     8.83340E+06    -12.1068E+06    -57.2538E+06    -57.0725E+06    -12.2881E+06     8.83340E+06     2.84859E+06
             538     61.6999E-03     6.37208E-03     61.3699E-03     455.341E-03    -227.276E-03    -228.065E-03    -227.246E-03     455.311E-03    -228.065E-03     8.79274E-03     462.315E-03     54.1174E+06    -4.45863E+06    -20.5122E+06    -64.7487E+06    -64.5085E+06    -20.7523E+06    -4.45863E+06     3.23590E+06
             539     61.6095E-03     5.57505E-03     61.3568E-03     455.394E-03    -227.329E-03    -228.065E-03    -227.317E-03     455.382E-03    -228.065E-03     5.35228E-03     460.955E-03     46.5023E+06    -20.2357E+06    -34.0840E+06    -72.0423E+06    -71.7253E+06    -34.4010E+06    -20.2357E+06     3.41665E+06
             540     61.5348E-03     4.77832E-03     61.3490E-03     455.592E-03    -227.523E-03    -228.069E-03    -227.520E-03     455.589E-03    -228.069E-03     2.60800E-03     459.854E-03     37.1552E+06    -37.2760E+06    -57.4238E+06    -79.1684E+06    -78.5324E+06    -58.0599E+06    -37.2760E+06     3.21416E+06
             541     61.4740E-03     3.98196E-03     61.3449E-03     455.801E-03    -227.740E-03    -228.060E-03    -227.740E-03     455.800E-03    -228.060E-03     804.905E-06     458.876E-03     32.2901E+06    -53.9716E+06    -79.3563E+06    -90.3028E+06    -84.8954E+06    -84.7637E+06    -53.9716E+06     2.86152E+06
             542     61.4268E-03     3.18547E-03     61.3441E-03     455.992E-03    -227.903E-03    -228.089E-03    -227.971E-03     455.991E-03    -228.020E-03    -545.345E-06     458.041E-03     35.1467E+06    -69.1236E+06    -90.1258E+06    -109.016E+06    -90.5995E+06    -108.542E+06    -69.1236E+06     2.54521E+06
             543     61.3916E-03     2.38931E-03     61.3451E-03     456.003E-03    -227.908E-03    -228.095E-03    -228.071E-03     456.003E-03    -227.931E-03    -1.15361E-03     457.209E-03     40.5633E+06    -82.7910E+06    -95.1630E+06    -127.816E+06    -95.3276E+06    -127.651E+06    -82.7910E+06     2.19834E+06
             544     61.3660E-03     1.59336E-03     61.3453E-03     455.758E-03    -227.812E-03    -227.945E-03    -227.933E-03     455.757E-03    -227.824E-03    -1.25443E-03     456.331E-03     45.7002E+06    -93.6409E+06    -98.2448E+06    -141.364E+06    -98.3090E+06    -141.300E+06    -93.6409E+06     1.25476E+06
             545     61.3526E-03     796.668E-06     61.3474E-03     455.549E-03    -227.473E-03    -228.076E-03    -227.733E-03     455.548E-03    -227.815E-03    -443.414E-06     455.736E-03     53.3926E+06    -99.1485E+06    -100.429E+06    -153.169E+06    -100.226E+06    -153.152E+06    -99.3692E+06     213.058E+03
             546     61.7784E-03     13.5449E-03     60.2752E-03     457.553E-03    -228.413E-03    -229.140E-03    -227.579E-03     456.030E-03    -228.451E-03     64.4360E-03     482.828E-03     107.736E+06     116.756E+06     60.8726E+06    -7.42905E+06    -7.41462E+06     60.8582E+06     116.756E+06     842.145E+03
             547     61.5017E-03     12.7480E-03     60.1660E-03     457.597E-03    -228.339E-03    -229.258E-03    -227.932E-03     456.271E-03    -228.339E-03     59.5217E-03     483.191E-03     85.8734E+06     84.7615E+06     39.8247E+06    -14.2435E+06    -14.2188E+06     39.8000E+06     84.7615E+06     1.08251E+06
             548     61.2649E-03     11.9509E-03     60.0880E-03     456.903E-03    -228.244E-03    -228.659E-03    -227.838E-03     456.082E-03    -228.244E-03     47.3519E-03     477.342E-03     71.7753E+06     62.4464E+06     21.8937E+06    -20.4011E+06    -20.3764E+06     21.8690E+06     62.4464E+06     971.369E+03
             549     61.0434E-03     11.1523E-03     60.0160E-03     456.810E-03    -228.174E-03    -228.637E-03    -228.020E-03     456.194E-03    -228.174E-03     40.8876E-03     475.013E-03     66.3898E+06     50.8328E+06     11.2514E+06    -25.8116E+06    -25.7750E+06     11.2148E+06     50.8328E+06     1.11894E+06
             550     60.8472E-03     10.3570E-03     59.9592E-03     456.432E-03    -227.933E-03    -228.498E-03    -227.901E-03     456.010E-03    -228.109E-03     33.8492E-03     472.073E-03     64.4405E+06     43.2801E+06     5.49379E+06    -31.1159E+06    -31.0503E+06     5.42817E+06     43.2801E+06     1.49610E+06
             551     60.6685E-03     9.56025E-03     59.9105E-03     455.654E-03    -227.470E-03    -228.183E-03    -227.296E-03     455.366E-03    -228.070E-03     27.8549E-03     469.215E-03     63.1223E+06     36.2029E+06     2.15052E+06    -36.5975E+06    -36.5094E+06     2.06245E+06     36.2029E+06     1.81508E+06
             552     60.5056E-03     8.76272E-03     59.8677E-03     455.325E-03    -227.256E-03    -228.069E-03    -227.074E-03     455.143E-03    -228.069E-03     22.1301E-03     467.063E-03     62.0497E+06     28.7452E+06    -933.529E+03    -42.5368E+06    -42.4451E+06    -1.02529E+06     28.7452E+06     1.91566E+06
             553     60.3644E-03     7.96590E-03     59.8365E-03     455.341E-03    -227.258E-03    -228.082E-03    -227.148E-03     455.230E-03    -228.082E-03     17.2021E-03     465.379E-03     60.8220E+06     20.2563E+06    -5.64236E+06    -49.1997E+06    -49.0726E+06    -5.76943E+06     20.2563E+06     2.31121E+06
             554     60.2387E-03     7.16850E-03     59.8107E-03     455.348E-03    -227.257E-03    -228.091E-03    -227.195E-03     455.286E-03    -228.091E-03     12.8567E-03     463.782E-03     58.1106E+06     9.45921E+06    -12.3371E+06    -56.3721E+06    -56.1897E+06    -12.5195E+06     9.45921E+06     2.82403E+06
             555     60.1312E-03     6.37181E-03     59.7926E-03     455.424E-03    -227.334E-03    -228.090E-03    -227.304E-03     455.394E-03    -228.090E-03     8.75639E-03     462.367E-03     53.5681E+06    -3.93484E+06    -20.3458E+06    -63.7486E+06    -63.5114E+06    -20.5831E+06    -3.93484E+06     3.18636E+06
             556     60.0386E-03     5.57527E-03     59.7791E-03     455.471E-03    -227.389E-03    -228.082E-03    -227.378E-03     455.460E-03    -228.082E-03     5.34074E-03     461.016E-03     46.2066E+06    -20.1171E+06    -33.1159E+06    -71.4069E+06    -71.0782E+06    -33.4446E+06    -20.1171E+06     3.48924E+06
             557     59.9623E-03     4.77857E-03     59.7716E-03     455.616E-03    -227.534E-03    -228.082E-03    -227.531E-03     455.613E-03    -228.082E-03     2.45196E-03     459.860E-03     36.8839E+06    -37.2387E+06    -55.7329E+06    -78.6985E+06    -78.1986E+06    -56.2329E+06    -37.2387E+06     3.11058E+06
             558     59.8998E-03     3.98156E-03     59.7673E-03     455.793E-03    -227.712E-03    -228.081E-03    -227.712E-03     455.793E-03    -228.081E-03     249.233E-06     458.865E-03     31.4544E+06    -53.6061E+06    -78.3584E+06    -88.9631E+06    -84.6319E+06    -82.6895E+06    -53.6061E+06     2.61233E+06
             559     59.8507E-03     3.18520E-03     59.7659E-03     455.956E-03    -227.831E-03    -228.126E-03    -227.899E-03     455.956E-03    -228.057E-03    -1.00101E-03     458.005E-03     33.7117E+06    -69.2032E+06    -89.8395E+06    -107.299E+06    -90.3613E+06    -106.777E+06    -69.2032E+06     2.15955E+06
             560     59.8142E-03     2.38925E-03     59.7664E-03     456.017E-03    -227.883E-03    -228.135E-03    -228.009E-03     456.017E-03    -228.008E-03    -1.29481E-03     457.216E-03     39.0532E+06    -82.1772E+06    -94.6361E+06    -125.712E+06    -94.7308E+06    -125.618E+06    -82.1772E+06     1.39578E+06
             561     59.7898E-03     1.59274E-03     59.7686E-03     455.920E-03    -227.883E-03    -228.037E-03    -227.971E-03     455.919E-03    -227.948E-03    -1.16723E-03     456.496E-03     44.1964E+06    -91.7916E+06    -97.7070E+06    -138.533E+06    -97.7451E+06    -138.494E+06    -91.7916E+06     1.18813E+06
             562     59.7754E-03     796.341E-06     59.7701E-03     455.823E-03    -227.723E-03    -228.101E-03    -227.753E-03     455.823E-03    -228.070E-03    -716.206E-06     456.013E-03     51.8097E+06    -98.0356E+06    -100.411E+06    -150.977E+06    -99.9600E+06    -150.935E+06    -98.5284E+06     949.594E+03
             563     60.2390E-03     13.5448E-03     58.6965E-03     457.788E-03    -228.411E-03    -229.377E-03    -227.828E-03     456.272E-03    -228.445E-03     64.3306E-03     483.007E-03     107.286E+06     116.410E+06     59.7948E+06    -7.31056E+06    -7.29832E+06     59.7825E+06     116.410E+06     734.420E+03
             564     59.9587E-03     12.7473E-03     58.5879E-03     457.596E-03    -228.324E-03    -229.272E-03    -227.959E-03     456.283E-03    -228.324E-03     59.3104E-03     483.074E-03     85.4719E+06     84.7653E+06     40.0226E+06    -13.7794E+06    -13.7521E+06     39.9952E+06     84.7653E+06     1.11621E+06
             565     59.7176E-03     11.9502E-03     58.5097E-03     456.837E-03    -228.229E-03    -228.608E-03    -227.785E-03     456.014E-03    -228.229E-03     47.3888E-03     477.209E-03     71.1769E+06     62.5837E+06     22.2033E+06    -19.5657E+06    -19.5306E+06     22.1682E+06     62.5837E+06     1.18942E+06
             566     59.4942E-03     11.1544E-03     58.4392E-03     456.535E-03    -228.116E-03    -228.419E-03    -227.759E-03     455.929E-03    -228.170E-03     40.5324E-03     474.827E-03     65.7277E+06     50.8447E+06     11.0941E+06    -25.0184E+06    -24.9814E+06     11.0570E+06     50.8447E+06     1.12727E+06
             567     59.2913E-03     10.3562E-03     58.3799E-03     456.251E-03    -227.977E-03    -228.274E-03    -227.720E-03     455.840E-03    -228.120E-03     33.3569E-03     472.015E-03     63.7141E+06     43.0725E+06     5.12889E+06    -30.4747E+06    -30.4399E+06     5.09405E+06     43.0725E+06     1.04896E+06
             568     59.1108E-03     9.56015E-03     58.3326E-03     455.852E-03    -227.657E-03    -228.194E-03    -227.486E-03     455.567E-03    -228.081E-03     27.7750E-03     469.502E-03     62.2959E+06     35.9559E+06     1.95931E+06    -35.9046E+06    -35.8636E+06     1.91837E+06     35.9559E+06     1.19242E+06
             569     58.9473E-03     8.76310E-03     58.2923E-03     455.279E-03    -227.202E-03    -228.077E-03    -227.010E-03     455.087E-03    -228.077E-03     22.7294E-03     467.022E-03     61.2282E+06     28.3672E+06    -1.49759E+06    -42.0426E+06    -41.9630E+06    -1.57715E+06     28.3672E+06     1.76264E+06
             570     58.8007E-03     7.96534E-03     58.2587E-03     455.259E-03    -227.157E-03    -228.102E-03    -227.042E-03     455.144E-03    -228.102E-03     17.5240E-03     465.274E-03     60.1430E+06     20.0654E+06    -6.48062E+06    -48.7686E+06    -48.6335E+06    -6.61567E+06     20.0654E+06     2.37546E+06
             571     58.6738E-03     7.16875E-03     58.2342E-03     455.437E-03    -227.319E-03    -228.117E-03    -227.257E-03     455.374E-03    -228.117E-03     12.8782E-03     463.851E-03     57.7472E+06     9.83405E+06    -12.6313E+06    -55.7440E+06    -55.5328E+06    -12.8425E+06     9.83405E+06     2.97468E+06
             572     58.5618E-03     6.37182E-03     58.2141E-03     455.506E-03    -227.393E-03    -228.114E-03    -227.363E-03     455.476E-03    -228.114E-03     8.83269E-03     462.434E-03     53.5895E+06    -3.24225E+06    -20.3139E+06    -63.2494E+06    -62.9551E+06    -20.6082E+06    -3.24225E+06     3.52127E+06
             573     58.4689E-03     5.57493E-03     58.2025E-03     455.632E-03    -227.539E-03    -228.093E-03    -227.528E-03     455.621E-03    -228.093E-03     5.32733E-03     461.165E-03     46.8321E+06    -18.9273E+06    -31.5521E+06    -70.7748E+06    -70.4307E+06    -31.8962E+06    -18.9273E+06     3.63600E+06
             574     58.3889E-03     4.77823E-03     58.1931E-03     455.775E-03    -227.710E-03    -228.065E-03    -227.707E-03     455.772E-03    -228.065E-03     2.40048E-03     460.008E-03     37.2709E+06    -36.0336E+06     -53.277E+06    -77.7643E+06    -77.3238E+06    -53.7175E+06    -36.0336E+06     3.05637E+06
             575     58.3258E-03     3.98251E-03     58.1897E-03     455.820E-03    -227.787E-03    -228.033E-03    -227.786E-03     455.819E-03    -228.033E-03     160.358E-06     458.879E-03     30.6956E+06    -53.0559E+06    -77.0964E+06    -87.5408E+06    -83.7368E+06    -80.9003E+06    -53.0559E+06     2.30555E+06
             576     58.2753E-03     3.18587E-03     58.1882E-03     455.763E-03    -227.750E-03    -228.012E-03    -227.750E-03     455.762E-03    -228.012E-03    -1.09624E-03     457.802E-03     32.7216E+06    -68.1430E+06    -88.9064E+06    -105.061E+06    -89.3242E+06    -104.643E+06    -68.1430E+06     1.76693E+06
             577     58.2381E-03     2.38881E-03     58.1891E-03     455.831E-03    -227.810E-03    -228.021E-03    -227.824E-03     455.830E-03    -228.006E-03    -1.77765E-03     457.030E-03     37.9503E+06    -81.3877E+06    -93.8622E+06    -123.678E+06    -93.9448E+06    -123.595E+06    -81.3877E+06     1.32769E+06
             578     58.2123E-03     1.59246E-03     58.1906E-03     455.978E-03    -227.917E-03    -228.061E-03    -228.006E-03     455.977E-03    -227.971E-03    -1.83014E-03     456.551E-03     42.9193E+06    -92.0188E+06    -97.5296E+06    -137.316E+06    -97.5659E+06    -137.280E+06    -92.0188E+06     755.797E+03
             579     58.1975E-03     796.442E-06     58.1921E-03     455.873E-03    -227.808E-03    -228.065E-03    -228.060E-03     455.872E-03    -227.812E-03    -1.45417E-03     456.062E-03     50.4748E+06    -96.8999E+06    -99.7674E+06    -148.733E+06    -99.3054E+06    -148.702E+06    -97.3927E+06     541.568E+03
             580     58.7010E-03     13.5457E-03     57.1167E-03     457.995E-03    -228.430E-03    -229.565E-03    -228.030E-03     456.460E-03    -228.430E-03     64.8169E-03     483.404E-03     106.885E+06     115.865E+06     58.8413E+06    -7.41801E+06    -7.41360E+06     58.8369E+06     115.865E+06     524.116E+03
             581     58.4201E-03     12.7485E-03     57.0121E-03     457.521E-03    -228.303E-03    -229.218E-03    -227.916E-03     456.219E-03    -228.303E-03     59.0948E-03     483.420E-03     85.1505E+06     84.0043E+06     39.4035E+06    -14.1748E+06    -14.1653E+06     39.3941E+06     84.0043E+06     628.387E+03
             582     58.1716E-03     11.9509E-03     56.9308E-03     456.620E-03    -228.095E-03    -228.525E-03    -227.574E-03     455.790E-03    -228.217E-03     47.5847E-03     477.239E-03     70.8599E+06     62.3208E+06     22.1400E+06    -19.4575E+06    -19.4326E+06     22.1151E+06     62.3208E+06     943.639E+03
             583     57.9447E-03     11.1532E-03     56.8611E-03     456.301E-03    -227.943E-03    -228.358E-03    -227.503E-03     455.677E-03    -228.175E-03     41.1174E-03     474.645E-03     65.2207E+06     50.8114E+06     11.3004E+06    -24.4657E+06    -24.4248E+06     11.2595E+06     50.8114E+06     1.18306E+06
             584     57.7398E-03     10.3571E-03     56.8033E-03     455.917E-03    -227.766E-03    -228.151E-03    -227.335E-03     455.486E-03    -228.151E-03     34.1985E-03     471.730E-03     63.0725E+06     42.6502E+06     5.29673E+06    -30.1552E+06    -30.1031E+06     5.24462E+06     42.6502E+06     1.26507E+06
             585     57.5537E-03     9.55914E-03     56.7543E-03     455.828E-03    -227.693E-03    -228.136E-03    -227.399E-03     455.535E-03    -228.136E-03     28.1571E-03     469.568E-03     61.8463E+06     35.2578E+06     1.42933E+06    -36.1005E+06    -36.0515E+06     1.38038E+06     35.2578E+06     1.25724E+06
             586     57.3887E-03     8.76225E-03     56.7158E-03     455.796E-03    -227.677E-03    -228.119E-03    -227.486E-03     455.605E-03    -228.119E-03     22.7077E-03     467.635E-03     60.9749E+06     27.8194E+06    -2.34217E+06    -42.3324E+06    -42.2607E+06    -2.41381E+06     27.8194E+06     1.65553E+06
             587     57.2388E-03     7.96543E-03     56.6819E-03     455.555E-03    -227.446E-03    -228.110E-03    -227.332E-03     455.442E-03    -228.110E-03     17.3909E-03     465.601E-03     59.9151E+06     19.5028E+06    -6.89991E+06    -49.0553E+06    -48.9298E+06    -7.02547E+06     19.5028E+06     2.28747E+06
             588     57.1077E-03     7.16830E-03     56.6560E-03     455.447E-03    -227.338E-03    -228.110E-03    -227.279E-03     455.388E-03    -228.110E-03     12.4864E-03     463.883E-03     57.6888E+06     9.45083E+06    -12.8989E+06    -56.0507E+06    -55.8627E+06    -13.0870E+06     9.45083E+06     2.78453E+06
             589     56.9947E-03     6.37149E-03     56.6375E-03     455.544E-03    -227.440E-03    -228.104E-03    -227.412E-03     455.516E-03    -228.104E-03     8.51634E-03     462.475E-03     53.8024E+06    -2.58218E+06    -20.2131E+06    -62.9613E+06    -62.7252E+06    -20.4491E+06    -2.58218E+06     3.08728E+06
             590     56.8973E-03     5.57510E-03     56.6235E-03     455.659E-03    -227.585E-03    -228.074E-03    -227.575E-03     455.649E-03    -228.074E-03     5.05333E-03     461.184E-03     47.1458E+06    -17.6336E+06    -30.0580E+06    -69.7208E+06    -69.4792E+06    -30.2996E+06    -17.6336E+06     3.03794E+06
             591     56.8170E-03     4.77905E-03     56.6157E-03     455.666E-03    -227.622E-03    -228.044E-03    -227.619E-03     455.663E-03    -228.044E-03     2.40779E-03     459.895E-03     37.4131E+06    -35.2093E+06    -51.2761E+06    -76.9659E+06    -76.5772E+06    -51.6647E+06    -35.2093E+06     2.83123E+06
             592     56.7513E-03     3.98184E-03     56.6114E-03     455.755E-03    -227.734E-03    -228.021E-03    -227.734E-03     455.755E-03    -228.021E-03     448.680E-06     458.812E-03     30.3326E+06    -52.2389E+06    -75.5291E+06    -86.3809E+06    -82.9683E+06    -78.9417E+06    -52.2389E+06     2.48281E+06
             593     56.7006E-03     3.18564E-03     56.6111E-03     455.891E-03    -227.833E-03    -228.058E-03    -227.912E-03     455.890E-03    -227.978E-03    -952.372E-06     457.925E-03     31.4851E+06    -67.7387E+06    -88.0923E+06    -103.255E+06    -88.7196E+06    -102.628E+06    -67.7387E+06     1.95744E+06
             594     56.6618E-03     2.38963E-03     56.6114E-03     455.855E-03    -227.841E-03    -228.015E-03    -227.942E-03     455.854E-03    -227.912E-03    -1.78507E-03     457.050E-03     36.5092E+06    -81.0465E+06    -93.4291E+06    -121.814E+06    -93.5206E+06    -121.722E+06    -81.0465E+06     1.40385E+06
             595     56.6353E-03     1.59331E-03     56.6129E-03     455.689E-03    -227.766E-03    -227.922E-03    -227.832E-03     455.687E-03    -227.856E-03    -1.85112E-03     456.259E-03     41.3669E+06    -91.9657E+06    -96.7806E+06    -135.364E+06    -96.8311E+06    -135.314E+06    -91.9657E+06     921.336E+03
             596     56.6204E-03     796.660E-06     56.6148E-03     455.673E-03    -227.651E-03    -228.022E-03    -227.932E-03     455.672E-03    -227.740E-03    -1.21157E-03     455.860E-03     48.7098E+06    -97.8466E+06    -100.021E+06    -147.602E+06    -99.4568E+06    -147.571E+06    -98.4425E+06    -47.5631E+03
             597     57.1677E-03     13.5449E-03     55.5399E-03     457.859E-03    -228.423E-03    -229.436E-03    -227.913E-03     456.335E-03    -228.423E-03     64.5256E-03     483.071E-03     106.518E+06     115.770E+06     58.1717E+06    -7.12456E+06    -7.11942E+06     58.1666E+06     115.770E+06     510.344E+03
             598     56.8788E-03     12.7478E-03     55.4318E-03     457.446E-03    -228.304E-03    -229.142E-03    -227.817E-03     456.121E-03    -228.304E-03     59.6207E-03     483.145E-03     84.8899E+06     84.3482E+06     39.4728E+06    -13.5561E+06    -13.5452E+06     39.4619E+06     84.3482E+06     694.128E+03
             599     56.6311E-03     11.9510E-03     55.3557E-03     456.644E-03    -228.097E-03    -228.547E-03    -227.592E-03     455.811E-03    -228.219E-03     47.6445E-03     477.093E-03     70.4864E+06     61.8159E+06     21.9454E+06    -19.5388E+06    -19.5200E+06     21.9266E+06     61.8159E+06     847.973E+03
             600     56.3970E-03     11.1532E-03     55.2831E-03     455.945E-03    -227.709E-03    -228.236E-03    -227.150E-03     455.337E-03    -228.187E-03     40.5538E-03     474.149E-03     64.6574E+06     49.7020E+06     10.8698E+06    -24.9362E+06    -24.9101E+06     10.8437E+06     49.7020E+06     951.114E+03
             601     56.1887E-03     10.3550E-03     55.2263E-03     455.753E-03    -227.567E-03    -228.185E-03    -227.149E-03     455.334E-03    -228.185E-03     33.6398E-03     471.565E-03     62.4287E+06     42.0099E+06     5.36787E+06    -30.0589E+06    -30.0083E+06     5.31731E+06     42.0099E+06     1.27905E+06
             602     55.9991E-03     9.55833E-03     55.1774E-03     455.966E-03    -227.791E-03    -228.176E-03    -227.507E-03     455.682E-03    -228.176E-03     27.6903E-03     469.696E-03     61.2758E+06     34.6644E+06     1.40590E+06    -36.0278E+06    -35.9552E+06     1.33328E+06     34.6644E+06     1.59667E+06
             603     55.8283E-03     8.76192E-03     55.1364E-03     456.134E-03    -227.987E-03    -228.146E-03    -227.805E-03     455.951E-03    -228.146E-03     22.1992E-03     468.000E-03     60.8248E+06     27.7601E+06    -2.69580E+06    -42.2655E+06    -42.1899E+06    -2.77140E+06     27.7601E+06     1.68691E+06
             604     55.6772E-03     7.96592E-03     55.1044E-03     455.948E-03    -227.842E-03    -228.106E-03    -227.732E-03     455.838E-03    -228.106E-03     17.1458E-03     466.048E-03     59.9497E+06     20.3686E+06    -7.28022E+06    -48.3904E+06    -48.3079E+06    -7.36270E+06     20.3686E+06     1.79119E+06
             605     55.5436E-03     7.16915E-03     55.0790E-03     455.650E-03    -227.580E-03    -228.070E-03    -227.522E-03     455.592E-03    -228.070E-03     12.3744E-03     464.115E-03     57.6177E+06     10.5703E+06    -12.7890E+06    -55.0160E+06    -54.9103E+06    -12.8948E+06     10.5703E+06     2.07161E+06
             606     55.4270E-03     6.37243E-03     55.0595E-03     455.508E-03    -227.470E-03    -228.038E-03    -227.444E-03     455.482E-03    -228.038E-03     8.26779E-03     462.454E-03     53.3850E+06    -2.29293E+06    -19.9516E+06    -62.2274E+06    -62.0850E+06    -20.0940E+06    -2.29293E+06     2.43976E+06
             607     55.3275E-03     5.57564E-03     55.0459E-03     455.399E-03    -227.392E-03    -228.006E-03    -227.383E-03     455.389E-03    -228.006E-03     4.85481E-03     460.926E-03     46.7140E+06    -18.4796E+06    -29.6438E+06    -69.7111E+06    -69.5261E+06    -29.8288E+06    -18.4796E+06     2.70273E+06
             608     55.2452E-03     4.77834E-03     55.0382E-03     455.460E-03    -227.465E-03    -227.996E-03    -227.463E-03     455.458E-03    -227.996E-03     2.06219E-03     459.687E-03     37.3666E+06    -35.4835E+06    -49.9121E+06    -76.9354E+06    -76.5993E+06    -50.2483E+06    -35.4835E+06     2.73571E+06
             609     55.1779E-03     3.98222E-03     55.0340E-03     455.620E-03    -227.627E-03    -227.992E-03    -227.627E-03     455.620E-03    -227.992E-03     61.3214E-06     458.676E-03     29.9876E+06    -51.6744E+06    -74.5251E+06    -85.2645E+06    -82.8315E+06    -76.9581E+06    -51.6744E+06     2.55368E+06
             610     55.1247E-03     3.18568E-03     55.0325E-03     455.753E-03    -227.702E-03    -228.052E-03    -227.781E-03     455.753E-03    -227.972E-03    -1.04466E-03     457.785E-03     30.3448E+06    -66.9815E+06    -87.3506E+06    -100.956E+06    -88.1123E+06    -100.195E+06    -66.9815E+06     2.02818E+06
             611     55.0855E-03     2.38946E-03     55.0337E-03     455.760E-03    -227.724E-03    -228.036E-03    -227.811E-03     455.760E-03    -227.949E-03    -1.33339E-03     456.954E-03     35.1094E+06    -80.6968E+06    -93.0832E+06    -120.012E+06    -93.1695E+06    -119.926E+06    -80.6968E+06     1.29367E+06
             612     55.0591E-03     1.59289E-03     55.0361E-03     455.743E-03    -227.775E-03    -227.968E-03    -227.783E-03     455.743E-03    -227.960E-03    -1.26439E-03     456.320E-03     39.9094E+06    -91.2400E+06    -97.1818E+06    -133.661E+06    -97.2260E+06    -133.617E+06    -91.2400E+06     1.10372E+06
             613     55.0441E-03     796.030E-06     55.0383E-03     455.950E-03    -227.809E-03    -228.141E-03    -228.051E-03     455.949E-03    -227.898E-03    -850.450E-06     456.138E-03     47.1706E+06    -96.8356E+06    -99.2180E+06    -145.126E+06    -98.4727E+06    -145.079E+06    -97.6278E+06     829.120E+03
             614     55.6372E-03     13.5466E-03     53.9628E-03     457.740E-03    -228.418E-03    -229.322E-03    -227.829E-03     456.248E-03    -228.418E-03     63.8158E-03     482.805E-03     106.181E+06     115.401E+06     57.4817E+06    -7.12555E+06    -7.12217E+06     57.4783E+06     115.401E+06     249.195E+03
             615     55.3445E-03     12.7474E-03     53.8564E-03     457.102E-03    -228.221E-03    -228.881E-03    -227.459E-03     455.771E-03    -228.312E-03     59.7489E-03     482.531E-03     84.5328E+06     83.9344E+06     38.9436E+06    -13.5759E+06    -13.5607E+06     38.9284E+06     83.9344E+06     822.626E+03
             616     55.0861E-03     11.9503E-03     53.7743E-03     456.690E-03    -228.148E-03    -228.542E-03    -227.617E-03     455.857E-03    -228.240E-03     47.6233E-03     476.952E-03     70.0733E+06     61.6587E+06     22.0416E+06    -19.2223E+06    -19.1935E+06     22.0128E+06     61.6587E+06     1.07722E+06
             617     54.8551E-03     11.1539E-03     53.7092E-03     456.374E-03    -227.892E-03    -228.482E-03    -227.578E-03     455.771E-03    -228.193E-03     40.4576E-03     474.432E-03     64.3454E+06     49.4954E+06     11.0298E+06    -24.7874E+06    -24.7513E+06     10.9937E+06     49.4954E+06     1.11244E+06
             618     54.6387E-03     10.3563E-03     53.6483E-03     456.075E-03    -227.739E-03    -228.335E-03    -227.506E-03     455.669E-03    -228.162E-03     33.1102E-03     471.749E-03     62.2719E+06     41.7669E+06     5.17659E+06    -30.1257E+06    -30.0843E+06     5.13526E+06     41.7669E+06     1.18568E+06
             619     54.4456E-03     9.55929E-03     53.5998E-03     456.010E-03    -227.879E-03    -228.131E-03    -227.615E-03     455.747E-03    -228.131E-03     26.7092E-03     469.670E-03     61.0369E+06     34.7066E+06     1.33380E+06    -35.7162E+06    -35.6612E+06     1.27881E+06     34.7066E+06     1.36965E+06
             620     54.2703E-03     8.76219E-03     53.5582E-03     455.867E-03    -227.767E-03    -228.100E-03    -227.599E-03     455.698E-03    -228.100E-03     21.2939E-03     467.700E-03     60.2103E+06     27.6295E+06    -2.40399E+06    -41.6705E+06    -41.6171E+06    -2.45744E+06     27.6295E+06     1.38247E+06
             621     54.1154E-03     7.96524E-03     53.5260E-03     455.817E-03    -227.749E-03    -228.068E-03    -227.648E-03     455.716E-03    -228.068E-03     16.5115E-03     465.931E-03     59.1997E+06     20.1078E+06    -7.12896E+06    -47.7913E+06    -47.7520E+06    -7.16832E+06     20.1078E+06     1.26023E+06
             622     53.9790E-03     7.16922E-03     53.5008E-03     455.771E-03    -227.748E-03    -228.024E-03    -227.690E-03     455.713E-03    -228.024E-03     12.3925E-03     464.259E-03     57.1076E+06     10.4319E+06    -13.2553E+06    -54.6775E+06    -54.6147E+06    -13.3181E+06     10.4319E+06     1.56316E+06
             623     53.8603E-03     6.37282E-03     53.4819E-03     455.536E-03    -227.564E-03    -227.972E-03    -227.537E-03     455.509E-03    -227.972E-03     8.39496E-03     462.500E-03     53.2800E+06    -1.98292E+06    -20.2656E+06    -61.9495E+06    -61.8145E+06    -20.4006E+06    -1.98292E+06     2.31367E+06
             624     53.7591E-03     5.57590E-03     53.4691E-03     455.336E-03    -227.412E-03    -227.923E-03    -227.403E-03     455.327E-03    -227.923E-03     4.72783E-03     460.876E-03     46.8904E+06    -17.7942E+06    -29.0546E+06    -69.2128E+06    -69.0162E+06    -29.2513E+06    -17.7942E+06     2.79870E+06
             625     53.6737E-03     4.77965E-03     53.4604E-03     455.304E-03    -227.405E-03    -227.899E-03    -227.403E-03     455.302E-03    -227.899E-03     1.82368E-03     459.537E-03     37.2183E+06    -34.9987E+06    -48.4298E+06    -76.2404E+06    -75.9789E+06    -48.6913E+06    -34.9987E+06     2.53695E+06
             626     53.6048E-03     3.98267E-03     53.4567E-03     455.321E-03    -227.418E-03    -227.903E-03    -227.418E-03     455.321E-03    -227.903E-03    -37.4276E-06     458.378E-03     29.0613E+06    -51.5349E+06    -73.6260E+06    -83.8028E+06    -82.3966E+06    -75.0323E+06    -51.5349E+06     1.88114E+06
             627     53.5503E-03     3.18590E-03     53.4554E-03     455.366E-03    -227.428E-03    -227.938E-03    -227.427E-03     455.365E-03    -227.938E-03    -1.18765E-03     457.399E-03     29.5553E+06    -66.4127E+06    -87.5925E+06    -99.2612E+06    -88.1956E+06    -98.6581E+06    -66.4127E+06     1.65368E+06
             628     53.5099E-03     2.38869E-03     53.4566E-03     455.601E-03    -227.605E-03    -227.996E-03    -227.603E-03     455.599E-03    -227.996E-03    -1.86676E-03     456.798E-03     34.1073E+06    -79.8033E+06    -92.6940E+06    -118.080E+06    -92.8187E+06    -117.955E+06    -79.8033E+06     1.70029E+06
             629     53.4821E-03     1.59211E-03     53.4584E-03     455.932E-03    -227.892E-03    -228.040E-03    -227.891E-03     455.931E-03    -228.040E-03    -1.83466E-03     456.505E-03     38.6469E+06    -90.4822E+06    -95.9307E+06    -131.429E+06    -95.8619E+06    -131.383E+06    -90.5968E+06     1.01856E+06
             630     53.4656E-03     796.511E-06     53.4596E-03     456.102E-03    -227.840E-03    -228.262E-03    -228.022E-03     456.102E-03    -228.080E-03    -921.222E-06     456.290E-03     45.8835E+06    -96.1195E+06    -98.3217E+06    -143.034E+06    -98.0454E+06    -142.999E+06    -96.4304E+06     253.943E+03
             631     54.1086E-03     13.5446E-03     52.3859E-03     457.945E-03    -228.277E-03    -229.668E-03    -227.959E-03     456.410E-03    -228.451E-03     64.7013E-03     483.198E-03     105.605E+06     114.554E+06     56.7869E+06    -7.31669E+06    -7.31417E+06     56.7844E+06     114.554E+06     67.6833E+03
             632     53.8106E-03     12.7485E-03     52.2786E-03     457.660E-03    -228.239E-03    -229.421E-03    -227.979E-03     456.309E-03    -228.330E-03     60.1132E-03     483.185E-03     84.1652E+06     83.3613E+06     38.2494E+06    -13.7395E+06    -13.7264E+06     38.2363E+06     83.3613E+06     731.966E+03
             633     53.5494E-03     11.9498E-03     52.1990E-03     456.633E-03    -228.154E-03    -228.480E-03    -227.566E-03     455.812E-03    -228.245E-03     47.3114E-03     477.034E-03     69.8486E+06     61.4247E+06     21.9075E+06    -19.2057E+06    -19.1801E+06     21.8820E+06     61.4247E+06     1.00705E+06
             634     53.3078E-03     11.1522E-03     52.1282E-03     456.862E-03    -228.182E-03    -228.679E-03    -228.088E-03     456.271E-03    -228.182E-03     40.0019E-03     475.037E-03     64.2334E+06     49.5932E+06     11.3822E+06    -24.5640E+06    -24.5323E+06     11.3505E+06     49.5932E+06     1.01617E+06
             635     53.0915E-03     10.3569E-03     52.0715E-03     456.614E-03    -228.063E-03    -228.551E-03    -228.107E-03     456.216E-03    -228.109E-03     32.8389E-03     472.226E-03     62.3083E+06     42.1008E+06     5.28181E+06    -29.8352E+06    -29.8024E+06     5.24902E+06     42.1008E+06     1.00322E+06
             636     52.8924E-03     9.56015E-03     52.0212E-03     455.982E-03    -227.887E-03    -228.095E-03    -227.666E-03     455.714E-03    -228.048E-03     26.9045E-03     469.577E-03     61.0731E+06     35.3572E+06     1.45034E+06    -35.1243E+06    -35.0918E+06     1.41784E+06     35.3572E+06     1.04911E+06
             637     52.7149E-03     8.76381E-03     51.9813E-03     455.703E-03    -227.695E-03    -228.008E-03    -227.527E-03     455.535E-03    -228.008E-03     21.2160E-03     467.495E-03     59.9489E+06     27.9386E+06    -2.00676E+06    -41.0547E+06     -41.014E+06    -2.04743E+06     27.9386E+06     1.24024E+06
             638     52.5560E-03     7.96683E-03     51.9486E-03     455.510E-03    -227.535E-03    -227.976E-03    -227.438E-03     455.413E-03    -227.976E-03     16.1210E-03     465.601E-03     58.6593E+06     19.2113E+06    -6.84273E+06    -47.9442E+06    -47.8775E+06    -6.90937E+06     19.2113E+06     1.58060E+06
             639     52.4154E-03     7.16958E-03     51.9227E-03     455.456E-03    -227.512E-03    -227.944E-03    -227.459E-03     455.403E-03    -227.944E-03     11.7778E-03     463.942E-03     56.4344E+06     9.05446E+06    -13.3494E+06    -55.1267E+06    -55.0539E+06    -13.4222E+06     9.05446E+06     1.68647E+06
             640     52.2943E-03     6.37288E-03     51.9045E-03     455.431E-03    -227.527E-03    -227.903E-03    -227.503E-03     455.406E-03    -227.903E-03     7.97967E-03     462.402E-03     53.0533E+06    -2.47521E+06    -20.7154E+06    -62.2172E+06    -62.1413E+06    -20.7912E+06    -2.47521E+06     1.54167E+06
             641     52.1899E-03     5.57675E-03     51.8911E-03     455.275E-03    -227.422E-03    -227.853E-03    -227.413E-03     455.266E-03    -227.853E-03     4.78605E-03     460.821E-03     47.3776E+06    -16.7252E+06    -28.9444E+06    -68.9492E+06    -68.8316E+06    -29.0619E+06    -16.7252E+06     1.90716E+06
             642     52.1036E-03     4.77966E-03     51.8839E-03     455.159E-03    -227.341E-03    -227.818E-03    -227.338E-03     455.157E-03    -227.818E-03     2.13885E-03     459.394E-03     37.4777E+06    -33.8459E+06    -46.7431E+06    -75.5393E+06    -75.3182E+06    -46.9643E+06    -33.8459E+06     2.32086E+06
             643     52.0323E-03     3.98293E-03     51.8796E-03     455.165E-03    -227.352E-03    -227.813E-03    -227.351E-03     455.164E-03    -227.813E-03    -28.7144E-06     458.224E-03     28.6057E+06    -51.4077E+06    -72.0124E+06    -83.2084E+06    -82.0643E+06    -73.1565E+06    -51.4077E+06     2.05177E+06
             644     51.9767E-03     3.18602E-03     51.8790E-03     455.254E-03    -227.422E-03    -227.832E-03    -227.421E-03     455.253E-03    -227.832E-03    -1.40517E-03     457.292E-03     28.2844E+06    -66.8973E+06    -87.1118E+06    -98.3351E+06    -87.9422E+06    -97.5047E+06    -66.8973E+06     1.52800E+06
             645     51.9342E-03     2.38971E-03     51.8792E-03     455.452E-03    -227.591E-03    -227.861E-03    -227.589E-03     455.450E-03    -227.861E-03    -1.98321E-03     456.651E-03     32.5928E+06    -79.3809E+06    -92.1823E+06    -116.153E+06    -92.2555E+06    -116.080E+06    -79.3809E+06     932.545E+03
             646     51.9051E-03     1.59338E-03     51.8806E-03     455.633E-03    -227.751E-03    -227.882E-03    -227.749E-03     455.631E-03    -227.882E-03    -1.87694E-03     456.206E-03     36.9450E+06    -89.9257E+06    -95.8735E+06    -129.320E+06    -95.8003E+06    -129.278E+06    -90.0404E+06     704.794E+03
             647     51.8883E-03     796.163E-06     51.8822E-03     455.771E-03    -227.641E-03    -228.130E-03    -227.862E-03     455.771E-03    -227.909E-03    -1.23925E-03     455.958E-03     44.2891E+06    -95.8253E+06    -98.7303E+06    -141.466E+06    -97.7697E+06    -141.429E+06    -96.8224E+06     311.594E+03
             648     52.5803E-03     13.5434E-03     50.8062E-03     457.869E-03    -228.303E-03    -229.566E-03    -227.881E-03     456.359E-03    -228.477E-03     64.2210E-03     483.087E-03     105.242E+06     113.959E+06     56.5962E+06    -7.48561E+06    -7.48352E+06     56.5942E+06     113.959E+06     145.333E+03
             649     52.2762E-03     12.7466E-03     50.6984E-03     458.182E-03    -228.343E-03    -229.838E-03    -228.540E-03     456.883E-03    -228.343E-03     58.9104E-03     483.579E-03     84.1412E+06     83.1939E+06     38.0295E+06    -13.8798E+06    -13.8734E+06     38.0230E+06     83.1939E+06     326.080E+03
             650     52.0145E-03     11.9511E-03     50.6230E-03     457.209E-03    -228.218E-03    -228.991E-03    -228.187E-03     456.405E-03    -228.218E-03     46.8747E-03     477.502E-03     69.9712E+06     61.2876E+06     21.5357E+06    -19.4887E+06    -19.4777E+06     21.5247E+06     61.2876E+06     509.351E+03
             651     51.7653E-03     11.1545E-03     50.5492E-03     456.798E-03    -228.131E-03    -228.667E-03    -228.073E-03     456.205E-03    -228.131E-03     40.0576E-03     475.004E-03     64.0485E+06     49.4392E+06     11.4227E+06    -24.5067E+06    -24.4972E+06     11.4132E+06     49.4392E+06     563.132E+03
             652     51.5436E-03     10.3575E-03     50.4922E-03     456.540E-03    -228.053E-03    -228.487E-03    -228.098E-03     456.151E-03    -228.053E-03     32.4859E-03     472.242E-03     61.8451E+06     41.6819E+06     5.40454E+06    -29.7205E+06    -29.7068E+06     5.39084E+06     41.6819E+06     664.599E+03
             653     51.3426E-03     9.56093E-03     50.4445E-03     456.027E-03    -227.862E-03    -228.166E-03    -227.778E-03     455.761E-03    -227.983E-03     26.8700E-03     469.642E-03     60.7055E+06     34.7739E+06     1.57092E+06    -35.2610E+06    -35.2264E+06     1.53631E+06     34.7739E+06     1.09209E+06
             654     51.1593E-03     8.76357E-03     50.4031E-03     455.645E-03    -227.712E-03    -227.933E-03    -227.539E-03     455.472E-03    -227.933E-03     21.5889E-03     467.396E-03     59.8974E+06     27.7330E+06     -1.9375E+06    -41.1910E+06    -41.1407E+06    -1.98780E+06     27.7330E+06     1.39952E+06
             655     50.9975E-03     7.96732E-03     50.3713E-03     455.533E-03    -227.640E-03    -227.893E-03    -227.539E-03     455.431E-03    -227.893E-03     16.4825E-03     465.585E-03     58.7933E+06     19.8478E+06    -6.92908E+06    -47.5535E+06    -47.4905E+06    -6.99206E+06     19.8478E+06     1.48893E+06
             656     50.8542E-03     7.17073E-03     50.3461E-03     455.281E-03    -227.429E-03    -227.852E-03    -227.375E-03     455.227E-03    -227.852E-03     11.9074E-03     463.746E-03     56.5045E+06     10.2622E+06    -12.5900E+06    -54.0518E+06    -53.9779E+06    -12.6639E+06     10.2622E+06     1.64849E+06
             657     50.7287E-03     6.37393E-03     50.3266E-03     455.052E-03    -227.233E-03    -227.819E-03    -227.209E-03     455.028E-03    -227.819E-03     7.91897E-03     462.015E-03     52.5470E+06    -2.18260E+06    -19.7172E+06    -61.2220E+06    -61.1582E+06    -19.7811E+06    -2.18260E+06     1.46463E+06
             658     50.6229E-03     5.57654E-03     50.3148E-03     455.007E-03    -227.217E-03    -227.789E-03    -227.208E-03     454.998E-03    -227.789E-03     4.73154E-03     460.556E-03     46.6314E+06    -17.7147E+06    -29.2885E+06    -68.9917E+06    -68.9358E+06    -29.3443E+06    -17.7147E+06     1.29531E+06
             659     50.5330E-03     4.77996E-03     50.3065E-03     455.101E-03    -227.337E-03    -227.764E-03    -227.335E-03     455.099E-03    -227.764E-03     2.08867E-03     459.338E-03     37.6913E+06    -34.3068E+06    -46.6111E+06    -76.2250E+06    -76.0731E+06    -46.7631E+06    -34.3068E+06     1.76376E+06
             660     50.4605E-03     3.98330E-03     50.3030E-03     455.203E-03    -227.467E-03    -227.736E-03    -227.467E-03     455.203E-03    -227.736E-03    -60.1152E-06     458.260E-03     28.6572E+06    -50.9667E+06    -70.4355E+06    -83.0022E+06    -82.0866E+06    -71.3510E+06    -50.9667E+06     2.03172E+06
             661     50.4028E-03     3.18677E-03     50.3020E-03     455.212E-03    -227.505E-03    -227.707E-03    -227.504E-03     455.211E-03    -227.707E-03    -1.34026E-03     457.247E-03     26.8286E+06    -66.5632E+06    -86.1182E+06    -96.5247E+06    -87.5160E+06    -95.1269E+06    -66.5632E+06     1.42959E+06
             662     50.3592E-03     2.38975E-03     50.3025E-03     455.162E-03    -227.457E-03    -227.705E-03    -227.456E-03     455.161E-03    -227.705E-03    -1.73254E-03     456.359E-03     30.8920E+06    -79.8338E+06    -92.5102E+06    -114.700E+06    -92.5800E+06    -114.630E+06    -79.8338E+06     844.127E+03
             663     50.3290E-03     1.59275E-03     50.3038E-03     455.285E-03    -227.546E-03    -227.739E-03    -227.546E-03     455.285E-03    -227.739E-03    -1.50289E-03     455.863E-03     35.6518E+06    -90.1111E+06    -95.9938E+06    -128.178E+06    -96.0508E+06    -128.121E+06    -90.1111E+06     653.105E+03
             664     50.3114E-03     796.809E-06     50.3051E-03     455.513E-03    -227.569E-03    -227.945E-03    -227.790E-03     455.513E-03    -227.723E-03    -769.679E-06     455.705E-03     42.5734E+06    -95.6830E+06    -98.9098E+06    -139.751E+06    -98.0498E+06    -139.728E+06    -96.5655E+06     469.867E+03
             665     51.0583E-03     13.5458E-03     49.2286E-03     458.089E-03    -228.443E-03    -229.646E-03    -228.152E-03     456.595E-03    -228.443E-03     63.9196E-03     483.353E-03     105.258E+06     114.232E+06     56.7042E+06    -7.23179E+06    -7.23022E+06     56.7026E+06     114.232E+06     234.446E+03
             666     50.7475E-03     12.7480E-03     49.1203E-03     457.816E-03    -228.305E-03    -229.511E-03    -228.235E-03     456.540E-03    -228.305E-03     58.4127E-03     483.304E-03     84.0201E+06     82.9740E+06     37.9299E+06    -13.9573E+06    -13.9564E+06     37.9290E+06     82.9740E+06     71.9205E+03
             667     50.4770E-03     11.9509E-03     49.0419E-03     457.293E-03    -228.182E-03    -229.111E-03    -228.313E-03     456.495E-03    -228.182E-03     46.7093E-03     477.614E-03     69.7133E+06     60.9491E+06     21.3718E+06    -19.5293E+06    -19.5280E+06     21.3705E+06     60.9491E+06     59.0032E+03
             668     50.2271E-03     11.1543E-03     48.9729E-03     456.672E-03    -228.092E-03    -228.580E-03    -227.974E-03     456.065E-03    -228.092E-03     40.5839E-03     474.864E-03     63.6254E+06     48.8417E+06     11.1690E+06    -24.6179E+06    -24.6097E+06     11.1608E+06     48.8417E+06     429.698E+03
             669     49.9978E-03     10.3574E-03     48.9132E-03     456.279E-03    -228.023E-03    -228.256E-03    -227.846E-03     455.870E-03    -228.023E-03     33.2875E-03     471.978E-03     61.1491E+06     40.5248E+06     5.19810E+06    -30.0722E+06    -30.0533E+06     5.17916E+06     40.5248E+06     788.782E+03
             670     49.7931E-03     9.56124E-03     48.8665E-03     456.219E-03    -227.895E-03    -228.324E-03    -227.995E-03     455.948E-03    -227.953E-03     27.0647E-03     469.875E-03     60.0794E+06     33.7117E+06     1.58662E+06    -35.5801E+06    -35.5520E+06     1.55860E+06     33.7117E+06     979.105E+03
             671     49.6070E-03     8.76487E-03     48.8266E-03     455.782E-03    -227.717E-03    -228.065E-03    -227.723E-03     455.608E-03    -227.886E-03     21.6408E-03     467.544E-03     59.5754E+06     27.2792E+06    -1.83009E+06    -41.2405E+06    -41.2089E+06    -1.86163E+06     27.2792E+06     1.07050E+06
             672     49.4395E-03     7.96751E-03     48.7932E-03     455.439E-03    -227.604E-03    -227.835E-03    -227.502E-03     455.337E-03    -227.835E-03     16.5085E-03     465.480E-03     58.6100E+06     19.8337E+06    -6.60803E+06    -47.3223E+06    -47.2984E+06    -6.63188E+06     19.8337E+06     965.501E+03
             673     49.2931E-03     7.17109E-03     48.7687E-03     455.213E-03    -227.421E-03    -227.792E-03    -227.366E-03     455.158E-03    -227.792E-03     12.0441E-03     463.660E-03     56.5692E+06     10.3820E+06    -12.5873E+06    -54.0294E+06    -53.9986E+06    -12.6181E+06     10.3820E+06     1.02182E+06
             674     49.1656E-03     6.37396E-03     48.7506E-03     454.975E-03    -227.219E-03    -227.755E-03    -227.194E-03     454.949E-03    -227.755E-03     8.05156E-03     461.917E-03     52.8184E+06    -1.54662E+06    -19.3833E+06    -60.9352E+06    -60.8744E+06    -19.4441E+06    -1.54662E+06     1.47637E+06
             675     49.0559E-03     5.57724E-03     48.7378E-03     454.920E-03    -227.204E-03    -227.716E-03    -227.196E-03     454.911E-03    -227.716E-03     4.54055E-03     460.460E-03     46.5628E+06    -17.1219E+06    -28.3801E+06    -68.2182E+06    -68.1057E+06    -28.4926E+06    -17.1219E+06     1.91441E+06
             676     48.9636E-03     4.78022E-03     48.7297E-03     454.928E-03    -227.244E-03    -227.684E-03    -227.242E-03     454.926E-03    -227.684E-03     1.80801E-03     459.163E-03     37.1443E+06    -34.5872E+06    -46.1283E+06    -75.7572E+06    -75.6502E+06    -46.2353E+06    -34.5872E+06     1.61129E+06
             677     48.8886E-03     3.98343E-03     48.7260E-03     455.001E-03    -227.336E-03    -227.665E-03    -227.336E-03     455.001E-03    -227.665E-03    -15.0694E-06     458.057E-03     28.3538E+06    -50.8206E+06    -69.8619E+06    -82.5199E+06    -82.1878E+06    -70.1940E+06    -50.8206E+06     1.28165E+06
             678     48.8290E-03     3.18678E-03     48.7249E-03     455.127E-03    -227.469E-03    -227.659E-03    -227.493E-03     455.127E-03    -227.634E-03    -1.17603E-03     457.161E-03     26.1142E+06    -66.2165E+06    -85.6923E+06    -95.3914E+06    -87.7617E+06    -93.3220E+06    -66.2165E+06     1.47410E+06
             679     48.7852E-03     2.39032E-03     48.7266E-03     455.132E-03    -227.442E-03    -227.690E-03    -227.545E-03     455.130E-03    -227.586E-03    -1.81611E-03     456.329E-03     29.2204E+06    -80.1572E+06    -92.1702E+06    -113.024E+06    -92.3230E+06    -112.871E+06    -80.1572E+06     959.655E+03
             680     48.7532E-03     1.59355E-03     48.7272E-03     455.066E-03    -227.432E-03    -227.634E-03    -227.519E-03     455.065E-03    -227.546E-03    -1.76983E-03     455.642E-03     34.4336E+06    -90.3084E+06    -95.5969E+06    -126.944E+06    -95.6621E+06    -126.879E+06    -90.3084E+06     409.599E+03
             681     48.7345E-03     796.259E-06     48.7280E-03     455.052E-03    -227.440E-03    -227.611E-03    -227.448E-03     455.050E-03    -227.603E-03    -1.25195E-03     455.240E-03     41.2684E+06    -95.2037E+06    -98.5602E+06    -138.019E+06    -97.5705E+06    -138.005E+06    -96.2067E+06     273.795E+03
             682     49.5379E-03     13.5454E-03     47.6500E-03     458.465E-03    -228.409E-03    -230.056E-03    -228.550E-03     456.959E-03    -228.409E-03     64.2044E-03     483.696E-03     105.366E+06     114.360E+06     56.6118E+06    -7.23494E+06    -7.23391E+06     56.6107E+06     114.360E+06     18.2844E+03
             683     49.2226E-03     12.7486E-03     47.5430E-03     457.702E-03    -228.260E-03    -229.442E-03    -228.142E-03     456.402E-03    -228.260E-03     59.0120E-03     483.116E-03     83.6991E+06     82.9020E+06     38.1829E+06    -13.6546E+06    -13.6522E+06     38.1805E+06     82.9020E+06     211.294E+03
             684     48.9450E-03     11.9515E-03     47.4634E-03     456.802E-03    -228.153E-03    -228.650E-03    -227.845E-03     455.998E-03    -228.153E-03     46.8371E-03     477.121E-03     68.9559E+06     60.3148E+06     21.5423E+06    -19.2827E+06    -19.2773E+06     21.5369E+06     60.3148E+06     317.418E+03
             685     48.6894E-03     11.1547E-03     47.3944E-03     456.556E-03    -228.080E-03    -228.476E-03    -227.879E-03     455.959E-03    -228.080E-03     40.2744E-03     474.787E-03     62.9953E+06     47.9890E+06     10.8547E+06    -24.7451E+06    -24.7340E+06     10.8437E+06     47.9890E+06     519.299E+03
             686     48.4566E-03     10.3576E-03     47.3367E-03     456.263E-03    -228.018E-03    -228.246E-03    -227.836E-03     455.854E-03    -228.018E-03     33.3179E-03     471.961E-03     60.8619E+06     40.2371E+06     5.09140E+06    -30.0287E+06    -30.0154E+06     5.07815E+06     40.2371E+06     642.803E+03
             687     48.2438E-03     9.56043E-03     47.2870E-03     456.212E-03    -227.947E-03    -228.264E-03    -227.994E-03     455.942E-03    -227.947E-03     27.0406E-03     469.868E-03     59.7739E+06     33.5418E+06     1.68895E+06    -35.3889E+06    -35.3793E+06     1.67937E+06     33.5418E+06     561.702E+03
             688     48.0546E-03     8.76451E-03     47.2486E-03     455.981E-03    -227.833E-03    -228.148E-03    -227.939E-03     455.808E-03    -227.869E-03     21.6297E-03     467.781E-03     59.2106E+06     27.0076E+06    -1.50597E+06    -41.0470E+06    -41.0353E+06    -1.51772E+06     27.0076E+06     655.218E+03
             689     47.8843E-03     7.96839E-03     47.2166E-03     455.412E-03    -227.561E-03    -227.851E-03    -227.501E-03     455.307E-03    -227.806E-03     16.7986E-03     465.463E-03     58.4789E+06     19.3543E+06    -6.02520E+06    -47.5110E+06    -47.4879E+06    -6.04828E+06     19.3543E+06     956.197E+03
             690     47.7334E-03     7.17099E-03     47.1916E-03     455.180E-03    -227.421E-03    -227.758E-03    -227.365E-03     455.124E-03    -227.758E-03     12.1236E-03     463.621E-03     56.3064E+06     9.42304E+06    -12.4030E+06    -54.5137E+06    -54.4940E+06    -12.4227E+06     9.42304E+06     872.047E+03
             691     47.6025E-03     6.37453E-03     47.1738E-03     455.160E-03    -227.456E-03    -227.704E-03    -227.431E-03     455.135E-03    -227.704E-03     8.01949E-03     462.098E-03     52.8362E+06    -2.37472E+06    -19.9749E+06    -61.7397E+06    -61.7181E+06    -19.9965E+06    -2.37472E+06     897.912E+03
             692     47.4896E-03     5.57772E-03     47.1609E-03     454.954E-03    -227.317E-03    -227.637E-03    -227.308E-03     454.945E-03    -227.637E-03     4.52309E-03     460.482E-03     47.1846E+06    -16.8865E+06    -28.6126E+06    -68.7689E+06    -68.6810E+06    -28.7005E+06    -16.8865E+06     1.56287E+06
             693     47.3953E-03     4.78099E-03     47.1535E-03     454.746E-03    -227.159E-03    -227.588E-03    -227.157E-03     454.745E-03    -227.588E-03     1.70168E-03     458.976E-03     37.5210E+06    -33.7988E+06    -44.2657E+06    -75.2296E+06    -75.0823E+06    -44.4129E+06    -33.7988E+06     1.84595E+06
             694     47.3177E-03     3.98387E-03     47.1497E-03     454.751E-03    -227.182E-03    -227.569E-03    -227.182E-03     454.751E-03    -227.569E-03    -217.369E-06     457.806E-03     27.9655E+06    -51.2585E+06    -68.6657E+06    -82.2736E+06    -82.0374E+06    -68.9018E+06    -51.2585E+06     1.40147E+06
             695     47.2562E-03     3.18678E-03     47.1486E-03     454.914E-03    -227.337E-03    -227.577E-03    -227.361E-03     454.914E-03    -227.552E-03    -1.42000E-03     456.946E-03     25.0922E+06    -66.4659E+06    -85.8926E+06    -94.3808E+06    -87.8713E+06    -92.4021E+06    -66.4659E+06     1.06027E+06
             696     47.2097E-03     2.39016E-03     47.1491E-03     455.085E-03    -227.431E-03    -227.654E-03    -227.596E-03     455.084E-03    -227.488E-03    -1.82325E-03     456.283E-03     27.9450E+06    -79.3825E+06    -91.8509E+06    -110.844E+06    -92.0586E+06    -110.636E+06    -79.3825E+06     979.728E+03
             697     47.1784E-03     1.59392E-03     47.1515E-03     454.937E-03    -227.356E-03    -227.581E-03    -227.580E-03     454.936E-03    -227.356E-03    -1.64845E-03     455.509E-03     32.8063E+06    -90.5097E+06    -96.1102E+06    -125.597E+06    -95.9967E+06    -125.465E+06    -90.7547E+06     634.935E+03
             698     47.1589E-03     797.563E-06     47.1522E-03     454.547E-03    -227.128E-03    -227.419E-03    -227.381E-03     454.545E-03    -227.164E-03    -1.18241E-03     454.732E-03     39.7187E+06    -96.0320E+06    -99.2560E+06    -137.242E+06    -98.0303E+06    -137.220E+06    -97.2799E+06     49.0096E+03
             699     48.0206E-03     13.5457E-03     46.0705E-03     458.474E-03    -228.416E-03    -230.058E-03    -228.527E-03     456.942E-03    -228.416E-03     64.7684E-03     483.670E-03     104.938E+06     113.821E+06     56.5756E+06    -7.27131E+06    -7.27087E+06     56.5751E+06     113.821E+06    -28.6773E+03
             700     47.6998E-03     12.7489E-03     45.9646E-03     458.064E-03    -228.259E-03    -229.805E-03    -228.495E-03     456.754E-03    -228.259E-03     59.2943E-03     483.422E-03     83.4207E+06     82.5198E+06     38.1955E+06    -13.7042E+06    -13.7000E+06     38.1913E+06     82.5198E+06     318.935E+03
             701     47.4174E-03     11.9516E-03     45.8864E-03     456.993E-03    -228.135E-03    -228.858E-03    -228.049E-03     456.184E-03    -228.135E-03     46.9717E-03     477.290E-03     68.8780E+06     60.2092E+06     21.7119E+06    -19.2945E+06    -19.2860E+06     21.7035E+06     60.2092E+06     563.171E+03
             702     47.1546E-03     11.1540E-03     45.8164E-03     456.646E-03    -228.050E-03    -228.596E-03    -228.016E-03     456.066E-03    -228.050E-03     39.6277E-03     474.863E-03     62.9904E+06     48.1528E+06     11.2045E+06    -24.5778E+06    -24.5709E+06     11.1976E+06     48.1528E+06     469.838E+03
             703     46.9158E-03     10.3579E-03     45.7581E-03     456.238E-03    -227.978E-03    -228.260E-03    -227.872E-03     455.849E-03    -227.978E-03     32.4473E-03     471.964E-03     60.8145E+06     40.4668E+06     5.46469E+06    -29.7446E+06    -29.7411E+06     5.46120E+06     40.4668E+06     308.766E+03
             704     46.6994E-03     9.56155E-03     45.7101E-03     455.842E-03    -227.825E-03    -228.017E-03    -227.666E-03     455.580E-03    -227.914E-03     26.6128E-03     469.509E-03     59.5522E+06     33.2406E+06     1.69096E+06    -35.4218E+06    -35.4172E+06     1.68640E+06     33.2406E+06     356.134E+03
             705     46.5029E-03     8.76445E-03     45.6695E-03     455.706E-03    -227.750E-03    -227.956E-03    -227.684E-03     455.540E-03    -227.856E-03     21.1381E-03     467.519E-03     58.8313E+06     26.3168E+06    -1.67212E+06    -41.2648E+06    -41.2563E+06    -1.68065E+06     26.3168E+06     571.802E+03
             706     46.3302E-03     7.96763E-03     45.6399E-03     455.593E-03    -227.687E-03    -227.906E-03    -227.698E-03     455.493E-03    -227.795E-03     16.3667E-03     465.674E-03     58.2889E+06     19.2083E+06    -5.76947E+06    -47.3934E+06    -47.3777E+06    -5.78515E+06     19.2083E+06     741.795E+03
             707     46.1747E-03     7.17133E-03     45.6144E-03     455.323E-03    -227.531E-03    -227.793E-03    -227.543E-03     455.270E-03    -227.726E-03     11.8888E-03     463.785E-03     56.3671E+06     9.63524E+06    -11.8101E+06    -54.2891E+06    -54.2672E+06    -11.8320E+06     9.63524E+06     894.564E+03
             708     46.0400E-03     6.37454E-03     45.5965E-03     455.105E-03    -227.450E-03    -227.655E-03    -227.426E-03     455.081E-03    -227.655E-03     7.87659E-03     462.056E-03     52.5126E+06    -2.83098E+06    -19.7156E+06    -61.6840E+06    -61.6609E+06    -19.7387E+06    -2.83098E+06     966.620E+03
             709     45.9241E-03     5.57810E-03     45.5840E-03     454.912E-03    -227.333E-03    -227.579E-03    -227.324E-03     454.904E-03    -227.579E-03     4.51861E-03     460.444E-03     46.8393E+06    -17.7689E+06    -29.0548E+06    -69.1738E+06    -69.1535E+06    -29.0750E+06    -17.7689E+06     894.384E+03
             710     45.8275E-03     4.78112E-03     45.5774E-03     454.769E-03    -227.258E-03    -227.511E-03    -227.257E-03     454.768E-03    -227.511E-03     1.81383E-03     458.999E-03     37.9209E+06    -34.4317E+06    -43.9922E+06    -76.1326E+06    -76.0503E+06    -44.0745E+06    -34.4317E+06     1.25175E+06
             711     45.7472E-03     3.98436E-03     45.5734E-03     454.728E-03    -227.271E-03    -227.457E-03    -227.271E-03     454.727E-03    -227.457E-03    -213.870E-06     457.781E-03     27.8336E+06    -51.3278E+06    -66.7915E+06    -82.3075E+06    -82.0846E+06    -67.0144E+06    -51.3278E+06     1.43088E+06
             712     45.6840E-03     3.18772E-03     45.5726E-03     454.657E-03    -227.238E-03    -227.419E-03    -227.237E-03     454.656E-03    -227.419E-03    -1.52207E-03     456.688E-03     24.0633E+06    -66.7027E+06    -85.1731E+06    -93.7122E+06    -87.8553E+06    -91.0300E+06    -66.7027E+06     876.142E+03
             713     45.6358E-03     2.39058E-03     45.5731E-03     454.633E-03    -227.168E-03    -227.465E-03    -227.229E-03     454.632E-03    -227.403E-03    -1.86013E-03     455.827E-03     26.8989E+06    -79.5371E+06    -92.7817E+06    -110.044E+06    -92.9356E+06    -109.890E+06    -79.5371E+06     830.737E+03
             714     45.6023E-03     1.59367E-03     45.5745E-03     454.710E-03    -227.180E-03    -227.530E-03    -227.316E-03     454.709E-03    -227.393E-03    -1.58953E-03     455.279E-03     31.5092E+06    -89.5305E+06    -96.0734E+06    -123.601E+06    -95.9992E+06    -123.430E+06    -89.7755E+06     1.06647E+06
             715     45.5848E-03     796.586E-06     45.5779E-03     454.758E-03    -227.126E-03    -227.633E-03    -227.371E-03     454.758E-03    -227.387E-03    -667.504E-06     454.946E-03     38.1315E+06    -96.0929E+06    -99.1769E+06    -135.627E+06    -98.4045E+06    -135.544E+06    -96.9484E+06     680.697E+03
             716     46.5070E-03     13.5443E-03     44.4911E-03     458.326E-03    -228.429E-03    -229.896E-03    -228.373E-03     456.803E-03    -228.429E-03     64.5805E-03     483.698E-03     104.540E+06     113.396E+06     56.6871E+06    -7.22203E+06    -7.22133E+06     56.6864E+06     113.396E+06     159.877E+03
             717     46.1796E-03     12.7477E-03     44.3852E-03     458.144E-03    -228.277E-03    -229.866E-03    -228.571E-03     456.848E-03    -228.277E-03     58.9633E-03     483.980E-03     83.5362E+06     82.4868E+06     38.2653E+06    -13.8600E+06    -13.8568E+06     38.2622E+06     82.4868E+06     128.389E+03
             718     45.8916E-03     11.9516E-03     44.3080E-03     457.433E-03    -228.139E-03    -229.295E-03    -228.478E-03     456.617E-03    -228.139E-03     47.2396E-03     478.023E-03      69.241E+06     60.4662E+06     21.8178E+06    -19.4578E+06    -19.4540E+06     21.8140E+06     60.4662E+06     187.902E+03
             719     45.6226E-03     11.1563E-03     44.2375E-03     456.961E-03    -228.028E-03    -228.933E-03    -228.331E-03     456.358E-03    -228.028E-03     40.3973E-03     475.246E-03     63.0807E+06     48.5056E+06     11.7799E+06    -24.3316E+06    -24.3292E+06     11.7775E+06     48.5056E+06     278.574E+03
             720     45.3793E-03     10.3590E-03     44.1811E-03     456.374E-03    -227.934E-03    -228.441E-03    -228.043E-03     455.977E-03    -227.934E-03     32.8020E-03     472.156E-03     60.5610E+06     40.3303E+06     5.90832E+06    -29.5848E+06    -29.5772E+06     5.90073E+06     40.3303E+06     406.649E+03
             721     45.1560E-03     9.56175E-03     44.1320E-03     455.746E-03    -227.748E-03    -227.998E-03    -227.624E-03     455.486E-03    -227.862E-03     26.5046E-03     469.446E-03     59.2372E+06     33.0982E+06     2.00076E+06    -35.1915E+06    -35.1820E+06     1.99120E+06     33.0982E+06     495.776E+03
             722     44.9564E-03     8.76483E-03     44.0937E-03     455.473E-03    -227.662E-03    -227.811E-03    -227.499E-03     455.310E-03    -227.811E-03     20.9051E-03     467.302E-03     58.6018E+06     26.0391E+06    -1.74273E+06    -41.2682E+06    -41.2610E+06    -1.74995E+06     26.0391E+06     525.005E+03
             723     44.7755E-03     7.96833E-03     44.0607E-03     455.493E-03    -227.672E-03    -227.821E-03    -227.644E-03     455.398E-03    -227.754E-03     15.9061E-03     465.591E-03     57.9704E+06     18.5563E+06    -6.01499E+06    -47.6358E+06    -47.6280E+06    -6.02282E+06     18.5563E+06     555.248E+03
             724     44.6180E-03     7.17193E-03     44.0378E-03     455.312E-03    -227.563E-03    -227.749E-03    -227.578E-03     455.261E-03    -227.683E-03     11.6487E-03     463.800E-03     56.1808E+06     9.37925E+06    -11.6444E+06    -54.2653E+06    -54.2503E+06    -11.6594E+06     9.37925E+06     744.505E+03
             725     44.4786E-03     6.37515E-03     44.0194E-03     454.971E-03    -227.360E-03    -227.612E-03    -227.337E-03     454.948E-03    -227.611E-03     7.74602E-03     461.933E-03     52.5806E+06    -2.48908E+06    -19.1566E+06    -61.3585E+06    -61.3298E+06    -19.1853E+06    -2.48908E+06     1.06136E+06
             726     44.3599E-03     5.57801E-03     44.0078E-03     454.789E-03    -227.247E-03    -227.541E-03    -227.240E-03     454.781E-03    -227.541E-03     4.37907E-03     460.327E-03     46.6587E+06    -17.6089E+06    -28.4262E+06    -68.6699E+06    -68.6377E+06    -28.4585E+06    -17.6089E+06     1.12752E+06
             727     44.2596E-03     4.78140E-03     44.0006E-03     454.770E-03    -227.303E-03    -227.467E-03    -227.301E-03     454.768E-03    -227.467E-03     1.85364E-03     459.004E-03     37.6298E+06    -34.7973E+06    -43.5826E+06    -75.9637E+06    -75.9313E+06    -43.6150E+06    -34.7973E+06     999.891E+03
             728     44.1773E-03     3.98475E-03     43.9972E-03     454.676E-03    -227.274E-03    -227.401E-03    -227.274E-03     454.675E-03    -227.401E-03     5.30789E-06     457.735E-03     27.8584E+06    -51.4012E+06    -66.0106E+06    -82.5539E+06    -82.4462E+06    -66.1183E+06    -51.4012E+06     1.03542E+06
             729     44.1120E-03     3.18774E-03     43.9967E-03     454.567E-03    -227.217E-03    -227.350E-03    -227.217E-03     454.566E-03    -227.350E-03    -1.13870E-03     456.601E-03     23.1704E+06    -66.8525E+06    -84.4041E+06    -93.0365E+06    -87.9426E+06    -89.4979E+06    -66.8525E+06     998.727E+03
             730     44.0628E-03     2.39093E-03     43.9979E-03     454.450E-03    -227.119E-03    -227.330E-03    -227.118E-03     454.449E-03    -227.330E-03    -1.74649E-03     455.644E-03     25.1325E+06    -80.6144E+06    -92.8116E+06    -108.991E+06    -92.8713E+06    -108.932E+06    -80.6144E+06     392.574E+03
             731     44.0284E-03     1.59338E-03     43.9996E-03     454.487E-03    -227.103E-03    -227.384E-03    -227.101E-03     454.486E-03    -227.384E-03    -1.84320E-03     455.056E-03     30.2806E+06    -90.3057E+06    -96.2280E+06    -122.949E+06    -96.3252E+06    -122.852E+06    -90.3057E+06     106.606E+03
             732     44.0079E-03     796.612E-06     44.0007E-03     454.849E-03    -227.146E-03    -227.704E-03    -227.395E-03     454.848E-03    -227.453E-03    -1.43545E-03     455.037E-03     36.1322E+06    -95.0781E+06    -98.3240E+06    -132.678E+06    -97.8133E+06    -132.578E+06    -95.6887E+06     583.875E+03
             733     45.0010E-03     13.5461E-03     42.9137E-03     458.320E-03    -228.422E-03    -229.898E-03    -228.404E-03     456.826E-03    -228.422E-03     63.9358E-03     483.512E-03     104.695E+06     113.241E+06     56.5412E+06    -7.54920E+06    -7.54830E+06     56.5403E+06     113.241E+06     86.7228E+03
             734     44.6644E-03     12.7482E-03     42.8065E-03     457.749E-03    -228.281E-03    -229.469E-03    -228.174E-03     456.455E-03    -228.281E-03     58.9543E-03     483.485E-03     83.6202E+06     82.4200E+06     38.5485E+06    -14.0030E+06    -14.0021E+06     38.5477E+06     82.4200E+06    -49.2088E+03
             735     44.3683E-03     11.9514E-03     42.7283E-03     457.239E-03    -228.162E-03    -229.078E-03    -228.253E-03     456.414E-03    -228.162E-03     47.4695E-03     477.726E-03     68.9094E+06     60.2206E+06     22.2054E+06    -19.3064E+06    -19.3052E+06     22.2042E+06     60.2206E+06    -6.69362E+03
             736     44.0936E-03     11.1536E-03     42.6596E-03     457.080E-03    -228.057E-03    -229.023E-03    -228.405E-03     456.463E-03    -228.057E-03     40.9745E-03     475.285E-03     62.5672E+06     47.6588E+06     11.6600E+06    -24.5868E+06    -24.5848E+06     11.6580E+06     47.6588E+06     256.732E+03
             737     43.8423E-03     10.3582E-03     42.6012E-03     456.730E-03    -227.953E-03    -228.776E-03    -228.364E-03     456.317E-03    -227.953E-03     33.3944E-03     472.520E-03     60.2754E+06     39.8356E+06     5.96823E+06    -29.7476E+06    -29.7401E+06     5.96074E+06     39.8356E+06     380.652E+03
             738     43.6171E-03     9.56245E-03     42.5560E-03     456.150E-03    -227.830E-03    -228.320E-03    -228.028E-03     455.884E-03    -227.856E-03     26.8790E-03     469.859E-03     59.1729E+06     33.2132E+06     2.41605E+06    -34.9856E+06    -34.9755E+06     2.40592E+06     33.2132E+06     491.502E+03
             739     43.4096E-03     8.76568E-03     42.5153E-03     455.591E-03    -227.701E-03    -227.890E-03    -227.637E-03     455.418E-03    -227.780E-03     21.5669E-03     467.449E-03     58.5106E+06     26.1662E+06    -1.26819E+06    -41.0005E+06    -40.9907E+06    -1.27804E+06     26.1662E+06     600.677E+03
             740     43.2255E-03     7.96875E-03     42.4846E-03     455.339E-03    -227.617E-03    -227.721E-03    -227.516E-03     455.238E-03    -227.721E-03     16.4211E-03     465.453E-03     57.8078E+06     18.5131E+06    -5.63007E+06    -47.4344E+06    -47.4214E+06    -5.64309E+06     18.5131E+06     721.890E+03
             741     43.0613E-03     7.17163E-03     42.4599E-03     455.196E-03    -227.538E-03    -227.658E-03    -227.486E-03     455.144E-03    -227.658E-03     11.7531E-03     463.697E-03     55.9108E+06     9.02270E+06    -11.4584E+06    -54.2236E+06    -54.2094E+06    -11.4726E+06     9.02270E+06     772.869E+03
             742     42.9191E-03     6.37522E-03     42.4430E-03     454.969E-03    -227.381E-03    -227.588E-03    -227.357E-03     454.945E-03    -227.588E-03     7.76094E-03     461.946E-03     52.4380E+06    -2.76823E+06    -18.9783E+06    -61.3742E+06    -61.3542E+06    -18.9983E+06    -2.76823E+06     852.628E+03
             743     42.7967E-03     5.57847E-03     42.4315E-03     454.776E-03    -227.262E-03    -227.514E-03    -227.254E-03     454.768E-03    -227.514E-03     4.47152E-03     460.331E-03     46.7959E+06    -17.4273E+06    -28.0080E+06    -68.5524E+06    -68.5146E+06    -28.0459E+06    -17.4273E+06     1.16344E+06
             744     42.6926E-03     4.78146E-03     42.4240E-03     454.654E-03    -227.212E-03    -227.442E-03    -227.211E-03     454.653E-03    -227.442E-03     1.75495E-03     458.892E-03     37.7792E+06    -34.5647E+06    -42.7484E+06    -75.7166E+06    -75.6653E+06    -42.7997E+06    -34.5647E+06     1.28482E+06
             745     42.6082E-03     3.98442E-03     42.4215E-03     454.570E-03    -227.182E-03    -227.388E-03    -227.182E-03     454.570E-03    -227.388E-03    -191.705E-06     457.626E-03     27.7129E+06    -51.4813E+06    -65.0159E+06    -82.4498E+06    -82.3584E+06    -65.1073E+06    -51.4813E+06     1.08333E+06
             746     42.5404E-03     3.18755E-03     42.4208E-03     454.536E-03    -227.188E-03    -227.348E-03    -227.187E-03     454.535E-03    -227.348E-03    -1.31621E-03     456.571E-03     22.6447E+06    -66.7681E+06    -83.9794E+06    -92.4000E+06    -87.9982E+06    -88.3813E+06    -66.7681E+06     849.944E+03
             747     42.4895E-03     2.39064E-03     42.4221E-03     454.550E-03    -227.216E-03    -227.334E-03    -227.241E-03     454.549E-03    -227.308E-03    -1.80333E-03     455.745E-03     23.9365E+06    -80.1419E+06    -92.2313E+06    -107.085E+06    -92.2738E+06    -107.042E+06    -80.1419E+06     653.112E+03
             748     42.4542E-03     1.59429E-03     42.4243E-03     454.533E-03    -227.195E-03    -227.337E-03    -227.268E-03     454.531E-03    -227.264E-03    -1.65928E-03     455.104E-03     28.7951E+06    -91.1689E+06    -95.9806E+06    -121.898E+06    -96.0213E+06    -121.857E+06    -91.1689E+06     1.51703E+03
             749     42.4327E-03     797.013E-06     42.4252E-03     454.472E-03    -227.054E-03    -227.418E-03    -227.352E-03     454.471E-03    -227.119E-03    -1.01056E-03     454.663E-03     35.0009E+06    -96.3255E+06    -99.4475E+06    -132.764E+06    -98.2232E+06    -132.722E+06    -97.5920E+06    -652.921E+03
             750     43.4970E-03     13.5449E-03     41.3343E-03     458.224E-03    -228.434E-03    -229.791E-03    -228.267E-03     456.700E-03    -228.434E-03     64.5412E-03     483.263E-03     104.676E+06     113.470E+06     56.8383E+06    -7.29135E+06    -7.29089E+06     56.8378E+06     113.470E+06     5.58303E+03
             751     43.1556E-03     12.7482E-03     41.2297E-03     457.952E-03    -228.291E-03    -229.662E-03    -228.338E-03     456.629E-03    -228.291E-03     59.5413E-03     483.375E-03     83.1304E+06     81.9289E+06     38.8762E+06    -13.8965E+06    -13.8960E+06     38.8757E+06     81.9289E+06     70.6624E+03
             752     42.8499E-03     11.9504E-03     41.1497E-03     457.150E-03    -228.169E-03    -228.980E-03    -228.174E-03     456.344E-03    -228.169E-03     46.8914E-03     477.434E-03     68.3232E+06     59.1758E+06     22.1161E+06    -19.6498E+06    -19.6491E+06     22.1154E+06     59.1758E+06     81.2218E+03
             753     42.5684E-03     11.1550E-03     41.0808E-03     456.719E-03    -228.066E-03    -228.652E-03    -228.045E-03     456.128E-03    -228.083E-03     40.0641E-03     474.787E-03     62.1720E+06     47.1157E+06     11.7080E+06    -24.6716E+06    -24.6701E+06     11.7065E+06     47.1157E+06     163.471E+03
             754     42.3099E-03     10.3576E-03     41.0226E-03     456.431E-03    -227.985E-03    -228.446E-03    -228.013E-03     456.021E-03    -228.008E-03     33.3642E-03     472.121E-03     59.9046E+06     39.3467E+06     6.07336E+06    -29.7984E+06    -29.7966E+06     6.07157E+06     39.3467E+06     192.203E+03
             755     42.0772E-03     9.56115E-03     40.9765E-03     456.411E-03    -227.915E-03    -228.497E-03    -228.211E-03     456.133E-03    -227.921E-03     27.4854E-03     470.085E-03     58.8830E+06     32.4093E+06     2.31004E+06    -35.4158E+06    -35.4112E+06     2.30544E+06     32.4093E+06     327.162E+03
             756     41.8666E-03     8.76500E-03     40.9388E-03     456.074E-03    -227.789E-03    -228.285E-03    -228.067E-03     455.893E-03    -227.826E-03     22.0709E-03     467.926E-03     58.4237E+06     25.9489E+06    -882.097E+03    -41.0530E+06    -41.0416E+06    -893.501E+03     25.9489E+06     651.343E+03
             757     41.6758E-03     7.96831E-03     40.9069E-03     455.533E-03    -227.666E-03    -227.867E-03    -227.682E-03     455.427E-03    -227.745E-03     16.8375E-03     465.672E-03     57.8268E+06     18.6596E+06    -5.09736E+06    -47.2465E+06    -47.2319E+06    -5.11187E+06     18.6596E+06     778.234E+03
             758     41.5073E-03     7.17218E-03     40.8830E-03     455.207E-03    -227.531E-03    -227.676E-03    -227.477E-03     455.152E-03    -227.676E-03     11.9956E-03     463.728E-03     55.8610E+06     9.06049E+06    -11.0431E+06    -54.0512E+06    -54.0351E+06    -11.0592E+06     9.06049E+06     828.974E+03
             759     41.3607E-03     6.37497E-03     40.8664E-03     455.068E-03    -227.466E-03    -227.602E-03    -227.441E-03     455.044E-03    -227.602E-03     7.92902E-03     462.069E-03     52.2482E+06    -2.97979E+06    -18.6726E+06    -61.2524E+06    -61.2317E+06    -18.6933E+06    -2.97979E+06     894.292E+03
             760     41.2336E-03     5.57832E-03     40.8545E-03     454.886E-03    -227.368E-03    -227.518E-03    -227.360E-03     454.878E-03    -227.518E-03     4.51882E-03     460.456E-03     46.8489E+06    -17.5202E+06    -27.7653E+06    -68.5949E+06    -68.5644E+06    -27.7958E+06    -17.5202E+06     1.02452E+06
             761     41.1273E-03     4.78164E-03     40.8484E-03     454.631E-03    -227.191E-03    -227.440E-03    -227.189E-03     454.630E-03    -227.440E-03     1.79952E-03     458.880E-03     38.0592E+06    -34.4133E+06    -42.0399E+06    -75.6776E+06    -75.6356E+06    -42.0819E+06    -34.4133E+06     1.13228E+06
             762     41.0390E-03     3.98479E-03     40.8451E-03     454.575E-03    -227.190E-03    -227.385E-03    -227.190E-03     454.575E-03    -227.385E-03    -144.740E-06     457.640E-03     27.4637E+06    -51.3238E+06    -63.6210E+06    -81.9796E+06    -81.9127E+06    -63.6879E+06    -51.3238E+06     999.013E+03
             763     40.9696E-03     3.18790E-03     40.8454E-03     454.572E-03    -227.220E-03    -227.352E-03    -227.231E-03     454.571E-03    -227.340E-03    -1.42094E-03     456.608E-03     22.4181E+06    -66.4117E+06    -83.0861E+06    -91.8926E+06    -87.5887E+06    -87.3900E+06    -66.4117E+06     745.204E+03
             764     40.9164E-03     2.39080E-03     40.8465E-03     454.523E-03    -227.189E-03    -227.334E-03    -227.225E-03     454.522E-03    -227.296E-03    -1.91928E-03     455.717E-03     23.6983E+06    -79.4071E+06    -92.1832E+06    -106.198E+06    -92.2333E+06    -106.148E+06    -79.4071E+06     696.402E+03
             765     40.8793E-03     1.59355E-03     40.8483E-03     454.510E-03    -227.188E-03    -227.322E-03    -227.261E-03     454.509E-03    -227.248E-03    -1.63744E-03     455.083E-03     27.6785E+06    -89.9821E+06    -95.6043E+06    -119.840E+06    -95.6365E+06    -119.807E+06    -89.9821E+06     793.533E+03
             766     40.8581E-03     797.165E-06     40.8503E-03     454.429E-03    -227.016E-03    -227.413E-03    -227.064E-03     454.429E-03    -227.365E-03    -784.485E-06     454.619E-03     34.7656E+06    -95.5858E+06    -99.6172E+06    -132.178E+06    -98.3848E+06    -132.144E+06    -96.8523E+06     400.270E+03
             767     42.0014E-03     13.5442E-03     39.7577E-03     457.890E-03    -228.450E-03    -229.440E-03    -227.934E-03     456.385E-03    -228.450E-03     64.1013E-03     483.130E-03     104.431E+06     113.433E+06     57.1182E+06    -7.03535E+06    -7.03443E+06     57.1173E+06     113.433E+06     85.7963E+03
             768     41.6470E-03     12.7471E-03     39.6482E-03     458.060E-03    -228.315E-03    -229.745E-03    -228.422E-03     456.737E-03    -228.315E-03     59.5531E-03     483.647E-03     82.9673E+06     81.8957E+06     39.1991E+06    -13.7243E+06    -13.7223E+06     39.1971E+06     81.8957E+06     250.788E+03
             769     41.3381E-03     11.9522E-03     39.5725E-03     457.288E-03    -228.191E-03    -229.098E-03    -228.270E-03     456.461E-03    -228.191E-03     47.5483E-03     477.738E-03     68.2506E+06     59.0871E+06     22.4740E+06    -19.6410E+06    -19.6387E+06     22.4717E+06     59.0871E+06     237.824E+03
             770     41.0464E-03     11.1539E-03     39.5018E-03     456.573E-03    -228.093E-03    -228.480E-03    -227.853E-03     455.963E-03    -228.110E-03     40.6428E-03     474.816E-03     61.9043E+06     46.8249E+06     12.1008E+06    -24.6449E+06    -24.6437E+06     12.0996E+06     46.8249E+06     87.1226E+03
             771     40.7838E-03     10.3571E-03     39.4468E-03     456.162E-03    -228.033E-03    -228.129E-03    -227.694E-03     455.750E-03    -228.056E-03     33.4349E-03     471.864E-03     59.3985E+06     38.7121E+06     6.23519E+06    -29.8337E+06    -29.8325E+06     6.23399E+06     38.7121E+06     141.355E+03
             772     40.5402E-03     9.55983E-03     39.3969E-03     456.275E-03    -227.989E-03    -228.286E-03    -228.006E-03     456.002E-03    -227.996E-03     27.1637E-03     469.946E-03     58.3891E+06     31.7787E+06     2.40478E+06    -35.4431E+06    -35.4413E+06     2.40306E+06     31.7787E+06     224.479E+03
             773     40.3239E-03     8.76404E-03     39.3600E-03     456.273E-03    -227.911E-03    -228.362E-03    -228.189E-03     456.100E-03    -227.911E-03     21.6188E-03     468.120E-03     58.1269E+06     25.4018E+06    -869.480E+03    -41.2061E+06    -41.2018E+06    -873.821E+03     25.4018E+06     345.493E+03
             774     40.1282E-03     7.96823E-03     39.3291E-03     455.789E-03    -227.767E-03    -228.022E-03    -227.858E-03     455.682E-03    -227.824E-03     16.9538E-03     465.926E-03     57.6801E+06     18.2273E+06    -5.09121E+06    -47.4462E+06    -47.4388E+06    -5.09866E+06     18.2273E+06     529.289E+03
             775     39.9552E-03     7.17093E-03     39.3064E-03     455.411E-03    -227.658E-03    -227.753E-03    -227.604E-03     455.352E-03    -227.748E-03     12.4446E-03     463.946E-03     55.8865E+06     8.94562E+06    -10.8549E+06    -54.1278E+06    -54.1136E+06    -10.8691E+06     8.94562E+06     751.366E+03
             776     39.8025E-03     6.37479E-03     39.2887E-03     455.232E-03    -227.555E-03    -227.677E-03    -227.533E-03     455.205E-03    -227.672E-03     8.31042E-03     462.250E-03     52.4652E+06    -2.71532E+06    -18.2135E+06    -61.1601E+06    -61.1367E+06    -18.2368E+06    -2.71532E+06     978.336E+03
             777     39.6722E-03     5.57824E-03     39.2781E-03     455.004E-03    -227.417E-03    -227.586E-03    -227.408E-03     454.994E-03    -227.586E-03     4.85797E-03     460.596E-03     46.8748E+06    -17.4273E+06    -27.2909E+06    -68.3935E+06    -68.3653E+06    -27.3191E+06    -17.4273E+06     1.03052E+06
             778     39.5619E-03     4.78127E-03     39.2719E-03     454.846E-03    -227.343E-03    -227.503E-03    -227.340E-03     454.844E-03    -227.503E-03     2.11718E-03     459.114E-03     38.1511E+06    -34.2294E+06    -41.2293E+06    -75.3756E+06    -75.3373E+06    -41.2676E+06    -34.2294E+06     1.09408E+06
             779     39.4710E-03     3.98433E-03     39.2694E-03     454.716E-03    -227.279E-03    -227.437E-03    -227.279E-03     454.716E-03    -227.437E-03     88.5576E-06     457.792E-03     27.5292E+06    -51.1357E+06    -62.3781E+06    -81.8263E+06     -81.748E+06    -62.4564E+06    -51.1357E+06     1.10026E+06
             780     39.3982E-03     3.18750E-03     39.2690E-03     454.660E-03    -227.263E-03    -227.397E-03    -227.274E-03     454.659E-03    -227.385E-03    -1.13658E-03     456.706E-03     21.3837E+06    -66.9802E+06    -82.5850E+06    -91.2835E+06    -87.7326E+06    -86.1359E+06    -66.9802E+06     753.822E+03
             781     39.3438E-03     2.39099E-03     39.2711E-03     454.621E-03    -227.253E-03    -227.368E-03    -227.279E-03     454.620E-03    -227.340E-03    -1.61469E-03     455.824E-03     22.4732E+06    -80.2106E+06    -92.8139E+06    -105.594E+06    -92.8542E+06    -105.554E+06    -80.2106E+06     475.538E+03
             782     39.3054E-03     1.59415E-03     39.2731E-03     454.566E-03    -227.242E-03    -227.324E-03    -227.257E-03     454.565E-03    -227.308E-03    -1.55004E-03     455.141E-03     26.3766E+06    -90.1411E+06    -96.0113E+06    -118.750E+06    -96.0420E+06    -118.719E+06    -90.1411E+06     634.767E+03
             783     39.2825E-03     796.646E-06     39.2745E-03     454.582E-03    -226.998E-03    -227.585E-03    -227.249E-03     454.582E-03    -227.333E-03    -1.25657E-03     454.768E-03     33.0659E+06    -94.6958E+06    -99.1510E+06    -129.743E+06    -97.5495E+06    -129.719E+06    -96.3218E+06     816.491E+03
             784     40.5105E-03     13.5454E-03     38.1789E-03     457.973E-03    -228.445E-03    -229.528E-03    -228.016E-03     456.461E-03    -228.445E-03     64.2677E-03     483.203E-03     104.497E+06     113.303E+06     57.0817E+06    -7.23348E+06    -7.23196E+06     57.0801E+06     113.303E+06     210.252E+03
             785     40.1492E-03     12.7477E-03     38.0717E-03     457.510E-03    -228.225E-03    -229.285E-03    -227.867E-03     456.194E-03    -228.327E-03     59.3689E-03     483.017E-03     83.2117E+06     82.2833E+06     39.5886E+06    -13.6091E+06    -13.6068E+06     39.5863E+06     82.2833E+06     323.728E+03
             786     39.8264E-03     11.9489E-03     37.9916E-03     456.879E-03    -228.134E-03    -228.745E-03    -227.821E-03     456.057E-03    -228.236E-03     47.3438E-03     477.318E-03     68.2226E+06     59.4267E+06     23.1196E+06    -19.2612E+06    -19.2592E+06     23.1176E+06     59.4267E+06     223.949E+03
             787     39.5317E-03     11.1536E-03     37.9256E-03     456.831E-03    -228.162E-03    -228.669E-03    -228.067E-03     456.230E-03    -228.162E-03     40.3785E-03     475.201E-03     61.6263E+06     46.3037E+06     12.2204E+06    -24.8351E+06    -24.8338E+06     12.2191E+06     46.3037E+06     119.167E+03
             788     39.2578E-03     10.3566E-03     37.8671E-03     456.397E-03    -228.044E-03    -228.353E-03    -227.892E-03     455.990E-03    -228.097E-03     33.2450E-03     472.231E-03     59.1386E+06     38.2520E+06     6.31104E+06    -29.9805E+06    -29.9794E+06     6.30992E+06     38.2520E+06     143.388E+03
             789     39.0102E-03     9.56060E-03     37.8205E-03     455.923E-03    -227.809E-03    -228.115E-03    -227.593E-03     455.644E-03    -228.051E-03     27.4804E-03     469.685E-03     58.0751E+06     31.5624E+06     2.71661E+06    -35.2655E+06    -35.2636E+06     2.71472E+06     31.5624E+06     232.553E+03
             790     38.7832E-03     8.76330E-03     37.7802E-03     455.859E-03    -227.743E-03    -228.116E-03    -227.662E-03     455.676E-03    -228.014E-03     22.1857E-03     467.739E-03     57.6397E+06     24.8847E+06    -692.662E+03    -41.0992E+06    -41.0973E+06    -694.513E+03     24.8847E+06     239.475E+03
             791     38.5835E-03     7.96649E-03     37.7521E-03     455.967E-03    -227.861E-03    -228.106E-03    -227.894E-03     455.856E-03    -227.961E-03     17.3213E-03     466.117E-03     57.3523E+06     17.7674E+06    -4.95484E+06    -47.4513E+06    -47.4470E+06    -4.95916E+06     17.7674E+06     395.894E+03
             792     38.4034E-03     7.17065E-03     37.7280E-03     455.739E-03    -227.775E-03    -227.964E-03    -227.786E-03     455.677E-03    -227.891E-03     12.9113E-03     464.281E-03     55.8427E+06     8.68618E+06    -10.7497E+06    -54.2601E+06    -54.2487E+06    -10.7611E+06     8.68618E+06     672.299E+03
             793     38.2467E-03     6.37385E-03     37.7118E-03     455.430E-03    -227.607E-03    -227.824E-03    -227.581E-03     455.400E-03    -227.819E-03     8.83422E-03     462.458E-03     52.4413E+06    -2.94099E+06    -18.0495E+06    -61.2519E+06    -61.2359E+06    -18.0654E+06    -2.94099E+06     815.705E+03
             794     38.1114E-03     5.57689E-03     37.7011E-03     455.291E-03    -227.549E-03    -227.742E-03    -227.538E-03     455.280E-03    -227.742E-03     5.30472E-03     460.900E-03     46.9126E+06    -17.5035E+06    -26.9340E+06    -68.3587E+06    -68.3249E+06    -26.9678E+06    -17.5035E+06     1.13014E+06
             795     37.9968E-03     4.78056E-03     37.6949E-03     455.195E-03    -227.538E-03    -227.657E-03    -227.535E-03     455.192E-03    -227.657E-03     2.47347E-03     459.485E-03     38.3656E+06    -34.2709E+06    -40.4606E+06    -75.3386E+06     -75.291E+06    -40.5082E+06    -34.2709E+06     1.27698E+06
             796     37.9029E-03     3.98418E-03     37.6930E-03     455.054E-03    -227.471E-03    -227.583E-03    -227.471E-03     455.053E-03    -227.583E-03     392.512E-06     458.149E-03     27.8608E+06    -51.2359E+06    -61.2370E+06    -82.1533E+06    -82.0838E+06    -61.3065E+06    -51.2359E+06     1.09037E+06
             797     37.8278E-03     3.18727E-03     37.6932E-03     454.923E-03    -227.393E-03    -227.531E-03    -227.392E-03     454.923E-03    -227.531E-03    -930.642E-06     456.982E-03     21.2938E+06    -66.6841E+06    -81.8087E+06    -90.8486E+06    -87.9388E+06    -84.7185E+06    -66.6841E+06     963.575E+03
             798     37.7706E-03     2.39003E-03     37.6949E-03     454.893E-03    -227.384E-03    -227.508E-03    -227.399E-03     454.892E-03    -227.492E-03    -1.54233E-03     456.099E-03     21.3735E+06    -80.2042E+06    -92.4440E+06    -104.177E+06    -92.5427E+06    -104.078E+06    -80.2042E+06     726.786E+03
             799     37.7308E-03     1.59337E-03     37.6971E-03     454.897E-03    -227.410E-03    -227.487E-03    -227.440E-03     454.896E-03    -227.456E-03    -1.36430E-03     455.474E-03     24.8952E+06    -90.8210E+06    -96.3304E+06    -117.862E+06    -96.3693E+06    -117.823E+06    -90.8210E+06     248.971E+03
             800     37.7075E-03     797.115E-06     37.6991E-03     454.863E-03    -227.242E-03    -227.621E-03    -227.508E-03     454.862E-03    -227.355E-03    -876.142E-06     455.051E-03     31.5529E+06    -95.4894E+06    -99.6862E+06    -128.921E+06    -98.0956E+06    -128.885E+06    -97.1154E+06     495.810E+03
             801     39.0262E-03     13.5443E-03     36.6004E-03     458.029E-03    -228.460E-03    -229.569E-03    -228.031E-03     456.491E-03    -228.460E-03     64.8132E-03     483.360E-03     104.641E+06     113.568E+06     57.4274E+06    -7.11869E+06    -7.11768E+06     57.4264E+06     113.568E+06     175.933E+03
             802     38.6561E-03     12.7477E-03     36.4937E-03     457.521E-03    -228.240E-03    -229.281E-03    -227.850E-03     456.192E-03    -228.342E-03     59.5969E-03     483.120E-03     83.1898E+06     82.0475E+06     39.8148E+06    -13.7867E+06    -13.7857E+06     39.8139E+06     82.0475E+06     215.021E+03
             803     38.3273E-03     11.9509E-03     36.4164E-03     456.546E-03    -228.036E-03    -228.510E-03    -227.455E-03     455.720E-03    -228.266E-03     47.4530E-03     477.003E-03     68.1058E+06     59.2935E+06     23.3484E+06    -19.2407E+06    -19.2386E+06     23.3464E+06     59.2935E+06     194.655E+03
             804     38.0169E-03     11.1525E-03     36.3443E-03     456.590E-03    -228.082E-03    -228.508E-03    -227.750E-03     455.972E-03    -228.222E-03     40.8979E-03     474.984E-03     61.6462E+06     46.6934E+06     12.7249E+06    -24.4649E+06    -24.4620E+06     12.7221E+06     46.6934E+06     261.766E+03
             805     37.7393E-03     10.3567E-03     36.2904E-03     456.397E-03    -228.038E-03    -228.359E-03    -227.800E-03     455.976E-03    -228.176E-03     33.8285E-03     472.290E-03     59.0420E+06     38.0587E+06     6.41028E+06    -30.0495E+06    -30.0461E+06     6.40689E+06     38.0587E+06     332.341E+03
             806     37.4813E-03     9.55883E-03     36.2419E-03     455.800E-03    -227.650E-03    -228.150E-03    -227.358E-03     455.508E-03    -228.150E-03     28.1360E-03     469.654E-03     57.7392E+06     31.2964E+06     3.04360E+06    -35.1045E+06    -35.1003E+06     3.03936E+06     31.2964E+06     392.642E+03
             807     37.2499E-03     8.76170E-03     36.2048E-03     455.681E-03    -227.532E-03    -228.150E-03    -227.339E-03     455.489E-03    -228.150E-03     22.7871E-03     467.652E-03     57.3628E+06     24.7378E+06    -281.624E+03    -40.8688E+06    -40.8645E+06    -285.942E+03     24.7378E+06     396.733E+03
             808     37.0383E-03     7.96508E-03     36.1717E-03     455.919E-03    -227.712E-03    -228.207E-03    -227.664E-03     455.803E-03    -228.139E-03     17.6248E-03     466.139E-03     57.0932E+06     17.3996E+06    -4.77444E+06    -47.4392E+06    -47.4336E+06    -4.78001E+06     17.3996E+06     450.502E+03
             809     36.8548E-03     7.16862E-03     36.1509E-03     455.952E-03    -227.784E-03    -228.168E-03    -227.788E-03     455.888E-03    -228.099E-03     13.1790E-03     464.541E-03     55.4238E+06     8.16383E+06    -10.5618E+06    -54.1785E+06    -54.1705E+06    -10.5698E+06     8.16383E+06     569.721E+03
             810     36.6913E-03     6.37207E-03     36.1338E-03     455.843E-03    -227.800E-03    -228.043E-03    -227.767E-03     455.810E-03    -228.043E-03     9.24808E-03     462.898E-03     52.2187E+06    -3.41488E+06    -17.9630E+06    -61.3420E+06    -61.3291E+06    -17.9758E+06    -3.41488E+06     736.776E+03
             811     36.5514E-03     5.57611E-03     36.1236E-03     455.693E-03    -227.717E-03    -227.976E-03    -227.704E-03     455.680E-03    -227.976E-03     5.62162E-03     461.321E-03     47.2190E+06    -17.6076E+06    -26.8788E+06    -68.7244E+06    -68.6983E+06    -26.9048E+06    -17.6076E+06     993.799E+03
             812     36.4324E-03     4.77934E-03     36.1175E-03     455.539E-03    -227.630E-03    -227.909E-03    -227.627E-03     455.536E-03    -227.909E-03     2.90058E-03     459.854E-03     39.1555E+06    -34.2872E+06    -39.9057E+06    -75.9480E+06    -75.9038E+06    -39.9499E+06    -34.2872E+06     1.20844E+06
             813     36.3347E-03     3.98262E-03     36.1158E-03     455.550E-03    -227.701E-03    -227.849E-03    -227.700E-03     455.549E-03    -227.849E-03     864.193E-06     458.664E-03     28.1790E+06    -51.2329E+06    -59.9311E+06    -82.2320E+06    -82.1706E+06    -59.9925E+06    -51.2329E+06     1.10714E+06
             814     36.2567E-03     3.18635E-03     36.1164E-03     455.533E-03    -227.742E-03    -227.792E-03    -227.741E-03     455.533E-03    -227.792E-03    -550.346E-06     457.599E-03     21.1765E+06    -66.1955E+06    -80.8796E+06    -90.1381E+06    -87.5031E+06    -83.5146E+06    -66.1955E+06     809.961E+03
             815     36.1975E-03     2.39021E-03     36.1185E-03     455.426E-03    -227.662E-03    -227.764E-03    -227.690E-03     455.425E-03    -227.736E-03    -1.29833E-03     456.638E-03     20.8362E+06    -79.4270E+06    -92.3188E+06    -102.811E+06    -92.4075E+06    -102.723E+06    -79.4270E+06     818.446E+03
             816     36.1560E-03     1.59332E-03     36.1209E-03     455.346E-03    -227.606E-03    -227.739E-03    -227.649E-03     455.345E-03    -227.696E-03    -1.35731E-03     455.923E-03     24.0813E+06    -90.3280E+06    -95.7709E+06    -116.386E+06    -95.8275E+06    -116.329E+06    -90.3280E+06     600.854E+03
             817     36.1309E-03     796.326E-06     36.1221E-03     455.359E-03    -227.562E-03    -227.797E-03    -227.576E-03     455.359E-03    -227.783E-03    -916.841E-06     455.550E-03     30.9038E+06    -96.0261E+06    -98.5905E+06    -128.121E+06    -98.2326E+06    -128.038E+06    -96.4665E+06    -24.9261E+03
             818     37.5509E-03     13.5444E-03     35.0231E-03     457.540E-03    -228.412E-03    -229.128E-03    -227.490E-03     455.984E-03    -228.494E-03     65.1189E-03     482.935E-03     104.341E+06     112.914E+06     57.1695E+06    -7.41275E+06    -7.41226E+06     57.1690E+06     112.914E+06     7.87109E+03
             819     37.1686E-03     12.7464E-03     34.9146E-03     457.462E-03    -228.357E-03    -229.104E-03    -227.696E-03     456.099E-03    -228.402E-03     60.3925E-03     483.122E-03     83.0829E+06     81.8183E+06     40.0743E+06    -13.8588E+06    -13.8580E+06     40.0735E+06     81.8183E+06     108.928E+03
             820     36.8310E-03     11.9490E-03     34.8388E-03     456.611E-03    -228.130E-03    -228.481E-03    -227.404E-03     455.744E-03    -228.340E-03     48.6547E-03     477.118E-03     68.1299E+06     59.2341E+06     23.7378E+06    -19.2996E+06    -19.2972E+06     23.7354E+06     59.2341E+06     258.515E+03
             821     36.5132E-03     11.1520E-03     34.7685E-03     456.129E-03    -227.801E-03    -228.329E-03    -227.139E-03     455.467E-03    -228.329E-03     42.3436E-03     474.592E-03     61.5640E+06     46.5497E+06     12.8643E+06    -24.5050E+06    -24.5014E+06     12.8607E+06     46.5497E+06     336.152E+03
             822     36.2214E-03     10.3538E-03     34.7100E-03     456.198E-03    -227.865E-03    -228.333E-03    -227.415E-03     455.749E-03    -228.333E-03     34.8911E-03     472.139E-03     58.9518E+06     38.4886E+06     7.05674E+06    -29.5062E+06    -29.5022E+06     7.05276E+06     38.4886E+06     371.681E+03
             823     35.9599E-03     9.55789E-03     34.6664E-03     456.373E-03    -228.029E-03    -228.345E-03    -227.750E-03     456.070E-03    -228.320E-03     28.6707E-03     470.268E-03     57.7864E+06     31.2926E+06     3.26635E+06    -35.1387E+06    -35.1277E+06     3.25534E+06     31.2926E+06     569.375E+03
             824     35.7165E-03     8.76087E-03     34.6253E-03     455.953E-03    -227.616E-03    -228.338E-03    -227.443E-03     455.756E-03    -228.312E-03     23.0819E-03     468.005E-03     57.2905E+06     24.6162E+06    -40.2271E+03    -40.8561E+06    -40.8429E+06    -53.4746E+03     24.6162E+06     678.463E+03
             825     35.5003E-03     7.96381E-03     34.5956E-03     455.662E-03    -227.325E-03    -228.337E-03    -227.203E-03     455.540E-03    -228.337E-03     18.1444E-03     465.975E-03     56.7770E+06     17.3498E+06    -4.21526E+06    -47.0341E+06    -47.0238E+06    -4.22560E+06     17.3498E+06     626.418E+03
             826     35.3063E-03     7.16670E-03     34.5713E-03     455.986E-03    -227.627E-03    -228.359E-03    -227.556E-03     455.914E-03    -228.359E-03     13.7894E-03     464.644E-03     55.2680E+06     7.88359E+06    -10.3179E+06    -54.1737E+06    -54.1586E+06    -10.3330E+06     7.88359E+06     759.967E+03
             827     35.1382E-03     6.37073E-03     34.5558E-03     456.232E-03    -227.888E-03    -228.344E-03    -227.851E-03     456.195E-03    -228.344E-03     9.86532E-03     463.344E-03     52.2610E+06    -3.57344E+06    -17.7620E+06    -61.4408E+06    -61.4259E+06    -17.7770E+06    -3.57344E+06     790.539E+03
             828     34.9915E-03     5.57393E-03     34.5447E-03     456.204E-03    -227.902E-03    -228.302E-03    -227.886E-03     456.188E-03    -228.302E-03     6.34094E-03     461.873E-03     47.2433E+06    -17.7087E+06    -26.6089E+06    -68.7160E+06    -68.7033E+06    -26.6217E+06    -17.7087E+06     728.488E+03
             829     34.8692E-03     4.77774E-03     34.5403E-03     456.180E-03    -227.931E-03    -228.249E-03    -227.926E-03     456.175E-03    -228.249E-03     3.31638E-03     460.516E-03     39.0920E+06    -34.2861E+06    -39.3595E+06    -75.6637E+06    -75.6376E+06    -39.3856E+06    -34.2861E+06     805.264E+03
             830     34.7660E-03     3.98140E-03     34.5373E-03     456.155E-03    -227.950E-03    -228.204E-03    -227.950E-03     456.154E-03    -228.204E-03     1.06717E-03     459.282E-03     28.3201E+06    -50.9195E+06    -58.9451E+06    -81.9404E+06    -81.9010E+06    -58.9845E+06    -50.9195E+06     767.128E+03
             831     34.6852E-03     3.18512E-03     34.5386E-03     456.188E-03    -228.019E-03    -228.169E-03    -228.019E-03     456.188E-03    -228.169E-03    -365.352E-06     458.266E-03     20.9231E+06    -66.1600E+06    -80.1996E+06    -89.7945E+06    -87.4298E+06    -82.5643E+06    -66.1600E+06     727.064E+03
             832     34.6233E-03     2.38854E-03     34.5408E-03     456.190E-03    -228.033E-03    -228.157E-03    -228.061E-03     456.190E-03    -228.129E-03    -869.218E-06     457.414E-03     20.0077E+06    -79.3524E+06    -91.8743E+06    -101.802E+06    -91.9765E+06    -101.700E+06    -79.3524E+06     570.298E+03
             833     34.5800E-03     1.59277E-03     34.5433E-03     456.140E-03    -227.992E-03    -228.148E-03    -228.043E-03     456.139E-03    -228.096E-03    -926.250E-06     456.725E-03     22.9995E+06    -89.7811E+06    -95.4775E+06    -114.844E+06    -95.5007E+06    -114.821E+06    -89.7811E+06     456.521E+03
             834     34.5551E-03     796.495E-06     34.5459E-03     456.159E-03    -228.003E-03    -228.157E-03    -228.025E-03     456.159E-03    -228.134E-03    -607.706E-06     456.351E-03     29.9114E+06    -96.1208E+06    -97.9089E+06    -126.851E+06    -97.5807E+06    -126.738E+06    -96.5624E+06     408.557E+03
             835     36.0832E-03     13.5433E-03     33.4451E-03     456.890E-03    -228.180E-03    -228.710E-03    -226.784E-03     455.319E-03    -228.534E-03     65.3977E-03     482.310E-03     104.144E+06     112.810E+06     57.3565E+06    -7.27853E+06    -7.27801E+06      57.356E+06     112.810E+06     67.7442E+03
             836     35.6919E-03     12.7453E-03     33.3387E-03     456.823E-03    -228.156E-03    -228.666E-03    -226.954E-03     455.445E-03    -228.491E-03     60.6774E-03     482.523E-03     82.9329E+06     81.6103E+06     40.4554E+06    -13.8491E+06    -13.8484E+06     40.4546E+06     81.6103E+06     103.048E+03
             837     35.3405E-03     11.9475E-03     33.2597E-03     456.365E-03    -227.893E-03    -228.472E-03    -227.015E-03     455.487E-03    -228.472E-03     48.9260E-03     476.916E-03     67.9408E+06     58.6825E+06     23.9662E+06    -19.5861E+06    -19.5850E+06     23.9651E+06     58.6825E+06     33.1608E+03
             838     35.0147E-03     11.1499E-03     33.1920E-03     456.136E-03    -227.645E-03    -228.491E-03    -226.972E-03     455.463E-03    -228.491E-03     42.7291E-03     474.654E-03     61.3717E+06     46.0636E+06     12.8805E+06    -24.7532E+06    -24.7512E+06     12.8785E+06     46.0636E+06     96.2271E+03
             839     34.7133E-03     10.3521E-03     33.1338E-03     456.004E-03    -227.471E-03    -228.534E-03    -227.000E-03     455.534E-03    -228.534E-03     35.7158E-03     472.003E-03     58.8583E+06     38.1051E+06     6.92710E+06    -29.7713E+06    -29.7686E+06     6.92439E+06     38.1051E+06     309.749E+03
             840     34.4368E-03     9.55476E-03     33.0848E-03     456.333E-03    -227.738E-03    -228.596E-03    -227.430E-03     456.000E-03    -228.570E-03     30.0622E-03     470.296E-03     57.7726E+06     31.3559E+06     3.52022E+06    -35.0414E+06    -35.0311E+06     3.50992E+06     31.3559E+06     542.386E+03
             841     34.1894E-03     8.75918E-03     33.0483E-03     456.413E-03    -227.793E-03    -228.620E-03    -227.587E-03     456.183E-03    -228.595E-03     24.9356E-03     468.498E-03     57.3429E+06     24.5274E+06     42.3503E+03    -40.9747E+06    -40.9552E+06     22.8737E+03     24.5274E+06     831.813E+03
             842     33.9644E-03     7.96163E-03     33.0180E-03     456.199E-03    -227.567E-03    -228.632E-03    -227.421E-03     456.053E-03    -228.632E-03     19.7904E-03     466.546E-03     56.9321E+06     17.4433E+06    -3.93425E+06    -47.0671E+06    -47.0325E+06    -3.96879E+06     17.4433E+06     1.14819E+06
             843     33.7622E-03     7.16462E-03     32.9932E-03     456.200E-03    -227.515E-03    -228.685E-03    -227.430E-03     456.116E-03    -228.685E-03     14.9625E-03     464.922E-03     55.3686E+06     8.47621E+06    -9.43096E+06    -53.6120E+06    -53.5783E+06    -9.46471E+06     8.47621E+06     1.15321E+06
             844     33.5854E-03     6.36753E-03     32.9763E-03     456.486E-03    -227.758E-03    -228.728E-03    -227.715E-03     456.443E-03    -228.728E-03     10.6466E-03     463.664E-03     52.0568E+06    -3.34280E+06    -16.9454E+06    -60.8224E+06    -60.8060E+06    -16.9617E+06    -3.34280E+06     832.586E+03
             845     33.4336E-03     5.57164E-03     32.9661E-03     456.853E-03    -228.120E-03    -228.733E-03    -228.100E-03     456.833E-03    -228.733E-03     7.14343E-03     462.569E-03     46.7801E+06    -17.8588E+06    -25.9131E+06    -68.0860E+06    -68.0767E+06    -25.9224E+06    -17.8588E+06     549.097E+03
             846     33.3041E-03     4.77564E-03     32.9599E-03     457.068E-03    -228.369E-03    -228.699E-03    -228.362E-03     457.061E-03    -228.699E-03     4.10097E-03     461.437E-03     38.8582E+06    -34.3100E+06    -38.6748E+06    -75.1661E+06    -75.1606E+06    -38.6803E+06    -34.3100E+06     356.572E+03
             847     33.1984E-03     3.97986E-03     32.9589E-03     457.026E-03    -228.367E-03    -228.660E-03    -228.365E-03     457.025E-03    -228.660E-03     1.69267E-03     460.182E-03     28.0565E+06    -51.1100E+06    -58.4123E+06    -81.6912E+06    -81.6793E+06    -58.4242E+06    -51.1100E+06     429.104E+03
             848     33.1128E-03     3.18356E-03     32.9594E-03     456.998E-03    -228.349E-03    -228.649E-03    -228.349E-03     456.998E-03    -228.649E-03     106.227E-06     459.094E-03     20.6689E+06    -66.1101E+06    -79.9656E+06    -89.2931E+06    -87.3044E+06    -81.9542E+06    -66.1101E+06     569.455E+03
             849     33.0483E-03     2.38794E-03     32.9619E-03     457.111E-03    -228.463E-03    -228.647E-03    -228.463E-03     457.110E-03    -228.647E-03    -727.906E-06     458.347E-03     19.6647E+06    -79.1863E+06    -91.8069E+06    -101.113E+06    -91.9171E+06    -101.003E+06    -79.1863E+06     600.713E+03
             850     33.0030E-03     1.59134E-03     32.9646E-03     457.212E-03    -228.556E-03    -228.656E-03    -228.578E-03     457.212E-03    -228.633E-03    -931.311E-06     457.805E-03     22.0885E+06    -89.8902E+06    -95.3876E+06    -113.979E+06    -95.4090E+06    -113.958E+06    -89.8902E+06     364.294E+03
             851     32.9758E-03     795.704E-06     32.9662E-03     457.238E-03    -228.569E-03    -228.669E-03    -228.636E-03     457.238E-03    -228.602E-03    -604.999E-06     457.429E-03     28.9158E+06    -95.8597E+06    -97.4194E+06    -125.486E+06    -97.4931E+06    -125.411E+06    -95.8609E+06     493.829E+03
             852     34.6290E-03     13.5433E-03     31.8708E-03     456.263E-03    -227.693E-03    -228.570E-03    -226.133E-03     454.703E-03    -228.570E-03     65.0639E-03     481.715E-03     104.291E+06     113.135E+06     57.6301E+06    -7.11688E+06    -7.11613E+06     57.6294E+06     113.135E+06     165.229E+03
             853     34.2227E-03     12.7442E-03     31.7613E-03     456.065E-03    -227.491E-03    -228.574E-03    -226.098E-03     454.672E-03    -228.574E-03     60.9965E-03     481.791E-03     82.7837E+06     81.5026E+06     40.8463E+06    -13.7459E+06    -13.7441E+06     40.8445E+06     81.5026E+06     284.257E+03
             854     33.8612E-03     11.9455E-03     31.6842E-03     455.787E-03    -227.175E-03    -228.613E-03    -226.283E-03     454.896E-03    -228.613E-03     49.2369E-03     476.331E-03     67.5644E+06     58.1902E+06     24.2480E+06    -19.5997E+06    -19.5979E+06     24.2462E+06     58.1902E+06     84.5179E+03
             855     33.5212E-03     11.1474E-03     31.6134E-03     455.863E-03    -227.176E-03    -228.688E-03    -226.486E-03     455.174E-03    -228.688E-03     43.2466E-03     474.382E-03     61.0740E+06     45.6478E+06     13.0272E+06    -24.8069E+06    -24.8054E+06     13.0257E+06     45.6478E+06     64.0709E+03
             856     33.2108E-03     10.3504E-03     31.5567E-03     455.758E-03    -226.971E-03    -228.786E-03    -226.463E-03     455.250E-03    -228.786E-03     37.1074E-03     471.751E-03     58.5459E+06     37.4751E+06     6.78613E+06    -30.0230E+06    -30.0188E+06     6.78196E+06     37.4751E+06     362.857E+03
             857     32.9243E-03     9.55203E-03     31.5082E-03     455.876E-03    -226.971E-03    -228.905E-03    -226.605E-03     455.510E-03    -228.905E-03     31.4931E-03     469.859E-03     57.4995E+06     30.8080E+06     3.39642E+06    -35.2459E+06    -35.2396E+06     3.39009E+06     30.8080E+06     483.257E+03
             858     32.6631E-03     8.75317E-03     31.4684E-03     456.638E-03    -227.626E-03    -229.012E-03    -227.374E-03     456.386E-03    -229.012E-03     26.0962E-03     468.770E-03     57.5218E+06     24.7771E+06     328.843E+03    -40.9151E+06    -40.9037E+06     317.402E+03     24.7771E+06     587.717E+03
             859     32.4298E-03     7.95809E-03     31.4382E-03     457.193E-03    -228.118E-03    -229.075E-03    -227.955E-03     457.029E-03    -229.075E-03     21.0170E-03     467.562E-03     57.1742E+06     17.5659E+06    -3.77758E+06    -47.1892E+06    -47.1619E+06    -3.80485E+06     17.5659E+06     778.566E+03
             860     32.2209E-03     7.16175E-03     31.4149E-03     457.064E-03    -227.939E-03    -229.125E-03    -227.840E-03     456.965E-03    -229.125E-03     16.2285E-03     465.812E-03     55.3665E+06     8.69208E+06    -8.88828E+06    -53.3120E+06    -53.2866E+06    -8.91371E+06     8.69208E+06     813.789E+03
             861     32.0356E-03     6.36522E-03     31.3969E-03     457.098E-03    -227.905E-03    -229.192E-03    -227.854E-03     457.046E-03    -229.192E-03     11.6973E-03     464.313E-03     52.1368E+06    -2.70288E+06    -16.0086E+06    -60.1767E+06    -60.1643E+06    -16.0209E+06    -2.70288E+06     732.282E+03
             862     31.8758E-03     5.56853E-03     31.3856E-03     457.445E-03    -228.196E-03    -229.249E-03    -228.172E-03     457.421E-03    -229.249E-03     7.93656E-03     463.214E-03     46.9022E+06    -17.4473E+06    -25.1603E+06    -67.6669E+06    -67.6409E+06    -25.1864E+06    -17.4473E+06     812.260E+03
             863     31.7401E-03     4.77269E-03     31.3792E-03     457.808E-03    -228.526E-03    -229.282E-03    -228.516E-03     457.798E-03    -229.282E-03     4.98487E-03     462.222E-03     38.5895E+06    -34.1831E+06    -37.9994E+06    -74.5361E+06    -74.5115E+06    -38.0239E+06    -34.1831E+06     721.867E+03
             864     31.6289E-03     3.97705E-03     31.3779E-03     458.135E-03    -228.840E-03    -229.296E-03    -228.837E-03     458.132E-03    -229.296E-03     2.61770E-03     461.314E-03     27.7148E+06    -50.9726E+06    -57.7282E+06    -81.0474E+06    -81.0364E+06    -57.7392E+06    -50.9726E+06     408.376E+03
             865     31.5401E-03     3.18181E-03     31.3792E-03     458.324E-03    -229.025E-03    -229.299E-03    -229.025E-03     458.324E-03    -229.299E-03     997.078E-06     460.443E-03     20.3991E+06    -65.9870E+06    -79.5105E+06    -88.8130E+06    -86.9517E+06    -81.3718E+06    -65.9870E+06     312.059E+03
             866     31.4718E-03     2.38580E-03     31.3812E-03     458.453E-03    -229.164E-03    -229.289E-03    -229.168E-03     458.453E-03    -229.285E-03    -117.677E-06     459.703E-03     19.4633E+06    -78.7917E+06    -91.7205E+06    -100.525E+06    -91.7654E+06    -100.480E+06    -78.7917E+06     332.982E+03
             867     31.4240E-03     1.59121E-03     31.3837E-03     458.481E-03    -229.226E-03    -229.254E-03    -229.230E-03     458.481E-03    -229.251E-03    -655.388E-06     459.076E-03     21.7480E+06    -89.2820E+06    -94.9373E+06    -112.998E+06    -94.9648E+06    -112.970E+06    -89.2820E+06     473.254E+03
             868     31.3960E-03     795.510E-06     31.3859E-03     458.453E-03    -229.112E-03    -229.341E-03    -229.324E-03     458.452E-03    -229.128E-03    -554.607E-06     458.647E-03     28.3568E+06    -95.6671E+06    -97.2018E+06    -124.745E+06    -96.9778E+06    -124.726E+06    -95.9106E+06     48.8419E+03
             869     33.1847E-03     13.5429E-03     30.2955E-03     455.847E-03    -227.233E-03    -228.614E-03    -225.643E-03     454.257E-03    -228.614E-03     65.6530E-03     481.298E-03     104.230E+06     112.784E+06     57.4383E+06    -7.38846E+06    -7.38770E+06     57.4376E+06     112.784E+06     180.014E+03
             870     32.7677E-03     12.7432E-03     30.1883E-03     455.661E-03    -227.006E-03    -228.655E-03    -225.597E-03     454.252E-03    -228.655E-03     61.2923E-03     481.328E-03     82.9249E+06     81.7009E+06     41.1892E+06    -13.6894E+06    -13.6865E+06     41.1862E+06     81.7009E+06     371.888E+03
             871     32.3892E-03     11.9441E-03     30.1065E-03     455.028E-03    -226.281E-03    -228.747E-03    -225.380E-03     454.127E-03    -228.747E-03     49.4600E-03     475.527E-03     67.5848E+06     58.5541E+06     24.8880E+06    -19.2367E+06    -19.2339E+06     24.8853E+06     58.5541E+06     326.336E+03
             872     32.0399E-03     11.1454E-03     30.0389E-03     455.131E-03    -226.234E-03    -228.897E-03    -225.536E-03     454.433E-03    -228.897E-03     43.4515E-03     473.633E-03     60.7151E+06     45.2769E+06     13.1569E+06    -24.7485E+06    -24.7475E+06     13.1560E+06     45.2769E+06     180.026E+03
             873     31.7136E-03     10.3454E-03     29.9788E-03     455.372E-03    -226.296E-03    -229.076E-03    -225.784E-03     454.860E-03    -229.076E-03     37.2291E-03     471.363E-03     58.2804E+06       37.27E+06     6.99912E+06    -29.9057E+06    -29.9027E+06     6.99608E+06       37.27E+06     265.642E+03
             874     31.4175E-03     9.54789E-03     29.9315E-03     455.878E-03    -226.615E-03    -229.264E-03    -226.239E-03     455.503E-03    -229.264E-03     31.8960E-03     469.825E-03     57.4845E+06     30.7440E+06     3.62796E+06    -35.2598E+06    -35.2550E+06     3.62316E+06     30.7440E+06     370.271E+03
             875     31.1442E-03     8.75133E-03     29.8894E-03     456.488E-03    -227.040E-03    -229.448E-03    -226.772E-03     456.220E-03    -229.448E-03     26.9271E-03     468.588E-03     57.2552E+06     24.3781E+06     482.960E+03    -40.9355E+06    -40.9327E+06     480.162E+03     24.3781E+06     301.236E+03
             876     30.8981E-03     7.95314E-03     29.8570E-03     457.329E-03    -227.722E-03    -229.607E-03    -227.539E-03     457.147E-03    -229.607E-03     22.1874E-03     467.703E-03     56.7660E+06     17.2926E+06    -3.43752E+06    -46.9060E+06    -46.9054E+06    -3.43811E+06     17.2926E+06     83.5605E+03
             877     30.6802E-03     7.15736E-03     29.8336E-03     458.019E-03    -228.296E-03    -229.723E-03    -228.178E-03     457.901E-03    -229.723E-03     17.8568E-03     466.764E-03     55.4588E+06     8.42233E+06    -8.96671E+06    -53.6325E+06    -53.6272E+06    -8.97196E+06     8.42233E+06     313.812E+03
             878     30.4876E-03     6.36138E-03     29.8165E-03     458.230E-03    -228.415E-03    -229.815E-03    -228.344E-03     458.159E-03    -229.815E-03     13.7575E-03     465.446E-03     52.5606E+06    -2.71079E+06    -16.0181E+06    -60.6177E+06    -60.5993E+06    -16.0364E+06    -2.71079E+06     832.841E+03
             879     30.3193E-03     5.56564E-03     29.8041E-03     458.398E-03    -228.488E-03    -229.910E-03    -228.452E-03     458.361E-03    -229.910E-03     9.71311E-03     464.180E-03     47.2043E+06    -17.0740E+06    -24.6575E+06    -67.5478E+06    -67.5140E+06    -24.6913E+06    -17.0740E+06     1.00691E+06
             880     30.1773E-03     4.76944E-03     29.7980E-03     458.740E-03    -228.726E-03    -230.014E-03    -228.710E-03     458.724E-03    -230.014E-03     6.33008E-03     463.174E-03     39.4232E+06    -33.8641E+06    -36.8615E+06    -74.6880E+06    -74.6556E+06    -36.8939E+06    -33.8641E+06     930.729E+03
             881     30.0586E-03     3.97377E-03     29.7948E-03     459.379E-03    -229.268E-03    -230.111E-03    -229.263E-03     459.374E-03    -230.111E-03     3.78028E-03     462.582E-03     28.5642E+06    -50.8751E+06    -56.8005E+06    -81.4717E+06    -81.4335E+06    -56.8387E+06    -50.8751E+06     732.356E+03
             882     29.9654E-03     3.17861E-03     29.7963E-03     459.998E-03    -229.842E-03    -230.156E-03    -229.841E-03     459.997E-03    -230.156E-03     1.87047E-03     462.131E-03     19.7912E+06    -66.4288E+06    -79.5677E+06    -88.2999E+06    -87.2316E+06    -80.6359E+06    -66.4288E+06     448.910E+03
             883     29.8930E-03     2.38452E-03     29.7977E-03     460.154E-03    -229.999E-03    -230.155E-03    -230.002E-03     460.154E-03    -230.152E-03     663.090E-06     461.408E-03     18.2972E+06    -79.3985E+06    -91.6612E+06    -99.5329E+06    -91.7057E+06    -99.4884E+06    -79.3985E+06     251.451E+03
             884     29.8433E-03     1.58912E-03     29.8009E-03     460.225E-03    -230.036E-03    -230.189E-03    -230.096E-03     460.224E-03    -230.129E-03     54.1240E-06     460.826E-03     20.9887E+06    -89.7958E+06    -95.4806E+06    -112.838E+06    -95.5037E+06    -112.815E+06    -89.7958E+06     112.935E+03
             885     29.8135E-03     794.678E-06     29.8029E-03     460.209E-03    -229.966E-03    -230.243E-03    -230.241E-03     460.209E-03    -229.968E-03    -283.299E-06     460.408E-03     26.5019E+06    -96.0553E+06    -97.9585E+06    -123.431E+06    -97.7340E+06    -123.412E+06    -96.2988E+06     278.362E+03
             886     31.7526E-03     13.5406E-03     28.7207E-03     455.336E-03    -226.671E-03    -228.665E-03    -225.070E-03     453.735E-03    -228.665E-03     65.8638E-03     480.754E-03     104.066E+06     112.722E+06     57.6415E+06    -7.24934E+06    -7.24800E+06     57.6401E+06     112.722E+06     242.352E+03
             887     31.3211E-03     12.7427E-03     28.6118E-03     455.242E-03    -226.499E-03    -228.743E-03    -225.091E-03     453.835E-03    -228.743E-03     61.2223E-03     480.877E-03     82.9014E+06     81.6650E+06     41.4310E+06    -13.6719E+06    -13.6700E+06     41.4291E+06     81.6650E+06     260.984E+03
             888     30.9334E-03     11.9427E-03     28.5350E-03     454.381E-03    -225.493E-03    -228.888E-03    -224.563E-03     453.451E-03    -228.888E-03     50.2296E-03     474.841E-03     67.7019E+06     58.5613E+06     25.0129E+06    -19.3470E+06    -19.3442E+06     25.0101E+06     58.5613E+06     339.369E+03
             889     30.5647E-03     11.1426E-03     28.4612E-03     454.774E-03    -225.672E-03    -229.102E-03    -224.949E-03     454.051E-03    -229.102E-03     44.0991E-03     473.237E-03     60.9630E+06     45.8181E+06     13.6784E+06    -24.4876E+06    -24.4853E+06     13.6762E+06     45.8181E+06     272.715E+03
             890     30.2303E-03     10.3447E-03     28.4052E-03     455.183E-03    -225.847E-03    -229.336E-03    -225.336E-03     454.672E-03    -229.336E-03     37.2085E-03     471.098E-03     58.4164E+06     37.6721E+06     7.48290E+06    -29.6505E+06    -29.6489E+06     7.48130E+06     37.6721E+06     210.205E+03
             891     29.9155E-03     9.54518E-03     28.3519E-03     455.498E-03    -225.905E-03    -229.593E-03    -225.521E-03     455.114E-03    -229.593E-03     32.2549E-03     469.388E-03     57.1816E+06     30.6018E+06     3.99490E+06    -35.0051E+06    -35.0043E+06     3.99410E+06     30.6018E+06     98.8169E+03
             892     29.6324E-03     8.74622E-03     28.3123E-03     456.099E-03    -226.220E-03    -229.879E-03    -225.935E-03     455.814E-03    -229.879E-03     27.7903E-03     468.124E-03     56.7643E+06     23.9257E+06     815.257E+03    -40.7309E+06    -40.7299E+06     814.263E+03     23.9257E+06     130.516E+03
             893     29.3728E-03     7.94890E-03     28.2768E-03     457.009E-03    -226.836E-03    -230.173E-03    -226.633E-03     456.806E-03    -230.173E-03     23.4082E-03     467.313E-03     56.6509E+06     16.8348E+06    -3.44865E+06    -47.1516E+06    -47.1494E+06    -3.45087E+06     16.8348E+06     250.360E+03
             894     29.1426E-03     7.15145E-03     28.2515E-03     458.271E-03    -227.841E-03    -230.429E-03    -227.707E-03     458.136E-03    -230.429E-03     19.0844E-03     466.972E-03     55.2851E+06     7.75731E+06    -9.16632E+06    -53.9911E+06    -53.9877E+06    -9.16977E+06     7.75731E+06     303.645E+03
             895     28.9396E-03     6.35577E-03     28.2330E-03     459.256E-03    -228.627E-03    -230.628E-03    -228.542E-03     459.170E-03    -230.628E-03     15.2170E-03     466.432E-03     52.4122E+06    -3.18976E+06    -16.0403E+06    -60.8082E+06    -60.7943E+06    -16.0542E+06    -3.18976E+06     426.606E+03
             896     28.7639E-03     5.56003E-03     28.2214E-03     459.825E-03    -229.034E-03    -230.791E-03    -228.984E-03     459.775E-03    -230.791E-03     11.6027E-03     465.569E-03     47.7204E+06    -16.8429E+06    -24.5094E+06    -67.8783E+06    -67.8461E+06    -24.5416E+06    -16.8429E+06     773.494E+03
             897     28.6132E-03     4.76503E-03     28.2137E-03     460.445E-03    -229.514E-03    -230.931E-03    -229.490E-03     460.420E-03    -230.931E-03     8.01681E-03     464.861E-03     40.0624E+06    -33.7154E+06    -36.3212E+06    -74.9885E+06    -74.9512E+06    -36.3585E+06    -33.7154E+06     1.06032E+06
             898     28.4891E-03     3.96986E-03     28.2112E-03     461.073E-03    -230.015E-03    -231.058E-03    -230.005E-03     461.063E-03    -231.058E-03     4.91857E-03     464.273E-03     28.7857E+06    -51.0503E+06    -55.7404E+06    -81.5016E+06    -81.4431E+06    -55.7990E+06    -51.0503E+06     1.12067E+06
             899     28.3870E-03     3.17561E-03     28.2089E-03     461.656E-03    -230.484E-03    -231.172E-03    -230.481E-03     461.653E-03    -231.172E-03     2.66764E-03     463.784E-03     19.4812E+06    -66.4999E+06    -78.8935E+06    -87.8152E+06    -87.2145E+06    -79.4942E+06    -66.4999E+06     808.025E+03
             900     28.3131E-03     2.38114E-03     28.2128E-03     462.152E-03    -230.907E-03    -231.246E-03    -230.906E-03     462.152E-03    -231.245E-03     1.29221E-03     463.405E-03     17.3811E+06    -79.8121E+06    -92.0248E+06    -98.8306E+06    -92.1790E+06    -98.6765E+06    -79.8121E+06     477.927E+03
             901     28.2587E-03     1.58759E-03     28.2141E-03     462.422E-03    -231.084E-03    -231.338E-03    -231.141E-03     462.422E-03    -231.281E-03     532.281E-06     463.025E-03     20.0953E+06    -90.2800E+06    -95.7768E+06    -112.283E+06    -95.8026E+06    -112.257E+06    -90.2800E+06     281.839E+03
             902     28.2276E-03     793.973E-06     28.2164E-03     462.571E-03    -231.008E-03    -231.563E-03    -231.115E-03     462.571E-03    -231.456E-03     14.5264E-06     462.769E-03     25.5574E+06    -95.9959E+06    -97.8314E+06    -122.404E+06    -97.5031E+06    -122.358E+06    -96.3702E+06    -160.210E+03
             903     30.3372E-03     13.5424E-03     27.1469E-03     454.465E-03    -225.759E-03    -228.706E-03    -224.127E-03     452.833E-03    -228.706E-03     66.3598E-03     480.530E-03     104.000E+06     112.564E+06     57.6519E+06    -7.31982E+06    -7.31756E+06     57.6496E+06     112.564E+06     252.161E+03
             904     29.8900E-03     12.7404E-03     27.0388E-03     454.345E-03    -225.495E-03    -228.850E-03    -224.052E-03     452.902E-03    -228.850E-03     61.8543E-03     480.783E-03     82.8024E+06     81.3465E+06     41.5190E+06    -13.8387E+06    -13.8383E+06     41.5185E+06     81.3465E+06     47.0043E+03
             905     29.4867E-03     11.9405E-03     26.9609E-03     454.115E-03    -225.062E-03    -229.053E-03    -224.107E-03     453.161E-03    -229.053E-03     50.8605E-03     474.721E-03     67.7001E+06     58.4386E+06     25.2628E+06    -19.4319E+06    -19.4306E+06     25.2614E+06     58.4386E+06     207.557E+03
             906     29.1044E-03     11.1406E-03     26.8878E-03     454.386E-03    -225.064E-03    -229.322E-03    -224.293E-03     453.615E-03    -229.322E-03     45.5740E-03     472.891E-03     61.0128E+06     45.9817E+06     14.1106E+06    -24.3638E+06    -24.3610E+06     14.1079E+06     45.9817E+06     162.333E+03
             907     28.7504E-03     10.3407E-03     26.8263E-03     454.912E-03    -225.285E-03    -229.627E-03    -224.720E-03     454.347E-03    -229.627E-03     39.0736E-03     470.760E-03     58.3613E+06     37.8682E+06     7.97523E+06    -29.3726E+06    -29.3704E+06     7.97307E+06     37.8682E+06     105.341E+03
             908     28.4279E-03     9.54231E-03     26.7786E-03     455.484E-03    -225.530E-03    -229.954E-03    -225.104E-03     455.057E-03    -229.954E-03     33.9485E-03     469.264E-03     57.0794E+06     30.4557E+06     4.15482E+06    -35.0026E+06    -34.9962E+06     4.14843E+06     30.4557E+06     290.468E+03
             909     28.1260E-03     8.74327E-03     26.7326E-03     456.106E-03    -225.790E-03    -230.316E-03    -225.486E-03     455.801E-03    -230.316E-03     28.6488E-03     468.019E-03     56.8507E+06     23.9334E+06     1.02701E+06    -40.7811E+06    -40.7715E+06     1.01738E+06     23.9334E+06     458.156E+03
             910     27.8558E-03     7.94445E-03     26.6989E-03     456.927E-03    -226.216E-03    -230.711E-03    -226.006E-03     456.717E-03    -230.711E-03     23.8422E-03     467.114E-03     56.7643E+06     17.0778E+06    -2.99097E+06    -46.9791E+06    -46.9714E+06    -2.99867E+06     17.0778E+06     549.135E+03
             911     27.6098E-03     7.14673E-03     26.6688E-03     458.083E-03    -226.970E-03    -231.113E-03    -226.826E-03     457.939E-03    -231.113E-03     19.7472E-03     466.672E-03     55.1982E+06     7.79427E+06    -8.75076E+06    -53.7639E+06    -53.7596E+06    -8.75509E+06     7.79427E+06     373.602E+03
             912     27.3953E-03     6.34985E-03     26.6492E-03     459.680E-03    -228.201E-03    -231.479E-03    -228.108E-03     459.588E-03    -231.479E-03     15.8403E-03     466.767E-03     52.1704E+06    -3.87084E+06    -16.2091E+06    -61.0781E+06    -61.0685E+06    -16.2187E+06    -3.87084E+06     290.442E+03
             913     27.2084E-03     5.55442E-03     26.6354E-03     461.204E-03    -229.440E-03    -231.764E-03    -229.384E-03     461.148E-03    -231.764E-03     12.3345E-03     466.874E-03     47.3882E+06    -18.1229E+06    -25.1492E+06    -68.5689E+06    -68.5397E+06    -25.1784E+06    -18.1229E+06     677.097E+03
             914     27.0490E-03     4.75947E-03     26.6270E-03     462.310E-03    -230.345E-03    -231.965E-03    -230.315E-03     462.280E-03    -231.965E-03     8.97384E-03     466.666E-03     39.9410E+06    -34.1369E+06    -36.5539E+06    -75.2112E+06    -75.1811E+06    -36.1730E+06    -34.5479E+06     875.592E+03
             915     26.9157E-03     3.96616E-03     26.6219E-03     463.024E-03    -230.891E-03    -232.133E-03    -230.877E-03     463.010E-03    -232.133E-03     6.04627E-03     466.180E-03     29.0684E+06    -50.7526E+06    -55.2519E+06    -81.5089E+06    -81.4739E+06    -54.8758E+06    -51.1637E+06     877.918E+03
             916     26.8105E-03     3.17189E-03     26.6223E-03     463.619E-03    -231.310E-03    -232.310E-03    -231.304E-03     463.614E-03    -232.310E-03     3.69930E-03     465.726E-03     19.7640E+06    -66.0831E+06    -78.0166E+06    -87.7710E+06    -87.1838E+06    -78.6037E+06    -66.0831E+06     872.867E+03
             917     26.7277E-03     2.37846E-03     26.6217E-03     464.302E-03    -231.827E-03    -232.475E-03    -231.826E-03     464.301E-03    -232.475E-03     1.99552E-03     465.543E-03     17.0495E+06    -79.2038E+06    -91.3877E+06    -98.0116E+06    -91.8575E+06    -97.5418E+06    -79.2038E+06     680.363E+03
             918     26.6719E-03     1.58558E-03     26.6247E-03     464.840E-03    -232.207E-03    -232.632E-03    -232.207E-03     464.839E-03    -232.632E-03     1.12933E-03     465.435E-03     19.1102E+06    -89.6583E+06    -95.1275E+06    -110.606E+06    -95.1556E+06    -110.578E+06    -89.6583E+06     385.005E+03
             919     26.6380E-03     792.128E-06     26.6263E-03     465.418E-03    -232.395E-03    -233.023E-03    -232.395E-03     465.418E-03    -233.023E-03     506.192E-06     465.615E-03     25.6144E+06    -95.8205E+06    -97.4828E+06    -122.207E+06    -97.1473E+06    -122.169E+06    -96.1947E+06    -133.960E+03
             920     28.9405E-03     13.5400E-03     25.5777E-03     453.780E-03    -225.041E-03    -228.739E-03    -223.443E-03     452.181E-03    -228.739E-03     65.5004E-03     479.405E-03     104.215E+06     112.727E+06     57.6822E+06    -7.40363E+06    -7.40175E+06     57.6803E+06     112.727E+06     210.959E+03
             921     28.4749E-03     12.7391E-03     25.4664E-03     453.597E-03    -224.666E-03    -228.931E-03    -223.233E-03     452.164E-03    -228.931E-03     61.4438E-03     479.606E-03     83.0238E+06     81.4059E+06     41.6802E+06    -14.0099E+06    -14.0092E+06     41.6795E+06     81.4059E+06     37.1834E+03
             922     28.0542E-03     11.9384E-03     25.3872E-03     453.396E-03    -224.203E-03    -229.193E-03    -223.276E-03     452.470E-03    -229.193E-03     50.0471E-03     473.617E-03     67.5682E+06     58.4305E+06     25.6669E+06    -19.2550E+06    -19.2546E+06     25.6665E+06     58.4305E+06     7.68568E+03
             923     27.6561E-03     11.1379E-03     25.3142E-03     453.525E-03    -223.987E-03    -229.538E-03    -223.217E-03     452.755E-03    -229.538E-03     45.5233E-03     471.819E-03     60.3897E+06     45.2441E+06     14.2081E+06    -24.3510E+06    -24.3496E+06     14.2067E+06     45.2441E+06     21.3311E+03
             924     27.2865E-03     10.3370E-03     25.2527E-03     454.212E-03    -224.270E-03    -229.942E-03    -223.688E-03     453.630E-03    -229.942E-03     39.6580E-03     469.967E-03     57.8735E+06     36.9256E+06     7.84949E+06    -29.7120E+06    -29.7107E+06     7.84820E+06     36.9256E+06     49.1585E+03
             925     26.9435E-03     9.53711E-03     25.1991E-03     455.518E-03    -225.158E-03    -230.360E-03    -224.709E-03     455.069E-03    -230.360E-03     34.8832E-03     469.177E-03     57.1322E+06     30.3478E+06     4.23864E+06    -35.1499E+06    -35.1407E+06     4.22951E+06     30.3478E+06     484.870E+03
             926     26.6306E-03     8.73901E-03     25.1558E-03     456.542E-03    -225.759E-03    -230.783E-03    -225.423E-03     456.206E-03    -230.783E-03     30.1516E-03     468.284E-03     56.8877E+06     23.8749E+06     1.10921E+06    -40.8505E+06    -40.8374E+06     1.09616E+06     23.8749E+06     704.082E+03
             927     26.3434E-03     7.94095E-03     25.1180E-03     457.411E-03    -226.177E-03    -231.234E-03    -225.941E-03     457.175E-03    -231.234E-03     25.2240E-03     467.431E-03     56.6685E+06     17.1838E+06    -2.58642E+06    -46.7072E+06    -46.6988E+06    -2.59476E+06     17.1838E+06     590.485E+03
             928     26.0860E-03     7.14274E-03     25.0890E-03     458.500E-03    -226.786E-03    -231.714E-03    -226.631E-03     458.345E-03    -231.714E-03     20.4666E-03     466.939E-03     55.3980E+06     8.19479E+06    -8.25197E+06    -53.5454E+06    -53.5266E+06    -8.27072E+06     8.19479E+06     759.907E+03
             929     25.8550E-03     6.34494E-03     25.0644E-03     460.048E-03    -227.857E-03    -232.191E-03    -227.762E-03     459.953E-03    -232.191E-03     16.0055E-03     466.996E-03     52.0792E+06    -3.98741E+06    -15.9234E+06    -60.9641E+06    -60.9358E+06    -15.9517E+06    -3.98741E+06     1.00215E+06
             930     25.6550E-03     5.54907E-03     25.0477E-03     461.885E-03    -229.269E-03    -232.616E-03    -229.213E-03     461.829E-03    -232.616E-03     12.3146E-03     467.435E-03     46.9400E+06    -18.2346E+06    -24.5976E+06    -67.9771E+06    -67.9588E+06    -24.6159E+06    -18.2346E+06     768.927E+03
             931     25.4842E-03     4.75512E-03     25.0366E-03     463.402E-03    -230.432E-03    -232.970E-03    -230.399E-03     463.369E-03    -232.970E-03     9.36824E-03     467.656E-03     40.1266E+06    -34.3509E+06    -36.4831E+06    -75.4865E+06     -75.478E+06    -36.0805E+06    -34.7620E+06     478.032E+03
             932     25.3431E-03     3.96049E-03     25.0318E-03     464.722E-03    -231.446E-03    -233.276E-03    -231.429E-03     464.705E-03    -233.276E-03     6.80880E-03     467.808E-03     29.4176E+06    -50.9359E+06    -54.9210E+06    -81.9067E+06    -81.8875E+06    -54.5292E+06    -51.3470E+06     625.273E+03
             933     25.2288E-03     3.16798E-03     25.0291E-03     465.866E-03    -232.329E-03    -233.537E-03    -232.321E-03     465.858E-03    -233.537E-03     4.60357E-03     467.926E-03     19.4705E+06    -66.2189E+06    -77.7153E+06    -87.2259E+06    -87.1236E+06    -77.8177E+06    -66.2189E+06     514.026E+03
             934     25.1421E-03     2.37544E-03     25.0296E-03     466.676E-03    -232.912E-03    -233.765E-03    -232.909E-03     466.673E-03    -233.765E-03     2.75509E-03     467.893E-03     16.3010E+06    -79.3459E+06    -91.5485E+06    -97.0744E+06    -91.8854E+06    -96.7375E+06    -79.3459E+06     325.320E+03
             935     25.0803E-03     1.58260E-03     25.0303E-03     467.483E-03    -233.503E-03    -233.980E-03    -233.521E-03     467.482E-03    -233.962E-03     1.34996E-03     468.066E-03     18.1142E+06    -89.5200E+06    -94.9339E+06    -109.395E+06    -94.9590E+06    -109.370E+06    -89.5200E+06     251.351E+03
             936     25.0435E-03     791.525E-06     25.0310E-03     468.091E-03    -233.892E-03    -234.200E-03    -234.020E-03     468.091E-03    -234.071E-03     517.912E-06     468.283E-03     25.2827E+06    -95.6257E+06    -96.9631E+06    -121.525E+06    -96.9068E+06    -121.503E+06    -95.7047E+06    -30.6400E+03
             937     27.5634E-03     13.5415E-03     24.0077E-03     453.556E-03    -224.797E-03    -228.759E-03    -223.214E-03     451.973E-03    -228.759E-03     65.1114E-03     478.605E-03     104.562E+06     113.251E+06     57.9309E+06    -7.28282E+06    -7.28209E+06     57.9301E+06     113.251E+06     33.8757E+03
             938     27.0791E-03     12.7399E-03     23.8950E-03     453.256E-03    -224.284E-03    -228.972E-03    -222.840E-03     451.811E-03    -228.972E-03     61.6924E-03     478.384E-03     83.1240E+06     81.7036E+06     42.2001E+06    -13.7926E+06    -13.7917E+06     42.1992E+06     81.7036E+06     107.576E+03
             939     26.6408E-03     11.9382E-03     23.8162E-03     452.616E-03    -223.338E-03    -229.278E-03    -222.414E-03     451.692E-03    -229.278E-03     49.9138E-03     472.462E-03     67.4343E+06     58.0037E+06     25.8546E+06    -19.4697E+06    -19.4691E+06     25.8540E+06     58.0037E+06     57.0284E+03
             940     26.2241E-03     11.1360E-03     23.7422E-03     452.997E-03    -223.313E-03    -229.683E-03    -222.569E-03     452.253E-03    -229.683E-03     44.7018E-03     470.862E-03     60.3274E+06     44.8402E+06     14.2743E+06    -24.6504E+06    -24.6484E+06     14.2722E+06     44.8402E+06     205.164E+03
             941     25.8362E-03     10.3349E-03     23.6791E-03     453.667E-03    -223.516E-03    -230.151E-03    -222.957E-03     453.108E-03    -230.151E-03     38.8220E-03     469.106E-03     57.6616E+06     36.4275E+06     7.78644E+06    -29.9398E+06    -29.9360E+06     7.78263E+06     36.4275E+06     347.551E+03
             942     25.4747E-03     9.53430E-03     23.6232E-03     454.786E-03    -224.127E-03    -230.659E-03    -223.700E-03     454.359E-03    -230.659E-03     33.9319E-03     468.223E-03     56.6085E+06     29.7842E+06     4.26277E+06    -35.0668E+06    -35.0590E+06     4.25493E+06     29.7842E+06     185.374E+03
             943     25.1420E-03     8.73428E-03     23.5761E-03     456.279E-03    -225.094E-03    -231.185E-03    -224.773E-03     455.958E-03    -231.185E-03     29.4899E-03     467.859E-03     56.4853E+06     23.5631E+06     1.27257E+06    -40.6491E+06    -40.6416E+06     1.26503E+06     23.5631E+06     206.717E+03
             944     24.8396E-03     7.93572E-03     23.5378E-03     457.908E-03    -226.201E-03    -231.707E-03    -225.966E-03     457.673E-03    -231.707E-03     25.2417E-03     467.746E-03     56.5096E+06     16.5864E+06    -2.86004E+06    -47.0631E+06    -47.0520E+06    -2.87118E+06     16.5864E+06     630.388E+03
             945     24.5654E-03     7.13867E-03     23.5053E-03     459.377E-03    -227.158E-03    -232.219E-03    -226.999E-03     459.217E-03    -232.219E-03     20.8108E-03     467.625E-03     55.1440E+06     7.72018E+06    -8.28277E+06    -53.6348E+06    -53.6101E+06    -8.30748E+06     7.72018E+06     945.875E+03
             946     24.3216E-03     6.34266E-03     23.4800E-03     460.692E-03    -227.954E-03    -232.738E-03    -227.852E-03     460.590E-03    -232.738E-03     16.6419E-03     467.467E-03     52.3833E+06    -3.05759E+06    -15.0568E+06    -60.3773E+06    -60.3528E+06    -15.0813E+06    -3.05759E+06     963.847E+03
             947     24.1060E-03     5.54630E-03     23.4593E-03     462.151E-03    -228.882E-03    -233.270E-03    -228.822E-03     462.091E-03    -233.270E-03     12.7206E-03     467.551E-03     47.6794E+06    -17.0920E+06    -23.8901E+06    -67.7440E+06    -67.7161E+06    -23.9180E+06    -17.0920E+06     1.06153E+06
             948     23.9228E-03     4.75020E-03     23.4465E-03     464.017E-03    -230.237E-03    -233.780E-03    -230.204E-03     463.985E-03    -233.780E-03     9.33440E-03     468.145E-03     40.0470E+06    -33.4141E+06    -35.9042E+06    -74.6324E+06    -74.6044E+06    -35.2670E+06    -34.0793E+06     975.903E+03
             949     23.7695E-03     3.95694E-03     23.4378E-03     465.961E-03    -231.721E-03    -234.240E-03    -231.704E-03     465.945E-03    -234.240E-03     6.59203E-03     468.944E-03     29.1477E+06    -50.2635E+06    -54.6175E+06    -81.1079E+06    -81.0929E+06    -53.9673E+06    -50.9287E+06     486.264E+03
             950     23.6461E-03     3.16382E-03     23.4335E-03     467.627E-03    -233.003E-03    -234.624E-03    -232.996E-03     467.620E-03    -234.624E-03     4.35547E-03     469.616E-03     19.3066E+06    -66.0916E+06    -77.3588E+06    -87.0482E+06    -86.9900E+06    -77.4171E+06    -66.0916E+06     262.583E+03
             951     23.5522E-03     2.37201E-03     23.4324E-03     468.970E-03    -234.071E-03    -234.899E-03    -234.068E-03     468.968E-03    -234.899E-03     2.61253E-03     470.143E-03     15.9162E+06    -79.0901E+06    -90.8650E+06    -96.4939E+06    -91.4323E+06    -95.9267E+06    -79.0901E+06     116.624E+03
             952     23.4850E-03     1.58171E-03     23.4317E-03     469.804E-03    -234.720E-03    -235.083E-03    -234.738E-03     469.803E-03    -235.065E-03     1.49106E-03     470.368E-03     17.7527E+06    -89.4923E+06    -94.7708E+06    -108.959E+06    -94.7836E+06    -108.946E+06    -89.4923E+06    -24.0098E+03
             953     23.4448E-03     790.738E-06     23.4315E-03     470.247E-03    -234.791E-03    -235.456E-03    -234.919E-03     470.247E-03    -235.328E-03     1.07710E-03     470.429E-03     25.4349E+06    -94.8839E+06    -96.4202E+06    -121.033E+06    -96.0136E+06    -121.001E+06    -95.3227E+06    -4.10767E+03
             954     26.2032E-03     13.5392E-03     22.4343E-03     453.135E-03    -224.343E-03    -228.792E-03    -222.723E-03     451.515E-03    -228.792E-03     65.9427E-03     478.630E-03     104.520E+06     113.152E+06     57.9503E+06    -7.32174E+06    -7.32141E+06     57.9499E+06     113.152E+06     17.0612E+03
             955     25.7044E-03     12.7384E-03     22.3260E-03     453.128E-03    -224.101E-03    -229.027E-03    -222.643E-03     451.670E-03    -229.027E-03     62.0953E-03     478.664E-03     82.9690E+06     81.4094E+06     42.4193E+06    -13.8560E+06    -13.8554E+06     42.4187E+06     81.4094E+06     135.670E+03
             956     25.2450E-03     11.9364E-03     22.2448E-03     452.670E-03    -223.323E-03    -229.347E-03    -222.374E-03     451.721E-03    -229.347E-03     50.5775E-03     472.885E-03     67.5609E+06     57.6924E+06     26.0310E+06    -19.8668E+06    -19.8660E+06     26.0302E+06     57.6924E+06     145.344E+03
             957     24.8102E-03     11.1358E-03     22.1707E-03     453.257E-03    -223.502E-03    -229.754E-03    -222.756E-03     452.510E-03    -229.754E-03     44.7712E-03     471.197E-03     60.6227E+06     44.8831E+06     14.4038E+06    -24.9282E+06    -24.9265E+06     14.4021E+06     44.8831E+06     119.383E+03
             958     24.4021E-03     10.3345E-03     22.1057E-03     453.735E-03    -223.514E-03    -230.221E-03    -222.972E-03     453.193E-03    -230.221E-03     38.2103E-03     469.027E-03     57.7793E+06     36.9652E+06     8.37041E+06    -29.5262E+06    -29.5229E+06     8.36708E+06     36.9652E+06     226.238E+03
             959     24.0215E-03     9.53378E-03     22.0485E-03     454.397E-03    -223.647E-03    -230.749E-03    -223.248E-03     453.997E-03    -230.749E-03     32.7992E-03     467.643E-03     56.3632E+06     29.5076E+06     4.39668E+06    -35.0198E+06    -35.0134E+06     4.39031E+06     29.5076E+06     110.014E+03
             960     23.6694E-03     8.73331E-03     21.9993E-03     455.725E-03    -224.393E-03    -231.332E-03    -224.103E-03     455.436E-03    -231.332E-03     27.9497E-03     467.112E-03     56.0961E+06     22.8447E+06     1.03266E+06    -40.8657E+06    -40.8576E+06     1.02448E+06     22.8447E+06     241.708E+03
             961     23.3455E-03     7.93421E-03     21.9559E-03     457.525E-03    -225.595E-03    -231.930E-03    -225.390E-03     457.320E-03    -231.930E-03     23.5469E-03     467.173E-03     55.9543E+06     16.0372E+06    -3.03903E+06    -46.9470E+06    -46.9354E+06    -3.05068E+06     16.0372E+06     507.848E+03
             962     23.0540E-03     7.13624E-03     21.9217E-03     459.335E-03    -226.818E-03    -232.517E-03    -226.674E-03     459.191E-03    -232.517E-03     19.7523E-03     467.385E-03     54.9351E+06     7.69120E+06    -8.22478E+06    -53.4266E+06    -53.4102E+06    -8.24119E+06     7.69120E+06     634.380E+03
             963     22.7923E-03     6.33894E-03     21.8931E-03     461.036E-03    -227.942E-03    -233.094E-03    -227.846E-03     460.940E-03    -233.094E-03     16.1378E-03     467.620E-03     52.4583E+06    -3.06855E+06    -15.0155E+06    -60.4417E+06    -60.4247E+06    -15.0326E+06    -3.06855E+06     839.756E+03
             964     22.5634E-03     5.54310E-03     21.8719E-03     462.720E-03    -229.057E-03    -233.663E-03    -229.000E-03     462.664E-03    -233.663E-03     12.2851E-03     467.950E-03     47.6436E+06    -17.0507E+06    -23.6757E+06    -67.6010E+06    -67.5782E+06    -23.6985E+06    -17.0507E+06     832.356E+03
             965     22.3645E-03     4.74864E-03     21.8545E-03     464.543E-03    -230.323E-03    -234.221E-03    -230.295E-03     464.515E-03    -234.221E-03     8.65486E-03     468.530E-03     40.6934E+06    -32.3715E+06    -35.1509E+06    -74.3783E+06    -74.3508E+06    -34.1813E+06    -33.3684E+06     888.041E+03
             966     22.1978E-03     3.95431E-03     21.8427E-03     466.526E-03    -231.771E-03    -234.755E-03    -231.759E-03     466.514E-03    -234.755E-03     5.70603E-03     469.396E-03     29.4454E+06    -49.3260E+06    -53.9121E+06    -80.5896E+06    -80.5598E+06    -52.9449E+06    -50.3230E+06     723.800E+03
             967     22.0638E-03     3.16198E-03     21.8360E-03     468.483E-03    -233.254E-03    -235.228E-03    -233.250E-03     468.478E-03    -235.228E-03     3.54400E-03     470.390E-03     18.8880E+06    -65.5900E+06    -76.4572E+06    -86.2445E+06    -86.1822E+06    -76.5196E+06    -65.5900E+06     333.114E+03
             968     21.9596E-03     2.37075E-03     21.8313E-03     470.107E-03    -234.518E-03    -235.589E-03    -234.517E-03     470.106E-03    -235.589E-03     2.13227E-03     471.227E-03     15.7140E+06    -78.6952E+06    -90.2091E+06    -96.0361E+06    -91.1029E+06    -95.1423E+06    -78.6952E+06     73.2878E+03
             969     21.8874E-03     1.57972E-03     21.8303E-03     471.212E-03    -235.374E-03    -235.838E-03    -235.388E-03     471.211E-03    -235.824E-03     1.16658E-03     471.748E-03     17.9280E+06    -89.1405E+06    -94.4734E+06    -108.773E+06    -94.4853E+06    -108.762E+06    -89.1405E+06    -38.7713E+03
             970     21.8440E-03     789.455E-06     21.8297E-03     471.818E-03    -235.594E-03    -236.223E-03    -235.686E-03     471.817E-03    -236.131E-03     439.817E-06     471.991E-03     25.4707E+06    -94.9358E+06    -96.3939E+06    -121.083E+06    -96.0736E+06    -121.044E+06    -95.2955E+06    -105.790E+03
             971     24.8726E-03     13.5400E-03     20.8642E-03     452.661E-03    -223.833E-03    -228.828E-03    -222.207E-03     451.035E-03    -228.828E-03     66.0714E-03     478.853E-03     104.765E+06     113.485E+06     58.1022E+06    -7.27183E+06    -7.27110E+06     58.1015E+06     113.485E+06     210.736E+03
             972     24.3521E-03     12.7376E-03     20.7552E-03     453.090E-03    -224.007E-03    -229.083E-03    -222.553E-03     451.636E-03    -229.083E-03     62.0089E-03     479.684E-03     83.2753E+06     81.4955E+06     42.4552E+06    -14.1090E+06    -14.1083E+06     42.4545E+06     81.4955E+06     187.039E+03
             973     23.8725E-03     11.9365E-03     20.6740E-03     453.270E-03    -223.881E-03    -229.388E-03    -222.935E-03     452.323E-03    -229.388E-03     50.5262E-03     473.964E-03     67.6652E+06     57.9092E+06     26.5165E+06    -19.7352E+06    -19.7346E+06     26.5160E+06     57.9092E+06     17.0799E+03
             974     23.4145E-03     11.1349E-03     20.5974E-03     453.684E-03    -223.923E-03    -229.761E-03    -223.185E-03     452.945E-03    -229.761E-03     44.5630E-03     472.115E-03     60.4130E+06     44.7245E+06     14.8146E+06    -24.8046E+06    -24.8037E+06     14.8137E+06     44.7245E+06    -164.357E+03
             975     22.9860E-03     10.3350E-03     20.5316E-03     454.140E-03    -223.948E-03    -230.192E-03    -223.408E-03     453.600E-03    -230.192E-03     38.1154E-03     469.721E-03     57.5737E+06     36.2094E+06     8.06742E+06    -30.0145E+06    -30.0139E+06     8.06679E+06     36.2094E+06     -92.356E+03
             976     22.5857E-03     9.53455E-03     20.4745E-03     454.899E-03    -224.222E-03    -230.677E-03    -223.830E-03     454.507E-03    -230.677E-03     32.5225E-03     468.224E-03     56.4165E+06     29.3432E+06     4.35144E+06    -35.2281E+06    -35.2219E+06     4.34522E+06     29.3432E+06     353.574E+03
             977     22.2113E-03     8.73481E-03     20.4217E-03     455.829E-03    -224.614E-03    -231.215E-03    -224.339E-03     455.554E-03    -231.215E-03     27.1900E-03     467.149E-03     56.0896E+06     22.8076E+06     1.16693E+06    -40.8604E+06    -40.8512E+06     1.15776E+06     22.8076E+06     562.116E+03
             978     21.8676E-03     7.93525E-03     20.3771E-03     457.074E-03    -225.271E-03    -231.802E-03    -225.090E-03     456.892E-03    -231.802E-03     22.0772E-03     466.607E-03     55.6797E+06     15.7102E+06    -2.98800E+06    -46.8978E+06    -46.8923E+06    -2.99351E+06     15.7102E+06     314.117E+03
             979     21.5541E-03     7.13644E-03     20.3384E-03     458.795E-03    -226.383E-03    -232.412E-03    -226.270E-03     458.682E-03    -232.412E-03     17.3855E-03     466.708E-03     54.7256E+06     7.47822E+06    -8.14630E+06    -53.3423E+06    -53.3322E+06    -8.15634E+06     7.47822E+06     379.577E+03
             980     21.2740E-03     6.33942E-03     20.3075E-03     460.743E-03    -227.737E-03    -233.006E-03    -227.671E-03     460.678E-03    -233.006E-03     13.2073E-03     467.163E-03     52.2740E+06    -3.02694E+06    -14.6878E+06    -60.1174E+06    -60.1054E+06    -14.6998E+06    -3.02694E+06     510.374E+03
             981     21.0256E-03     5.54353E-03     20.2816E-03     462.643E-03    -229.076E-03    -233.567E-03    -229.040E-03     462.608E-03    -233.567E-03     9.67088E-03     467.708E-03     47.4658E+06    -16.7324E+06    -23.1317E+06    -67.0203E+06    -67.0118E+06    -23.1402E+06    -16.7324E+06     437.896E+03
             982     20.8115E-03     4.74857E-03     20.2626E-03     464.444E-03    -230.345E-03    -234.099E-03    -230.328E-03     464.427E-03    -234.099E-03     6.66599E-03     468.291E-03     40.5631E+06    -32.1401E+06    -34.9409E+06    -74.0257E+06    -74.0169E+06    -33.8936E+06    -33.1963E+06     432.490E+03
             983     20.6305E-03     3.95496E-03     20.2478E-03     466.291E-03    -231.679E-03    -234.612E-03    -231.672E-03     466.284E-03    -234.612E-03     3.95931E-03     469.056E-03     29.6923E+06    -48.8570E+06    -53.3564E+06    -80.3759E+06    -80.3548E+06    -52.3214E+06    -49.9131E+06     500.830E+03
             984     20.4825E-03     3.16204E-03     20.2370E-03     468.124E-03    -233.038E-03    -235.086E-03    -233.036E-03     468.122E-03    -235.086E-03     1.82784E-03     469.954E-03     18.9899E+06    -65.0876E+06    -75.2881E+06    -85.9602E+06    -85.7569E+06    -75.4914E+06    -65.0876E+06     617.437E+03
             985     20.3694E-03     2.37010E-03     20.2310E-03     469.724E-03    -234.247E-03    -235.478E-03    -234.246E-03     469.723E-03    -235.478E-03     469.827E-06     470.797E-03     14.9465E+06    -78.6683E+06    -89.3485E+06    -95.2906E+06    -90.5079E+06    -94.1313E+06    -78.6683E+06     387.621E+03
             986     20.2882E-03     1.57965E-03     20.2266E-03     471.024E-03    -235.259E-03    -235.765E-03    -235.273E-03     471.024E-03    -235.751E-03    -226.029E-06     471.535E-03     17.9727E+06    -88.9013E+06    -93.9380E+06    -108.504E+06    -93.9596E+06    -108.483E+06    -88.9013E+06    -47.0589E+03
             987     20.2407E-03     790.313E-06     20.2253E-03     471.693E-03    -235.699E-03    -235.994E-03    -235.926E-03     471.693E-03    -235.767E-03    -423.809E-06     471.859E-03     25.6535E+06    -94.8052E+06    -96.0668E+06    -121.044E+06    -96.1209E+06    -120.990E+06    -94.8052E+06    -104.761E+03
             988     23.5730E-03     13.5393E-03     19.2970E-03     452.586E-03    -223.742E-03    -228.844E-03    -222.105E-03     450.949E-03    -228.844E-03     66.0534E-03     478.493E-03     105.226E+06     113.736E+06     57.9181E+06    -7.56417E+06     -7.5627E+06     57.9167E+06     113.736E+06     61.0028E+03
             989     23.0275E-03     12.7369E-03     19.1843E-03     453.478E-03    -224.383E-03    -229.095E-03    -222.889E-03     451.984E-03    -229.095E-03     62.6616E-03     479.968E-03     83.7846E+06     82.0474E+06     42.7088E+06    -14.1450E+06    -14.1434E+06     42.7071E+06     82.0474E+06     261.053E+03
             990     22.5234E-03     11.9361E-03     19.1006E-03     453.886E-03    -224.520E-03    -229.366E-03    -223.593E-03     452.959E-03    -229.366E-03     50.0638E-03     474.483E-03     67.7374E+06     58.3496E+06     27.3137E+06    -19.3361E+06    -19.3327E+06     27.3104E+06     58.3496E+06     242.682E+03
             991     22.0445E-03     11.1367E-03     19.0245E-03     454.255E-03    -224.571E-03    -229.685E-03    -223.852E-03     453.537E-03    -229.685E-03     43.9503E-03     472.901E-03     60.1078E+06     44.3487E+06     15.1253E+06    -24.7796E+06    -24.7759E+06     15.1217E+06     44.3487E+06     118.614E+03
             992     21.5921E-03     10.3353E-03     18.9578E-03     454.837E-03    -224.789E-03    -230.048E-03    -224.280E-03     454.328E-03    -230.048E-03     37.0447E-03     470.784E-03     57.1988E+06     35.6253E+06     7.88232E+06    -30.1498E+06    -30.1473E+06     7.87973E+06     35.6253E+06     124.727E+03
             993     21.1669E-03     9.53622E-03     18.8970E-03     455.715E-03    -225.278E-03    -230.437E-03    -224.918E-03     455.356E-03    -230.437E-03     31.0974E-03     469.328E-03     56.4210E+06     29.2208E+06     4.18450E+06    -35.3635E+06    -35.3561E+06     4.17709E+06     29.2208E+06     173.485E+03
             994     20.7718E-03     8.73744E-03     18.8448E-03     456.493E-03    -225.641E-03    -230.852E-03    -225.404E-03     456.256E-03    -230.852E-03     25.1972E-03     468.010E-03     56.5031E+06     23.2477E+06     1.37120E+06    -40.9033E+06    -40.8963E+06     1.36411E+06     23.2477E+06     194.623E+03
             995     20.4050E-03     7.93898E-03     18.7973E-03     457.357E-03    -226.059E-03    -231.299E-03    -225.914E-03     457.213E-03    -231.299E-03     19.6392E-03     466.970E-03     55.8517E+06     15.8184E+06    -2.56447E+06    -46.8846E+06    -46.8816E+06    -2.56740E+06     15.8184E+06     272.449E+03
             996     20.0702E-03     7.14137E-03     18.7567E-03     458.567E-03    -226.796E-03    -231.771E-03    -226.718E-03     458.489E-03    -231.771E-03     14.2963E-03     466.472E-03     54.4041E+06     6.99372E+06    -7.94118E+06    -53.3054E+06    -53.3023E+06    -7.94429E+06     6.99372E+06     39.9615E+03
             997     19.7673E-03     6.34413E-03     18.7216E-03     459.940E-03    -227.686E-03    -232.254E-03    -227.649E-03     459.903E-03    -232.254E-03     9.66486E-03     466.297E-03     52.1725E+06    -2.91881E+06    -14.3918E+06    -59.8516E+06    -59.8507E+06    -14.3927E+06    -2.91881E+06    -110.383E+03
             998     19.4998E-03     5.54790E-03     18.6940E-03     461.521E-03    -228.804E-03    -232.717E-03    -228.789E-03     461.506E-03    -232.717E-03     5.84964E-03     466.496E-03     47.4252E+06    -16.7431E+06    -23.0352E+06    -66.9384E+06    -66.9345E+06    -23.0391E+06    -16.7431E+06     209.322E+03
             999     19.2665E-03     4.75265E-03     18.6711E-03     463.223E-03    -230.089E-03    -233.134E-03    -230.083E-03     463.217E-03    -233.134E-03     2.63371E-03     466.976E-03     40.3980E+06    -31.8829E+06    -34.9180E+06    -73.7125E+06    -73.7075E+06    -33.4488E+06    -33.3571E+06     316.607E+03
            1000     19.0688E-03     3.95865E-03     18.6534E-03     464.762E-03    -231.251E-03    -233.511E-03    -231.248E-03     464.759E-03    -233.511E-03     87.9965E-06     467.442E-03     29.5649E+06    -48.5912E+06    -53.5336E+06    -80.1756E+06    -80.1653E+06    -52.0697E+06    -50.0654E+06     316.980E+03
            1001     18.9077E-03     3.16568E-03     18.6408E-03     466.127E-03    -232.278E-03    -233.850E-03    -232.275E-03     466.125E-03    -233.850E-03    -1.62932E-03     467.900E-03     18.8150E+06    -65.2654E+06    -75.0551E+06    -86.1993E+06    -86.0041E+06    -75.2503E+06    -65.2654E+06     521.431E+03
            1002     18.7818E-03     2.37371E-03     18.6312E-03     467.326E-03    -233.203E-03    -234.123E-03    -233.200E-03     467.323E-03    -234.123E-03    -2.45355E-03     468.368E-03     14.5294E+06    -78.3330E+06    -88.4585E+06    -94.7083E+06    -90.2693E+06    -92.8975E+06    -78.3330E+06     557.480E+03
            1003     18.6932E-03     1.58202E-03     18.6261E-03     468.183E-03    -233.833E-03    -234.350E-03    -233.831E-03     468.181E-03    -234.350E-03    -2.30562E-03     468.682E-03     17.6043E+06    -88.6445E+06    -93.5956E+06    -107.829E+06    -93.6440E+06    -107.781E+06    -88.6445E+06     301.736E+03
            1004     18.6394E-03     790.225E-06     18.6226E-03     468.905E-03    -234.211E-03    -234.694E-03    -234.344E-03     468.904E-03    -234.559E-03    -1.48290E-03     469.067E-03     25.2136E+06    -94.4756E+06    -95.8142E+06    -120.310E+06    -95.8283E+06    -120.251E+06    -94.5207E+06     169.421E+03
            1005     22.3095E-03     13.5393E-03     17.7314E-03     453.234E-03    -224.440E-03    -228.794E-03    -222.878E-03     451.672E-03    -228.794E-03     64.5414E-03     478.652E-03     105.050E+06     113.623E+06     58.0109E+06    -7.46074E+06    -7.45801E+06     58.0082E+06     113.623E+06     24.2625E+03
            1006     21.7341E-03     12.7381E-03     17.6100E-03     453.752E-03    -224.753E-03    -228.999E-03    -223.311E-03     452.310E-03    -228.999E-03     61.5951E-03     479.847E-03     83.4016E+06     81.6376E+06     42.8195E+06    -14.0724E+06    -14.0693E+06     42.8164E+06     81.6376E+06    -35.6279E+03
            1007     21.2081E-03     11.9380E-03     17.5290E-03     454.083E-03    -224.848E-03    -229.235E-03    -223.957E-03     453.192E-03    -229.235E-03     49.1053E-03     474.711E-03     67.5854E+06     57.8200E+06     26.9703E+06    -19.6710E+06    -19.6661E+06     26.9653E+06     57.8200E+06     188.532E+03
            1008     20.7001E-03     11.1370E-03     17.4488E-03     455.264E-03    -225.778E-03    -229.487E-03    -225.099E-03     454.585E-03    -229.487E-03     42.7330E-03     473.913E-03     60.3072E+06     44.7568E+06     15.2570E+06    -24.6175E+06    -24.6137E+06     15.2533E+06     44.7568E+06     371.047E+03
            1009     20.2252E-03     10.3398E-03     17.3823E-03     456.079E-03    -226.358E-03    -229.721E-03    -225.897E-03     455.619E-03    -229.721E-03     35.2942E-03     472.256E-03     57.5474E+06     36.7420E+06     8.71054E+06    -29.4447E+06    -29.4386E+06     8.70441E+06     36.7420E+06     453.003E+03
            1010     19.7737E-03     9.54105E-03     17.3196E-03     456.782E-03    -226.844E-03    -229.939E-03    -226.537E-03     456.476E-03    -229.939E-03     28.7008E-03     470.734E-03     56.5996E+06     29.7098E+06     4.62267E+06    -35.0725E+06    -35.0640E+06     4.61418E+06     29.7098E+06     289.508E+03
            1011     19.3531E-03     8.74355E-03     17.2653E-03     457.451E-03    -227.305E-03    -230.145E-03    -227.125E-03     457.270E-03    -230.145E-03     21.9172E-03     469.308E-03     56.5682E+06     23.3867E+06     1.60141E+06    -40.8156E+06    -40.8090E+06     1.59483E+06     23.3867E+06    -71.4775E+03
            1012     18.9627E-03     7.94658E-03     17.2173E-03     457.957E-03    -227.613E-03    -230.344E-03    -227.517E-03     457.860E-03    -230.344E-03     15.8863E-03     467.850E-03     56.0051E+06     16.1382E+06    -2.18300E+06    -46.7098E+06    -46.7062E+06    -2.18665E+06     16.1382E+06    -185.541E+03
            1013     18.6030E-03     7.14982E-03     17.1742E-03     458.412E-03    -227.865E-03    -230.546E-03    -227.822E-03     458.368E-03    -230.546E-03     10.2235E-03     466.513E-03     54.4890E+06     7.32169E+06    -7.51336E+06    -53.0357E+06    -53.0336E+06    -7.51546E+06     7.32169E+06    -264.110E+03
            1014     18.2785E-03     6.35360E-03     17.1387E-03     459.103E-03    -228.358E-03    -230.745E-03    -228.344E-03     459.089E-03    -230.745E-03     4.87291E-03     465.592E-03     51.8888E+06    -3.50539E+06    -14.6376E+06    -60.0319E+06    -60.0304E+06    -14.6391E+06    -3.50539E+06    -217.303E+03
            1015     17.9879E-03     5.55752E-03     17.1079E-03     459.925E-03    -229.013E-03    -230.911E-03    -229.008E-03     459.919E-03    -230.911E-03     290.197E-06     464.971E-03     47.2048E+06    -17.1697E+06    -23.2110E+06    -67.0523E+06    -67.0518E+06    -23.2115E+06    -17.1697E+06    -20.3498E+03
            1016     17.7340E-03     4.76273E-03     17.0825E-03     460.640E-03    -229.607E-03    -231.033E-03    -229.599E-03     460.631E-03    -231.033E-03    -3.27969E-03     464.415E-03     40.5593E+06    -31.7073E+06    -35.0767E+06    -73.8415E+06    -73.8388E+06    -33.2856E+06    -33.5012E+06     262.833E+03
            1017     17.5187E-03     3.96820E-03     17.0634E-03     461.249E-03    -230.115E-03    -231.134E-03    -230.101E-03     461.234E-03    -231.134E-03    -5.52042E-03     463.928E-03     29.6281E+06    -48.5711E+06    -53.4214E+06    -80.2387E+06    -80.2247E+06    -51.6416E+06    -50.3649E+06     528.160E+03
            1018     17.3414E-03     3.17411E-03     17.0484E-03     461.778E-03    -230.555E-03    -231.223E-03    -230.538E-03     461.761E-03    -231.223E-03    -6.35701E-03     463.544E-03     18.4463E+06    -65.4662E+06    -74.4920E+06    -85.9127E+06    -85.8654E+06    -74.5393E+06    -65.4662E+06     410.678E+03
            1019     17.2039E-03     2.38012E-03     17.0385E-03     462.150E-03    -230.853E-03    -231.296E-03    -230.838E-03     462.134E-03    -231.296E-03    -6.06220E-03     463.185E-03     13.9594E+06    -78.4005E+06    -88.5370E+06    -94.1908E+06    -90.5248E+06    -92.2031E+06    -78.4005E+06     215.830E+03
            1020     17.1053E-03     1.58662E-03     17.0315E-03     462.485E-03    -231.054E-03    -231.431E-03    -231.100E-03     462.475E-03    -231.375E-03    -4.95480E-03     462.980E-03     16.7768E+06    -88.4812E+06    -93.9780E+06    -106.893E+06    -94.0117E+06    -106.859E+06    -88.4812E+06     421.715E+03
            1021     17.0475E-03     793.462E-06     17.0290E-03     462.816E-03    -231.170E-03    -231.646E-03    -231.361E-03     462.812E-03    -231.451E-03    -3.06205E-03     462.979E-03     24.1521E+06    -94.3806E+06    -95.7645E+06    -119.153E+06    -95.7501E+06    -119.123E+06    -94.4257E+06     175.692E+03
            1022     21.0799E-03     13.5423E-03     16.1545E-03     454.498E-03    -225.775E-03    -228.723E-03    -224.140E-03     452.863E-03    -228.723E-03     66.2638E-03     480.483E-03     104.870E+06     113.684E+06     58.3115E+06    -7.17919E+06    -7.17403E+06     58.3063E+06     113.684E+06     76.0393E+03
            1023     20.4883E-03     12.7422E-03     16.0439E-03     454.977E-03    -226.133E-03    -228.844E-03    -224.643E-03     453.487E-03    -228.844E-03     62.8201E-03     481.964E-03     83.0555E+06     81.4293E+06     43.0026E+06    -13.8574E+06    -13.8517E+06     42.9969E+06     81.4293E+06     128.527E+03
            1024     19.9265E-03     11.9399E-03     15.9532E-03     455.182E-03    -226.200E-03    -228.982E-03    -225.305E-03     454.287E-03    -228.982E-03     49.2223E-03     476.580E-03     67.4333E+06     57.6353E+06     26.8761E+06    -19.6762E+06    -19.6719E+06     26.8718E+06     57.6353E+06     86.2228E+03
            1025     19.3945E-03     11.1429E-03     15.8739E-03     456.418E-03    -227.309E-03    -229.108E-03    -226.672E-03     455.780E-03    -229.108E-03     41.5235E-03     475.635E-03     60.5347E+06     45.0009E+06     15.3754E+06    -24.6375E+06    -24.6365E+06     15.3745E+06     45.0009E+06     122.636E+03
            1026     18.8870E-03     10.3441E-03     15.8025E-03     457.555E-03    -228.064E-03    -229.491E-03    -227.972E-03     457.138E-03    -229.166E-03     33.5783E-03     474.179E-03     57.8982E+06     36.8632E+06     8.86243E+06    -29.7048E+06    -29.7006E+06     8.85825E+06     36.8632E+06     290.385E+03
            1027     18.4106E-03     9.54876E-03     15.7407E-03     458.345E-03    -228.272E-03    -230.073E-03    -228.948E-03     458.089E-03    -229.141E-03     26.1742E-03     472.763E-03     56.7531E+06     30.1926E+06     5.33253E+06    -34.7236E+06    -34.7178E+06     5.32674E+06     30.1926E+06     323.226E+03
            1028     17.9611E-03     8.75305E-03     15.6839E-03     458.758E-03    -228.342E-03    -230.416E-03    -229.584E-03     458.625E-03    -229.042E-03     18.5828E-03     471.129E-03     56.4332E+06     23.7198E+06     2.28011E+06    -40.2718E+06    -40.2675E+06     2.27582E+06     23.7198E+06    -32.1029E+03
            1029     17.5445E-03     7.95827E-03     15.6357E-03     458.767E-03    -228.260E-03    -230.507E-03    -229.836E-03     458.715E-03    -228.879E-03     11.1966E-03     469.202E-03     56.1427E+06     16.6321E+06    -1.67932E+06    -46.3637E+06    -46.3603E+06    -1.68270E+06     16.6321E+06    -298.561E+03
            1030     17.1597E-03     7.16320E-03     15.5930E-03     458.445E-03    -228.045E-03    -230.400E-03    -229.766E-03     458.430E-03    -228.665E-03     4.68874E-03     467.066E-03     54.7522E+06     7.67485E+06    -7.33620E+06    -53.0019E+06    -53.0003E+06    -7.33774E+06     7.67485E+06    -241.446E+03
            1031     16.8088E-03     6.36825E-03     15.5558E-03     458.204E-03    -227.993E-03    -230.211E-03    -229.803E-03     458.197E-03    -228.394E-03    -1.23348E-03     465.140E-03     51.8368E+06    -3.54784E+06    -14.6047E+06    -59.9950E+06    -59.9943E+06    -14.6054E+06    -3.54784E+06    -115.110E+03
            1032     16.4951E-03     5.57423E-03     15.5247E-03     457.656E-03    -227.823E-03    -229.833E-03    -229.578E-03     457.635E-03    -228.057E-03    -6.36432E-03     463.049E-03     47.0064E+06    -17.5680E+06    -23.4509E+06    -67.1852E+06    -67.1845E+06    -23.4517E+06    -17.5680E+06    -40.4195E+03
            1033     16.2197E-03     4.77889E-03     15.4997E-03     456.643E-03    -227.507E-03    -229.136E-03    -228.906E-03     456.601E-03    -227.695E-03    -10.1020E-03     460.654E-03     40.5333E+06    -32.0738E+06    -35.3312E+06    -74.1316E+06    -74.1275E+06    -33.5550E+06    -33.8540E+06     258.091E+03
            1034     15.9845E-03     3.98330E-03     15.4802E-03     455.665E-03    -227.239E-03    -228.426E-03    -228.242E-03     455.607E-03    -227.366E-03    -11.9984E-03     458.499E-03     30.0581E+06    -48.5561E+06    -52.7504E+06    -80.4457E+06    -80.4286E+06    -50.9873E+06    -50.3363E+06     611.895E+03
            1035     15.7910E-03     3.18723E-03     15.4660E-03     454.797E-03    -227.000E-03    -227.797E-03    -227.649E-03     454.738E-03    -227.090E-03    -12.2137E-03     456.649E-03     18.5451E+06    -65.4283E+06    -73.1803E+06    -85.8857E+06    -85.8363E+06    -73.2297E+06    -65.4283E+06     611.385E+03
            1036     15.6395E-03     2.39091E-03     15.4557E-03     454.032E-03    -226.786E-03    -227.246E-03    -227.108E-03     453.986E-03    -226.877E-03    -10.8192E-03     455.101E-03     13.1842E+06    -78.8674E+06    -88.0364E+06    -93.9082E+06    -90.5736E+06    -91.3710E+06    -78.8674E+06     405.467E+03
            1037     15.5316E-03     1.59391E-03     15.4496E-03     453.606E-03    -226.680E-03    -226.926E-03    -226.849E-03     453.581E-03    -226.732E-03    -8.04075E-03     454.113E-03     15.5318E+06    -89.1899E+06    -94.1902E+06    -106.196E+06    -94.2152E+06    -106.171E+06    -89.1899E+06     230.947E+03
            1038     15.4656E-03     797.114E-06     15.4451E-03     453.328E-03    -226.472E-03    -226.856E-03    -226.846E-03     453.318E-03    -226.472E-03    -4.56484E-03     453.492E-03     22.7984E+06    -94.9884E+06    -96.3209E+06    -118.389E+06    -96.3324E+06    -118.378E+06    -94.9884E+06    -5.09598E+03
            1039     19.9005E-03     13.5400E-03     14.5842E-03     455.615E-03    -226.872E-03    -228.743E-03    -225.302E-03     453.970E-03    -228.668E-03     66.5750E-03     481.702E-03     105.014E+06     113.479E+06     57.9606E+06    -7.55479E+06    -7.54509E+06     57.9509E+06     113.479E+06    -17.4228E+03
            1040     19.2766E-03     12.7406E-03     14.4659E-03     457.101E-03    -228.038E-03    -229.063E-03    -226.932E-03     455.610E-03    -228.678E-03     62.9731E-03     484.644E-03     83.4254E+06     81.9276E+06     43.0409E+06    -13.8223E+06    -13.8149E+06     43.0335E+06     81.9276E+06     64.2312E+03
            1041     18.6937E-03     11.9462E-03     14.3786E-03     457.378E-03    -227.955E-03    -229.423E-03    -227.851E-03     456.491E-03    -228.640E-03     49.1885E-03     479.437E-03     67.4753E+06     58.2231E+06     27.3411E+06    -19.1563E+06    -19.1526E+06     27.3374E+06     58.2231E+06     226.827E+03
            1042     18.1276E-03     11.1474E-03     14.2950E-03     458.200E-03    -228.199E-03    -230.001E-03    -229.005E-03     457.565E-03    -228.560E-03     41.5252E-03     478.378E-03     60.1398E+06     44.5460E+06     15.5298E+06    -24.5989E+06    -24.5948E+06     15.5257E+06     44.5460E+06     265.420E+03
            1043     17.5917E-03     10.3536E-03     14.2223E-03     459.608E-03    -228.368E-03    -231.240E-03    -230.854E-03     459.223E-03    -228.369E-03     32.2299E-03     477.169E-03     57.4602E+06     36.3451E+06     9.12355E+06    -29.6599E+06    -29.6538E+06     9.11748E+06     36.3451E+06     31.7331E+03
            1044     17.0822E-03     9.55879E-03     14.1574E-03     460.329E-03    -228.017E-03    -232.312E-03    -232.115E-03     460.132E-03    -228.017E-03     22.9086E-03     475.708E-03     56.5237E+06     29.8789E+06     5.54746E+06    -34.7146E+06    -34.7107E+06     5.54358E+06     29.8789E+06    -260.188E+03
            1045     16.6039E-03     8.76632E-03     14.1011E-03     460.197E-03    -227.524E-03    -232.673E-03    -232.589E-03     460.113E-03    -227.524E-03     14.5035E-03     473.628E-03     56.4040E+06     23.9505E+06     2.72011E+06    -39.9711E+06    -39.9703E+06     2.71928E+06     23.9505E+06    -121.916E+03
            1046     16.1566E-03     7.97388E-03     14.0517E-03     459.766E-03    -226.895E-03    -232.871E-03    -232.849E-03     459.743E-03    -226.895E-03     6.41161E-03     471.270E-03     56.3138E+06     16.9955E+06    -1.39815E+06    -46.2012E+06    -46.2005E+06    -1.39884E+06     16.9955E+06     8.85342E+03
            1047     15.7448E-03     7.18194E-03     14.0114E-03     458.792E-03    -226.115E-03    -232.677E-03    -232.669E-03     458.784E-03    -226.115E-03    -1.13236E-03     468.442E-03     54.9317E+06     8.02021E+06    -7.13950E+06    -52.8830E+06    -52.8815E+06    -7.14096E+06     8.02021E+06     75.8330E+03
            1048     15.3660E-03     6.38935E-03     13.9746E-03     456.886E-03    -225.212E-03    -231.674E-03    -231.643E-03     456.856E-03    -225.212E-03    -7.88805E-03     464.760E-03     51.8336E+06    -3.41051E+06    -14.5020E+06    -59.8658E+06    -59.8648E+06    -14.5030E+06    -3.41051E+06     57.8939E+03
            1049     15.0264E-03     5.59534E-03     13.9458E-03     454.298E-03    -224.247E-03    -230.051E-03    -229.977E-03     454.224E-03    -224.247E-03    -13.5191E-03     460.443E-03     46.9333E+06    -17.4668E+06    -23.4152E+06    -67.0391E+06    -67.0372E+06    -23.4171E+06    -17.4668E+06     73.1600E+03
            1050     14.7285E-03     4.80082E-03     13.9241E-03     451.337E-03    -223.285E-03    -228.052E-03    -227.941E-03     451.226E-03    -223.285E-03    -16.9729E-03     455.907E-03     40.3771E+06    -32.2288E+06    -35.5783E+06    -74.1696E+06    -74.1619E+06    -33.7749E+06    -34.0398E+06     414.093E+03
            1051     14.4730E-03     4.00402E-03     13.9081E-03     448.339E-03    -222.406E-03    -225.933E-03    -225.807E-03     448.213E-03    -222.406E-03    -18.1866E-03     451.554E-03     30.3241E+06    -48.8065E+06    -52.0683E+06    -80.6173E+06    -80.5792E+06    -50.2953E+06    -50.6176E+06     928.682E+03
            1052     14.2609E-03     3.20566E-03     13.8959E-03     445.631E-03    -221.665E-03    -223.965E-03    -223.849E-03     445.514E-03    -221.665E-03    -17.4912E-03     447.711E-03     18.9941E+06    -65.9022E+06    -71.6323E+06    -86.5843E+06    -86.4798E+06    -71.7368E+06    -65.9022E+06     1.07020E+06
            1053     14.0960E-03     2.40543E-03     13.8892E-03     443.462E-03    -221.078E-03    -222.383E-03    -222.298E-03     443.377E-03    -221.078E-03    -14.8487E-03     444.642E-03     12.5465E+06    -79.5574E+06    -87.6244E+06    -93.9326E+06    -91.4306E+06    -90.1264E+06    -79.5574E+06     865.295E+03
            1054     13.9757E-03     1.60436E-03     13.8833E-03     441.915E-03    -220.652E-03    -221.263E-03    -221.216E-03     441.868E-03    -220.652E-03    -10.8548E-03     442.461E-03     14.0308E+06    -89.7639E+06    -94.5683E+06    -105.044E+06    -94.6490E+06    -104.963E+06    -89.7639E+06     676.922E+03
            1055     13.9044E-03     802.171E-06     13.8812E-03     440.947E-03    -220.201E-03    -220.747E-03    -220.508E-03     440.930E-03    -220.421E-03    -6.39266E-03     441.123E-03     21.4788E+06    -95.5748E+06    -97.0901E+06    -117.751E+06    -96.7659E+06    -117.731E+06    -95.9192E+06     33.2914E+03
            1056     18.7810E-03     13.5440E-03     13.0109E-03     457.370E-03    -227.890E-03    -229.479E-03    -227.274E-03     455.803E-03    -228.529E-03     64.8784E-03     483.631E-03     105.264E+06     114.498E+06     58.7632E+06    -6.82414E+06    -6.81358E+06     58.7526E+06     114.498E+06     95.8171E+03
            1057     18.1266E-03     12.7471E-03     12.8873E-03     458.519E-03    -228.410E-03    -230.109E-03    -228.614E-03     457.024E-03    -228.410E-03     63.1881E-03     486.852E-03     83.3896E+06     81.8370E+06     42.8364E+06    -13.8910E+06    -13.8843E+06     42.8297E+06     81.8370E+06    -1.46567E+03
            1058     17.5089E-03     11.9489E-03     12.7979E-03     459.810E-03    -228.195E-03    -231.615E-03    -230.755E-03     458.950E-03    -228.195E-03     48.5358E-03     482.460E-03     67.2336E+06     57.5352E+06     26.6513E+06    -19.5841E+06    -19.5819E+06     26.6491E+06     57.5352E+06     18.4375E+03
            1059     16.9155E-03     11.1564E-03     12.7149E-03     461.110E-03    -227.844E-03    -233.266E-03    -232.669E-03     460.514E-03    -227.844E-03     40.4361E-03     482.381E-03     59.8270E+06     44.5839E+06     16.0020E+06    -24.1730E+06    -24.1682E+06     15.9971E+06     44.5839E+06     196.518E+03
            1060     16.3416E-03     10.3626E-03     12.6359E-03     462.030E-03    -227.313E-03    -234.717E-03    -234.370E-03     461.683E-03    -227.313E-03     30.4087E-03     481.133E-03     56.9628E+06     36.4109E+06     9.90110E+06    -28.9689E+06    -28.9625E+06     9.89475E+06     36.4109E+06     65.8196E+03
            1061     15.8016E-03     9.57370E-03     12.5712E-03     462.251E-03    -226.576E-03    -235.675E-03    -235.521E-03     462.097E-03    -226.576E-03     20.2555E-03     479.346E-03     56.0488E+06     29.6876E+06     5.91662E+06    -34.3109E+06    -34.3069E+06     5.91259E+06     29.6876E+06    -198.939E+03
            1062     15.2900E-03     8.78346E-03     12.5153E-03     461.869E-03    -225.623E-03    -236.246E-03    -236.191E-03     461.814E-03    -225.623E-03     11.3236E-03     477.155E-03     56.0552E+06     23.2833E+06     2.41592E+06    -40.1965E+06    -40.1957E+06     2.41516E+06     23.2833E+06    -73.9597E+03
            1063     14.8101E-03     7.99360E-03     12.4676E-03     460.796E-03    -224.439E-03    -236.357E-03    -236.346E-03     460.785E-03    -224.439E-03     1.96447E-03     474.139E-03     56.0853E+06     16.7528E+06    -1.47088E+06    -46.1663E+06    -46.1656E+06    -1.47149E+06     16.7528E+06     115.151E+03
            1064     14.3640E-03     7.20426E-03     12.4267E-03     458.577E-03    -223.026E-03    -235.551E-03    -235.529E-03     458.555E-03    -223.026E-03    -6.37846E-03     470.064E-03     54.8253E+06     8.16150E+06    -6.99410E+06    -52.6310E+06    -52.6293E+06    -6.99582E+06     8.16150E+06     269.146E+03
            1065     13.9578E-03     6.41444E-03     12.3966E-03     454.813E-03    -221.454E-03    -233.359E-03    -233.287E-03     454.741E-03    -221.454E-03    -13.4936E-03     464.296E-03     51.7402E+06    -3.20941E+06    -14.3293E+06    -59.5799E+06    -59.5733E+06    -14.3359E+06    -3.20941E+06     374.043E+03
            1066     13.5904E-03     5.62210E-03     12.3729E-03     449.810E-03    -219.851E-03    -229.960E-03    -229.828E-03     449.678E-03    -219.851E-03    -18.7622E-03     457.235E-03     46.7910E+06    -17.5854E+06    -23.5760E+06    -67.0314E+06    -67.0136E+06    -23.5938E+06    -17.5854E+06     671.706E+03
            1067     13.2672E-03     4.82594E-03     12.3584E-03     444.725E-03    -218.322E-03    -226.404E-03    -226.235E-03     444.556E-03    -218.322E-03    -21.2543E-03     450.306E-03     40.3532E+06    -32.4601E+06    -35.7379E+06    -74.3452E+06    -74.2862E+06    -34.0720E+06    -34.1850E+06     1.29903E+06
            1068     12.9881E-03     4.02748E-03     12.3479E-03     439.911E-03    -216.931E-03    -222.980E-03    -222.805E-03     439.736E-03    -216.931E-03    -21.5245E-03     443.841E-03     31.2328E+06    -48.9634E+06    -51.9328E+06    -81.5691E+06    -81.4522E+06    -49.5949E+06    -51.4182E+06     1.76769E+06
            1069     12.7578E-03     3.22562E-03     12.3433E-03     435.536E-03    -215.738E-03    -219.798E-03    -219.645E-03     435.382E-03    -215.738E-03    -20.0298E-03     438.050E-03     19.9081E+06    -66.3146E+06    -70.4317E+06    -87.7580E+06    -87.5971E+06    -69.8626E+06    -67.0445E+06     1.58060E+06
            1070     12.5747E-03     2.42156E-03     12.3394E-03     431.946E-03    -214.773E-03    -217.173E-03    -217.063E-03     431.837E-03    -214.773E-03    -16.7217E-03     433.368E-03     12.1876E+06    -79.9119E+06    -86.7129E+06    -93.7041E+06    -92.0882E+06    -88.3288E+06    -79.9119E+06     1.19971E+06
            1071     12.4438E-03     1.61551E-03     12.3385E-03     429.233E-03    -214.050E-03    -215.183E-03    -215.124E-03     429.174E-03    -214.050E-03    -12.0504E-03     429.891E-03     12.0616E+06    -90.1854E+06    -95.2934E+06    -103.407E+06    -95.5693E+06    -103.131E+06    -90.1854E+06     983.989E+03
            1072     12.3633E-03     808.442E-06     12.3368E-03     427.504E-03    -213.434E-03    -214.069E-03    -213.827E-03     427.482E-03    -213.655E-03    -7.14703E-03     427.715E-03     18.8314E+06    -96.1454E+06    -97.9547E+06    -115.794E+06    -97.6443E+06    -115.760E+06    -96.4898E+06     280.403E+03
            1073     17.7277E-03     13.5472E-03     11.4344E-03     459.900E-03    -228.347E-03    -231.553E-03    -229.983E-03     458.331E-03    -228.347E-03     64.8282E-03     487.386E-03     105.360E+06     114.183E+06     58.4946E+06    -7.23411E+06    -7.22926E+06     58.4897E+06     114.183E+06    -4.63557E+03
            1074     17.0426E-03     12.7487E-03     11.3103E-03     460.604E-03    -228.059E-03    -232.546E-03    -230.957E-03     459.015E-03    -228.059E-03     65.4158E-03     492.160E-03     83.0951E+06     81.5718E+06     42.9892E+06    -13.7846E+06    -13.7794E+06     42.9839E+06     81.5718E+06     36.9616E+03
            1075     16.3911E-03     11.9571E-03     11.2114E-03     462.619E-03    -227.630E-03    -234.990E-03    -234.092E-03     461.721E-03    -227.630E-03     49.7348E-03     487.556E-03     66.8712E+06     57.3077E+06     27.0155E+06    -19.3428E+06    -19.3399E+06     27.0126E+06     57.3077E+06    -259.201E+03
            1076     15.7642E-03     11.1657E-03     11.1282E-03     464.421E-03    -226.966E-03    -237.455E-03    -236.871E-03     463.837E-03    -226.966E-03     40.2056E-03     487.757E-03     59.5514E+06     44.3088E+06     16.3006E+06    -24.0811E+06    -24.0795E+06     16.2990E+06     44.3088E+06    -204.320E+03
            1077     15.1573E-03     10.3787E-03     11.0466E-03     464.197E-03    -226.071E-03    -238.125E-03    -237.791E-03     463.862E-03    -226.071E-03     30.0805E-03     485.840E-03     56.6417E+06     36.3123E+06     10.1375E+06    -28.6784E+06    -28.6750E+06     10.1341E+06     36.3123E+06     192.995E+03
            1078     14.5801E-03     9.58870E-03     10.9834E-03     464.244E-03    -224.931E-03    -239.312E-03    -239.163E-03     464.094E-03    -224.931E-03     19.9221E-03     483.918E-03     55.5118E+06     29.3572E+06     5.92152E+06    -34.0103E+06    -34.0031E+06     5.91427E+06     29.3572E+06     423.871E+03
            1079     14.0301E-03     8.80195E-03     10.9256E-03     463.848E-03    -223.471E-03    -240.378E-03    -240.333E-03     463.804E-03    -223.471E-03     9.28667E-03     481.929E-03     55.3526E+06     23.1080E+06     2.61458E+06    -39.5539E+06    -39.5481E+06     2.60875E+06     23.1080E+06     362.936E+03
            1080     13.5147E-03     8.01696E-03     10.8800E-03     461.089E-03    -221.716E-03    -239.373E-03    -239.367E-03     461.083E-03    -221.716E-03    -778.964E-06     477.250E-03     55.4689E+06     16.6020E+06    -1.36214E+06    -45.6115E+06    -45.6051E+06    -1.36854E+06     16.6020E+06     425.457E+03
            1081     13.0345E-03     7.22983E-03     10.8456E-03     456.613E-03    -219.770E-03    -236.843E-03    -236.814E-03     456.583E-03    -219.770E-03    -8.29425E-03     470.842E-03     54.3206E+06     7.87929E+06    -7.09995E+06    -52.3430E+06    -52.3296E+06    -7.11336E+06     7.87929E+06     641.201E+03
            1082     12.5919E-03     6.44028E-03     10.8203E-03     450.884E-03    -217.742E-03    -233.142E-03    -233.064E-03     450.806E-03    -217.742E-03    -14.3173E-03     462.610E-03      51.473E+06    -3.46395E+06    -14.5402E+06    -59.5494E+06    -59.5112E+06    -14.5783E+06    -3.46395E+06     1.14045E+06
            1083     12.1960E-03     5.64708E-03     10.8098E-03     444.490E-03    -215.736E-03    -228.754E-03    -228.632E-03     444.369E-03    -215.736E-03    -17.8807E-03     453.745E-03     47.1329E+06    -17.3552E+06    -23.6884E+06    -67.2897E+06    -67.1906E+06    -23.7875E+06    -17.3552E+06     1.89397E+06
            1084     11.8416E-03     4.84988E-03     10.8029E-03     438.074E-03    -213.831E-03    -224.243E-03    -224.096E-03     437.928E-03    -213.831E-03    -19.5465E-03     445.100E-03     41.3201E+06    -32.6708E+06    -35.7426E+06    -75.4358E+06    -75.2712E+06    -34.7024E+06    -33.8757E+06     2.49258E+06
            1085     11.5365E-03     4.04834E-03     10.8029E-03     432.025E-03    -212.085E-03    -219.940E-03    -219.786E-03     431.871E-03    -212.085E-03    -19.8812E-03     436.986E-03     32.8855E+06    -47.9231E+06    -51.1083E+06    -82.2613E+06     -82.063E+06    -48.1214E+06    -51.1083E+06     2.58916E+06
            1086     11.2810E-03     3.24387E-03     10.8046E-03     426.635E-03    -210.542E-03    -216.092E-03    -215.957E-03     426.499E-03    -210.542E-03    -18.5432E-03     429.834E-03     21.4309E+06    -65.1890E+06    -68.7155E+06    -88.1222E+06    -87.9004E+06    -66.9569E+06    -67.1694E+06     2.07882E+06
            1087     11.0802E-03     2.43607E-03     10.8091E-03     421.894E-03    -209.244E-03    -212.650E-03    -212.550E-03     421.794E-03    -209.244E-03    -15.8084E-03     423.730E-03     12.1015E+06    -80.7132E+06    -85.8321E+06    -93.9974E+06    -93.1297E+06    -86.6998E+06    -80.7132E+06     1.48177E+06
            1088     10.9332E-03     1.62559E-03     10.8117E-03     418.024E-03    -208.293E-03    -209.731E-03    -209.675E-03     417.968E-03    -208.293E-03    -11.5438E-03     418.884E-03     9.64627E+06    -91.0314E+06    -95.5557E+06    -101.646E+06    -96.3512E+06    -100.850E+06    -91.0314E+06     1.06479E+06
            1089     10.8457E-03     812.894E-06     10.8152E-03     415.864E-03    -207.685E-03    -208.179E-03    -208.160E-03     415.846E-03    -207.685E-03    -6.27690E-03     416.141E-03     16.0012E+06    -96.6556E+06    -98.0887E+06    -113.298E+06    -97.9473E+06    -113.243E+06    -96.8519E+06     566.641E+03
            1090     16.7520E-03     13.5473E-03     9.85404E-03     463.508E-03    -228.133E-03    -235.375E-03    -233.924E-03     462.057E-03    -228.133E-03     62.0575E-03     491.177E-03     105.727E+06     114.338E+06     58.4715E+06    -7.49957E+06    -7.49854E+06     58.4704E+06     114.338E+06    -9.83224E+03
            1091     16.0413E-03     12.7569E-03     9.72539E-03     464.697E-03    -227.551E-03    -237.146E-03    -235.665E-03     463.216E-03    -227.551E-03     62.9802E-03     497.176E-03     83.3175E+06     81.4956E+06     43.2600E+06    -14.0504E+06    -14.0435E+06     43.2531E+06     81.4956E+06    -394.635E+03
            1092     15.3550E-03     11.9632E-03     9.62598E-03     464.987E-03    -226.810E-03    -238.177E-03    -237.398E-03     464.209E-03    -226.810E-03     46.3611E-03     490.563E-03     66.4552E+06     57.3137E+06     27.7360E+06    -18.7852E+06    -18.7784E+06     27.7292E+06     57.3137E+06    -513.460E+03
            1093     14.6883E-03     11.1773E-03     9.52969E-03     465.780E-03    -225.868E-03    -239.912E-03    -239.405E-03     465.272E-03    -225.868E-03     37.2123E-03     490.208E-03     58.7137E+06     43.9958E+06     16.2508E+06    -23.4440E+06    -23.4423E+06     16.2491E+06     43.9958E+06    -252.667E+03
            1094     14.0511E-03     10.3897E-03     9.45969E-03     466.587E-03    -224.630E-03    -241.958E-03    -241.685E-03     466.315E-03    -224.630E-03     27.0089E-03     490.467E-03     55.9380E+06     35.6799E+06     9.46633E+06    -28.5439E+06    -28.5400E+06     9.46237E+06     35.6799E+06     116.306E+03
            1095     13.4316E-03     9.60518E-03     9.38877E-03     466.011E-03    -223.045E-03    -242.966E-03    -242.853E-03     465.899E-03    -223.045E-03     16.2038E-03     488.465E-03     54.8540E+06     29.2393E+06     5.82132E+06    -33.4177E+06    -33.4093E+06     5.81302E+06     29.2393E+06     530.706E+03
            1096     12.8428E-03     8.82356E-03     9.33184E-03     462.863E-03    -221.183E-03    -241.680E-03    -241.658E-03     462.841E-03    -221.183E-03     6.21542E-03     483.563E-03     54.5788E+06     22.9538E+06     2.54840E+06    -38.8712E+06    -38.8520E+06     2.52918E+06     22.9538E+06     799.212E+03
            1097     12.2886E-03     8.03856E-03     9.29467E-03     458.039E-03    -219.164E-03    -238.875E-03    -238.872E-03     458.036E-03    -219.164E-03     296.888E-06     476.932E-03     54.6678E+06     16.2125E+06    -1.58955E+06    -45.1257E+06    -45.0772E+06    -1.63805E+06     16.2125E+06     1.29431E+06
            1098     11.7667E-03     7.25146E-03     9.26671E-03     452.089E-03    -217.081E-03    -235.008E-03    -234.995E-03     452.076E-03    -217.081E-03    -4.14399E-03     468.850E-03     53.8984E+06     7.77141E+06    -7.24508E+06    -52.0285E+06    -51.9275E+06    -7.34604E+06     7.77141E+06     1.91231E+06
            1099     11.2871E-03     6.45951E-03     9.25601E-03     445.486E-03    -215.022E-03    -230.465E-03    -230.431E-03     445.453E-03    -215.022E-03    -8.02697E-03     459.224E-03     52.1881E+06    -2.85801E+06    -14.7943E+06    -59.9618E+06    -59.7958E+06    -14.9603E+06    -2.85801E+06     2.55814E+06
            1100     10.8482E-03     5.66336E-03     9.25250E-03     439.262E-03    -213.014E-03    -226.249E-03    -226.198E-03     439.212E-03    -213.014E-03    -10.3327E-03     450.215E-03     48.9254E+06    -15.6753E+06    -23.6580E+06     -68.061E+06    -67.8408E+06    -23.8782E+06    -15.6753E+06     3.06165E+06
            1101     10.4586E-03     4.86432E-03     9.25852E-03     433.101E-03    -211.051E-03    -222.050E-03    -221.986E-03     433.037E-03    -211.051E-03    -11.8517E-03     441.516E-03     43.1474E+06    -30.8592E+06    -34.2562E+06    -75.5663E+06    -75.3213E+06    -33.9464E+06    -31.4140E+06     3.18831E+06
            1102     10.1181E-03     4.06157E-03     9.26709E-03     426.864E-03    -209.189E-03    -217.675E-03    -217.604E-03     426.793E-03    -209.189E-03    -12.6599E-03     432.929E-03     35.6098E+06    -46.1661E+06    -49.2158E+06    -83.1461E+06    -82.8781E+06    -46.4991E+06    -49.1508E+06     3.11290E+06
            1103     9.83351E-03     3.25469E-03     9.27927E-03     421.047E-03    -207.513E-03    -213.533E-03    -213.467E-03     420.980E-03    -207.513E-03    -12.2269E-03     425.075E-03     24.9686E+06    -63.3509E+06    -66.4576E+06    -89.7088E+06    -89.3818E+06    -64.1020E+06    -66.0335E+06     2.81247E+06
            1104     9.60628E-03     2.44503E-03     9.28991E-03     415.983E-03    -206.068E-03    -209.915E-03    -209.863E-03     415.931E-03    -206.068E-03    -10.7474E-03     418.319E-03     13.5274E+06    -80.6080E+06    -83.8655E+06    -95.0417E+06    -94.6849E+06    -83.9695E+06    -80.8608E+06     1.75884E+06
            1105     9.44419E-03     1.63209E-03     9.30210E-03     411.779E-03    -204.895E-03    -206.884E-03    -206.851E-03     411.746E-03    -204.895E-03    -8.44598E-03     412.872E-03     7.75280E+06    -92.5436E+06    -96.5878E+06    -101.228E+06    -98.7728E+06    -99.0429E+06    -92.5436E+06      727.48E+03
            1106     9.34304E-03     816.409E-06     9.30731E-03     408.777E-03    -203.936E-03    -204.841E-03    -204.597E-03     408.766E-03    -204.168E-03    -4.62852E-03     409.131E-03     12.0144E+06    -98.7163E+06    -100.603E+06    -111.275E+06    -100.479E+06    -111.203E+06    -98.9126E+06     810.918E+03
            1107     15.8770E-03     13.5541E-03     8.26823E-03     469.011E-03    -227.861E-03    -241.149E-03    -239.668E-03     467.530E-03    -227.861E-03     62.8614E-03     496.803E-03     106.416E+06     115.395E+06     59.2277E+06    -7.23552E+06    -7.23027E+06     59.2225E+06     115.395E+06    -280.775E+03
            1108     15.1339E-03     12.7648E-03     8.12989E-03     470.956E-03    -226.869E-03    -244.087E-03    -242.613E-03     469.482E-03    -226.869E-03     62.8359E-03     503.186E-03     84.0350E+06     82.9105E+06     44.4275E+06    -13.4461E+06    -13.4364E+06     44.4179E+06     82.9105E+06    -501.733E+03
            1109     14.4279E-03     11.9838E-03     8.03447E-03     469.454E-03    -225.655E-03    -243.800E-03    -243.177E-03     468.831E-03    -225.655E-03     41.8141E-03     495.356E-03     66.7675E+06     57.5429E+06     27.5485E+06    -18.9428E+06    -18.9372E+06     27.5429E+06     57.5429E+06    -430.589E+03
            1110     13.7245E-03     11.1931E-03     7.94218E-03     468.067E-03    -224.261E-03    -243.806E-03    -243.486E-03     467.747E-03    -224.261E-03     28.4244E-03     492.658E-03     58.5181E+06     43.4041E+06     15.1456E+06    -23.8776E+06    -23.8669E+06     15.1349E+06     43.4041E+06    -478.004E+03
            1111     13.0437E-03     10.4097E-03     7.85973E-03     467.014E-03    -222.618E-03    -244.396E-03    -244.280E-03     466.898E-03    -222.618E-03     16.6272E-03     490.238E-03     55.3574E+06     35.0762E+06     8.66541E+06    -28.5341E+06    -28.5213E+06     8.65267E+06     35.0762E+06    -164.239E+03
            1112     12.3882E-03     9.63105E-03     7.79170E-03     463.060E-03    -220.767E-03    -242.293E-03    -242.256E-03     463.023E-03    -220.767E-03     7.89783E-03     485.241E-03     54.1791E+06     28.7018E+06     5.11185E+06    -33.2539E+06    -33.2315E+06     5.08947E+06     28.7018E+06     730.573E+03
            1113     11.7583E-03     8.84428E-03     7.74828E-03     455.910E-03    -218.937E-03    -236.972E-03    -236.966E-03     455.904E-03    -218.937E-03     3.22734E-03     477.002E-03     53.9234E+06     22.3932E+06     1.79804E+06    -38.7753E+06    -38.7110E+06     1.73373E+06     22.3932E+06     1.46398E+06
            1114     11.1536E-03     8.05469E-03     7.71521E-03     449.607E-03    -217.262E-03    -232.344E-03    -232.335E-03     449.597E-03    -217.262E-03     4.24611E-03     469.702E-03     54.5827E+06     16.0292E+06    -2.31053E+06    -45.3501E+06    -45.1992E+06    -2.46144E+06     16.0292E+06     2.42997E+06
            1115     10.5842E-03     7.26156E-03     7.70027E-03     444.758E-03    -215.671E-03    -229.087E-03    -229.072E-03     444.743E-03    -215.671E-03     4.05380E-03     462.003E-03     55.3036E+06     8.96803E+06    -7.67227E+06    -52.7312E+06    -52.4710E+06    -7.93254E+06     8.96803E+06     3.35119E+06
            1116     10.0527E-03     6.46548E-03     7.69771E-03     440.198E-03    -214.079E-03    -226.119E-03    -226.103E-03     440.182E-03    -214.079E-03     2.76120E-03     454.210E-03     54.6622E+06     71.8213E+03    -14.2914E+06    -60.3177E+06    -60.0126E+06    -14.5965E+06     71.8213E+03     3.72245E+06
            1117     9.56463E-03     5.66706E-03     7.70497E-03     435.476E-03    -212.467E-03    -223.009E-03    -222.993E-03     435.460E-03    -212.467E-03     1.10242E-03     446.869E-03     51.7584E+06    -11.8042E+06    -22.5058E+06    -68.0386E+06    -67.7603E+06    -22.7841E+06    -11.8042E+06     3.54683E+06
            1118     9.12353E-03     4.86545E-03     7.71791E-03     430.554E-03    -210.856E-03    -219.698E-03    -219.682E-03     430.538E-03    -210.856E-03    -575.813E-06     439.538E-03     46.8025E+06    -26.8944E+06    -32.5224E+06    -76.1692E+06    -75.8815E+06    -32.8102E+06    -26.8944E+06     3.52188E+06
            1119     8.73868E-03     4.06132E-03     7.73759E-03     425.598E-03    -209.283E-03    -216.315E-03    -216.300E-03     425.583E-03    -209.283E-03    -1.80260E-03     432.307E-03     39.8826E+06    -42.7786E+06    -45.9820E+06    -84.1286E+06    -83.8572E+06    -44.4310E+06    -44.6010E+06     3.18261E+06
            1120     8.41259E-03     3.25429E-03     7.75766E-03     420.652E-03    -207.830E-03    -212.822E-03    -212.808E-03     420.638E-03    -207.830E-03    -2.64120E-03     425.216E-03     29.5165E+06    -60.6982E+06    -63.2010E+06    -91.3722E+06     -91.173E+06    -61.3251E+06    -62.7733E+06     2.05897E+06
            1121     8.15269E-03     2.44339E-03     7.77793E-03     416.276E-03    -206.583E-03    -209.693E-03    -209.683E-03     416.266E-03    -206.583E-03    -2.81911E-03     418.952E-03     17.2145E+06    -78.3856E+06    -81.1456E+06    -96.6602E+06    -96.5379E+06    -81.0152E+06    -78.6384E+06     1.06527E+06
            1122     7.96221E-03     1.63100E-03     7.79337E-03     412.889E-03    -205.508E-03    -207.380E-03    -207.373E-03     412.881E-03    -205.508E-03    -2.50638E-03     414.141E-03     8.56295E+06    -92.4286E+06    -96.5539E+06    -102.141E+06    -100.788E+06    -97.9072E+06    -92.4286E+06     353.382E+03
            1123     7.84993E-03     817.374E-06     7.80726E-03     409.968E-03    -204.403E-03    -205.565E-03    -205.115E-03     409.965E-03    -204.850E-03    -1.43270E-03     410.360E-03     9.13043E+06    -101.104E+06    -103.401E+06    -110.768E+06    -103.435E+06    -110.710E+06    -101.129E+06     101.890E+03
            1124     15.1032E-03     13.5531E-03     6.66492E-03     474.206E-03    -227.667E-03    -246.539E-03    -244.836E-03     472.503E-03    -227.667E-03     67.8160E-03     504.960E-03     106.340E+06     115.244E+06     59.7954E+06    -7.26280E+06    -7.25756E+06     59.7902E+06     115.244E+06    -388.233E+03
            1125     14.3462E-03     12.7758E-03     6.52613E-03     478.122E-03    -226.289E-03    -251.833E-03    -250.074E-03     476.363E-03    -226.289E-03     69.6018E-03     514.398E-03     84.7502E+06     83.1272E+06     44.5131E+06    -14.0322E+06    -14.0253E+06     44.5062E+06     83.1272E+06    -123.918E+03
            1126     13.6084E-03     11.9931E-03     6.43067E-03     479.456E-03    -224.438E-03    -255.018E-03    -254.327E-03     478.765E-03    -224.438E-03     43.7812E-03     508.971E-03     68.1347E+06     58.2866E+06     27.8923E+06    -19.7415E+06    -19.7329E+06     27.8837E+06     58.2866E+06    -212.978E+03
            1127     12.8901E-03     11.2227E-03     6.34082E-03     474.377E-03    -222.274E-03    -252.102E-03    -251.883E-03     474.158E-03    -222.274E-03     22.7603E-03     502.419E-03     59.6383E+06     43.7732E+06     15.3200E+06    -24.7548E+06    -24.7391E+06     15.3043E+06     43.7732E+06    -613.491E+03
            1128     12.1795E-03     10.4434E-03     6.26706E-03     462.738E-03    -220.238E-03    -242.500E-03    -242.443E-03     462.681E-03    -220.238E-03     12.2534E-03     489.183E-03     55.7370E+06     34.2294E+06     7.53394E+06    -29.8309E+06    -29.7961E+06     7.49911E+06     34.2294E+06    -630.871E+03
            1129     11.4767E-03     9.65445E-03     6.20540E-03     452.280E-03    -218.632E-03    -233.648E-03    -233.592E-03     452.224E-03    -218.632E-03     10.1047E-03     475.964E-03     54.0195E+06     27.1780E+06     3.23987E+06    -34.6583E+06    -34.5993E+06     3.18094E+06     27.1780E+06     485.510E+03
            1130     10.8049E-03     8.86338E-03     6.17950E-03     445.169E-03    -217.437E-03    -227.732E-03    -227.652E-03     445.089E-03    -217.437E-03     10.9494E-03     465.000E-03     54.7148E+06     22.2856E+06     481.396E+03    -39.9561E+06    -39.8024E+06     327.696E+03     22.2856E+06     2.34829E+06
            1131     10.1451E-03     8.06274E-03     6.15749E-03     440.373E-03    -216.520E-03    -223.854E-03    -223.753E-03     440.273E-03    -216.520E-03     14.2295E-03     458.165E-03     56.9531E+06     17.8714E+06    -2.94658E+06    -46.5478E+06    -46.2881E+06    -3.20630E+06     17.8714E+06     3.30794E+06
            1132     9.51184E-03     7.25988E-03     6.14566E-03     437.600E-03    -215.726E-03    -221.874E-03    -221.803E-03     437.528E-03    -215.726E-03     12.9129E-03     452.025E-03     57.9601E+06     11.8653E+06    -7.53005E+06    -53.2904E+06    -53.0124E+06    -7.80802E+06     11.8653E+06     3.51823E+06
            1133     8.91623E-03     6.45802E-03     6.14761E-03     435.520E-03    -214.931E-03    -220.589E-03    -220.539E-03     435.470E-03    -214.931E-03     11.1590E-03     447.614E-03     57.4305E+06     3.83883E+06    -13.3217E+06    -60.1993E+06    -59.9427E+06    -13.5784E+06     3.83883E+06     3.40199E+06
            1134     8.36258E-03     5.65581E-03     6.15991E-03     432.991E-03    -214.114E-03    -218.877E-03    -218.835E-03     432.949E-03    -214.114E-03     10.0936E-03     443.195E-03     54.9758E+06    -7.21631E+06    -21.0003E+06    -67.7423E+06    -67.5214E+06    -21.2213E+06    -7.21631E+06     3.16978E+06
            1135     7.85823E-03     4.85228E-03     6.18119E-03     430.357E-03    -213.308E-03    -217.049E-03    -217.008E-03     430.315E-03    -213.308E-03     9.59882E-03     438.656E-03     49.7702E+06    -22.3132E+06    -30.7531E+06    -75.7080E+06    -75.5157E+06    -30.9455E+06    -22.3132E+06     2.38728E+06
            1136     7.40827E-03     4.04687E-03     6.20526E-03     428.086E-03    -212.509E-03    -215.577E-03    -215.540E-03     428.049E-03    -212.509E-03     8.63563E-03     434.406E-03     41.9738E+06    -38.8735E+06    -42.7834E+06    -82.6574E+06    -82.5403E+06    -41.6262E+06    -40.1478E+06     1.07351E+06
            1137     7.02497E-03     3.24020E-03     6.23308E-03     425.877E-03    -211.713E-03    -214.165E-03    -214.139E-03     425.852E-03    -211.713E-03     6.83745E-03     430.200E-03     29.8227E+06    -58.1843E+06    -60.1761E+06    -88.9530E+06    -88.8797E+06    -58.9751E+06    -59.4587E+06    -216.802E+03
            1138     6.71462E-03     2.43251E-03     6.25852E-03     423.456E-03    -211.003E-03    -212.454E-03    -212.439E-03     423.441E-03    -211.003E-03     4.89697E-03     426.038E-03     16.9313E+06    -76.9610E+06    -80.3529E+06    -95.0211E+06    -94.6159E+06    -80.7581E+06    -76.9610E+06    -852.421E+03
            1139     6.48565E-03     1.62204E-03     6.27955E-03     421.518E-03    -210.352E-03    -211.165E-03    -211.012E-03     421.511E-03    -210.499E-03     3.23229E-03     422.754E-03     10.1832E+06    -90.0772E+06    -94.9893E+06    -101.699E+06    -98.5739E+06    -98.1144E+06    -90.0772E+06    -606.005E+03
            1140     6.34617E-03     810.502E-06     6.29420E-03     420.553E-03    -209.504E-03    -211.048E-03    -210.685E-03     420.550E-03    -209.865E-03     698.575E-06     420.951E-03     11.8439E+06    -99.2118E+06    -101.576E+06    -111.769E+06    -101.581E+06    -111.739E+06    -99.2364E+06    -491.171E+03
            1141     14.4726E-03     13.5585E-03     5.06198E-03     483.409E-03    -227.575E-03    -255.834E-03    -253.982E-03     481.557E-03    -227.575E-03     72.4801E-03     517.569E-03     106.604E+06     114.763E+06     59.7036E+06    -8.01894E+06    -8.01856E+06     59.7032E+06     114.763E+06    -5.44458E+03
            1142     13.6852E-03     12.7723E-03     4.91466E-03     488.786E-03    -225.550E-03    -263.235E-03    -261.652E-03     487.202E-03    -225.550E-03     63.3225E-03     527.046E-03     84.3962E+06     81.9173E+06     44.1728E+06    -14.7319E+06    -14.7269E+06     44.1678E+06     81.9173E+06     26.5615E+03
            1143     12.9325E-03     12.0091E-03     4.79893E-03     484.327E-03    -223.046E-03    -261.282E-03    -260.834E-03     483.880E-03    -223.046E-03     32.9605E-03     513.207E-03     67.0925E+06     57.6362E+06     28.8961E+06    -19.0304E+06    -19.0198E+06     28.8855E+06     57.6362E+06    -272.586E+03
            1144     12.1939E-03     11.2433E-03     4.72002E-03     472.690E-03    -220.555E-03    -252.135E-03    -251.984E-03     472.539E-03    -220.555E-03     19.4882E-03     498.395E-03     58.7729E+06     42.9151E+06     15.8374E+06    -24.5041E+06    -24.4736E+06     15.8070E+06     42.9151E+06     219.632E+03
            1145     11.4671E-03     10.4646E-03     4.68904E-03     456.199E-03    -218.603E-03    -237.596E-03    -237.513E-03     456.116E-03    -218.603E-03     14.9263E-03     479.776E-03     55.8700E+06     34.0544E+06     7.46306E+06    -30.1421E+06    -30.0476E+06     7.36855E+06     34.0544E+06     666.886E+03
            1146     10.7259E-03     9.66622E-03     4.64851E-03     440.556E-03    -215.843E-03    -224.713E-03    -222.908E-03     440.455E-03    -217.547E-03     16.3319E-03     461.666E-03     55.4107E+06     27.2650E+06     1.92598E+06    -36.2751E+06    -36.1804E+06     1.83134E+06     27.2650E+06     890.729E+03
            1147     9.99321E-03     8.85758E-03     4.62681E-03     434.353E-03    -214.413E-03    -219.940E-03    -216.914E-03     434.155E-03    -217.241E-03     21.7643E-03     451.663E-03     56.3314E+06     22.0192E+06    -1.49091E+06    -42.2395E+06    -42.1241E+06    -1.60629E+06     22.0192E+06     1.82358E+06
            1148     9.28034E-03     8.05477E-03     4.60928E-03     434.929E-03    -215.906E-03    -219.024E-03    -217.528E-03     434.677E-03    -217.149E-03     25.2881E-03     449.402E-03     57.5963E+06     18.4063E+06    -3.15927E+06    -46.8481E+06    -46.6942E+06    -3.31313E+06     18.4063E+06     2.02292E+06
            1149     8.58747E-03     7.25100E-03     4.60084E-03     434.271E-03    -215.961E-03    -218.310E-03    -217.082E-03     434.108E-03    -217.026E-03     20.1596E-03     445.187E-03     57.3787E+06     12.2269E+06    -6.79111E+06    -52.2215E+06    -52.1143E+06    -6.89837E+06     12.2269E+06     1.71170E+06
            1150     7.92020E-03     6.44475E-03     4.60379E-03     432.261E-03    -214.322E-03    -217.939E-03    -215.143E-03     432.161E-03    -217.018E-03     15.8541E-03     441.349E-03     55.1129E+06     2.68143E+06    -12.4817E+06    -58.3478E+06    -58.2599E+06    -12.5696E+06     2.68143E+06     1.39855E+06
            1151     7.28847E-03     5.63733E-03     4.61977E-03     431.420E-03    -213.690E-03    -217.730E-03    -214.123E-03     431.334E-03    -217.210E-03     14.8094E-03     439.179E-03     50.8812E+06    -9.41084E+06    -19.4262E+06    -64.3692E+06    -64.2563E+06    -19.5391E+06    -9.41084E+06     668.297E+03
            1152     6.69877E-03     4.82955E-03     4.64209E-03     432.066E-03    -214.313E-03    -217.753E-03    -214.469E-03     431.977E-03    -217.509E-03     15.0527E-03     438.507E-03     44.4052E+06    -22.7334E+06    -29.2443E+06    -69.9338E+06    -69.7861E+06    -27.7169E+06    -24.4087E+06    -878.820E+03
            1153     6.16215E-03     4.02292E-03     4.66779E-03     433.308E-03    -215.254E-03    -218.053E-03    -215.426E-03     433.230E-03    -217.804E-03     14.1248E-03     438.205E-03     34.9626E+06    -38.4126E+06    -43.2554E+06    -75.4993E+06    -75.1462E+06    -40.0853E+06    -41.9359E+06    -2.44601E+06
            1154     5.69188E-03     3.21746E-03     4.69525E-03     434.637E-03    -216.197E-03    -218.439E-03    -216.537E-03     434.579E-03    -218.042E-03     12.1503E-03     437.964E-03     22.3533E+06    -56.5707E+06    -60.8358E+06    -80.2884E+06    -79.4978E+06    -59.7784E+06    -58.4187E+06    -2.54247E+06
            1155     5.30347E-03     2.41274E-03     4.72287E-03     435.631E-03    -217.189E-03    -218.442E-03    -217.398E-03     435.596E-03    -218.198E-03     9.36498E-03     437.598E-03     15.0754E+06    -72.5078E+06    -77.7146E+06    -89.0114E+06    -84.0057E+06    -82.7203E+06    -72.5078E+06    -1.84041E+06
            1156     5.01203E-03     1.60852E-03     4.74690E-03     436.082E-03    -217.719E-03    -218.362E-03    -217.706E-03     436.064E-03    -218.358E-03     6.54074E-03     437.035E-03     17.6315E+06    -82.8132E+06    -86.9290E+06    -101.760E+06    -87.9040E+06    -100.785E+06    -82.8132E+06    -1.13097E+06
            1157     4.82725E-03     804.207E-06     4.75979E-03     436.862E-03    -217.744E-03    -219.118E-03    -218.659E-03     436.853E-03    -218.194E-03     3.43678E-03     437.205E-03     24.2002E+06    -88.4600E+06    -89.8997E+06    -113.163E+06    -89.9183E+06    -113.144E+06    -88.4600E+06    -401.917E+03
            1158     13.9773E-03     13.5487E-03     3.43499E-03     505.178E-03    -227.229E-03    -277.949E-03    -276.497E-03     503.726E-03    -227.229E-03     65.3337E-03     540.720E-03     108.602E+06     117.287E+06     60.0783E+06    -7.87566E+06    -7.85582E+06     60.0584E+06     117.287E+06    -404.757E+03
            1159     13.2145E-03     12.8058E-03     3.26103E-03     495.607E-03    -224.206E-03    -271.401E-03    -270.588E-03     494.794E-03    -224.206E-03     43.8645E-03     527.823E-03     83.8605E+06     83.6784E+06     45.9483E+06    -12.3415E+06    -12.3121E+06     45.9189E+06     83.6784E+06    -416.774E+03
            1160     12.4549E-03     12.0415E-03     3.18228E-03     475.452E-03    -221.526E-03    -253.926E-03    -253.720E-03     475.246E-03    -221.526E-03     24.1273E-03     497.238E-03     64.0659E+06     53.9627E+06     28.3029E+06    -18.9379E+06    -18.8419E+06     28.2070E+06     53.9627E+06     1.07928E+06
            1161     11.6795E-03     11.2529E-03     3.12770E-03     460.584E-03    -219.571E-03    -241.013E-03    -240.879E-03     460.450E-03    -219.571E-03     18.8247E-03     477.602E-03     55.1945E+06     38.8563E+06     15.5494E+06    -24.1307E+06    -23.9961E+06     15.4148E+06     38.8563E+06     1.90779E+06
            1162     10.9136E-03     10.4621E-03     3.10661E-03     448.681E-03    -218.252E-03    -230.428E-03    -230.355E-03     448.607E-03    -218.252E-03     13.9567E-03     462.585E-03     53.0210E+06     31.9324E+06     8.10557E+06    -28.8057E+06    -28.7041E+06     8.00396E+06     31.9324E+06     1.84072E+06
            1163     10.1542E-03     9.66614E-03     3.11023E-03     436.610E-03    -215.361E-03    -221.249E-03    -218.879E-03     436.519E-03    -217.641E-03     15.1047E-03     448.724E-03     53.0574E+06     25.3177E+06     2.14731E+06    -35.3482E+06    -35.2735E+06     2.07254E+06     25.3177E+06     1.53837E+06
            1164     9.37959E-03     8.85384E-03     3.09616E-03     430.359E-03    -212.624E-03    -217.735E-03    -212.420E-03     430.155E-03    -217.735E-03     22.1801E-03     441.156E-03     52.3192E+06     19.1018E+06    -711.129E+03    -40.1278E+06    -40.0744E+06    -764.572E+03     19.1018E+06     289.965E+03
            1165     8.60287E-03     8.03976E-03     3.06129E-03     431.096E-03    -212.946E-03    -218.151E-03    -212.730E-03     430.880E-03    -218.151E-03     21.0868E-03     440.414E-03     49.5937E+06     11.7199E+06    -2.43223E+06    -43.1594E+06    -43.1216E+06    -2.47003E+06     11.7199E+06    -562.870E+03
            1166     7.85313E-03     7.23390E-03     3.05654E-03     430.799E-03    -212.109E-03    -218.690E-03    -211.998E-03     430.688E-03    -218.690E-03     14.1890E-03     437.915E-03     46.0811E+06     3.09842E+06    -7.45494E+06    -47.1409E+06    -47.1098E+06    -6.34706E+06     1.95941E+06    -540.793E+03
            1167     7.11940E-03     6.42573E-03     3.06527E-03     429.741E-03    -210.197E-03    -219.544E-03    -210.110E-03     429.654E-03    -219.544E-03     14.2338E-03     435.606E-03     42.4734E+06    -5.43007E+06    -14.4352E+06    -51.6234E+06    -51.5460E+06    -11.4212E+06    -8.52144E+06    -1.15090E+06
            1168     6.40497E-03     5.61464E-03     3.08212E-03     431.506E-03    -210.774E-03    -220.732E-03    -210.682E-03     431.414E-03    -220.732E-03     15.2969E-03     436.452E-03     38.0455E+06    -15.0714E+06    -22.8685E+06    -56.0552E+06    -55.8657E+06    -17.6416E+06    -20.4877E+06    -2.30908E+06
            1169     5.71762E-03     4.80528E-03     3.09846E-03     435.105E-03    -213.026E-03    -222.079E-03    -212.936E-03     435.015E-03    -222.079E-03     15.1514E-03     439.075E-03     32.9370E+06    -24.4761E+06    -34.4290E+06    -60.3256E+06     -59.819E+06    -25.3506E+06    -34.0610E+06    -3.78792E+06
            1170     5.07209E-03     3.99854E-03     3.12055E-03     439.382E-03    -215.894E-03    -223.488E-03    -215.816E-03     439.304E-03    -223.488E-03     14.2218E-03     442.294E-03     23.1590E+06    -38.8458E+06    -47.1590E+06    -64.5095E+06    -63.0883E+06    -41.2425E+06    -46.1835E+06    -4.47828E+06
            1171     4.48080E-03     3.19389E-03     3.14270E-03     444.174E-03    -219.323E-03    -224.851E-03    -219.262E-03     444.114E-03    -224.851E-03     12.5859E-03     446.137E-03     16.2413E+06    -54.4913E+06    -59.8551E+06    -72.4488E+06    -66.3059E+06    -64.7814E+06    -55.7079E+06    -3.26849E+06
            1172     3.96823E-03     2.39229E-03     3.16603E-03     448.790E-03    -222.797E-03    -225.993E-03    -222.762E-03     448.754E-03    -225.993E-03     9.50769E-03     449.917E-03     22.4221E+06    -62.9778E+06    -68.0350E+06    -87.0782E+06    -68.8814E+06    -86.2317E+06    -62.9778E+06    -1.34780E+06
            1173     3.56199E-03     1.59363E-03     3.18561E-03     452.089E-03    -225.237E-03    -226.852E-03    -225.220E-03     452.072E-03    -226.852E-03     6.61372E-03     452.622E-03     33.4247E+06    -68.8288E+06    -70.9748E+06    -103.195E+06    -70.9949E+06    -103.175E+06    -68.8288E+06    -277.243E+03
            1174     3.29751E-03     796.004E-06     3.19999E-03     454.404E-03    -226.190E-03    -228.214E-03    -226.178E-03     454.392E-03    -228.214E-03     5.43697E-03     454.630E-03     42.4722E+06    -71.8886E+06    -72.6618E+06    -114.739E+06    -72.1726E+06    -114.728E+06    -72.3893E+06    -101.514E+03
            1175     13.6923E-03     13.5840E-03     1.71904E-03     536.284E-03    -227.154E-03    -309.130E-03    -307.879E-03     535.033E-03    -227.154E-03     62.8932E-03     563.882E-03     110.624E+06     121.717E+06     60.8544E+06    -5.87040E+06    -5.82072E+06     60.8047E+06     121.717E+06    -26.0473E+03
            1176     12.9333E-03     12.8290E-03     1.63906E-03     496.399E-03    -223.162E-03    -273.238E-03    -272.838E-03     496.000E-03    -223.162E-03     33.2600E-03     516.094E-03     85.8244E+06     85.3640E+06     45.5913E+06    -13.0178E+06    -12.9473E+06     45.5208E+06     85.3640E+06     907.568E+03
            1177     12.1453E-03     12.0414E-03     1.58483E-03     465.962E-03    -220.633E-03    -245.329E-03    -245.172E-03     465.805E-03    -220.633E-03     18.4256E-03     478.787E-03     64.1398E+06     53.2833E+06     28.6968E+06    -19.4980E+06    -19.3802E+06     28.5789E+06     53.2833E+06     1.48432E+06
            1178     11.3630E-03     11.2560E-03     1.55568E-03     449.255E-03    -219.310E-03    -229.946E-03    -229.851E-03     449.161E-03    -219.310E-03     13.6244E-03     459.221E-03     52.4535E+06     36.3292E+06     16.4810E+06    -23.1371E+06    -23.0197E+06     16.3635E+06     36.3292E+06     1.22896E+06
            1179     10.5695E-03     10.4557E-03     1.54695E-03     441.738E-03    -218.652E-03    -223.087E-03    -223.046E-03     441.698E-03    -218.652E-03     9.68839E-03     450.178E-03     46.3494E+06     25.8531E+06     8.16680E+06    -26.6669E+06    -26.5725E+06     8.07241E+06     25.8531E+06     1.48414E+06
            1180     9.77600E-03     9.65075E-03     1.55990E-03     439.539E-03    -217.669E-03    -221.870E-03    -221.254E-03     439.499E-03    -218.245E-03     8.29221E-03     446.233E-03     41.6161E+06     16.4511E+06     3.87843E+06    -29.6337E+06    -29.5428E+06     3.78752E+06     16.4511E+06     1.00930E+06
            1181     8.98670E-03     8.85022E-03     1.56022E-03     434.930E-03    -214.968E-03    -219.962E-03    -216.751E-03     434.831E-03    -218.081E-03     13.7426E-03     439.948E-03     38.4222E+06     9.07013E+06    -63.0656E+03    -32.8364E+06    -32.6924E+06     1.12692E+06     7.73615E+06    -1.29380E+06
            1182     8.18738E-03     8.04437E-03     1.52354E-03     427.757E-03    -209.229E-03    -218.529E-03    -209.157E-03     427.686E-03    -218.529E-03     10.6353E-03     431.615E-03     36.0130E+06     1.95061E+06    -4.79571E+06    -36.8810E+06    -36.7505E+06    -2.06688E+06    -908.698E+03    -1.50192E+06
            1183     7.38698E-03     7.22844E-03     1.52219E-03     424.713E-03    -204.965E-03    -219.748E-03    -204.957E-03     424.705E-03    -219.748E-03     3.98244E-03     428.011E-03     33.1350E+06    -4.94933E+06    -10.6892E+06    -40.4787E+06    -40.4472E+06    -5.73628E+06    -9.93380E+06    -557.916E+03
            1184     6.59097E-03     6.41022E-03     1.53300E-03     427.115E-03    -205.616E-03    -221.499E-03    -205.591E-03     427.090E-03    -221.499E-03     6.62971E-03     430.193E-03     30.8065E+06    -10.0210E+06    -19.2336E+06    -44.0592E+06    -43.9755E+06    -10.1047E+06    -19.2336E+06    -1.36970E+06
            1185     5.80463E-03     5.59679E-03     1.53939E-03     431.901E-03    -208.392E-03    -223.509E-03    -208.350E-03     431.860E-03    -223.509E-03     9.17880E-03     434.430E-03     28.4892E+06    -15.8284E+06    -30.1259E+06    -48.0035E+06    -47.7820E+06    -16.0499E+06    -30.1259E+06    -2.49970E+06
            1186     5.03187E-03     4.78672E-03     1.55145E-03     437.709E-03    -212.041E-03    -225.668E-03    -211.998E-03     437.666E-03    -225.668E-03     9.84325E-03     439.480E-03     24.3287E+06    -24.1310E+06    -41.2365E+06    -51.4467E+06    -50.9480E+06    -24.6296E+06    -41.2365E+06    -3.44419E+06
            1187     4.27471E-03     3.97865E-03     1.56316E-03     444.422E-03    -216.493E-03    -227.928E-03    -216.453E-03     444.382E-03    -227.928E-03     9.55895E-03     445.595E-03     16.2373E+06    -39.7761E+06    -49.4710E+06    -57.5737E+06    -53.6998E+06    -44.7836E+06    -48.3374E+06    -3.25235E+06
            1188     3.54520E-03     3.17534E-03     1.57660E-03     451.675E-03    -221.521E-03    -230.153E-03    -221.489E-03     451.642E-03    -230.153E-03     8.71303E-03     452.439E-03     18.5111E+06    -52.1826E+06    -54.6068E+06    -71.6793E+06    -55.8867E+06    -70.3994E+06    -52.1826E+06    -1.96787E+06
            1189     2.85825E-03     2.37682E-03     1.58754E-03     458.734E-03    -226.581E-03    -232.153E-03    -226.561E-03     458.714E-03    -232.153E-03     7.01210E-03     459.173E-03     33.8922E+06    -54.9939E+06    -57.1676E+06    -89.8713E+06    -57.2185E+06    -89.8205E+06    -54.9939E+06    -653.856E+03
            1190     2.25162E-03     1.58205E-03     1.60215E-03     464.805E-03    -231.076E-03    -233.729E-03    -231.066E-03     464.796E-03    -233.729E-03     5.00961E-03     465.025E-03     46.6011E+06    -56.8700E+06    -58.0968E+06    -104.062E+06    -58.1013E+06    -104.058E+06    -56.8700E+06     196.015E+03
            1191     1.79327E-03     790.086E-06     1.60984E-03     468.754E-03    -233.018E-03    -235.736E-03    -233.740E-03     468.748E-03    -235.008E-03     3.69439E-03     468.890E-03     55.1125E+06    -58.5180E+06    -60.0435E+06    -114.374E+06    -59.5687E+06    -114.348E+06    -59.0187E+06     677.163E+03
            1192     88.1648E-03     797.104E-06     88.1612E-03     455.712E-03    -227.584E-03    -228.127E-03    -227.826E-03     455.711E-03    -227.884E-03    -801.141E-06     455.900E-03     94.9852E+06    -106.750E+06    -109.630E+06    -203.136E+06    -109.162E+06    -203.118E+06    -107.236E+06     974.618E+03
            1193     88.1750E-03     1.59357E-03     88.1606E-03     455.824E-03    -227.846E-03    -227.978E-03    -227.929E-03     455.823E-03    -227.894E-03    -1.62464E-03     456.401E-03     88.4517E+06    -100.798E+06    -106.203E+06    -191.779E+06    -106.292E+06    -191.690E+06    -100.798E+06     2.45124E+06
            1194     88.1921E-03     2.38927E-03     88.1597E-03     455.920E-03    -227.872E-03    -228.048E-03    -227.959E-03     455.919E-03    -227.959E-03    -1.91454E-03     457.125E-03     81.8866E+06    -90.3028E+06    -103.067E+06    -177.715E+06    -103.248E+06    -177.534E+06    -90.3028E+06     3.57294E+06
            1195     88.2168E-03     3.18523E-03     88.1592E-03     455.663E-03    -227.636E-03    -228.028E-03    -227.672E-03     455.663E-03    -227.990E-03    -1.07919E-03     457.707E-03     74.1392E+06    -77.1088E+06    -98.2968E+06    -159.365E+06    -98.6481E+06    -159.013E+06    -77.1088E+06     4.46275E+06
            1196     88.2505E-03     3.98237E-03     88.1606E-03     455.374E-03    -227.402E-03    -227.972E-03    -227.402E-03     455.374E-03    -227.972E-03     493.295E-06     458.447E-03     64.9105E+06    -61.7972E+06    -91.9863E+06    -135.921E+06    -92.8402E+06    -135.067E+06    -61.7972E+06     5.71217E+06
            1197     88.2934E-03     4.77963E-03     88.1639E-03     455.386E-03    -227.431E-03    -227.955E-03    -227.428E-03     455.383E-03    -227.955E-03     2.57824E-03     459.648E-03     56.6242E+06    -44.8852E+06    -83.6557E+06    -109.364E+06    -86.3909E+06    -106.629E+06    -44.8852E+06     6.80739E+06
            1198     88.3489E-03     5.57614E-03     88.1728E-03     455.410E-03    -227.452E-03    -227.958E-03    -227.441E-03     455.399E-03    -227.958E-03     5.25537E-03     460.977E-03     52.8032E+06    -27.2215E+06    -65.4689E+06    -87.2115E+06    -79.3168E+06    -73.3636E+06    -27.2215E+06     7.79060E+06
            1199     88.4157E-03     6.37280E-03     88.1857E-03     455.285E-03    -227.329E-03    -227.956E-03    -227.300E-03     455.255E-03    -227.956E-03     8.71848E-03     462.253E-03     58.5241E+06    -9.65342E+06    -31.9596E+06    -74.4836E+06    -72.2487E+06    -34.1945E+06    -9.65342E+06      8.7283E+06
            1200     88.4957E-03     7.16959E-03     88.2048E-03     455.285E-03    -227.326E-03    -227.959E-03    -227.263E-03     455.222E-03    -227.959E-03     12.9044E-03     463.763E-03     69.0696E+06     7.05131E+06    -1.70510E+06    -65.9331E+06    -64.6439E+06    -2.99432E+06     7.05131E+06     8.94775E+06
            1201     88.5890E-03     7.96603E-03     88.2301E-03     455.376E-03    -227.392E-03    -227.984E-03    -227.278E-03     455.261E-03    -227.984E-03     17.4947E-03     465.472E-03     74.5379E+06     21.3193E+06     10.6341E+06    -57.9080E+06    -56.9494E+06     9.67547E+06     21.3193E+06     8.02023E+06
            1202     88.6963E-03     8.76314E-03     88.2623E-03     455.385E-03    -227.373E-03    -228.012E-03    -227.186E-03     455.198E-03    -228.012E-03     22.4409E-03     467.214E-03     76.2486E+06     33.4277E+06     14.7397E+06    -50.3395E+06    -49.6718E+06     14.0721E+06     33.4277E+06     6.50343E+06
            1203     88.8192E-03     9.56046E-03     88.3032E-03     455.481E-03    -227.442E-03    -228.039E-03    -227.157E-03     455.195E-03    -228.039E-03     27.7838E-03     469.172E-03     77.7787E+06     44.4103E+06     17.2843E+06    -43.2093E+06    -42.7402E+06     16.8151E+06     44.4103E+06     5.26513E+06
            1204     88.9575E-03     10.3577E-03     88.3525E-03     455.777E-03    -227.704E-03    -228.073E-03    -227.285E-03     455.358E-03    -228.073E-03     33.6903E-03     471.514E-03     79.1383E+06     54.1797E+06     18.8326E+06    -36.3867E+06    -36.0504E+06     18.4963E+06     54.1797E+06     4.26351E+06
            1205     89.1115E-03     11.1548E-03     88.4106E-03     456.052E-03    -227.939E-03    -228.113E-03    -227.321E-03     455.434E-03    -228.113E-03     40.8920E-03     474.311E-03     80.5079E+06     63.0176E+06     22.1472E+06    -29.7091E+06    -29.4686E+06     21.9067E+06     63.0176E+06     3.48749E+06
            1206     89.2852E-03     11.9521E-03     88.4816E-03     456.142E-03    -227.988E-03    -228.153E-03    -227.156E-03     455.309E-03    -228.153E-03     47.6249E-03     476.540E-03     84.3506E+06     74.1682E+06     31.6780E+06    -22.9561E+06    -22.8096E+06     31.5315E+06     74.1682E+06     2.72508E+06
            1207     89.4728E-03     12.7500E-03     88.5597E-03     456.869E-03    -228.118E-03    -228.751E-03    -227.315E-03     455.534E-03    -228.218E-03     59.7114E-03     482.372E-03     97.2681E+06     95.3933E+06     51.7752E+06    -15.9913E+06    -15.9403E+06     51.7242E+06     95.3933E+06     1.58137E+06
            1208     89.6961E-03     13.5472E-03     88.6672E-03     457.284E-03    -228.326E-03    -228.958E-03    -227.408E-03     455.734E-03    -228.326E-03     65.0235E-03     482.555E-03     120.976E+06     129.599E+06     79.7804E+06    -8.32863E+06    -8.32044E+06     79.7722E+06     129.599E+06     556.755E+03
            1209     89.7416E-03     795.853E-06     89.7381E-03     456.295E-03    -227.958E-03    -228.336E-03    -228.200E-03     456.294E-03    -228.094E-03    -1.48759E-03     456.484E-03     99.1524E+06    -106.450E+06    -111.049E+06    -207.811E+06    -109.457E+06    -207.778E+06    -108.075E+06     1.54592E+06
            1210     89.7525E-03     1.59201E-03     89.7383E-03     455.945E-03    -227.797E-03    -228.149E-03    -227.834E-03     455.944E-03    -228.111E-03    -1.45341E-03     456.524E-03     92.6952E+06    -101.290E+06    -107.302E+06    -196.806E+06    -107.394E+06    -196.714E+06    -101.290E+06     2.53597E+06
            1211     89.7689E-03     2.38892E-03     89.7371E-03     455.678E-03    -227.641E-03    -228.037E-03    -227.646E-03     455.677E-03    -228.031E-03    -1.27262E-03     456.885E-03     85.7723E+06    -90.8844E+06    -103.304E+06    -182.096E+06    -103.498E+06    -181.903E+06    -90.8844E+06     3.68333E+06
            1212     89.7927E-03     3.18610E-03     89.7361E-03     455.547E-03    -227.561E-03    -227.985E-03    -227.561E-03     455.546E-03    -227.985E-03    -729.504E-06     457.589E-03     78.0156E+06    -77.5225E+06    -98.6129E+06    -163.725E+06    -98.9624E+06    -163.376E+06    -77.5225E+06     4.66486E+06
            1213     89.8247E-03     3.98291E-03     89.7363E-03     455.539E-03    -227.567E-03    -227.972E-03    -227.566E-03     455.539E-03    -227.972E-03     423.953E-06     458.613E-03      68.978E+06    -61.9703E+06    -92.3506E+06    -140.592E+06    -93.1258E+06    -139.816E+06    -61.9703E+06     5.73860E+06
            1214     89.8689E-03     4.77913E-03     89.7417E-03     455.515E-03    -227.537E-03    -227.978E-03    -227.534E-03     455.512E-03    -227.978E-03     2.35887E-03     459.777E-03     59.8698E+06    -45.2200E+06    -84.1261E+06    -113.639E+06    -86.5227E+06    -111.242E+06    -45.2200E+06     7.12599E+06
            1215     89.9227E-03     5.57574E-03     89.7496E-03     455.324E-03    -227.346E-03    -227.978E-03    -227.335E-03     455.313E-03    -227.978E-03     5.09238E-03     460.887E-03     54.7482E+06    -27.5513E+06    -67.6701E+06    -89.8197E+06    -79.5551E+06    -77.9347E+06    -27.5513E+06     8.33993E+06
            1216     89.9887E-03     6.37273E-03     89.7628E-03     455.109E-03    -227.153E-03    -227.956E-03    -227.124E-03     455.080E-03    -227.956E-03     8.67703E-03     462.084E-03     58.5978E+06    -9.54795E+06    -35.1492E+06    -74.9191E+06    -72.0500E+06    -38.0184E+06    -9.54795E+06     9.30092E+06
            1217     90.0675E-03     7.16978E-03     89.7817E-03     455.041E-03    -227.105E-03    -227.936E-03    -227.042E-03     454.977E-03    -227.936E-03     12.9378E-03     463.524E-03     68.8338E+06     7.33561E+06    -3.28600E+06    -66.0831E+06    -64.5354E+06    -4.83376E+06     7.33561E+06     9.60994E+06
            1218     90.1601E-03     7.96717E-03     89.8074E-03     455.250E-03    -227.305E-03    -227.945E-03    -227.189E-03     455.134E-03    -227.945E-03     17.5975E-03     465.340E-03     75.6577E+06     22.0264E+06     11.9336E+06    -58.1326E+06    -56.9969E+06     10.7979E+06     22.0264E+06     8.81371E+06
            1219     90.2663E-03     8.76372E-03     89.8398E-03     455.548E-03    -227.566E-03    -227.981E-03    -227.379E-03     455.360E-03    -227.981E-03     22.4919E-03     467.371E-03     77.6976E+06     34.5265E+06     16.9528E+06    -50.3404E+06    -49.5166E+06     16.1290E+06     34.5265E+06     7.37915E+06
            1220     90.3873E-03     9.56032E-03     89.8802E-03     455.618E-03    -227.592E-03    -228.026E-03    -227.305E-03     455.331E-03    -228.026E-03     27.8222E-03     469.312E-03     78.6376E+06     45.5649E+06     18.7741E+06    -42.8584E+06    -42.2762E+06     18.1918E+06     45.5649E+06     5.94607E+06
            1221     90.5238E-03     10.3574E-03     89.9293E-03     455.682E-03    -227.618E-03    -228.064E-03    -227.193E-03     455.257E-03    -228.064E-03     33.9153E-03     471.413E-03     79.6633E+06     55.4729E+06     20.2294E+06    -35.6497E+06    -35.2336E+06     19.8133E+06     55.4729E+06     4.79501E+06
            1222     90.6770E-03     11.1545E-03     89.9883E-03     455.945E-03    -227.846E-03    -228.099E-03    -227.222E-03     455.321E-03    -228.099E-03     41.1121E-03     474.179E-03     80.8253E+06     64.5101E+06     23.0971E+06    -28.6040E+06    -28.3295E+06     22.8227E+06     64.5101E+06     3.71913E+06
            1223     90.8474E-03     11.9522E-03     90.0577E-03     456.169E-03    -227.991E-03    -228.178E-03    -227.198E-03     455.336E-03    -228.139E-03     47.6456E-03     476.557E-03     84.9592E+06     75.9252E+06     33.4045E+06    -21.8455E+06    -21.7096E+06     33.2686E+06     75.9252E+06     2.62668E+06
            1224     91.0338E-03     12.7500E-03     90.1366E-03     456.820E-03    -228.121E-03    -228.699E-03    -227.287E-03     455.493E-03    -228.206E-03     59.5562E-03     482.332E-03     98.1603E+06     97.1262E+06     53.8932E+06    -15.1970E+06    -15.1437E+06     53.8399E+06     97.1262E+06     1.84245E+06
            1225     91.2556E-03     13.5483E-03     90.2443E-03     457.136E-03    -228.294E-03    -228.842E-03    -227.280E-03     455.591E-03    -228.312E-03     64.9096E-03     482.413E-03     121.921E+06     130.970E+06     81.0586E+06    -7.98203E+06    -7.96294E+06     81.0395E+06     130.970E+06     1.13354E+06
            1226     91.3208E-03     796.037E-06     91.3173E-03     456.255E-03    -227.986E-03    -228.269E-03    -228.133E-03     456.255E-03    -228.122E-03    -685.980E-06     456.447E-03     103.545E+06    -107.159E+06    -111.627E+06    -212.844E+06    -109.977E+06    -212.814E+06    -108.840E+06     1.16514E+06
            1227     91.3284E-03     1.59288E-03     91.3145E-03     455.800E-03    -227.729E-03    -228.071E-03    -227.728E-03     455.800E-03    -228.071E-03    -1.07903E-03     456.379E-03     96.6634E+06    -102.133E+06    -107.735E+06    -201.426E+06    -107.759E+06    -201.347E+06    -102.189E+06     2.32878E+06
            1228     91.3449E-03     2.38978E-03     91.3136E-03     455.583E-03    -227.606E-03    -227.977E-03    -227.605E-03     455.582E-03    -227.977E-03    -1.35788E-03     456.786E-03     89.4915E+06    -91.9205E+06    -104.200E+06    -186.835E+06    -104.369E+06    -186.666E+06    -91.9205E+06     3.52919E+06
            1229     91.3681E-03     3.18614E-03     91.3126E-03     455.705E-03    -227.746E-03    -227.959E-03    -227.745E-03     455.704E-03    -227.959E-03    -1.03263E-03     457.751E-03     81.5962E+06    -78.4463E+06    -99.1462E+06    -168.231E+06    -99.4834E+06    -167.894E+06    -78.4463E+06     4.67898E+06
            1230     91.4012E-03     3.98216E-03     91.3144E-03     455.717E-03    -227.729E-03    -227.988E-03    -227.729E-03     455.717E-03    -227.988E-03     416.755E-06     458.793E-03     72.6080E+06    -62.6463E+06    -92.9258E+06    -145.167E+06    -93.6558E+06    -144.437E+06    -62.6463E+06     5.86976E+06
            1231     91.4434E-03     4.77891E-03     91.3184E-03     455.440E-03    -227.441E-03    -228.000E-03    -227.438E-03     455.437E-03    -228.000E-03     2.63295E-03     459.696E-03     63.2951E+06    -45.7030E+06    -85.0658E+06    -118.233E+06    -87.0764E+06    -116.223E+06    -45.7030E+06     7.09361E+06
            1232     91.4966E-03     5.57596E-03     91.3266E-03     455.221E-03    -227.240E-03    -227.981E-03    -227.228E-03     455.209E-03    -227.981E-03     5.38578E-03     460.785E-03     56.6221E+06    -28.1388E+06    -70.1891E+06    -92.5141E+06    -79.7397E+06    -82.9635E+06    -28.1388E+06     8.31247E+06
            1233     91.5614E-03     6.37284E-03     91.3394E-03     455.097E-03    -227.146E-03    -227.951E-03    -227.117E-03     455.068E-03    -227.951E-03     8.73920E-03     462.075E-03     58.5910E+06    -10.0965E+06    -39.3314E+06    -75.8569E+06    -72.2008E+06    -42.9876E+06    -10.0965E+06     9.77368E+06
            1234     91.6393E-03     7.16994E-03     91.3584E-03     455.024E-03    -227.095E-03    -227.928E-03    -227.035E-03     454.963E-03    -227.928E-03     12.6911E-03     463.506E-03     68.8754E+06     7.32945E+06    -5.05271E+06    -66.6267E+06    -64.6882E+06    -6.99126E+06     7.32945E+06     10.5783E+06
            1235     91.7307E-03     7.96677E-03     91.3841E-03     455.084E-03    -227.156E-03    -227.928E-03    -227.044E-03     454.973E-03    -227.928E-03     17.2740E-03     465.173E-03     76.9068E+06     22.3448E+06     13.3247E+06    -58.6462E+06    -57.2655E+06     11.9440E+06     22.3448E+06     9.82471E+06
            1236     91.8369E-03     8.76392E-03     91.4178E-03     455.301E-03    -227.352E-03    -227.949E-03    -227.165E-03     455.114E-03    -227.949E-03     22.4571E-03     467.122E-03     79.0998E+06     34.7084E+06     18.9115E+06    -50.9840E+06    -50.0111E+06     17.9387E+06     34.7084E+06     8.15468E+06
            1237     91.9560E-03     9.56081E-03     91.4576E-03     455.551E-03    -227.564E-03    -227.987E-03    -227.272E-03     455.259E-03    -227.987E-03     28.0642E-03     469.241E-03     79.9316E+06     45.8475E+06     20.3337E+06    -43.5995E+06    -42.9181E+06     19.6524E+06     45.8475E+06     6.54608E+06
            1238     92.0906E-03     10.3579E-03     91.5062E-03     455.625E-03    -227.596E-03    -228.029E-03    -227.164E-03     455.193E-03    -228.029E-03     34.1956E-03     471.365E-03     81.3943E+06     56.2763E+06     21.9373E+06    -36.5732E+06    -36.0905E+06     21.4545E+06     56.2763E+06     5.27469E+06
            1239     92.2418E-03     11.1557E-03     91.5647E-03     455.870E-03    -227.804E-03    -228.066E-03    -227.172E-03     455.238E-03    -228.066E-03     41.3825E-03     474.113E-03     83.0429E+06     65.6652E+06     24.9358E+06    -29.8266E+06    -29.5202E+06     24.6295E+06     65.6652E+06     4.05004E+06
            1240     92.4116E-03     11.9528E-03     91.6354E-03     456.326E-03    -228.097E-03    -228.229E-03    -227.373E-03     455.486E-03    -228.113E-03     47.8739E-03     476.740E-03     87.2549E+06     76.9486E+06     34.9191E+06    -23.3115E+06    -23.1508E+06     34.7585E+06     76.9486E+06     2.96321E+06
            1241     92.5954E-03     12.7499E-03     91.7134E-03     456.971E-03    -228.193E-03    -228.778E-03    -227.448E-03     455.641E-03    -228.193E-03     59.6363E-03     482.535E-03     100.167E+06     97.9529E+06     55.1731E+06    -16.4797E+06    -16.4107E+06     55.1041E+06     97.9529E+06     2.12916E+06
            1242     92.8146E-03     13.5475E-03     91.8206E-03     456.944E-03    -228.176E-03    -228.768E-03    -227.095E-03     455.395E-03    -228.300E-03     64.9909E-03     482.255E-03     123.707E+06     132.003E+06     82.8292E+06    -8.72263E+06    -8.69928E+06     82.8058E+06     132.003E+06     1.27828E+06
            1243     92.8971E-03     796.885E-06     92.8937E-03     455.855E-03    -227.751E-03    -228.104E-03    -227.926E-03     455.854E-03    -227.928E-03    -1.44441E-03     456.045E-03     108.466E+06    -107.747E+06    -111.580E+06    -218.064E+06    -110.318E+06    -218.033E+06    -109.040E+06     1.29320E+06
            1244     92.9056E-03     1.59297E-03     92.8919E-03     455.893E-03    -227.916E-03    -227.977E-03    -227.944E-03     455.892E-03    -227.948E-03    -1.77430E-03     456.466E-03     100.254E+06    -103.568E+06    -108.563E+06    -206.186E+06    -108.582E+06    -206.111E+06    -103.623E+06     2.29833E+06
            1245     92.9208E-03     2.38910E-03     92.8901E-03     455.794E-03    -227.820E-03    -227.974E-03    -227.819E-03     455.793E-03    -227.974E-03    -1.63708E-03     456.992E-03     92.9107E+06    -93.0027E+06    -105.033E+06    -191.246E+06    -105.186E+06    -191.093E+06    -93.0027E+06     3.45676E+06
            1246     92.9447E-03     3.18575E-03     92.8901E-03     455.647E-03    -227.666E-03    -227.981E-03    -227.665E-03     455.646E-03    -227.981E-03    -795.341E-06     457.696E-03     85.1968E+06    -79.2866E+06    -100.135E+06    -172.820E+06    -100.439E+06    -172.516E+06    -79.2866E+06     4.55412E+06
            1247     92.9768E-03     3.98266E-03     92.8914E-03     455.492E-03    -227.517E-03    -227.975E-03    -227.516E-03     455.491E-03    -227.975E-03     667.966E-06     458.569E-03     75.7284E+06    -63.8738E+06    -94.0505E+06    -149.737E+06    -94.6762E+06    -149.111E+06    -63.8738E+06     5.63882E+06
            1248     93.0179E-03     4.77940E-03     92.8950E-03     455.336E-03    -227.373E-03    -227.964E-03    -227.369E-03     455.333E-03    -227.964E-03     2.73520E-03     459.593E-03     66.0602E+06    -47.0274E+06    -86.4684E+06    -122.802E+06    -88.0888E+06    -121.182E+06    -47.0274E+06     6.86205E+06
            1249     93.0705E-03     5.57612E-03     92.9033E-03     455.231E-03    -227.283E-03    -227.949E-03    -227.271E-03     455.219E-03    -227.949E-03     5.49724E-03     460.794E-03     58.8252E+06    -29.4520E+06    -73.1990E+06    -96.2607E+06    -81.0157E+06    -88.4440E+06    -29.4520E+06     8.38274E+06
            1250     93.1345E-03     6.37299E-03     92.9162E-03     455.192E-03    -227.260E-03    -227.933E-03    -227.230E-03     455.162E-03    -227.933E-03     8.87357E-03     462.162E-03     59.2727E+06    -11.4540E+06    -44.4652E+06    -78.3502E+06    -73.6225E+06    -49.1929E+06    -11.4540E+06     10.3788E+06
            1251     93.2115E-03     7.16971E-03     92.9353E-03     455.109E-03    -227.191E-03    -227.918E-03    -227.128E-03     455.047E-03    -227.918E-03     12.8773E-03     463.589E-03     69.5110E+06     5.85238E+06    -7.26317E+06     -68.608E+06    -66.1515E+06    -9.71962E+06     5.85238E+06     11.6518E+06
            1252     93.3019E-03     7.96677E-03     92.9611E-03     454.966E-03    -227.053E-03    -227.913E-03    -226.939E-03     454.852E-03    -227.913E-03     17.4608E-03     465.052E-03     78.4317E+06     20.9487E+06     14.9728E+06    -60.2662E+06    -58.6859E+06     13.3924E+06     20.9487E+06     10.7297E+06
            1253     93.4058E-03     8.76411E-03     92.9937E-03     454.974E-03    -227.054E-03    -227.920E-03    -226.865E-03     454.786E-03    -227.920E-03     22.5359E-03     466.794E-03     80.6309E+06     34.0923E+06     20.5358E+06    -52.3101E+06    -51.1849E+06     19.4106E+06     34.0923E+06     8.97251E+06
            1254     93.5250E-03     9.56164E-03     93.0350E-03     455.272E-03    -227.329E-03    -227.943E-03    -227.040E-03     454.983E-03    -227.943E-03     27.9427E-03     468.960E-03     81.8284E+06     46.2089E+06     22.0899E+06    -44.8386E+06    -43.9819E+06     21.2332E+06     46.2089E+06     7.50588E+06
            1255     93.6578E-03     10.3586E-03     93.0832E-03     455.645E-03    -227.660E-03    -227.985E-03    -227.236E-03     455.222E-03    -227.985E-03     33.8525E-03     471.389E-03     83.4414E+06     57.1472E+06     23.8898E+06    -37.7142E+06    -37.1089E+06     23.2845E+06     57.1472E+06     6.04246E+06
            1256     93.8069E-03     11.1555E-03     93.1412E-03     455.885E-03    -227.852E-03    -228.033E-03    -227.225E-03     455.258E-03    -228.033E-03     41.1632E-03     474.142E-03     85.0679E+06     67.0453E+06     27.3032E+06    -30.5908E+06    -30.2277E+06     26.9401E+06     67.0453E+06     4.51428E+06
            1257     93.9760E-03     11.9532E-03     93.2128E-03     456.138E-03    -227.980E-03    -228.159E-03    -227.209E-03     455.291E-03    -228.082E-03     48.0501E-03     476.549E-03     88.9597E+06     78.5335E+06     36.2420E+06    -23.6620E+06    -23.4750E+06     36.0550E+06     78.5335E+06     3.26686E+06
            1258     94.1582E-03     12.7507E-03     93.2908E-03     456.906E-03    -228.124E-03    -228.782E-03    -227.402E-03     455.560E-03    -228.158E-03     59.9975E-03     482.459E-03     101.700E+06     99.4489E+06     56.3162E+06    -16.6475E+06    -16.5649E+06     56.2335E+06     99.4489E+06     2.32499E+06
            1259     94.3750E-03     13.5486E-03     93.3974E-03     457.042E-03    -228.162E-03    -228.880E-03    -227.210E-03     455.478E-03    -228.268E-03     65.3051E-03     482.364E-03     125.338E+06     133.649E+06     85.2602E+06    -8.66479E+06    -8.64271E+06     85.2381E+06     133.649E+06     1.14940E+06
            1260     94.4743E-03     796.153E-06     94.4710E-03     455.927E-03    -227.634E-03    -228.292E-03    -227.662E-03     455.925E-03    -228.263E-03    -1.30469E-03     456.113E-03     112.329E+06    -109.106E+06    -112.874E+06    -223.262E+06    -111.670E+06    -223.229E+06    -110.344E+06     1.49104E+06
            1261     94.4824E-03     1.59276E-03     94.4690E-03     455.924E-03    -227.917E-03    -228.007E-03    -227.945E-03     455.923E-03    -227.978E-03    -1.72689E-03     456.498E-03     103.359E+06    -104.555E+06    -109.760E+06    -210.381E+06    -109.817E+06    -210.323E+06    -104.555E+06     2.24709E+06
            1262     94.4977E-03     2.38941E-03     94.4675E-03     455.749E-03    -227.764E-03    -227.985E-03    -227.763E-03     455.748E-03    -227.985E-03    -1.48340E-03     456.952E-03     96.1581E+06    -94.4098E+06    -106.340E+06    -195.897E+06    -106.466E+06    -195.771E+06    -94.4098E+06     3.18815E+06
            1263     94.5202E-03     3.18600E-03     94.4665E-03     455.517E-03    -227.550E-03    -227.967E-03    -227.549E-03     455.516E-03    -227.967E-03    -749.187E-06     457.562E-03     88.2049E+06    -80.6534E+06    -101.301E+06    -177.195E+06    -101.580E+06    -176.916E+06    -80.6534E+06     4.46246E+06
            1264     94.5518E-03     3.98275E-03     94.4679E-03     455.364E-03    -227.422E-03    -227.943E-03    -227.422E-03     455.364E-03    -227.943E-03     486.965E-06     458.435E-03     78.8858E+06    -65.3028E+06    -95.4023E+06    -154.545E+06    -95.9904E+06    -153.956E+06    -65.3028E+06     5.65706E+06
            1265     94.5928E-03     4.77953E-03     94.4719E-03     455.329E-03    -227.399E-03    -227.930E-03    -227.396E-03     455.326E-03    -227.930E-03     2.49363E-03     459.583E-03     69.1257E+06    -48.5293E+06    -88.0881E+06    -127.881E+06    -89.6237E+06    -126.345E+06    -48.5293E+06     7.03932E+06
            1266     94.6443E-03     5.57640E-03     94.4799E-03     455.250E-03    -227.323E-03    -227.926E-03    -227.312E-03     455.238E-03    -227.926E-03     5.28857E-03     460.804E-03     61.3801E+06    -30.8240E+06    -76.2547E+06    -100.484E+06    -82.5148E+06    -94.2236E+06    -30.8240E+06     8.53134E+06
            1267     94.7079E-03     6.37323E-03     94.4932E-03     455.088E-03    -227.177E-03    -227.911E-03    -227.147E-03     455.058E-03    -227.911E-03     8.87829E-03     462.054E-03     59.8978E+06    -13.2785E+06    -50.5301E+06    -81.1642E+06    -75.0107E+06    -56.6837E+06    -13.2785E+06     10.6542E+06
            1268     94.7840E-03     7.17013E-03     94.5125E-03     454.950E-03    -227.069E-03    -227.881E-03    -227.004E-03     454.885E-03    -227.881E-03     13.0809E-03     463.430E-03     69.5876E+06     4.35071E+06    -10.4372E+06    -70.0930E+06    -67.1991E+06    -13.0437E+06     4.06327E+06     12.1811E+06
            1269     94.8726E-03     7.96722E-03     94.5375E-03     454.950E-03    -227.080E-03    -227.870E-03    -226.964E-03     454.834E-03    -227.870E-03     17.6080E-03     465.035E-03     79.5213E+06     20.1610E+06     16.1123E+06    -61.2815E+06    -59.5146E+06     14.6329E+06     19.8735E+06     11.5364E+06
            1270     94.9757E-03     8.76429E-03     94.5705E-03     455.013E-03    -227.124E-03    -227.888E-03    -226.936E-03     454.825E-03    -227.888E-03     22.5061E-03     466.829E-03     82.1303E+06     33.6725E+06     22.2352E+06    -53.4568E+06    -52.1423E+06     20.9208E+06     33.6725E+06     9.84927E+06
            1271     95.0928E-03     9.56141E-03     94.6109E-03     455.133E-03    -227.217E-03    -227.915E-03    -226.929E-03     454.844E-03    -227.915E-03     27.9045E-03     468.819E-03     83.3702E+06     46.4624E+06     24.2391E+06    -45.6017E+06    -44.6733E+06     23.3106E+06     46.4624E+06     7.97274E+06
            1272     95.2257E-03     10.3589E-03     94.6606E-03     455.488E-03    -227.534E-03    -227.954E-03    -227.108E-03     455.062E-03    -227.954E-03     33.9451E-03     471.228E-03     84.6429E+06     58.2203E+06     25.6627E+06    -37.7668E+06    -37.1283E+06     25.0241E+06     58.2203E+06     6.30882E+06
            1273     95.3732E-03     11.1561E-03     94.7185E-03     455.857E-03    -227.828E-03    -228.029E-03    -227.227E-03     455.230E-03    -228.002E-03     41.2057E-03     474.115E-03     86.5914E+06     68.7798E+06     29.7538E+06    -30.4365E+06    -30.0307E+06     29.3481E+06     68.7798E+06     4.87531E+06
            1274     95.5393E-03     11.9536E-03     94.7886E-03     455.997E-03    -227.919E-03    -228.079E-03    -227.100E-03     455.153E-03    -228.052E-03     47.9614E-03     476.398E-03     90.3553E+06     80.2503E+06     37.9277E+06    -23.4929E+06    -23.2774E+06     37.7122E+06     80.2503E+06     3.56582E+06
            1275     95.7212E-03     12.7516E-03     94.8680E-03     456.640E-03    -228.051E-03    -228.589E-03    -227.190E-03     455.311E-03    -228.121E-03     59.6272E-03     482.183E-03     103.017E+06     101.067E+06     57.8655E+06    -16.4131E+06    -16.3216E+06     57.7739E+06     101.067E+06     2.43811E+06
            1276     95.9357E-03     13.5493E-03     94.9740E-03     456.995E-03    -228.228E-03    -228.767E-03    -227.223E-03     455.451E-03    -228.228E-03     64.9108E-03     482.312E-03     126.912E+06     135.268E+06     87.8331E+06    -8.52584E+06    -8.50211E+06     87.8094E+06     135.268E+06     1.29867E+06
            1277     96.0513E-03     796.670E-06     96.0480E-03     455.690E-03    -227.511E-03    -228.179E-03    -227.726E-03     455.689E-03    -227.964E-03    -388.047E-06     455.878E-03     114.948E+06    -110.999E+06    -114.579E+06    -227.686E+06    -113.507E+06    -227.672E+06    -112.085E+06     945.372E+03
            1278     96.0594E-03     1.59288E-03     96.0462E-03     455.779E-03    -227.822E-03    -227.957E-03    -227.900E-03     455.779E-03    -227.879E-03    -1.31563E-03     456.354E-03     106.706E+06    -105.483E+06    -111.176E+06    -214.875E+06    -111.233E+06    -214.818E+06    -105.483E+06     2.27185E+06
            1279     96.0737E-03     2.38937E-03     96.0440E-03     455.709E-03    -227.750E-03    -227.959E-03    -227.791E-03     455.708E-03    -227.917E-03    -1.45813E-03     456.915E-03     99.4549E+06    -95.2554E+06    -107.770E+06    -200.309E+06    -107.892E+06    -200.187E+06    -95.2554E+06     3.29935E+06
            1280     96.0962E-03     3.18605E-03     96.0434E-03     455.581E-03    -227.651E-03    -227.930E-03    -227.651E-03     455.580E-03    -227.930E-03    -827.467E-06     457.626E-03     91.1335E+06    -82.0946E+06    -102.718E+06    -181.642E+06    -102.957E+06    -181.403E+06    -82.0946E+06     4.20813E+06
            1281     96.1268E-03     3.98272E-03     96.0442E-03     455.452E-03    -227.517E-03    -227.935E-03    -227.517E-03     455.452E-03    -227.935E-03     405.216E-06     458.523E-03     82.3432E+06    -66.3752E+06    -96.4447E+06    -159.273E+06     -96.962E+06    -158.755E+06    -66.3752E+06     5.41437E+06
            1282     96.1674E-03     4.77956E-03     96.0486E-03     455.300E-03    -227.370E-03    -227.930E-03    -227.367E-03     455.297E-03    -227.930E-03     2.43756E-03     459.552E-03     72.4358E+06    -49.6909E+06    -89.1200E+06    -132.879E+06    -90.4034E+06    -131.595E+06    -49.6909E+06     6.87716E+06
            1283     96.2185E-03     5.57617E-03     96.0568E-03     455.174E-03    -227.255E-03    -227.919E-03    -227.244E-03     455.163E-03    -227.919E-03     5.29142E-03     460.724E-03     64.2040E+06    -32.2727E+06    -78.4450E+06    -105.306E+06    -83.3632E+06    -100.388E+06    -32.2727E+06     8.66269E+06
            1284     96.2807E-03     6.37313E-03     96.0696E-03     454.985E-03    -227.089E-03    -227.896E-03    -227.060E-03     454.956E-03    -227.896E-03     8.74109E-03     461.945E-03     60.5276E+06    -14.7104E+06    -55.8248E+06    -83.5744E+06    -75.7473E+06    -63.6518E+06    -14.7104E+06     10.3294E+06
            1285     96.3557E-03     7.17059E-03     96.0885E-03     454.778E-03    -226.927E-03    -227.852E-03    -226.865E-03     454.716E-03    -227.852E-03     12.8059E-03     463.243E-03     68.6545E+06     3.12106E+06    -15.0747E+06    -70.7795E+06    -67.7564E+06    -17.8103E+06     2.83361E+06     11.9182E+06
            1286     96.4443E-03     7.96766E-03     96.1146E-03     454.814E-03    -226.987E-03    -227.828E-03    -226.872E-03     454.700E-03    -227.828E-03     17.4862E-03     464.888E-03     79.8299E+06     19.5357E+06     16.0712E+06    -61.9517E+06    -59.9293E+06     14.3363E+06     19.2483E+06     12.3867E+06
            1287     96.5457E-03     8.76461E-03     96.1470E-03     455.017E-03    -227.171E-03    -227.846E-03    -226.981E-03     454.827E-03    -227.846E-03     22.6087E-03     466.833E-03     83.5519E+06     33.6746E+06     25.0121E+06    -53.7723E+06    -52.2734E+06     23.5131E+06     33.6746E+06     10.7062E+06
            1288     96.6618E-03     9.56187E-03     96.1877E-03     455.181E-03    -227.299E-03    -227.883E-03    -227.007E-03     454.889E-03    -227.883E-03     28.0958E-03     468.872E-03     84.7518E+06     46.8128E+06     27.1286E+06    -45.8266E+06    -44.8691E+06     26.1711E+06     46.8128E+06     8.27104E+06
            1289     96.7926E-03     10.3591E-03     96.2367E-03     455.349E-03    -227.423E-03    -227.926E-03    -226.997E-03     454.922E-03    -227.926E-03     33.9793E-03     471.093E-03     85.8834E+06     58.6060E+06     27.2494E+06    -38.4314E+06    -37.7876E+06     26.6056E+06     58.6060E+06     6.45699E+06
            1290     96.9397E-03     11.1568E-03     96.2956E-03     455.727E-03    -227.729E-03    -227.998E-03    -227.133E-03     455.105E-03    -227.972E-03     41.0398E-03     473.995E-03     88.3359E+06     69.5915E+06     31.6076E+06    -31.3746E+06    -30.9224E+06     31.1554E+06     69.5915E+06     5.28043E+06
            1291     97.1042E-03     11.9538E-03     96.3656E-03     456.023E-03    -227.970E-03    -228.053E-03    -227.163E-03     455.189E-03    -228.026E-03     47.6843E-03     476.436E-03     92.3978E+06     81.4740E+06     40.2621E+06    -24.3511E+06    -24.0879E+06     39.9990E+06     81.4740E+06     4.02032E+06
            1292     97.2832E-03     12.7513E-03     96.4439E-03     456.521E-03    -228.061E-03    -228.460E-03    -227.093E-03     455.190E-03    -228.097E-03     59.6229E-03     482.065E-03     104.843E+06     102.301E+06     60.0080E+06    -16.9885E+06    -16.8856E+06      59.905E+06     102.301E+06     2.59784E+06
            1293     97.4972E-03     13.5495E-03     96.5511E-03     456.667E-03    -228.104E-03    -228.563E-03    -226.916E-03     455.111E-03    -228.195E-03     65.1147E-03     481.979E-03     128.689E+06     136.553E+06     90.0567E+06    -8.91867E+06    -8.89557E+06     90.0336E+06     136.553E+06     1.26526E+06
            1294     97.6269E-03     796.767E-06     97.6236E-03     455.296E-03    -227.438E-03    -227.858E-03    -227.823E-03     455.296E-03    -227.473E-03    -790.588E-06     455.489E-03     118.293E+06    -111.903E+06    -114.424E+06    -231.426E+06    -113.352E+06    -231.411E+06    -112.989E+06     794.063E+03
            1295     97.6362E-03     1.59357E-03     97.6232E-03     455.500E-03    -227.666E-03    -227.834E-03    -227.799E-03     455.499E-03    -227.701E-03    -1.17535E-03     456.077E-03     110.547E+06    -106.239E+06    -111.808E+06    -219.425E+06    -111.850E+06    -219.383E+06    -106.239E+06     2.01293E+06
            1296     97.6500E-03     2.38983E-03     97.6208E-03     455.739E-03    -227.767E-03    -227.972E-03    -227.938E-03     455.739E-03    -227.801E-03    -1.32893E-03     456.941E-03     102.953E+06    -95.5534E+06    -107.716E+06    -203.983E+06    -107.809E+06    -203.891E+06    -95.5534E+06     2.88537E+06
            1297     97.6721E-03     3.18625E-03     97.6201E-03     455.705E-03    -227.746E-03    -227.959E-03    -227.820E-03     455.704E-03    -227.885E-03    -787.525E-06     457.752E-03     95.1220E+06    -82.5223E+06    -102.940E+06    -186.064E+06    -103.132E+06    -185.871E+06    -82.5223E+06     3.86827E+06
            1298     97.7024E-03     3.98275E-03     97.6211E-03     455.513E-03    -227.590E-03    -227.923E-03    -227.590E-03     455.513E-03    -227.923E-03     445.097E-06     458.592E-03     86.1209E+06    -67.2408E+06    -96.9565E+06    -164.070E+06    -97.3942E+06    -163.632E+06    -67.2408E+06     5.19070E+06
            1299     97.7420E-03     4.77933E-03     97.6251E-03     455.270E-03    -227.344E-03    -227.925E-03    -227.341E-03     455.267E-03    -227.925E-03     2.49978E-03     459.525E-03     76.4239E+06    -50.6504E+06    -89.8687E+06    -138.355E+06    -90.9923E+06    -137.232E+06    -50.6504E+06     6.83925E+06
            1300     97.7921E-03     5.57662E-03     97.6329E-03     455.085E-03    -227.177E-03    -227.907E-03    -227.166E-03     455.073E-03    -227.907E-03     5.34689E-03     460.640E-03     67.2304E+06    -33.2658E+06    -80.2535E+06    -109.849E+06    -83.9713E+06    -106.131E+06    -33.2658E+06     8.43995E+06
            1301     97.8542E-03     6.37354E-03     97.6464E-03     455.011E-03    -227.128E-03    -227.882E-03    -227.099E-03     454.982E-03    -227.882E-03     8.73003E-03     461.969E-03     61.6274E+06    -15.6179E+06    -59.9468E+06    -85.6737E+06    -76.3840E+06    -69.2365E+06    -15.6179E+06     9.71570E+06
            1302     97.9275E-03     7.17013E-03     97.6646E-03     454.834E-03    -226.987E-03    -227.848E-03    -226.926E-03     454.773E-03    -227.848E-03     12.6999E-03     463.290E-03     67.4966E+06     2.11334E+06    -20.9436E+06    -71.6542E+06    -68.5306E+06    -24.0672E+06     2.11334E+06     11.4283E+06
            1303     98.0151E-03     7.96769E-03     97.6907E-03     454.653E-03    -226.839E-03    -227.814E-03    -226.728E-03     454.542E-03    -227.814E-03     17.2239E-03     464.713E-03     79.2470E+06     18.7256E+06     14.2912E+06    -62.5634E+06    -60.4429E+06     12.3422E+06     18.5541E+06     12.5489E+06
            1304     98.1159E-03     8.76524E-03     97.7236E-03     454.755E-03    -226.945E-03    -227.810E-03    -226.759E-03     454.569E-03    -227.810E-03     22.3393E-03     466.554E-03     85.0063E+06     33.1143E+06     27.8279E+06    -54.3365E+06    -52.7222E+06     26.3851E+06     32.9428E+06     11.3668E+06
            1305     98.2310E-03     9.56223E-03     97.7644E-03     455.075E-03    -227.236E-03    -227.839E-03    -226.944E-03     454.782E-03    -227.839E-03     28.1017E-03     468.754E-03     86.3436E+06     46.3537E+06     30.0820E+06    -46.7208E+06    -45.5886E+06     28.9499E+06     46.3537E+06     9.23452E+06
            1306     98.3604E-03     10.3593E-03     97.8134E-03     455.413E-03    -227.522E-03    -227.891E-03    -227.091E-03     454.982E-03    -227.891E-03     34.1508E-03     471.159E-03     87.4553E+06     58.7442E+06     29.4250E+06    -39.4338E+06    -38.6343E+06     28.6255E+06     58.7442E+06     7.34647E+06
            1307     98.5055E-03     11.1565E-03     97.8717E-03     455.629E-03    -227.686E-03    -227.944E-03    -227.058E-03     455.001E-03    -227.944E-03     41.2207E-03     473.916E-03     89.8804E+06     70.2829E+06     33.4033E+06    -32.1573E+06    -31.6384E+06     32.8844E+06     70.2829E+06     5.75833E+06
            1308     98.6697E-03     11.9544E-03     97.9429E-03     455.748E-03    -227.756E-03    -227.992E-03    -226.915E-03     454.905E-03    -227.991E-03     47.8818E-03     476.162E-03     94.1594E+06     82.6289E+06     42.5389E+06    -24.9367E+06    -24.6384E+06     42.2407E+06     82.6289E+06     4.39938E+06
            1309     98.8461E-03     12.7522E-03     98.0201E-03     456.331E-03    -227.937E-03    -228.393E-03    -226.925E-03     454.979E-03    -228.053E-03     60.0552E-03     481.860E-03     106.858E+06     103.845E+06     62.9165E+06    -17.3336E+06    -17.2197E+06     62.8026E+06     103.845E+06     2.63375E+06
            1310     99.0582E-03     13.5505E-03     98.1270E-03     456.511E-03    -228.026E-03    -228.485E-03    -226.788E-03     454.934E-03    -228.146E-03     65.5322E-03     481.807E-03     130.478E+06     138.222E+06     92.4487E+06    -8.96955E+06    -8.95555E+06     92.4347E+06     138.222E+06     884.662E+03
            1311     99.2027E-03     796.589E-06     99.1995E-03     455.370E-03    -227.435E-03    -227.935E-03    -227.899E-03     455.370E-03    -227.470E-03    -952.952E-06     455.561E-03      121.11E+06    -111.984E+06    -113.606E+06    -233.894E+06    -113.612E+06    -233.888E+06    -111.984E+06     343.457E+03
            1312     99.2114E-03     1.59345E-03     99.1986E-03     455.395E-03    -227.631E-03    -227.764E-03    -227.690E-03     455.394E-03    -227.704E-03    -1.42350E-03     455.973E-03     114.213E+06    -106.851E+06    -111.276E+06    -223.186E+06    -111.300E+06    -223.162E+06    -106.851E+06     1.32948E+06
            1313     99.2270E-03     2.39015E-03     99.1982E-03     455.589E-03    -227.699E-03    -227.890E-03    -227.827E-03     455.588E-03    -227.761E-03    -1.53195E-03     456.794E-03     106.379E+06    -96.6555E+06    -108.081E+06    -208.201E+06    -108.163E+06    -208.119E+06    -96.6555E+06     2.73747E+06
            1314     99.2481E-03     3.18629E-03     99.1970E-03     455.617E-03    -227.706E-03    -227.911E-03    -227.779E-03     455.616E-03    -227.837E-03    -913.434E-06     457.665E-03     99.2228E+06    -83.0886E+06    -103.549E+06    -190.832E+06    -103.753E+06    -190.629E+06    -83.0886E+06     4.05699E+06
            1315     99.2778E-03     3.98290E-03     99.1979E-03     455.441E-03    -227.562E-03    -227.879E-03    -227.561E-03     455.440E-03    -227.879E-03     571.491E-06     458.521E-03     90.2197E+06    -67.8375E+06    -97.8795E+06    -169.028E+06    -98.3252E+06    -168.582E+06    -67.8375E+06     5.42150E+06
            1316     99.3166E-03     4.77983E-03     99.2015E-03     455.292E-03    -227.400E-03    -227.891E-03    -227.397E-03     455.289E-03    -227.891E-03     2.60955E-03     459.551E-03     80.4034E+06    -51.0867E+06    -90.8256E+06    -143.304E+06    -91.7203E+06    -142.409E+06    -51.0867E+06     6.52334E+06
            1317     99.3659E-03     5.57633E-03     99.2094E-03     455.085E-03    -227.202E-03    -227.884E-03    -227.190E-03     455.073E-03    -227.884E-03     5.40822E-03     460.647E-03     70.5612E+06    -33.9108E+06    -81.6801E+06    -114.467E+06    -84.5297E+06    -111.617E+06    -33.9108E+06     7.99490E+06
            1318     99.4271E-03     6.37343E-03     99.2226E-03     454.936E-03    -227.076E-03    -227.860E-03    -227.046E-03     454.906E-03    -227.860E-03     8.94646E-03     461.901E-03     63.6531E+06    -16.3015E+06    -63.2428E+06    -88.6289E+06    -77.2015E+06    -74.6702E+06    -16.3015E+06     9.74730E+06
            1319     99.5003E-03     7.17076E-03     99.2416E-03     454.883E-03    -227.054E-03    -227.829E-03    -226.991E-03     454.820E-03    -227.829E-03     12.9470E-03     463.338E-03     67.1576E+06     1.37182E+06    -26.8683E+06    -73.2292E+06    -69.6196E+06    -30.4779E+06     1.37182E+06     11.4287E+06
            1320     99.5859E-03     7.96745E-03     99.2667E-03     454.741E-03    -226.941E-03    -227.799E-03    -226.828E-03     454.627E-03    -227.799E-03     17.4096E-03     464.786E-03     79.2349E+06     18.6306E+06     10.6178E+06    -64.0757E+06    -61.8981E+06     9.57975E+06     17.4910E+06     12.5105E+06
            1321     99.6856E-03     8.76474E-03     99.2995E-03     454.653E-03    -226.865E-03    -227.788E-03    -226.679E-03     454.468E-03    -227.788E-03     22.3351E-03     466.428E-03     86.6736E+06     32.6159E+06     28.7553E+06    -55.9029E+06    -54.2426E+06     28.2346E+06     31.4764E+06     11.7947E+06
            1322     99.7997E-03     9.56266E-03     99.3405E-03     454.770E-03    -226.965E-03    -227.805E-03    -226.676E-03     454.480E-03    -227.805E-03     27.9258E-03     468.422E-03     87.5731E+06     44.9646E+06     32.3230E+06    -48.0015E+06    -46.7307E+06     31.0522E+06     44.9646E+06     10.0143E+06
            1323     99.9287E-03     10.3601E-03     99.3902E-03     455.083E-03    -227.241E-03    -227.841E-03    -226.805E-03     454.646E-03    -227.841E-03     34.3357E-03     470.820E-03     88.6911E+06     58.5398E+06     32.5054E+06    -40.0724E+06    -39.1859E+06     31.6188E+06     58.5398E+06     7.92948E+06
            1324     100.073E-03     11.1573E-03     99.4488E-03     455.409E-03    -227.523E-03    -227.887E-03    -226.881E-03     454.767E-03    -227.887E-03     41.6733E-03     473.691E-03     90.9568E+06     71.1442E+06     35.4976E+06    -32.1861E+06    -31.6703E+06     34.9819E+06     71.1442E+06     5.81953E+06
            1325     100.234E-03     11.9549E-03     99.5180E-03     455.572E-03    -227.640E-03    -227.932E-03    -226.786E-03     454.718E-03    -227.932E-03     48.2107E-03     475.973E-03     95.4557E+06     84.4688E+06     44.7576E+06    -24.4256E+06    -24.1616E+06     44.4936E+06     84.4688E+06     4.15323E+06
            1326     100.410E-03     12.7533E-03     99.5965E-03     456.213E-03    -227.849E-03    -228.364E-03    -226.874E-03     454.868E-03    -227.994E-03     59.9419E-03     481.756E-03     108.683E+06     106.149E+06     66.4299E+06    -16.7274E+06    -16.6290E+06     66.3315E+06     106.149E+06     2.51608E+06
            1327     100.619E-03     13.5514E-03     99.7027E-03     456.381E-03    -227.923E-03    -228.458E-03    -226.727E-03     454.815E-03    -228.087E-03     65.3151E-03     481.712E-03     131.880E+06     139.949E+06     94.7531E+06    -8.57663E+06    -8.56069E+06     94.7372E+06     139.949E+06     1.06728E+06
            1328     100.779E-03     796.641E-06     100.776E-03     455.747E-03    -227.505E-03    -228.242E-03    -228.197E-03     455.746E-03    -227.549E-03    -1.06359E-03     455.938E-03     123.284E+06    -112.278E+06    -115.204E+06    -236.993E+06    -114.857E+06    -236.956E+06    -112.662E+06     1.57873E+06
            1329     100.787E-03     1.59291E-03     100.775E-03     455.491E-03    -227.631E-03    -227.860E-03    -227.636E-03     455.490E-03    -227.855E-03    -1.49110E-03     456.066E-03     117.374E+06    -106.038E+06    -112.508E+06    -226.479E+06    -112.554E+06    -226.432E+06    -106.038E+06     1.89714E+06
            1330     100.803E-03     2.38959E-03     100.774E-03     455.224E-03    -227.431E-03    -227.793E-03    -227.430E-03     455.223E-03    -227.793E-03    -1.26376E-03     456.433E-03     111.000E+06    -96.3586E+06    -109.007E+06    -213.074E+06    -109.097E+06    -212.984E+06    -96.3586E+06     2.86682E+06
            1331     100.824E-03     3.18665E-03     100.774E-03     455.262E-03    -227.492E-03    -227.770E-03    -227.492E-03     455.262E-03    -227.770E-03    -622.012E-06     457.319E-03     103.634E+06    -83.0600E+06    -104.317E+06    -195.548E+06    -104.529E+06    -195.335E+06    -83.0600E+06     4.30281E+06
            1332     100.853E-03     3.98340E-03     100.774E-03     455.345E-03    -227.552E-03    -227.792E-03    -227.552E-03     455.344E-03    -227.792E-03     763.949E-06     458.427E-03     94.1918E+06    -67.8010E+06    -98.4371E+06    -173.321E+06    -98.8219E+06    -172.936E+06    -67.8010E+06     5.24818E+06
            1333     100.892E-03     4.77992E-03     100.778E-03     455.263E-03    -227.442E-03    -227.821E-03    -227.439E-03     455.260E-03    -227.821E-03     2.78757E-03     459.531E-03     84.2307E+06    -51.4343E+06    -91.4947E+06    -147.907E+06    -92.2725E+06    -147.129E+06    -51.4343E+06     6.31869E+06
            1334     100.940E-03     5.57696E-03     100.786E-03     455.089E-03    -227.258E-03    -227.831E-03    -227.245E-03     455.077E-03    -227.831E-03     5.56898E-03     460.662E-03     74.1413E+06    -34.2925E+06    -83.0532E+06    -119.118E+06    -85.2491E+06    -116.922E+06    -34.2925E+06     7.69690E+06
            1335     101.000E-03     6.37397E-03     100.799E-03     454.896E-03    -227.078E-03    -227.818E-03    -227.046E-03     454.864E-03    -227.818E-03     9.12850E-03     461.867E-03     65.9661E+06    -16.7478E+06    -66.4736E+06    -91.5467E+06    -77.4046E+06    -80.6157E+06    -16.7478E+06     9.51122E+06
            1336     101.073E-03     7.17085E-03     100.818E-03     454.772E-03    -226.985E-03    -227.787E-03    -226.921E-03     454.708E-03    -227.787E-03     13.0863E-03     463.235E-03     66.7315E+06     849.042E+03    -32.6313E+06    -74.0559E+06    -69.4468E+06    -37.2403E+06     849.042E+03     11.6965E+06
            1337     101.158E-03     7.96827E-03     100.843E-03     454.723E-03    -226.967E-03    -227.756E-03    -226.851E-03     454.606E-03    -227.756E-03     17.6189E-03     464.766E-03     78.6255E+06     18.9240E+06     7.40248E+06    -64.3128E+06    -61.8224E+06     6.40898E+06     17.4270E+06     12.9399E+06
            1338     101.256E-03     8.76537E-03     100.876E-03     454.761E-03    -227.011E-03    -227.750E-03    -226.819E-03     454.569E-03    -227.750E-03     22.7243E-03     466.516E-03     87.5470E+06     33.1058E+06     29.6713E+06    -56.1055E+06    -54.3368E+06     29.3996E+06     31.6089E+06     12.2659E+06
            1339     101.368E-03     9.56227E-03     100.916E-03     454.708E-03    -226.938E-03    -227.770E-03    -226.646E-03     454.416E-03    -227.770E-03     28.0458E-03     468.325E-03     88.4049E+06     44.6904E+06     34.6958E+06    -48.1200E+06    -46.8218E+06     33.3976E+06     44.6904E+06     10.2514E+06
            1340     101.496E-03     10.3602E-03     100.966E-03     454.607E-03    -226.815E-03    -227.792E-03    -226.381E-03     454.173E-03    -227.792E-03     34.2161E-03     470.314E-03     89.6247E+06     58.4475E+06     36.0161E+06    -40.0805E+06    -39.2480E+06     35.1835E+06     58.4475E+06     7.86214E+06
            1341     101.639E-03     11.1586E-03     101.025E-03     454.945E-03    -227.129E-03    -227.817E-03    -226.490E-03     454.307E-03    -227.817E-03     41.5494E-03     473.238E-03     91.9845E+06     71.7182E+06     38.0229E+06    -32.2511E+06    -31.7915E+06     37.5633E+06     71.7182E+06     5.58368E+06
            1342     101.799E-03     11.9563E-03     101.094E-03     455.432E-03    -227.575E-03    -227.857E-03    -226.720E-03     454.577E-03    -227.857E-03     48.2431E-03     475.918E-03     97.0849E+06     85.9328E+06     46.9856E+06    -24.5626E+06    -24.3512E+06     46.7742E+06     85.9328E+06     3.74477E+06
            1343     101.973E-03     12.7537E-03     101.172E-03     456.078E-03    -227.832E-03    -228.247E-03    -226.791E-03     454.712E-03    -227.921E-03     60.3729E-03     481.705E-03     110.766E+06     107.852E+06     68.9750E+06    -17.0502E+06    -16.9640E+06     68.8888E+06     107.852E+06     2.62264E+06
            1344     102.181E-03     13.5519E-03     101.279E-03     456.121E-03    -227.786E-03    -228.335E-03    -226.517E-03     454.526E-03    -228.010E-03     65.8688E-03     481.494E-03     133.764E+06     141.285E+06     97.0426E+06    -8.98529E+06    -8.95456E+06     97.0119E+06     141.285E+06     1.58818E+06
            1345     102.356E-03     796.113E-06     102.353E-03     455.591E-03    -227.437E-03    -228.154E-03    -227.850E-03     455.591E-03    -227.741E-03    -685.990E-06     455.782E-03     125.528E+06    -114.534E+06    -116.728E+06    -241.135E+06    -116.384E+06    -241.096E+06    -114.918E+06     1.01998E+06
            1346     102.364E-03     1.59293E-03     102.351E-03     455.403E-03    -227.597E-03    -227.807E-03    -227.612E-03     455.403E-03    -227.791E-03    -1.07925E-03     455.978E-03     120.680E+06    -106.958E+06    -113.542E+06    -230.742E+06    -113.613E+06    -230.670E+06    -106.958E+06     2.49614E+06
            1347     102.377E-03     2.39012E-03     102.349E-03     455.104E-03    -227.360E-03    -227.744E-03    -227.360E-03     455.103E-03    -227.744E-03    -1.21423E-03     456.311E-03     114.877E+06    -96.1188E+06    -110.017E+06    -217.251E+06    -110.123E+06    -217.145E+06    -96.1188E+06     3.26226E+06
            1348     102.399E-03     3.18724E-03     102.349E-03     455.011E-03    -227.309E-03    -227.703E-03    -227.308E-03     455.011E-03    -227.703E-03    -664.505E-06     457.067E-03     107.410E+06    -82.9334E+06    -104.717E+06    -199.472E+06    -104.900E+06    -199.289E+06    -82.9334E+06     4.08010E+06
            1349     102.428E-03     3.98382E-03     102.351E-03     455.058E-03    -227.356E-03    -227.701E-03    -227.356E-03     455.057E-03    -227.701E-03     699.738E-06     458.140E-03     98.5946E+06    -67.5853E+06    -98.5415E+06    -177.766E+06    -98.9243E+06    -177.384E+06    -67.5853E+06     5.31915E+06
            1350     102.466E-03     4.78068E-03     102.354E-03     455.076E-03    -227.354E-03    -227.722E-03    -227.350E-03     455.072E-03    -227.722E-03     2.97029E-03     459.344E-03     88.6567E+06    -51.0720E+06    -91.8012E+06    -152.475E+06    -92.5704E+06    -151.706E+06    -51.0720E+06     6.56257E+06
            1351     102.514E-03     5.57733E-03     102.362E-03     455.081E-03    -227.337E-03    -227.744E-03    -227.324E-03     455.068E-03    -227.744E-03     5.75168E-03     460.657E-03     77.5230E+06    -34.1300E+06    -83.6263E+06    -122.973E+06    -85.3208E+06    -121.278E+06    -34.1300E+06     7.44084E+06
            1352     102.573E-03     6.37411E-03     102.375E-03     454.902E-03    -227.152E-03    -227.750E-03    -227.119E-03     454.869E-03    -227.750E-03     9.21507E-03     461.887E-03     68.4865E+06    -17.3338E+06    -70.0638E+06    -94.6603E+06    -77.9229E+06    -86.8011E+06    -17.3338E+06     8.90038E+06
            1353     102.645E-03     7.17145E-03     102.394E-03     454.653E-03    -226.924E-03    -227.729E-03    -226.857E-03     454.586E-03    -227.729E-03     13.2920E-03     463.139E-03     66.8128E+06    -42.3462E+03    -39.6013E+06    -75.4391E+06    -70.0317E+06    -45.0087E+06    -42.3462E+03     11.2595E+06
            1354     102.729E-03     7.96852E-03     102.419E-03     454.559E-03    -226.867E-03    -227.693E-03    -226.748E-03     454.441E-03    -227.693E-03     17.7814E-03     464.631E-03     78.0580E+06     18.7089E+06     3.77384E+06    -64.6654E+06    -61.9177E+06     2.35005E+06     17.3851E+06     13.1234E+06
            1355     102.827E-03     8.76593E-03     102.452E-03     454.599E-03    -226.921E-03    -227.678E-03    -226.725E-03     454.404E-03    -227.678E-03     22.9391E-03     466.378E-03     88.2604E+06     33.4662E+06     31.1518E+06    -55.9207E+06    -54.0307E+06     30.5857E+06     32.1424E+06     12.7529E+06
            1356     102.938E-03     9.56341E-03     102.493E-03     454.686E-03    -226.989E-03    -227.698E-03    -226.691E-03     454.388E-03    -227.698E-03     28.3714E-03     468.292E-03     89.6446E+06     45.0736E+06     37.7306E+06    -47.8829E+06    -46.5463E+06     36.3940E+06     45.0736E+06     10.5659E+06
            1357     103.063E-03     10.3608E-03     102.540E-03     454.642E-03    -226.913E-03    -227.729E-03    -226.477E-03     454.207E-03    -227.729E-03     34.3001E-03     470.278E-03     91.1702E+06     58.7877E+06     39.7246E+06    -40.2291E+06    -39.3858E+06     38.8812E+06     58.7877E+06     8.12051E+06
            1358     103.204E-03     11.1586E-03     102.599E-03     454.619E-03    -226.863E-03    -227.756E-03    -226.222E-03     453.978E-03    -227.756E-03     41.5841E-03     472.776E-03     93.5406E+06     72.2938E+06     41.1897E+06    -32.7026E+06    -32.2035E+06     40.6906E+06     72.2938E+06      5.9819E+06
            1359     103.364E-03     11.9569E-03     102.670E-03     454.782E-03    -227.006E-03    -227.776E-03    -226.142E-03     453.918E-03    -227.776E-03     48.4312E-03     475.182E-03     99.0485E+06     86.7745E+06     49.4983E+06    -25.4925E+06    -25.2418E+06     49.2476E+06     86.7745E+06     4.14811E+06
            1360     103.537E-03     12.7556E-03     102.748E-03     455.553E-03    -227.473E-03    -228.081E-03    -226.347E-03     454.163E-03    -227.816E-03     60.8419E-03     481.221E-03     112.586E+06     108.924E+06     70.6133E+06    -17.7853E+06    -17.6921E+06     70.5202E+06     108.924E+06     2.71311E+06
            1361     103.743E-03     13.5545E-03     102.854E-03     455.872E-03    -227.714E-03    -228.158E-03    -226.361E-03     454.254E-03    -227.893E-03     66.3224E-03     481.307E-03     135.388E+06     142.829E+06     99.2407E+06    -8.98087E+06    -8.95252E+06     99.2123E+06     142.829E+06     1.53577E+06
            1362     103.932E-03     797.384E-06     103.929E-03     455.026E-03    -227.063E-03    -227.963E-03    -227.078E-03     455.026E-03    -227.948E-03    -838.717E-06     455.216E-03     128.329E+06    -115.332E+06    -117.244E+06    -244.593E+06    -117.278E+06    -244.559E+06    -115.332E+06     1.02487E+06
            1363     103.940E-03     1.59390E-03     103.927E-03     455.127E-03    -227.509E-03    -227.618E-03    -227.574E-03     455.126E-03    -227.552E-03    -1.15248E-03     455.702E-03     123.660E+06    -109.215E+06    -114.931E+06    -235.604E+06    -114.976E+06    -235.559E+06    -109.215E+06     1.87949E+06
            1364     103.953E-03     2.39006E-03     103.925E-03     455.196E-03    -227.528E-03    -227.669E-03    -227.585E-03     455.196E-03    -227.610E-03    -1.20080E-03     456.400E-03     117.421E+06    -98.1519E+06    -110.669E+06    -221.252E+06    -110.774E+06    -221.148E+06    -98.1519E+06     3.16671E+06
            1365     103.974E-03     3.18662E-03     103.925E-03     454.941E-03    -227.294E-03    -227.647E-03    -227.301E-03     454.940E-03    -227.639E-03    -597.526E-06     456.988E-03     109.910E+06    -84.3368E+06    -106.105E+06    -203.378E+06    -106.298E+06    -203.185E+06    -84.3368E+06     4.24357E+06
            1366     104.003E-03     3.98411E-03     103.926E-03     454.717E-03    -227.088E-03    -227.629E-03    -227.087E-03     454.716E-03    -227.629E-03     686.453E-06     457.796E-03     101.871E+06    -68.4549E+06    -100.035E+06    -182.218E+06    -100.373E+06    -181.881E+06    -68.4549E+06     5.11960E+06
            1367     104.040E-03     4.78127E-03     103.930E-03     454.750E-03    -227.128E-03    -227.622E-03    -227.124E-03     454.746E-03    -227.622E-03     2.95669E-03     459.010E-03     92.2060E+06    -51.4773E+06    -92.5542E+06    -156.816E+06    -93.2264E+06    -156.144E+06    -51.4773E+06     6.25126E+06
            1368     104.088E-03     5.57819E-03     103.939E-03     454.820E-03    -227.189E-03    -227.632E-03    -227.175E-03     454.806E-03    -227.632E-03     5.96471E-03     460.387E-03     81.1446E+06    -34.3594E+06    -84.4284E+06    -127.509E+06    -86.0390E+06    -125.899E+06    -34.3594E+06     7.62547E+06
            1369     104.146E-03     6.37503E-03     103.951E-03     454.793E-03    -227.146E-03    -227.646E-03    -227.112E-03     454.758E-03    -227.646E-03     9.49945E-03     461.778E-03     72.1345E+06    -16.9365E+06    -72.3994E+06    -98.3074E+06    -78.6073E+06    -92.0994E+06    -16.9365E+06     9.02486E+06
            1370     104.217E-03     7.17198E-03     103.970E-03     454.624E-03    -226.984E-03    -227.640E-03    -226.914E-03     454.555E-03    -227.640E-03     13.5916E-03     463.120E-03     68.5239E+06    -131.843E+03    -45.6015E+06    -77.6708E+06    -71.0497E+06    -52.2227E+06    -131.843E+03     10.8622E+06
            1371     104.300E-03     7.96942E-03     103.995E-03     454.395E-03    -226.789E-03    -227.606E-03    -226.666E-03     454.272E-03    -227.606E-03     18.1200E-03     464.495E-03     77.6217E+06     17.4231E+06    -753.259E+03    -65.8087E+06    -63.0187E+06    -2.74824E+06     16.6282E+06     12.6255E+06
            1372     104.397E-03     8.76670E-03     104.028E-03     454.276E-03    -226.699E-03    -227.577E-03    -226.499E-03     454.076E-03    -227.577E-03     23.1628E-03     466.105E-03     88.9626E+06     33.0526E+06     31.2224E+06    -56.8028E+06    -54.9388E+06     30.9816E+06     31.4293E+06     12.7586E+06
            1373     104.507E-03     9.56436E-03     104.068E-03     454.403E-03    -226.819E-03    -227.584E-03    -226.515E-03     454.099E-03    -227.584E-03     28.6598E-03     468.075E-03     91.4813E+06     45.3492E+06     40.0847E+06    -48.5851E+06    -47.2195E+06     39.5473E+06     44.5209E+06     10.9225E+06
            1374     104.631E-03     10.3618E-03     104.117E-03     454.608E-03    -226.988E-03    -227.620E-03    -226.542E-03     454.162E-03    -227.620E-03     34.7132E-03     470.291E-03     92.7232E+06     58.6545E+06     43.2280E+06    -40.6188E+06    -39.7483E+06     42.3575E+06     58.6545E+06     8.44987E+06
            1375     104.770E-03     11.1595E-03     104.174E-03     454.558E-03    -226.898E-03    -227.661E-03    -226.244E-03     453.904E-03    -227.661E-03     41.9952E-03     472.652E-03     94.7639E+06     72.7373E+06     44.0808E+06    -32.8660E+06    -32.3168E+06     43.5316E+06     72.7373E+06     6.45468E+06
            1376     104.928E-03     11.9583E-03     104.244E-03     454.343E-03    -226.662E-03    -227.681E-03    -225.795E-03     453.477E-03    -227.681E-03     48.5033E-03     474.432E-03     100.547E+06     88.2682E+06     52.5752E+06    -25.2456E+06    -24.9370E+06     52.2666E+06     88.2682E+06     4.73118E+06
            1377     105.099E-03     12.7572E-03     104.322E-03     455.068E-03    -227.147E-03    -227.921E-03    -225.974E-03     453.683E-03    -227.708E-03     60.6670E-03     480.448E-03     114.120E+06     110.752E+06     73.0538E+06    -17.4372E+06    -17.3263E+06     72.9429E+06     110.752E+06     2.94178E+06
            1378     105.306E-03     13.5557E-03     104.430E-03     455.314E-03    -227.331E-03    -227.983E-03    -225.942E-03     453.712E-03    -227.770E-03     65.9292E-03     480.460E-03     136.984E+06     144.348E+06     101.331E+06    -8.97794E+06    -8.95144E+06     101.305E+06     144.348E+06     1.51680E+06
            1379     105.507E-03     796.311E-06     105.504E-03     454.958E-03    -226.923E-03    -228.035E-03    -227.396E-03     454.957E-03    -227.561E-03    -798.280E-06     455.151E-03     131.664E+06    -116.598E+06    -118.387E+06    -249.133E+06    -118.272E+06    -249.098E+06    -116.748E+06     1.43122E+06
            1380     105.514E-03     1.59372E-03     105.502E-03     454.855E-03    -227.320E-03    -227.535E-03    -227.369E-03     454.854E-03    -227.485E-03    -1.49827E-03     455.429E-03     126.417E+06    -109.904E+06    -115.949E+06    -239.200E+06    -115.992E+06    -239.157E+06    -109.904E+06     2.07674E+06
            1381     105.529E-03     2.39086E-03     105.502E-03     454.822E-03    -227.278E-03    -227.544E-03    -227.335E-03     454.821E-03    -227.486E-03    -1.22952E-03     456.022E-03     120.182E+06    -99.7674E+06    -112.421E+06    -225.716E+06    -112.513E+06    -225.625E+06    -99.7674E+06     3.00582E+06
            1382     105.548E-03     3.18766E-03     105.500E-03     454.770E-03    -227.258E-03    -227.513E-03    -227.265E-03     454.770E-03    -227.505E-03    -401.905E-06     456.813E-03     112.569E+06    -85.8935E+06    -107.241E+06    -207.490E+06    -107.415E+06    -207.316E+06    -85.8935E+06     4.05593E+06
            1383     105.576E-03     3.98437E-03     105.501E-03     454.682E-03    -227.158E-03    -227.524E-03    -227.157E-03     454.681E-03    -227.524E-03     989.324E-06     457.756E-03     104.065E+06    -69.9247E+06    -101.253E+06    -185.880E+06    -101.557E+06    -185.576E+06    -69.9247E+06     4.92987E+06
            1384     105.614E-03     4.78143E-03     105.505E-03     454.519E-03    -226.987E-03    -227.532E-03    -226.983E-03     454.515E-03    -227.532E-03     2.96160E-03     458.777E-03     94.7036E+06    -52.8334E+06    -94.4761E+06    -160.952E+06    -95.0568E+06    -160.371E+06    -52.8334E+06     5.93442E+06
            1385     105.661E-03     5.57883E-03     105.514E-03     454.355E-03    -226.830E-03    -227.525E-03    -226.816E-03     454.341E-03    -227.525E-03     5.84235E-03     459.918E-03     84.6512E+06    -35.0491E+06    -86.3775E+06    -132.321E+06    -87.7567E+06    -130.942E+06    -35.0491E+06     7.30581E+06
            1386     105.719E-03     6.37614E-03     105.527E-03     454.394E-03    -226.879E-03    -227.515E-03    -226.844E-03     454.359E-03    -227.515E-03     9.57703E-03     461.365E-03     75.3875E+06    -17.3282E+06    -74.9130E+06    -102.369E+06    -79.8292E+06    -97.4524E+06    -17.3282E+06     8.86701E+06
            1387     105.789E-03     7.17312E-03     105.545E-03     454.387E-03    -226.883E-03    -227.504E-03    -226.810E-03     454.314E-03    -227.504E-03     13.9016E-03     462.869E-03     69.8992E+06    -97.4501E+03    -50.0502E+06    -79.1606E+06    -71.4750E+06    -57.7359E+06    -97.4501E+03     10.2849E+06
            1388     105.871E-03     7.97015E-03     105.571E-03     454.133E-03    -226.662E-03    -227.471E-03    -226.532E-03     454.003E-03    -227.471E-03     18.6246E-03     464.225E-03     76.3367E+06     16.6976E+06    -5.80248E+06    -65.9341E+06    -63.1612E+06    -8.57539E+06     16.6976E+06     11.9888E+06
            1389     105.967E-03     8.76797E-03     105.603E-03     453.965E-03    -226.532E-03    -227.433E-03    -226.321E-03     453.754E-03    -227.433E-03     23.7732E-03     465.793E-03     88.8525E+06     33.9368E+06     29.3333E+06    -57.0903E+06    -55.1345E+06     29.7464E+06     31.5679E+06     12.9688E+06
            1390     106.076E-03     9.56553E-03     105.644E-03     454.000E-03    -226.576E-03    -227.424E-03    -226.255E-03     453.679E-03    -227.424E-03     29.3860E-03     467.712E-03     93.4419E+06     46.6507E+06     42.0291E+06    -49.0038E+06    -47.5722E+06     42.9665E+06     44.2818E+06     11.4100E+06
            1391     106.199E-03     10.3636E-03     105.692E-03     454.139E-03    -226.691E-03    -227.448E-03    -226.224E-03     453.672E-03    -227.448E-03     35.5012E-03     469.937E-03     94.1597E+06     58.0358E+06     46.5034E+06    -41.1476E+06    -40.2612E+06     45.6170E+06     58.0358E+06     8.72108E+06
            1392     106.337E-03     11.1615E-03     105.750E-03     454.408E-03    -226.917E-03    -227.491E-03    -226.239E-03     453.730E-03    -227.491E-03     42.7605E-03     472.746E-03     96.1222E+06     72.6851E+06     46.9247E+06    -33.4792E+06    -32.9508E+06     46.3964E+06     72.6851E+06     6.45359E+06
            1393     106.492E-03     11.9593E-03     105.818E-03     454.476E-03    -226.939E-03    -227.536E-03    -226.044E-03     453.580E-03    -227.536E-03     49.2914E-03     474.805E-03     102.328E+06     89.2714E+06     55.2707E+06    -25.7192E+06    -25.4211E+06     54.9726E+06     89.2714E+06     4.82454E+06
            1394     106.662E-03     12.7581E-03     105.896E-03     454.808E-03    -227.144E-03    -227.663E-03    -225.792E-03     453.371E-03    -227.578E-03     61.7450E-03     480.755E-03     116.410E+06     112.425E+06     75.9207E+06    -17.8504E+06    -17.7127E+06     75.7831E+06     112.425E+06     3.40719E+06
            1395     106.867E-03     13.5574E-03     106.004E-03     454.621E-03    -226.911E-03    -227.710E-03    -225.352E-03     452.977E-03    -227.625E-03     66.6930E-03     480.243E-03     139.222E+06     145.910E+06     104.099E+06    -9.42260E+06    -9.38674E+06     104.063E+06     145.910E+06     1.72461E+06
            1396     107.082E-03     797.211E-06     107.079E-03     454.677E-03    -226.927E-03    -227.750E-03    -227.737E-03     454.677E-03    -226.940E-03    -543.918E-06     454.866E-03     134.773E+06    -117.594E+06    -119.021E+06    -253.071E+06    -118.692E+06    -253.058E+06    -117.936E+06     741.482E+03
            1397     107.090E-03     1.59343E-03     107.078E-03     454.626E-03    -227.219E-03    -227.406E-03    -227.275E-03     454.625E-03    -227.350E-03    -951.933E-06     455.204E-03     129.312E+06    -111.514E+06    -116.933E+06    -243.412E+06    -116.979E+06    -243.366E+06    -111.514E+06     2.19234E+06
            1398     107.103E-03     2.39066E-03     107.076E-03     454.506E-03    -227.129E-03    -227.377E-03    -227.150E-03     454.505E-03    -227.355E-03    -1.12930E-03     455.710E-03     122.899E+06    -100.711E+06    -113.621E+06    -229.486E+06    -113.712E+06    -229.395E+06    -100.711E+06     3.14493E+06
            1399     107.123E-03     3.18812E-03     107.075E-03     454.534E-03    -227.163E-03    -227.371E-03    -227.163E-03     454.534E-03    -227.371E-03    -670.978E-06     456.577E-03     115.511E+06    -86.6915E+06    -108.488E+06    -211.444E+06    -108.651E+06    -211.281E+06    -86.6915E+06     3.98735E+06
            1400     107.151E-03     3.98514E-03     107.077E-03     454.464E-03    -227.067E-03    -227.398E-03    -227.066E-03     454.464E-03    -227.398E-03     886.667E-06     457.532E-03     106.874E+06    -70.6784E+06    -102.418E+06    -189.652E+06    -102.725E+06    -189.344E+06    -70.6784E+06     5.02446E+06
            1401     107.187E-03     4.78200E-03     107.081E-03     454.233E-03    -226.826E-03    -227.407E-03    -226.821E-03     454.228E-03    -227.407E-03     3.24591E-03     458.482E-03     97.5387E+06    -53.3674E+06    -95.5166E+06    -164.636E+06    -96.0375E+06    -164.115E+06    -53.3674E+06     5.84892E+06
            1402     107.233E-03     5.57917E-03     107.088E-03     454.017E-03    -226.625E-03    -227.392E-03    -226.609E-03     454.001E-03    -227.392E-03     6.28742E-03     459.574E-03     87.6591E+06    -35.7403E+06    -87.5684E+06    -136.554E+06    -88.6625E+06    -135.460E+06    -35.7403E+06     6.83156E+06
            1403     107.291E-03     6.37677E-03     107.102E-03     453.861E-03    -226.498E-03    -227.363E-03    -226.460E-03     453.823E-03    -227.363E-03     9.97756E-03     460.824E-03     77.8855E+06    -18.0468E+06    -77.0532E+06    -105.882E+06    -80.6263E+06    -102.309E+06    -18.0468E+06     8.06528E+06
            1404     107.361E-03     7.17451E-03     107.121E-03     453.786E-03    -226.460E-03    -227.325E-03    -226.384E-03     453.710E-03    -227.325E-03     14.2045E-03     462.249E-03     71.4212E+06    -442.909E+03    -54.2557E+06    -80.9348E+06    -72.3586E+06    -62.8319E+06    -442.909E+03     9.50032E+06
            1405     107.442E-03     7.97228E-03     107.146E-03     453.709E-03    -226.428E-03    -227.281E-03    -226.293E-03     453.575E-03    -227.281E-03     18.9554E-03     463.775E-03     75.9498E+06     16.8190E+06    -12.3876E+06    -67.0651E+06    -64.1853E+06    -15.2675E+06     16.8190E+06     11.5420E+06
            1406     107.536E-03     8.76981E-03     107.178E-03     453.535E-03    -226.302E-03    -227.233E-03    -226.084E-03     453.318E-03    -227.233E-03     24.1494E-03     465.341E-03     89.1326E+06     35.4833E+06     25.6345E+06    -58.0727E+06    -56.0913E+06     27.3003E+06     31.8361E+06     12.8922E+06
            1407     107.644E-03     9.56792E-03     107.218E-03     453.455E-03    -226.247E-03    -227.208E-03    -225.916E-03     453.124E-03    -227.208E-03     29.8526E-03     467.145E-03     96.0248E+06     48.4310E+06     43.8292E+06    -49.7809E+06    -48.3084E+06     46.3383E+06     44.4494E+06     11.8473E+06
            1408     107.766E-03     10.3659E-03     107.266E-03     453.604E-03    -226.384E-03    -227.219E-03    -225.902E-03     453.122E-03    -227.219E-03     36.0399E-03     469.393E-03     96.2626E+06     58.2332E+06     49.8118E+06    -41.7891E+06    -40.8299E+06     49.1869E+06     57.8989E+06     9.29193E+06
            1409     107.903E-03     11.1644E-03     107.324E-03     454.002E-03    -226.740E-03    -227.261E-03    -226.043E-03     453.304E-03    -227.261E-03     43.3733E-03     472.423E-03     97.8675E+06     72.7365E+06     50.3990E+06    -34.1456E+06    -33.5836E+06     49.8370E+06     72.7365E+06     6.81219E+06
            1410     108.058E-03     11.9628E-03     107.393E-03     454.313E-03    -226.993E-03    -227.319E-03    -226.072E-03     453.392E-03    -227.319E-03     49.9963E-03     474.913E-03     103.800E+06     89.7001E+06     57.6072E+06    -26.3431E+06    -26.0562E+06     57.3203E+06     89.7001E+06     4.77076E+06
            1411     108.224E-03     12.7610E-03     107.469E-03     454.539E-03    -227.133E-03    -227.406E-03    -225.704E-03     453.081E-03    -227.377E-03     62.2364E-03     480.835E-03     118.005E+06     113.687E+06     78.2275E+06    -17.9684E+06    -17.8455E+06     78.1045E+06     113.687E+06     3.28807E+06
            1412     108.427E-03     13.5609E-03     107.576E-03     454.290E-03    -226.831E-03    -227.459E-03    -225.191E-03     452.622E-03    -227.431E-03     67.1619E-03     480.337E-03     141.178E+06     147.822E+06     107.409E+06    -9.15273E+06    -9.11337E+06     107.370E+06     147.822E+06     1.89696E+06
            1413     108.656E-03     797.149E-06     108.653E-03     454.015E-03    -226.769E-03    -227.246E-03    -227.105E-03     454.014E-03    -226.909E-03    -772.645E-06     454.200E-03     137.887E+06    -118.681E+06    -120.734E+06    -257.576E+06    -120.558E+06    -257.561E+06    -118.873E+06     1.41398E+06
            1414     108.664E-03     1.59490E-03     108.652E-03     454.255E-03    -227.052E-03    -227.203E-03    -227.184E-03     454.254E-03    -227.070E-03    -928.343E-06     454.829E-03     132.499E+06    -112.344E+06    -118.420E+06    -247.755E+06    -118.462E+06    -247.714E+06    -112.344E+06     2.14408E+06
            1415     108.677E-03     2.39154E-03     108.651E-03     454.372E-03    -227.111E-03    -227.261E-03    -227.209E-03     454.372E-03    -227.163E-03    -953.250E-06     455.577E-03     125.583E+06    -101.463E+06    -114.450E+06    -232.962E+06    -114.543E+06    -232.869E+06    -101.463E+06     3.21545E+06
            1416     108.697E-03     3.18804E-03     108.650E-03     454.167E-03    -226.952E-03    -227.216E-03    -226.951E-03     454.167E-03    -227.216E-03    -194.060E-06     456.214E-03     118.256E+06    -87.2647E+06    -109.709E+06    -215.021E+06    -109.868E+06    -214.862E+06    -87.2647E+06     4.00048E+06
            1417     108.724E-03     3.98527E-03     108.651E-03     453.885E-03    -226.669E-03    -227.216E-03    -226.668E-03     453.884E-03    -227.216E-03     1.34940E-03     456.955E-03     109.859E+06    -70.9582E+06    -103.313E+06    -193.216E+06    -103.572E+06    -192.957E+06    -70.9582E+06     4.71236E+06
            1418     108.760E-03     4.78317E-03     108.655E-03     453.739E-03    -226.541E-03    -227.198E-03    -226.535E-03     453.733E-03    -227.198E-03     3.72598E-03     457.985E-03     100.740E+06    -53.5548E+06    -95.9895E+06    -168.323E+06    -96.4577E+06    -167.855E+06    -53.5548E+06     5.63927E+06
            1419     108.806E-03     5.58083E-03     108.663E-03     453.688E-03    -226.505E-03    -227.184E-03    -226.487E-03     453.671E-03    -227.184E-03     6.73500E-03     459.239E-03     90.6549E+06    -35.5714E+06    -87.8541E+06    -139.876E+06    -88.7388E+06    -138.991E+06    -35.5714E+06     6.47101E+06
            1420     108.863E-03     6.37823E-03     108.676E-03     453.476E-03    -226.313E-03    -227.163E-03    -226.273E-03     453.435E-03    -227.163E-03     10.2689E-03     460.434E-03     80.8855E+06    -17.7545E+06    -78.2109E+06    -109.106E+06    -80.8658E+06    -106.451E+06    -17.7545E+06     7.48898E+06
            1421     108.931E-03     7.17607E-03     108.694E-03     453.216E-03    -226.096E-03    -227.120E-03    -226.018E-03     453.138E-03    -227.120E-03     14.3918E-03     461.677E-03     73.7675E+06    -235.294E+03    -58.2828E+06    -82.9822E+06    -72.8599E+06    -68.4051E+06    -235.294E+03     9.11535E+06
            1422     109.012E-03     7.97388E-03     108.720E-03     453.056E-03    -225.999E-03    -227.058E-03    -225.861E-03     452.919E-03    -227.058E-03     19.1403E-03     463.117E-03     75.7578E+06     17.0518E+06    -18.8308E+06    -67.5992E+06    -64.4349E+06    -21.9952E+06     17.0518E+06     11.1262E+06
            1423     109.105E-03     8.77191E-03     108.752E-03     452.980E-03    -225.987E-03    -226.993E-03    -225.765E-03     452.757E-03    -226.993E-03     24.4195E-03     464.775E-03     88.4444E+06     35.8290E+06     22.7602E+06    -58.1234E+06    -56.1502E+06     24.0557E+06     32.5604E+06     12.5422E+06
            1424     109.212E-03     9.57010E-03     108.791E-03     452.988E-03    -226.033E-03    -226.955E-03    -225.698E-03     452.654E-03    -226.955E-03     29.9852E-03     466.667E-03     97.3635E+06     50.1438E+06     45.1066E+06    -49.6158E+06    -48.1670E+06     48.6949E+06     45.1066E+06     11.8908E+06
            1425     109.333E-03     10.3688E-03     108.840E-03     453.194E-03    -226.228E-03    -226.966E-03    -225.746E-03     452.712E-03    -226.966E-03     36.0617E-03     468.952E-03     97.6717E+06     59.5836E+06     51.9732E+06    -41.5929E+06    -40.5648E+06     52.7136E+06     57.8151E+06     9.82111E+06
            1426     109.468E-03     11.1669E-03     108.897E-03     453.524E-03    -226.510E-03    -227.014E-03    -225.815E-03     452.829E-03    -227.014E-03     43.2973E-03     471.880E-03     99.0494E+06     73.0736E+06     54.2388E+06    -33.8443E+06    -33.2101E+06     53.6046E+06     73.0736E+06     7.35010E+06
            1427     109.622E-03     11.9653E-03     108.967E-03     453.752E-03    -226.676E-03    -227.075E-03    -225.760E-03     452.836E-03    -227.075E-03     49.8272E-03     474.279E-03     105.045E+06     90.6263E+06     60.8543E+06    -26.0541E+06    -25.7581E+06     60.5584E+06     90.6263E+06     4.92345E+06
            1428     109.787E-03     12.7644E-03     109.043E-03     454.298E-03    -226.956E-03    -227.343E-03    -225.728E-03     452.872E-03    -227.144E-03     61.6097E-03     480.122E-03     119.377E+06     114.644E+06     80.2166E+06    -18.1454E+06    -18.0228E+06      80.094E+06     114.644E+06     3.34056E+06
            1429     109.987E-03     13.5632E-03     109.147E-03     454.172E-03    -226.754E-03    -227.417E-03    -225.302E-03     452.521E-03    -227.219E-03     66.8707E-03     479.876E-03     143.250E+06     149.140E+06     110.332E+06    -9.51069E+06    -9.46855E+06     110.290E+06     149.140E+06     2.01624E+06
            1430     110.229E-03     797.433E-06     110.226E-03     453.682E-03    -226.730E-03    -226.952E-03    -226.757E-03     453.682E-03    -226.925E-03    -715.392E-06     453.873E-03     140.517E+06    -120.877E+06    -123.197E+06    -262.532E+06    -122.822E+06    -262.514E+06    -121.270E+06     1.57335E+06
            1431     110.238E-03     1.59437E-03     110.226E-03     453.720E-03    -226.743E-03    -226.977E-03    -226.846E-03     453.719E-03    -226.873E-03    -845.404E-06     454.293E-03     134.677E+06    -113.432E+06    -120.167E+06    -251.323E+06    -120.208E+06    -251.282E+06    -113.432E+06     2.14746E+06
            1432     110.251E-03     2.39161E-03     110.225E-03     453.584E-03    -226.615E-03    -226.969E-03    -226.691E-03     453.584E-03    -226.892E-03    -716.235E-06     454.782E-03     128.064E+06    -102.443E+06    -115.999E+06    -236.690E+06    -116.078E+06    -236.611E+06    -102.443E+06     2.96481E+06
            1433     110.270E-03     3.18949E-03     110.224E-03     453.392E-03    -226.504E-03    -226.888E-03    -226.504E-03     453.392E-03    -226.888E-03     445.138E-06     455.433E-03     120.623E+06    -88.1296E+06    -110.486E+06    -218.262E+06    -110.621E+06    -218.127E+06    -88.1296E+06     3.72099E+06
            1434     110.297E-03     3.98723E-03     110.225E-03     453.386E-03    -226.495E-03    -226.891E-03    -226.493E-03     453.384E-03    -226.891E-03     2.00278E-03     456.455E-03     112.588E+06    -71.4290E+06    -104.158E+06    -196.591E+06    -104.392E+06    -196.357E+06    -71.4290E+06     4.54351E+06
            1435     110.332E-03     4.78457E-03     110.228E-03     453.374E-03    -226.466E-03    -226.908E-03    -226.460E-03     453.368E-03    -226.908E-03     4.07431E-03     457.625E-03     103.321E+06    -53.6217E+06    -96.9720E+06    -171.314E+06    -97.3648E+06    -170.922E+06    -53.6217E+06     5.28166E+06
            1436     110.378E-03     5.58200E-03     110.237E-03     453.215E-03    -226.297E-03    -226.918E-03    -226.278E-03     453.196E-03    -226.918E-03     6.94887E-03     458.769E-03     93.6241E+06    -35.4708E+06    -89.0036E+06    -143.213E+06    -89.7586E+06    -142.458E+06    -35.4708E+06     6.10639E+06
            1437     110.433E-03     6.37981E-03     110.249E-03     453.014E-03    -226.108E-03    -226.906E-03    -226.065E-03     452.972E-03    -226.906E-03     10.5263E-03     459.976E-03     84.0016E+06    -17.6530E+06    -79.7828E+06    -112.694E+06    -81.9024E+06    -110.574E+06    -17.6530E+06     7.14357E+06
            1438     110.501E-03     7.17764E-03     110.268E-03     452.746E-03    -225.878E-03    -226.869E-03    -225.795E-03     452.664E-03    -226.869E-03     14.7795E-03     461.218E-03     76.0214E+06    -229.631E+03    -62.1049E+06    -85.0489E+06    -73.4859E+06    -73.6679E+06    -229.631E+03     8.44047E+06
            1439     110.580E-03     7.97606E-03     110.292E-03     452.485E-03    -225.680E-03    -226.805E-03    -225.539E-03     452.344E-03    -226.805E-03     19.3895E-03     462.558E-03     75.7604E+06     16.8206E+06    -25.4792E+06    -68.2770E+06    -64.9133E+06    -28.8429E+06     16.8206E+06     10.5414E+06
            1440     110.673E-03     8.77477E-03     110.325E-03     452.409E-03    -225.677E-03    -226.731E-03    -225.453E-03     452.185E-03    -226.731E-03     24.4873E-03     464.208E-03     88.1409E+06     36.1356E+06     19.5363E+06    -58.4437E+06    -56.4645E+06     20.8657E+06     32.8269E+06     12.1849E+06
            1441     110.779E-03     9.57295E-03     110.365E-03     452.597E-03    -225.907E-03    -226.690E-03    -225.572E-03     452.262E-03    -226.690E-03     30.0191E-03     466.289E-03     98.2264E+06     51.3652E+06     45.2902E+06    -49.7498E+06    -48.3664E+06     49.9818E+06     45.2902E+06     11.7060E+06
            1442     110.898E-03     10.3709E-03     110.412E-03     452.841E-03    -226.135E-03    -226.706E-03    -225.647E-03     452.354E-03    -226.706E-03     36.2039E-03     468.648E-03     98.7796E+06     60.0572E+06     53.6897E+06    -41.7299E+06    -40.6961E+06     55.4222E+06     57.2909E+06     9.99758E+06
            1443     111.034E-03     11.1696E-03     110.471E-03     453.047E-03    -226.287E-03    -226.761E-03    -225.586E-03     452.347E-03    -226.761E-03     43.4387E-03     471.459E-03     100.632E+06     72.8860E+06     58.3772E+06    -33.9918E+06    -33.3274E+06     57.7128E+06     72.8860E+06     7.71296E+06
            1444     111.185E-03     11.9685E-03     110.539E-03     453.276E-03    -226.447E-03    -226.829E-03    -225.525E-03     452.353E-03    -226.829E-03     49.9665E-03     473.856E-03     106.528E+06     91.0631E+06     64.0370E+06    -26.2961E+06    -25.9346E+06     63.6755E+06     91.0631E+06     5.63883E+06
            1445     111.351E-03     12.7673E-03     110.617E-03     453.954E-03    -226.733E-03    -227.221E-03    -225.614E-03     452.521E-03    -226.907E-03     61.7630E-03     479.891E-03     121.198E+06     115.687E+06     82.7796E+06    -18.5463E+06    -18.3679E+06     82.6012E+06     115.687E+06     4.01791E+06
            1446     111.548E-03     13.5665E-03     110.720E-03     454.048E-03    -226.736E-03    -227.312E-03    -225.396E-03     452.394E-03    -226.999E-03     66.9429E-03     479.958E-03     145.621E+06     150.795E+06     113.755E+06    -9.76472E+06    -9.71790E+06     113.708E+06     150.795E+06     2.01564E+06
            1447     111.802E-03     797.429E-06     111.800E-03     453.095E-03    -226.396E-03    -226.700E-03    -226.423E-03     453.095E-03    -226.673E-03    -287.269E-06     453.286E-03     142.294E+06    -121.787E+06    -124.206E+06    -265.271E+06    -123.829E+06    -265.255E+06    -122.180E+06     632.629E+03
            1448     111.811E-03     1.59502E-03     111.799E-03     452.838E-03    -226.281E-03    -226.556E-03    -226.309E-03     452.838E-03    -226.529E-03    -343.029E-06     453.413E-03     137.321E+06    -114.858E+06    -120.878E+06    -255.052E+06    -120.901E+06    -255.029E+06    -114.858E+06     1.71075E+06
            1449     111.823E-03     2.39323E-03     111.797E-03     452.598E-03    -226.122E-03    -226.476E-03    -226.122E-03     452.598E-03    -226.476E-03    -340.787E-06     453.794E-03     130.838E+06    -103.574E+06    -117.058E+06    -240.575E+06    -117.118E+06    -240.515E+06    -103.574E+06     2.59005E+06
            1450     111.842E-03     3.19103E-03     111.796E-03     452.697E-03    -226.219E-03    -226.478E-03    -226.231E-03     452.697E-03    -226.466E-03     444.055E-06     454.732E-03     122.914E+06    -89.0805E+06    -111.925E+06    -221.697E+06    -112.061E+06    -221.562E+06    -89.0805E+06     3.75697E+06
            1451     111.868E-03     3.98870E-03     111.797E-03     452.843E-03    -226.319E-03    -226.524E-03    -226.329E-03     452.841E-03    -226.512E-03     1.96704E-03     455.911E-03     115.025E+06    -71.8786E+06    -105.560E+06    -199.819E+06    -105.788E+06    -199.591E+06    -71.8786E+06     4.56649E+06
            1452     111.904E-03     4.78609E-03     111.802E-03     452.783E-03    -226.222E-03    -226.561E-03    -226.215E-03     452.775E-03    -226.561E-03     4.30953E-03     457.032E-03     105.656E+06    -53.9497E+06    -98.4269E+06    -174.331E+06    -98.8041E+06    -173.954E+06    -53.9497E+06     5.22610E+06
            1453     111.948E-03     5.58399E-03     111.808E-03     452.583E-03    -225.998E-03    -226.584E-03    -225.977E-03     452.561E-03    -226.584E-03     7.45891E-03     458.140E-03     96.3608E+06    -35.5752E+06    -90.4431E+06    -146.493E+06    -91.1274E+06    -145.809E+06    -35.5752E+06     5.95336E+06
            1454     112.004E-03     6.38202E-03     111.822E-03     452.415E-03    -225.835E-03    -226.579E-03    -225.789E-03     452.368E-03    -226.579E-03     11.0582E-03     459.390E-03     86.7054E+06    -17.4833E+06    -81.1467E+06    -115.685E+06    -82.7916E+06    -114.040E+06    -17.4833E+06     6.67961E+06
            1455     112.070E-03     7.18027E-03     111.839E-03     452.327E-03    -225.770E-03    -226.557E-03    -225.683E-03     452.241E-03    -226.557E-03     15.1431E-03     460.819E-03     78.4251E+06    -188.695E+03    -65.2582E+06    -87.2532E+06    -74.4482E+06    -78.0632E+06    -188.695E+03     7.87732E+06
            1456     112.149E-03     7.97839E-03     111.865E-03     452.240E-03    -225.718E-03    -226.522E-03    -225.575E-03     452.097E-03    -226.522E-03     19.5856E-03     462.346E-03     76.2498E+06     16.2620E+06    -32.1142E+06    -69.6192E+06    -66.1130E+06    -35.6204E+06     16.2620E+06     9.76498E+06
            1457     112.240E-03     8.77641E-03     111.897E-03     452.025E-03    -225.557E-03    -226.467E-03    -225.333E-03     451.801E-03    -226.467E-03     24.4813E-03     463.860E-03     88.0420E+06     35.7904E+06     15.4123E+06    -59.3730E+06    -57.4761E+06     16.8508E+06     32.4549E+06     11.6197E+06
            1458     112.346E-03     9.57538E-03     111.937E-03     452.029E-03    -225.604E-03    -226.424E-03    -225.265E-03     451.689E-03    -226.424E-03     30.1701E-03     465.742E-03     99.6320E+06     52.2274E+06     45.1458E+06    -50.7415E+06    -49.3606E+06     50.8465E+06     45.1458E+06     11.8184E+06
            1459     112.465E-03     10.3740E-03     111.986E-03     452.325E-03    -225.890E-03    -226.434E-03    -225.399E-03     451.833E-03    -226.434E-03     36.3664E-03     468.197E-03     100.777E+06     60.2322E+06     55.1782E+06    -42.9421E+06    -41.9299E+06     57.9122E+06     56.4860E+06     10.0523E+06
            1460     112.598E-03     11.1726E-03     112.042E-03     452.633E-03    -226.141E-03    -226.492E-03    -225.434E-03     451.926E-03    -226.492E-03     43.5914E-03     471.156E-03     102.643E+06     72.0886E+06     61.8251E+06    -35.0824E+06    -34.4208E+06     61.1636E+06     72.0886E+06     7.94758E+06
            1461     112.750E-03     11.9713E-03     112.112E-03     452.975E-03    -226.374E-03    -226.601E-03    -225.475E-03     452.051E-03    -226.575E-03     50.0409E-03     473.693E-03     108.104E+06     90.7263E+06     66.7276E+06    -27.2475E+06    -26.8405E+06     66.3206E+06     90.7263E+06     6.08709E+06
            1462     112.913E-03     12.7706E-03     112.188E-03     453.660E-03    -226.601E-03    -227.059E-03    -225.566E-03     452.240E-03    -226.675E-03     61.4525E-03     479.817E-03     123.142E+06     116.815E+06     86.0022E+06    -18.7846E+06    -18.5993E+06     85.8169E+06     116.815E+06     4.14628E+06
            1463     113.110E-03     13.5701E-03     112.293E-03     453.850E-03    -226.705E-03    -227.144E-03    -225.436E-03     452.221E-03    -226.786E-03     66.3931E-03     479.954E-03     148.082E+06     152.909E+06     117.701E+06    -9.59935E+06    -9.55245E+06     117.654E+06     152.909E+06     2.06752E+06
            1464     113.374E-03     797.968E-06     113.371E-03     452.144E-03    -225.872E-03    -226.273E-03    -225.997E-03     452.144E-03    -226.148E-03    -257.699E-06     452.333E-03     143.329E+06    -122.729E+06    -126.047E+06    -267.679E+06    -125.389E+06    -267.655E+06    -123.411E+06     890.211E+03
            1465     113.381E-03     1.59624E-03     113.370E-03     451.903E-03    -225.843E-03    -226.060E-03    -225.843E-03     451.903E-03    -226.060E-03    -842.390E-06     452.473E-03     139.437E+06    -116.300E+06    -123.318E+06    -259.072E+06    -123.356E+06    -259.034E+06    -116.300E+06     2.04284E+06
            1466     113.393E-03     2.39419E-03     113.368E-03     451.948E-03    -225.899E-03    -226.049E-03    -225.899E-03     451.947E-03    -226.049E-03    -654.494E-06     453.142E-03     133.463E+06    -104.123E+06    -119.218E+06    -244.411E+06    -119.298E+06    -244.331E+06    -104.123E+06     3.09780E+06
            1467     113.413E-03     3.19214E-03     113.368E-03     452.072E-03    -225.968E-03    -226.104E-03    -225.980E-03     452.072E-03    -226.092E-03     403.699E-06     454.116E-03     125.324E+06    -89.2459E+06    -113.669E+06    -224.890E+06    -113.789E+06    -224.770E+06    -89.2459E+06     3.61455E+06
            1468     113.439E-03     3.98980E-03     113.369E-03     451.968E-03    -225.817E-03    -226.151E-03    -225.827E-03     451.966E-03    -226.139E-03     2.10694E-03     455.040E-03     117.059E+06    -72.5501E+06    -107.103E+06    -202.835E+06    -107.302E+06    -202.636E+06    -72.5501E+06     4.28713E+06
            1469     113.474E-03     4.78832E-03     113.373E-03     451.836E-03    -225.670E-03    -226.165E-03    -225.662E-03     451.827E-03    -226.165E-03     4.55923E-03     456.087E-03     108.333E+06    -54.0306E+06    -99.4556E+06    -177.448E+06    -99.7980E+06    -177.106E+06    -54.0306E+06     5.03662E+06
            1470     113.518E-03     5.58639E-03     113.381E-03     451.827E-03    -225.647E-03    -226.180E-03    -225.624E-03     451.804E-03    -226.180E-03     7.70735E-03     457.386E-03     98.9038E+06    -35.5383E+06    -91.2033E+06    -149.400E+06    -91.8361E+06    -148.768E+06    -35.5383E+06     5.83436E+06
            1471     113.572E-03     6.38461E-03     113.393E-03     451.879E-03    -225.684E-03    -226.195E-03    -225.635E-03     451.830E-03    -226.195E-03     11.3412E-03     458.861E-03     89.3338E+06    -17.4349E+06    -82.1945E+06    -118.805E+06    -83.7401E+06    -117.259E+06    -17.4349E+06     6.72576E+06
            1472     113.639E-03     7.18277E-03     113.412E-03     451.950E-03    -225.743E-03    -226.207E-03    -225.654E-03     451.861E-03    -226.207E-03     15.3776E-03     460.461E-03     81.0208E+06    -92.5337E+03    -67.9578E+06    -89.7395E+06    -75.5388E+06    -82.1585E+06    -92.5337E+03     7.76410E+06
            1473     113.717E-03     7.98088E-03     113.436E-03     451.904E-03    -225.698E-03    -226.206E-03    -225.549E-03     451.755E-03    -226.206E-03     19.9542E-03     462.041E-03     77.4456E+06     16.5404E+06    -36.7904E+06    -70.5470E+06    -66.8898E+06    -40.4476E+06     16.5404E+06     8.89234E+06
            1474     113.808E-03     8.77941E-03     113.469E-03     451.770E-03    -225.590E-03    -226.181E-03    -225.357E-03     451.538E-03    -226.181E-03     24.9393E-03     463.670E-03     86.5847E+06     33.9331E+06     11.6445E+06    -59.6711E+06     -57.975E+06     11.1372E+06     32.7443E+06     10.6673E+06
            1475     113.911E-03     9.57777E-03     113.508E-03     451.672E-03    -225.520E-03    -226.151E-03    -225.176E-03     451.327E-03    -226.151E-03     30.4106E-03     465.450E-03     99.6460E+06     52.5682E+06     44.2634E+06    -50.9213E+06    -49.4817E+06     49.9616E+06     45.4305E+06     12.0305E+06
            1476     114.030E-03     10.3768E-03     113.557E-03     451.871E-03    -225.709E-03    -226.163E-03    -225.219E-03     451.382E-03    -226.163E-03     36.2822E-03     467.794E-03     102.847E+06     62.8566E+06     55.9447E+06    -43.1733E+06    -42.0693E+06     61.4841E+06     56.2132E+06     10.6739E+06
            1477     114.163E-03     11.1755E-03     113.614E-03     452.344E-03    -226.065E-03    -226.279E-03    -225.417E-03     451.649E-03    -226.233E-03     43.2236E-03     470.931E-03     103.848E+06     71.9639E+06     63.6866E+06    -35.6271E+06    -34.9527E+06     63.7066E+06     71.2694E+06     8.13730E+06
            1478     114.313E-03     11.9746E-03     113.684E-03     452.766E-03    -226.305E-03    -226.462E-03    -225.513E-03     451.851E-03    -226.339E-03     49.7572E-03     473.591E-03     109.720E+06     90.8939E+06     70.2064E+06    -27.5876E+06    -27.2014E+06     69.8202E+06     90.8939E+06     6.02550E+06
            1479     114.476E-03     12.7730E-03     113.761E-03     453.514E-03    -226.463E-03    -227.051E-03    -225.644E-03     452.107E-03    -226.463E-03     61.1968E-03     479.852E-03     125.170E+06     117.860E+06     89.6038E+06    -19.0112E+06    -18.8516E+06     89.4442E+06     117.860E+06     3.91125E+06
            1480     114.670E-03     13.5719E-03     113.864E-03     453.624E-03    -226.519E-03    -227.105E-03    -225.411E-03     452.005E-03    -226.594E-03     66.2218E-03     479.926E-03     150.291E+06     154.514E+06     121.048E+06    -9.68450E+06    -9.64473E+06     121.008E+06     154.514E+06     2.02671E+06
            1481     114.944E-03     798.161E-06     114.941E-03     451.255E-03    -225.456E-03    -225.799E-03    -225.581E-03     451.255E-03    -225.674E-03    -698.754E-06     451.446E-03     144.634E+06    -126.438E+06    -129.701E+06    -272.664E+06    -129.002E+06    -272.633E+06    -127.168E+06     1.91817E+06
            1482     114.951E-03     1.59641E-03     114.940E-03     451.194E-03    -225.542E-03    -225.651E-03    -225.542E-03     451.193E-03    -225.651E-03    -865.376E-06     451.772E-03     140.308E+06    -118.112E+06    -126.430E+06    -262.362E+06    -126.473E+06    -262.320E+06    -118.112E+06     2.16535E+06
            1483     114.963E-03     2.39486E-03     114.938E-03     451.272E-03    -225.592E-03    -225.681E-03    -225.592E-03     451.272E-03    -225.681E-03    -356.359E-06     452.476E-03     134.761E+06    -105.425E+06    -121.280E+06    -247.348E+06    -121.345E+06    -247.283E+06    -105.425E+06     2.68758E+06
            1484     114.983E-03     3.19304E-03     114.938E-03     451.173E-03    -225.454E-03    -225.719E-03    -225.453E-03     451.173E-03    -225.719E-03     605.267E-06     453.217E-03     127.418E+06    -89.7345E+06    -115.081E+06    -227.807E+06    -115.190E+06    -227.697E+06    -89.7345E+06     3.44537E+06
            1485     115.008E-03     3.99191E-03     114.939E-03     451.006E-03    -225.270E-03    -225.736E-03    -225.268E-03     451.004E-03    -225.736E-03     2.21093E-03     454.078E-03     119.429E+06    -72.4576E+06    -108.265E+06    -205.547E+06    -108.445E+06    -205.367E+06    -72.4576E+06     4.13934E+06
            1486     115.043E-03     4.79018E-03     114.943E-03     451.021E-03    -225.272E-03    -225.748E-03    -225.264E-03     451.012E-03    -225.748E-03     4.60683E-03     455.279E-03     110.923E+06    -54.2271E+06    -100.551E+06    -180.590E+06    -100.863E+06    -180.279E+06    -54.2271E+06     4.86971E+06
            1487     115.086E-03     5.58892E-03     114.951E-03     451.136E-03    -225.361E-03    -225.775E-03    -225.339E-03     451.114E-03    -225.775E-03     7.56518E-03     456.707E-03     101.747E+06    -35.6090E+06    -92.2989E+06    -152.741E+06    -92.9262E+06    -152.114E+06    -35.6090E+06     5.89665E+06
            1488     115.141E-03     6.38731E-03     114.964E-03     451.296E-03    -225.484E-03    -225.812E-03    -225.435E-03     451.248E-03    -225.812E-03     11.2777E-03     458.292E-03     92.2064E+06    -17.1538E+06    -83.1930E+06    -121.989E+06    -84.6577E+06    -120.525E+06    -17.1538E+06     6.86221E+06
            1489     115.207E-03     7.18544E-03     114.983E-03     451.370E-03    -225.524E-03    -225.847E-03    -225.433E-03     451.280E-03    -225.847E-03     15.4735E-03     459.899E-03     83.6894E+06     550.494E+03    -69.8935E+06    -91.8028E+06    -76.0185E+06    -85.6778E+06     550.494E+03     7.55582E+06
            1490     115.284E-03     7.98388E-03     115.007E-03     451.381E-03    -225.518E-03    -225.863E-03    -225.366E-03     451.229E-03    -225.863E-03     20.1372E-03     461.538E-03     79.2268E+06     17.2369E+06    -40.1799E+06    -71.4787E+06    -67.4441E+06    -44.2146E+06     17.2369E+06     8.57148E+06
            1491     115.374E-03     8.78229E-03     115.040E-03     451.493E-03    -225.620E-03    -225.872E-03    -225.393E-03     451.257E-03    -225.863E-03     25.1669E-03     463.434E-03     86.0617E+06     32.8304E+06     6.87626E+06    -61.0660E+06    -59.3848E+06     5.19506E+06     32.8304E+06     10.1870E+06
            1492     115.478E-03     9.58079E-03     115.080E-03     451.602E-03    -225.673E-03    -225.929E-03    -225.392E-03     451.257E-03    -225.864E-03     30.4365E-03     465.463E-03     99.8296E+06     52.4011E+06     41.2183E+06    -52.5001E+06    -51.1742E+06     47.2360E+06     45.0576E+06     11.4288E+06
            1493     115.595E-03     10.3792E-03     115.128E-03     451.770E-03    -225.742E-03    -226.028E-03    -225.375E-03     451.278E-03    -225.903E-03     36.3618E-03     467.784E-03     105.191E+06     65.8901E+06     55.8968E+06    -43.8534E+06    -42.7769E+06     64.8136E+06     55.8968E+06     10.7553E+06
            1494     115.728E-03     11.1780E-03     115.186E-03     452.226E-03    -225.950E-03    -226.276E-03    -225.536E-03     451.535E-03    -225.999E-03     43.1308E-03     470.898E-03     105.543E+06     73.6573E+06     65.7418E+06    -35.5757E+06    -34.9058E+06     67.7217E+06     71.0075E+06     8.21413E+06
            1495     115.876E-03     11.9764E-03     115.255E-03     452.557E-03    -226.129E-03    -226.428E-03    -225.525E-03     451.654E-03    -226.129E-03     49.4130E-03     473.522E-03     110.846E+06     90.9873E+06     73.7388E+06    -27.3301E+06    -26.9966E+06     73.4054E+06     90.9873E+06     5.69331E+06
            1496     116.038E-03     12.7758E-03     115.333E-03     453.102E-03    -226.266E-03    -226.836E-03    -225.430E-03     451.696E-03    -226.266E-03     61.1108E-03     479.665E-03     126.557E+06     118.636E+06     92.6063E+06    -18.9088E+06    -18.7573E+06     92.4549E+06     118.636E+06     3.92875E+06
            1497     116.232E-03     13.5752E-03     115.436E-03     453.343E-03    -226.380E-03    -226.964E-03    -225.313E-03     451.718E-03    -226.405E-03     66.3057E-03     479.896E-03     152.557E+06     156.020E+06     124.317E+06    -9.89272E+06    -9.84543E+06     124.270E+06     156.020E+06     2.21672E+06
            1498     116.513E-03     798.759E-06     116.510E-03     450.180E-03    -224.922E-03    -225.258E-03    -225.091E-03     450.179E-03    -225.088E-03    -214.707E-06     450.368E-03     146.560E+06    -128.835E+06    -130.845E+06    -276.384E+06    -130.818E+06    -276.362E+06    -128.883E+06     243.962E+03
            1499     116.519E-03     1.59752E-03     116.508E-03     450.388E-03    -225.126E-03    -225.263E-03    -225.235E-03     450.388E-03    -225.153E-03    -401.134E-06     450.968E-03     142.078E+06    -120.338E+06    -126.845E+06    -265.508E+06    -126.878E+06    -265.476E+06    -120.338E+06     1.61826E+06
            1500     116.532E-03     2.39594E-03     116.507E-03     450.413E-03    -225.135E-03    -225.278E-03    -225.180E-03     450.413E-03    -225.233E-03    -8.00602E-06     451.624E-03     135.718E+06    -107.801E+06    -122.904E+06    -250.365E+06    -122.966E+06    -250.303E+06    -107.801E+06     2.64255E+06
            1501     116.550E-03     3.19473E-03     116.507E-03     450.326E-03    -225.042E-03    -225.284E-03    -225.042E-03     450.326E-03    -225.284E-03     682.613E-06     452.373E-03     128.789E+06    -91.6535E+06    -117.252E+06    -231.188E+06    -117.364E+06    -231.077E+06    -91.6535E+06     3.51223E+06
            1502     116.576E-03     3.99332E-03     116.507E-03     450.323E-03    -224.998E-03    -225.325E-03    -224.996E-03     450.321E-03    -225.325E-03     2.11872E-03     453.403E-03     121.321E+06    -72.9836E+06    -110.161E+06    -208.371E+06    -110.351E+06    -208.180E+06    -72.9836E+06     4.25209E+06
            1503     116.610E-03     4.79238E-03     116.512E-03     450.399E-03    -225.031E-03    -225.368E-03    -225.023E-03     450.391E-03    -225.368E-03     4.40876E-03     454.676E-03     113.317E+06    -54.1942E+06    -102.515E+06    -183.448E+06    -102.826E+06    -183.137E+06    -54.1942E+06     4.92820E+06
            1504     116.654E-03     5.59073E-03     116.520E-03     450.537E-03    -225.119E-03    -225.418E-03    -225.097E-03     450.516E-03    -225.418E-03     7.45357E-03     456.136E-03     104.659E+06    -35.1573E+06    -93.7314E+06    -155.687E+06    -94.2478E+06    -155.170E+06    -35.1573E+06     5.47610E+06
            1505     116.708E-03     6.38928E-03     116.533E-03     450.584E-03    -225.120E-03    -225.463E-03    -225.073E-03     450.536E-03    -225.463E-03     11.1656E-03     457.610E-03     94.9811E+06    -16.6180E+06    -84.0036E+06    -124.787E+06    -85.1397E+06    -123.650E+06    -16.6180E+06     6.21880E+06
            1506     116.774E-03     7.18813E-03     116.552E-03     450.666E-03    -225.169E-03    -225.497E-03    -225.079E-03     450.576E-03    -225.497E-03     15.4024E-03     459.225E-03     86.1522E+06     1.11696E+06    -71.2108E+06    -93.9533E+06    -76.1934E+06    -88.9708E+06     1.11696E+06     7.24814E+06
            1507     116.851E-03     7.98678E-03     116.577E-03     450.948E-03    -225.372E-03    -225.576E-03    -225.270E-03     450.797E-03    -225.527E-03     20.0644E-03     461.150E-03     80.8703E+06     17.7307E+06    -43.8264E+06    -72.5522E+06    -67.7092E+06    -48.6694E+06     17.7307E+06     8.66899E+06
            1508     116.941E-03     8.78528E-03     116.610E-03     451.193E-03    -225.522E-03    -225.671E-03    -225.402E-03     450.959E-03    -225.556E-03     25.0663E-03     463.163E-03     85.8259E+06     33.7285E+06     1.98214E+06    -61.1598E+06    -59.2428E+06      65.202E+03     33.7285E+06     10.3863E+06
            1509     117.044E-03     9.58356E-03     116.651E-03     451.425E-03    -225.588E-03    -225.837E-03    -225.493E-03     451.081E-03    -225.588E-03     30.3931E-03     465.323E-03     99.5469E+06     53.1392E+06     39.9821E+06    -52.2909E+06    -50.9545E+06     44.9695E+06     46.8155E+06     11.2593E+06
            1510     117.160E-03     10.3820E-03     116.699E-03     451.721E-03    -225.650E-03    -226.072E-03    -225.577E-03     451.226E-03    -225.650E-03     36.4735E-03     467.803E-03     107.122E+06     68.2547E+06     56.8579E+06    -44.0851E+06    -43.1141E+06     67.2837E+06     56.8579E+06     10.3356E+06
            1511     117.292E-03     11.1803E-03     116.757E-03     452.109E-03    -225.766E-03    -226.343E-03    -225.635E-03     451.401E-03    -225.766E-03     43.6311E-03     470.882E-03     108.038E+06     75.8369E+06     67.9092E+06    -35.9100E+06    -35.2991E+06     72.3713E+06     70.7639E+06     8.03713E+06
            1512     117.440E-03     11.9790E-03     116.827E-03     452.441E-03    -225.918E-03    -226.523E-03    -225.610E-03     451.529E-03    -225.918E-03     49.6946E-03     473.549E-03     112.385E+06     90.2841E+06     76.5874E+06    -28.1147E+06    -27.7967E+06     76.2695E+06     90.2841E+06     5.67898E+06
            1513     117.599E-03     12.7777E-03     116.903E-03     452.946E-03    -226.080E-03    -226.866E-03    -225.472E-03     451.552E-03    -226.080E-03     60.8525E-03     479.705E-03     128.422E+06     118.771E+06     95.0151E+06    -19.8631E+06    -19.7151E+06     94.8671E+06     118.771E+06     3.94262E+06
            1514     117.793E-03     13.5775E-03     117.008E-03     452.983E-03    -226.148E-03    -226.835E-03    -225.144E-03     451.379E-03    -226.235E-03     65.8390E-03     479.743E-03     155.359E+06     157.767E+06     128.094E+06    -10.2804E+06    -10.2354E+06     128.049E+06     157.767E+06     2.09269E+06
            1515     118.079E-03     799.430E-06     118.076E-03     449.192E-03    -224.459E-03    -224.733E-03    -224.733E-03     449.192E-03    -224.459E-03    -404.358E-06     449.379E-03     148.886E+06    -128.519E+06    -131.866E+06    -279.038E+06    -131.305E+06    -278.992E+06    -129.126E+06     988.770E+03
            1516     118.087E-03     1.59822E-03     118.076E-03     449.485E-03    -224.672E-03    -224.813E-03    -224.813E-03     449.485E-03    -224.672E-03    -462.057E-06     450.061E-03     144.135E+06    -122.287E+06    -129.396E+06    -269.807E+06    -129.434E+06    -269.769E+06    -122.287E+06     1.88484E+06
            1517     118.099E-03     2.39716E-03     118.075E-03     449.569E-03    -224.721E-03    -224.848E-03    -224.790E-03     449.569E-03    -224.779E-03    -298.938E-06     450.779E-03     137.432E+06    -109.653E+06    -125.115E+06    -254.067E+06    -125.198E+06    -253.984E+06    -109.653E+06     3.20363E+06
            1518     118.117E-03     3.19615E-03     118.074E-03     449.595E-03    -224.737E-03    -224.858E-03    -224.737E-03     449.595E-03    -224.858E-03     520.282E-06     451.657E-03     130.013E+06    -92.9605E+06    -119.422E+06    -234.047E+06    -119.552E+06    -233.917E+06    -92.9605E+06     3.82312E+06
            1519     118.143E-03     3.99504E-03     118.076E-03     449.754E-03    -224.814E-03    -224.940E-03    -224.814E-03     449.752E-03    -224.937E-03     2.18331E-03     452.853E-03     122.685E+06    -73.9146E+06    -112.157E+06    -210.978E+06    -112.341E+06    -210.794E+06    -73.9146E+06     4.21106E+06
            1520     118.177E-03     4.79352E-03     118.080E-03     449.859E-03    -224.836E-03    -225.023E-03    -224.830E-03     449.851E-03    -225.021E-03     4.50626E-03     454.158E-03     115.355E+06    -53.6717E+06    -103.644E+06    -185.383E+06    -103.899E+06    -185.128E+06    -53.6717E+06     4.51161E+06
            1521     118.221E-03     5.59273E-03     118.088E-03     449.888E-03    -224.801E-03    -225.087E-03    -224.778E-03     449.865E-03    -225.087E-03     7.60044E-03     455.518E-03     107.141E+06    -34.5818E+06    -94.7706E+06    -157.996E+06    -95.1646E+06    -157.602E+06    -34.5818E+06     4.85746E+06
            1522     118.275E-03     6.39157E-03     118.102E-03     449.994E-03    -224.849E-03    -225.145E-03    -224.809E-03     449.946E-03    -225.137E-03     11.1625E-03     457.062E-03     97.4107E+06    -16.5888E+06    -85.5783E+06    -127.558E+06    -86.4106E+06    -126.726E+06    -16.5888E+06     5.49419E+06
            1523     118.339E-03     7.19054E-03     118.121E-03     450.256E-03    -225.027E-03    -225.229E-03    -224.981E-03     450.169E-03    -225.188E-03     15.2363E-03     458.861E-03     88.5134E+06     1.13805E+06    -73.5602E+06    -96.2785E+06    -77.2830E+06    -92.5557E+06     1.13805E+06     6.51950E+06
            1524     118.417E-03     7.98919E-03     118.147E-03     450.560E-03    -225.208E-03    -225.352E-03    -225.172E-03     450.414E-03    -225.242E-03     19.7686E-03     460.813E-03     82.3966E+06     18.1561E+06    -48.0417E+06    -73.2059E+06    -67.9676E+06    -53.2800E+06     18.1561E+06     7.86862E+06
            1525     118.506E-03     8.78753E-03     118.180E-03     450.843E-03    -225.292E-03    -225.551E-03    -225.321E-03     450.612E-03    -225.292E-03     24.8155E-03     462.877E-03     85.3238E+06     34.3607E+06    -3.97255E+06    -60.9797E+06    -59.0077E+06    -5.94448E+06     34.3607E+06     10.0671E+06
            1526     118.609E-03     9.58619E-03     118.221E-03     451.140E-03    -225.339E-03    -225.801E-03    -225.462E-03     450.801E-03    -225.339E-03     30.1770E-03     465.095E-03     99.5027E+06     54.2644E+06     37.8134E+06    -52.2746E+06    -50.7378E+06     42.4797E+06     48.0613E+06     11.8956E+06
            1527     118.725E-03     10.3845E-03     118.270E-03     451.447E-03    -225.412E-03    -226.035E-03    -225.548E-03     450.960E-03    -225.412E-03     36.1567E-03     467.571E-03     109.769E+06     71.5459E+06     58.3901E+06    -44.1967E+06    -43.1604E+06     70.5096E+06     58.3901E+06     10.7799E+06
            1528     118.856E-03     11.1831E-03     118.329E-03     451.820E-03    -225.537E-03    -226.284E-03    -225.582E-03     451.118E-03    -225.537E-03     43.4493E-03     470.652E-03     110.705E+06     77.7962E+06     69.7632E+06    -36.5847E+06    -35.9747E+06     76.1058E+06     70.8436E+06     8.24907E+06
            1529     119.003E-03     11.9818E-03     118.398E-03     452.259E-03    -225.703E-03    -226.556E-03    -225.644E-03     451.347E-03    -225.703E-03     49.6697E-03     473.419E-03     114.291E+06     90.0132E+06     79.8389E+06    -28.8164E+06    -28.4726E+06     79.4952E+06     90.0132E+06     5.97751E+06
            1530     119.162E-03     12.7804E-03     118.475E-03     453.017E-03    -225.894E-03    -227.123E-03    -225.725E-03     451.618E-03    -225.894E-03     60.9671E-03     479.890E-03     130.384E+06     119.546E+06     98.4387E+06    -20.0915E+06    -19.9595E+06     98.3067E+06     119.546E+06     3.65903E+06
            1531     119.353E-03     13.5790E-03     118.578E-03     452.797E-03    -225.943E-03    -226.855E-03    -225.118E-03     451.191E-03    -226.073E-03     65.8727E-03     479.750E-03     157.517E+06     159.460E+06     131.276E+06    -10.2404E+06    -10.2124E+06     131.248E+06     159.460E+06     1.70087E+06
            1532     119.644E-03     799.166E-06     119.642E-03     448.666E-03    -224.195E-03    -224.470E-03    -224.450E-03     448.665E-03    -224.216E-03    -466.678E-06     448.857E-03     151.623E+06    -132.103E+06    -135.100E+06    -285.186E+06    -134.555E+06    -285.124E+06    -132.710E+06     2.19013E+06
            1533     119.652E-03     1.59879E-03     119.641E-03     448.716E-03    -224.310E-03    -224.405E-03    -224.341E-03     448.715E-03    -224.374E-03    -597.282E-06     449.295E-03     145.751E+06    -123.498E+06    -131.975E+06    -273.247E+06    -132.032E+06    -273.190E+06    -123.498E+06     2.79699E+06
            1534     119.665E-03     2.39799E-03     119.641E-03     448.817E-03    -224.359E-03    -224.457E-03    -224.383E-03     448.816E-03    -224.433E-03    -524.697E-06     450.030E-03     139.394E+06    -110.262E+06    -127.197E+06    -257.281E+06    -127.267E+06    -257.212E+06    -110.262E+06     2.93985E+06
            1535     119.683E-03     3.19716E-03     119.640E-03     448.924E-03    -224.417E-03    -224.507E-03    -224.417E-03     448.924E-03    -224.507E-03     396.846E-06     450.999E-03     131.797E+06    -93.4444E+06    -120.605E+06    -236.578E+06    -120.720E+06    -236.463E+06    -93.4444E+06     3.58889E+06
            1536     119.709E-03     3.99644E-03     119.642E-03     449.050E-03    -224.459E-03    -224.591E-03    -224.459E-03     449.048E-03    -224.589E-03     2.15999E-03     452.168E-03     124.000E+06    -74.3296E+06    -113.020E+06    -212.893E+06    -113.187E+06    -212.726E+06    -74.3296E+06     4.04765E+06
            1537     119.743E-03     4.79570E-03     119.647E-03     449.249E-03    -224.559E-03    -224.691E-03    -224.563E-03     449.241E-03    -224.678E-03     4.61398E-03     453.565E-03     116.627E+06    -54.4395E+06    -104.742E+06    -187.565E+06    -104.993E+06    -187.314E+06    -54.4395E+06     4.47739E+06
            1538     119.786E-03     5.59439E-03     119.655E-03     449.442E-03    -224.621E-03    -224.821E-03    -224.652E-03     449.421E-03    -224.769E-03     7.52741E-03     455.099E-03     109.038E+06    -34.7557E+06    -96.2875E+06    -160.327E+06    -96.6975E+06    -159.917E+06    -34.7557E+06     4.98947E+06
            1539     119.840E-03     6.39371E-03     119.669E-03     449.676E-03    -224.753E-03    -224.923E-03    -224.777E-03     449.630E-03    -224.853E-03     10.9426E-03     456.788E-03     99.8419E+06    -16.1042E+06    -87.2139E+06    -129.793E+06    -87.9556E+06    -129.051E+06    -16.1042E+06     5.31761E+06
            1540     119.905E-03     7.19217E-03     119.689E-03     449.959E-03    -224.933E-03    -225.026E-03    -224.939E-03     449.872E-03    -224.933E-03     15.1302E-03     458.619E-03     90.9767E+06     1.31014E+06    -76.0790E+06    -98.4839E+06    -78.9756E+06    -95.5873E+06     1.31014E+06     5.91318E+06
            1541     119.982E-03     7.99079E-03     119.716E-03     450.231E-03    -225.006E-03    -225.225E-03    -225.078E-03     450.085E-03    -225.006E-03     19.7598E-03     460.536E-03     84.5970E+06     17.6544E+06    -52.5865E+06    -75.5332E+06    -70.2439E+06    -57.8757E+06     17.6544E+06     7.21356E+06
            1542     120.072E-03     8.78981E-03     119.750E-03     450.570E-03    -225.073E-03    -225.497E-03    -225.269E-03     450.342E-03    -225.073E-03     24.7014E-03     462.660E-03     85.7618E+06     33.1305E+06    -11.5728E+06    -63.6090E+06    -61.6143E+06    -13.5675E+06     33.1305E+06     9.71816E+06
            1543     120.175E-03     9.58803E-03     119.792E-03     450.826E-03    -225.127E-03    -225.698E-03    -225.364E-03     450.492E-03    -225.127E-03     29.9428E-03     464.860E-03     100.347E+06     54.7949E+06     32.7518E+06    -54.3876E+06    -52.8476E+06     39.0730E+06     46.9337E+06     11.6412E+06
            1544     120.290E-03     10.3866E-03     119.840E-03     451.075E-03    -225.197E-03    -225.878E-03    -225.399E-03     450.597E-03    -225.197E-03     35.8485E-03     467.296E-03     112.551E+06     74.7628E+06     57.5105E+06    -45.3922E+06    -44.3962E+06     73.7669E+06     57.5105E+06     10.7992E+06
            1545     120.420E-03     11.1852E-03     119.899E-03     451.486E-03    -225.328E-03    -226.158E-03    -225.465E-03     450.793E-03    -225.328E-03     43.1325E-03     470.421E-03     112.783E+06     80.5819E+06     70.0051E+06    -36.8732E+06    -36.2488E+06     79.7130E+06     70.2496E+06     8.47542E+06
            1546     120.566E-03     11.9838E-03     119.969E-03     451.925E-03    -225.505E-03    -226.419E-03    -225.508E-03     451.013E-03    -225.505E-03     49.6345E-03     473.197E-03     116.202E+06     91.4515E+06     83.3352E+06    -28.4884E+06    -28.1688E+06     83.9567E+06     90.5105E+06     5.80587E+06
            1547     120.725E-03     12.7828E-03     120.046E-03     452.637E-03    -225.704E-03    -226.933E-03    -225.535E-03     451.239E-03    -225.704E-03     60.9531E-03     479.695E-03     132.491E+06     120.635E+06     102.308E+06    -20.0335E+06    -19.9294E+06     102.204E+06     120.635E+06     3.30953E+06
            1548     120.915E-03     13.5823E-03     120.149E-03     452.646E-03    -225.854E-03    -226.793E-03    -225.156E-03     451.053E-03    -225.897E-03     65.5984E-03     479.818E-03     159.596E+06     160.874E+06     133.933E+06    -10.4679E+06    -10.4464E+06     133.912E+06     160.874E+06     1.53681E+06
            1549     121.209E-03     799.584E-06     121.206E-03     448.220E-03    -223.993E-03    -224.227E-03    -224.207E-03     448.220E-03    -224.013E-03    -348.789E-06     448.413E-03     154.304E+06    -134.951E+06    -136.987E+06    -290.255E+06    -137.025E+06    -290.217E+06    -134.951E+06     1.52318E+06
            1550     121.217E-03     1.59887E-03     121.207E-03     448.153E-03    -224.021E-03    -224.132E-03    -224.025E-03     448.153E-03    -224.128E-03    -506.573E-06     448.737E-03     146.944E+06    -126.000E+06    -133.518E+06    -276.501E+06    -133.565E+06    -276.454E+06    -126.000E+06     2.43406E+06
            1551     121.229E-03     2.39864E-03     121.205E-03     448.158E-03    -224.003E-03    -224.155E-03    -224.003E-03     448.158E-03    -224.155E-03    -476.104E-06     449.381E-03     140.647E+06    -111.555E+06    -128.531E+06    -259.827E+06    -128.585E+06    -259.772E+06    -111.555E+06     2.65704E+06
            1552     121.248E-03     3.19821E-03     121.206E-03     448.350E-03    -224.131E-03    -224.219E-03    -224.133E-03     448.350E-03    -224.217E-03     458.006E-06     450.431E-03     133.830E+06    -94.3004E+06    -122.022E+06    -239.703E+06    -122.115E+06    -239.609E+06    -94.3004E+06     3.24578E+06
            1553     121.274E-03     3.99748E-03     121.208E-03     448.541E-03    -224.215E-03    -224.327E-03    -224.234E-03     448.540E-03    -224.305E-03     1.96967E-03     451.666E-03     125.660E+06    -75.3817E+06    -114.624E+06    -215.799E+06    -114.801E+06    -215.622E+06    -75.3817E+06     4.14130E+06
            1554     121.308E-03     4.79695E-03     121.213E-03     448.747E-03    -224.312E-03    -224.435E-03    -224.334E-03     448.740E-03    -224.406E-03     4.20329E-03     453.084E-03     118.000E+06     -55.239E+06    -106.559E+06    -189.977E+06    -106.845E+06    -189.691E+06     -55.239E+06     4.81710E+06
            1555     121.352E-03     5.59632E-03     121.223E-03     449.093E-03    -224.492E-03    -224.601E-03    -224.558E-03     449.073E-03    -224.515E-03     7.17518E-03     454.777E-03     110.492E+06     -34.874E+06    -97.4641E+06    -162.159E+06    -97.8676E+06    -161.755E+06     -34.874E+06     5.01481E+06
            1556     121.405E-03     6.39467E-03     121.237E-03     449.413E-03    -224.627E-03    -224.786E-03    -224.741E-03     449.368E-03    -224.627E-03     10.8710E-03     456.559E-03     102.228E+06    -15.4991E+06    -87.8256E+06    -132.016E+06    -88.5807E+06    -131.261E+06    -15.4991E+06     5.39829E+06
            1557     121.471E-03     7.19393E-03     121.257E-03     449.676E-03    -224.729E-03    -224.946E-03    -224.861E-03     449.591E-03    -224.729E-03     14.9929E-03     458.392E-03     94.0120E+06     2.18676E+06    -76.9191E+06    -101.354E+06    -79.6412E+06    -98.6316E+06     2.18676E+06     6.33793E+06
            1558     121.547E-03     7.99295E-03     121.284E-03     450.002E-03    -224.819E-03    -225.182E-03    -225.038E-03     449.857E-03    -224.819E-03     19.5842E-03     460.383E-03     87.4135E+06     18.3278E+06    -55.2933E+06    -77.8455E+06    -70.9093E+06    -62.2294E+06     18.3278E+06     7.67365E+06
            1559     121.637E-03     8.79099E-03     121.319E-03     450.253E-03    -224.895E-03    -225.358E-03    -225.130E-03     450.025E-03    -224.895E-03     24.6845E-03     462.419E-03     85.9214E+06     33.3468E+06    -17.1996E+06    -63.9876E+06    -61.8824E+06    -19.3048E+06     33.3468E+06     8.97611E+06
            1560     121.739E-03     9.58981E-03     121.361E-03     450.433E-03    -224.946E-03    -225.487E-03    -225.147E-03     450.094E-03    -224.946E-03     30.1667E-03     464.533E-03     98.8552E+06     54.2822E+06     29.8888E+06    -53.6501E+06    -52.4494E+06     35.4420E+06     47.5284E+06     9.95272E+06
            1561     121.854E-03     10.3885E-03     121.411E-03     450.801E-03    -225.009E-03    -225.793E-03    -225.308E-03     450.317E-03    -225.009E-03     36.0706E-03     467.104E-03     112.483E+06     76.0378E+06     57.8969E+06    -44.3338E+06    -43.4804E+06     75.1844E+06     57.8969E+06     10.0734E+06
            1562     121.983E-03     11.1872E-03     121.469E-03     451.246E-03    -225.138E-03    -226.108E-03    -225.419E-03     450.557E-03    -225.138E-03     43.0200E-03     470.291E-03     113.919E+06     84.2229E+06     69.3708E+06    -36.1694E+06    -35.5736E+06     83.6271E+06     69.3708E+06     8.37627E+06
            1563     122.129E-03     11.9863E-03     121.540E-03     451.564E-03    -225.323E-03    -226.241E-03    -225.334E-03     450.657E-03    -225.323E-03     49.5044E-03     473.004E-03     117.802E+06     93.4458E+06     85.0846E+06    -28.2867E+06    -27.9844E+06     88.2472E+06     89.9808E+06     5.80248E+06
            1564     122.287E-03     12.7851E-03     121.617E-03     452.170E-03    -225.528E-03    -226.642E-03    -225.262E-03     450.790E-03    -225.528E-03     60.5585E-03     479.456E-03     134.319E+06     121.306E+06     106.208E+06    -19.8701E+06    -19.7573E+06     106.095E+06     121.306E+06     3.52562E+06
            1565     122.475E-03     13.5846E-03     121.719E-03     452.446E-03    -225.729E-03    -226.717E-03    -225.145E-03     450.874E-03    -225.729E-03     65.1701E-03     479.844E-03     161.249E+06     161.861E+06     136.948E+06    -10.3782E+06    -10.3547E+06     136.925E+06     161.861E+06     1.47042E+06
            1566     122.773E-03     799.701E-06     122.771E-03     447.933E-03    -223.849E-03    -224.084E-03    -223.912E-03     447.933E-03    -224.021E-03    -688.667E-06     448.124E-03     156.253E+06    -135.938E+06    -138.582E+06    -293.490E+06    -138.182E+06    -293.469E+06    -136.359E+06     791.598E+03
            1567     122.781E-03     1.59957E-03     122.770E-03     447.754E-03    -223.785E-03    -223.969E-03    -223.789E-03     447.754E-03    -223.964E-03    -909.907E-06     448.340E-03     148.990E+06    -127.610E+06    -134.946E+06    -280.100E+06    -134.967E+06    -280.079E+06    -127.610E+06     1.63475E+06
            1568     122.793E-03     2.39922E-03     122.770E-03     447.732E-03    -223.768E-03    -223.964E-03    -223.768E-03     447.731E-03    -223.964E-03    -740.402E-06     448.959E-03     142.028E+06    -113.441E+06    -130.042E+06    -262.932E+06    -130.099E+06    -262.874E+06    -113.441E+06     2.68145E+06
            1569     122.812E-03     3.19895E-03     122.770E-03     447.913E-03    -223.892E-03    -224.021E-03    -223.894E-03     447.913E-03    -224.018E-03     237.245E-06     450.002E-03     135.620E+06    -95.2281E+06    -123.861E+06    -242.739E+06    -123.966E+06    -242.635E+06    -95.2281E+06     3.48305E+06
            1570     122.838E-03     3.99852E-03     122.773E-03     448.224E-03    -224.073E-03    -224.152E-03    -224.108E-03     448.223E-03    -224.114E-03     1.82187E-03     451.366E-03     128.009E+06    -75.4344E+06    -116.150E+06    -218.675E+06    -116.309E+06    -218.516E+06    -75.4344E+06     3.95397E+06
            1571     122.872E-03     4.79755E-03     122.779E-03     448.527E-03    -224.211E-03    -224.317E-03    -224.287E-03     448.520E-03    -224.233E-03     4.11585E-03     452.888E-03     120.267E+06    -54.7448E+06    -107.112E+06    -192.098E+06    -107.348E+06    -191.862E+06    -54.7448E+06     4.38019E+06
            1572     122.916E-03     5.59673E-03     122.789E-03     448.763E-03    -224.328E-03    -224.434E-03    -224.392E-03     448.743E-03    -224.351E-03     7.01012E-03     454.473E-03     112.113E+06    -34.7478E+06    -97.9200E+06    -163.905E+06    -98.2731E+06    -163.552E+06    -34.7478E+06     4.72068E+06
            1573     122.970E-03     6.39646E-03     122.804E-03     449.102E-03    -224.466E-03    -224.637E-03    -224.593E-03     449.059E-03    -224.466E-03     10.5976E-03     456.279E-03     104.402E+06    -15.4591E+06    -88.4043E+06    -134.679E+06    -89.1186E+06    -133.965E+06    -15.4591E+06     5.37645E+06
            1574     123.035E-03     7.19496E-03     122.825E-03     449.480E-03    -224.579E-03    -224.901E-03    -224.818E-03     449.397E-03    -224.579E-03     14.7799E-03     458.240E-03     96.7688E+06     2.71894E+06    -77.5251E+06    -104.317E+06    -79.7704E+06    -102.072E+06     2.71894E+06     6.40715E+06
            1575     123.112E-03     7.99336E-03     122.853E-03     449.677E-03    -224.675E-03    -225.002E-03    -224.858E-03     449.533E-03    -224.675E-03     19.5165E-03     460.121E-03     89.3555E+06     19.4571E+06    -57.4652E+06    -78.4049E+06    -70.1334E+06    -65.7366E+06     19.4571E+06     7.33829E+06
            1576     123.201E-03     8.79278E-03     122.887E-03     449.826E-03    -224.744E-03    -225.082E-03    -224.854E-03     449.597E-03    -224.744E-03     24.6896E-03     462.078E-03     86.3009E+06     34.8624E+06    -20.4542E+06    -62.6062E+06    -60.6597E+06    -22.4007E+06     34.8624E+06     7.93880E+06
            1577     123.303E-03     9.59168E-03     122.930E-03     450.074E-03    -224.791E-03    -225.284E-03    -224.945E-03     449.735E-03    -224.791E-03     30.1273E-03     464.271E-03     97.6793E+06     52.7102E+06     29.3385E+06    -52.9807E+06    -52.0112E+06     31.8547E+06     49.2244E+06     8.80198E+06
            1578     123.418E-03     10.3905E-03     122.980E-03     450.468E-03    -224.847E-03    -225.622E-03    -225.137E-03     449.983E-03    -224.847E-03     36.0719E-03     466.860E-03     112.836E+06     75.2261E+06     59.3609E+06    -44.4478E+06    -43.7080E+06     74.4862E+06     59.3609E+06     9.33419E+06
            1579     123.547E-03     11.1890E-03     123.039E-03     450.983E-03    -224.968E-03    -226.015E-03    -225.325E-03     450.293E-03    -224.968E-03     43.0256E-03     470.138E-03     116.232E+06     87.7031E+06     69.9381E+06    -36.2305E+06    -35.6961E+06     87.1687E+06     69.9381E+06     8.04668E+06
            1580     123.691E-03     11.9875E-03     123.109E-03     451.298E-03    -225.154E-03    -226.144E-03    -225.236E-03     450.390E-03    -225.154E-03     49.4975E-03     472.875E-03     119.216E+06     95.1500E+06     86.9335E+06    -27.9291E+06    -27.6292E+06     92.0191E+06     89.7644E+06     5.91152E+06
            1581     123.849E-03     12.7871E-03     123.187E-03     451.966E-03    -225.367E-03    -226.600E-03    -225.221E-03     450.588E-03    -225.367E-03     60.5343E-03     479.434E-03     135.162E+06     121.241E+06     109.929E+06    -19.1492E+06    -19.0202E+06     109.800E+06     121.241E+06     3.85006E+06
            1582     124.035E-03     13.5865E-03     123.289E-03     452.294E-03    -225.582E-03    -226.713E-03    -225.140E-03     450.722E-03    -225.582E-03     65.1670E-03     479.916E-03     162.294E+06     162.379E+06     140.167E+06    -9.84549E+06    -9.81393E+06     140.136E+06     162.379E+06     1.85181E+06
            1583     124.337E-03     799.362E-06     124.335E-03     447.748E-03    -223.744E-03    -224.005E-03    -223.744E-03     447.748E-03    -224.005E-03    -505.523E-06     447.941E-03     156.974E+06    -137.502E+06    -140.572E+06    -295.982E+06    -140.163E+06    -295.971E+06    -137.923E+06     233.378E+03
            1584     124.344E-03     1.59915E-03     124.334E-03     447.620E-03    -223.734E-03    -223.886E-03    -223.734E-03     447.620E-03    -223.886E-03    -933.305E-06     448.211E-03     150.913E+06    -128.436E+06    -136.824E+06    -283.322E+06    -136.838E+06    -283.307E+06    -128.436E+06     1.21492E+06
            1585     124.356E-03     2.39924E-03     124.333E-03     447.680E-03    -223.775E-03    -223.906E-03    -223.774E-03     447.680E-03    -223.906E-03    -894.774E-06     448.914E-03     144.633E+06    -114.145E+06    -131.741E+06    -266.689E+06    -131.791E+06    -266.640E+06    -114.145E+06     2.46759E+06
            1586     124.375E-03     3.19898E-03     124.334E-03     447.781E-03    -223.813E-03    -223.968E-03    -223.812E-03     447.780E-03    -223.968E-03    -140.713E-06     449.879E-03     137.724E+06    -95.6083E+06    -124.772E+06    -245.428E+06    -124.865E+06    -245.335E+06    -95.6083E+06     3.29532E+06
            1587     124.402E-03     3.99873E-03     124.337E-03     447.955E-03    -223.889E-03    -224.065E-03    -223.904E-03     447.953E-03    -224.049E-03     1.45703E-03     451.118E-03     129.959E+06    -75.0219E+06    -116.543E+06    -220.498E+06    -116.670E+06    -220.371E+06    -75.0219E+06     3.59772E+06
            1588     124.437E-03     4.79845E-03     124.344E-03     448.244E-03    -224.034E-03    -224.210E-03    -224.092E-03     448.237E-03    -224.146E-03     3.85556E-03     452.626E-03     122.191E+06    -54.7115E+06    -107.903E+06    -194.266E+06    -108.082E+06    -194.087E+06    -54.7115E+06     3.87766E+06
            1589     124.480E-03     5.59761E-03     124.354E-03     448.551E-03    -224.209E-03    -224.343E-03    -224.277E-03     448.532E-03    -224.255E-03     6.96479E-03     454.284E-03     114.354E+06    -34.4282E+06    -98.4788E+06    -166.182E+06    -98.8022E+06    -165.859E+06    -34.4282E+06     4.52308E+06
            1590     124.534E-03     6.39632E-03     124.370E-03     448.856E-03    -224.367E-03    -224.489E-03    -224.445E-03     448.812E-03    -224.367E-03     10.6746E-03     456.059E-03     106.795E+06    -15.0207E+06    -88.6720E+06    -137.158E+06    -89.2761E+06    -136.554E+06    -15.0207E+06     5.20265E+06
            1591     124.600E-03     7.19570E-03     124.392E-03     449.144E-03    -224.469E-03    -224.675E-03    -224.591E-03     449.060E-03    -224.469E-03     14.8911E-03     457.933E-03     98.6806E+06     3.08462E+06    -78.1283E+06    -106.233E+06    -79.6499E+06    -104.711E+06     3.08462E+06     5.55895E+06
            1592     124.676E-03     7.99507E-03     124.420E-03     449.401E-03    -224.559E-03    -224.842E-03    -224.700E-03     449.259E-03    -224.559E-03     19.4403E-03     459.877E-03     90.9068E+06     20.1713E+06    -59.7561E+06    -78.6744E+06    -69.9037E+06    -68.5269E+06     20.1713E+06     6.05339E+06
            1593     124.765E-03     8.79378E-03     124.455E-03     449.624E-03    -224.631E-03    -224.993E-03    -224.770E-03     449.401E-03    -224.631E-03     24.3918E-03     461.922E-03     87.5132E+06     36.0991E+06    -24.0051E+06    -62.2206E+06    -60.5119E+06    -25.7138E+06     36.0991E+06     7.12652E+06
            1594     124.867E-03     9.59268E-03     124.498E-03     449.782E-03    -224.682E-03    -225.100E-03    -224.769E-03     449.451E-03    -224.682E-03     29.7720E-03     464.069E-03     96.9086E+06     52.1771E+06     27.9595E+06    -52.2683E+06    -51.2999E+06     27.8960E+06     51.2721E+06     8.55781E+06
            1595     124.981E-03     10.3916E-03     124.549E-03     449.964E-03    -224.726E-03    -225.238E-03    -224.758E-03     449.484E-03    -224.726E-03     35.8562E-03     466.475E-03     112.564E+06     74.7893E+06     61.2340E+06    -43.6474E+06    -42.8978E+06     73.0845E+06     62.1892E+06     9.28909E+06
            1596     125.110E-03     11.1909E-03     124.609E-03     450.498E-03    -224.822E-03    -225.676E-03    -224.985E-03     449.807E-03    -224.822E-03     43.0400E-03     469.768E-03     118.503E+06     90.7849E+06     72.1438E+06    -35.8423E+06    -35.3066E+06     90.2492E+06     72.1438E+06     8.13401E+06
            1597     125.254E-03     11.9902E-03     124.679E-03     451.157E-03    -224.998E-03    -226.160E-03    -225.259E-03     450.256E-03    -224.998E-03     49.3142E-03     472.827E-03     121.452E+06     97.1859E+06     89.0345E+06    -28.0156E+06    -27.7325E+06     96.0118E+06     89.9255E+06     5.80022E+06
            1598     125.410E-03     12.7890E-03     124.756E-03     451.890E-03    -225.223E-03    -226.667E-03    -225.299E-03     450.522E-03    -225.223E-03     60.2796E-03     479.520E-03     136.697E+06     120.659E+06     112.430E+06    -19.8911E+06    -19.7671E+06     112.620E+06     120.345E+06     3.91866E+06
            1599     125.597E-03     13.5882E-03     124.860E-03     452.011E-03    -225.453E-03    -226.558E-03    -224.994E-03     450.447E-03    -225.453E-03     64.9661E-03     479.840E-03     164.388E+06     162.723E+06     143.400E+06    -10.4389E+06    -10.3946E+06     143.356E+06     162.723E+06     2.39151E+06
            1600     125.901E-03     800.155E-06     125.898E-03     447.432E-03    -223.499E-03    -223.933E-03    -223.844E-03     447.431E-03    -223.587E-03    -448.538E-06     447.627E-03     156.370E+06    -139.865E+06    -143.413E+06    -297.972E+06    -142.854E+06    -297.961E+06    -140.436E+06     808.423E+03
            1601     125.907E-03     1.59991E-03     125.897E-03     447.655E-03    -223.776E-03    -223.879E-03    -223.863E-03     447.655E-03    -223.792E-03    -823.042E-06     448.248E-03     151.685E+06    -130.223E+06    -139.654E+06    -286.351E+06    -139.670E+06    -286.334E+06    -130.223E+06     1.35658E+06
            1602     125.920E-03     2.39918E-03     125.897E-03     447.856E-03    -223.881E-03    -223.975E-03    -223.951E-03     447.856E-03    -223.904E-03    -716.841E-06     449.096E-03     146.116E+06    -114.984E+06    -133.969E+06    -269.582E+06    -133.996E+06    -269.555E+06    -114.984E+06     1.82408E+06
            1603     125.939E-03     3.19875E-03     125.898E-03     447.916E-03    -223.887E-03    -224.029E-03    -223.912E-03     447.916E-03    -224.004E-03    -135.519E-06     450.027E-03     139.078E+06    -96.4904E+06    -126.301E+06    -247.935E+06    -126.355E+06    -247.881E+06    -96.4904E+06     2.44265E+06
            1604     125.965E-03     3.99836E-03     125.902E-03     447.921E-03    -223.838E-03    -224.083E-03    -223.837E-03     447.920E-03    -224.083E-03     1.40709E-03     451.098E-03     131.126E+06    -75.9704E+06    -117.968E+06    -222.752E+06    -118.072E+06    -222.648E+06    -75.9704E+06     3.22929E+06
            1605     126.000E-03     4.79791E-03     125.908E-03     448.032E-03    -223.875E-03    -224.156E-03    -223.870E-03     448.026E-03    -224.156E-03     3.63514E-03     452.440E-03     123.991E+06    -54.5556E+06    -109.072E+06    -196.252E+06    -109.225E+06    -196.099E+06    -54.5556E+06     3.61021E+06
            1606     126.044E-03     5.59777E-03     125.920E-03     448.286E-03    -224.013E-03    -224.273E-03    -224.033E-03     448.268E-03    -224.235E-03     6.70355E-03     454.054E-03     116.928E+06    -33.7028E+06    -99.2695E+06    -168.444E+06    -99.5063E+06    -168.207E+06    -33.7028E+06     3.93164E+06
            1607     126.099E-03     6.39741E-03     125.936E-03     448.604E-03    -224.231E-03    -224.373E-03    -224.240E-03     448.561E-03    -224.321E-03     10.5022E-03     455.841E-03     108.968E+06    -14.0381E+06    -89.0109E+06    -138.689E+06    -89.4120E+06    -138.288E+06    -14.0381E+06     4.21613E+06
            1608     126.164E-03     7.19647E-03     125.958E-03     448.888E-03    -224.408E-03    -224.479E-03    -224.398E-03     448.807E-03    -224.408E-03     14.6064E-03     457.699E-03     100.696E+06     4.30770E+06    -78.5294E+06    -107.241E+06    -79.3789E+06    -106.391E+06     4.30770E+06     4.34253E+06
            1609     126.240E-03     7.99533E-03     125.987E-03     449.217E-03    -224.490E-03    -224.727E-03    -224.588E-03     449.078E-03    -224.490E-03     19.1900E-03     459.718E-03     92.8797E+06     21.3510E+06    -61.8914E+06    -78.8134E+06    -69.5049E+06    -71.1999E+06     21.3510E+06     4.85902E+06
            1610     126.329E-03     8.79431E-03     126.023E-03     449.464E-03    -224.562E-03    -224.903E-03    -224.682E-03     449.244E-03    -224.562E-03     24.2562E-03     461.800E-03     88.2908E+06     37.4136E+06    -28.0141E+06    -61.0539E+06    -59.6201E+06    -29.4479E+06     37.4136E+06     5.93846E+06
            1611     126.430E-03     9.59342E-03     126.066E-03     449.529E-03    -224.609E-03    -224.920E-03    -224.590E-03     449.199E-03    -224.609E-03     29.7051E-03     463.856E-03     95.1332E+06     52.3286E+06     23.1460E+06     -51.309E+06    -50.4035E+06     22.2405E+06     52.3286E+06     8.04881E+06
            1612     126.544E-03     10.3928E-03     126.117E-03     449.679E-03    -224.641E-03    -225.038E-03    -224.568E-03     449.208E-03    -224.641E-03     35.4943E-03     466.259E-03     111.491E+06     75.2878E+06     59.4864E+06    -43.0510E+06    -42.1676E+06     70.5862E+06     63.3046E+06     9.97260E+06
            1613     126.672E-03     11.1922E-03     126.176E-03     450.153E-03    -224.718E-03    -225.435E-03    -224.764E-03     449.481E-03    -224.718E-03     42.3979E-03     469.521E-03     120.596E+06     94.6379E+06     72.7405E+06    -35.3602E+06    -34.6981E+06     93.9757E+06     72.7405E+06     9.15480E+06
            1614     126.817E-03     11.9912E-03     126.249E-03     450.809E-03    -224.882E-03    -225.927E-03    -225.046E-03     449.928E-03    -224.882E-03     48.7368E-03     472.599E-03     123.645E+06     100.428E+06     89.3201E+06    -28.1329E+06    -27.7777E+06     100.073E+06     89.3201E+06     6.59712E+06
            1615     126.972E-03     12.7900E-03     126.326E-03     451.584E-03    -225.108E-03    -226.476E-03    -225.124E-03     450.232E-03    -225.108E-03     59.8642E-03     479.414E-03     137.886E+06     120.948E+06     114.046E+06    -20.2123E+06    -20.0506E+06     115.078E+06     119.754E+06     4.47181E+06
            1616     127.157E-03     13.5898E-03     126.428E-03     451.595E-03    -225.340E-03    -226.255E-03    -224.696E-03     450.037E-03    -225.340E-03     64.8212E-03     479.623E-03     166.701E+06     163.782E+06     147.054E+06    -10.6177E+06    -10.5658E+06     147.002E+06     163.782E+06     2.55973E+06
            1617     127.463E-03     799.754E-06     127.461E-03     447.572E-03    -223.588E-03    -223.984E-03    -223.963E-03     447.572E-03    -223.609E-03    -997.584E-06     447.769E-03     156.694E+06    -142.581E+06    -146.295E+06    -301.093E+06    -145.741E+06    -301.077E+06    -143.152E+06     1.04142E+06
            1618     127.471E-03     1.59942E-03     127.461E-03     447.746E-03    -223.804E-03    -223.942E-03    -223.891E-03     447.745E-03    -223.855E-03    -1.09496E-03     448.338E-03     152.058E+06    -132.248E+06    -141.612E+06    -288.723E+06    -141.629E+06    -288.707E+06    -132.248E+06     1.39469E+06
            1619     127.484E-03     2.39924E-03     127.461E-03     447.909E-03    -223.885E-03    -224.023E-03    -223.955E-03     447.909E-03    -223.953E-03    -769.481E-06     449.150E-03     146.355E+06    -116.731E+06    -136.195E+06    -271.735E+06    -136.223E+06    -271.708E+06    -116.731E+06     1.84974E+06
            1620     127.503E-03     3.19863E-03     127.463E-03     448.032E-03    -223.954E-03    -224.079E-03    -223.978E-03     448.032E-03    -224.054E-03    -17.3554E-06     450.153E-03     139.275E+06    -97.5550E+06    -129.192E+06    -249.777E+06    -129.229E+06    -249.740E+06    -97.5550E+06     1.99935E+06
            1621     127.528E-03     3.99820E-03     127.466E-03     448.087E-03    -223.943E-03    -224.144E-03    -223.941E-03     448.085E-03    -224.144E-03     1.53089E-03     451.281E-03     131.958E+06    -76.6170E+06    -120.545E+06    -224.761E+06    -120.596E+06    -224.710E+06    -76.6170E+06     2.12630E+06
            1622     127.564E-03     4.79794E-03     127.474E-03     448.172E-03    -223.947E-03    -224.225E-03    -223.941E-03     448.166E-03    -224.225E-03     3.67912E-03     452.607E-03     125.486E+06    -54.6251E+06    -110.684E+06    -198.154E+06    -110.773E+06    -198.065E+06    -54.6251E+06     2.62909E+06
            1623     127.607E-03     5.59728E-03     127.484E-03     448.296E-03    -223.997E-03    -224.299E-03    -223.981E-03     448.280E-03    -224.299E-03     6.42159E-03     454.103E-03     118.320E+06    -33.3102E+06    -100.588E+06    -169.652E+06    -100.715E+06    -169.524E+06    -33.3102E+06     2.84779E+06
            1624     127.662E-03     6.39677E-03     127.502E-03     448.447E-03    -224.080E-03    -224.367E-03    -224.044E-03     448.408E-03    -224.364E-03     9.96596E-03     455.733E-03     110.468E+06    -13.4150E+06    -90.1885E+06    -139.697E+06    -90.3828E+06    -139.503E+06    -13.4150E+06     2.93211E+06
            1625     127.727E-03     7.19620E-03     127.524E-03     448.680E-03    -224.232E-03    -224.448E-03    -224.178E-03     448.604E-03    -224.425E-03     14.1320E-03     457.543E-03     102.516E+06     4.88276E+06    -79.8159E+06    -108.536E+06    -80.3366E+06    -108.015E+06     4.88276E+06     3.36191E+06
            1626     127.804E-03     7.99571E-03     127.553E-03     448.913E-03    -224.358E-03    -224.555E-03    -224.296E-03     448.777E-03    -224.481E-03     18.9267E-03     459.457E-03     94.6063E+06     21.4608E+06    -64.3798E+06    -79.9590E+06    -70.7931E+06    -73.5458E+06     21.4608E+06     3.91443E+06
            1627     127.893E-03     8.79498E-03     127.590E-03     449.166E-03    -224.475E-03    -224.691E-03    -224.422E-03     448.950E-03    -224.528E-03     23.9692E-03     461.529E-03     89.5121E+06     36.7658E+06    -32.3216E+06    -62.5104E+06    -61.4060E+06    -33.4260E+06     36.7658E+06     4.99873E+06
            1628     127.993E-03     9.59414E-03     127.633E-03     449.403E-03    -224.566E-03    -224.837E-03    -224.517E-03     449.082E-03    -224.566E-03     29.2584E-03     463.737E-03     93.9548E+06     50.7726E+06     15.3692E+06    -53.4176E+06    -52.5437E+06     14.4952E+06     50.7726E+06     7.67259E+06
            1629     128.107E-03     10.3932E-03     127.685E-03     449.630E-03    -224.592E-03    -225.038E-03    -224.576E-03     449.168E-03    -224.592E-03     35.1560E-03     466.206E-03     111.509E+06     75.6998E+06     53.5762E+06    -45.1154E+06    -44.1549E+06     66.7344E+06     61.5810E+06     10.2650E+06
            1630     128.234E-03     11.1921E-03     127.745E-03     449.950E-03    -224.657E-03    -225.293E-03    -224.626E-03     449.283E-03    -224.657E-03     42.2320E-03     469.396E-03     123.961E+06     98.4504E+06     70.9759E+06    -36.9247E+06    -36.2232E+06     97.7488E+06     70.9759E+06     9.61768E+06
            1631     128.378E-03     11.9917E-03     127.817E-03     450.206E-03    -224.805E-03    -225.401E-03    -224.518E-03     449.323E-03    -224.805E-03     48.7507E-03     472.142E-03     125.789E+06     103.893E+06     87.8018E+06    -28.7947E+06    -28.3845E+06     103.483E+06     87.8018E+06     7.31944E+06
            1632     128.533E-03     12.7917E-03     127.895E-03     450.898E-03    -225.009E-03    -225.889E-03    -224.529E-03     449.538E-03    -225.009E-03     59.9974E-03     478.910E-03     139.654E+06     122.548E+06     115.971E+06    -20.2663E+06    -20.0565E+06     118.497E+06     119.813E+06     5.16486E+06
            1633     128.717E-03     13.5912E-03     127.997E-03     451.181E-03    -225.230E-03    -225.951E-03    -224.384E-03     449.614E-03    -225.230E-03     64.9666E-03     479.421E-03     169.880E+06     165.634E+06     151.576E+06    -10.7765E+06    -10.7194E+06     151.518E+06     165.634E+06     2.54973E+06
            1634     129.027E-03     799.500E-06     129.025E-03     447.986E-03    -223.839E-03    -224.147E-03    -223.881E-03     447.986E-03    -224.105E-03    -651.575E-06     448.181E-03     158.391E+06    -144.655E+06    -147.840E+06    -304.604E+06    -147.709E+06    -304.581E+06    -144.808E+06     1.00170E+06
            1635     129.034E-03     1.59918E-03     129.025E-03     448.004E-03    -223.956E-03    -224.048E-03    -223.968E-03     448.004E-03    -224.036E-03    -886.648E-06     448.603E-03     152.645E+06    -134.151E+06    -143.971E+06    -291.399E+06    -143.993E+06    -291.377E+06    -134.151E+06     1.57237E+06
            1636     129.048E-03     2.39871E-03     129.025E-03     448.011E-03    -223.926E-03    -224.085E-03    -223.926E-03     448.011E-03    -224.085E-03    -832.557E-06     449.259E-03     146.520E+06    -117.818E+06    -138.022E+06    -273.290E+06    -138.048E+06    -273.263E+06    -117.818E+06     1.73977E+06
            1637     129.067E-03     3.19857E-03     129.027E-03     448.181E-03    -224.025E-03    -224.156E-03    -224.025E-03     448.181E-03    -224.156E-03    -132.278E-06     450.304E-03     139.637E+06    -97.9682E+06    -130.437E+06    -250.816E+06    -130.467E+06    -250.786E+06    -97.9682E+06     1.74526E+06
            1638     129.093E-03     3.99792E-03     129.031E-03     448.391E-03    -224.136E-03    -224.255E-03    -224.135E-03     448.390E-03    -224.255E-03     1.21119E-03     451.595E-03     133.293E+06    -76.0929E+06    -121.879E+06    -226.054E+06    -121.917E+06    -226.015E+06    -76.0929E+06     1.88410E+06
            1639     129.127E-03     4.79717E-03     129.038E-03     448.448E-03    -224.100E-03    -224.348E-03    -224.095E-03     448.443E-03    -224.348E-03     3.39832E-03     452.897E-03     126.550E+06    -54.4219E+06    -112.368E+06    -199.356E+06    -112.419E+06    -199.306E+06    -54.4219E+06     2.00339E+06
            1640     129.172E-03     5.59665E-03     129.050E-03     448.476E-03    -224.058E-03    -224.418E-03    -224.042E-03     448.460E-03    -224.418E-03     6.30623E-03     454.304E-03     118.741E+06    -33.5816E+06    -102.287E+06    -170.419E+06    -102.349E+06    -170.357E+06    -33.5816E+06     1.99638E+06
            1641     129.225E-03     6.39599E-03     129.067E-03     448.463E-03    -223.994E-03    -224.469E-03    -223.956E-03     448.425E-03    -224.469E-03     9.91614E-03     455.791E-03     111.250E+06    -14.0551E+06    -92.3434E+06    -141.068E+06    -92.4611E+06    -140.950E+06    -14.0551E+06     2.20351E+06
            1642     129.291E-03     7.19571E-03     129.090E-03     448.546E-03    -224.042E-03    -224.503E-03    -223.967E-03     448.470E-03    -224.503E-03     14.0670E-03     457.473E-03     103.604E+06     4.18056E+06    -82.0206E+06    -110.239E+06    -82.3567E+06    -109.903E+06     4.18056E+06     2.65399E+06
            1643     129.367E-03     7.99507E-03     129.120E-03     448.784E-03    -224.250E-03    -224.534E-03    -224.121E-03     448.654E-03    -224.534E-03     18.5053E-03     459.400E-03     96.1657E+06     20.9967E+06    -66.6472E+06    -81.8538E+06    -72.5776E+06    -75.9235E+06     20.9967E+06     3.58063E+06
            1644     129.455E-03     8.79466E-03     129.156E-03     449.018E-03    -224.418E-03    -224.601E-03    -224.252E-03     448.814E-03    -224.562E-03     23.3550E-03     461.444E-03     90.9128E+06     35.7210E+06    -36.3327E+06    -64.7867E+06    -63.6593E+06    -37.4601E+06     35.7210E+06     4.81552E+06
            1645     129.556E-03     9.59395E-03     129.200E-03     449.257E-03    -224.539E-03    -224.719E-03    -224.364E-03     448.950E-03    -224.586E-03     28.6455E-03     463.647E-03     92.6928E+06     48.9653E+06     7.26499E+06    -55.3745E+06    -54.5728E+06     6.46339E+06     48.9653E+06     7.01251E+06
            1646     129.669E-03     10.3932E-03     129.252E-03     449.355E-03    -224.546E-03    -224.809E-03    -224.307E-03     448.902E-03    -224.595E-03     34.7749E-03     465.942E-03     110.538E+06     75.1104E+06     48.2856E+06    -46.3173E+06    -45.4554E+06     61.8360E+06     60.6982E+06     9.50541E+06
            1647     129.797E-03     11.1929E-03     129.313E-03     449.488E-03    -224.577E-03    -224.911E-03    -224.200E-03     448.825E-03    -224.625E-03     42.0810E-03     468.870E-03     126.546E+06     101.135E+06     70.3462E+06    -37.9495E+06    -37.2689E+06     100.454E+06     70.3462E+06     9.64463E+06
            1648     129.939E-03     11.9924E-03     129.384E-03     449.631E-03    -224.698E-03    -224.933E-03    -224.017E-03     448.755E-03    -224.738E-03     48.5159E-03     471.590E-03     128.762E+06     107.677E+06     85.9880E+06    -30.1567E+06    -29.7413E+06     107.261E+06     85.9880E+06     7.42514E+06
            1649     130.093E-03     12.7925E-03     129.462E-03     450.233E-03    -224.881E-03    -225.352E-03    -223.951E-03     448.872E-03    -224.921E-03     59.9256E-03     478.489E-03     142.617E+06     124.515E+06     117.358E+06    -21.4819E+06    -21.3084E+06     122.497E+06     119.203E+06     4.66638E+06
            1650     130.277E-03     13.5934E-03     129.566E-03     450.666E-03    -225.061E-03    -225.605E-03    -223.973E-03     449.105E-03    -225.132E-03     64.7640E-03     479.187E-03     173.218E+06     167.501E+06     156.043E+06    -11.0608E+06    -11.0175E+06     155.999E+06     167.501E+06     2.21569E+06
            1651     130.591E-03     799.646E-06     130.589E-03     448.308E-03    -223.809E-03    -224.499E-03    -224.254E-03     448.308E-03    -224.054E-03    -349.851E-06     448.503E-03     159.848E+06    -147.175E+06    -149.664E+06    -308.242E+06    -149.481E+06    -308.221E+06    -147.379E+06     925.377E+03
            1652     130.599E-03     1.59892E-03     130.589E-03     448.416E-03    -224.182E-03    -224.233E-03    -224.205E-03     448.415E-03    -224.210E-03    -895.337E-06     449.011E-03     153.121E+06    -136.212E+06    -145.925E+06    -293.882E+06    -145.947E+06    -293.860E+06    -136.212E+06     1.55811E+06
            1653     130.612E-03     2.39841E-03     130.590E-03     448.426E-03    -224.142E-03    -224.284E-03    -224.144E-03     448.426E-03    -224.282E-03    -1.00827E-03     449.673E-03     146.434E+06    -118.956E+06    -139.814E+06    -274.584E+06    -139.840E+06    -274.557E+06    -118.956E+06     1.74626E+06
            1654     130.631E-03     3.19772E-03     130.592E-03     448.484E-03    -224.136E-03    -224.348E-03    -224.136E-03     448.484E-03    -224.348E-03    -163.849E-06     450.614E-03     139.479E+06    -98.9676E+06    -132.388E+06    -251.954E+06    -132.419E+06    -251.923E+06    -98.9676E+06     1.78928E+06
            1655     130.658E-03     3.99701E-03     130.597E-03     448.656E-03    -224.226E-03    -224.431E-03    -224.225E-03     448.656E-03    -224.431E-03     1.22289E-03     451.865E-03     133.550E+06    -76.7441E+06    -123.345E+06    -227.167E+06    -123.381E+06    -227.131E+06    -76.7441E+06     1.78993E+06
            1656     130.692E-03     4.79632E-03     130.604E-03     448.728E-03    -224.214E-03    -224.514E-03    -224.209E-03     448.723E-03    -224.514E-03     3.38295E-03     453.189E-03     126.899E+06    -54.5342E+06    -113.661E+06    -199.951E+06    -113.713E+06    -199.899E+06    -54.5342E+06     1.92290E+06
            1657     130.736E-03     5.59573E-03     130.616E-03     448.690E-03    -224.115E-03    -224.575E-03    -224.100E-03     448.675E-03    -224.575E-03     6.15051E-03     454.539E-03     119.310E+06    -33.7875E+06    -103.877E+06    -171.302E+06    -103.937E+06    -171.242E+06    -33.7875E+06     1.92166E+06
            1658     130.789E-03     6.39537E-03     130.633E-03     448.665E-03    -224.050E-03    -224.614E-03    -224.016E-03     448.630E-03    -224.614E-03     9.45916E-03     456.013E-03     112.111E+06    -14.3751E+06    -93.9933E+06    -142.210E+06    -94.0878E+06    -142.116E+06    -14.3751E+06     1.94643E+06
            1659     130.854E-03     7.19481E-03     130.656E-03     448.667E-03    -224.030E-03    -224.637E-03    -223.960E-03     448.596E-03    -224.637E-03     13.5815E-03     457.627E-03     104.593E+06     3.51095E+06    -84.0789E+06    -111.836E+06    -84.3464E+06    -111.568E+06     3.51095E+06     2.37107E+06
            1660     130.930E-03     7.99446E-03     130.686E-03     448.776E-03    -224.127E-03    -224.649E-03    -224.002E-03     448.651E-03    -224.649E-03     18.1846E-03     459.451E-03     97.4730E+06     20.0691E+06    -69.5155E+06    -83.6580E+06    -74.3256E+06    -78.8479E+06     20.0691E+06     3.08011E+06
            1661     131.018E-03     8.79353E-03     130.723E-03     448.923E-03    -224.269E-03    -224.655E-03    -224.066E-03     448.720E-03    -224.655E-03     23.2245E-03     461.444E-03     91.6737E+06     35.0576E+06    -40.3138E+06    -65.5221E+06    -64.5005E+06    -41.3355E+06     35.0576E+06     4.35344E+06
            1662     131.118E-03     9.59310E-03     130.767E-03     449.024E-03    -224.371E-03    -224.653E-03    -224.062E-03     448.715E-03    -224.653E-03     28.6977E-03     463.548E-03     91.6703E+06     48.2362E+06     1.24728E+06    -55.7402E+06    -55.0941E+06     601.193E+03     48.2362E+06     5.90820E+06
            1663     131.231E-03     10.3927E-03     130.819E-03     449.071E-03    -224.438E-03    -224.633E-03    -223.991E-03     448.624E-03    -224.633E-03     34.5849E-03     465.814E-03     107.804E+06     72.1804E+06     44.4567E+06    -46.5427E+06    -45.8956E+06     55.8756E+06     60.1143E+06     8.06500E+06
            1664     131.357E-03     11.1925E-03     130.879E-03     449.064E-03    -224.419E-03    -224.645E-03    -223.795E-03     448.422E-03    -224.627E-03     41.4246E-03     468.526E-03     126.658E+06     101.169E+06     69.7768E+06    -38.0814E+06    -37.4414E+06     100.529E+06     69.7768E+06     9.39431E+06
            1665     131.500E-03     11.9930E-03     130.952E-03     449.077E-03    -224.356E-03    -224.722E-03    -223.529E-03     448.232E-03    -224.703E-03     47.6261E-03     470.899E-03     131.815E+06     113.232E+06     85.3266E+06    -29.9239E+06    -29.5299E+06     112.838E+06     85.3266E+06     7.23400E+06
            1666     131.651E-03     12.7934E-03     131.028E-03     449.852E-03    -224.645E-03    -225.207E-03    -223.637E-03     448.504E-03    -224.867E-03     59.5203E-03     478.011E-03     144.078E+06     127.381E+06     118.081E+06    -20.9108E+06    -20.7913E+06     126.811E+06     118.531E+06     3.91620E+06
            1667     131.836E-03     13.5936E-03     131.134E-03     449.968E-03    -224.561E-03    -225.407E-03    -223.365E-03     448.432E-03    -225.066E-03     64.1360E-03     478.346E-03     174.837E+06     168.472E+06     159.019E+06    -10.7901E+06    -10.7638E+06     159.263E+06     168.202E+06     1.88296E+06
            1668     132.156E-03     799.172E-06     132.153E-03     448.836E-03    -224.060E-03    -224.776E-03    -224.493E-03     448.836E-03    -224.343E-03    -834.932E-06     449.030E-03     159.986E+06    -149.517E+06    -151.858E+06    -310.651E+06    -151.632E+06    -310.632E+06    -149.763E+06     189.769E+03
            1669     132.164E-03     1.59855E-03     132.154E-03     448.888E-03    -224.415E-03    -224.473E-03    -224.426E-03     448.888E-03    -224.462E-03    -899.076E-06     449.480E-03     153.228E+06    -139.096E+06    -148.067E+06    -296.549E+06    -148.077E+06    -296.539E+06    -139.096E+06     1.03910E+06
            1670     132.177E-03     2.39758E-03     132.155E-03     448.953E-03    -224.421E-03    -224.532E-03    -224.423E-03     448.953E-03    -224.530E-03    -1.03743E-03     450.196E-03     146.093E+06    -121.671E+06    -142.158E+06    -276.789E+06    -142.184E+06    -276.763E+06    -121.671E+06     1.74927E+06
            1671     132.196E-03     3.19692E-03     132.157E-03     448.906E-03    -224.308E-03    -224.598E-03    -224.308E-03     448.906E-03    -224.598E-03    -203.499E-06     451.035E-03     139.324E+06    -100.091E+06    -134.211E+06    -253.129E+06    -134.253E+06    -253.087E+06    -100.091E+06     2.10859E+06
            1672     132.222E-03     3.99640E-03     132.162E-03     448.889E-03    -224.238E-03    -224.651E-03    -224.237E-03     448.889E-03    -224.651E-03     1.17262E-03     452.103E-03     132.821E+06    -77.7305E+06    -125.434E+06    -227.603E+06    -125.470E+06    -227.567E+06    -77.7305E+06     1.78889E+06
            1673     132.257E-03     4.79563E-03     132.170E-03     448.992E-03    -224.286E-03    -224.706E-03    -224.281E-03     448.987E-03    -224.706E-03     3.26948E-03     453.457E-03     126.567E+06    -55.4027E+06    -115.567E+06    -200.597E+06    -115.603E+06    -200.561E+06    -55.4027E+06     1.34786E+06
            1674     132.300E-03     5.59472E-03     132.182E-03     449.049E-03    -224.288E-03    -224.761E-03    -224.274E-03     449.035E-03    -224.761E-03     6.03232E-03     454.912E-03     120.293E+06    -33.9102E+06    -105.042E+06    -172.556E+06    -105.100E+06    -172.499E+06    -33.9102E+06     1.59658E+06
            1675     132.353E-03     6.39380E-03     132.199E-03     449.031E-03    -224.229E-03    -224.801E-03    -224.196E-03     448.997E-03    -224.801E-03     9.34526E-03     456.406E-03     113.251E+06    -14.1288E+06    -94.8383E+06    -143.220E+06    -94.9432E+06    -143.115E+06    -14.1288E+06     2.07503E+06
            1676     132.417E-03     7.19316E-03     132.222E-03     448.966E-03    -224.147E-03    -224.820E-03    -224.078E-03     448.898E-03    -224.820E-03     13.3757E-03     457.963E-03     105.586E+06     3.80062E+06    -84.4890E+06    -112.742E+06    -84.6909E+06    -112.540E+06     3.80062E+06     2.21756E+06
            1677     132.493E-03     7.99269E-03     132.252E-03     448.790E-03    -223.976E-03    -224.813E-03    -223.856E-03     448.669E-03    -224.813E-03     17.8427E-03     459.501E-03     98.5418E+06     19.8615E+06    -71.3842E+06    -84.4664E+06    -74.6804E+06    -81.1701E+06     19.8615E+06     2.46611E+06
            1678     132.581E-03     8.79289E-03     132.289E-03     448.631E-03    -223.852E-03    -224.780E-03    -223.653E-03     448.433E-03    -224.780E-03     22.9400E-03     461.190E-03     92.4781E+06     34.6025E+06    -44.0362E+06    -65.8596E+06    -65.0093E+06    -44.8865E+06     34.6025E+06     3.31069E+06
            1679     132.681E-03     9.59255E-03     132.333E-03     448.642E-03    -223.909E-03    -224.733E-03    -223.600E-03     448.332E-03    -224.733E-03     28.6956E-03     463.218E-03     91.4116E+06     48.0588E+06    -2.81033E+06    -55.8019E+06    -55.3975E+06    -3.21473E+06     48.0588E+06     4.43173E+06
            1680     132.793E-03     10.3925E-03     132.386E-03     448.700E-03    -224.025E-03    -224.675E-03    -223.565E-03     448.240E-03    -224.675E-03     35.0071E-03     465.561E-03     104.128E+06     67.0835E+06     42.0259E+06    -46.5643E+06    -46.1160E+06     48.8998E+06     59.7613E+06     6.50462E+06
            1681     132.919E-03     11.1921E-03     132.447E-03     448.769E-03    -224.138E-03    -224.631E-03    -223.475E-03     448.106E-03    -224.631E-03     42.0566E-03     468.552E-03     125.375E+06     99.2538E+06     69.6968E+06    -37.7120E+06    -37.2193E+06     98.7612E+06     69.6968E+06     8.11847E+06
            1682     133.058E-03     11.9923E-03     132.517E-03     448.905E-03    -224.225E-03    -224.680E-03    -223.364E-03     448.044E-03    -224.680E-03     48.0653E-03     471.098E-03     135.093E+06     119.532E+06     85.5467E+06    -28.9688E+06    -28.6610E+06     119.224E+06     85.5467E+06     6.54678E+06
            1683     133.211E-03     12.7932E-03     132.595E-03     449.418E-03    -224.409E-03    -225.009E-03    -223.220E-03     448.046E-03    -224.826E-03     59.9923E-03     478.263E-03     145.640E+06     131.071E+06     117.379E+06    -20.6043E+06    -20.4995E+06     130.967E+06     117.379E+06     3.77565E+06
            1684     133.395E-03     13.5941E-03     132.701E-03     449.250E-03    -224.064E-03    -225.186E-03    -222.693E-03     447.696E-03    -225.003E-03     64.4230E-03     478.200E-03     176.087E+06     169.458E+06     160.025E+06    -11.1013E+06    -11.0762E+06     161.942E+06     167.516E+06     1.77775E+06
            1685     133.722E-03     798.996E-06     133.719E-03     449.563E-03    -224.491E-03    -225.072E-03    -224.491E-03     449.563E-03    -225.072E-03    -660.919E-06     449.756E-03     160.177E+06    -150.517E+06    -154.224E+06    -312.496E+06    -154.074E+06    -312.451E+06    -150.713E+06     913.499E+03
            1686     133.729E-03     1.59795E-03     133.720E-03     449.412E-03    -224.617E-03    -224.796E-03    -224.616E-03     449.412E-03    -224.796E-03    -953.256E-06     450.006E-03     153.459E+06    -140.448E+06    -150.586E+06    -298.666E+06    -150.592E+06    -298.660E+06    -140.448E+06     896.299E+03
            1687     133.743E-03     2.39715E-03     133.721E-03     449.437E-03    -224.624E-03    -224.813E-03    -224.624E-03     449.437E-03    -224.813E-03    -926.707E-06     450.678E-03     146.267E+06    -123.380E+06    -144.036E+06    -278.757E+06    -144.045E+06    -278.748E+06    -123.380E+06     1.04437E+06
            1688     133.761E-03     3.19596E-03     133.723E-03     449.437E-03    -224.571E-03    -224.865E-03    -224.571E-03     449.437E-03    -224.865E-03    -271.211E-06     451.554E-03     139.248E+06    -101.872E+06    -135.845E+06    -254.782E+06    -135.870E+06    -254.757E+06    -101.872E+06     1.48239E+06
            1689     133.788E-03     3.99499E-03     133.728E-03     449.330E-03    -224.417E-03    -224.913E-03    -224.416E-03     449.329E-03    -224.913E-03     1.08220E-03     452.532E-03     132.483E+06    -78.5027E+06    -126.529E+06    -228.068E+06    -126.566E+06    -228.032E+06    -78.5027E+06     1.78967E+06
            1690     133.822E-03     4.79431E-03     133.736E-03     449.257E-03    -224.312E-03    -224.945E-03    -224.308E-03     449.253E-03    -224.945E-03     3.10049E-03     453.716E-03     126.388E+06    -55.3540E+06    -116.386E+06    -200.451E+06    -116.415E+06    -200.422E+06    -55.3540E+06     1.32653E+06
            1691     133.866E-03     5.59360E-03     133.749E-03     449.247E-03    -224.276E-03    -224.970E-03    -224.262E-03     449.232E-03    -224.970E-03     6.01003E-03     455.110E-03     121.225E+06    -33.8138E+06    -106.119E+06    -173.526E+06    -106.158E+06    -173.487E+06    -33.8138E+06     1.06900E+06
            1692     133.918E-03     6.39288E-03     133.765E-03     449.310E-03    -224.321E-03    -224.989E-03    -224.286E-03     449.275E-03    -224.989E-03     9.54047E-03     456.706E-03     114.350E+06    -13.6746E+06    -94.9564E+06    -144.122E+06    -95.0034E+06    -144.075E+06    -13.6746E+06     1.09543E+06
            1693     133.982E-03     7.19212E-03     133.789E-03     449.225E-03    -224.229E-03    -224.996E-03    -224.159E-03     449.155E-03    -224.996E-03     13.5672E-03     458.254E-03     106.815E+06     4.40561E+06    -84.0758E+06    -113.842E+06    -84.1759E+06    -113.742E+06     4.40561E+06     1.36543E+06
            1694     134.057E-03     7.99137E-03     133.818E-03     448.929E-03    -223.952E-03    -224.977E-03    -223.830E-03     448.806E-03    -224.977E-03     17.9976E-03     459.684E-03     99.9731E+06     20.6568E+06    -72.2864E+06    -84.7641E+06    -74.2439E+06    -82.8066E+06     20.6568E+06     1.88091E+06
            1695     134.143E-03     8.79096E-03     133.854E-03     448.606E-03    -223.685E-03    -224.921E-03    -223.487E-03     448.408E-03    -224.921E-03     22.8773E-03     461.201E-03     93.5626E+06     35.3971E+06    -46.7192E+06    -65.1443E+06    -64.4703E+06    -47.3931E+06     35.3971E+06     2.44815E+06
            1696     134.242E-03     9.59165E-03     133.899E-03     448.347E-03    -223.508E-03    -224.839E-03    -223.209E-03     448.049E-03    -224.839E-03     28.2044E-03     462.942E-03     91.7353E+06     48.4740E+06    -6.28512E+06    -55.6647E+06    -55.4057E+06    -6.54411E+06     48.4740E+06     3.48516E+06
            1697     134.354E-03     10.3921E-03     133.951E-03     448.047E-03    -223.310E-03    -224.737E-03    -222.869E-03     447.606E-03    -224.737E-03     34.2249E-03     464.891E-03     102.020E+06     63.1320E+06     40.3242E+06    -46.9726E+06    -46.7029E+06     43.2275E+06     59.9590E+06     4.84208E+06
            1698     134.479E-03     11.1934E-03     134.012E-03     448.070E-03    -223.436E-03    -224.634E-03    -222.780E-03     447.414E-03    -224.634E-03     41.7439E-03     467.815E-03     124.390E+06     96.5743E+06     69.6531E+06    -38.0448E+06    -37.7510E+06     96.2805E+06     69.6531E+06     6.18563E+06
            1699     134.619E-03     11.9938E-03     134.084E-03     448.491E-03    -223.858E-03    -224.633E-03    -222.981E-03     447.614E-03    -224.633E-03     48.4571E-03     470.919E-03     138.011E+06     123.220E+06     84.5146E+06    -29.7620E+06    -29.5256E+06     122.983E+06     84.5146E+06     5.93997E+06
            1700     134.770E-03     12.7938E-03     134.161E-03     448.917E-03    -224.163E-03    -224.754E-03    -222.781E-03     447.535E-03    -224.754E-03     60.2325E-03     478.278E-03     148.385E+06     135.430E+06     115.695E+06    -21.4692E+06    -21.3672E+06     135.328E+06     115.695E+06     3.66876E+06
            1701     134.950E-03     13.5963E-03     134.264E-03     448.872E-03    -223.949E-03    -224.923E-03    -222.385E-03     447.309E-03    -224.923E-03     64.6158E-03     478.403E-03     177.767E+06     171.856E+06     160.290E+06    -11.4003E+06    -11.3840E+06     165.051E+06     167.078E+06     1.32169E+06
            1702     135.289E-03     798.490E-06     135.287E-03     450.286E-03    -224.940E-03    -225.346E-03    -225.002E-03     450.285E-03    -225.283E-03    -647.465E-06     450.480E-03     161.002E+06    -151.985E+06    -157.135E+06    -315.487E+06    -155.570E+06    -315.434E+06    -153.603E+06     980.398E+03
            1703     135.296E-03     1.59733E-03     135.286E-03     449.964E-03    -224.833E-03    -225.132E-03    -224.832E-03     449.964E-03    -225.132E-03    -1.03984E-03     450.549E-03     153.325E+06    -140.928E+06    -151.798E+06    -299.320E+06    -151.808E+06    -299.311E+06    -140.928E+06     1.05812E+06
            1704     135.309E-03     2.39624E-03     135.288E-03     449.809E-03    -224.717E-03    -225.092E-03    -224.717E-03     449.809E-03    -225.092E-03    -644.621E-06     451.039E-03     146.308E+06    -123.869E+06    -145.787E+06    -279.780E+06    -145.792E+06    -279.775E+06    -123.869E+06     843.980E+03
            1705     135.328E-03     3.19519E-03     135.291E-03     449.874E-03    -224.767E-03    -225.107E-03    -224.767E-03     449.874E-03    -225.107E-03     82.7645E-06     451.981E-03     138.856E+06    -102.874E+06    -137.717E+06    -255.656E+06    -137.721E+06    -255.651E+06    -102.874E+06     534.960E+03
            1706     135.354E-03     3.99411E-03     135.295E-03     449.804E-03    -224.656E-03    -225.149E-03    -224.655E-03     449.803E-03    -225.149E-03     1.46538E-03     452.987E-03     132.301E+06    -79.3744E+06    -127.657E+06    -228.839E+06    -127.665E+06    -228.831E+06    -79.3744E+06     550.902E+03
            1707     135.388E-03     4.79297E-03     135.303E-03     449.631E-03    -224.456E-03    -225.175E-03    -224.452E-03     449.627E-03    -225.175E-03     3.43151E-03     454.071E-03     126.333E+06    -55.8408E+06    -117.080E+06    -200.868E+06    -117.100E+06    -200.849E+06    -55.8408E+06     814.363E+03
            1708     135.430E-03     5.59233E-03     135.315E-03     449.517E-03    -224.333E-03    -225.184E-03    -224.318E-03     449.502E-03    -225.184E-03     6.07074E-03     455.368E-03     121.030E+06    -33.4056E+06    -106.338E+06    -172.887E+06    -106.351E+06    -172.874E+06    -33.4056E+06     447.144E+03
            1709     135.484E-03     6.39168E-03     135.333E-03     449.411E-03    -224.233E-03    -225.178E-03    -224.198E-03     449.376E-03    -225.178E-03     9.50359E-03     456.798E-03     115.201E+06    -13.1258E+06    -95.4501E+06    -144.470E+06    -95.4513E+06    -144.468E+06    -13.1258E+06    -7.37058E+03
            1710     135.546E-03     7.19078E-03     135.355E-03     449.233E-03    -224.080E-03    -225.153E-03    -224.011E-03     449.163E-03    -225.153E-03     13.4727E-03     458.264E-03     108.329E+06     4.93541E+06    -84.5606E+06    -115.149E+06     -84.616E+06    -115.093E+06     4.93541E+06    -69.2456E+03
            1711     135.620E-03     7.99069E-03     135.385E-03     448.998E-03    -223.891E-03    -225.107E-03    -223.769E-03     448.876E-03    -225.107E-03     17.9977E-03     459.787E-03     101.347E+06     21.3017E+06    -73.2358E+06    -85.1517E+06    -73.9318E+06    -84.4558E+06     21.3017E+06     381.973E+03
            1712     135.706E-03     8.79058E-03     135.421E-03     448.750E-03    -223.712E-03    -225.038E-03    -223.512E-03     448.550E-03    -225.038E-03     23.0462E-03     461.422E-03     94.5999E+06     36.1435E+06    -49.1655E+06    -64.3855E+06    -63.8251E+06    -49.7259E+06     36.1435E+06     1.37514E+06
            1713     135.803E-03     9.59000E-03     135.464E-03     448.362E-03    -223.417E-03    -224.945E-03    -223.113E-03     448.058E-03    -224.945E-03     28.4315E-03     463.075E-03     91.4968E+06     49.4712E+06    -9.44624E+06    -54.2063E+06    -54.0391E+06    -9.61336E+06     49.4712E+06     2.52499E+06
            1714     135.914E-03     10.3907E-03     135.516E-03     447.984E-03    -223.158E-03    -224.825E-03    -222.725E-03     447.550E-03    -224.825E-03     33.9640E-03     464.922E-03     99.4762E+06     61.8252E+06     38.7462E+06    -45.0444E+06    -44.8426E+06     39.3311E+06     61.0385E+06     4.06206E+06
            1715     136.037E-03     11.1916E-03     135.576E-03     447.679E-03    -222.984E-03    -224.696E-03    -222.358E-03     447.054E-03    -224.696E-03     40.7425E-03     467.377E-03     121.758E+06     93.7201E+06     69.8753E+06    -37.0548E+06    -36.8317E+06     93.0724E+06     70.2999E+06     5.29767E+06
            1716     136.178E-03     11.9935E-03     135.649E-03     447.525E-03    -222.885E-03    -224.640E-03    -222.056E-03     446.696E-03    -224.640E-03     47.0546E-03     469.664E-03     138.151E+06     124.312E+06     84.2940E+06    -29.3157E+06    -29.1395E+06     124.136E+06     84.2940E+06     5.16158E+06
            1717     136.327E-03     12.7957E-03     135.726E-03     448.303E-03    -223.593E-03    -224.710E-03    -222.272E-03     446.982E-03    -224.710E-03     58.7857E-03     476.927E-03     150.145E+06     140.245E+06     114.878E+06    -20.6320E+06    -20.5477E+06     140.161E+06     114.878E+06     3.31706E+06
            1718     136.508E-03     13.5961E-03     135.829E-03     448.500E-03    -223.632E-03    -224.868E-03    -222.111E-03     446.979E-03    -224.868E-03     63.7278E-03     477.331E-03     178.766E+06     174.749E+06     160.352E+06    -10.7462E+06    -10.7347E+06     168.324E+06     166.766E+06     1.14135E+06
            1719     136.857E-03     798.443E-06     136.855E-03     450.641E-03    -225.192E-03    -225.449E-03    -225.254E-03     450.641E-03    -225.386E-03    -636.373E-06     450.831E-03     160.542E+06    -153.709E+06    -159.814E+06    -317.209E+06    -158.235E+06    -317.170E+06    -155.327E+06    -76.2216E+03
            1720     136.863E-03     1.59691E-03     136.854E-03     450.405E-03    -225.083E-03    -225.322E-03    -225.083E-03     450.405E-03    -225.322E-03    -800.304E-06     450.981E-03     152.813E+06    -142.926E+06    -153.173E+06    -300.513E+06    -153.187E+06    -300.498E+06    -142.926E+06      319.97E+03
            1721     136.876E-03     2.39585E-03     136.855E-03     450.208E-03    -224.908E-03    -225.301E-03    -224.907E-03     450.208E-03    -225.301E-03    -384.458E-06     451.426E-03     146.091E+06    -124.062E+06    -146.575E+06    -279.966E+06    -146.578E+06    -279.963E+06    -124.062E+06     446.542E+03
            1722     136.895E-03     3.19480E-03     136.858E-03     450.099E-03    -224.802E-03    -225.297E-03    -224.802E-03     450.099E-03    -225.297E-03     372.273E-06     452.188E-03     139.199E+06    -102.317E+06    -138.001E+06    -255.720E+06    -138.004E+06    -255.718E+06    -102.317E+06     229.700E+03
            1723     136.921E-03     3.99335E-03     136.863E-03     450.089E-03    -224.773E-03    -225.316E-03    -224.772E-03     450.088E-03    -225.316E-03     1.77068E-03     453.249E-03     132.416E+06    -79.0431E+06    -128.588E+06    -228.846E+06    -128.590E+06    -228.844E+06    -79.0431E+06     31.0410E+03
            1724     136.954E-03     4.79255E-03     136.870E-03     450.032E-03    -224.690E-03    -225.342E-03    -224.684E-03     450.026E-03    -225.342E-03     3.79685E-03     454.443E-03     126.105E+06    -55.7294E+06    -118.228E+06    -200.657E+06    -118.232E+06    -200.653E+06    -55.7294E+06    -404.885E+03
            1725     136.997E-03     5.59115E-03     136.883E-03     449.842E-03    -224.488E-03    -225.354E-03    -224.471E-03     449.825E-03    -225.354E-03     6.50072E-03     455.665E-03     120.564E+06    -33.4163E+06    -106.937E+06    -172.310E+06    -106.969E+06    -172.277E+06    -33.4163E+06    -910.762E+03
            1726     137.048E-03     6.39020E-03     136.899E-03     449.504E-03    -224.170E-03    -225.334E-03    -224.132E-03     449.466E-03    -225.334E-03     9.89670E-03     456.866E-03     115.262E+06    -12.8979E+06    -95.9232E+06    -144.229E+06    -95.9906E+06    -144.162E+06    -12.8979E+06    -1.29980E+06
            1727     137.111E-03     7.19020E-03     136.923E-03     449.216E-03    -223.934E-03    -225.282E-03    -223.863E-03     449.145E-03    -225.282E-03     13.6931E-03     458.228E-03     109.118E+06     5.25405E+06    -85.0865E+06    -115.619E+06    -85.1637E+06    -115.542E+06     5.25405E+06    -1.33506E+06
            1728     137.184E-03     7.98950E-03     136.951E-03     448.976E-03    -223.767E-03    -225.209E-03    -223.643E-03     448.852E-03    -225.209E-03     18.0830E-03     459.759E-03     102.146E+06     21.4839E+06    -73.4416E+06    -86.1579E+06    -74.4038E+06    -85.1957E+06     21.4839E+06    -1.38134E+06
            1729     137.269E-03     8.78938E-03     136.987E-03     448.593E-03    -223.478E-03    -225.115E-03    -223.276E-03     448.390E-03    -225.115E-03     23.1588E-03     461.297E-03     95.2014E+06     36.1072E+06    -50.8560E+06    -64.8528E+06    -63.6866E+06    -52.0222E+06     36.1072E+06    -1.06959E+06
            1730     137.365E-03     9.59022E-03     137.030E-03     448.272E-03    -223.273E-03    -224.998E-03    -222.962E-03     447.960E-03    -224.998E-03     28.7503E-03     463.049E-03     91.0202E+06     49.1739E+06    -13.4801E+06    -53.5430E+06    -53.4599E+06    -13.5632E+06     49.1739E+06     486.180E+03
            1731     137.474E-03     10.3907E-03     137.081E-03     448.115E-03    -223.244E-03    -224.871E-03    -222.788E-03     447.659E-03    -224.871E-03     34.8494E-03     465.207E-03     96.6118E+06     60.5586E+06     33.6855E+06    -44.3577E+06    -44.2113E+06     33.5391E+06     60.5586E+06     3.19846E+06
            1732     137.597E-03     11.1909E-03     137.142E-03     447.808E-03    -223.067E-03    -224.741E-03    -222.412E-03     447.153E-03    -224.741E-03     41.7328E-03     467.832E-03     119.734E+06     93.4648E+06     67.9820E+06    -36.0638E+06    -35.8353E+06     90.2474E+06     70.9709E+06     5.28891E+06
            1733     137.734E-03     11.9921E-03     137.211E-03     447.381E-03    -222.712E-03    -224.669E-03    -221.859E-03     446.528E-03    -224.669E-03     47.7011E-03     469.848E-03     139.019E+06     127.054E+06     85.0221E+06    -28.0743E+06    -27.9221E+06     126.902E+06     85.0221E+06     4.65637E+06
            1734     137.885E-03     12.7939E-03     137.290E-03     447.723E-03    -223.019E-03    -224.705E-03    -221.672E-03     446.377E-03    -224.705E-03     59.3010E-03     476.946E-03     151.125E+06     143.544E+06     113.668E+06    -19.9570E+06    -19.9026E+06     143.490E+06     113.668E+06     2.80266E+06
            1735     138.065E-03     13.5968E-03     137.394E-03     447.822E-03    -222.990E-03    -224.832E-03    -221.457E-03     446.290E-03    -224.832E-03     63.8632E-03     477.136E-03     179.687E+06     176.356E+06     160.380E+06    -10.6948E+06    -10.6798E+06     170.702E+06     166.019E+06     1.47572E+06
            1736     138.425E-03     798.462E-06     138.423E-03     450.467E-03    -225.001E-03    -225.467E-03    -225.318E-03     450.467E-03    -225.150E-03    -135.184E-06     450.654E-03     158.547E+06    -154.768E+06    -161.937E+06    -316.770E+06    -159.637E+06    -316.734E+06    -157.105E+06    -618.229E+03
            1737     138.431E-03     1.59720E-03     138.422E-03     450.686E-03    -225.240E-03    -225.445E-03    -225.374E-03     450.685E-03    -225.312E-03    -417.107E-06     451.253E-03     151.551E+06    -144.740E+06    -155.010E+06    -301.096E+06    -155.022E+06    -301.084E+06    -144.740E+06    -849.985E+03
            1738     138.444E-03     2.39535E-03     138.423E-03     450.573E-03    -225.137E-03    -225.435E-03    -225.177E-03     450.573E-03    -225.395E-03    -167.210E-06     451.770E-03     145.057E+06    -125.559E+06    -147.948E+06    -280.351E+06    -147.954E+06    -280.346E+06    -125.559E+06    -390.051E+03
            1739     138.462E-03     3.19394E-03     138.425E-03     450.255E-03    -224.840E-03    -225.416E-03    -224.839E-03     450.255E-03    -225.416E-03     702.062E-06     452.312E-03     138.293E+06    -102.917E+06    -139.761E+06    -255.698E+06    -139.770E+06    -255.690E+06    -102.917E+06    -272.440E+03
            1740     138.488E-03     3.99334E-03     138.431E-03     450.172E-03    -224.756E-03    -225.416E-03    -224.754E-03     450.170E-03    -225.416E-03     2.26608E-03     453.296E-03     131.837E+06    -78.8291E+06    -129.480E+06    -228.271E+06    -129.492E+06    -228.258E+06    -78.8291E+06    -645.410E+03
            1741     138.522E-03     4.79155E-03     138.439E-03     450.128E-03    -224.702E-03    -225.426E-03    -224.695E-03     450.120E-03    -225.426E-03     4.37889E-03     454.504E-03     125.419E+06    -54.9796E+06    -118.460E+06    -199.189E+06    -118.482E+06    -199.167E+06    -54.9796E+06    -1.14997E+06
            1742     138.563E-03     5.59086E-03     138.450E-03     449.913E-03    -224.487E-03    -225.426E-03    -224.468E-03     449.894E-03    -225.426E-03     7.15969E-03     455.691E-03     119.935E+06    -32.8260E+06    -107.417E+06    -170.965E+06    -107.486E+06    -170.896E+06    -32.8260E+06    -1.94177E+06
            1743     138.615E-03     6.39020E-03     138.467E-03     449.606E-03    -224.209E-03    -225.397E-03    -224.167E-03     449.564E-03    -225.397E-03     10.4428E-03     456.919E-03     114.855E+06    -12.8772E+06    -96.2816E+06    -143.622E+06    -96.4293E+06    -143.474E+06    -12.8772E+06    -2.54895E+06
            1744     138.675E-03     7.18921E-03     138.489E-03     449.209E-03    -223.873E-03    -225.336E-03    -223.795E-03     449.131E-03    -225.336E-03     14.3281E-03     458.187E-03     109.242E+06     5.10578E+06    -85.4021E+06    -115.918E+06    -85.7249E+06    -115.595E+06     5.10578E+06    -2.69612E+06
            1745     138.748E-03     7.98935E-03     138.518E-03     448.824E-03    -223.580E-03    -225.244E-03    -223.447E-03     448.691E-03    -225.244E-03     18.7601E-03     459.581E-03     102.280E+06     21.3641E+06    -72.8035E+06    -87.1321E+06    -75.2266E+06    -84.7090E+06     21.3641E+06    -2.86155E+06
            1746     138.831E-03     8.78947E-03     138.552E-03     448.487E-03    -223.355E-03    -225.131E-03    -223.146E-03     448.277E-03    -225.131E-03     23.5978E-03     461.166E-03     95.8174E+06     35.4298E+06    -51.6868E+06    -66.6963E+06    -65.3230E+06    -53.0602E+06     35.4298E+06    -3.06448E+06
            1747     138.926E-03     9.58975E-03     138.595E-03     448.110E-03    -223.108E-03    -225.002E-03    -222.791E-03     447.793E-03    -225.002E-03     28.9981E-03     462.875E-03     91.8565E+06     47.6586E+06    -17.3576E+06    -55.8999E+06    -55.6386E+06    -17.6189E+06     47.6586E+06    -2.01585E+06
            1748     139.035E-03     10.3904E-03     138.646E-03     447.708E-03    -222.855E-03    -224.854E-03    -222.389E-03     447.243E-03    -224.854E-03     35.1801E-03     464.818E-03     94.3986E+06     58.5069E+06     25.9302E+06    -46.0579E+06    -45.9634E+06     25.8357E+06     58.5069E+06     1.12007E+06
            1749     139.156E-03     11.1922E-03     138.705E-03     447.540E-03    -222.843E-03    -224.696E-03    -222.166E-03     446.862E-03    -224.696E-03     42.4138E-03     467.644E-03     118.991E+06     94.0209E+06     62.0266E+06    -37.1501E+06    -37.0069E+06     86.6135E+06     69.2908E+06     4.06878E+06
            1750     139.294E-03     11.9934E-03     138.776E-03     447.500E-03    -222.887E-03    -224.613E-03    -221.999E-03     446.611E-03    -224.613E-03     48.7094E-03     470.266E-03     141.528E+06     130.264E+06     83.5395E+06    -28.6741E+06    -28.5611E+06     130.151E+06     83.5395E+06     3.95294E+06
            1751     139.440E-03     12.7951E-03     138.852E-03     447.548E-03    -222.900E-03    -224.648E-03    -221.515E-03     446.163E-03    -224.648E-03     60.1901E-03     477.209E-03     151.747E+06     145.300E+06     111.048E+06    -20.2758E+06    -20.2323E+06     145.257E+06     111.048E+06     2.65277E+06
            1752     139.620E-03     13.5978E-03     138.956E-03     447.522E-03    -222.744E-03    -224.778E-03    -221.176E-03     445.954E-03    -224.778E-03     64.5888E-03     477.265E-03     180.929E+06     177.746E+06     160.355E+06    -11.0645E+06    -11.0460E+06     172.595E+06     165.489E+06     1.65345E+06
            1753     139.992E-03     799.180E-06     139.990E-03     449.909E-03    -224.742E-03    -225.168E-03    -225.101E-03     449.909E-03    -224.808E-03     156.046E-06     450.092E-03     155.723E+06    -155.842E+06    -163.223E+06    -315.118E+06    -160.923E+06    -315.081E+06    -158.179E+06    -371.740E+03
            1754     140.000E-03     1.59710E-03     139.991E-03     450.300E-03    -225.059E-03    -225.241E-03    -225.236E-03     450.300E-03    -225.064E-03     526.550E-06     450.860E-03     149.080E+06    -145.721E+06    -156.956E+06    -300.019E+06    -156.965E+06    -300.009E+06    -145.721E+06    -952.629E+03
            1755     140.012E-03     2.39555E-03     139.992E-03     450.358E-03    -225.090E-03    -225.268E-03    -225.152E-03     450.357E-03    -225.205E-03     1.02864E-03     451.534E-03     143.231E+06    -126.830E+06    -150.242E+06    -280.179E+06    -150.268E+06    -280.153E+06    -126.830E+06    -1.37790E+06
            1756     140.030E-03     3.19436E-03     139.993E-03     450.333E-03    -225.016E-03    -225.317E-03    -225.036E-03     450.330E-03    -225.294E-03     2.12515E-03     452.353E-03     136.663E+06    -103.632E+06    -140.872E+06    -254.862E+06    -140.906E+06    -254.828E+06    -103.632E+06    -1.62185E+06
            1757     140.055E-03     3.99266E-03     139.999E-03     450.107E-03    -224.766E-03    -225.342E-03    -224.761E-03     450.102E-03    -225.342E-03     3.49398E-03     453.184E-03     130.285E+06    -79.5416E+06    -130.609E+06    -227.394E+06    -130.655E+06    -227.348E+06    -79.5416E+06    -1.93380E+06
            1758     140.088E-03     4.79237E-03     140.006E-03     449.860E-03    -224.511E-03    -225.350E-03    -224.498E-03     449.848E-03    -225.350E-03     5.58005E-03     454.176E-03     124.151E+06    -55.5230E+06    -119.343E+06    -198.363E+06    -119.410E+06    -198.296E+06    -55.5230E+06    -2.16028E+06
            1759     140.130E-03     5.59107E-03     140.018E-03     449.746E-03    -224.406E-03    -225.341E-03    -224.379E-03     449.719E-03    -225.341E-03     8.30377E-03     455.463E-03     118.729E+06    -32.8059E+06    -108.116E+06    -169.388E+06    -108.211E+06    -169.293E+06    -32.8059E+06    -2.33413E+06
            1760     140.180E-03     6.39011E-03     140.034E-03     449.514E-03    -224.199E-03    -225.316E-03    -224.147E-03     449.463E-03    -225.316E-03     11.5600E-03     456.774E-03     113.679E+06    -12.7453E+06    -97.2600E+06    -141.749E+06    -97.5044E+06    -141.504E+06    -12.7453E+06    -3.03063E+06
            1761     140.240E-03     7.19002E-03     140.056E-03     449.170E-03    -223.907E-03    -225.263E-03    -223.818E-03     449.082E-03    -225.263E-03     15.2797E-03     458.103E-03     108.800E+06     4.94476E+06    -86.1129E+06    -115.282E+06    -86.7194E+06    -114.676E+06     4.94476E+06    -3.88841E+06
            1762     140.311E-03     7.98974E-03     140.083E-03     448.723E-03    -223.546E-03    -225.177E-03    -223.404E-03     448.581E-03    -225.177E-03     19.3978E-03     459.443E-03     102.371E+06     21.0109E+06    -72.6203E+06    -88.0693E+06    -76.4351E+06    -84.2545E+06     21.0109E+06    -4.13393E+06
            1763     140.394E-03     8.79002E-03     140.118E-03     448.352E-03    -223.285E-03    -225.067E-03    -223.064E-03     448.130E-03    -225.067E-03     24.2409E-03     461.002E-03     96.3651E+06     35.3675E+06    -51.5556E+06    -67.8777E+06    -66.3513E+06    -53.0820E+06     35.3675E+06    -3.83497E+06
            1764     140.488E-03     9.59020E-03     140.160E-03     447.959E-03    -223.024E-03    -224.935E-03    -222.692E-03     447.627E-03    -224.935E-03     29.6931E-03     462.713E-03     92.6815E+06     47.0654E+06    -19.1991E+06    -57.3958E+06    -57.0113E+06    -19.5837E+06     47.0654E+06    -3.40096E+06
            1765     140.594E-03     10.3915E-03     140.209E-03     447.525E-03    -222.744E-03    -224.781E-03    -222.266E-03     447.048E-03    -224.781E-03     35.6193E-03     464.606E-03     92.4749E+06     56.1439E+06     19.1114E+06    -47.8640E+06    -47.7006E+06     18.9479E+06     56.1439E+06    -1.89248E+06
            1766     140.715E-03     11.1926E-03     140.269E-03     447.216E-03    -222.604E-03    -224.612E-03    -221.920E-03     446.532E-03    -224.612E-03     42.5986E-03     467.231E-03     116.440E+06     91.6902E+06     55.7537E+06    -38.2710E+06    -38.1844E+06     80.6134E+06     66.7439E+06     1.00542E+06
            1767     140.852E-03     11.9944E-03     140.340E-03     447.134E-03    -222.624E-03    -224.510E-03    -221.735E-03     446.245E-03    -224.510E-03     48.7133E-03     469.807E-03     142.533E+06     131.080E+06     81.5599E+06    -29.5921E+06    -29.5472E+06     131.035E+06     81.5599E+06     2.58968E+06
            1768     140.998E-03     12.7962E-03     140.416E-03     447.612E-03    -223.069E-03    -224.543E-03    -221.706E-03     446.249E-03    -224.543E-03     59.7841E-03     476.759E-03     152.546E+06     146.851E+06     107.694E+06    -21.0825E+06    -21.0517E+06     146.820E+06     107.694E+06     2.11944E+06
            1769     141.174E-03     13.5985E-03     140.518E-03     447.734E-03    -223.026E-03    -224.708E-03    -221.451E-03     446.160E-03    -224.708E-03     64.8057E-03     477.020E-03     181.951E+06     179.479E+06     159.675E+06    -11.2589E+06    -11.2482E+06     174.247E+06     164.896E+06     1.17642E+06
            1770     141.558E-03     798.869E-06     141.556E-03     448.938E-03    -224.231E-03    -224.707E-03    -224.273E-03     448.937E-03    -224.664E-03     585.288E-06     449.114E-03     152.138E+06    -157.998E+06    -164.966E+06    -313.497E+06    -163.139E+06    -313.454E+06    -159.867E+06    -414.923E+03
            1771     141.568E-03     1.59847E-03     141.559E-03     448.935E-03    -224.376E-03    -224.559E-03    -224.420E-03     448.935E-03    -224.515E-03     1.40676E-03     449.478E-03     145.764E+06    -146.927E+06    -158.587E+06    -298.077E+06    -158.609E+06    -298.055E+06    -146.927E+06    -1.22957E+06
            1772     141.578E-03     2.39760E-03     141.558E-03     449.383E-03    -224.620E-03    -224.763E-03    -224.756E-03     449.381E-03    -224.625E-03     2.34527E-03     450.524E-03     141.165E+06    -127.086E+06    -151.025E+06    -278.558E+06    -151.066E+06    -278.517E+06    -127.086E+06    -2.02198E+06
            1773     141.598E-03     3.19595E-03     141.562E-03     449.735E-03    -224.793E-03    -224.942E-03    -224.935E-03     449.730E-03    -224.794E-03     3.76469E-03     451.706E-03     135.089E+06    -104.031E+06    -141.707E+06    -253.738E+06    -141.754E+06    -253.691E+06    -104.031E+06    -2.14661E+06
            1774     141.622E-03     3.99471E-03     141.566E-03     449.688E-03    -224.722E-03    -224.966E-03    -224.746E-03     449.677E-03    -224.931E-03     5.26755E-03     452.701E-03     128.059E+06    -79.9255E+06    -131.735E+06    -225.520E+06    -131.829E+06    -225.426E+06    -79.9255E+06    -2.80366E+06
            1775     141.655E-03     4.79325E-03     141.574E-03     449.462E-03    -224.435E-03    -225.027E-03    -224.438E-03     449.441E-03    -225.002E-03     7.43509E-03     453.710E-03     122.493E+06    -56.2179E+06    -120.868E+06    -197.262E+06    -121.031E+06    -197.098E+06    -56.2179E+06    -3.40738E+06
            1776     141.696E-03     5.59288E-03     141.586E-03     449.292E-03    -224.265E-03    -225.027E-03    -224.226E-03     449.254E-03    -225.027E-03     10.0492E-03     454.943E-03     117.424E+06    -33.5689E+06    -109.194E+06    -168.583E+06    -109.440E+06    -168.337E+06    -33.5689E+06    -3.58884E+06
            1777     141.746E-03     6.39239E-03     141.601E-03     449.222E-03    -224.191E-03    -225.031E-03    -224.126E-03     449.156E-03    -225.031E-03     13.1676E-03     456.415E-03     112.522E+06    -12.7232E+06    -97.5427E+06    -140.102E+06    -97.9058E+06    -139.739E+06    -12.7232E+06    -3.77991E+06
            1778     141.805E-03     7.19147E-03     141.623E-03     449.031E-03    -224.016E-03    -225.014E-03    -223.911E-03     448.925E-03    -225.014E-03     16.7200E-03     457.901E-03     107.911E+06     5.48676E+06    -86.2233E+06    -113.160E+06    -87.2039E+06    -112.179E+06     5.48676E+06    -4.42108E+06
            1779     141.875E-03     7.99108E-03     141.650E-03     448.640E-03    -223.677E-03    -224.964E-03    -223.513E-03     448.476E-03    -224.964E-03     20.8373E-03     459.317E-03     102.297E+06     21.5242E+06    -72.1685E+06    -87.5390E+06    -76.6344E+06    -83.0732E+06     21.5242E+06    -5.19943E+06
            1780     141.956E-03     8.79118E-03     141.683E-03     448.138E-03    -223.264E-03    -224.873E-03    -223.018E-03     447.891E-03    -224.873E-03     25.5867E-03     460.763E-03     96.6678E+06     35.3593E+06    -50.9099E+06    -68.7827E+06    -66.3145E+06    -53.3782E+06     35.3593E+06    -5.04471E+06
            1781     142.049E-03     9.59230E-03     141.725E-03     447.836E-03    -223.081E-03    -224.755E-03    -222.724E-03     447.479E-03    -224.755E-03     30.7949E-03     462.563E-03     92.4494E+06     47.1638E+06    -19.6097E+06    -57.1630E+06    -56.4630E+06    -20.3096E+06     47.1638E+06    -4.49004E+06
            1782     142.154E-03     10.3926E-03     141.774E-03     447.661E-03    -223.033E-03    -224.627E-03    -222.530E-03     447.158E-03    -224.627E-03     36.5781E-03     464.754E-03     91.8658E+06     55.9347E+06     16.2646E+06    -47.9475E+06    -47.6808E+06     15.9979E+06     55.9347E+06    -3.91371E+06
            1783     142.274E-03     11.1939E-03     141.833E-03     447.238E-03    -222.758E-03    -224.480E-03    -222.046E-03     446.525E-03    -224.480E-03     43.4975E-03     467.291E-03     113.441E+06     87.6075E+06     52.3054E+06    -39.2322E+06    -39.1184E+06     74.7937E+06     65.0054E+06    -2.34087E+06
            1784     142.409E-03     11.9958E-03     141.903E-03     447.082E-03    -222.700E-03    -224.383E-03    -221.780E-03     446.163E-03    -224.383E-03     49.5465E-03     469.790E-03     139.962E+06     127.905E+06     79.0405E+06    -29.9227E+06    -29.8853E+06     127.868E+06     79.0405E+06     106.097E+03
            1785     142.556E-03     12.7979E-03     141.980E-03     447.799E-03    -223.375E-03    -224.424E-03    -222.000E-03     446.425E-03    -224.424E-03     60.1071E-03     476.985E-03     152.720E+06     148.234E+06     104.499E+06    -21.2563E+06    -21.2481E+06     148.225E+06     104.499E+06     920.683E+03
            1786     142.730E-03     13.5994E-03     142.081E-03     448.072E-03    -223.442E-03    -224.631E-03    -221.861E-03     446.491E-03    -224.631E-03     65.0044E-03     477.409E-03     182.831E+06     181.121E+06     157.956E+06    -11.7088E+06    -11.7069E+06     175.426E+06     163.649E+06     299.870E+03
            1787     143.124E-03     799.566E-06     143.122E-03     447.197E-03    -223.402E-03    -223.795E-03    -223.418E-03     447.197E-03    -223.779E-03     1.29636E-03     447.368E-03     149.165E+06    -159.231E+06    -166.222E+06    -311.765E+06    -164.399E+06    -311.719E+06    -161.101E+06    -1.00739E+06
            1788     143.130E-03     1.59959E-03     143.121E-03     447.213E-03    -223.514E-03    -223.699E-03    -223.563E-03     447.211E-03    -223.647E-03     2.31259E-03     447.731E-03     142.825E+06    -147.988E+06    -159.605E+06    -296.172E+06    -159.637E+06    -296.139E+06    -147.988E+06    -1.23470E+06
            1789     143.145E-03     2.39924E-03     143.125E-03     447.709E-03    -223.767E-03    -223.943E-03    -223.937E-03     447.704E-03    -223.767E-03     3.72383E-03     448.807E-03     137.543E+06    -128.008E+06    -152.624E+06    -276.018E+06    -152.677E+06    -275.964E+06    -128.008E+06    -1.83436E+06
            1790     143.163E-03     3.19861E-03     143.128E-03     448.112E-03    -223.954E-03    -224.158E-03    -224.147E-03     448.101E-03    -223.954E-03     5.28088E-03     450.020E-03     132.222E+06    -104.503E+06    -143.469E+06    -251.617E+06    -143.557E+06    -251.529E+06    -104.503E+06    -2.82305E+06
            1791     143.189E-03     3.99786E-03     143.133E-03     448.456E-03    -224.135E-03    -224.321E-03    -224.300E-03     448.435E-03    -224.135E-03     7.34705E-03     451.390E-03     125.854E+06    -79.5634E+06    -132.467E+06    -222.976E+06    -132.605E+06    -222.839E+06    -79.5634E+06    -3.45167E+06
            1792     143.221E-03     4.79701E-03     143.140E-03     448.722E-03    -224.153E-03    -224.569E-03    -224.390E-03     448.686E-03    -224.296E-03     9.70254E-03     452.883E-03     120.605E+06    -55.7092E+06    -121.267E+06    -194.671E+06    -121.553E+06    -194.384E+06    -55.7092E+06    -4.39267E+06
            1793     143.261E-03     5.59600E-03     143.151E-03     448.689E-03    -224.112E-03    -224.577E-03    -224.215E-03     448.632E-03    -224.417E-03     12.2945E-03     454.248E-03     116.217E+06    -33.6204E+06    -109.730E+06    -167.156E+06    -110.195E+06    -166.691E+06    -33.6204E+06    -5.06122E+06
            1794     143.311E-03     6.39526E-03     143.168E-03     448.568E-03    -224.072E-03    -224.496E-03    -223.991E-03     448.478E-03    -224.487E-03     15.4031E-03     455.670E-03     111.761E+06    -12.9900E+06    -97.8126E+06    -139.375E+06    -98.6064E+06    -138.581E+06    -12.9900E+06    -5.27053E+06
            1795     143.370E-03     7.19491E-03     143.189E-03     448.402E-03    -223.889E-03    -224.513E-03    -223.751E-03     448.264E-03    -224.513E-03     19.0934E-03     457.190E-03     106.834E+06     5.78342E+06    -85.4997E+06    -111.438E+06    -87.0854E+06    -109.852E+06     5.78342E+06    -5.65331E+06
            1796     143.438E-03     7.99481E-03     143.215E-03     448.252E-03    -223.748E-03    -224.504E-03    -223.542E-03     448.046E-03    -224.504E-03     23.3546E-03     458.863E-03     101.671E+06     21.9099E+06    -70.9694E+06    -86.6658E+06    -76.4111E+06    -81.2242E+06     21.9099E+06    -6.01719E+06
            1797     143.518E-03     8.79485E-03     143.248E-03     448.161E-03    -223.689E-03    -224.472E-03    -223.398E-03     447.870E-03    -224.472E-03     27.8396E-03     460.731E-03     96.8614E+06     35.4292E+06    -49.5178E+06    -69.6926E+06    -66.5983E+06    -52.6121E+06     35.4292E+06    -6.42137E+06
            1798     143.609E-03     9.59488E-03     143.289E-03     447.986E-03    -223.567E-03    -224.420E-03    -223.164E-03     447.584E-03    -224.420E-03     32.7438E-03     462.679E-03     92.8232E+06     47.1837E+06    -19.2569E+06    -57.9610E+06    -56.6786E+06    -20.5394E+06     47.1837E+06    -6.45550E+06
            1799     143.715E-03     10.3958E-03     143.339E-03     447.760E-03    -223.411E-03    -224.349E-03    -222.866E-03     447.215E-03    -224.349E-03     38.1197E-03     464.845E-03     91.9475E+06     56.7166E+06     15.4142E+06    -47.5892E+06    -46.9799E+06     14.8049E+06     56.7166E+06    -5.68580E+06
            1800     143.832E-03     11.1966E-03     143.396E-03     447.583E-03    -223.333E-03    -224.251E-03    -222.582E-03     446.832E-03    -224.251E-03     44.6986E-03     467.664E-03     110.887E+06     85.4306E+06     51.4429E+06    -38.4538E+06    -38.2196E+06     71.3438E+06     65.2956E+06    -4.25359E+06
            1801     143.967E-03     11.9979E-03     143.467E-03     447.627E-03    -223.422E-03    -224.204E-03    -222.461E-03     446.665E-03    -224.204E-03     50.7183E-03     470.384E-03     136.979E+06     123.602E+06     77.7691E+06    -30.3814E+06    -30.3178E+06     123.539E+06     77.7691E+06    -2.53958E+06
            1802     144.113E-03     12.7990E-03     143.544E-03     448.248E-03    -223.842E-03    -224.406E-03    -222.560E-03     446.844E-03    -224.284E-03     60.8578E-03     477.539E-03     151.795E+06     147.717E+06     102.032E+06    -21.4972E+06    -21.4638E+06     147.683E+06     102.032E+06    -1.47584E+06
            1803     144.288E-03     13.6010E-03     143.645E-03     448.619E-03    -223.960E-03    -224.658E-03    -222.489E-03     447.026E-03    -224.537E-03     65.2838E-03     478.000E-03     181.840E+06     181.818E+06     155.364E+06    -11.1799E+06    -11.1688E+06     175.339E+06     161.832E+06    -794.099E+03
            1804     144.684E-03     801.153E-06     144.682E-03     444.490E-03    -221.988E-03    -222.502E-03    -222.491E-03     444.489E-03    -221.998E-03     1.93815E-03     444.655E-03     146.593E+06    -159.541E+06    -167.749E+06    -310.063E+06    -165.342E+06    -310.033E+06    -161.978E+06    -341.911E+03
            1805     144.692E-03     1.60158E-03     144.683E-03     444.872E-03    -222.357E-03    -222.514E-03    -222.508E-03     444.866E-03    -222.357E-03     3.75170E-03     445.366E-03     139.978E+06    -148.117E+06    -160.905E+06    -293.953E+06    -160.942E+06    -293.916E+06    -148.117E+06    -1.09807E+06
            1806     144.707E-03     2.40202E-03     144.687E-03     445.125E-03    -222.520E-03    -222.606E-03    -222.592E-03     445.112E-03    -222.520E-03     5.89771E-03     446.182E-03     133.690E+06    -127.925E+06    -153.440E+06    -272.354E+06    -153.505E+06    -272.289E+06    -127.925E+06    -2.14612E+06
            1807     144.726E-03     3.20248E-03     144.691E-03     445.676E-03    -222.700E-03    -222.976E-03    -222.951E-03     445.651E-03    -222.700E-03     7.90127E-03     447.513E-03     129.087E+06    -103.890E+06    -143.839E+06    -248.017E+06    -143.998E+06    -247.857E+06    -103.890E+06    -3.82161E+06
            1808     144.752E-03     4.00259E-03     144.696E-03     446.434E-03    -222.927E-03    -223.508E-03    -223.467E-03     446.394E-03    -222.927E-03     10.2189E-03     449.269E-03     124.131E+06    -78.9632E+06    -132.519E+06    -220.643E+06    -132.791E+06    -220.372E+06    -78.9632E+06    -4.72842E+06
            1809     144.785E-03     4.80222E-03     144.706E-03     447.120E-03    -223.175E-03    -223.944E-03    -223.882E-03     447.057E-03    -223.175E-03     12.7188E-03     451.160E-03     118.783E+06    -54.6742E+06    -120.686E+06    -191.542E+06    -121.079E+06    -191.149E+06    -54.6742E+06    -5.12886E+06
            1810     144.825E-03     5.60136E-03     144.717E-03     447.519E-03    -223.405E-03    -224.114E-03    -224.021E-03     447.426E-03    -223.405E-03     15.5944E-03     452.949E-03     114.883E+06    -32.4457E+06    -109.055E+06    -164.343E+06    -109.820E+06    -163.578E+06    -32.4457E+06    -6.14848E+06
            1811     144.874E-03     6.40096E-03     144.733E-03     447.518E-03    -223.472E-03    -224.046E-03    -223.809E-03     447.384E-03    -223.575E-03     18.7735E-03     454.502E-03     110.806E+06    -12.2637E+06    -96.7272E+06    -137.506E+06    -98.0775E+06    -136.156E+06    -12.2637E+06    -7.05027E+06
            1812     144.933E-03     7.20092E-03     144.754E-03     447.558E-03    -223.457E-03    -224.100E-03    -223.688E-03     447.373E-03    -223.685E-03     22.1456E-03     456.235E-03     106.072E+06     5.95048E+06    -84.1813E+06    -110.707E+06    -86.6363E+06    -108.252E+06     5.95048E+06    -7.22343E+06
            1813     145.001E-03     8.00088E-03     144.780E-03     447.801E-03    -223.553E-03    -224.248E-03    -223.783E-03     447.548E-03    -223.766E-03     25.9404E-03     458.308E-03     101.314E+06     22.3135E+06    -68.8838E+06    -86.7114E+06    -75.8108E+06    -79.7845E+06     22.3135E+06    -7.36090E+06
            1814     145.081E-03     8.80070E-03     144.814E-03     448.101E-03    -223.742E-03    -224.359E-03    -223.923E-03     447.757E-03    -223.834E-03     30.2814E-03     460.591E-03     96.8824E+06     36.5350E+06    -46.9166E+06    -69.4023E+06    -65.6169E+06    -50.7019E+06     36.5350E+06    -7.60417E+06
            1815     145.172E-03     9.60025E-03     144.854E-03     448.208E-03    -223.749E-03    -224.459E-03    -223.866E-03     447.751E-03    -223.884E-03     34.9688E-03     462.859E-03     93.3648E+06     48.1762E+06    -17.5125E+06    -57.8408E+06    -56.0512E+06    -19.3021E+06     48.1762E+06    -7.96730E+06
            1816     145.275E-03     10.4001E-03     144.902E-03     448.193E-03    -223.648E-03    -224.545E-03    -223.682E-03     447.593E-03    -223.911E-03     40.0468E-03     465.248E-03     92.4510E+06     57.2357E+06     15.3509E+06    -47.8775E+06    -46.7518E+06     14.2252E+06     57.2357E+06    -8.14452E+06
            1817     145.393E-03     11.2007E-03     144.961E-03     448.341E-03    -223.733E-03    -224.608E-03    -223.631E-03     447.543E-03    -223.911E-03     46.1770E-03     468.390E-03     108.635E+06     82.7636E+06     50.8859E+06    -38.2097E+06    -37.6470E+06     67.5270E+06     65.5597E+06    -6.56902E+06
            1818     145.526E-03     12.0008E-03     145.031E-03     448.491E-03    -223.867E-03    -224.624E-03    -223.530E-03     447.487E-03    -223.957E-03     51.8895E-03     471.252E-03     134.355E+06     121.302E+06     78.5512E+06    -29.1223E+06    -28.9717E+06     121.152E+06     78.5512E+06    -4.29925E+06
            1819     145.673E-03     12.8017E-03     145.109E-03     449.072E-03    -224.062E-03    -225.009E-03    -223.524E-03     447.631E-03    -224.106E-03     61.7919E-03     478.378E-03     150.467E+06     146.869E+06     100.890E+06    -21.0843E+06    -21.0080E+06     146.793E+06     100.890E+06    -3.52959E+06
            1820     145.846E-03     13.6022E-03     145.210E-03     449.620E-03    -224.317E-03    -225.303E-03    -223.570E-03     448.001E-03    -224.431E-03     65.9341E-03     478.987E-03     180.054E+06     180.124E+06     151.756E+06    -11.8491E+06    -11.8071E+06     172.146E+06     159.692E+06    -2.25249E+06
            1821     146.240E-03     802.329E-06     146.238E-03     440.470E-03    -219.918E-03    -220.552E-03    -220.547E-03     440.465E-03    -219.918E-03     3.15178E-03     440.621E-03     142.158E+06    -161.340E+06    -169.146E+06    -307.234E+06    -166.741E+06    -307.203E+06    -163.777E+06    -1.18031E+06
            1822     146.249E-03     1.60437E-03     146.240E-03     441.019E-03    -220.372E-03    -220.647E-03    -220.632E-03     441.004E-03    -220.372E-03     5.97587E-03     441.485E-03     136.275E+06    -149.106E+06    -161.345E+06    -290.979E+06    -161.403E+06    -290.921E+06    -149.106E+06    -2.06655E+06
            1823     146.263E-03     2.40656E-03     146.244E-03     441.580E-03    -220.605E-03    -220.975E-03    -220.946E-03     441.551E-03    -220.605E-03     8.56436E-03     442.577E-03     129.657E+06    -128.174E+06    -153.576E+06    -268.449E+06    -153.673E+06    -268.352E+06    -128.174E+06    -3.12545E+06
            1824     146.284E-03     3.20853E-03     146.249E-03     442.389E-03    -220.873E-03    -221.516E-03    -221.467E-03     442.340E-03    -220.873E-03     11.2504E-03     444.137E-03     124.588E+06    -103.307E+06    -143.555E+06    -242.813E+06    -143.786E+06    -242.581E+06    -103.307E+06    -4.49131E+06
            1825     146.312E-03     4.00935E-03     146.257E-03     443.491E-03    -221.193E-03    -222.299E-03    -222.221E-03     443.414E-03    -221.193E-03     14.1193E-03     446.211E-03     121.511E+06    -78.1732E+06    -132.279E+06    -217.146E+06    -132.747E+06    -216.677E+06    -78.1732E+06    -6.14290E+06
            1826     146.346E-03     4.80982E-03     146.267E-03     444.521E-03    -221.541E-03    -222.980E-03    -222.869E-03     444.410E-03    -221.541E-03     16.9897E-03     448.417E-03     117.384E+06    -53.9075E+06    -119.897E+06    -189.181E+06    -120.683E+06    -188.394E+06    -53.9075E+06    -7.01906E+06
            1827     146.388E-03     5.61020E-03     146.280E-03     445.443E-03    -221.884E-03    -223.559E-03    -223.410E-03     445.293E-03    -221.884E-03     19.8358E-03     450.701E-03     112.941E+06    -31.0674E+06    -107.220E+06    -160.619E+06    -108.413E+06    -159.426E+06    -31.0674E+06    -7.62409E+06
            1828     146.436E-03     6.40980E-03     146.296E-03     446.256E-03    -222.205E-03    -224.050E-03    -223.855E-03     446.060E-03    -222.205E-03     22.7223E-03     453.075E-03     109.664E+06    -10.8603E+06    -94.7448E+06    -134.776E+06    -96.7912E+06    -132.730E+06    -10.8603E+06    -8.43733E+06
            1829     146.495E-03     7.20942E-03     146.317E-03     446.936E-03    -222.495E-03    -224.441E-03    -224.189E-03     446.684E-03    -222.495E-03     25.8463E-03     455.474E-03     105.723E+06     7.23682E+06    -81.5412E+06    -109.570E+06    -85.3060E+06    -105.805E+06     7.23682E+06    -9.04955E+06
            1830     146.564E-03     8.00869E-03     146.345E-03     447.529E-03    -222.750E-03    -224.778E-03    -224.460E-03     447.211E-03    -222.750E-03     29.1269E-03     457.908E-03     101.262E+06     23.5696E+06    -65.5944E+06    -86.4826E+06    -74.1109E+06    -77.9662E+06     23.5696E+06    -9.30946E+06
            1831     146.643E-03     8.80797E-03     146.378E-03     447.926E-03    -222.967E-03    -224.958E-03    -224.552E-03     447.519E-03    -222.967E-03     32.9574E-03     460.315E-03     96.7470E+06     37.8874E+06    -43.9416E+06    -68.6544E+06    -63.3975E+06    -49.1985E+06     37.8874E+06    -9.31815E+06
            1832     146.734E-03     9.60751E-03     146.420E-03     448.351E-03    -223.146E-03    -225.205E-03    -224.686E-03     447.832E-03    -223.146E-03     37.2951E-03     462.919E-03     93.1895E+06     49.6118E+06    -15.3289E+06    -56.3478E+06    -53.9273E+06    -17.7494E+06     49.6118E+06    -9.12057E+06
            1833     146.837E-03     10.4068E-03     146.468E-03     448.934E-03    -223.307E-03    -225.626E-03    -224.961E-03     448.269E-03    -223.307E-03     42.2473E-03     465.939E-03     92.8498E+06     58.5758E+06     17.2184E+06    -46.8776E+06    -45.4970E+06     15.8379E+06     58.5758E+06    -9.14704E+06
            1834     146.955E-03     11.2055E-03     146.527E-03     449.408E-03    -223.447E-03    -225.961E-03    -225.094E-03     448.541E-03    -223.447E-03     48.2409E-03     469.433E-03     107.026E+06     80.5121E+06     51.4297E+06    -38.0073E+06    -37.1360E+06     65.2640E+06     65.8066E+06    -8.98805E+06
            1835     147.088E-03     12.0049E-03     146.597E-03     449.670E-03    -223.616E-03    -226.054E-03    -224.996E-03     448.612E-03    -223.616E-03     53.3889E-03     472.448E-03     131.395E+06     117.643E+06     77.7392E+06    -28.9111E+06    -28.4877E+06     117.220E+06     77.7392E+06    -7.25021E+06
            1836     147.233E-03     12.8043E-03     146.675E-03     450.398E-03    -223.875E-03    -226.524E-03    -225.039E-03     448.914E-03    -223.875E-03     62.8771E-03     479.715E-03     147.711E+06     144.945E+06     99.6178E+06    -19.9874E+06    -19.8227E+06     144.781E+06     99.6178E+06    -4.69952E+06
            1837     147.406E-03     13.6043E-03     146.777E-03     451.169E-03    -224.306E-03    -226.864E-03    -225.215E-03     449.520E-03    -224.306E-03     66.6899E-03     480.522E-03     175.888E+06     177.530E+06     147.926E+06    -10.8037E+06    -10.7555E+06     168.007E+06     157.401E+06    -2.69809E+06
            1838     147.788E-03     804.777E-06     147.786E-03     434.859E-03    -217.287E-03    -217.572E-03    -217.464E-03     434.850E-03    -217.386E-03     4.45231E-03     434.999E-03     137.136E+06    -162.255E+06    -169.748E+06    -302.978E+06    -167.953E+06    -302.951E+06    -164.076E+06    -1.04623E+06
            1839     147.799E-03     1.60965E-03     147.790E-03     435.529E-03    -217.582E-03    -217.947E-03    -217.918E-03     435.501E-03    -217.582E-03     8.29193E-03     435.957E-03     130.582E+06    -149.626E+06    -162.155E+06    -285.910E+06    -162.258E+06    -285.808E+06    -149.626E+06    -3.07621E+06
            1840     147.815E-03     2.41309E-03     147.795E-03     436.747E-03    -217.917E-03    -218.830E-03    -218.773E-03     436.690E-03    -217.917E-03     11.9549E-03     437.670E-03     124.373E+06    -128.693E+06    -153.788E+06    -263.501E+06    -154.032E+06    -263.256E+06    -128.693E+06    -4.81668E+06
            1841     147.836E-03     3.21594E-03     147.801E-03     438.054E-03    -218.349E-03    -219.705E-03    -219.611E-03     437.960E-03    -218.349E-03     15.3961E-03     439.695E-03     119.100E+06    -103.732E+06    -143.466E+06    -237.362E+06    -143.914E+06    -236.913E+06    -103.732E+06    -6.24242E+06
            1842     147.866E-03     4.01902E-03     147.812E-03     439.452E-03    -218.818E-03    -220.634E-03    -220.497E-03     439.315E-03    -218.818E-03     18.7807E-03     442.023E-03     117.159E+06    -77.6473E+06    -131.630E+06    -211.875E+06    -132.419E+06    -211.086E+06    -77.6473E+06    -7.65782E+06
            1843     147.902E-03     4.82081E-03     147.824E-03     441.134E-03    -219.312E-03    -221.822E-03    -221.638E-03     440.951E-03    -219.312E-03     21.8549E-03     444.849E-03     114.780E+06    -53.1314E+06    -119.080E+06    -185.431E+06    -120.397E+06    -184.114E+06    -53.1314E+06    -9.05074E+06
            1844     147.945E-03     5.62164E-03     147.838E-03     442.864E-03    -219.836E-03    -223.029E-03    -222.798E-03     442.634E-03    -219.836E-03     24.5925E-03     447.929E-03     110.905E+06    -30.5153E+06    -106.037E+06    -157.654E+06    -108.232E+06    -155.459E+06    -30.5153E+06    -9.98138E+06
            1845     147.997E-03     6.42188E-03     147.857E-03     444.586E-03    -220.376E-03    -224.210E-03    -223.927E-03     444.302E-03    -220.376E-03     27.3681E-03     451.188E-03     108.164E+06    -9.73766E+06    -92.5102E+06    -131.980E+06    -95.9604E+06    -128.530E+06    -9.73766E+06    -10.7367E+06
            1846     148.056E-03     7.22076E-03     147.880E-03     446.100E-03    -220.904E-03    -225.196E-03    -224.848E-03     445.752E-03    -220.904E-03     30.4208E-03     454.429E-03     104.976E+06     8.39001E+06    -78.4059E+06    -108.185E+06    -84.1833E+06    -102.408E+06     8.39001E+06    -11.3061E+06
            1847     148.126E-03     8.01948E-03     147.909E-03     447.208E-03    -221.392E-03    -225.816E-03    -225.396E-03     446.788E-03    -221.392E-03     33.5072E-03     457.410E-03     100.902E+06     24.2276E+06    -62.0269E+06    -86.6970E+06    -73.0687E+06    -75.6552E+06     24.2276E+06    -11.5138E+06
            1848     148.205E-03     8.81788E-03     147.943E-03     448.059E-03    -221.823E-03    -226.236E-03    -225.734E-03     447.556E-03    -221.823E-03     36.6977E-03     460.288E-03     96.5340E+06     37.9989E+06    -41.4036E+06    -69.2841E+06      -62.48E+06    -48.2077E+06     37.9989E+06    -11.3723E+06
            1849     148.296E-03     9.61639E-03     147.984E-03     448.866E-03    -222.198E-03    -226.667E-03    -226.060E-03     448.258E-03    -222.198E-03     40.4192E-03     463.287E-03     92.8206E+06     49.9068E+06    -13.5741E+06    -55.8829E+06    -52.5035E+06    -16.9535E+06     49.9068E+06    -10.7797E+06
            1850     148.401E-03     10.4145E-03     148.035E-03     449.758E-03    -222.539E-03    -227.219E-03    -226.475E-03     449.014E-03    -222.539E-03     44.7791E-03     466.638E-03     92.0654E+06     59.5582E+06     19.2326E+06    -44.9290E+06    -43.1558E+06     17.4594E+06     59.5582E+06    -10.2513E+06
            1851     148.518E-03     11.2127E-03     148.094E-03     450.568E-03    -222.844E-03    -227.725E-03    -226.782E-03     449.626E-03    -222.844E-03     50.4288E-03     470.509E-03     106.825E+06     82.6612E+06     53.3532E+06    -35.7294E+06    -34.5331E+06     67.5402E+06     67.2779E+06    -10.7572E+06
            1852     148.652E-03     12.0103E-03     148.166E-03     451.287E-03    -223.177E-03    -228.110E-03    -226.984E-03     450.161E-03    -223.177E-03     55.2360E-03     474.021E-03     126.527E+06     113.336E+06     78.0482E+06    -27.0038E+06    -26.2525E+06     112.584E+06     78.0482E+06    -10.0263E+06
            1853     148.796E-03     12.8083E-03     148.243E-03     452.423E-03    -223.591E-03    -228.833E-03    -227.299E-03     450.889E-03    -223.591E-03     64.1613E-03     481.683E-03     140.821E+06     137.706E+06     97.9382E+06    -18.6537E+06    -18.3502E+06     137.402E+06     97.9382E+06    -6.12349E+06
            1854     148.970E-03     13.6060E-03     148.347E-03     453.265E-03    -224.162E-03    -229.104E-03    -227.425E-03     451.587E-03    -224.162E-03     67.4668E-03     482.537E-03     171.734E+06     174.593E+06     144.341E+06    -9.83894E+06    -9.79663E+06     164.162E+06     154.729E+06    -2.21240E+06
            1855     149.327E-03     807.511E-06     149.325E-03     427.937E-03    -213.835E-03    -214.102E-03    -213.976E-03     427.921E-03    -213.945E-03     5.79291E-03     428.062E-03     132.405E+06    -162.962E+06    -167.832E+06    -297.706E+06    -166.072E+06    -297.645E+06    -164.783E+06    -2.02680E+06
            1856     149.338E-03     1.61444E-03     149.329E-03     428.817E-03    -214.142E-03    -214.675E-03    -214.629E-03     428.771E-03    -214.142E-03     10.4948E-03     429.204E-03     122.905E+06    -150.100E+06    -161.744E+06    -278.252E+06    -161.913E+06    -278.082E+06    -150.100E+06    -3.94391E+06
            1857     149.357E-03     2.42167E-03     149.337E-03     430.309E-03    -214.554E-03    -215.755E-03    -215.660E-03     430.214E-03    -214.554E-03     15.3691E-03     431.149E-03     117.448E+06    -128.775E+06    -153.820E+06    -256.524E+06    -154.241E+06    -256.103E+06    -128.775E+06    -6.37444E+06
            1858     149.382E-03     3.22715E-03     149.347E-03     432.382E-03    -215.115E-03    -217.268E-03    -217.113E-03     432.228E-03    -215.115E-03     19.8284E-03     433.886E-03     113.358E+06    -103.621E+06    -143.078E+06    -231.168E+06    -143.927E+06    -230.319E+06    -103.621E+06    -8.31802E+06
            1859     149.413E-03     4.03104E-03     149.359E-03     434.633E-03    -215.784E-03    -218.848E-03    -218.628E-03     434.412E-03    -215.784E-03     23.7690E-03     437.016E-03     111.846E+06    -77.7011E+06    -131.272E+06     -206.06E+06    -132.654E+06    -204.678E+06    -77.7011E+06    -9.86186E+06
            1860     149.453E-03     4.83447E-03     149.375E-03     437.040E-03    -216.509E-03    -220.532E-03    -220.245E-03     436.754E-03    -216.509E-03     27.2518E-03     440.530E-03     110.999E+06    -52.5868E+06    -118.163E+06    -180.536E+06    -120.324E+06    -178.375E+06    -52.5868E+06    -11.0536E+06
            1861     149.499E-03     5.63607E-03     149.393E-03     439.752E-03    -217.278E-03    -222.475E-03    -222.122E-03     439.400E-03    -217.278E-03     30.3439E-03     444.571E-03     108.372E+06    -29.4642E+06    -104.207E+06    -153.585E+06    -107.707E+06    -150.085E+06    -29.4642E+06    -12.3161E+06
            1862     149.553E-03     6.43622E-03     149.415E-03     442.424E-03    -218.084E-03    -224.340E-03    -223.924E-03     442.008E-03    -218.084E-03     33.1109E-03     448.764E-03     106.225E+06    -9.35920E+06      -90.35E+06    -129.520E+06    -95.9610E+06    -123.909E+06    -9.35920E+06    -13.3327E+06
            1863     149.616E-03     7.23552E-03     149.441E-03     444.737E-03    -218.887E-03    -225.850E-03    -225.369E-03     444.256E-03    -218.887E-03     35.7460E-03     452.775E-03     103.738E+06     8.28766E+06    -75.5785E+06    -107.662E+06    -84.4223E+06    -98.8187E+06     8.28766E+06    -13.8628E+06
            1864     149.687E-03     8.03354E-03     149.471E-03     446.701E-03    -219.650E-03    -227.052E-03    -226.501E-03     446.150E-03    -219.650E-03     38.4222E-03     456.622E-03     100.242E+06     23.9095E+06    -58.5013E+06    -87.6233E+06    -73.0647E+06    -73.0598E+06     23.9095E+06    -14.0404E+06
            1865     149.769E-03     8.83112E-03     149.508E-03     448.443E-03    -220.358E-03    -228.085E-03    -227.457E-03     447.815E-03    -220.358E-03     41.1279E-03     460.422E-03     96.3435E+06     37.4087E+06    -37.8599E+06    -70.9705E+06    -62.4626E+06    -46.3678E+06     37.4087E+06    -13.9538E+06
            1866     149.861E-03     9.62765E-03     149.551E-03     449.893E-03    -221.007E-03    -228.886E-03    -228.162E-03     449.169E-03    -221.007E-03     44.2297E-03     464.099E-03     92.6359E+06     49.2522E+06    -10.9967E+06    -56.8297E+06    -51.9407E+06    -15.8857E+06     49.2522E+06     -13.604E+06
            1867     149.966E-03     10.4243E-03     149.603E-03     451.074E-03    -221.595E-03    -229.479E-03    -228.635E-03     450.230E-03    -221.595E-03     47.8330E-03     467.759E-03     91.9773E+06     59.0834E+06     21.4058E+06    -44.8447E+06    -41.9453E+06     18.5064E+06     59.0834E+06    -13.1592E+06
            1868     150.084E-03     11.2206E-03     149.664E-03     452.143E-03    -222.118E-03    -230.025E-03    -229.012E-03     451.130E-03    -222.118E-03     52.4429E-03     471.899E-03     107.811E+06     84.5713E+06     54.8172E+06    -34.9761E+06    -33.2433E+06     70.3913E+06     67.2644E+06    -12.9019E+06
            1869     150.218E-03     12.0171E-03     149.736E-03     453.216E-03    -222.656E-03    -230.560E-03    -229.386E-03     452.042E-03    -222.656E-03     56.5987E-03     475.792E-03     123.061E+06     109.301E+06     76.6338E+06    -26.7808E+06    -25.8183E+06     108.338E+06     76.6338E+06    -11.2860E+06
            1870     150.363E-03     12.8126E-03     149.817E-03     454.689E-03    -223.254E-03    -231.435E-03    -229.855E-03     453.109E-03    -223.254E-03     65.3750E-03     483.807E-03     132.953E+06     127.229E+06     93.9698E+06    -19.1908E+06    -18.7956E+06     126.833E+06     93.9698E+06    -6.73659E+06
            1871     150.537E-03     13.6083E-03     149.921E-03     455.755E-03    -223.997E-03    -231.758E-03    -230.038E-03     454.035E-03    -223.997E-03     68.5652E-03     484.886E-03     168.113E+06     169.874E+06     140.639E+06    -10.6450E+06    -10.5996E+06     158.493E+06     151.975E+06    -2.04365E+06
            1872     150.854E-03     811.013E-06     150.852E-03     419.592E-03    -209.629E-03    -209.963E-03    -209.925E-03     419.564E-03    -209.640E-03     7.62535E-03     419.698E-03     125.913E+06    -162.015E+06    -164.896E+06    -289.315E+06    -164.900E+06    -289.216E+06    -162.111E+06    -2.87074E+06
            1873     150.867E-03     1.62158E-03     150.858E-03     420.982E-03    -210.037E-03    -210.945E-03    -210.869E-03     420.906E-03    -210.037E-03     13.4756E-03     421.325E-03     115.625E+06    -149.168E+06    -160.105E+06    -269.716E+06    -160.365E+06    -269.456E+06    -149.168E+06    -5.12797E+06
            1874     150.887E-03     2.43056E-03     150.868E-03     422.878E-03    -210.599E-03    -212.280E-03    -212.130E-03     422.729E-03    -210.599E-03     19.1406E-03     423.632E-03     110.718E+06    -127.381E+06    -152.253E+06    -248.173E+06    -152.874E+06    -247.552E+06    -127.381E+06    -7.39384E+06
            1875     150.916E-03     3.23938E-03     150.882E-03     425.532E-03    -211.307E-03    -214.225E-03    -213.984E-03     425.291E-03    -211.307E-03     24.5165E-03     426.878E-03     107.013E+06    -102.076E+06    -141.874E+06    -223.021E+06    -143.088E+06    -221.807E+06    -102.076E+06    -9.63564E+06
            1876     150.953E-03     4.04606E-03     150.899E-03     428.874E-03    -212.184E-03    -216.691E-03    -216.356E-03     428.539E-03    -212.184E-03     29.1710E-03     431.045E-03     107.065E+06    -75.9356E+06    -129.444E+06    -199.025E+06    -131.557E+06    -196.912E+06    -75.9356E+06    -11.6979E+06
            1877     150.996E-03     4.85038E-03     150.918E-03     432.332E-03    -213.178E-03    -219.154E-03    -218.726E-03     431.903E-03    -213.178E-03     33.2008E-03     435.556E-03     107.321E+06    -51.4875E+06    -116.282E+06    -175.195E+06    -119.716E+06    -171.761E+06    -51.4875E+06    -13.4961E+06
            1878     151.048E-03     5.65372E-03     150.942E-03     435.969E-03    -214.235E-03    -221.734E-03    -221.217E-03     435.452E-03    -214.235E-03     36.6782E-03     440.456E-03     105.416E+06    -28.8782E+06    -102.232E+06    -149.529E+06    -107.352E+06    -144.409E+06    -28.8782E+06    -14.3902E+06
            1879     151.107E-03     6.45437E-03     150.969E-03     439.749E-03    -215.344E-03    -224.405E-03    -223.815E-03     439.159E-03    -215.344E-03     39.4394E-03     445.733E-03     103.846E+06    -8.56808E+06    -87.5189E+06    -126.140E+06    -95.2731E+06    -118.386E+06    -8.56808E+06    -15.1105E+06
            1880     151.173E-03     7.25302E-03     150.999E-03     443.195E-03    -216.470E-03    -226.725E-03    -226.076E-03     442.546E-03    -216.470E-03     41.5683E-03     450.876E-03     102.322E+06     8.66340E+06    -71.8509E+06    -106.419E+06    -83.9909E+06    -94.2786E+06     8.66340E+06    -16.1827E+06
            1881     151.248E-03     8.05063E-03     151.034E-03     446.163E-03    -217.566E-03    -228.598E-03    -227.892E-03     445.457E-03    -217.566E-03     43.5461E-03     455.709E-03     99.7620E+06     23.7822E+06    -53.9161E+06    -88.6402E+06    -72.9893E+06    -69.5670E+06     23.7822E+06    -16.8508E+06
            1882     151.332E-03     8.84649E-03     151.073E-03     448.804E-03    -218.604E-03    -230.200E-03    -229.424E-03     448.028E-03    -218.604E-03     45.8129E-03     460.411E-03     96.4315E+06     37.2913E+06    -32.5001E+06    -72.5159E+06    -62.1270E+06    -42.8890E+06     37.2913E+06    -17.1769E+06
            1883     151.427E-03     9.64176E-03     151.120E-03     451.114E-03    -219.575E-03    -231.540E-03    -230.682E-03     450.257E-03    -219.575E-03     48.3044E-03     464.981E-03     93.3335E+06     48.6541E+06    -7.08378E+06    -58.6344E+06    -51.7493E+06    -13.9688E+06     48.6541E+06    -17.1270E+06
            1884     151.533E-03     10.4359E-03     151.173E-03     452.983E-03    -220.472E-03    -232.511E-03    -231.551E-03     452.023E-03    -220.472E-03     51.2191E-03     469.371E-03     93.2487E+06     58.0430E+06     23.9250E+06    -46.5866E+06    -42.2696E+06     19.6080E+06     58.0430E+06    -16.4587E+06
            1885     151.653E-03     11.2299E-03     151.237E-03     454.376E-03    -221.278E-03    -233.098E-03    -231.990E-03     453.268E-03    -221.278E-03     55.0969E-03     473.878E-03     107.631E+06     82.3069E+06     55.0386E+06    -36.2918E+06    -34.0484E+06     69.4829E+06     65.6192E+06    -14.3657E+06
            1886     151.787E-03     12.0233E-03     151.310E-03     455.535E-03    -222.058E-03    -233.476E-03    -232.222E-03     454.280E-03    -222.058E-03     58.7139E-03     477.884E-03     120.275E+06     104.578E+06     73.2397E+06    -28.2444E+06    -27.2700E+06     103.604E+06     73.2397E+06    -11.2463E+06
            1887     151.934E-03     12.8175E-03     151.392E-03     457.185E-03    -222.864E-03    -234.320E-03    -232.673E-03     455.537E-03    -222.864E-03     67.0694E-03     486.087E-03     126.704E+06     118.011E+06     88.5378E+06    -20.8193E+06    -20.3152E+06     117.507E+06     88.5378E+06    -7.80810E+06
            1888     152.108E-03     13.6114E-03     151.498E-03     458.510E-03    -223.811E-03    -234.700E-03    -232.940E-03     456.751E-03    -223.811E-03     69.6160E-03     487.444E-03     163.347E+06     164.374E+06     135.842E+06    -11.2386E+06    -11.0971E+06     150.523E+06     149.552E+06    -3.40019E+06
            1889     152.367E-03     815.131E-06     152.365E-03     410.102E-03    -204.835E-03    -205.267E-03    -205.133E-03     410.063E-03    -204.930E-03     9.06208E-03     410.193E-03     118.660E+06    -159.186E+06    -162.991E+06    -279.672E+06    -162.570E+06    -279.561E+06    -159.719E+06    -2.95234E+06
            1890     152.383E-03     1.62915E-03     152.374E-03     411.823E-03    -205.338E-03    -206.484E-03    -206.369E-03     411.707E-03    -205.338E-03     16.4091E-03     412.120E-03     109.822E+06    -144.698E+06    -157.194E+06    -260.097E+06    -157.537E+06    -259.754E+06    -144.698E+06    -5.59829E+06
            1891     152.407E-03     2.44240E-03     152.387E-03     414.607E-03    -206.058E-03    -208.549E-03    -208.321E-03     414.379E-03    -206.058E-03     23.5109E-03     415.266E-03     105.173E+06    -123.318E+06    -148.555E+06    -238.597E+06    -149.382E+06    -237.770E+06    -123.318E+06    -8.35780E+06
            1892     152.440E-03     3.25326E-03     152.405E-03     418.102E-03    -207.002E-03    -211.100E-03    -210.738E-03     417.740E-03    -207.002E-03     29.8911E-03     419.294E-03     101.874E+06    -98.2279E+06    -137.829E+06    -213.680E+06    -139.481E+06    -212.028E+06    -98.2279E+06    -10.7589E+06
            1893     152.482E-03     4.06260E-03     152.428E-03     422.303E-03    -208.129E-03    -214.175E-03    -213.683E-03     421.811E-03    -208.129E-03     35.1571E-03     424.246E-03     103.126E+06    -72.4139E+06    -125.509E+06    -191.141E+06    -128.313E+06    -188.337E+06    -72.4139E+06    -13.0806E+06
            1894     152.532E-03     4.86942E-03     152.454E-03     427.137E-03    -209.417E-03    -217.720E-03    -217.110E-03     426.527E-03    -209.417E-03     39.4727E-03     430.054E-03     104.361E+06    -48.1973E+06    -112.052E+06    -168.462E+06    -116.330E+06    -164.184E+06    -48.1973E+06    -14.7222E+06
            1895     152.589E-03     5.67281E-03     152.484E-03     431.913E-03    -210.813E-03    -221.099E-03    -220.387E-03     431.200E-03    -210.813E-03     42.9720E-03     436.022E-03     103.152E+06    -26.4341E+06    -98.0227E+06    -144.593E+06    -104.681E+06    -137.934E+06    -26.4341E+06    -16.0073E+06
            1896     152.655E-03     6.47464E-03     152.518E-03     436.591E-03    -212.258E-03    -224.333E-03    -223.537E-03     435.795E-03    -212.258E-03     45.7111E-03     442.134E-03     102.107E+06    -6.85116E+06    -82.9708E+06    -122.812E+06    -92.8706E+06    -112.912E+06    -6.85116E+06    -16.9682E+06
            1897     152.729E-03     7.27344E-03     152.555E-03     441.339E-03    -213.728E-03    -227.611E-03    -226.750E-03     440.478E-03    -213.728E-03     47.8372E-03     448.541E-03     100.796E+06     10.5743E+06    -66.6728E+06    -103.401E+06    -81.6429E+06    -88.4313E+06     10.5743E+06    -17.6465E+06
            1898     152.808E-03     8.06943E-03     152.594E-03     445.665E-03    -215.195E-03    -230.469E-03    -229.563E-03     444.758E-03    -215.195E-03     49.3858E-03     454.729E-03     99.1657E+06      25.356E+06    -48.5470E+06    -87.2708E+06    -71.4021E+06    -64.4157E+06      25.356E+06    -18.7422E+06
            1899     152.897E-03     8.86444E-03     152.639E-03     449.306E-03    -216.613E-03    -232.693E-03    -231.741E-03     448.354E-03    -216.613E-03     50.8630E-03     460.429E-03     96.9931E+06     38.3033E+06    -27.2132E+06    -72.9356E+06    -61.5302E+06    -38.6186E+06     38.3033E+06    -19.3626E+06
            1900     152.995E-03     9.65745E-03     152.690E-03     452.415E-03    -217.948E-03    -234.467E-03    -233.459E-03     451.407E-03    -217.948E-03     52.5396E-03     465.794E-03     95.3480E+06     49.2364E+06    -2.34482E+06    -60.3597E+06    -52.2993E+06    -10.4051E+06     49.2364E+06    -19.8171E+06
            1901     153.104E-03     10.4495E-03     152.747E-03     454.909E-03    -219.183E-03    -235.726E-03    -234.633E-03     453.817E-03    -219.183E-03     54.8463E-03     470.833E-03     95.3680E+06     57.6340E+06     25.5990E+06    -49.0072E+06    -43.3348E+06     19.9266E+06     57.6340E+06    -19.3751E+06
            1902     153.225E-03     11.2406E-03     152.813E-03     456.787E-03    -220.298E-03    -236.489E-03    -235.256E-03     455.554E-03    -220.298E-03     58.3720E-03     475.858E-03     105.124E+06     77.3671E+06     53.3588E+06    -37.6645E+06    -34.7356E+06     64.0023E+06     63.7946E+06    -16.0383E+06
            1903     153.361E-03     12.0323E-03     152.888E-03     458.435E-03    -221.357E-03    -237.078E-03    -235.717E-03     457.074E-03    -221.357E-03     61.4489E-03     480.399E-03     116.700E+06     100.535E+06     71.4860E+06    -27.9210E+06    -26.6872E+06     99.3015E+06     71.4860E+06    -12.2973E+06
            1904     153.508E-03     12.8232E-03     152.972E-03     460.348E-03    -222.419E-03    -237.930E-03    -236.202E-03     458.620E-03    -222.419E-03     69.0782E-03     488.855E-03     121.029E+06     112.063E+06     85.8344E+06    -19.8072E+06    -19.1139E+06     111.369E+06     85.8344E+06    -9.33676E+06
            1905     153.685E-03     13.6138E-03     153.081E-03     461.651E-03    -223.598E-03    -238.053E-03    -236.241E-03     459.839E-03    -223.598E-03     70.9740E-03     490.235E-03     156.630E+06     157.571E+06     130.064E+06    -10.9547E+06    -10.7138E+06     140.574E+06     146.820E+06    -4.96097E+06
            1906     153.865E-03     818.821E-06     153.863E-03     400.172E-03    -199.843E-03    -200.329E-03    -200.178E-03     400.117E-03    -199.938E-03     10.7264E-03     400.256E-03     113.050E+06    -153.299E+06    -157.235E+06    -268.252E+06    -156.993E+06    -268.057E+06    -153.737E+06    -4.32642E+06
            1907     153.883E-03     1.63770E-03     153.874E-03     402.249E-03    -200.410E-03    -201.839E-03    -201.683E-03     402.093E-03    -200.410E-03     18.9027E-03     402.510E-03     105.986E+06    -139.331E+06    -150.958E+06    -250.506E+06    -151.394E+06    -250.070E+06    -139.331E+06    -6.32788E+06
            1908     153.912E-03     2.45456E-03     153.893E-03     405.707E-03    -201.268E-03    -204.439E-03    -204.133E-03     405.401E-03    -201.268E-03     26.9927E-03     406.281E-03     100.119E+06    -117.722E+06    -142.442E+06    -227.647E+06    -143.464E+06    -226.624E+06    -117.722E+06    -8.92220E+06
            1909     153.952E-03     3.26905E-03     153.917E-03     410.217E-03    -202.430E-03    -207.787E-03    -207.304E-03     409.734E-03    -202.430E-03     34.3280E-03     411.268E-03     98.2332E+06    -92.8136E+06    -131.559E+06    -204.293E+06    -133.624E+06    -202.228E+06    -92.8136E+06    -11.8287E+06
            1910     154.000E-03     4.08070E-03     153.946E-03     415.512E-03    -203.832E-03    -211.680E-03    -211.015E-03     414.847E-03    -203.832E-03     40.6383E-03     417.229E-03     99.9481E+06    -67.4762E+06    -119.328E+06    -182.545E+06    -122.692E+06    -179.181E+06    -67.4762E+06    -14.0244E+06
            1911     154.059E-03     4.88914E-03     153.982E-03     421.407E-03    -205.421E-03    -215.985E-03    -215.162E-03     420.584E-03    -205.421E-03     45.6283E-03     424.004E-03     101.982E+06    -43.5534E+06    -105.942E+06    -161.136E+06    -111.152E+06    -155.926E+06    -43.5534E+06    -15.8687E+06
            1912     154.125E-03     5.69439E-03     154.020E-03     427.486E-03    -207.146E-03    -220.340E-03    -219.389E-03     426.535E-03    -207.146E-03     49.4575E-03     431.186E-03     101.576E+06    -21.9503E+06    -91.5976E+06    -138.416E+06    -99.2297E+06    -130.784E+06    -21.9503E+06    -17.0680E+06
            1913     154.198E-03     6.49590E-03     154.061E-03     433.389E-03    -208.947E-03    -224.442E-03    -223.396E-03     432.343E-03    -208.947E-03     52.3071E-03     438.437E-03     100.988E+06    -3.08477E+06    -77.1669E+06    -118.088E+06    -88.2781E+06    -106.977E+06    -3.08477E+06    -17.9430E+06
            1914     154.279E-03     7.29531E-03     154.106E-03     439.147E-03    -210.776E-03    -228.371E-03    -227.266E-03     438.042E-03    -210.776E-03     54.1740E-03     445.772E-03     99.8388E+06     13.6977E+06    -61.4574E+06    -99.5627E+06    -77.8958E+06    -83.1243E+06     13.6977E+06    -18.5192E+06
            1915     154.368E-03     8.09142E-03     154.156E-03     444.836E-03    -212.614E-03    -232.222E-03    -231.082E-03     443.696E-03    -212.614E-03     55.4483E-03     453.280E-03     98.3657E+06     28.9343E+06    -43.4942E+06    -82.9870E+06    -67.8836E+06    -58.5976E+06     28.9343E+06    -18.8424E+06
            1916     154.461E-03     8.88369E-03     154.206E-03     449.873E-03    -214.428E-03    -235.445E-03    -234.279E-03     448.707E-03    -214.428E-03     56.4105E-03     460.368E-03     97.1492E+06     41.8235E+06    -22.4733E+06    -69.7282E+06    -58.8015E+06    -33.4001E+06     41.8235E+06    -19.5735E+06
            1917     154.566E-03     9.67478E-03     154.263E-03     453.753E-03    -216.152E-03    -237.600E-03    -236.406E-03     452.558E-03    -216.152E-03     57.3654E-03     466.509E-03     96.4640E+06     52.4055E+06     2.54401E+06    -58.3561E+06    -50.3015E+06    -5.51062E+06     52.4055E+06    -20.3435E+06
            1918     154.678E-03     10.4643E-03     154.323E-03     456.778E-03    -217.744E-03    -239.034E-03    -237.788E-03     455.532E-03    -217.744E-03     58.7929E-03     472.080E-03     97.0318E+06     59.7449E+06     28.4223E+06    -48.6389E+06    -42.4834E+06     22.2667E+06     59.7449E+06    -20.7091E+06
            1919     154.802E-03     11.2539E-03     154.392E-03     459.409E-03    -219.189E-03    -240.219E-03    -238.861E-03     458.051E-03    -219.189E-03     61.5529E-03     477.875E-03     103.360E+06     73.5777E+06     52.8347E+06    -38.5437E+06    -34.3103E+06     58.5823E+06     63.5967E+06    -19.5347E+06
            1920     154.940E-03     12.0418E-03     154.471E-03     461.687E-03    -220.559E-03    -241.128E-03    -239.665E-03     460.224E-03    -220.559E-03     64.0598E-03     483.117E-03     113.479E+06     96.3583E+06     70.8959E+06    -27.5930E+06    -25.2559E+06     94.0211E+06     70.8959E+06    -16.2718E+06
            1921     155.090E-03     12.8296E-03     154.558E-03     463.832E-03    -221.908E-03    -241.924E-03    -240.114E-03     462.022E-03    -221.908E-03     71.1086E-03     491.809E-03     114.237E+06     104.480E+06     84.2901E+06    -18.0883E+06    -16.9839E+06     103.375E+06     84.2901E+06    -11.1821E+06
            1922     155.265E-03     13.6181E-03     154.667E-03     465.408E-03    -223.339E-03    -242.069E-03    -240.192E-03     463.531E-03    -223.339E-03     72.6140E-03     493.572E-03     146.966E+06     147.458E+06     124.657E+06    -9.34323E+06    -9.02481E+06     129.046E+06     142.750E+06    -4.72278E+06
            1923     155.348E-03     823.697E-06     155.346E-03     390.870E-03    -195.118E-03    -195.752E-03    -195.687E-03     390.805E-03    -195.118E-03     11.3711E-03     390.947E-03     106.460E+06    -145.679E+06    -149.867E+06    -254.161E+06    -149.478E+06    -253.908E+06    -146.321E+06    -4.64490E+06
            1924     155.370E-03     1.64542E-03     155.361E-03     393.412E-03    -195.816E-03    -197.596E-03    -197.408E-03     393.224E-03    -195.816E-03     20.5838E-03     393.652E-03     101.406E+06    -133.114E+06    -143.761E+06    -239.325E+06    -144.514E+06    -238.572E+06    -133.114E+06    -8.03186E+06
            1925     155.404E-03     2.46558E-03     155.385E-03     397.235E-03    -196.793E-03    -200.442E-03    -200.069E-03     396.862E-03    -196.793E-03     29.5262E-03     397.756E-03     96.1931E+06    -112.464E+06    -134.911E+06    -217.664E+06    -136.345E+06    -216.230E+06    -112.464E+06    -10.4813E+06
            1926     155.451E-03     3.28368E-03     155.416E-03     402.356E-03    -198.084E-03    -204.272E-03    -203.679E-03     401.763E-03    -198.084E-03     37.7010E-03     403.300E-03     95.0274E+06    -87.3319E+06    -124.175E+06    -195.016E+06    -126.518E+06    -192.673E+06    -87.3319E+06    -12.4945E+06
            1927     155.509E-03     4.09814E-03     155.455E-03     408.523E-03    -199.660E-03    -208.863E-03    -208.037E-03     407.697E-03    -199.660E-03     44.9815E-03     410.049E-03     96.8195E+06    -61.5995E+06    -111.834E+06    -173.056E+06    -115.612E+06    -169.279E+06    -61.5995E+06    -14.5238E+06
            1928     155.576E-03     4.90902E-03     155.499E-03     415.257E-03    -201.460E-03    -213.797E-03    -212.756E-03     414.216E-03    -201.460E-03     51.0066E-03     417.559E-03     99.5176E+06    -38.0043E+06    -98.6988E+06    -152.774E+06    -104.610E+06    -146.863E+06    -38.0043E+06    -16.6814E+06
            1929     155.653E-03     5.71608E-03     155.548E-03     422.526E-03    -203.434E-03    -219.091E-03    -217.884E-03     421.318E-03    -203.434E-03     55.5187E-03     425.821E-03     100.955E+06    -17.0021E+06    -85.3177E+06    -132.895E+06    -93.5799E+06    -124.632E+06    -17.0021E+06    -17.8795E+06
            1930     155.736E-03     6.51922E-03     155.600E-03     430.004E-03    -205.549E-03    -224.454E-03    -223.135E-03     428.684E-03    -205.549E-03     58.6365E-03     434.520E-03     100.464E+06     2.08339E+06    -71.2876E+06    -112.374E+06    -82.4746E+06    -101.187E+06     2.08339E+06    -18.0449E+06
            1931     155.826E-03     7.31743E-03     155.655E-03     437.015E-03    -207.739E-03    -229.276E-03    -227.900E-03     435.639E-03    -207.739E-03     60.4063E-03     443.008E-03     99.4031E+06     18.8570E+06    -56.1732E+06    -93.8675E+06    -72.2528E+06    -77.7879E+06     18.8570E+06    -18.3526E+06
            1932     155.923E-03     8.11292E-03     155.712E-03     443.582E-03    -209.937E-03    -233.645E-03    -232.238E-03     442.175E-03    -209.937E-03     61.5807E-03     451.304E-03     97.9913E+06     33.8281E+06    -39.0441E+06    -77.5446E+06    -62.5680E+06    -54.0207E+06     33.8281E+06    -18.3688E+06
            1933     156.029E-03     8.90528E-03     155.774E-03     449.690E-03    -212.101E-03    -237.589E-03    -236.171E-03     448.272E-03    -212.101E-03     62.3049E-03     459.394E-03     96.4854E+06     46.7742E+06    -18.3670E+06    -63.8439E+06    -53.7293E+06    -28.4815E+06     46.7742E+06    -18.5286E+06
            1934     156.137E-03     9.69387E-03     155.836E-03     454.815E-03    -214.188E-03    -240.627E-03    -239.201E-03     453.389E-03    -214.188E-03     62.8664E-03     466.767E-03     96.3325E+06     57.5414E+06     6.89965E+06    -53.0921E+06    -45.8100E+06    -382.499E+03     57.5414E+06    -19.2666E+06
            1935     156.255E-03     10.4816E-03     155.903E-03     459.049E-03    -216.157E-03    -242.892E-03    -241.447E-03     457.604E-03    -216.157E-03     63.5782E-03     473.564E-03     98.0461E+06     65.5698E+06     34.0466E+06    -43.8529E+06    -37.8972E+06     28.0908E+06     65.5698E+06    -20.6365E+06
            1936     156.382E-03     11.2670E-03     155.975E-03     462.520E-03    -217.980E-03    -244.540E-03    -243.027E-03     461.007E-03    -217.980E-03     65.3144E-03     480.236E-03     103.887E+06     76.3344E+06     58.7669E+06    -35.1357E+06    -29.9413E+06     60.5681E+06     69.3389E+06    -22.0851E+06
            1937     156.525E-03     12.0525E-03     156.060E-03     465.070E-03    -219.692E-03    -245.378E-03    -243.796E-03     463.487E-03    -219.692E-03     66.9695E-03     485.880E-03     109.045E+06     90.2202E+06     73.1211E+06    -26.2247E+06    -22.6509E+06     86.6464E+06     73.1211E+06    -19.7510E+06
            1938     156.675E-03     12.8376E-03     156.148E-03     467.759E-03    -221.346E-03    -246.413E-03    -244.526E-03     465.872E-03    -221.346E-03     73.1104E-03     495.094E-03     104.524E+06     93.0352E+06     78.4009E+06    -17.7647E+06    -16.2419E+06     87.7288E+06     82.1845E+06    -11.7816E+06
            1939     156.853E-03     13.6220E-03     156.261E-03     469.819E-03    -223.054E-03    -246.765E-03    -244.852E-03     467.906E-03    -223.054E-03     73.7542E-03     497.494E-03     138.970E+06     138.481E+06     116.774E+06    -9.84768E+06    -9.59566E+06     117.269E+06     137.734E+06    -3.74103E+06
            1940     156.818E-03     825.937E-06     156.816E-03     383.654E-03    -191.544E-03    -192.110E-03    -192.041E-03     383.585E-03    -191.544E-03     11.5342E-03     383.732E-03     100.957E+06    -136.034E+06    -140.463E+06    -239.128E+06    -140.112E+06    -238.837E+06    -136.676E+06    -5.02272E+06
            1941     156.844E-03     1.65163E-03     156.835E-03     386.083E-03    -192.175E-03    -193.908E-03    -193.702E-03     385.877E-03    -192.175E-03     21.3519E-03     386.317E-03     96.3040E+06    -124.370E+06    -134.923E+06    -225.382E+06    -135.828E+06    -224.477E+06    -124.370E+06    -8.62755E+06
            1942     156.884E-03     2.47535E-03     156.864E-03     390.005E-03    -193.126E-03    -196.879E-03    -196.464E-03     389.590E-03    -193.126E-03     30.8656E-03     390.500E-03     93.1744E+06    -105.283E+06    -127.124E+06    -207.275E+06    -128.937E+06    -205.462E+06    -105.283E+06    -11.7123E+06
            1943     156.938E-03     3.29596E-03     156.904E-03     395.266E-03    -194.414E-03    -200.852E-03    -200.175E-03     394.589E-03    -194.414E-03     39.9451E-03     396.147E-03     92.3869E+06    -81.7887E+06    -116.458E+06    -186.265E+06    -119.256E+06    -183.468E+06    -81.7887E+06    -13.5302E+06
            1944     157.006E-03     4.11364E-03     156.952E-03     401.680E-03    -196.008E-03    -205.672E-03    -204.716E-03     400.725E-03    -196.008E-03     48.0153E-03     403.078E-03     93.8887E+06    -56.5354E+06    -104.647E+06    -164.540E+06    -108.752E+06    -160.435E+06    -56.5354E+06    -14.9701E+06
            1945     157.084E-03     4.92741E-03     157.007E-03     409.124E-03    -197.877E-03    -211.246E-03    -210.029E-03     407.906E-03    -197.877E-03     54.8222E-03     411.192E-03     97.0214E+06    -32.4811E+06    -92.0011E+06    -144.341E+06    -97.9320E+06    -138.411E+06    -32.4811E+06    -16.4463E+06
            1946     157.171E-03     5.73665E-03     157.067E-03     417.340E-03    -199.990E-03    -217.351E-03    -215.914E-03     415.904E-03    -199.990E-03     60.2627E-03     420.283E-03     100.055E+06    -11.1804E+06    -79.0029E+06    -126.044E+06    -87.1667E+06    -117.880E+06    -11.1804E+06    -17.6865E+06
            1947     157.268E-03     6.54062E-03     157.132E-03     425.856E-03    -202.296E-03    -223.560E-03    -221.967E-03     424.263E-03    -202.296E-03     64.1767E-03     429.884E-03     100.478E+06     7.29319E+06    -65.8597E+06    -107.219E+06    -76.7001E+06    -96.3786E+06     7.29319E+06    -17.9842E+06
            1948     157.370E-03     7.34040E-03     157.199E-03     434.298E-03    -204.736E-03    -229.562E-03    -227.877E-03     432.613E-03    -204.736E-03     66.7190E-03     439.643E-03     99.0416E+06     23.8373E+06    -51.9323E+06    -88.2184E+06    -66.9008E+06    -73.2499E+06     23.8373E+06    -17.5316E+06
            1949     157.478E-03     8.13509E-03     157.267E-03     442.089E-03    -207.236E-03    -234.853E-03    -233.134E-03     440.370E-03    -207.236E-03     68.0606E-03     449.026E-03       97.78E+06     38.5111E+06    -36.0676E+06    -72.1570E+06    -58.0110E+06    -50.2136E+06     38.5111E+06    -17.2505E+06
            1950     157.592E-03     8.92651E-03     157.339E-03     448.982E-03    -209.714E-03    -239.268E-03    -237.572E-03     447.285E-03    -209.714E-03     68.1852E-03     457.798E-03     96.5804E+06     51.7210E+06    -15.1990E+06    -58.7590E+06    -49.4578E+06    -24.5001E+06     51.7210E+06    -17.3736E+06
            1951     157.711E-03     9.71532E-03     157.411E-03     455.412E-03    -212.128E-03    -243.284E-03    -241.624E-03     453.752E-03    -212.128E-03     67.9904E-03     466.406E-03     96.8450E+06     63.6876E+06     11.5501E+06    -47.5512E+06    -41.2700E+06     5.26885E+06     63.6876E+06    -17.8850E+06
            1952     157.835E-03     10.4999E-03     157.485E-03     461.151E-03    -214.459E-03    -246.692E-03    -245.037E-03     459.496E-03    -214.459E-03     68.3473E-03     474.688E-03     101.347E+06     73.3991E+06     43.3059E+06    -38.6980E+06    -33.2767E+06     37.8845E+06     73.3991E+06    -20.2653E+06
            1953     157.969E-03     11.2827E-03     157.566E-03     465.637E-03    -216.665E-03    -248.972E-03    -247.284E-03     463.949E-03    -216.665E-03     69.3566E-03     482.399E-03     104.643E+06     79.0211E+06     65.8837E+06    -31.4579E+06    -26.4617E+06     63.8104E+06     76.0982E+06    -21.7162E+06
            1954     158.113E-03     12.0642E-03     157.652E-03     469.038E-03    -218.750E-03    -250.288E-03    -248.585E-03     467.335E-03    -218.750E-03     69.9055E-03     489.019E-03     103.758E+06     82.4994E+06     74.4506E+06    -24.9877E+06    -21.7441E+06     77.5383E+06     76.1681E+06    -17.6571E+06
            1955     158.268E-03     12.8456E-03     157.745E-03     472.394E-03    -220.747E-03    -251.647E-03    -249.677E-03     470.424E-03    -220.747E-03     75.2504E-03     498.926E-03     96.9283E+06     83.6288E+06     70.7210E+06    -18.8284E+06    -17.3674E+06     72.6684E+06     80.2204E+06    -10.7276E+06
            1956     158.450E-03     13.6259E-03     157.863E-03     474.592E-03    -222.755E-03    -251.838E-03    -249.885E-03     472.640E-03    -222.755E-03     74.9992E-03     501.668E-03     130.542E+06     131.189E+06     105.290E+06    -10.3132E+06    -9.86587E+06     104.842E+06     131.189E+06    -4.53249E+06
            1957     158.280E-03     828.353E-06     158.278E-03     379.278E-03    -189.279E-03    -189.999E-03    -189.933E-03     379.212E-03    -189.279E-03     11.4246E-03     379.357E-03     93.5446E+06    -129.080E+06    -133.953E+06    -224.952E+06    -133.545E+06    -224.720E+06    -129.721E+06    -3.90857E+06
            1958     158.308E-03     1.65552E-03     158.300E-03     381.294E-03    -189.919E-03    -191.375E-03    -191.174E-03     381.094E-03    -189.919E-03     20.8748E-03     381.525E-03     89.3367E+06    -117.249E+06    -128.278E+06    -211.464E+06    -129.044E+06    -210.698E+06    -117.249E+06    -7.59300E+06
            1959     158.354E-03     2.48118E-03     158.335E-03     384.767E-03    -190.727E-03    -194.040E-03    -193.627E-03     384.354E-03    -190.727E-03     30.5715E-03     385.257E-03     87.9762E+06    -98.1619E+06    -121.043E+06    -195.086E+06    -122.781E+06    -193.348E+06    -98.1619E+06    -10.9597E+06
            1960     158.415E-03     3.30494E-03     158.381E-03     389.634E-03    -191.862E-03    -197.772E-03    -197.084E-03     388.946E-03    -191.862E-03     39.9456E-03     390.487E-03     88.6604E+06    -76.4193E+06    -111.770E+06    -177.110E+06    -114.946E+06    -173.934E+06    -76.4193E+06    -13.7909E+06
            1961     158.492E-03     4.12536E-03     158.438E-03     395.843E-03    -193.315E-03    -202.528E-03    -201.532E-03     394.847E-03    -193.315E-03     48.6466E-03     397.169E-03     90.3711E+06    -53.3234E+06    -100.630E+06    -157.337E+06    -105.122E+06    -152.845E+06    -53.3234E+06    -15.2056E+06
            1962     158.581E-03     4.94173E-03     158.504E-03     403.365E-03    -195.085E-03    -208.281E-03    -206.972E-03     402.057E-03    -195.085E-03     56.4404E-03     405.285E-03     93.3529E+06    -29.9303E+06    -88.8985E+06    -137.410E+06    -94.7607E+06    -131.547E+06    -29.9303E+06    -15.6639E+06
            1963     158.682E-03     5.75324E-03     158.578E-03     411.839E-03    -197.144E-03    -214.695E-03    -213.093E-03     410.237E-03    -197.144E-03     63.2181E-03     414.505E-03     96.6160E+06    -8.72418E+06    -76.9076E+06    -119.180E+06    -84.9107E+06    -111.177E+06    -8.72418E+06    -16.3815E+06
            1964     158.791E-03     6.56015E-03     158.656E-03     420.994E-03    -199.454E-03    -221.541E-03    -219.712E-03     419.165E-03    -199.454E-03     68.4275E-03     424.602E-03     98.9883E+06     9.41019E+06    -65.0648E+06    -102.834E+06    -75.6828E+06    -92.2159E+06     9.41019E+06    -16.7812E+06
            1965     158.907E-03     7.36148E-03     158.737E-03     430.466E-03    -201.968E-03    -228.497E-03    -226.529E-03     428.498E-03    -201.968E-03     71.8760E-03     435.235E-03     98.7761E+06     25.6931E+06    -51.9223E+06    -85.4500E+06    -66.6929E+06    -70.6794E+06     25.6931E+06    -16.1549E+06
            1966     159.029E-03     8.15744E-03     158.820E-03     439.643E-03    -204.628E-03    -235.015E-03    -232.990E-03     437.618E-03    -204.628E-03     73.7642E-03     445.829E-03     97.8398E+06     41.0452E+06    -34.8626E+06    -69.2931E+06    -57.9332E+06    -46.2225E+06     41.0452E+06    -15.6325E+06
            1967     159.153E-03     8.94824E-03     158.902E-03     448.208E-03    -207.354E-03    -240.855E-03    -238.847E-03     446.201E-03    -207.354E-03     74.2055E-03     456.134E-03     97.7716E+06     54.8415E+06    -12.8694E+06    -56.9815E+06    -49.7293E+06    -20.1215E+06     54.8415E+06    -15.7869E+06
            1968     159.283E-03     9.73483E-03     158.985E-03     456.030E-03    -210.079E-03    -245.951E-03    -244.018E-03     454.097E-03    -210.079E-03     73.4933E-03     466.045E-03     100.155E+06     67.6350E+06     16.9481E+06    -46.8230E+06    -41.6856E+06     11.8107E+06     67.6350E+06    -16.9368E+06
            1969     159.419E-03     10.5185E-03     159.071E-03     462.743E-03    -212.745E-03    -249.998E-03    -248.145E-03     460.889E-03    -212.745E-03     72.5699E-03     475.233E-03     107.098E+06     78.4120E+06     52.6475E+06    -38.2848E+06    -33.8578E+06     48.2205E+06     78.4120E+06    -19.3765E+06
            1970     159.559E-03     11.2988E-03     159.159E-03     468.476E-03    -215.303E-03    -253.173E-03    -251.348E-03     466.651E-03    -215.303E-03     72.4817E-03     484.178E-03     104.628E+06     78.3658E+06     67.3611E+06    -31.3084E+06    -27.6027E+06     63.6553E+06     78.3658E+06    -18.5691E+06
            1971     159.709E-03     12.0773E-03     159.252E-03     473.278E-03    -217.759E-03    -255.520E-03    -253.720E-03     471.479E-03    -217.759E-03     72.3411E-03     492.267E-03     96.9309E+06     75.6705E+06     69.1951E+06    -24.2645E+06    -21.7972E+06     67.0837E+06     75.3146E+06    -14.5615E+06
            1972     159.868E-03     12.8535E-03     159.351E-03     477.180E-03    -220.119E-03    -257.061E-03    -255.019E-03     475.138E-03    -220.119E-03     77.1667E-03     502.762E-03     89.8174E+06     78.5064E+06     63.6193E+06    -17.0040E+06    -15.5199E+06     62.4911E+06     78.1505E+06    -10.5561E+06
            1973     160.052E-03     13.6305E-03     159.470E-03     479.572E-03    -222.445E-03    -257.127E-03    -255.132E-03     477.577E-03    -222.445E-03     76.3236E-03     505.958E-03     122.505E+06     125.040E+06     94.8789E+06    -9.50135E+06    -8.90914E+06     94.2867E+06     125.040E+06    -5.61235E+06
            1974     159.738E-03     828.253E-06     159.736E-03     378.206E-03    -188.658E-03    -189.548E-03    -189.493E-03     378.151E-03    -188.658E-03     10.3934E-03     378.282E-03     85.5284E+06    -126.421E+06    -130.029E+06    -213.671E+06    -129.274E+06    -213.538E+06    -127.309E+06    -2.77314E+06
            1975     159.769E-03     1.65624E-03     159.760E-03     379.680E-03    -189.300E-03    -190.381E-03    -190.205E-03     379.505E-03    -189.300E-03     19.4070E-03     379.911E-03     79.0900E+06    -115.670E+06    -126.594E+06    -199.471E+06    -127.105E+06    -198.960E+06    -115.670E+06    -5.68069E+06
            1976     159.818E-03     2.48346E-03     159.799E-03     382.409E-03    -189.913E-03    -192.497E-03    -192.127E-03     382.039E-03    -189.913E-03     28.8028E-03     382.902E-03     78.1327E+06    -97.2751E+06    -121.149E+06    -184.247E+06    -122.265E+06    -183.131E+06    -97.2751E+06    -8.05317E+06
            1977     159.886E-03     3.30829E-03     159.852E-03     386.470E-03    -190.820E-03    -195.650E-03    -195.028E-03     385.848E-03    -190.820E-03     37.7815E-03     387.321E-03     79.4892E+06    -75.2453E+06    -113.634E+06    -166.137E+06    -115.956E+06    -163.815E+06    -75.2453E+06    -10.3566E+06
            1978     159.970E-03     4.13077E-03     159.917E-03     391.792E-03    -192.017E-03    -199.775E-03    -198.846E-03     390.863E-03    -192.017E-03     46.6549E-03     393.088E-03     83.2501E+06    -53.5694E+06    -104.933E+06    -149.160E+06    -108.820E+06    -145.272E+06    -53.5694E+06    -12.3739E+06
            1979     160.070E-03     4.94980E-03     159.993E-03     398.400E-03    -193.498E-03    -204.902E-03    -203.628E-03     397.127E-03    -193.498E-03     55.2471E-03     400.237E-03     87.4602E+06    -32.5799E+06    -94.8281E+06    -132.119E+06    -100.668E+06    -126.279E+06    -32.5799E+06    -13.1096E+06
            1980     160.182E-03     5.76492E-03     160.078E-03     406.383E-03    -195.278E-03    -211.105E-03    -209.485E-03     404.763E-03    -195.278E-03     63.0952E-03     408.880E-03     91.0495E+06    -12.3613E+06    -83.4238E+06    -114.731E+06    -92.3861E+06    -105.769E+06    -12.3613E+06    -13.5656E+06
            1981     160.305E-03     6.57473E-03     160.171E-03     415.616E-03    -197.369E-03    -218.248E-03    -216.319E-03     413.687E-03    -197.369E-03     69.7948E-03     418.926E-03     95.6829E+06     6.03752E+06    -70.2803E+06    -101.244E+06    -84.2198E+06    -87.3042E+06     6.03752E+06    -14.4412E+06
            1982     160.437E-03     7.37843E-03     160.267E-03     425.587E-03    -199.746E-03    -225.841E-03    -223.684E-03     423.430E-03    -199.746E-03     74.8242E-03     429.917E-03     98.3415E+06     23.0088E+06    -54.2514E+06    -87.5985E+06    -74.7009E+06    -67.1489E+06     23.0088E+06    -15.4177E+06
            1983     160.573E-03     8.17668E-03     160.364E-03     436.003E-03    -202.368E-03    -233.635E-03    -231.360E-03     433.728E-03    -202.368E-03     77.9047E-03     441.613E-03     98.5545E+06     38.7785E+06    -34.4372E+06    -73.0733E+06    -64.4791E+06    -43.0314E+06     38.7785E+06    -15.4562E+06
            1984     160.714E-03     8.96907E-03     160.463E-03     446.569E-03    -205.195E-03    -241.374E-03    -239.090E-03     444.285E-03    -205.195E-03     79.1210E-03     453.768E-03     99.2292E+06     53.8652E+06    -9.87492E+06    -60.0652E+06    -54.4880E+06    -15.4522E+06     53.8652E+06    -15.4157E+06
            1985     160.857E-03     9.75496E-03     160.561E-03     456.235E-03    -208.145E-03    -248.090E-03    -245.890E-03     454.035E-03    -208.145E-03     78.5696E-03     465.400E-03     103.719E+06     68.1969E+06     23.9448E+06    -49.1533E+06    -44.7723E+06     19.5638E+06     68.1969E+06    -17.0955E+06
            1986     161.003E-03     10.5357E-03     160.658E-03     464.416E-03    -211.110E-03    -253.306E-03    -251.247E-03     462.357E-03    -211.110E-03     76.7261E-03     475.992E-03     110.029E+06     78.5928E+06     58.3292E+06    -39.7044E+06    -35.9307E+06     54.5556E+06     78.5928E+06    -18.7358E+06
            1987     161.153E-03     11.3139E-03     160.755E-03     471.528E-03    -214.012E-03    -257.516E-03    -255.563E-03     469.575E-03    -214.012E-03     75.3445E-03     486.266E-03     102.297E+06     76.9738E+06     64.9369E+06    -30.7539E+06    -27.3001E+06     61.4831E+06     76.9738E+06    -17.6270E+06
            1988     161.312E-03     12.0884E-03     160.859E-03     477.201E-03    -216.823E-03    -260.379E-03    -258.523E-03     475.346E-03    -216.823E-03     73.8719E-03     495.249E-03     90.4612E+06     72.0166E+06     62.1655E+06    -22.8828E+06    -20.2265E+06     59.5092E+06     72.0166E+06    -14.2965E+06
            1989     161.475E-03     12.8621E-03     160.962E-03     481.645E-03    -219.531E-03    -262.114E-03    -260.079E-03     479.610E-03    -219.531E-03     77.5441E-03     506.216E-03     83.9685E+06     74.2513E+06     55.8020E+06    -16.4546E+06    -14.6968E+06     54.0442E+06     74.2513E+06    -10.7324E+06
            1990     161.663E-03     13.6344E-03     161.087E-03     484.179E-03    -222.173E-03    -262.006E-03    -260.024E-03     482.197E-03    -222.173E-03     76.5761E-03     509.753E-03     115.820E+06     120.272E+06     85.1666E+06    -8.73805E+06    -7.89146E+06     84.3200E+06     120.272E+06    -6.04772E+06
            1991     161.198E-03     827.448E-06     161.195E-03     380.597E-03    -189.949E-03    -190.648E-03    -190.605E-03     380.554E-03    -189.949E-03     9.17469E-03     380.673E-03     72.7658E+06    -132.894E+06    -137.105E+06    -207.628E+06    -136.949E+06    -207.537E+06    -133.142E+06    -863.835E+03
            1992     161.229E-03     1.65466E-03     161.220E-03     381.665E-03    -190.450E-03    -191.215E-03    -191.083E-03     381.533E-03    -190.450E-03     16.8055E-03     381.902E-03     65.0396E+06    -123.433E+06    -135.754E+06    -193.342E+06    -135.960E+06    -193.137E+06    -123.433E+06    -1.00443E+06
            1993     161.281E-03     2.48072E-03     161.262E-03     383.432E-03    -190.884E-03    -192.548E-03    -192.262E-03     383.146E-03    -190.884E-03     25.2160E-03     383.931E-03     63.0831E+06    -105.594E+06    -132.519E+06    -176.880E+06    -132.882E+06    -176.517E+06    -105.594E+06    -2.33040E+06
            1994     161.353E-03     3.30601E-03     161.319E-03     386.263E-03    -191.504E-03    -194.760E-03    -194.256E-03     385.759E-03    -191.504E-03     33.8685E-03     387.125E-03     65.6040E+06    -83.9533E+06    -127.200E+06    -158.153E+06    -127.894E+06    -157.459E+06    -83.9533E+06    -3.44246E+06
            1995     161.444E-03     4.12907E-03     161.391E-03     390.266E-03    -192.355E-03    -197.910E-03    -197.133E-03     389.489E-03    -192.355E-03     42.4539E-03     391.582E-03     72.2347E+06    -61.0962E+06    -118.910E+06    -141.176E+06    -122.235E+06    -137.851E+06    -61.0962E+06    -5.30155E+06
            1996     161.551E-03     4.95009E-03     161.475E-03     395.491E-03    -193.454E-03    -202.037E-03    -200.940E-03     394.395E-03    -193.454E-03     50.9444E-03     397.346E-03     80.4076E+06    -39.3761E+06    -107.032E+06    -127.748E+06    -114.704E+06    -120.077E+06    -39.3761E+06    -8.19039E+06
            1997     161.674E-03     5.76767E-03     161.571E-03     402.168E-03    -194.821E-03    -207.347E-03    -205.898E-03     400.719E-03    -194.821E-03     59.2090E-03     404.661E-03     86.3620E+06    -19.2412E+06    -91.0979E+06    -114.926E+06    -105.587E+06    -100.437E+06    -19.2412E+06    -10.1503E+06
            1998     161.810E-03     6.58072E-03     161.676E-03     410.320E-03    -196.493E-03    -213.827E-03    -212.017E-03     408.510E-03    -196.493E-03     67.0253E-03     413.565E-03     91.7672E+06     454.049E+03    -70.3592E+06    -102.870E+06    -94.7719E+06    -78.4571E+06     454.049E+03    -13.1727E+06
            1999     161.956E-03     7.38921E-03     161.787E-03     420.156E-03    -198.503E-03    -221.653E-03    -219.531E-03     418.034E-03    -198.503E-03     73.6458E-03     424.315E-03     96.1139E+06     17.4306E+06    -51.7504E+06    -92.0657E+06    -83.1723E+06    -60.6439E+06     17.4306E+06    -16.5769E+06
            2000     162.109E-03     8.19060E-03     161.902E-03     431.569E-03    -200.881E-03    -230.688E-03    -228.359E-03     429.239E-03    -200.881E-03     78.4065E-03     436.892E-03     98.4360E+06     33.0950E+06    -31.1067E+06    -79.8288E+06    -71.4252E+06    -39.5103E+06     33.0950E+06    -18.0879E+06
            2001     162.268E-03     8.98422E-03     162.019E-03     443.495E-03    -203.610E-03    -239.886E-03    -237.482E-03     441.092E-03    -203.610E-03     80.9088E-03     450.266E-03     100.621E+06     49.5064E+06    -3.16491E+06    -65.8834E+06    -59.0878E+06    -9.96050E+06     49.5064E+06    -19.3278E+06
            2002     162.429E-03     9.77108E-03     162.135E-03     455.027E-03    -206.602E-03    -248.425E-03    -246.084E-03     452.686E-03    -206.602E-03     80.9951E-03     463.603E-03     105.834E+06     64.9918E+06     31.3157E+06    -52.6683E+06    -47.1303E+06     25.7776E+06     64.9918E+06    -20.5015E+06
            2003     162.589E-03     10.5519E-03     162.247E-03     465.570E-03    -209.750E-03    -255.820E-03    -253.643E-03     463.393E-03    -209.750E-03     79.1109E-03     476.441E-03     110.070E+06     75.1982E+06     61.8400E+06    -40.6353E+06    -36.3760E+06     57.5806E+06     75.1982E+06    -20.2966E+06
            2004     162.752E-03     11.3263E-03     162.358E-03     474.389E-03    -212.944E-03    -261.445E-03    -259.426E-03     472.370E-03    -212.944E-03     76.9689E-03     488.293E-03     100.725E+06     72.8759E+06     63.0136E+06    -32.2802E+06    -28.1657E+06     58.8991E+06     72.8759E+06    -19.2359E+06
            2005     162.920E-03     12.0980E-03     162.470E-03     480.785E-03    -216.078E-03    -264.707E-03    -262.851E-03     478.929E-03    -216.078E-03     74.2651E-03     497.945E-03     87.4589E+06     67.6404E+06     56.0884E+06    -24.9760E+06    -21.4083E+06     52.5208E+06     67.6404E+06    -16.0697E+06
            2006     163.090E-03     12.8672E-03     162.581E-03     485.337E-03    -219.080E-03    -266.257E-03    -264.264E-03     483.344E-03    -219.080E-03     77.1615E-03     508.887E-03     78.8484E+06     69.3238E+06     48.7418E+06    -16.7968E+06    -14.6231E+06     46.5681E+06     69.3238E+06    -11.2023E+06
            2007     163.281E-03     13.6364E-03     162.711E-03     487.417E-03    -221.975E-03    -265.441E-03    -263.490E-03     485.466E-03    -221.975E-03     76.3578E-03     512.130E-03     110.623E+06     115.808E+06     74.6279E+06    -9.31170E+06    -8.36160E+06     73.6778E+06     115.808E+06    -6.58395E+06
            2008     162.662E-03     824.988E-06     162.660E-03     386.575E-03    -193.094E-03    -193.480E-03    -193.402E-03     386.548E-03    -193.146E-03     7.16805E-03     386.657E-03     37.8123E+06    -168.332E+06    -174.844E+06    -208.427E+06    -173.892E+06    -208.305E+06    -169.406E+06     1.32631E+06
            2009     162.696E-03     1.64896E-03     162.688E-03     387.212E-03    -193.386E-03    -193.826E-03    -193.711E-03     387.127E-03    -193.417E-03     13.5267E-03     387.467E-03     36.2059E+06    -153.972E+06    -167.997E+06    -193.408E+06    -168.325E+06    -193.080E+06    -153.972E+06     1.29420E+06
            2010     162.748E-03     2.47337E-03     162.729E-03     388.131E-03    -193.687E-03    -194.445E-03    -194.257E-03     387.944E-03    -193.687E-03     20.4157E-03     388.667E-03     40.1660E+06    -131.479E+06    -157.887E+06    -176.458E+06    -160.353E+06    -173.991E+06    -131.479E+06     781.216E+03
            2011     162.823E-03     3.29728E-03     162.790E-03     389.520E-03    -194.039E-03    -195.481E-03    -195.140E-03     389.179E-03    -194.039E-03     27.7027E-03     390.441E-03     49.9713E+06    -104.699E+06    -146.214E+06    -159.795E+06    -150.621E+06    -155.388E+06    -104.699E+06     14.2668E+03
            2012     162.917E-03     4.12045E-03     162.865E-03     391.921E-03    -194.516E-03    -197.405E-03    -196.857E-03     391.373E-03    -194.516E-03     35.4311E-03     393.354E-03     60.6085E+06    -76.6754E+06    -129.035E+06    -142.584E+06    -139.261E+06    -132.359E+06    -76.6754E+06    -1.40700E+06
            2013     163.030E-03     4.94137E-03     162.955E-03     395.619E-03    -195.194E-03    -200.426E-03    -199.615E-03     394.808E-03    -195.194E-03     43.5300E-03     397.654E-03     71.6022E+06    -50.8250E+06    -110.321E+06    -129.686E+06    -127.878E+06    -112.128E+06    -50.8250E+06    -4.46184E+06
            2014     163.160E-03     5.75999E-03     163.058E-03     400.563E-03    -196.106E-03    -204.458E-03    -203.338E-03     399.443E-03    -196.106E-03     51.6754E-03     403.283E-03     81.1315E+06    -27.9034E+06    -88.2875E+06    -119.162E+06    -115.723E+06    -91.7260E+06    -27.9034E+06    -9.07756E+06
            2015     163.306E-03     6.57619E-03     163.173E-03     407.135E-03    -197.290E-03    -209.845E-03    -208.404E-03     405.694E-03    -197.290E-03     59.2805E-03     410.632E-03     88.2570E+06    -6.98239E+06    -61.1688E+06    -108.002E+06    -102.673E+06    -66.4981E+06    -6.98239E+06    -14.6376E+06
            2016     163.465E-03     7.38736E-03     163.298E-03     415.894E-03    -198.833E-03    -217.060E-03    -215.306E-03     414.140E-03    -198.833E-03     66.3170E-03     420.281E-03     95.2035E+06     10.6373E+06    -40.3230E+06    -98.2501E+06    -89.2871E+06    -49.2860E+06     10.6373E+06    -20.6421E+06
            2017     163.636E-03     8.19246E-03     163.431E-03     426.664E-03    -200.791E-03    -225.873E-03    -223.845E-03     424.636E-03    -200.791E-03     72.5094E-03     432.097E-03     99.9238E+06     27.0679E+06    -19.6057E+06    -86.7027E+06    -74.4138E+06    -31.8946E+06     27.0679E+06    -25.8801E+06
            2018     163.814E-03     8.99008E-03     163.567E-03     438.913E-03    -203.172E-03    -235.741E-03    -233.533E-03     436.705E-03    -203.172E-03     76.9883E-03     445.599E-03     102.378E+06     43.8826E+06     7.18257E+06    -71.2368E+06    -58.9836E+06    -5.07068E+06     43.8826E+06    -28.0651E+06
            2019     163.995E-03     9.77964E-03     163.703E-03     451.936E-03    -205.949E-03    -245.988E-03    -243.746E-03     449.695E-03    -205.949E-03     78.9381E-03     460.196E-03     104.901E+06     59.6585E+06     37.1510E+06    -54.2842E+06    -44.9114E+06     27.7782E+06     59.6585E+06    -27.1327E+06
            2020     164.176E-03     10.5602E-03     163.836E-03     464.534E-03    -209.045E-03    -255.490E-03    -253.347E-03     462.391E-03    -209.045E-03     78.4129E-03     474.850E-03     105.592E+06     70.0025E+06     60.3993E+06    -39.9595E+06    -33.9575E+06     54.3973E+06     70.0025E+06    -23.3278E+06
            2021     164.354E-03     11.3344E-03     163.963E-03     475.343E-03    -212.330E-03    -263.013E-03    -261.011E-03     473.341E-03    -212.330E-03     76.7783E-03     488.443E-03     95.5352E+06     69.9290E+06     59.3644E+06    -30.1862E+06    -25.9025E+06     55.0807E+06     69.9290E+06    -19.0118E+06
            2022     164.533E-03     12.1031E-03     164.087E-03     482.965E-03    -215.638E-03    -267.326E-03    -265.495E-03     481.133E-03    -215.638E-03     74.0134E-03     499.188E-03     83.8789E+06     66.1134E+06     52.3814E+06    -23.7063E+06    -19.8719E+06     48.5470E+06     66.1134E+06    -16.5602E+06
            2023     164.709E-03     12.8705E-03     164.205E-03     487.537E-03    -218.814E-03    -268.723E-03    -266.776E-03     485.590E-03    -218.814E-03     76.5235E-03     510.013E-03     76.0544E+06     65.2653E+06     42.6745E+06    -18.5264E+06    -14.8028E+06     38.9509E+06     65.2653E+06    -13.6538E+06
            2024     164.902E-03     13.6386E-03     164.337E-03     488.958E-03    -221.865E-03    -267.093E-03    -265.188E-03     487.053E-03    -221.865E-03     75.6323E-03     512.764E-03     107.449E+06     113.534E+06     62.6895E+06    -9.51848E+06    -7.40941E+06     60.5804E+06     113.534E+06    -7.56990E+06
            2025     164.141E-03     820.101E-06     164.139E-03     396.344E-03    -198.054E-03    -198.290E-03    -198.041E-03     396.331E-03    -198.290E-03     5.00139E-03     396.435E-03     54.1279E+06    -194.934E+06    -245.271E+06    -250.410E+06    -244.657E+06    -203.061E+06    -242.898E+06    -4.60082E+06
            2026     164.172E-03     1.64147E-03     164.164E-03     396.224E-03    -197.934E-03    -198.289E-03    -197.967E-03     396.180E-03    -198.213E-03     9.37902E-03     396.509E-03     57.2185E+06    -176.498E+06    -229.291E+06    -236.848E+06    -233.865E+06    -186.542E+06    -222.230E+06    -8.60240E+06
            2027     164.227E-03     2.46165E-03     164.209E-03     396.424E-03    -197.940E-03    -198.484E-03    -198.040E-03     396.327E-03    -198.287E-03     14.5677E-03     397.032E-03     60.7887E+06    -153.058E+06    -202.934E+06    -220.290E+06    -217.047E+06    -167.987E+06    -191.249E+06    -12.3579E+06
            2028     164.300E-03     3.28182E-03     164.267E-03     396.945E-03    -198.209E-03    -198.736E-03    -198.318E-03     396.767E-03    -198.448E-03     19.9766E-03     398.015E-03     65.0808E+06    -126.721E+06    -172.036E+06    -200.144E+06    -194.997E+06    -150.122E+06    -153.783E+06    -15.3554E+06
            2029     164.395E-03     4.10235E-03     164.344E-03     397.911E-03    -198.506E-03    -199.405E-03    -198.939E-03     397.618E-03    -198.679E-03     25.6721E-03     399.569E-03     69.7339E+06    -98.6367E+06    -136.789E+06    -176.849E+06    -169.732E+06    -127.858E+06    -114.685E+06    -17.6675E+06
            2030     164.511E-03     4.92260E-03     164.437E-03     399.740E-03    -198.907E-03    -200.832E-03    -200.280E-03     399.293E-03    -199.013E-03     31.7265E-03     402.105E-03     73.7771E+06    -72.0455E+06    -102.861E+06    -152.943E+06    -143.708E+06    -105.915E+06    -78.2278E+06    -19.2456E+06
            2031     164.645E-03     5.74137E-03     164.545E-03     402.942E-03    -199.521E-03    -203.421E-03    -202.778E-03     402.299E-03    -199.521E-03     38.3681E-03     406.117E-03     78.4974E+06    -44.2478E+06    -72.8480E+06    -129.942E+06    -119.068E+06    -82.8151E+06    -45.1552E+06    -21.4950E+06
            2032     164.798E-03     6.55690E-03     164.667E-03     407.829E-03    -200.279E-03    -207.549E-03    -206.682E-03     406.961E-03    -200.279E-03     45.2133E-03     411.887E-03     83.3059E+06    -16.4509E+06    -45.8986E+06    -109.480E+06    -97.7834E+06     -57.595E+06    -16.4509E+06    -23.5119E+06
            2033     164.968E-03     7.36910E-03     164.804E-03     414.462E-03    -201.350E-03    -213.112E-03    -211.985E-03     413.335E-03    -201.350E-03     52.3611E-03     419.444E-03     89.9082E+06     7.45488E+06    -22.1015E+06    -93.1921E+06    -79.9973E+06    -35.2964E+06     7.45488E+06    -26.9594E+06
            2034     165.153E-03     8.17653E-03     164.951E-03     423.053E-03    -202.775E-03    -220.278E-03    -218.880E-03     421.655E-03    -202.775E-03     59.3055E-03     428.988E-03     96.3102E+06     24.9232E+06    -5.19852E+06    -82.7580E+06    -67.0036E+06    -20.9529E+06     24.9232E+06    -31.1548E+06
            2035     165.349E-03     8.97858E-03     165.105E-03     433.770E-03    -204.594E-03    -229.176E-03    -227.541E-03     432.136E-03    -204.594E-03     65.3304E-03     440.738E-03     103.321E+06     39.8186E+06     15.6477E+06    -73.0396E+06    -57.4705E+06     78.5957E+03     39.8186E+06    -33.3627E+06
            2036     165.552E-03     9.77201E-03     165.264E-03     446.221E-03    -206.839E-03    -239.382E-03    -237.568E-03     444.407E-03    -206.839E-03     70.2160E-03     454.412E-03     109.099E+06     53.8162E+06     41.1755E+06    -60.8861E+06    -48.2649E+06     28.5542E+06     53.8162E+06    -33.4141E+06
            2037     165.755E-03     10.5576E-03     165.418E-03     459.560E-03    -209.498E-03    -250.062E-03    -248.160E-03     457.658E-03    -209.498E-03     73.3021E-03     469.389E-03     107.106E+06     63.4131E+06     55.4400E+06    -47.4135E+06    -37.8571E+06     45.8835E+06     63.4131E+06    -29.4843E+06
            2038     165.954E-03     11.3341E-03     165.567E-03     472.058E-03    -212.486E-03    -259.572E-03    -257.684E-03     470.170E-03    -212.486E-03     74.2177E-03     484.207E-03     95.3585E+06     66.4630E+06     54.6229E+06    -34.0660E+06    -26.6915E+06     47.2484E+06     66.4630E+06    -24.0800E+06
            2039     166.147E-03     12.1046E-03     165.705E-03     481.634E-03    -215.643E-03    -265.991E-03    -264.222E-03     479.864E-03    -215.643E-03     72.6272E-03     496.688E-03     81.1793E+06     64.8308E+06     48.5882E+06    -23.1069E+06    -17.4702E+06     42.9515E+06     64.8308E+06    -18.7648E+06
            2040     166.330E-03     12.8715E-03     165.831E-03     487.311E-03    -218.786E-03    -268.525E-03    -266.671E-03     485.457E-03    -218.786E-03     74.6833E-03     508.496E-03     72.6679E+06     64.5810E+06     34.8506E+06    -16.0532E+06    -11.9651E+06     30.7625E+06     64.5810E+06    -13.0437E+06
            2041     166.524E-03     13.6383E-03     165.965E-03     488.610E-03    -221.846E-03    -266.764E-03    -264.941E-03     486.787E-03    -221.846E-03     73.9991E-03     511.386E-03     106.434E+06     112.134E+06     49.3941E+06    -10.1354E+06    -7.98642E+06     47.2451E+06     112.134E+06    -7.35098E+06
            2042     165.635E-03     814.715E-06     165.633E-03     410.702E-03    -205.166E-03    -205.535E-03    -205.163E-03     410.698E-03    -205.535E-03     2.18009E-03     410.803E-03     89.1200E+06    -172.039E+06    -258.609E+06    -263.314E+06    -260.593E+06    -174.379E+06    -258.991E+06    -12.9257E+06
            2043     165.667E-03     1.62873E-03     165.659E-03     410.200E-03    -204.846E-03    -205.354E-03    -204.836E-03     410.189E-03    -205.354E-03     4.02480E-03     410.511E-03     98.4447E+06    -152.509E+06    -242.213E+06    -257.459E+06    -251.263E+06    -158.706E+06    -242.213E+06    -23.5760E+06
            2044     165.719E-03     2.44466E-03     165.701E-03     409.588E-03    -204.302E-03    -205.286E-03    -204.274E-03     409.560E-03    -205.286E-03     6.27395E-03     410.282E-03     102.516E+06    -133.097E+06    -214.760E+06    -247.533E+06    -236.078E+06    -144.552E+06    -214.760E+06    -33.2625E+06
            2045     165.793E-03     3.26065E-03     165.761E-03     409.326E-03    -204.072E-03    -205.254E-03    -204.016E-03     409.270E-03    -205.254E-03     9.15791E-03     410.559E-03     105.827E+06    -112.320E+06    -182.106E+06    -233.620E+06    -216.387E+06    -129.554E+06    -182.106E+06    -41.7529E+06
            2046     165.887E-03     4.07545E-03     165.837E-03     409.358E-03    -204.070E-03    -205.288E-03    -203.979E-03     409.268E-03    -205.288E-03     12.3785E-03     411.261E-03     111.026E+06    -89.0312E+06    -147.916E+06    -215.912E+06    -192.632E+06    -112.312E+06    -147.916E+06    -48.7228E+06
            2047     166.001E-03     4.89047E-03     165.929E-03     409.804E-03    -204.275E-03    -205.528E-03    -204.265E-03     409.669E-03    -205.403E-03     15.6960E-03     412.547E-03     112.486E+06    -68.6968E+06    -113.996E+06    -194.788E+06    -166.697E+06    -96.7876E+06    -113.996E+06    -52.3356E+06
            2048     166.138E-03     5.70525E-03     166.040E-03     410.999E-03    -204.558E-03    -206.441E-03    -205.174E-03     410.797E-03    -205.623E-03     19.4878E-03     414.687E-03     113.655E+06    -43.7868E+06    -83.0961E+06    -170.093E+06    -140.306E+06    -76.1038E+06    -80.5657E+06    -52.9062E+06
            2049     166.295E-03     6.51923E-03     166.167E-03     413.278E-03    -205.053E-03    -208.226E-03    -206.971E-03     412.975E-03    -206.003E-03     24.4896E-03     417.963E-03     113.822E+06    -16.9816E+06    -54.6210E+06    -144.187E+06    -113.751E+06    -55.0286E+06    -47.0099E+06    -52.0687E+06
            2050     166.471E-03     7.33068E-03     166.309E-03     417.037E-03    -206.198E-03    -210.839E-03    -210.004E-03     416.593E-03    -206.589E-03     30.5000E-03     422.726E-03     110.085E+06     4.90851E+06    -24.8726E+06    -116.850E+06    -89.0165E+06    -32.9522E+06    -14.8452E+06    -48.2057E+06
            2051     166.664E-03     8.13972E-03     166.466E-03     422.518E-03    -207.434E-03    -215.084E-03    -214.464E-03     421.897E-03    -207.434E-03     37.2574E-03     429.161E-03     104.526E+06     19.8920E+06    -619.687E+03    -92.9344E+06    -68.2022E+06    -18.3799E+06     12.9200E+06    -42.7326E+06
            2052     166.874E-03     8.94323E-03     166.635E-03     429.628E-03    -208.556E-03    -221.072E-03    -220.238E-03     428.795E-03    -208.556E-03     44.6918E-03     437.160E-03     103.736E+06     37.5171E+06     23.1205E+06    -72.2158E+06    -50.8970E+06     1.80163E+06     37.5171E+06    -38.8465E+06
            2053     167.093E-03     9.74313E-03     166.809E-03     438.725E-03    -209.980E-03    -228.745E-03    -227.658E-03     437.638E-03    -209.980E-03     52.6211E-03     447.162E-03     104.186E+06     56.9304E+06     41.7014E+06    -53.4032E+06    -38.0929E+06     26.3910E+06     56.9304E+06    -34.2394E+06
            2054     167.319E-03     10.5358E-03     166.987E-03     450.082E-03    -211.757E-03    -238.325E-03    -236.978E-03     448.735E-03    -211.757E-03     60.2521E-03     459.624E-03     101.697E+06     66.9919E+06     50.7937E+06    -41.1388E+06    -30.2663E+06     39.9212E+06     66.9919E+06    -29.3878E+06
            2055     167.541E-03     11.3206E-03     167.158E-03     462.727E-03    -213.932E-03    -248.795E-03    -247.255E-03     461.187E-03    -213.932E-03     65.9284E-03     473.877E-03     97.0514E+06     70.4883E+06     52.0183E+06    -34.0345E+06    -25.1329E+06     43.1168E+06     70.4883E+06    -26.1816E+06
            2056     167.753E-03     12.0974E-03     167.316E-03     474.638E-03    -216.465E-03    -258.173E-03    -256.601E-03     473.067E-03    -216.465E-03     67.7424E-03     488.163E-03     86.3626E+06     67.7330E+06     42.1048E+06    -28.1912E+06    -20.2927E+06     34.2063E+06     67.7330E+06    -22.1775E+06
            2057     167.950E-03     12.8681E-03     167.456E-03     482.747E-03    -219.202E-03    -263.545E-03    -261.911E-03     481.113E-03    -219.202E-03     69.6532E-03     502.044E-03     75.9106E+06     64.2607E+06     23.1636E+06    -21.5324E+06    -13.8733E+06     15.5045E+06     64.2607E+06    -14.9201E+06
            2058     168.143E-03     13.6383E-03     167.589E-03     484.655E-03    -222.009E-03    -262.646E-03    -261.022E-03     483.031E-03    -222.009E-03     69.4855E-03     506.029E-03     107.215E+06     112.412E+06     37.6449E+06    -9.63630E+06    -5.23248E+06     33.2411E+06     112.412E+06    -6.40978E+06
            2059     167.156E-03     806.648E-06     167.154E-03     431.447E-03    -215.549E-03    -215.898E-03    -215.701E-03     431.442E-03    -215.741E-03    -1.65502E-03     431.551E-03     60.6741E+06    -121.730E+06    -178.200E+06    -185.664E+06    -180.628E+06    -126.384E+06    -178.582E+06    -14.8133E+06
            2060     167.188E-03     1.61397E-03     167.180E-03     431.180E-03    -215.377E-03    -215.803E-03    -215.359E-03     431.162E-03    -215.803E-03    -4.04213E-03     431.506E-03     79.6325E+06    -100.385E+06    -166.958E+06    -187.803E+06    -176.375E+06    -111.812E+06    -166.958E+06    -28.4203E+06
            2061     167.237E-03     2.42041E-03     167.219E-03     430.424E-03    -214.623E-03    -215.801E-03    -214.587E-03     430.388E-03    -215.801E-03    -6.19161E-03     431.147E-03     94.1408E+06    -82.5889E+06    -149.216E+06    -189.206E+06    -169.131E+06    -102.664E+06    -149.216E+06    -40.5795E+06
            2062     167.308E-03     3.22768E-03     167.277E-03     429.274E-03    -213.552E-03    -215.722E-03    -213.486E-03     429.208E-03    -215.722E-03    -8.01690E-03     430.558E-03     109.270E+06    -62.8950E+06    -129.260E+06    -188.315E+06    -159.510E+06    -91.6997E+06    -129.260E+06    -51.8259E+06
            2063     167.400E-03     4.03654E-03     167.351E-03     428.088E-03    -212.484E-03    -215.604E-03    -212.379E-03     427.984E-03    -215.604E-03    -9.19461E-03     430.103E-03     123.626E+06    -44.2266E+06    -109.000E+06    -185.803E+06    -149.279E+06    -80.7500E+06    -109.000E+06    -61.0994E+06
            2064     167.514E-03     4.84465E-03     167.444E-03     427.214E-03    -211.701E-03    -215.513E-03    -211.569E-03     427.081E-03    -215.513E-03    -9.21242E-03     430.129E-03     133.792E+06    -29.7596E+06    -88.5304E+06    -182.015E+06    -138.210E+06    -73.5646E+06    -88.5304E+06    -68.1008E+06
            2065     167.648E-03     5.65207E-03     167.553E-03     426.331E-03    -210.879E-03    -215.452E-03    -210.732E-03     426.184E-03    -215.452E-03    -8.41036E-03     430.248E-03     142.922E+06    -11.1715E+06    -67.3284E+06    -173.030E+06    -124.841E+06    -59.3605E+06    -67.3284E+06    -73.1699E+06
            2066     167.803E-03     6.45965E-03     167.679E-03     425.620E-03    -210.190E-03    -215.431E-03    -210.035E-03     425.466E-03    -215.431E-03    -6.24501E-03     430.625E-03     146.446E+06     3.62135E+06    -44.7832E+06    -160.389E+06    -109.642E+06    -47.1262E+06    -44.7832E+06    -75.0613E+06
            2067     167.980E-03     7.26783E-03     167.823E-03     425.527E-03    -209.880E-03    -215.648E-03    -209.909E-03     425.371E-03    -215.462E-03    -2.33894E-03     431.639E-03     142.230E+06     12.9182E+06    -21.9847E+06    -143.285E+06    -93.3804E+06    -36.9863E+06    -21.9847E+06    -72.1022E+06
            2068     168.178E-03     8.07387E-03     167.984E-03     426.072E-03    -209.462E-03    -216.610E-03    -210.348E-03     425.907E-03    -215.559E-03     3.88157E-03     433.255E-03     132.714E+06     21.0747E+06     902.518E+03    -120.346E+06    -75.2046E+06    -25.0424E+06     1.87838E+06    -65.1951E+06
            2069     168.392E-03     8.88071E-03     168.157E-03     427.812E-03    -209.356E-03    -218.456E-03    -211.866E-03     427.599E-03    -215.733E-03     12.6666E-03     435.949E-03     123.212E+06     34.5251E+06     22.3009E+06    -94.2684E+06    -57.1532E+06     -6.8862E+06     26.5970E+06    -56.7287E+06
            2070     168.621E-03     9.68489E-03     168.342E-03     431.720E-03    -210.440E-03    -221.279E-03    -215.328E-03     431.380E-03    -216.053E-03     23.2119E-03     440.672E-03     111.592E+06     52.4217E+06     32.8757E+06    -67.1603E+06    -41.0308E+06     9.69134E+06     49.4766E+06    -44.6463E+06
            2071     168.859E-03     10.4871E-03     168.533E-03     438.210E-03    -212.886E-03    -225.324E-03    -221.045E-03     437.653E-03    -216.607E-03     34.4350E-03     447.973E-03     101.720E+06     68.5212E+06     42.0576E+06    -43.5297E+06    -28.4935E+06     27.0214E+06     68.5212E+06    -31.5291E+06
            2072     169.102E-03     11.2847E-03     168.725E-03     447.607E-03    -216.269E-03    -231.338E-03    -229.272E-03     446.779E-03    -217.508E-03     45.1254E-03     458.386E-03     97.8653E+06     82.3222E+06     46.5457E+06    -27.6156E+06    -20.1965E+06     39.1266E+06     82.3222E+06    -22.0863E+06
            2073     169.339E-03     12.0742E-03     168.908E-03     459.140E-03    -218.817E-03    -240.322E-03    -239.262E-03     458.079E-03    -218.817E-03     53.5530E-03     471.415E-03     89.8621E+06     82.5624E+06     38.3153E+06    -20.2045E+06    -13.7314E+06     31.8422E+06     82.5624E+06    -18.1233E+06
            2074     169.556E-03     12.8549E-03     169.068E-03     469.784E-03    -220.534E-03    -249.250E-03    -247.980E-03     468.514E-03    -220.534E-03     60.1538E-03     486.540E-03     87.2537E+06     72.9847E+06     17.0648E+06    -26.3983E+06    -10.2158E+06     882.238E+03     72.9847E+06    -14.2264E+06
            2075     169.754E-03     13.6303E-03     169.206E-03     473.549E-03    -222.557E-03    -250.992E-03    -249.668E-03     472.225E-03    -222.557E-03     61.8101E-03     492.521E-03     116.808E+06     112.690E+06     28.5776E+06    -20.1896E+06    -7.36255E+06     15.7505E+06     112.690E+06    -6.22900E+06
            2076     168.717E-03     795.664E-06     168.715E-03     462.202E-03    -230.831E-03    -231.371E-03    -231.018E-03     462.166E-03    -231.148E-03    -8.02665E-03     462.294E-03     35.1600E+06    -58.8918E+06    -77.8863E+06    -96.6196E+06    -79.7008E+06    -75.8105E+06    -77.8863E+06    -13.4956E+06
            2077     168.745E-03     1.59014E-03     168.738E-03     462.644E-03    -231.191E-03    -231.453E-03    -231.158E-03     462.515E-03    -231.357E-03    -16.9463E-03     462.938E-03     50.6627E+06    -41.8140E+06    -69.2308E+06    -98.1642E+06    -77.1953E+06    -62.7829E+06    -69.2308E+06    -24.0909E+06
            2078     168.794E-03     2.38556E-03     168.778E-03     462.232E-03    -230.609E-03    -231.623E-03    -230.337E-03     461.930E-03    -231.593E-03    -26.0966E-03     462.867E-03     67.5843E+06    -26.3753E+06    -55.9017E+06    -102.498E+06    -73.5050E+06    -55.3684E+06    -55.9017E+06    -35.1602E+06
            2079     168.862E-03     3.18059E-03     168.832E-03     460.670E-03    -229.015E-03    -231.655E-03    -228.481E-03     460.136E-03    -231.655E-03    -34.9278E-03     461.796E-03     84.8986E+06    -12.6397E+06    -39.6424E+06    -106.230E+06    -68.4558E+06    -50.4136E+06    -39.6424E+06    -44.5099E+06
            2080     168.949E-03     3.97583E-03     168.902E-03     458.164E-03    -226.650E-03    -231.515E-03    -225.849E-03     457.363E-03    -231.515E-03    -42.8472E-03     459.953E-03     98.7035E+06    -706.230E+03    -23.4730E+06    -107.295E+06    -63.1375E+06    -44.9307E+06    -23.4057E+06    -51.2234E+06
            2081     169.058E-03     4.77291E-03     168.990E-03     454.808E-03    -223.617E-03    -231.191E-03    -222.551E-03     453.741E-03    -231.191E-03    -48.9674E-03     457.400E-03     111.819E+06     11.2303E+06    -9.73283E+06    -108.645E+06    -58.1975E+06    -40.5269E+06    -8.42329E+06    -57.7309E+06
            2082     169.187E-03     5.57146E-03     169.096E-03     451.063E-03    -220.357E-03    -230.707E-03    -219.077E-03     449.784E-03    -230.707E-03    -52.7908E-03     454.596E-03     123.217E+06     24.6429E+06     666.413E+03    -108.185E+06    -54.4979E+06    -32.7352E+06      4.3574E+06    -63.0858E+06
            2083     169.337E-03     6.37100E-03     169.217E-03     447.048E-03    -216.934E-03    -230.114E-03    -215.533E-03     445.647E-03    -230.114E-03    -54.2056E-03     451.644E-03     129.899E+06     32.8292E+06     7.74134E+06    -107.489E+06    -52.7308E+06    -28.6409E+06     14.4531E+06    -65.3393E+06
            2084     169.508E-03     7.17100E-03     169.356E-03     442.063E-03    -212.674E-03    -229.389E-03    -211.261E-03     440.650E-03    -229.389E-03    -52.8644E-03     447.818E-03     133.117E+06     37.2463E+06     11.5693E+06    -106.804E+06    -52.2981E+06    -27.7871E+06     22.0971E+06    -65.4360E+06
            2085     169.698E-03     7.97561E-03     169.511E-03     436.580E-03    -208.089E-03    -228.490E-03    -206.775E-03     435.265E-03    -228.490E-03    -48.4329E-03     443.579E-03     133.999E+06     41.3109E+06     14.7919E+06    -103.859E+06    -52.5121E+06    -24.3308E+06     29.0865E+06    -63.6662E+06
            2086     169.908E-03     8.78217E-03     169.681E-03     431.648E-03    -204.188E-03    -227.460E-03    -203.064E-03     430.524E-03    -227.460E-03    -40.7345E-03     439.898E-03     132.310E+06     47.0463E+06     21.5542E+06    -95.7282E+06    -51.6638E+06    -14.5821E+06     39.1183E+06    -59.2961E+06
            2087     170.136E-03     9.59179E-03     169.865E-03     427.883E-03    -201.504E-03    -226.379E-03    -200.658E-03     427.037E-03    -226.379E-03    -29.3329E-03     437.325E-03     127.597E+06     55.9365E+06     27.3246E+06    -82.9473E+06    -47.8552E+06    -4.82243E+06     52.9914E+06    -52.0654E+06
            2088     170.379E-03     10.4014E-03     170.061E-03     426.281E-03    -200.960E-03    -225.321E-03    -200.446E-03     425.767E-03    -225.321E-03    -13.8580E-03     436.880E-03     118.984E+06     68.6541E+06     29.4877E+06    -64.3092E+06    -39.1230E+06     4.30153E+06     68.6541E+06    -40.5542E+06
            2089     170.632E-03     11.2102E-03     170.263E-03     427.759E-03    -202.697E-03    -225.061E-03    -203.063E-03     427.451E-03    -224.388E-03     4.79895E-03     439.454E-03     110.365E+06     85.6501E+06     34.7895E+06    -40.5355E+06    -27.3818E+06     21.6358E+06     85.6501E+06    -26.9498E+06
            2090     170.886E-03     12.0182E-03     170.462E-03     433.431E-03    -205.797E-03    -227.634E-03    -209.320E-03     433.038E-03    -223.718E-03     24.6826E-03     446.182E-03     101.539E+06     93.1023E+06     34.2638E+06    -23.8337E+06    -17.0045E+06     27.4346E+06     93.1023E+06    -18.4520E+06
            2091     171.128E-03     12.8219E-03     170.647E-03     442.955E-03    -210.696E-03    -232.259E-03    -218.690E-03     442.195E-03    -223.506E-03     43.0775E-03     458.238E-03     104.179E+06     86.0399E+06     12.2069E+06    -32.8374E+06    -8.99346E+06    -11.6371E+06     86.0399E+06    -9.57401E+06
            2092     171.344E-03     13.6181E-03     170.802E-03     449.537E-03    -215.836E-03    -233.701E-03    -224.752E-03     448.560E-03    -223.809E-03     51.1412E-03     466.300E-03     121.946E+06     114.546E+06     23.6906E+06    -23.0947E+06    -2.09065E+06     2.68653E+06     114.546E+06    -2.34983E+06
            2093     170.333E-03     778.013E-06     170.331E-03     512.416E-03    -255.523E-03    -256.893E-03    -255.749E-03     512.203E-03    -256.455E-03    -22.3205E-03     512.545E-03     61.3699E+06     26.2079E+06     22.9649E+06    -36.6575E+06     22.1589E+06    -33.0763E+06     23.4327E+06    -10.3272E+06
            2094     170.365E-03     1.55562E-03     170.358E-03     511.198E-03    -254.862E-03    -256.336E-03    -254.364E-03     510.604E-03    -256.240E-03    -39.6221E-03     511.413E-03     62.8479E+06      32.059E+06     24.3792E+06    -33.9975E+06     20.8588E+06    -25.0906E+06     26.6725E+06    -16.1147E+06
            2095     170.412E-03     2.33084E-03     170.396E-03     509.791E-03    -253.727E-03    -256.064E-03    -252.587E-03     508.620E-03    -256.033E-03    -57.0470E-03     510.182E-03     69.6605E+06     41.5277E+06     27.8670E+06    -33.7583E+06     19.3886E+06    -18.9086E+06     35.1564E+06    -21.7397E+06
            2096     170.474E-03     3.10767E-03     170.446E-03     507.102E-03    -251.355E-03    -255.748E-03    -249.461E-03     505.209E-03    -255.748E-03    -73.1277E-03     507.790E-03     80.9429E+06     49.7246E+06     32.8962E+06    -37.8393E+06     17.2248E+06    -18.8045E+06     46.3614E+06    -26.1544E+06
            2097     170.556E-03     3.88571E-03     170.512E-03     502.956E-03    -247.736E-03    -255.220E-03    -245.021E-03     500.241E-03    -255.220E-03    -87.4790E-03     504.093E-03     90.2347E+06     57.3296E+06     36.9296E+06    -39.7825E+06     15.3724E+06    -17.4628E+06     56.5671E+06    -29.7844E+06
            2098     170.653E-03     4.66552E-03     170.590E-03     497.312E-03    -242.905E-03    -254.407E-03    -239.292E-03     493.699E-03    -254.407E-03    -100.343E-03     499.060E-03     96.6246E+06     64.8005E+06     38.1960E+06    -39.5846E+06     12.3634E+06    -13.7520E+06     64.8005E+06    -32.4402E+06
            2099     170.771E-03     5.44927E-03     170.684E-03     490.335E-03    -237.022E-03    -253.314E-03    -232.495E-03     485.809E-03    -253.314E-03    -111.108E-03     492.894E-03     103.355E+06     71.6327E+06     36.8048E+06    -40.9054E+06     7.79018E+06    -11.8908E+06     71.6327E+06    -33.6581E+06
            2100     170.910E-03     6.23618E-03     170.796E-03     481.976E-03    -230.043E-03    -251.933E-03    -224.658E-03     476.591E-03    -251.933E-03    -119.215E-03     485.546E-03     108.907E+06     77.4367E+06      33.553E+06    -41.7503E+06     2.53186E+06    -10.7291E+06     77.4367E+06    -33.7830E+06
            2101     171.066E-03     7.02857E-03     170.921E-03     472.331E-03    -222.080E-03    -250.251E-03    -215.957E-03     466.208E-03    -250.251E-03    -124.493E-03     477.096E-03     115.376E+06     82.4127E+06     28.7585E+06    -44.8431E+06    -2.91216E+06    -13.1724E+06     82.4127E+06    -33.2242E+06
            2102     171.239E-03     7.82537E-03     171.060E-03     461.589E-03    -213.328E-03    -248.261E-03    -206.662E-03     454.923E-03    -248.261E-03    -126.606E-03     467.790E-03     119.985E+06     86.6023E+06     24.9069E+06    -46.4648E+06    -7.67472E+06    -13.8832E+06     86.6023E+06    -33.1184E+06
            2103     171.434E-03     8.62819E-03     171.217E-03     449.637E-03    -203.673E-03    -245.964E-03    -196.750E-03     442.713E-03    -245.964E-03    -124.979E-03     457.516E-03     121.973E+06     90.8690E+06     22.7307E+06    -44.5419E+06    -11.7506E+06    -10.0606E+06     90.8690E+06    -32.3183E+06
            2104     171.645E-03     9.43743E-03     171.385E-03     436.584E-03    -193.241E-03    -243.343E-03    -186.430E-03     429.773E-03    -243.343E-03    -118.467E-03     446.336E-03     123.757E+06     95.2564E+06     21.9406E+06    -42.1665E+06    -15.2891E+06    -4.93675E+06     95.2564E+06    -30.6971E+06
            2105     171.876E-03     10.2562E-03     171.570E-03     423.181E-03    -182.795E-03    -240.385E-03    -176.542E-03     416.928E-03    -240.385E-03    -105.477E-03     435.092E-03     122.731E+06     95.6414E+06     16.7658E+06    -41.1347E+06    -19.1177E+06    -5.25125E+06     95.6414E+06    -27.6368E+06
            2106     172.122E-03     11.0839E-03     171.765E-03     411.063E-03    -173.908E-03    -237.155E-03    -168.641E-03     405.796E-03    -237.155E-03    -85.8680E-03     425.319E-03     117.948E+06     97.4787E+06     17.5363E+06    -34.4782E+06    -20.2629E+06     3.32098E+06     97.4787E+06    -21.9669E+06
            2107     172.379E-03     11.9179E-03     171.966E-03     402.122E-03    -168.315E-03    -233.808E-03    -164.448E-03     398.256E-03    -233.808E-03    -59.7649E-03     418.904E-03     112.623E+06     102.110E+06     23.1567E+06    -24.7705E+06    -18.9967E+06     17.3830E+06     102.110E+06    -13.1586E+06
            2108     172.637E-03     12.7536E-03     172.165E-03     397.237E-03    -166.748E-03    -230.489E-03    -164.579E-03     395.068E-03    -230.489E-03    -26.6088E-03     417.246E-03     113.655E+06     90.2348E+06     5.93954E+06    -38.6878E+06    -15.0918E+06    -17.6564E+06     90.2348E+06    -5.80203E+06
            2109     172.876E-03     13.5867E-03     172.341E-03     393.204E-03    -165.941E-03    -227.262E-03    -165.096E-03     392.358E-03    -227.262E-03     7.09280E-03     415.316E-03     113.787E+06     99.8676E+06     18.9196E+06    -28.2132E+06    -5.35539E+06    -3.93821E+06     99.8676E+06    -4.69146E+06


