********************************************************************************
Field Output Report, written Tue May  6 01:55:49 2025

Source 1
---------

   ODB: D:/AISI_1020/Vel_10/1020_2a_32_rd_2500_cal_10_v_10_fric_0100.odb
   Step: Step-1
   Frame: Increment  20000003: Step Time =   0.7329

Loc 1 : Nodal values from source 1

Output sorted by column "Node Label".

Field Output reported at nodes for region: DIE_2A_32_D0_36-1.Region_1
   Computation algorithm: EXTRAPOLATE_COMPUTE_AVERAGE
   Averaged at nodes
   Averaging regions: ODB_REGIONS

      Node Label     COORD.COOR1     COORD.COOR2
                          @Loc 1          @Loc 1
-------------------------------------------------
               1     17.2211E-03     72.2766E-03


Field Output reported at nodes for region: DIE_2A_32_D0_36-1.Region_2
   Computation algorithm: EXTRAPOLATE_COMPUTE_AVERAGE
   Averaged at nodes
   Averaging regions: ODB_REGIONS

      Node Label     COORD.COOR1     COORD.COOR2
                          @Loc 1          @Loc 1
-------------------------------------------------
               1     17.2211E-03     72.2766E-03


Field Output reported at nodes for part: WIRE_1-1
   Computation algorithm: EXTRAPOLATE_COMPUTE_AVERAGE
   Averaged at nodes
   Averaging regions: ODB_REGIONS

      Node Label     COORD.COOR1     COORD.COOR2    ER.Max. Prin    ER.Mid. Prin    ER.Min. Prin         ER.ER11         ER.ER22         ER.ER33         ER.ER12    PE.Max. Prin    PE.Mid. Prin    PE.Min. Prin         PE.PE11         PE.PE22         PE.PE33         PE.PE12     S.Max. Prin     S.Mid. Prin     S.Min. Prin           S.S11           S.S22           S.S33           S.S12            TEMP
                          @Loc 1          @Loc 1          @Loc 1          @Loc 1          @Loc 1          @Loc 1          @Loc 1          @Loc 1          @Loc 1          @Loc 1          @Loc 1          @Loc 1          @Loc 1          @Loc 1          @Loc 1          @Loc 1          @Loc 1          @Loc 1          @Loc 1          @Loc 1          @Loc 1          @Loc 1          @Loc 1          @Loc 1
-----------------------------------------------------------------------------------------------------------------------------------------------------------------------------------------------------------------------------------------------------------------------------------------------------------------------------------------------------------------------------------------------------------------
               1     18.0000E-03     113.203E-03         2.13851    -286.380E-03        -3.33616        -1.55418     356.535E-03    -286.380E-03        -2.54155              0.              0.              0.              0.              0.              0.              0.     78.0789E+06     16.3657E+06    -879.488E+03    -572.885E+03     77.7723E+06     16.3657E+06    -4.88942E+06         22.0153
               2     564.015E-09     113.256E-03         15.4333         3.66601        -14.6664         6.47149        -5.70455         3.66601         27.4747              0.              0.              0.              0.              0.              0.              0.    -24.0431E+06    -33.0737E+06    -83.5843E+06    -27.9908E+06    -83.5380E+06    -29.1723E+06    -1.46900E+06         20.0000
               3     23.8411E-06     1.60187E-06         25.7304         2.17504        -32.6908        -12.4144         5.45403         2.17504         55.6216         2.93416    -942.068E-03        -1.79570    -177.030E-03         2.16912        -1.79570        -3.08556     219.370E+06     16.1554E+06    -32.6138E+06    -29.1660E+06     215.922E+06     16.1554E+06     29.2728E+06         235.021
               4     277.922E-06     1.60187E-06         2.45949    -152.837E-03        -1.32257    -152.788E-03         2.45944        -1.32257    -22.7356E-03         2.10045    -565.877E-03        -1.57945         1.52196     12.6073E-03        -1.57945         2.19798    -10.3134E+06    -96.3501E+06    -141.735E+06    -16.1846E+06    -90.4790E+06    -141.735E+06     21.6948E+06         288.172
               5     18.0000E-03     168.217E-03     199.817E-03     141.177E-03    -323.046E-03    -294.643E-03     171.414E-03     141.177E-03     237.015E-03              0.              0.              0.              0.              0.              0.              0.     52.5373E+03    -457.682E+03    -4.88937E+06    -63.8259E+03    -341.319E+03    -4.88937E+06     214.080E+03         22.0162
               6     735.120E-12     168.266E-03         23.2097        -3.63221        -21.8536        -21.6157        -3.87009         23.2097         4.13662              0.              0.              0.              0.              0.              0.              0.    -227.711E+03    -567.866E+03    -1.00672E+06    -1.00474E+06    -229.694E+03    -567.866E+03    -39.2515E+03         20.0000
               7     16.9998E-03     113.201E-03         2.53619    -149.029E-03        -3.09929        -1.02776     579.722E-03    -264.095E-03         1.21221              0.              0.              0.              0.              0.              0.              0.     71.6706E+06     15.9636E+06    -2.08350E+06    -454.960E+03     70.0421E+06     15.9636E+06    -9.39477E+06         21.4828
               8     16.0002E-03     113.200E-03         2.45823     27.4340E-03        -1.86852     631.592E-03     255.544E-03    -269.996E-03         1.84160              0.              0.              0.              0.              0.              0.              0.     58.8841E+06     14.3149E+06    -5.89085E+06    -761.327E+03     53.7546E+06     14.3149E+06    -16.8053E+06         20.6145
               9     15.0000E-03     113.202E-03         3.83330    -89.8726E-03        -2.45137        -1.04774         2.61204    -272.236E-03     162.772E-03              0.              0.              0.              0.              0.              0.              0.     46.3980E+06     11.2976E+06    -11.3147E+06    -1.16822E+06     36.2516E+06     11.2976E+06    -21.4199E+06         20.1500
              10     14.0004E-03     113.203E-03         6.02529    -117.285E-03        -4.86636        -3.72660         4.88554    -117.285E-03         5.09521              0.              0.              0.              0.              0.              0.              0.     34.6357E+06     7.21623E+06    -17.9867E+06    -1.91331E+06     18.5623E+06     7.21623E+06    -23.8219E+06         20.0106
              11     13.0001E-03     113.204E-03         6.57782     132.201E-03        -6.37338        -2.99845         3.20289     132.201E-03        -2.05761              0.              0.              0.              0.              0.              0.              0.     24.2848E+06     2.76445E+06    -25.5352E+06    -3.13954E+06     1.88911E+06     2.76445E+06    -24.3890E+06             20.
              12     12.0004E-03     113.204E-03         7.18515     431.048E-03        -7.97529        -3.84887         3.05874     431.048E-03     269.935E-03              0.              0.              0.              0.              0.              0.              0.     15.1401E+06    -1.60638E+06    -33.0821E+06    -4.92400E+06    -13.0179E+06    -1.60638E+06    -23.5035E+06             20.
              13     11.0001E-03     113.207E-03         7.07771     841.725E-03        -8.31193        -4.26771         3.03349     841.725E-03     331.758E-03              0.              0.              0.              0.              0.              0.              0.     7.39281E+06    -5.77492E+06    -40.6190E+06    -7.23838E+06    -25.9878E+06    -5.77492E+06    -21.8578E+06             20.
              14     10.0004E-03     113.208E-03         5.97905         1.15760        -6.82548    -516.316E-03    -330.117E-03         1.15760        -1.58948              0.              0.              0.              0.              0.              0.              0.     601.553E+03    -9.66514E+06    -47.6139E+06    -9.98034E+06    -37.0320E+06    -9.66514E+06    -19.7907E+06             20.
              15     9.00004E-03     113.211E-03         4.61383         1.18956        -4.93976         2.11479        -2.44072         1.18956         2.33717              0.              0.              0.              0.              0.              0.              0.    -5.35995E+06    -13.2583E+06    -54.0488E+06    -12.9740E+06    -46.4348E+06    -13.2583E+06    -17.5649E+06             20.
              16     8.00034E-03     113.210E-03         3.99544         1.12084        -3.67826         1.39443        -1.07725         1.12084         1.00381              0.              0.              0.              0.              0.              0.              0.    -10.5322E+06    -16.5022E+06    -59.8747E+06    -16.0288E+06    -54.3781E+06    -16.5022E+06    -15.4273E+06             20.
              17     7.00000E-03     113.209E-03         3.93609         1.06312        -4.17727         1.62925        -1.87043         1.06312     335.099E-03              0.              0.              0.              0.              0.              0.              0.    -15.1334E+06    -19.3825E+06    -65.0065E+06    -19.0778E+06    -61.0621E+06    -19.3825E+06    -13.3841E+06             20.
              18     6.00030E-03     113.210E-03         5.06765     786.211E-03        -5.72436         3.61423        -4.27095     786.211E-03     172.251E-03              0.              0.              0.              0.              0.              0.              0.    -18.7428E+06    -21.9672E+06    -69.7100E+06    -21.6467E+06    -66.9080E+06    -21.8654E+06    -11.5351E+06             20.
              19     4.99994E-03     113.213E-03         6.24487     518.878E-03        -7.08237     821.395E-03        -1.65889     518.878E-03        -2.76769              0.              0.              0.              0.              0.              0.              0.    -21.5542E+06    -24.3112E+06    -73.7416E+06    -23.8114E+06    -71.8314E+06    -23.9643E+06    -9.68797E+06             20.
              20     4.00026E-03     113.218E-03         5.11426     950.973E-03        -6.97844        -2.75848     894.297E-03     950.973E-03        -1.04604              0.              0.              0.              0.              0.              0.              0.    -23.6799E+06    -26.3961E+06    -77.0551E+06    -25.6166E+06    -75.8329E+06    -25.6816E+06    -7.85025E+06             20.
              21     2.99988E-03     113.222E-03         5.71159         1.37418        -6.97713         1.61239        -2.87794         1.37418         5.54557              0.              0.              0.              0.              0.              0.              0.    -25.2503E+06    -28.0197E+06    -79.7267E+06    -26.9558E+06    -79.0238E+06    -27.0171E+06    -5.96561E+06             20.
              22     2.00026E-03     113.222E-03         6.53764     588.834E-03        -6.62254     593.733E-03        -1.67919         1.58939         3.58184              0.              0.              0.              0.              0.              0.              0.    -26.2484E+06    -29.4276E+06    -81.6207E+06    -28.0067E+06    -81.3082E+06    -27.9817E+06    -3.91944E+06             20.
              23     999.749E-06     113.229E-03         10.6172         1.75471        -10.1280         1.00620        -1.51756         2.75527         16.6964              0.              0.              0.              0.              0.              0.              0.    -25.3723E+06    -31.6664E+06    -82.9897E+06    -28.3396E+06    -82.8858E+06    -28.8030E+06    -2.16870E+06             20.
              24    -632.381E-09     112.258E-03         10.7047    -401.734E-03        -8.06055         8.08571    -997.506E-03        -4.84581         4.26152              0.              0.              0.              0.              0.              0.              0.    -35.6634E+06    -45.7845E+06    -87.1925E+06    -40.6983E+06    -87.1496E+06    -40.7926E+06    -950.136E+03             20.
              25     699.646E-09     111.257E-03         7.68997        -1.00090        -9.98383         4.82622        -2.67600        -5.44497         3.78804              0.              0.              0.              0.              0.              0.              0.    -49.0412E+06    -59.4892E+06    -90.1772E+06    -54.0765E+06    -90.1338E+06    -54.4973E+06    -740.921E+03             20.
              26    -772.554E-09     110.255E-03         7.22255        -1.42747        -6.34403         2.01710    -760.871E-03        -1.80518         12.7368              0.              0.              0.              0.              0.              0.              0.    -65.7402E+06    -76.1360E+06    -92.0587E+06    -71.5233E+06    -91.2153E+06    -71.1962E+06    -1.31406E+03             20.
              27     849.961E-09     109.254E-03         9.65121         3.58351        -13.3431        -8.86395         5.31659         3.43895         13.9221              0.              0.              0.              0.              0.              0.              0.    -84.0518E+06    -91.3007E+06    -97.8384E+06    -91.3191E+06    -90.7891E+06    -91.0828E+06    -191.534E+03             20.
              28    -924.394E-09     108.254E-03         9.69981         7.72264        -20.1872        -14.8742         2.40968         9.69981         19.0910              0.              0.              0.              0.              0.              0.              0.    -87.9547E+06    -109.897E+06    -119.933E+06    -114.119E+06    -89.0470E+06    -114.619E+06     1.66591E+06             20.
              29     991.645E-09     107.255E-03         12.3358         1.56776        -16.5746        -8.80935        -6.19752         12.3358         17.7752              0.              0.              0.              0.              0.              0.              0.    -83.5267E+06    -137.915E+06    -147.185E+06    -142.873E+06    -83.8831E+06    -141.871E+06     1.47587E+06         20.0023
              30    -1.04627E-06     106.255E-03         19.7871        -2.71493        -18.5455        -8.05527     272.903E-03         6.30911         27.6125     169.721E-06    -84.1919E-06    -85.5252E-06    -85.4385E-06     169.634E-06    -84.1919E-06     9.40833E-06    -76.1986E+06    -148.902E+06    -155.492E+06    -151.066E+06    -76.6683E+06    -152.858E+06     2.83444E+06         20.0139
              31     1.07795E-06     105.255E-03         17.3131     347.516E-03        -17.9473        -7.98020         7.34595     347.516E-03         10.0450     685.875E-06    -341.837E-06    -344.070E-06    -343.830E-06     685.634E-06    -341.837E-06     31.2629E-06    -68.7323E+06    -133.492E+06    -136.979E+06    -136.208E+06    -69.5035E+06    -133.492E+06     1.02994E+06         20.0392
              32    -1.07024E-06     104.256E-03         9.47954         3.58539        -18.5824        -15.2516         3.74209         5.99202        -6.62637     1.78263E-03    -886.571E-06    -896.134E-06    -886.789E-06     1.78194E-03    -895.234E-06     85.1184E-06    -61.9606E+06    -102.863E+06    -105.261E+06    -101.223E+06    -64.4536E+06    -104.408E+06     1.97298E+06         20.0787
              33     1.00200E-06     103.252E-03         13.6912         4.52846        -19.1529        -4.61796         7.50897        -3.82424        -2.59145     3.87914E-03    -1.90344E-03    -1.97558E-03    -1.89247E-03     3.86818E-03    -1.97558E-03     465.593E-06    -47.9669E+06    -62.2199E+06    -68.0226E+06    -63.7114E+06    -50.7329E+06    -63.7650E+06     6.59804E+06         20.1603
              34    -1.09987E-06     102.246E-03         25.7360        -2.16861        -17.5089         9.93557         13.6318        -17.5089         14.0487     7.19626E-03    -3.54329E-03    -3.65343E-03    -3.53847E-03     7.14478E-03    -3.60677E-03     1.46348E-03    -4.13546E+06    -15.1783E+06    -32.1385E+06    -12.1139E+06    -24.1600E+06    -15.1783E+06     10.5429E+06         20.3853
              35     1.02167E-06     101.233E-03         30.0071        -10.9547        -16.4137         16.5494         2.50303        -16.4137         29.4062     11.7753E-03    -5.83084E-03    -5.94568E-03    -5.86609E-03     11.6957E-03    -5.83084E-03     2.35034E-03     37.3669E+06     19.4914E+06     3.44816E+06     23.2300E+06     10.5894E+06     26.4870E+06     10.0656E+06         20.9385
              36    -829.495E-09     100.224E-03         29.2034        -14.0116        -19.7057         23.0180        -12.6422        -14.8896         30.4878     20.5726E-03    -10.1871E-03    -10.3869E-03    -10.2816E-03     20.4673E-03    -10.1871E-03     3.60492E-03     81.6283E+06     54.3589E+06     33.7285E+06     67.7413E+06     40.6199E+06     61.3545E+06     12.5571E+06         22.0635
              37     755.245E-09     99.1957E-03         18.3513        -6.59910        -16.9840         11.6099        -10.2427        -6.59910         16.0263     38.9421E-03    -19.2038E-03    -19.7483E-03    -19.5768E-03     38.7706E-03    -19.2038E-03     6.32874E-03     132.925E+06     87.5226E+06     62.5636E+06     101.512E+06     68.8480E+06     112.651E+06     7.95979E+06         23.9996
              38     248.741E-09     98.1461E-03         17.9511         2.29516        -25.9450         13.4556        -21.4495         2.29516         14.1421     70.7533E-03    -34.9353E-03    -35.8087E-03    -35.5331E-03     70.4777E-03    -34.9353E-03     10.8229E-03     160.750E+06     104.306E+06     80.9345E+06     132.885E+06     83.6704E+06     129.435E+06     681.255E+03         26.9138
              39     1.70360E-09     97.0510E-03         23.9878         3.75020        -40.5376        -4.25715        -12.2927         3.75020         4.23025     119.788E-03    -58.9624E-03    -60.7860E-03    -60.4384E-03     119.441E-03    -58.9624E-03     15.7215E-03     182.822E+06     118.679E+06     92.7762E+06     149.298E+06     93.4713E+06     151.508E+06     5.97924E+06         30.9212
              40     2.82790E-06     95.8919E-03         11.8677         5.47964        -22.0670        -15.6550         5.19796         5.73744        -10.1799     187.174E-03    -92.1587E-03    -94.9835E-03    -94.6198E-03     186.811E-03    -92.1587E-03     20.1692E-03     188.439E+06     137.774E+06     103.130E+06     155.206E+06     103.534E+06     170.603E+06    -198.236E+03         36.1383
              41    -523.718E-09     94.6420E-03         7.51332         6.70237        -7.08814         5.24705        -5.07968         6.96017         6.61588     269.936E-03    -133.369E-03    -136.510E-03    -136.178E-03     269.605E-03    -133.369E-03     22.9539E-03     172.424E+06     147.668E+06     100.820E+06     165.341E+06     100.984E+06     154.588E+06    -684.324E+03         42.4416
              42     3.55499E-06     93.2728E-03         12.8333         1.49734        -11.3893    -630.497E-03        -8.70834         12.2802         6.04343     358.576E-03    -177.642E-03    -180.840E-03    -180.590E-03     358.326E-03    -177.642E-03     22.9922E-03     151.247E+06     141.395E+06     91.2480E+06     140.584E+06     92.0593E+06     151.247E+06    -3.19131E+06         49.2518
              43    -999.720E-09     91.7815E-03         26.0657         1.19214        -22.8035    -924.797E-03         12.3736        -6.99445         10.3939     441.871E-03    -219.605E-03    -222.217E-03    -222.035E-03     441.688E-03    -219.605E-03     21.8689E-03     138.535E+06     120.559E+06     80.7989E+06     134.863E+06     81.5386E+06     123.491E+06    -4.64714E+06         55.8025
              44     2.59641E-06     90.1899E-03         21.0521         2.35341        -18.4793         6.56782         14.9743        -16.6160     842.502E-03     512.817E-03    -255.164E-03    -257.659E-03    -257.553E-03     512.711E-03    -255.164E-03     17.4723E-03     109.115E+06     83.6563E+06     60.3702E+06     98.5629E+06     60.5081E+06     94.0701E+06    -1.41510E+06         61.5730
              45     91.3547E-09     88.4655E-03         8.14778         2.46545        -14.8482         6.55771        -13.2581         2.46545         1.95705     566.341E-03    -281.687E-03    -284.648E-03    -284.600E-03     566.293E-03    -281.687E-03     12.6944E-03     60.0814E+06     47.1833E+06     29.6098E+06     49.2865E+06     36.2944E+06     51.2935E+06    -1.97366E+06         66.0999
              46     2.06672E-06     86.6608E-03         13.6959         6.48655        -20.6180         7.71140        -2.97929        -5.16768         10.6525     602.976E-03    -300.604E-03    -302.650E-03    -302.134E-03     602.947E-03    -301.091E-03     10.1281E-03     10.4442E+06    -2.93438E+06    -19.2724E+06    -9.77893E+06     7.25427E+06    -9.23789E+06    -5.09643E+06         69.2467
              47    -2.47639E-06     84.7992E-03         30.9783        -6.76398        -21.9777         24.0002        -3.34535        -18.4182         19.0679     631.377E-03    -315.039E-03    -316.388E-03    -315.890E-03     631.367E-03    -315.527E-03     4.20938E-03    -33.2109E+06    -48.6213E+06    -67.7760E+06    -57.1706E+06    -34.6961E+06    -57.7414E+06    -2.89689E+06         71.1525
              48     3.64028E-06     82.9089E-03         39.2584    -683.066E-03        -35.1745         4.11117    -27.2684E-03    -683.066E-03        -12.9121     647.986E-03    -322.455E-03    -325.304E-03    -325.301E-03     647.982E-03    -322.455E-03     2.39528E-03    -65.4895E+06    -97.4328E+06    -116.816E+06    -106.933E+06    -66.2524E+06    -106.553E+06    -1.46102E+06         72.0557
              49    -1.98358E-06     80.9829E-03         31.1758         8.74397        -31.9561        -16.3994         15.6192         8.74397        -4.34281     654.742E-03    -325.653E-03    -328.858E-03    -328.855E-03     654.739E-03    -325.653E-03     2.06484E-03    -92.6780E+06    -131.450E+06    -151.176E+06    -141.306E+06    -93.0851E+06    -140.913E+06    -4.33621E+06         72.7039
              50     2.09167E-06     79.0390E-03         41.0919        -5.08812        -32.7123        -4.85838         13.2380        -5.08812         71.4706     658.801E-03    -327.861E-03    -330.780E-03    -330.779E-03     658.801E-03    -327.861E-03     633.178E-06    -121.132E+06    -148.003E+06    -168.031E+06    -158.049E+06    -121.652E+06    -157.466E+06    -4.37367E+06         73.2993
              51     728.611E-09     77.0983E-03         59.3124        -2.96898        -59.2850        -1.97709         2.00450        -2.96898         115.951     661.838E-03    -330.694E-03    -333.155E-03    -332.395E-03     661.837E-03    -331.452E-03     625.813E-06    -132.138E+06    -154.027E+06    -167.263E+06    -158.101E+06    -141.300E+06    -154.027E+06    -1.59223E+06         73.7650
              52    -632.143E-09     75.1453E-03         54.0268        -5.67191        -48.3240         24.2791        -18.5762        -5.67191         74.5221     664.637E-03    -333.535E-03    -334.399E-03    -333.535E-03     664.636E-03    -334.399E-03    -969.613E-06    -119.114E+06    -126.339E+06    -136.615E+06    -120.194E+06    -136.397E+06    -125.477E+06     1.14628E+06         74.1856
              53     1.00867E-06     73.1587E-03         40.0509        -13.6731        -27.4074         24.0438        -11.4003        -13.6731        -27.1136     664.453E-03    -333.085E-03    -333.191E-03    -333.086E-03     664.452E-03    -333.189E-03     79.4840E-06    -91.2158E+06    -96.4743E+06    -115.247E+06    -92.6204E+06    -114.704E+06    -95.6123E+06     2.61897E+06         74.4682
              54     444.423E-09     71.2003E-03         36.7846         1.38375        -47.4834         17.8628         10.7634        -37.9412        -43.8210     665.998E-03    -331.971E-03    -333.121E-03    -331.972E-03     665.997E-03    -333.119E-03     1.80256E-03    -57.9067E+06    -63.0804E+06    -79.2217E+06    -61.9072E+06    -75.9986E+06    -62.3032E+06     5.31747E+06         74.7299
              55    -537.723E-09     69.2451E-03         55.4054        -1.68006        -63.1028         43.0317         10.6936        -63.1028         26.5183     667.487E-03    -331.725E-03    -333.636E-03    -332.486E-03     667.486E-03    -332.873E-03     489.778E-06    -25.4492E+06    -30.4945E+06    -37.9506E+06    -29.4690E+06    -34.7081E+06    -29.7172E+06     4.33393E+06         74.9979
              56     2.09271E-06     67.2915E-03         61.5770        -11.2611        -50.6117         37.6847        -4.62163        -33.3588         78.3338     667.727E-03    -332.753E-03    -333.895E-03    -333.894E-03     667.727E-03    -332.753E-03    -775.399E-06    -586.005E+03    -5.82809E+06    -12.4252E+06    -5.82214E+06    -8.16316E+06    -4.85404E+06     624.834E+03         75.1858
              57    -1.35030E-06     65.2887E-03         31.6325        -6.45873        -24.0374         6.85357         1.06738        -6.78458         48.4348     668.859E-03    -333.818E-03    -334.445E-03    -334.196E-03     668.858E-03    -334.065E-03    -1.40348E-03     2.99310E+06    -2.70721E+06    -8.59836E+06    -1.69946E+06    -4.87986E+06    -1.73315E+06    -951.735E+03         75.2845
              58    -144.577E-09     63.3098E-03         27.5609    -761.617E-03        -31.3408         10.1981        -13.6522        -1.08747        -27.5423     668.753E-03    -333.769E-03    -334.447E-03    -333.768E-03     668.751E-03    -334.447E-03    -279.794E-06     1.35062E+06    -5.75029E+06    -10.0952E+06    -3.01433E+06    -8.10489E+06    -3.37564E+06     1.35916E+06         75.3231
              59    -833.956E-09     61.3316E-03         41.6304         4.71599        -45.2350         17.8669        -21.4714         4.71599        -73.1964     667.868E-03    -333.176E-03    -334.423E-03    -333.991E-03     667.866E-03    -333.606E-03     2.11204E-03    -144.833E+03    -5.99361E+06    -10.5961E+06    -4.68158E+06    -8.43403E+06    -3.61896E+06     2.06975E+06         75.3563
              60     2.12854E-06     59.3620E-03         46.1478        -1.37302        -36.0158         8.86707         16.2100        -16.3181        -62.9041     667.936E-03    -332.480E-03    -335.232E-03    -335.231E-03     667.935E-03    -332.480E-03     2.02289E-03    -3.52862E+06    -7.55234E+06    -13.9044E+06    -7.77688E+06    -10.2058E+06    -7.00274E+06    -691.244E+03         75.3999
              61    -423.349E-09     57.3790E-03         32.7342     230.464E-03        -29.0534         7.73017         10.8958        -14.7146        -39.7453     667.659E-03    -331.576E-03    -335.725E-03    -335.724E-03     667.658E-03    -331.576E-03     574.968E-06    -4.26180E+06    -8.89862E+06    -14.4573E+06    -8.32634E+06    -9.70190E+06    -9.58943E+06    -1.66830E+06         75.4306
              62     1.44438E-06     55.3980E-03         13.9387        -2.43825        -18.2156     652.004E-03        -4.92887        -2.43825        -27.7358     666.892E-03    -332.313E-03    -334.636E-03    -334.636E-03     666.892E-03    -332.313E-03    -553.524E-06    -10.0142E+06    -14.8364E+06    -21.3317E+06    -15.9248E+06    -14.1807E+06    -16.0768E+06    -672.704E+03         75.4330
              63    -1.00584E-06     53.4157E-03         32.2806        -13.7891        -21.0159         6.33037         10.7226        -19.5773         22.4206     667.260E-03    -333.182E-03    -334.531E-03    -334.531E-03     667.260E-03    -333.182E-03    -892.165E-06    -17.7207E+06    -21.5784E+06    -28.5506E+06    -25.5951E+06    -18.9589E+06    -23.2957E+06     823.797E+03         75.3913
              64     2.42209E-06     51.4075E-03         51.8012        -12.6519        -35.3335         15.0663         7.18972        -18.4402         80.8016     667.928E-03    -331.137E-03    -336.986E-03    -336.986E-03     667.928E-03    -331.137E-03    -64.6415E-06    -20.7420E+06    -26.9231E+06    -32.3365E+06    -29.1710E+06    -22.1901E+06    -28.6404E+06     140.982E+03         75.2655
              65     2.69269E-06     49.3657E-03         41.3694        -1.94243        -43.3336         12.5127        -14.4769        -1.94243         78.4889     665.291E-03    -329.150E-03    -335.673E-03    -335.672E-03     665.290E-03    -329.150E-03     1.44503E-03    -30.5087E+06    -37.1232E+06    -44.2472E+06    -40.5171E+06    -30.8108E+06    -40.5511E+06    -1.58088E+06         75.0075
              66    -882.780E-09     47.3725E-03         25.1968         7.25721        -38.4022        -2.18344        -11.0220         7.25721         55.4195     666.619E-03    -331.551E-03    -334.694E-03    -333.461E-03     666.618E-03    -332.783E-03    -333.573E-06    -40.2438E+06    -47.5527E+06    -55.9040E+06    -51.9276E+06    -40.7923E+06    -50.9807E+06    -2.30138E+06         74.5776
              67    -660.332E-09     45.3555E-03         22.3505         17.0241        -32.5773        -19.6669         9.44012         17.0241         46.1779     671.965E-03    -335.142E-03    -336.538E-03    -335.304E-03     671.964E-03    -336.375E-03    -1.74064E-03    -59.0470E+06    -64.7757E+06    -70.3963E+06    -67.5535E+06    -61.8898E+06    -64.7757E+06    -3.00688E+06         74.1550
              68    -1.46183E-06     43.3558E-03         25.0073         23.1458        -44.8837        -24.0603         2.99761         24.3321         61.4109     672.318E-03    -335.638E-03    -337.039E-03    -335.799E-03     672.316E-03    -336.876E-03    -2.59325E-03    -78.3650E+06    -84.6468E+06    -86.2693E+06    -83.0223E+06    -80.6868E+06    -85.5720E+06    -667.594E+03         74.0589
              69    -1.01703E-06     41.3404E-03         31.6620         3.79333        -42.5957         1.05430        -6.37490        -1.81974         17.5476     674.335E-03    -337.404E-03    -338.923E-03    -337.402E-03     674.333E-03    -338.923E-03    -2.58453E-03    -88.9761E+06    -95.1216E+06    -99.6059E+06    -94.9348E+06    -92.7220E+06    -96.0467E+06    -2.24303E+06         74.7429
              70    -474.814E-09     39.3211E-03         56.3306        -20.3050        -32.7579         47.9803        -11.9546        -32.7579        -45.6064     680.368E-03    -340.385E-03    -341.043E-03    -340.762E-03     680.367E-03    -340.666E-03    -108.733E-06    -100.912E+06    -102.753E+06    -112.381E+06    -102.626E+06    -110.668E+06    -102.753E+06    -1.96457E+06         76.2508
              71    -529.905E-09     37.2828E-03         55.7139        -4.50156        -39.0026         52.4679        -1.25552        -39.0026        -24.1621     687.619E-03    -343.147E-03    -344.010E-03    -344.010E-03     687.619E-03    -343.147E-03    -360.079E-06    -58.1032E+06    -58.5556E+06    -132.147E+06    -58.5596E+06    -131.691E+06    -58.5556E+06    -4.73244E+06         77.9169
              72     1.52886E-06     35.2226E-03         36.6165         20.7164        -47.8021        -6.68300         18.7071        -2.49335        -16.9711     706.290E-03    -351.560E-03    -354.307E-03    -354.306E-03     706.288E-03    -351.560E-03     401.262E-06     33.0613E+06     25.3376E+06    -137.386E+06     32.4273E+06    -136.752E+06     25.3376E+06    -474.933E+03         80.0351
              73     3.60692E-06     33.1145E-03         59.9276         3.28450        -52.2397        -45.2110        -3.74420         59.9276        -32.1627     745.367E-03    -371.326E-03    -374.503E-03    -374.447E-03     745.311E-03    -371.326E-03     12.6000E-03     61.7816E+06     39.4125E+06    -124.312E+06     46.2596E+06    -123.886E+06     54.5081E+06     1.07014E+06         83.6525
              74    -3.46990E-06     30.8915E-03         62.5371        -13.2613        -36.0369        -14.0498        -10.4553         37.7440        -46.3816     832.064E-03    -414.105E-03    -422.385E-03    -414.888E-03     831.932E-03    -421.469E-03     25.6594E-03      2.9481E+06    -26.2072E+06    -108.706E+06    -21.2896E+06    -99.5637E+06    -11.1116E+06    -16.7825E+06         90.4147
              75    -2.95553E-06     28.4960E-03         57.0376        -22.3928        -41.7884         21.5309        -6.28162        -22.3928        -93.6801     981.642E-03    -460.661E-03    -537.799E-03    -530.238E-03     981.444E-03    -468.026E-03     34.5130E-03    -8.08578E+06    -31.3407E+06    -73.5201E+06    -36.2028E+06    -54.5983E+06    -22.1454E+06     421.375E+03         103.280
              76     112.769E-06     25.6215E-03         57.0863        -16.2335        -39.2760         7.72640         10.0839        -16.2335        -70.7036         1.29169    -601.118E-03    -706.314E-03    -702.013E-03         1.28739    -601.118E-03     158.869E-03     52.5234E+06    -15.9169E+06    -76.2724E+06     33.0298E+06    -65.9740E+06    -6.72165E+06     8.11831E+06         136.484
              77    -81.8232E-06     21.8916E-03         33.5973         3.13705        -24.8651        -14.0712         22.8033         3.13705         19.1503         2.22413    -833.186E-03        -1.29543    -481.909E-03         1.83743        -1.26000        -1.40408     149.823E+06    -11.0290E+06    -67.5648E+06     25.2389E+06     57.0197E+06    -11.0290E+06     9.26791E+06         198.165
              78     13.4415E-06     1.60187E-06         16.6816        -1.02188        -25.4436        -5.02485        -3.73718        -1.02188         38.2183         3.13090        -1.22757        -1.78359    -841.411E-03         2.74474        -1.78359        -1.73026     194.675E+06     6.17520E+06    -46.4374E+06    -15.1538E+06     191.619E+06    -22.0528E+06     25.3109E+06         235.259
              79    -91.4612E-06     1.60187E-06         5.02371        -1.62244        -15.8587    -23.8137E-03        -10.8112        -1.62244         17.7302         3.31817        -1.52066        -1.76981        -1.51565         3.31317        -1.76981    -302.378E-03     196.756E+06     15.7952E+06    -40.0316E+06    -5.13296E+06     190.086E+06    -12.4329E+06     35.5955E+06         235.607
              80    -93.8871E-06     1.60187E-06         2.53524        -2.15578        -13.8289        -3.98610        -11.2782         1.81483         8.85682         3.30295        -1.51750        -1.76551        -1.51527         3.30072        -1.76551    -23.7097E-03     223.046E+06     25.8533E+06    -7.34849E+06    -834.703E+03     216.533E+06     25.8533E+06     36.1625E+06         235.989
              81    -118.663E-06     1.60187E-06         5.21439    -973.734E-03        -13.9593        -3.12349        -9.59204         2.99688         12.0594         3.30786        -1.52135        -1.76180        -1.51157         3.29808        -1.76180     384.799E-03     229.887E+06     47.3944E+06     8.68588E+06     11.4644E+06     227.108E+06     47.3944E+06     24.5751E+06         236.654
              82    -107.426E-06     1.60187E-06         9.24183         2.70641        -12.0867        -2.46842    -376.486E-03         2.70641         20.1111         3.31053        -1.52948        -1.76107        -1.49730         3.27834        -1.76107     765.281E-03     167.868E+06     68.7933E+06    -4.82455E+06    -3.03305E+06     166.076E+06     68.7933E+06     16.6926E+06         237.584
              83    -80.8863E-06     1.60187E-06         9.08590         1.34275        -7.35753        -1.66893         3.39730         1.34275         15.4412         3.30149        -1.51322        -1.76283        -1.43446         3.22272        -1.76283         1.19335     214.155E+06     180.786E+06     42.0413E+06     42.2462E+06     213.950E+06     180.786E+06     4.73509E+06         238.817
              84    -74.9882E-06     1.60187E-06         7.91533     421.052E-03        -6.15037     912.186E-03     852.772E-03     421.052E-03         13.9975         3.29064        -1.49315        -1.76216        -1.36980         3.16729        -1.76216         1.51421     231.841E+06     217.277E+06     64.5835E+06     86.6502E+06     209.775E+06     217.277E+06     28.4787E+06         240.071
              85    -128.482E-06     1.60187E-06         7.48205     52.7221E-03        -10.2024        -1.46746        -1.25290     52.7221E-03         17.6073         3.27167        -1.47726        -1.75559        -1.28335         3.07775        -1.75559         1.85555     211.488E+06     118.555E+06     32.5290E+06     57.5035E+06     186.513E+06     118.555E+06     45.8888E+06         241.435
              86    -35.0317E-06     1.60187E-06         7.42233    -455.318E-03        -9.24350        -4.17303         2.35185    -455.318E-03         13.9263         3.30023        -1.51326        -1.74837        -1.20194         2.98891        -1.74837         2.35746     143.351E+06     19.1409E+06    -95.5753E+06     17.9078E+06     113.019E+06    -64.0103E+06     7.34980E+06         243.282
              87    -89.1071E-06     1.60187E-06         6.31630        -1.05526        -6.34721        -4.37468         4.34376        -1.05526    -75.9320E-03         3.28603        -1.50573        -1.74876        -1.28429         3.06459        -1.74876         1.87254     113.051E+06     821.472E+03    -119.798E+06     31.1951E+06     45.2093E+06    -82.3297E+06     44.3927E+06         246.230
              88     18.5678E-06     1.60187E-06         5.58999        -1.57744        -5.96238        -3.24811         2.87572        -1.57744        -9.78377         3.21541        -1.45953        -1.75990        -1.40400         3.15988        -1.75990         1.00100     248.627E+06     100.233E+06     49.2605E+06     102.783E+06     195.105E+06     100.233E+06     85.8273E+06         253.283
              89     173.684E-06     1.60187E-06         4.28882        -1.84978        -5.06755        -1.53054     751.810E-03        -1.84978        -8.48111         3.18919        -1.40256        -1.77186        -1.00736         2.79399        -1.77186         2.10688     329.537E+06     192.020E+06     114.551E+06     132.153E+06     311.935E+06     192.020E+06     54.0958E+06         264.294
              90     313.052E-06     1.60187E-06         2.59108        -1.67450        -3.87562    -26.8143E-03        -1.25772        -1.67450        -6.34603         3.13481        -1.34254        -1.76629    -516.538E-03         2.30880        -1.76629         3.46674     356.359E+06     211.351E+06     99.2669E+06     129.120E+06     326.506E+06     211.351E+06     74.0851E+06         274.944
              91     425.162E-06     1.60187E-06         5.02359        -1.32841        -4.95310     318.839E-03    -248.351E-03        -1.32841        -9.93433         3.04432        -1.30047        -1.75031    -231.718E-03         1.97557        -1.75031         3.71634     340.076E+06     191.921E+06     127.117E+06     153.944E+06     313.250E+06     191.921E+06     61.4010E+06         284.504
              92     437.087E-06     1.60187E-06         2.81013        -1.67172        -6.30694        -1.17668        -2.89020        -1.10165        -7.28798         2.91497        -1.18208        -1.73843     382.939E-03         1.34996        -1.73843         3.89964     213.463E+06     61.2148E+06     1.98267E+06     108.737E+06     149.257E+06     18.6673E+06     44.2672E+06         291.788
              93     385.660E-06     1.60187E-06         2.37983        -1.60751        -4.69151    -806.062E-03        -2.07568        -1.03744        -5.22646         2.59302    -817.189E-03        -1.71699         1.33565     440.175E-03        -1.71699         3.03395     237.377E+06     76.0257E+06    -15.5390E+06     119.643E+06     144.742E+06     33.4782E+06     87.6931E+06         294.416
              94     304.963E-06     1.60187E-06         4.12205    -601.386E-03        -2.54594     232.095E-03         1.92888        -1.18625        -4.77233         2.22860    -547.303E-03        -1.64022         1.70304    -21.7377E-03        -1.64022         2.16690     197.624E+06     73.1824E+06     1.47266E+06     94.1652E+06     127.624E+06     50.4898E+06     65.6869E+06         291.354
              95     8.27140E-03     23.3537E-03         2.31251    -692.228E-03        -1.94154        -1.34594         2.30177        -1.27710     306.160E-03         2.03590    -661.670E-03        -1.38391     459.949E-03     698.818E-03        -1.16846         2.32733     83.7541E+06     23.2365E+06    -88.4139E+06     59.6051E+06    -59.0714E+06     18.0431E+06    -6.94615E+06         245.017
              96     10.2340E-03     27.0871E-03         3.21166    -707.611E-03        -4.10094        -2.65630         1.76702    -707.611E-03         4.80804         1.56864    -635.849E-03    -918.547E-03    -523.704E-03         1.17380    -635.849E-03         1.80078     104.836E+06    -17.5660E+06    -173.907E+06    -74.9387E+06    -11.6316E+06      -66.76E+03    -64.4435E+06         174.305
              97     11.1284E-03     29.4857E-03         5.25582    -128.743E-03        -5.06826     567.962E-03    -380.408E-03    -128.743E-03     51.6033E-03         1.08851    -486.286E-03    -592.936E-03    -415.514E-03     911.091E-03    -486.286E-03         1.03241     135.714E+06    -70.0016E+06    -173.487E+06    -47.6056E+06     9.83275E+06    -70.0016E+06     6.04588E+06         135.911
              98     11.6095E-03     32.0038E-03         7.83046     9.08872E-03        -5.82713        -1.57206         3.57539     9.08872E-03        -3.12099     969.046E-03    -441.433E-03    -518.606E-03    -411.292E-03     861.732E-03    -441.433E-03     753.466E-03     102.058E+06    -7.73612E+06    -162.059E+06     19.4924E+06    -79.4940E+06    -7.73612E+06    -10.6407E+06         121.956
              99     11.9677E-03     34.5794E-03         8.57019     250.809E-03        -7.02214        -3.53607         5.08412     250.809E-03        -5.97792     887.661E-03    -412.385E-03    -475.974E-03    -426.696E-03     838.383E-03    -412.385E-03     505.090E-03     55.4420E+06     25.5422E+06    -195.463E+06    -11.6058E+06    -128.416E+06     25.5422E+06    -30.8136E+06         116.487
             100     12.2076E-03     37.0781E-03         3.76288    -27.5934E-03        -4.57940    -125.166E-03    -691.357E-03    -27.5934E-03        -7.51809     830.547E-03    -390.638E-03    -442.794E-03    -411.338E-03     799.092E-03    -390.638E-03     394.726E-03     86.1621E+06     27.6215E+06    -123.349E+06      13.246E+06    -88.0549E+06     65.2432E+06     8.50958E+06         112.174
             101     12.3802E-03     39.5650E-03         2.13455    -811.186E-03        -4.80871     907.847E-03        -3.58200    -811.186E-03         4.55408     799.362E-03    -375.431E-03    -425.849E-03    -401.354E-03     774.867E-03    -375.431E-03     342.490E-03     80.9345E+06     37.2174E+06    -69.6654E+06    -2.98280E+06    -23.3698E+06     74.8391E+06     6.01637E+06         108.368
             102     12.5114E-03     41.8518E-03         9.02186    -923.760E-03        -10.1152        -1.96429     870.938E-03    -923.760E-03        -6.84497     774.237E-03    -366.595E-03    -413.532E-03    -393.550E-03     754.255E-03    -366.595E-03     305.366E-03     89.4470E+06     66.8786E+06    -55.8548E+06     575.848E+03     16.5433E+06     83.3516E+06     5.13668E+06         105.190
             103     12.6312E-03     43.9648E-03         11.8708    -398.835E-03        -11.1882        -1.69729         2.37980    -398.835E-03        -21.1951     755.149E-03    -357.075E-03    -403.250E-03    -385.681E-03     737.580E-03    -357.075E-03     283.084E-03     81.6778E+06     58.3313E+06    -50.2761E+06     -7.2195E+06     22.1481E+06     74.8043E+06     244.152E+03         103.152
             104     12.7234E-03     46.0826E-03         8.76625    -175.246E-03        -8.33000         1.82003        -1.38378    -175.246E-03        -16.7736     734.033E-03    -346.720E-03    -392.846E-03    -376.668E-03     717.855E-03    -346.720E-03     268.092E-03     82.4717E+06     65.3634E+06    -34.7824E+06     4.28476E+06     33.1697E+06     75.5982E+06     5.73884E+06         102.015
             105     12.7888E-03     48.1936E-03         7.84108    -51.0377E-03        -4.63488    -77.5190E-03         3.28372    -51.0377E-03        -4.29288     714.119E-03    -340.762E-03    -380.484E-03    -365.522E-03     699.157E-03    -340.762E-03     254.149E-03     63.6598E+06     53.0981E+06    -35.0751E+06    -7.89441E+06     25.9175E+06     63.6598E+06    -3.37598E+06         101.181
             106     12.8277E-03     50.2083E-03         5.40982     151.980E-03        -3.81876    -821.335E-03         2.41239     151.980E-03         6.77231     701.722E-03    -336.150E-03    -368.614E-03    -354.941E-03     688.049E-03    -336.150E-03     240.366E-03     58.2945E+06     51.2104E+06    -24.3561E+06      131.41E+03     26.7228E+06     58.2945E+06     2.01011E+06         100.358
             107     12.8453E-03     52.1688E-03         3.89874    -67.7791E-03        -5.43612        -2.22381     686.422E-03    -67.7791E-03         7.36731     692.083E-03    -333.382E-03    -361.371E-03    -348.509E-03     679.221E-03    -333.382E-03     231.378E-03     46.9595E+06     38.9269E+06    -26.9739E+06    -6.23952E+06     18.1925E+06     46.9595E+06    -3.29269E+06         99.6188
             108     12.8601E-03     54.1631E-03         6.08494    -299.566E-03        -5.87940    -687.670E-03     893.213E-03    -299.566E-03         9.69130     686.734E-03    -333.168E-03    -356.667E-03    -344.322E-03     674.390E-03    -333.168E-03     225.630E-03     41.7482E+06     35.2122E+06    -16.4474E+06     2.49326E+06     16.2715E+06     41.7482E+06     1.43438E+06         99.0883
             109     12.8740E-03     56.1694E-03         4.16632    -344.471E-03        -5.99664         2.05371        -3.88402    -344.471E-03         6.24910     684.075E-03    -332.769E-03    -355.452E-03    -343.552E-03     672.176E-03    -332.769E-03     221.156E-03     31.9166E+06     25.7619E+06    -18.8964E+06    -2.31833E+06     10.0777E+06     31.0227E+06    -2.34958E+06         98.7100
             110     12.8836E-03     58.1530E-03         3.04664    -498.540E-03        -5.59393         2.41163        -4.95892    -498.540E-03        -3.31637     683.021E-03    -332.405E-03    -356.537E-03    -345.029E-03     671.512E-03    -332.405E-03     217.536E-03     28.6167E+06     21.9353E+06    -12.8275E+06     2.42525E+06     7.57647E+06     27.7228E+06     1.03363E+06         98.4029
             111     12.8922E-03     60.1395E-03         5.93540    -368.745E-03        -6.91084     236.726E-03        -1.21217    -368.745E-03        -10.7143     682.110E-03    -332.093E-03    -357.366E-03    -346.417E-03     671.160E-03    -332.093E-03     212.216E-03     24.2823E+06     16.8512E+06    -14.4061E+06    -2.09840E+06     4.54353E+06     24.2823E+06    -1.16142E+06         98.1241
             112     12.8923E-03     62.1066E-03         11.9437     322.349E-03        -11.8490        -1.82611         1.92083     322.349E-03        -23.3525     682.049E-03    -331.384E-03    -357.380E-03    -346.702E-03     671.371E-03    -331.384E-03     209.613E-03     29.0474E+06     17.3764E+06    -8.52922E+06     2.63259E+06     6.21458E+06     29.0474E+06     1.31843E+06         97.8715
             113     12.8955E-03     64.0845E-03         13.8869     951.877E-03        -12.8763     552.285E-03     458.327E-03     951.877E-03        -26.6102     682.343E-03    -329.770E-03    -356.539E-03    -345.915E-03     671.719E-03    -329.770E-03     209.026E-03     33.0124E+06     12.0861E+06    -7.66426E+06    -3.36913E+06     7.79096E+06     33.0124E+06    -295.137E+03         97.6652
             114     12.9005E-03     66.0472E-03         9.15574     847.874E-03        -7.77360         2.28254    -900.409E-03     847.874E-03        -16.5827     682.195E-03    -328.745E-03    -356.237E-03    -345.598E-03     671.556E-03    -328.745E-03     209.138E-03     44.5071E+06     17.0836E+06    -2.56529E+06     872.864E+03     13.6454E+06     44.5071E+06     2.11905E+06         97.4986
             115     12.9052E-03     68.0153E-03         7.83695     305.266E-03        -5.70294    -338.493E-03         2.47249     305.266E-03    -280.677E-03     682.407E-03    -328.975E-03    -355.496E-03    -344.888E-03     671.799E-03    -328.975E-03     208.774E-03     53.2069E+06     20.2137E+06    -3.08093E+06    -2.48311E+06     19.6159E+06     53.2069E+06     1.20547E+06         97.3283
             116     12.9100E-03     69.9765E-03         9.02325    -110.539E-03        -7.72224    -6.77264E-03         1.30778    -110.539E-03         14.5735     680.317E-03    -329.470E-03    -352.019E-03    -341.372E-03     669.670E-03    -329.470E-03     208.577E-03     66.5211E+06     25.2722E+06    -237.689E+03     339.938E+03     24.6946E+06     66.5211E+06     1.27912E+06         97.1280
             117     12.9218E-03     71.9842E-03         10.5953    -392.184E-03        -13.7199         2.42348        -5.54805    -392.184E-03         22.9691     676.564E-03    -330.395E-03    -346.907E-03    -336.035E-03     665.692E-03    -330.395E-03     209.849E-03     74.1378E+06     31.2051E+06    -4.96997E+06    -4.76350E+06     30.9986E+06     74.1378E+06     818.093E+03         96.8584
             118     12.9324E-03     73.9252E-03         13.1845    -121.815E-03        -15.6324    -137.618E-03        -2.31032    -121.815E-03         27.8094     671.613E-03    -330.711E-03    -342.279E-03    -330.811E-03     660.145E-03    -330.711E-03     214.348E-03     83.0584E+06     38.8439E+06    -259.172E+03    -106.022E+03     38.6907E+06     83.0584E+06     1.98236E+06         96.4814
             119     12.9620E-03     75.8767E-03         12.4634     897.127E-03        -11.4758        -3.11927         4.10695     897.127E-03         22.5444     664.805E-03    -329.314E-03    -338.535E-03    -325.836E-03     652.106E-03    -329.314E-03     224.239E-03     87.8325E+06     45.0601E+06    -1.18918E+06    -1.06753E+06     44.9384E+06     87.8325E+06     2.04105E+06         96.0471
             120     13.0042E-03     77.7787E-03         8.89277         1.58345        -9.00099     758.416E-03    -866.642E-03         1.58345         13.6053     658.623E-03    -326.874E-03    -331.866E-03    -317.384E-03     644.140E-03    -326.874E-03     237.549E-03     85.7185E+06     44.0831E+06    -5.59790E+06    -4.34335E+06     42.8285E+06     85.7185E+06     -3.0515E+06         95.4821
             121     13.0569E-03     79.6561E-03         5.86048         1.24505        -7.47985         2.61106        -4.23043         1.24505         10.1832     645.679E-03    -320.438E-03    -324.755E-03    -304.015E-03     628.455E-03    -323.954E-03     255.404E-03     93.7552E+06     53.9570E+06    -2.07184E+06     2.55816E+06     49.3270E+06     93.7552E+06     5.47468E+06         94.5388
             122     13.1338E-03     81.5081E-03         4.81577     738.036E-03        -5.41878        -1.35333     750.321E-03     738.036E-03         9.40868     621.749E-03    -306.120E-03    -317.938E-03    -283.786E-03     599.415E-03    -317.938E-03     283.172E-03     82.2116E+06     45.5948E+06    -25.0184E+06    -10.3243E+06     30.9007E+06     82.2116E+06    -6.50869E+06         93.0017
             123     13.2515E-03     83.2874E-03         4.56970     487.749E-03        -3.77214     578.677E-03     218.887E-03     487.749E-03         5.87709     592.164E-03    -282.894E-03    -308.976E-03    -252.681E-03     561.951E-03    -308.976E-03     318.162E-03     93.9680E+06     59.4321E+06    -23.4080E+06     9.09232E+06     26.9317E+06     93.9680E+06     6.23111E+06         91.0145
             124     13.4245E-03     84.9631E-03         2.20749    -12.2866E-03        -2.42773     859.668E-03        -1.07991    -12.2866E-03         1.69197     553.936E-03    -257.197E-03    -295.572E-03    -209.268E-03     506.007E-03    -295.572E-03     376.848E-03     64.6224E+06     47.3045E+06    -73.7823E+06    -20.3624E+06     -6.1153E+06     64.6224E+06    -13.9417E+06         88.4955
             125     13.6901E-03     86.5593E-03         1.39582    -476.080E-03        -1.98641     311.213E-03    -901.799E-03    -476.080E-03    -446.589E-03     501.708E-03    -227.440E-03    -274.638E-03    -144.388E-03     418.655E-03    -274.638E-03     455.252E-03     55.6641E+06     677.466E+03    -107.164E+06     4.72070E+06    -60.7461E+06     5.20328E+06    -54.3189E+06         84.3452
             126     14.1097E-03     88.0235E-03         1.91661    -550.405E-03        -3.50061         1.80142        -3.38541    -550.405E-03        -1.39674     436.650E-03    -189.031E-03    -248.110E-03    -81.5871E-03     329.206E-03    -248.110E-03     470.831E-03     20.0795E+06    -52.5191E+06    -105.357E+06     5.62366E+06    -71.1198E+06    -72.3008E+06    -6.23731E+06         78.7964
             127     14.5078E-03     89.3641E-03         3.27885    -390.743E-03        -4.98970         1.19159        -2.90244    -390.743E-03         3.86717     384.376E-03    -165.145E-03    -220.182E-03    -58.1435E-03     277.374E-03    -220.182E-03     435.196E-03    -2.99957E+06    -89.5473E+06    -128.777E+06    -19.2497E+06    -73.2972E+06    -128.777E+06    -7.00605E+06         73.7927
             128     14.8932E-03     90.7107E-03         3.65667    -114.676E-03        -3.58664     659.828E-03    -589.796E-03    -114.676E-03         7.10318     350.599E-03    -158.279E-03    -193.363E-03    -55.3006E-03     247.620E-03    -193.363E-03     408.822E-03     15.6109E+06    -62.3571E+06    -116.927E+06     9.93531E+06    -56.6815E+06    -116.927E+06    -19.3856E+06         69.9287
             129     15.2657E-03     92.0011E-03         2.11104     29.5758E-03        -1.71737    -308.293E-03     701.963E-03     29.5758E-03         3.45718     319.714E-03    -152.744E-03    -166.957E-03    -51.9904E-03     218.961E-03    -166.957E-03     387.005E-03    -1.31081E+06    -50.7868E+06    -118.155E+06    -2.61740E+06    -49.4802E+06    -118.155E+06    -7.71251E+06         66.7318
             130     15.6295E-03     93.2676E-03         3.09920     986.712E-06        -1.99736     494.151E-03     607.680E-03     986.712E-06         4.58715     290.737E-03    -140.718E-03    -149.440E-03    -50.0452E-03     193.032E-03    -142.407E-03     364.908E-03     6.25270E+06    -40.8787E+06    -111.955E+06     4.91731E+06    -39.5433E+06    -111.955E+06    -7.71704E+06         63.8960
             131     15.9820E-03     94.4928E-03         3.91029    -131.096E-03        -2.67496    -397.264E-03         1.63259    -131.096E-03         2.01838     262.517E-03    -119.752E-03    -142.722E-03    -47.6861E-03     167.481E-03    -119.752E-03     343.336E-03     3.66602E+06    -25.4924E+06    -103.998E+06     3.50480E+06    -25.3312E+06    -103.998E+06    -1.07661E+06         60.8928
             132     16.3251E-03     95.6854E-03         2.63434    -260.622E-03        -2.41152        -1.98043         2.20324    -260.622E-03     170.741E-03     235.153E-03    -98.1345E-03    -137.186E-03    -44.6786E-03     142.645E-03    -98.1345E-03     321.728E-03     14.0389E+06    -13.0760E+06    -89.7596E+06     7.85973E+06    -6.89689E+06    -89.7596E+06     4.54474E+06         58.1048
             133     16.6597E-03     96.8398E-03         2.84068    -237.122E-03        -3.08560    -912.601E-03     667.681E-03    -237.122E-03        -2.70669     207.878E-03    -77.5706E-03    -130.576E-03    -40.7535E-03     118.055E-03    -77.5706E-03     298.785E-03     21.1211E+06    -2.49985E+06    -79.5877E+06     6.88439E+06     11.7368E+06    -79.5877E+06     11.4772E+06         56.1023
             134     16.9821E-03     97.9683E-03         1.95826    -140.472E-03        -3.32542    -506.224E-03    -860.935E-03    -140.472E-03        -5.00673     179.398E-03    -57.9429E-03    -121.507E-03    -35.1911E-03     93.0828E-03    -57.9429E-03     272.081E-03     37.4603E+06    -1.28633E+06    -65.0421E+06     7.62224E+06     28.5518E+06    -65.0421E+06     14.5828E+06         54.2581
             135     17.2961E-03     99.0567E-03         2.77186    -78.9231E-03        -4.13363     828.758E-03        -2.19052    -78.9231E-03        -6.17237     150.043E-03    -39.3762E-03    -110.673E-03    -28.4653E-03     67.8352E-03    -39.3762E-03     242.091E-03     50.8461E+06    -4.21659E+06    -48.1480E+06     2.31195E+06     44.3176E+06    -48.1480E+06     17.7642E+06         51.1679
             136     17.5972E-03     100.113E-03         2.64335    -177.536E-03        -4.23286     615.087E-03        -2.20460    -177.536E-03        -6.26841     116.115E-03    -22.1480E-03    -93.9773E-03    -15.3722E-03     37.5097E-03    -22.1480E-03     202.304E-03     61.4049E+06     5.29548E+06    -15.3832E+06     16.8544E+06     49.4217E+06    -14.9589E+06     22.2694E+06         45.8694
             137     17.8907E-03     101.142E-03         1.14516    -335.084E-03        -2.35834     198.197E-03        -1.41139    -335.084E-03        -3.11179     53.8770E-03    -9.22063E-03    -44.6519E-03    -4.38062E-03     13.6057E-03    -9.22063E-03     95.9486E-03     62.5526E+06     36.7722E+06    -9.13814E+06     6.00220E+06     46.9743E+06     37.2102E+06     28.4832E+06         38.9916
             138     17.9630E-03     102.180E-03         2.05323    -396.383E-03        -2.47930    -760.705E-03     334.634E-03    -396.383E-03        -2.35150     7.62111E-03    -3.03078E-03    -4.58819E-03    -2.61674E-03     5.64966E-03    -3.03078E-03     8.06718E-03     92.6156E+06     44.9215E+06    -20.4263E+06    -13.1943E+06     84.9457E+06     45.3594E+06     18.6567E+06         31.6839
             139     17.9816E-03     103.188E-03         1.64132    -327.528E-03        -1.85322        -1.75459         1.54269    -327.528E-03    -925.339E-03     3.23074E-03    -1.35856E-03    -1.87173E-03    -1.84346E-03     3.20247E-03    -1.35856E-03     667.482E-06     130.841E+06     57.0504E+06    -725.260E+03    -359.626E+03     130.476E+06     57.0504E+06     6.47745E+06         25.9865
             140     17.9864E-03     104.192E-03         1.29313    -136.743E-03    -922.406E-03     68.3266E-03     302.395E-03    -136.743E-03    -767.142E-03     2.08608E-03    -902.628E-06    -1.18317E-03    -1.18207E-03     2.08498E-03    -902.628E-06     100.736E-06     139.898E+06     66.3254E+06    -6.58782E+06    -6.27573E+06     139.586E+06     66.3254E+06     3.43167E+06         23.1577
             141     17.9921E-03     105.195E-03         1.64462     66.6970E-03        -1.26639         1.32292    -944.685E-03     66.6970E-03         1.36761     1.12869E-03    -514.445E-06    -614.200E-06    -614.162E-06     1.12865E-03    -514.445E-06    -2.29478E-06     137.517E+06     38.2710E+06    -4.88849E+06    -4.66133E+06     137.289E+06     38.2710E+06    -4.56493E+06         22.2409
             142     17.9933E-03     106.197E-03         2.92707     209.401E-03        -2.16843         1.91219        -1.15355     209.401E-03         4.04809     637.470E-06    -305.306E-06    -332.114E-06    -332.083E-06     637.439E-06    -305.306E-06    -6.73805E-06     129.081E+06     25.8893E+06     3.26809E+06     3.48410E+06     128.865E+06     25.8893E+06    -3.68842E+06         22.0645
             143     17.9959E-03     107.201E-03         4.01889     239.209E-03        -3.34928    -909.226E-03         1.57883     239.209E-03         3.49027     357.792E-06    -165.049E-06    -192.755E-06    -191.298E-06     357.769E-06    -166.482E-06    -1.88203E-06     125.154E+06     15.4164E+06    -512.732E+03    -510.226E+03     125.151E+06     15.4164E+06     295.331E+03         22.0331
             144     17.9965E-03     108.200E-03         3.08362     89.2770E-03        -2.26987        -1.82238         2.63613     89.2770E-03    -126.255E-03     75.8851E-06    -37.2311E-06    -38.6642E-06    -37.2086E-06     75.8625E-06    -38.6642E-06    -3.19455E-06     123.909E+06     3.94934E+06    -1.87027E+06    -1.82562E+06     123.864E+06     3.94934E+06    -1.28372E+06         22.0222
             145     17.9980E-03     109.202E-03         1.35586    -150.751E-03    -323.784E-03     629.891E-03     418.455E-03    -167.023E-03    -701.352E-03              0.              0.              0.              0.              0.              0.              0.     118.404E+06     5.41748E+06    -1.45428E+06    -1.30545E+06     118.255E+06     5.41748E+06    -4.06710E+06         22.0166
             146     17.9982E-03     110.202E-03         2.88252    -315.075E-03        -2.18257     474.671E-03     241.556E-03    -331.346E-03         4.78576              0.              0.              0.              0.              0.              0.              0.     109.231E+06     11.0117E+06    -461.608E+03    -223.811E+03     108.994E+06     11.0117E+06    -5.09613E+06         22.0154
             147     17.9993E-03     111.201E-03         3.09216    -404.310E-03        -2.47431     665.673E-03    -47.8197E-03    -404.310E-03         4.99256              0.              0.              0.              0.              0.              0.              0.     98.7917E+06     14.0491E+06    -881.141E+03    -592.462E+03     98.5030E+06     14.0491E+06    -5.32864E+06         22.0154
             148     17.9993E-03     112.204E-03         1.16891    -423.523E-03        -1.79694    -594.503E-03    -33.5273E-03    -423.523E-03         1.59750              0.              0.              0.              0.              0.              0.              0.     88.2453E+06     15.9229E+06    -229.498E+03     71.1847E+03     87.9446E+06     15.9229E+06    -5.14762E+06         22.0153
             149     17.9999E-03     114.204E-03         4.56071    -81.7642E-03        -5.19472     48.2619E-03    -682.269E-03    -81.7642E-03        -9.63336              0.              0.              0.              0.              0.              0.              0.     68.4065E+06     16.3399E+06    -414.818E+03    -100.305E+03     68.0920E+06     16.3399E+06    -4.64132E+06         22.0154
             150     18.0004E-03     115.203E-03         4.69748     119.469E-03        -4.95911    -26.3343E-03    -235.291E-03     119.469E-03        -9.43665              0.              0.              0.              0.              0.              0.              0.     59.2994E+06     15.4973E+06    -800.765E+03    -474.891E+03     58.9735E+06     15.4973E+06    -4.38979E+06         22.0154
             151     18.0002E-03     116.205E-03         5.03234     392.221E-03        -3.71597        -1.99705         3.31342     392.221E-03        -6.21728              0.              0.              0.              0.              0.              0.              0.     50.9463E+06     14.5320E+06    -346.513E+03    -29.5389E+03     50.6293E+06     14.5320E+06    -4.01584E+06         22.0153
             152     18.0006E-03     117.206E-03         7.26964     549.243E-03        -4.98999        -3.24758         5.52723     549.243E-03        -8.32463              0.              0.              0.              0.              0.              0.              0.     43.4840E+06     13.1227E+06    -724.369E+03    -421.310E+03     43.1809E+06     13.1227E+06    -3.62847E+06         22.0153
             153     18.0004E-03     118.205E-03         5.28396     480.518E-03        -2.84658    -575.402E-03         3.01278     480.518E-03        -6.28397              0.              0.              0.              0.              0.              0.              0.     36.8100E+06     11.8008E+06    -402.420E+03    -106.564E+03     36.5142E+06     11.8008E+06    -3.30289E+06         22.0153
             154     18.0006E-03     119.204E-03         2.83191     321.320E-03    -686.642E-03         1.99640     148.867E-03     321.320E-03         1.39346              0.              0.              0.              0.              0.              0.              0.     30.8356E+06     10.2699E+06    -621.326E+03    -343.855E+03     30.5581E+06     10.2699E+06    -2.92812E+06         22.0153
             155     18.0005E-03     120.202E-03         4.01153     66.7219E-03        -3.75861         1.92548        -1.67256     66.7219E-03         6.88571              0.              0.              0.              0.              0.              0.              0.     25.5900E+06     8.92935E+06    -276.659E+03    -28.0149E+03     25.3413E+06     8.92935E+06    -2.51879E+06         22.0154
             156     18.0006E-03     121.204E-03         3.51197    -174.555E-03        -4.69198         1.04971        -2.22972    -174.555E-03         7.46776              0.              0.              0.              0.              0.              0.              0.     20.9342E+06     7.48360E+06    -414.309E+03    -197.132E+03     20.7170E+06     7.48360E+06    -2.13028E+06         22.0153
             157     18.0005E-03     122.202E-03     885.621E-03    -566.503E-03        -3.01939        -1.07374        -1.32519    -301.334E-03         2.14014              0.              0.              0.              0.              0.              0.              0.     16.9799E+06     6.26528E+06    -144.414E+03     52.5266E+03     16.7830E+06     6.26528E+06    -1.82286E+06         22.0153
             158     18.0006E-03     123.201E-03         1.83998    -595.127E-03        -4.04654     928.062E-03        -3.39978    -329.958E-03    -893.932E-03              0.              0.              0.              0.              0.              0.              0.     13.5829E+06     5.00958E+06    -307.115E+03    -111.474E+03     13.3873E+06     5.00958E+06    -1.61278E+06         22.0154
             159     18.0005E-03     124.200E-03         2.44097    -137.042E-03        -3.89864         1.00000        -2.45767    -137.042E-03    -914.582E-03              0.              0.              0.              0.              0.              0.              0.     10.5364E+06     3.92335E+06    -28.3062E+03     164.903E+03     10.3432E+06     3.92335E+06    -1.41360E+06         22.0154
             160     18.0005E-03     125.200E-03         1.96108     144.127E-03        -2.77859        -1.80359     986.073E-03     144.127E-03        -3.53584              0.              0.              0.              0.              0.              0.              0.     7.97737E+06     2.80951E+06    -194.035E+03    -4.61656E+03     7.78795E+06     2.80951E+06    -1.20728E+06         22.0153
             161     18.0004E-03     126.199E-03         3.14898     270.739E-03        -3.26143     368.975E-03    -481.426E-03     270.739E-03        -5.12368              0.              0.              0.              0.              0.              0.              0.     5.76788E+06     1.84215E+06    -101.168E+03     114.077E+03     5.55263E+06     1.84215E+06    -1.10265E+06         22.0153
             162     18.0004E-03     127.197E-03         2.92557     320.198E-03        -2.92828         2.39596        -2.39867     320.198E-03        -1.32279              0.              0.              0.              0.              0.              0.              0.     3.83156E+06     853.611E+03    -274.389E+03     45.3541E+03     3.51181E+06     853.611E+03    -1.02119E+06         22.0153
             163     18.0003E-03     128.194E-03         2.04159     320.244E-03        -2.12579         1.80667        -1.89087     320.244E-03         1.81369              0.              0.              0.              0.              0.              0.              0.     2.15874E+06     6.42147E+03    -201.550E+03     188.456E+03     1.76873E+06     6.42147E+03    -876.544E+03         22.0154
             164     18.0004E-03     129.192E-03     863.654E-03     208.424E-03        -1.69002     173.272E-03    -999.642E-03     208.424E-03         1.97945              0.              0.              0.              0.              0.              0.              0.     1.15053E+06    -638.097E+03    -924.218E+03     122.343E+03     287.557E+03    -821.683E+03    -710.554E+03         22.0153
             165     18.0003E-03     130.191E-03     561.084E-03     112.108E-03        -1.72111    -406.746E-03    -753.281E-03     112.108E-03    -105.032E-03              0.              0.              0.              0.              0.              0.              0.     331.263E+03    -1.22980E+06    -1.56890E+06     110.640E+03    -1.00918E+06    -1.56890E+06    -538.771E+03         22.0153
             166     18.0003E-03     131.189E-03         1.55111     64.6875E-03        -2.48434     95.1648E-03        -1.02840     64.6875E-03        -3.87582              0.              0.              0.              0.              0.              0.              0.     133.422E+03    -2.09806E+06    -2.37313E+06     18.0465E+03    -2.10225E+06    -2.25357E+06    -468.317E+03         22.0153
             167     18.0002E-03     132.191E-03         2.42748    -8.12945E-03        -3.48747         1.40395        -2.46394    -8.12945E-03        -2.53089              0.              0.              0.              0.              0.              0.              0.     178.555E+03    -2.79476E+06    -3.07639E+06     118.055E+03    -3.01589E+06    -2.79476E+06    -436.684E+03         22.0154
             168     18.0002E-03     133.190E-03         1.67963    -14.4783E-03        -1.88886         1.36335        -1.57258    -14.4783E-03     619.444E-03              0.              0.              0.              0.              0.              0.              0.     149.870E+03    -3.27994E+06    -3.79027E+06     120.088E+03    -3.76049E+06    -3.27994E+06    -314.036E+03         22.0154
             169     18.0002E-03     134.189E-03         2.71079     43.3409E-03        -2.47035        -2.23760         2.47804     43.3409E-03    -749.700E-03              0.              0.              0.              0.              0.              0.              0.     145.447E+03    -3.63479E+06    -4.22047E+06     136.819E+03    -4.21184E+06    -3.63479E+06    -190.440E+03         22.0153
             170     18.0002E-03     135.191E-03         3.70034     31.1756E-03        -3.04444        -1.97167         2.62757     31.1756E-03        -3.22532              0.              0.              0.              0.              0.              0.              0.     19.6500E+03    -3.94110E+06    -4.49625E+06     15.2881E+03    -4.49189E+06    -3.94110E+06    -139.298E+03         22.0153
             171     18.0002E-03     136.191E-03         2.56803    -29.5644E-03        -1.34650         1.53055    -309.023E-03    -29.5644E-03        -2.00492              0.              0.              0.              0.              0.              0.              0.     95.3991E+03    -4.16846E+06    -4.80851E+06     91.2097E+03    -4.80432E+06    -4.16846E+06    -143.033E+03         22.0153
             172     18.0002E-03     137.189E-03         2.97556    -71.2646E-03        -2.23509     826.517E-03    -86.0422E-03    -71.2646E-03         3.21379              0.              0.              0.              0.              0.              0.              0.     152.386E+03    -4.36090E+06    -5.08142E+06     149.496E+03    -5.07853E+06    -4.36090E+06    -114.899E+03         22.0153
             173     18.0001E-03     138.190E-03         3.27051    -108.875E-03        -2.72059        -1.53933         2.08925    -108.875E-03         3.26724              0.              0.              0.              0.              0.              0.              0.     204.267E+03    -4.50149E+06    -5.24714E+06     203.661E+03    -5.24654E+06    -4.50149E+06    -27.3998E+03         22.0153
             174     18.0002E-03     139.191E-03         3.49075    -178.634E-03        -2.88613        -2.27839         2.88301    -178.634E-03        -2.66583              0.              0.              0.              0.              0.              0.              0.     130.933E+03    -4.63618E+06    -5.33026E+06     130.714E+03    -5.33004E+06    -4.63618E+06     33.4455E+03         22.0154
             175     18.0001E-03     140.196E-03         2.84959    -240.828E-03        -2.28311    -829.578E-03         1.39605    -240.828E-03        -4.13772              0.              0.              0.              0.              0.              0.              0.     111.917E+03    -4.73519E+06    -5.38622E+06     111.686E+03    -5.38599E+06    -4.73519E+06     8.48117E+03         22.0153
             176     18.0001E-03     141.194E-03         1.71726    -168.687E-03        -1.07355     750.183E-03    -106.472E-03    -168.687E-03    -145.889E-03              0.              0.              0.              0.              0.              0.              0.     141.605E+03     -4.8427E+06    -5.53669E+06     141.521E+03    -5.53661E+06     -4.8427E+06    -20.8711E+03         22.0153
             177     18.0001E-03     142.195E-03         1.57871    -3.86490E-03    -907.921E-03     734.146E-03    -63.3549E-03    -3.86490E-03         2.33639              0.              0.              0.              0.              0.              0.              0.     192.843E+03    -4.93808E+06    -5.68483E+06     192.770E+03    -5.68476E+06    -4.93808E+06     4.69862E+03         22.0153
             178     18.0001E-03     143.195E-03         1.36928     112.953E-03        -1.31830    -543.927E-03     594.904E-03     112.953E-03         1.89336              0.              0.              0.              0.              0.              0.              0.     185.934E+03     -5.0421E+06    -5.80271E+06     185.869E+03    -5.80265E+06     -5.0421E+06     6.28777E+03         22.0153
             179     18.0001E-03     144.196E-03         1.28595     218.021E-03        -1.25156        -1.10310         1.13748     218.021E-03     422.385E-03              0.              0.              0.              0.              0.              0.              0.     151.749E+03    -5.15836E+06    -5.92643E+06     151.725E+03    -5.92640E+06    -5.15836E+06        -135.693         22.0154
             180     18.0001E-03     145.199E-03         1.22772     290.030E-03    -948.750E-03    -494.094E-03     773.060E-03     290.030E-03        -1.53074              0.              0.              0.              0.              0.              0.              0.     126.913E+03    -5.25448E+06    -6.00647E+06     126.791E+03    -6.00635E+06    -5.25448E+06    -12.5983E+03         22.0154
             181     18.0001E-03     146.202E-03         1.02510     272.536E-03        -1.25543     196.307E-03    -426.640E-03     272.536E-03    -791.876E-03              0.              0.              0.              0.              0.              0.              0.     143.131E+03    -5.33534E+06    -6.09622E+06     142.932E+03    -6.09602E+06    -5.33534E+06    -35.2331E+03         22.0153
             182     18.0001E-03     147.201E-03     735.516E-03     271.194E-03    -974.957E-03     598.091E-03    -837.532E-03     271.194E-03     837.458E-03              0.              0.              0.              0.              0.              0.              0.     133.136E+03    -5.41354E+06    -6.18140E+06     133.044E+03    -6.18130E+06    -5.41354E+06    -13.4757E+03         22.0153
             183     18.0001E-03     148.202E-03     681.135E-03     275.522E-03    -793.600E-03    -256.228E-03     143.762E-03     275.522E-03     447.980E-03              0.              0.              0.              0.              0.              0.              0.     141.594E+03    -5.44010E+06    -6.16599E+06     141.478E+03    -6.16587E+06    -5.44010E+06     21.8537E+03         22.0154
             184     18.0001E-03     149.204E-03     580.142E-03     233.465E-03    -483.798E-03    -465.530E-03     561.873E-03     233.465E-03     94.6559E-03              0.              0.              0.              0.              0.              0.              0.     118.865E+03    -5.43882E+06    -6.08497E+06     118.700E+03    -6.08480E+06    -5.43882E+06     31.4513E+03         22.0153
             185     18.0001E-03     150.202E-03         1.34371     226.435E-03    -703.209E-03    -672.119E-03         1.31262     226.435E-03     431.350E-03              0.              0.              0.              0.              0.              0.              0.     125.541E+03    -5.40456E+06    -5.97118E+06     125.324E+03    -5.97096E+06    -5.40456E+06     34.9114E+03         22.0153
             186     18.0001E-03     151.204E-03         1.63143     329.295E-03    -612.027E-03    -452.902E-03         1.61784     183.762E-03     283.131E-03              0.              0.              0.              0.              0.              0.              0.     143.476E+03    -5.32756E+06    -5.77764E+06     142.882E+03    -5.77704E+06    -5.32756E+06     57.6826E+03         22.0154
             187     18.0001E-03     152.203E-03     940.664E-03     168.106E-03    -355.050E-03    -176.794E-03     907.941E-03     22.5738E-03     303.993E-03              0.              0.              0.              0.              0.              0.              0.     155.781E+03    -5.23945E+06    -5.57487E+06     154.886E+03    -5.57398E+06    -5.23945E+06     71.5645E+03         22.0154
             188     18.0001E-03     153.206E-03     845.338E-03    -157.966E-03    -633.348E-03    -411.247E-03     623.237E-03    -157.966E-03     894.153E-03              0.              0.              0.              0.              0.              0.              0.     150.161E+03    -5.14561E+06    -5.35380E+06     148.801E+03    -5.35244E+06    -5.14561E+06     85.2422E+03         22.0154
             189     18.0001E-03     154.206E-03     536.304E-03    -329.848E-03    -591.545E-03     35.7942E-03    -91.0356E-03    -329.848E-03     195.847E-03              0.              0.              0.              0.              0.              0.              0.     160.635E+03    -5.02086E+06    -5.10324E+06     158.887E+03    -5.08996E+06    -5.03239E+06     95.8040E+03         22.0154
             190     18.0001E-03     155.206E-03     259.488E-03    -482.005E-03    -944.338E-03     69.1197E-03    -753.970E-03    -482.005E-03    -878.300E-03              0.              0.              0.              0.              0.              0.              0.     177.018E+03    -4.86201E+06    -4.93298E+06     175.605E+03    -4.86060E+06    -4.93298E+06     83.9660E+03         22.0154
             191     18.0001E-03     156.209E-03     697.010E-03    -527.227E-03        -1.48641     556.834E-03        -1.34624    -527.227E-03    -101.079E-03              0.              0.              0.              0.              0.              0.              0.     182.331E+03    -4.67495E+06    -4.86032E+06     181.213E+03    -4.67383E+06    -4.86032E+06     73.6685E+03         22.0154
             192     18.0001E-03     157.211E-03         1.08081    -458.539E-03        -1.90291         1.03032        -1.85242    -458.539E-03     768.367E-03              0.              0.              0.              0.              0.              0.              0.     171.000E+03    -4.51117E+06    -4.81247E+06     169.860E+03    -4.51003E+06    -4.81247E+06     73.0336E+03         22.0154
             193     18.0001E-03     158.210E-03     946.205E-03    -308.359E-03        -1.70354     829.961E-03        -1.58730    -308.359E-03     994.920E-03              0.              0.              0.              0.              0.              0.              0.     210.270E+03    -4.40299E+06    -4.78386E+06     209.275E+03    -4.40200E+06    -4.78386E+06     67.5247E+03         22.0154
             194     18.0001E-03     159.211E-03     713.485E-03    -84.0108E-03        -1.21652     165.726E-03    -668.762E-03    -84.0108E-03         1.38925              0.              0.              0.              0.              0.              0.              0.     182.761E+03    -4.33383E+06    -4.80319E+06     181.657E+03    -4.33273E+06    -4.80319E+06     69.9373E+03         22.0154
             195     18.0001E-03     160.213E-03     555.170E-03     157.878E-03    -567.645E-03    -108.679E-03     96.2035E-03     157.878E-03         1.10396              0.              0.              0.              0.              0.              0.              0.     182.812E+03    -4.21888E+06    -4.81170E+06     180.536E+03    -4.21660E+06    -4.81170E+06     97.9373E+03         22.0154
             196     18.0001E-03     161.213E-03     883.238E-03     352.950E-03    -420.151E-03    -271.320E-03     734.407E-03     352.950E-03     479.955E-03              0.              0.              0.              0.              0.              0.              0.     187.523E+03    -4.05793E+06    -4.81824E+06     183.994E+03    -4.05440E+06    -4.81824E+06     122.091E+03         22.0154
             197     18.0001E-03     162.211E-03         1.10690     448.357E-03    -608.118E-03    -585.759E-03         1.08454     448.357E-03    -98.6777E-03              0.              0.              0.              0.              0.              0.              0.     163.836E+03    -3.82337E+06    -4.82484E+06     158.503E+03    -3.81803E+06    -4.82484E+06     143.967E+03         22.0154
             198     18.0001E-03     163.212E-03     833.724E-03     407.559E-03    -586.578E-03    -111.288E-03     358.434E-03     407.559E-03    -830.775E-03              0.              0.              0.              0.              0.              0.              0.     194.733E+03    -3.48885E+06     -4.7978E+06     183.000E+03    -3.47711E+06     -4.7978E+06     201.583E+03         22.0154
             199     18.0001E-03     164.212E-03     451.839E-03     229.591E-03    -723.853E-03     174.507E-03    -520.518E-03     303.589E-03    -493.489E-03              0.              0.              0.              0.              0.              0.              0.     200.258E+03    -3.02793E+06    -4.76338E+06     177.403E+03    -3.00507E+06    -4.76338E+06     266.122E+03         22.0154
             200     18.0001E-03     165.214E-03     263.790E-03     166.519E-03    -886.785E-03     159.277E-03    -856.269E-03     240.516E-03    -134.545E-03              0.              0.              0.              0.              0.              0.              0.     200.916E+03    -2.42228E+06    -4.72578E+06     156.138E+03    -2.37750E+06    -4.72578E+06     329.775E+03         22.0155
             201     18.0000E-03     166.216E-03     728.564E-03     223.308E-03    -981.043E-03     704.510E-03    -956.990E-03     223.308E-03    -238.840E-03              0.              0.              0.              0.              0.              0.              0.     237.448E+03    -1.68766E+06    -4.69984E+06     145.712E+03    -1.59593E+06    -4.69984E+06     393.159E+03         22.0156
             202     18.0000E-03     167.216E-03     691.687E-03     180.385E-03    -650.065E-03     444.456E-03    -402.833E-03     180.385E-03     120.973E-03              0.              0.              0.              0.              0.              0.              0.     152.815E+03    -871.603E+03    -4.79276E+06     33.1628E+03    -751.950E+03    -4.79276E+06     315.634E+03         22.0159
             203     16.9999E-03     168.215E-03     693.266E-03     135.794E-03    -711.370E-03     322.787E-03    -340.892E-03     135.794E-03    -590.601E-03              0.              0.              0.              0.              0.              0.              0.     153.273E+03    -587.861E+03    -3.84932E+06    -252.810E+03    -181.778E+03    -3.84932E+06     326.250E+03         21.4833
             204     15.9999E-03     168.214E-03         1.27564     97.6186E-03        -1.01947         1.14764    -891.475E-03     97.6186E-03    -856.756E-03              0.              0.              0.              0.              0.              0.              0.     200.377E+03    -919.029E+03    -2.19483E+06    -754.382E+03     35.7295E+03    -2.19483E+06     346.082E+03         20.6146
             205     14.9999E-03     168.213E-03         1.22454     33.1396E-03    -736.667E-03     985.189E-03    -497.317E-03     33.1396E-03     586.716E-03              0.              0.              0.              0.              0.              0.              0.     90.7215E+03    -1.12034E+06    -1.46923E+06    -1.21235E+06     64.0246E+03    -1.35053E+06     137.825E+03         20.1500
             206     13.9999E-03     168.209E-03     805.826E-03    -19.5296E-03    -563.660E-03     568.670E-03    -326.504E-03    -19.5296E-03     658.841E-03              0.              0.              0.              0.              0.              0.              0.     15.1504E+03    -1.08144E+06    -1.32406E+06    -1.32102E+06     12.1073E+03    -1.08144E+06    -31.9104E+03         20.0106
             207     12.9999E-03     168.208E-03     700.829E-03    -18.3659E-03    -345.922E-03     682.920E-03    -276.821E-03    -69.5581E-03     85.0740E-03              0.              0.              0.              0.              0.              0.              0.     10.6269E+03    -1.00982E+06    -1.23209E+06    -1.22663E+06     5.16592E+03    -1.00982E+06    -82.1958E+03             20.
             208     12.0000E-03     168.204E-03     992.419E-03     68.5666E-03    -131.778E-03     661.503E-03     399.482E-03    -131.778E-03     627.796E-03              0.              0.              0.              0.              0.              0.              0.     32.5998E+03    -942.323E+03    -1.08619E+06    -1.07966E+06     26.0632E+03    -942.323E+03    -84.4142E+03             20.
             209     11.0000E-03     168.205E-03     611.656E-03    -23.5645E-03    -371.506E-03    -2.40350E-03     391.706E-03    -172.717E-03     704.155E-03              0.              0.              0.              0.              0.              0.              0.     33.8217E+03    -899.538E+03    -981.845E+03    -976.321E+03     28.2969E+03    -899.538E+03    -73.0371E+03             20.
             210     9.99996E-03     168.204E-03     442.831E-03    -148.949E-03    -827.541E-03    -780.468E-03     395.758E-03    -148.949E-03     223.723E-03              0.              0.              0.              0.              0.              0.              0.    -28.7570E+03    -898.316E+03    -940.343E+03    -934.566E+03    -34.5345E+03    -898.316E+03    -69.4806E+03             20.
             211     8.99997E-03     168.207E-03     705.254E-03    -51.6213E-03        -1.46274        -1.23605     478.571E-03    -51.6213E-03     946.719E-03              0.              0.              0.              0.              0.              0.              0.    -51.5829E+03    -876.033E+03    -890.237E+03    -876.618E+03    -56.2441E+03    -884.990E+03    -55.3624E+03             20.
             212     7.99997E-03     168.210E-03         1.11468     110.436E-03        -1.97609        -1.42973     568.314E-03     110.436E-03    -437.918E-03              0.              0.              0.              0.              0.              0.              0.     14.7502E+03    -837.091E+03    -855.808E+03    -836.550E+03     14.2092E+03    -855.808E+03    -19.7076E+03             20.
             213     6.99998E-03     168.212E-03         1.76097     315.454E-03        -2.43854        -1.20717     529.598E-03     315.454E-03        -3.68958              0.              0.              0.              0.              0.              0.              0.     12.0181E+03    -851.478E+03    -866.908E+03    -851.390E+03     11.9304E+03    -866.908E+03    -3.92372E+03             20.
             214     5.99998E-03     168.210E-03         1.43819     510.806E-03        -2.14637    -523.662E-03    -184.522E-03     510.806E-03        -3.50975              0.              0.              0.              0.              0.              0.              0.     56.1821E+03    -845.515E+03    -855.549E+03    -845.269E+03     55.9363E+03    -855.549E+03    -8.66130E+03             20.
             215     4.99998E-03     168.214E-03         1.22331     656.047E-03        -1.28070     75.9486E-03    -133.336E-03     656.047E-03     53.1348E-03              0.              0.              0.              0.              0.              0.              0.     43.5395E+03    -815.235E+03    -853.355E+03    -814.996E+03     43.3001E+03    -853.355E+03    -11.5858E+03             20.
             216     3.99998E-03     168.220E-03         1.22663     746.519E-03        -1.49970     498.770E-03    -771.843E-03     746.519E-03     527.812E-03              0.              0.              0.              0.              0.              0.              0.    -9.22488E+03    -844.333E+03    -884.053E+03    -844.245E+03    -9.31231E+03    -884.053E+03     5.21338E+03             20.
             217     2.99999E-03     168.223E-03         1.59295     911.881E-03        -1.63394     132.625E-03    -173.620E-03     911.881E-03        -2.24250              0.              0.              0.              0.              0.              0.              0.     65.6892E+03    -864.174E+03    -897.565E+03    -891.315E+03     65.4042E+03    -870.139E+03     16.2501E+03             20.
             218     1.99999E-03     168.230E-03         2.13958         1.13799    -497.081E-03     768.973E-03     873.523E-03         1.13799        -1.29361              0.              0.              0.              0.              0.              0.              0.     52.5670E+03    -834.001E+03    -962.742E+03    -960.313E+03     50.1378E+03    -834.001E+03    -23.5699E+03             20.
             219     1.00000E-03     168.238E-03         12.6278        -1.20082        -10.7686        -9.79731        -1.76449         12.2201         2.27385              0.              0.              0.              0.              0.              0.              0.    -112.049E+03    -690.334E+03    -1.01108E+06    -1.00786E+06    -115.270E+03    -690.334E+03    -53.2535E+03         20.0000
             220     970.348E-12     167.260E-03         20.4067        -1.34754        -19.2511        -18.2276        -2.37108         20.4067         7.41090              0.              0.              0.              0.              0.              0.              0.    -354.270E+03    -663.707E+03    -1.01192E+06    -1.00064E+06    -365.555E+03    -663.707E+03    -71.1431E+03         20.0000
             221    -961.755E-12     166.252E-03         11.8952         1.85648        -12.3966        -11.2816         2.44697         10.1897         7.76185              0.              0.              0.              0.              0.              0.              0.    -417.041E+03    -578.590E+03    -842.193E+03    -745.063E+03    -536.360E+03    -556.399E+03     13.0294E+03         20.0000
             222     1.25472E-09     165.251E-03         10.1437     929.784E-03        -9.96446         2.44418         3.16917        -4.50430         6.90678              0.              0.              0.              0.              0.              0.              0.    -94.0645E+03    -263.527E+03    -614.755E+03    -173.805E+03    -340.792E+03    -457.750E+03     28.2415E+03         20.0000
             223    -6.18311E-09     164.250E-03         15.7207     669.783E-03        -16.3073         14.2251         2.16537        -16.3073         9.00515              0.              0.              0.              0.              0.              0.              0.     229.441E+03    -219.860E+03    -438.258E+03     215.362E+03    -205.781E+03    -438.258E+03    -72.9237E+03         20.0000
             224     2.06721E-09     163.247E-03         26.3620         1.99971        -28.3097         24.9354         3.42632        -28.3097        -2.08614              0.              0.              0.              0.              0.              0.              0.     519.273E+03    -129.905E+03    -386.004E+03     513.673E+03    -124.305E+03    -386.004E+03    -17.1658E+03         20.0000
             225    -10.0190E-09     162.252E-03         32.6744         2.52063        -35.7349         31.5401         3.65487        -35.7349        -1.74214              0.              0.              0.              0.              0.              0.              0.     771.453E+03     108.302E+03    -362.109E+03     747.677E+03     132.078E+03    -362.109E+03     101.020E+03         20.0000
             226     3.34106E-09     161.247E-03         25.7766         4.40419        -31.4924         25.3169         4.86389        -31.4924         5.01845              0.              0.              0.              0.              0.              0.              0.     846.830E+03     153.531E+03    -148.139E+03     821.534E+03     93.4555E+03    -62.7671E+03     46.8913E+03         20.0000
             227    -8.11638E-09     160.249E-03         25.7879        -1.21697        -24.2126         21.0083         3.56264        -24.2126        -16.3113              0.              0.              0.              0.              0.              0.              0.     1.07178E+06     144.872E+03     47.9236E+03     1.06875E+06     50.9504E+03     144.872E+03    -19.4559E+03         20.0000
             228     986.323E-12     159.247E-03         26.9814        -8.36253        -18.6041         22.0614        -3.44251        -18.6041        -13.4400              0.              0.              0.              0.              0.              0.              0.     1.04733E+06     444.847E+03     6.75115E+03     913.695E+03     140.385E+03     444.847E+03     229.970E+03         20.0000
             229     395.899E-12     158.248E-03         14.6539        -3.77490        -12.3136         11.7138        -5.72002        -7.42838         9.83408              0.              0.              0.              0.              0.              0.              0.     1.02192E+06     665.163E+03    -197.725E+03     415.661E+03     104.653E+03     969.040E+03     2.14483E+03         20.0000
             230     6.35220E-09     157.249E-03         5.60390         3.00426        -11.5945        -4.73709        -1.25347         3.00426        -2.25237              0.              0.              0.              0.              0.              0.              0.     1.22513E+06     909.261E+03    -287.885E+03     738.788E+03    -117.411E+03     1.22513E+06    -180.997E+03         20.0000
             231    -5.83033E-09     156.248E-03         12.8671         1.66674        -15.1075         5.10958        -7.34994         1.66674        -5.17560              0.              0.              0.              0.              0.              0.              0.     1.51037E+06     839.384E+03    -351.673E+03     678.666E+03    -190.955E+03     1.51037E+06     239.402E+03         20.0000
             232     17.3456E-09     155.248E-03         18.5198        -3.40239        -17.1316         1.04051        -10.9226         7.86786         7.90543              0.              0.              0.              0.              0.              0.              0.     1.85782E+06     436.882E+03    -362.519E+03     233.915E+03    -159.551E+03     1.85782E+06     88.7017E+03         20.0000
             233    -5.99964E-09     154.250E-03         14.4215        -2.41235        -16.4425        -6.87623        -6.41502         8.85790        -7.95512              0.              0.              0.              0.              0.              0.              0.     1.86523E+06     903.240E+03    -515.161E+03     851.802E+03    -463.723E+03     1.86523E+06    -28.5483E+03         20.0000
             234     9.21032E-09     153.250E-03         13.5850        -1.17942        -12.4686         9.51407        -4.47014        -5.10702        -10.8134              0.              0.              0.              0.              0.              0.              0.     1.89481E+06     1.09270E+06    -607.157E+03     1.02264E+06    -537.091E+03     1.89481E+06     281.841E+03         20.0000
             235     310.488E-12     152.250E-03         9.82927        -1.33912        -10.1166         3.56566        -1.89306        -3.29907         4.33722              0.              0.              0.              0.              0.              0.              0.     1.89019E+06     953.134E+03    -550.602E+03     871.390E+03    -468.858E+03     1.89019E+06     63.6361E+03         20.0000
             236     4.96103E-09     151.250E-03         10.0679         2.23827        -14.6978    -618.946E-03        -5.97854         4.20591        -12.3397              0.              0.              0.              0.              0.              0.              0.     1.75152E+06     1.27677E+06    -549.136E+03     1.39693E+06    -529.546E+03     1.61176E+06    -134.271E+03         20.0000
             237    -6.33627E-09     150.249E-03         11.0542         3.07576        -15.0463    -295.862E-03        -5.81266         5.19217        -20.4223              0.              0.              0.              0.              0.              0.              0.     1.56667E+06     1.35065E+06    -463.540E+03     1.52969E+06    -426.565E+03     1.35065E+06     173.758E+03         20.0000
             238     6.32693E-09     149.250E-03         10.9517         1.94235        -11.4945        -7.17587         4.51667         4.05875         6.81081              0.              0.              0.              0.              0.              0.              0.     1.66645E+06     1.25092E+06    -395.929E+03     1.62707E+06    -356.544E+03     1.25092E+06     233.257E+03         20.0000
             239    -10.4569E-09     148.254E-03         17.2731         5.85970        -20.2089        -17.1457         9.68946         10.3802         12.4488              0.              0.              0.              0.              0.              0.              0.     1.70430E+06     1.22702E+06    -597.642E+03     1.52717E+06    -558.529E+03     1.36503E+06    -136.915E+03         20.0000
             240     13.3068E-09     147.249E-03         16.6629         11.9622        -28.3651        -23.4459         7.22326         16.4827        -17.5092              0.              0.              0.              0.              0.              0.              0.     2.04884E+06     1.16601E+06    -715.698E+03     1.85606E+06    -660.933E+03     1.30402E+06    -359.412E+03         20.0000
             241    -22.5069E-09     146.253E-03         13.7917         10.2890        -21.1460        -3.39081         5.81198     513.563E-03        -20.0057              0.              0.              0.              0.              0.              0.              0.     1.92218E+06     1.16700E+06    -306.646E+03     1.85157E+06    -236.030E+03     1.16700E+06     3.25830E+03         20.0000
             242     23.5457E-09     145.252E-03         20.5692        -2.66544        -15.6671         1.90110         12.7765        -12.4409         16.8869              0.              0.              0.              0.              0.              0.              0.     1.41335E+06     1.29974E+06    -21.8508E+03     1.23750E+06     50.7471E+03     1.40299E+06     55.1196E+03         20.0000
             243    -21.2998E-09     144.248E-03         20.7992        -1.22212        -19.9051         1.68773         14.6631        -16.6789         16.6702              0.              0.              0.              0.              0.              0.              0.     1.81257E+06     1.58014E+06    -473.408E+03     1.68492E+06    -449.003E+03     1.68338E+06    -197.385E+03         20.0000
             244     20.0702E-09     143.252E-03         26.4476        -1.15398        -24.9879         25.4398    -146.184E-03        -24.9879         3.59995              0.              0.              0.              0.              0.              0.              0.     2.10265E+06     1.91712E+06    -993.718E+03     2.03605E+06    -983.470E+03     1.97347E+06     16.5766E+03         20.0000
             245    -18.6482E-09     142.253E-03         33.6478        -9.39884        -25.2517         33.3368        -9.08790        -25.2517         5.88545              0.              0.              0.              0.              0.              0.              0.     2.14197E+06     1.78277E+06    -962.504E+03     1.68142E+06    -861.154E+03     2.14197E+06    -225.129E+03         20.0000
             246     24.7314E-09     141.252E-03         35.0855        -7.21095        -28.1469         26.7329         1.14167        -28.1469        -23.0992              0.              0.              0.              0.              0.              0.              0.     2.57218E+06     1.60931E+06    -888.300E+03     2.17156E+06    -790.525E+03     1.91216E+06    -389.564E+03         20.0000
             247    -33.1014E-09     140.252E-03         35.7533         1.94891        -35.8299         26.3652         11.3371        -35.8299        -29.1689              0.              0.              0.              0.              0.              0.              0.     2.85449E+06     1.83450E+06    -1.31625E+06     2.45631E+06    -1.27804E+06     2.19447E+06     185.491E+03         20.0000
             248     38.9848E-09     139.253E-03         22.8335         4.88052        -26.7731         18.7675         1.61144        -19.4381         6.87603              0.              0.              0.              0.              0.              0.              0.     2.93268E+06     2.54548E+06    -2.02203E+06     2.53562E+06    -1.98494E+06     2.90545E+06     195.530E+03         20.0000
             249    -38.6329E-09     138.252E-03         18.3199        -3.61007        -16.9401    -208.563E-03        -11.4507         9.42901         18.5431              0.              0.              0.              0.              0.              0.              0.     3.19878E+06     2.69636E+06    -2.27799E+06     2.68356E+06    -2.23795E+06     3.17155E+06    -350.314E+03         20.0000
             250     46.2603E-09     137.249E-03         16.5051         1.81374        -19.4529        -13.9043        -3.73484         16.5051        -4.43651              0.              0.              0.              0.              0.              0.              0.     3.65945E+06     2.75367E+06    -2.55020E+06     3.12156E+06    -2.48749E+06     3.22885E+06    -580.188E+03         20.0000
             251    -51.1464E-09     136.250E-03         10.7660         7.44916        -17.7197        -15.0685         4.79796         10.7660        -15.1929              0.              0.              0.              0.              0.              0.              0.     3.93860E+06     2.95282E+06    -3.26083E+06     3.35674E+06    -3.23414E+06     3.50800E+06    -381.741E+03         20.0000
             252     59.2871E-09     135.249E-03         7.94581         5.95544        -13.7902        -11.8173         4.30834         7.61995        -11.7303              0.              0.              0.              0.              0.              0.              0.     4.29119E+06     3.38381E+06    -4.15445E+06     3.70823E+06    -4.12667E+06     3.93898E+06    -437.057E+03         20.0000
             253    -63.1124E-09     134.249E-03         15.5018        -1.35881        -13.4935         4.27759        -2.26934        -1.35881        -19.3948              0.              0.              0.              0.              0.              0.              0.     4.47800E+06     3.80851E+06    -5.06689E+06     4.13125E+06    -5.03743E+06     4.12580E+06    -201.819E+03         20.0000
             254     68.1373E-09     133.249E-03         33.8412        -12.1485        -19.4687         20.2228    -816.299E-03        -17.1825         16.0908              0.              0.              0.              0.              0.              0.              0.     4.67996E+06     4.31929E+06    -5.91644E+06     4.35806E+06    -5.91184E+06     4.63658E+06     169.031E+03         20.0000
             255    -68.2082E-09     132.254E-03         31.0498        -3.88107        -27.2641         1.46217         7.35751        -8.91507         48.6543              0.              0.              0.              0.              0.              0.              0.     5.69805E+06     4.39843E+06    -7.63729E+06     4.39698E+06    -7.59246E+06     5.65467E+06    -500.647E+03         20.0000
             256     86.4995E-09     131.253E-03         19.3353         2.79391        -23.4850        -13.6122        -1.60303         13.8594         12.1591              0.              0.              0.              0.              0.              0.              0.     6.99855E+06     4.77756E+06    -9.34854E+06     5.65771E+06    -9.26394E+06     6.03380E+06    -1.11960E+06         20.0000
             257    -98.3133E-09     130.249E-03         19.7846     214.133E-03        -18.1767        -12.0562        -5.90642         19.7846        -15.6326              0.              0.              0.              0.              0.              0.              0.     7.27375E+06     5.23158E+06    -10.8031E+06     6.14414E+06    -10.7509E+06     6.30900E+06    -908.476E+03         20.0000
             258     113.585E-09     129.252E-03         33.1877    -385.999E-03        -32.6596        -30.6643        -2.38133         33.1877        -12.6390              0.              0.              0.              0.              0.              0.              0.     7.69450E+06     5.90770E+06    -12.7385E+06     6.56954E+06    -12.6909E+06     6.98512E+06    -943.342E+03         20.0000
             259    -121.928E-09     128.251E-03         42.8374         6.11054        -47.9598        -42.7510     901.710E-03         42.8374        -28.1050              0.              0.              0.              0.              0.              0.              0.     8.08940E+06     6.78851E+06    -15.0556E+06     7.45147E+06    -15.0092E+06     7.38002E+06    -982.887E+03         20.0000
             260     130.561E-09     127.249E-03         34.3001         10.1816        -42.9906        -37.4145         4.60544         34.3001        -30.4471              0.              0.              0.              0.              0.              0.              0.     9.06678E+06     7.46962E+06    -18.1059E+06     8.46211E+06    -18.0927E+06     8.06113E+06    -530.506E+03         20.0000
             261    -143.613E-09     126.253E-03         32.2837         7.93627        -40.7076        -27.1448        -5.62656         32.2837         20.4347              0.              0.              0.              0.              0.              0.              0.     9.87669E+06     7.74862E+06    -21.2813E+06     8.74986E+06    -21.2769E+06     8.87104E+06    -363.457E+03         20.0000
             262     159.499E-09     125.253E-03         23.7528         11.1734        -34.0663        -13.3257        -9.56725         23.7528         45.0754              0.              0.              0.              0.              0.              0.              0.     10.5639E+06     7.89995E+06    -24.2708E+06     9.40141E+06    -24.2308E+06     9.02237E+06    -1.03093E+06         20.0000
             263    -179.248E-09     124.252E-03         15.8869         4.64848        -20.2972        -3.79229        -1.31024         5.34068         35.3817              0.              0.              0.              0.              0.              0.              0.     10.9353E+06     8.08205E+06    -28.5944E+06     9.57020E+06    -28.5411E+06     9.39378E+06    -1.39300E+06         20.0000
             264     197.599E-09     123.252E-03         15.0135         3.49794        -20.0615         3.88008        -9.89739         4.46725         25.2368              0.              0.              0.              0.              0.              0.              0.     11.5676E+06     8.52084E+06    -33.5500E+06     10.1788E+06    -33.4729E+06     9.83257E+06    -1.77474E+06         20.0000
             265    -219.493E-09     122.254E-03         10.2788         5.99553        -18.7319    -346.478E-03        -12.3899         10.2788        -1.01009              0.              0.              0.              0.              0.              0.              0.     11.0651E+06     7.94068E+06    -37.6926E+06     9.59495E+06    -37.6118E+06     9.33010E+06    -1.88969E+06         20.0000
             266     239.041E-09     121.253E-03         11.7707         1.14146        -11.1958    -937.689E-03         1.93255     721.548E-03        -15.5728              0.              0.              0.              0.              0.              0.              0.     10.9533E+06     7.15253E+06    -42.2935E+06     9.49590E+06    -42.2256E+06     8.54195E+06    -1.85097E+06         20.0000
             267    -270.576E-09     120.255E-03         16.6418     148.195E-03        -12.9783        -1.27353         8.67092        -3.58570        -23.2984              0.              0.              0.              0.              0.              0.              0.     10.0410E+06     5.40912E+06    -47.7087E+06     7.75800E+06    -47.6462E+06     7.62971E+06    -1.79220E+06         20.0000
             268     301.339E-09     119.253E-03         20.8681        -4.93878        -15.8061        -4.95388         10.0158        -4.93878        -33.2348              0.              0.              0.              0.              0.              0.              0.     8.62999E+06     3.56768E+06    -53.0016E+06     6.35340E+06    -52.9456E+06     5.78827E+06    -1.78253E+06         20.0000
             269    -338.785E-09     118.254E-03         18.6604        -9.43141        -11.3487         5.90700         1.40471        -9.43141        -23.6216              0.              0.              0.              0.              0.              0.              0.     6.11992E+06     419.333E+03    -58.5777E+06     3.21694E+06    -58.5336E+06     3.27819E+06    -1.41684E+06         20.0000
             270     377.939E-09     117.254E-03         18.5061        -7.21763        -14.2301         5.08898    -812.966E-03        -7.21763         14.0253              0.              0.              0.              0.              0.              0.              0.     2.54923E+06    -3.15466E+06    -63.8207E+06    -346.629E+03    -63.7837E+06    -295.805E+03    -1.34006E+06         20.0000
             271    -415.404E-09     116.256E-03         19.7539        -6.95046        -13.9155        -4.14229         9.98067        -6.95046         28.4936              0.              0.              0.              0.              0.              0.              0.    -2.40137E+06    -8.51723E+06    -69.1003E+06    -5.71497E+06    -69.0575E+06    -5.24640E+06    -1.57271E+06         20.0000
             272     460.049E-09     115.256E-03         15.8371        -3.22199        -10.8706        -2.83343         7.79993        -3.22199         21.9329              0.              0.              0.              0.              0.              0.              0.    -7.75854E+06    -14.8633E+06    -74.3484E+06    -11.0683E+06    -74.3094E+06    -11.5925E+06    -1.50864E+06             20.
             273    -511.042E-09     114.254E-03         17.3076         4.15619        -18.2149         3.25440        -4.16169         4.15619         33.9464              0.              0.              0.              0.              0.              0.              0.    -15.4719E+06    -23.2073E+06    -79.4460E+06    -19.4094E+06    -79.4099E+06    -19.3059E+06    -1.39069E+06         20.0000
             274     16.9998E-03     112.202E-03         1.79847    -305.392E-03        -1.65155    -525.529E-03     787.513E-03    -420.458E-03    -641.728E-03              0.              0.              0.              0.              0.              0.              0.     79.8924E+06     14.7210E+06    -2.08567E+06    -485.943E+03     78.2927E+06     14.7210E+06    -9.79112E+06         21.4828
             275     15.9995E-03     112.202E-03         2.39982    -126.723E-03        -1.23663    -207.612E-03         1.66823    -424.152E-03        -1.83554              0.              0.              0.              0.              0.              0.              0.     63.3764E+06     11.8188E+06    -6.02279E+06    -1.09492E+06     58.4485E+06     11.8188E+06    -17.1053E+06         20.6145
             276     15.0000E-03     112.202E-03         3.37987    -214.351E-03        -2.01376        -1.42227         2.97075    -396.714E-03     394.121E-03              0.              0.              0.              0.              0.              0.              0.     47.5539E+06     7.56403E+06    -11.6424E+06    -1.97123E+06     37.8828E+06     7.56403E+06    -21.3075E+06         20.1500
             277     13.9997E-03     112.202E-03         4.23156    -262.396E-03        -3.30724        -3.06437         3.98870    -262.396E-03         2.16661              0.              0.              0.              0.              0.              0.              0.     32.9844E+06     2.30736E+06    -18.5650E+06    -3.26514E+06     17.6846E+06     2.30736E+06    -23.0033E+06         20.0106
             278     13.0001E-03     112.204E-03         4.71344    -17.5860E-03        -4.86796        -3.77390         3.61938    -17.5860E-03        -2.72935              0.              0.              0.              0.              0.              0.              0.     19.9971E+06    -3.24841E+06    -26.0836E+06    -5.42658E+06    -659.950E+03    -3.24841E+06    -22.5371E+06             20.
             279     11.9997E-03     112.207E-03         6.22962     286.525E-03        -6.85209        -3.53236         2.90988     286.525E-03         2.72561              0.              0.              0.              0.              0.              0.              0.     9.23034E+06    -8.61194E+06    -34.1285E+06    -8.31475E+06    -16.5834E+06    -8.61194E+06    -20.8671E+06             20.
             280     11.0001E-03     112.209E-03         5.85335     592.602E-03        -6.10893        -2.62802         2.37244     592.602E-03         3.06752              0.              0.              0.              0.              0.              0.              0.    -117.792E+03    -13.6564E+06    -41.7333E+06    -11.7513E+06    -30.0998E+06    -13.6564E+06    -18.4178E+06             20.
             281     9.99974E-03     112.209E-03         5.22369     893.952E-03        -5.17095        -2.19740         2.25014     893.952E-03     781.088E-03              0.              0.              0.              0.              0.              0.              0.    -8.00760E+06    -18.3321E+06    -49.0247E+06    -15.8270E+06    -41.2054E+06    -18.3321E+06    -15.9334E+06             20.
             282     9.00011E-03     112.209E-03         4.02156         1.10618        -3.75851    -104.483E-03     357.252E-03         1.11646         4.31429              0.              0.              0.              0.              0.              0.              0.    -14.7258E+06    -22.5606E+06    -55.7320E+06    -20.0618E+06    -50.3959E+06    -22.5606E+06    -13.6358E+06             20.
             283     7.99974E-03     112.211E-03         3.22631         1.17064        -3.21938         1.23464        -1.23799         1.18091         3.55506              0.              0.              0.              0.              0.              0.              0.    -20.5768E+06    -26.3654E+06    -61.8204E+06    -24.2499E+06    -58.1472E+06    -26.3654E+06    -11.6693E+06             20.
             284     7.00009E-03     112.210E-03         3.54407         1.20907        -4.10960     769.116E-03        -1.33465         1.20907         1.14781              0.              0.              0.              0.              0.              0.              0.    -25.4875E+06    -29.6789E+06    -67.2772E+06    -28.1102E+06    -64.6544E+06    -29.6789E+06    -10.0394E+06             20.
             285     5.99974E-03     112.213E-03         3.98296         1.14551        -4.93942         2.28211        -3.23856         1.14551    -89.2249E-03              0.              0.              0.              0.              0.              0.              0.    -29.5997E+06    -32.6372E+06    -72.0969E+06    -31.5868E+06    -70.2116E+06    -32.5354E+06    -8.67645E+06             20.
             286     5.00011E-03     112.216E-03         6.22793     812.690E-03        -6.42933         3.18494        -3.38634     812.690E-03         2.75851              0.              0.              0.              0.              0.              0.              0.    -32.5158E+06    -35.4129E+06    -76.4241E+06    -34.3022E+06    -75.1173E+06    -34.9333E+06    -7.30492E+06             20.
             287     3.99975E-03     112.219E-03         6.10493     544.617E-03        -6.07664     801.459E-03    -773.167E-03     544.617E-03         5.37305              0.              0.              0.              0.              0.              0.              0.    -34.8007E+06    -37.7387E+06    -80.0117E+06    -36.4771E+06    -79.1825E+06    -36.8915E+06    -5.92056E+06             20.
             288     3.00016E-03     112.221E-03         7.68836     517.191E-03        -7.22367     513.156E-03    -48.4651E-03     517.191E-03         7.61174              0.              0.              0.              0.              0.              0.              0.    -36.5672E+06    -39.7005E+06    -82.8186E+06    -38.3383E+06    -82.3248E+06    -38.4231E+06    -4.55026E+06             20.
             289     1.99973E-03     112.224E-03         8.44750     570.663E-03        -7.97977     359.633E-03     108.093E-03     570.663E-03         3.67980              0.              0.              0.              0.              0.              0.              0.    -37.5096E+06    -41.2226E+06    -85.0331E+06    -39.4527E+06    -84.8107E+06    -39.5019E+06    -3.01038E+06             20.
             290     1.00029E-03     112.230E-03         8.55614     109.744E-03        -7.54755         3.40870    -178.076E-03        -2.11229         3.36304              0.              0.              0.              0.              0.              0.              0.    -36.6417E+06    -43.7401E+06    -86.6173E+06    -40.1343E+06    -86.5333E+06    -40.3315E+06    -1.65068E+06             20.
             291     16.9990E-03     111.200E-03         3.95874    -425.755E-03        -3.00124     303.817E-03     653.683E-03    -425.755E-03        -1.46548              0.              0.              0.              0.              0.              0.              0.     88.0995E+06     12.2551E+06    -2.14955E+06    -689.362E+03     86.6393E+06     12.2551E+06    -9.83634E+06         21.4828
             292     15.9995E-03     111.202E-03         4.99316    -419.895E-03        -3.50973        -1.29495         2.77838    -419.895E-03        -2.11476              0.              0.              0.              0.              0.              0.              0.     67.2245E+06     7.82426E+06    -6.23012E+06    -1.71649E+06     62.7108E+06     7.82426E+06    -16.8670E+06         20.6145
             293     14.9992E-03     111.204E-03         4.73637    -334.296E-03        -3.44415        -2.08374         3.37596    -334.296E-03    -929.000E-03              0.              0.              0.              0.              0.              0.              0.     47.4944E+06     2.11051E+06    -11.8643E+06    -3.11469E+06     38.7448E+06     2.11051E+06    -20.3964E+06         20.1500
             294     13.9997E-03     111.204E-03         3.47311    -249.015E-03        -3.18441        -1.00598         1.29468    -249.015E-03        -1.75843              0.              0.              0.              0.              0.              0.              0.     29.3242E+06    -4.56312E+06    -18.6735E+06    -5.31334E+06     15.9640E+06    -4.56312E+06    -20.9667E+06         20.0106
             295     12.9993E-03     111.205E-03         4.05420    -134.563E-03        -4.18888        -2.40557         2.27090    -134.563E-03        -2.08369              0.              0.              0.              0.              0.              0.              0.     13.7293E+06    -11.4027E+06    -26.3749E+06    -8.48577E+06    -4.15987E+06    -11.4027E+06    -19.2729E+06             20.
             296     11.9997E-03     111.209E-03         4.83252     95.7472E-03        -4.90471        -3.32765         3.25546     95.7472E-03    -162.209E-03              0.              0.              0.              0.              0.              0.              0.     479.015E+03    -17.9215E+06    -34.1490E+06    -12.7874E+06    -20.8826E+06    -17.9215E+06    -16.4118E+06             20.
             297     10.9993E-03     111.210E-03         3.91834     305.965E-03        -3.24550        -1.17316         1.84599     305.965E-03     219.136E-03              0.              0.              0.              0.              0.              0.              0.    -10.2748E+06    -23.9555E+06    -42.0271E+06    -17.9667E+06    -34.3352E+06    -23.9555E+06    -13.1862E+06             20.
             298     9.99974E-03     111.213E-03         4.42114     495.291E-03        -3.25541        -1.94369         3.10943     495.291E-03    -448.190E-03              0.              0.              0.              0.              0.              0.              0.    -19.2410E+06    -29.4074E+06    -49.3628E+06    -23.5835E+06    -45.0203E+06    -29.4074E+06    -10.2764E+06             20.
             299     8.99933E-03     111.212E-03         3.71311     795.002E-03        -2.91672        -2.58252         3.36863     805.278E-03         2.40155              0.              0.              0.              0.              0.              0.              0.    -26.8834E+06    -34.3095E+06    -56.1597E+06    -29.4705E+06    -53.5726E+06    -34.3095E+06    -8.15226E+06             20.
             300     7.99977E-03     111.210E-03         2.65471         1.03365        -2.84813     124.192E-03    -335.128E-03         1.05117         2.86974              0.              0.              0.              0.              0.              0.              0.    -33.1162E+06    -38.5977E+06    -62.5116E+06    -34.8448E+06    -60.7830E+06    -38.5977E+06    -6.68391E+06             20.
             301     6.99940E-03     111.210E-03         2.98264         1.08394        -3.71153         1.34286        -2.07899         1.09118         2.38055              0.              0.              0.              0.              0.              0.              0.    -38.4448E+06    -42.3519E+06    -68.2523E+06    -39.6282E+06    -67.0689E+06    -42.3519E+06    -5.62467E+06             20.
             302     5.99984E-03     111.213E-03         2.72771         1.10296        -3.17408     751.772E-03        -1.19814         1.10296         1.09069              0.              0.              0.              0.              0.              0.              0.    -42.5660E+06    -45.8152E+06    -73.3641E+06    -43.7164E+06    -72.4806E+06    -45.5483E+06    -4.97017E+06             20.
             303     4.99949E-03     111.215E-03         4.54497     910.644E-03        -4.40535         3.13022        -2.99060     910.644E-03         4.24405              0.              0.              0.              0.              0.              0.              0.    -45.8353E+06    -48.9105E+06    -77.8997E+06    -47.1367E+06    -77.2430E+06    -48.2658E+06    -4.31614E+06             20.
             304     3.99996E-03     111.219E-03         5.70250     331.934E-03        -3.74539         3.17303        -1.21592     331.934E-03         2.33799              0.              0.              0.              0.              0.              0.              0.    -48.3742E+06    -51.5221E+06    -81.7348E+06    -49.8429E+06    -81.3101E+06     -50.478E+06    -3.51777E+06             20.
             305     2.99958E-03     111.222E-03         4.90468     178.908E-03        -3.29041        -1.90314         3.34840     347.916E-03    -838.321E-03              0.              0.              0.              0.              0.              0.              0.    -50.1880E+06    -53.6841E+06    -84.9188E+06    -51.9411E+06    -84.6399E+06    -52.2099E+06    -2.80505E+06             20.
             306     2.00013E-03     111.226E-03         5.03260     809.772E-03        -4.38000    -60.9697E-03     544.563E-03     978.781E-03    -128.483E-03              0.              0.              0.              0.              0.              0.              0.    -51.2813E+06    -55.5032E+06    -87.3224E+06    -53.4846E+06    -87.1827E+06    -53.4397E+06    -1.93843E+06             20.
             307     999.604E-06     111.232E-03         6.41546     118.001E-03        -7.02715         4.53293        -2.92257        -2.10404         2.14785              0.              0.              0.              0.              0.              0.              0.    -50.3727E+06    -57.9775E+06    -89.2309E+06    -54.1907E+06    -89.1644E+06    -54.2259E+06    -1.07707E+06             20.
             308     16.9989E-03     110.199E-03         3.44858    -345.443E-03        -2.31731     402.507E-03     736.897E-03    -353.579E-03    -559.589E-03              0.              0.              0.              0.              0.              0.              0.     95.9772E+06     8.12893E+06    -2.45025E+06    -1.21757E+06     94.7446E+06     8.12893E+06    -9.35679E+06         21.4828
             309     15.9985E-03     110.200E-03         4.79128    -343.216E-03        -3.40419        -1.38775         2.77484    -343.216E-03     320.256E-03              0.              0.              0.              0.              0.              0.              0.     70.1167E+06     2.14096E+06    -6.70648E+06    -2.76350E+06     66.3861E+06     1.92856E+06    -15.7285E+06         20.6145
             310     14.9991E-03     110.202E-03         5.77649    -254.724E-03        -5.07761        -1.93060         2.62948    -254.724E-03        -2.38626              0.              0.              0.              0.              0.              0.              0.     45.8721E+06    -5.33359E+06    -12.3742E+06    -5.00794E+06     38.7182E+06    -5.54598E+06    -18.3783E+06         20.1500
             311     13.9987E-03     110.202E-03         5.11381    -199.566E-03        -5.04997    -177.591E-03     241.432E-03    -199.566E-03        -2.09940              0.              0.              0.              0.              0.              0.              0.     23.6122E+06    -12.6134E+06    -19.9224E+06    -8.05346E+06     12.9939E+06    -13.8641E+06    -17.5627E+06         20.0106
             312     12.9992E-03     110.207E-03         4.21003    -155.093E-03        -4.20848        -1.33077         1.33232    -155.093E-03     865.606E-03              0.              0.              0.              0.              0.              0.              0.     3.97385E+06    -20.1200E+06    -27.7411E+06    -12.6839E+06    -8.92424E+06    -22.2791E+06    -13.9665E+06             20.
             313     11.9987E-03     110.208E-03         3.83102     3.18786E-03        -3.23869        -2.70985         3.30219     3.18786E-03        -2.64358              0.              0.              0.              0.              0.              0.              0.    -11.1798E+06    -28.5679E+06    -35.1996E+06    -18.9954E+06    -25.8571E+06    -30.0948E+06    -9.63138E+06             20.
             314     10.9992E-03     110.211E-03         3.08287     187.400E-03        -1.77697        -1.37580         2.68170     187.400E-03        -1.47373              0.              0.              0.              0.              0.              0.              0.    -22.9960E+06    -35.5875E+06    -43.3731E+06    -26.4266E+06    -38.4127E+06    -37.1174E+06    -5.63859E+06             20.
             315     9.99876E-03     110.212E-03         3.31442     314.739E-03        -1.44479    -809.096E-03         2.67872     314.739E-03    -242.712E-03              0.              0.              0.              0.              0.              0.              0.    -32.7794E+06    -42.4309E+06    -50.2489E+06    -34.1795E+06    -47.9373E+06    -43.3423E+06    -2.79064E+06             20.
             316     8.99928E-03     110.212E-03         4.16435     533.243E-03        -3.05939        -2.39023         3.49519     533.243E-03    -667.485E-03              0.              0.              0.              0.              0.              0.              0.    -39.7849E+06    -48.7701E+06    -57.2198E+06    -41.4550E+06    -55.5498E+06    -48.7701E+06    -1.11624E+06             20.
             317     7.99889E-03     110.210E-03         3.47967     771.599E-03        -3.55222    -553.383E-03     473.590E-03     778.840E-03        -2.24028              0.              0.              0.              0.              0.              0.              0.    -46.7538E+06    -53.5516E+06    -63.4842E+06    -48.1923E+06    -62.0457E+06    -53.5516E+06    -385.026E+03             20.
             318     6.99942E-03     110.212E-03         4.56342     768.380E-03        -4.87931         1.99178        -2.31490     775.621E-03         5.79688              0.              0.              0.              0.              0.              0.              0.    -52.6980E+06    -57.6440E+06    -68.9843E+06    -53.8220E+06    -67.8603E+06    -57.6440E+06    -196.248E+03             20.
             319     5.99907E-03     110.215E-03         5.04893     778.100E-03        -5.20327    -286.028E-03     131.681E-03     778.100E-03         3.54230              0.              0.              0.              0.              0.              0.              0.    -57.3002E+06    -61.4792E+06    -74.2686E+06    -58.6308E+06    -73.2048E+06    -61.2123E+06    -415.496E+03             20.
             320     4.99962E-03     110.217E-03         4.19144         1.07574        -3.40506        -1.01545         1.80183         1.07574     287.620E-03              0.              0.              0.              0.              0.              0.              0.    -61.7056E+06    -64.6301E+06    -78.4000E+06    -62.6444E+06    -77.8806E+06    -64.2109E+06    -733.116E+03             20.
             321     3.99928E-03     110.219E-03         5.38320         1.35863        -4.18970     750.062E-03     443.431E-03         1.35863         3.93676              0.              0.              0.              0.              0.              0.              0.    -64.5074E+06    -67.5271E+06    -82.6265E+06    -65.8399E+06    -82.1126E+06    -66.7086E+06    -782.765E+03             20.
             322     2.99988E-03     110.223E-03         5.37365         1.05314        -3.96621         2.47763        -1.23920         1.22215     198.162E-03              0.              0.              0.              0.              0.              0.              0.    -66.5437E+06    -70.1470E+06    -85.9004E+06    -68.2601E+06    -85.6682E+06    -68.6629E+06    -788.179E+03             20.
             323     1.99947E-03     110.227E-03         4.01497     480.978E-03        -3.32018         2.10141        -1.57562     649.987E-03    -817.216E-03              0.              0.              0.              0.              0.              0.              0.    -67.6895E+06    -72.1303E+06    -88.6198E+06    -69.9951E+06    -88.3875E+06    -70.0569E+06    -663.190E+03             20.
             324     1.00025E-03     110.230E-03         5.21902    -569.469E-03        -4.97599         1.34458    -912.701E-03    -758.321E-03         6.45622              0.              0.              0.              0.              0.              0.              0.    -66.8306E+06    -74.6183E+06    -90.8933E+06    -71.0063E+06    -90.4431E+06    -70.8929E+06    -334.452E+03             20.
             325     16.9976E-03     109.200E-03         2.38512    -161.333E-03        -1.29523    -82.8843E-03         1.18091    -169.469E-03        -2.75001              0.              0.              0.              0.              0.              0.              0.     102.923E+06     3.16341E+06    -4.47687E+06    -2.30585E+06     102.128E+06     1.78790E+06    -7.71157E+06         21.4836
             326     15.9983E-03     109.200E-03         3.83787    -179.651E-03        -2.98977     67.7256E-03     780.375E-03    -179.651E-03        -1.63464              0.              0.              0.              0.              0.              0.              0.     72.6509E+06    -4.68794E+06    -9.20646E+06    -4.82566E+06     69.8580E+06    -6.27584E+06    -13.7207E+06         20.6147
             327     14.9979E-03     109.200E-03         4.56157    -221.730E-03        -4.07045     809.569E-03    -318.441E-03    -221.730E-03        -3.85494              0.              0.              0.              0.              0.              0.              0.     42.6485E+06    -11.0151E+06    -17.1079E+06    -7.17457E+06     37.4482E+06    -15.7481E+06    -15.4401E+06         20.1500
             328     13.9985E-03     109.203E-03         5.07630    -230.426E-03        -4.78209    -946.421E-03         1.24063    -230.426E-03    -497.456E-03              0.              0.              0.              0.              0.              0.              0.     14.2492E+06    -16.8117E+06    -27.6279E+06    -11.5125E+06     7.69196E+06    -26.3698E+06    -11.9040E+06         20.0106
             329     12.9979E-03     109.206E-03         3.83911    -146.066E-03        -3.49298        -1.67204         2.01818    -146.066E-03         2.29576              0.              0.              0.              0.              0.              0.              0.    -7.96665E+06    -25.9814E+06    -36.6484E+06    -18.7400E+06    -15.2081E+06    -36.6484E+06    -5.60234E+06             20.
             330     11.9985E-03     109.209E-03         2.78389    -55.0966E-03        -1.56685    -828.623E-03         2.04566    -55.0966E-03        -1.26746              0.              0.              0.              0.              0.              0.              0.    -21.3549E+06    -37.8026E+06    -45.7918E+06    -28.1579E+06    -30.9996E+06    -45.7918E+06     367.870E+03             20.
             331     10.9980E-03     109.209E-03         3.71913     45.1952E-03        -1.87669        -1.44649         3.28893     45.1952E-03    -477.802E-03              0.              0.              0.              0.              0.              0.              0.    -31.9007E+06    -48.1215E+06    -53.6844E+06    -38.3786E+06    -41.6437E+06    -53.6844E+06     4.49720E+06             20.
             332     9.99862E-03     109.210E-03         3.94370     177.263E-03        -1.94448        -1.09958         3.09880     177.263E-03         1.11886              0.              0.              0.              0.              0.              0.              0.    -39.6763E+06    -57.2240E+06    -60.9673E+06    -48.0465E+06    -49.3939E+06    -60.4272E+06     6.75846E+06             20.
             333     8.99817E-03     109.211E-03         4.14268     265.422E-03        -2.69775    -166.290E-03         1.61122     265.422E-03     155.720E-03              0.              0.              0.              0.              0.              0.              0.    -46.5916E+06    -64.8110E+06    -67.5377E+06    -56.8037E+06    -55.8267E+06    -66.3099E+06     7.46331E+06             20.
             334     7.99881E-03     109.211E-03         4.06118     280.656E-03        -3.40946     429.631E-03     222.088E-03     280.656E-03        -2.95134              0.              0.              0.              0.              0.              0.              0.    -53.7115E+06    -69.8611E+06    -73.5556E+06    -64.3144E+06    -61.4538E+06    -71.3600E+06     7.11317E+06             20.
             335     6.99846E-03     109.212E-03         6.18129     344.275E-03        -6.05477    -666.352E-03     792.872E-03     344.275E-03         7.15511              0.              0.              0.              0.              0.              0.              0.    -60.3418E+06    -74.7391E+06    -78.5967E+06    -71.0103E+06    -66.8091E+06    -75.8582E+06     6.17771E+06             20.
             336     5.99910E-03     109.213E-03         7.49560     663.149E-03        -7.31251        -2.29407         2.47715     663.149E-03         3.30872              0.              0.              0.              0.              0.              0.              0.    -66.3232E+06    -78.5905E+06    -83.1972E+06    -76.5194E+06    -71.8818E+06    -79.7096E+06     4.86841E+06             20.
             337     4.99879E-03     109.217E-03         6.58366         1.14175        -5.80804        -1.18156         1.95718         1.14175     907.094E-03              0.              0.              0.              0.              0.              0.              0.    -72.0222E+06    -82.1404E+06    -86.8769E+06    -81.0907E+06    -76.8653E+06    -83.0836E+06     3.51528E+06             20.
             338     3.99948E-03     109.218E-03         6.29102         1.45510        -5.49127     817.062E-03    -17.3084E-03         1.45510         10.3026              0.              0.              0.              0.              0.              0.              0.    -76.3011E+06    -84.9422E+06    -90.7757E+06    -84.8165E+06    -81.3171E+06    -85.8854E+06     2.49823E+06             20.
             339     2.99914E-03     109.222E-03         5.37712         1.22769        -4.49187         3.08911        -2.20386         1.22769         2.85472              0.              0.              0.              0.              0.              0.              0.    -79.7326E+06    -87.6184E+06    -93.5045E+06    -87.5294E+06    -85.2363E+06    -88.0898E+06     1.50298E+06             20.
             340     1.99992E-03     109.225E-03         5.48884     24.6340E-03        -4.47959         3.60444        -2.59518     24.6340E-03    -481.992E-03              0.              0.              0.              0.              0.              0.              0.    -81.9152E+06    -89.2701E+06    -96.1918E+06    -89.3599E+06    -88.2757E+06    -89.7415E+06     1.01162E+06             20.
             341     999.395E-06     109.232E-03         7.69225         1.35680        -9.02170        -3.04993         1.79275         1.28453         8.22202              0.              0.              0.              0.              0.              0.              0.    -82.2218E+06    -90.8683E+06    -98.5266E+06    -90.8319E+06    -90.0254E+06    -90.7593E+06     461.297E+03             20.
             342     16.9973E-03     108.200E-03         3.53012     111.926E-03        -2.93604    -654.552E-03         1.24863     111.926E-03        -3.21594     37.9425E-06    -18.6156E-06    -19.3321E-06    -18.6043E-06     37.9312E-06    -19.3321E-06    -1.59728E-06     109.735E+06    -1.01029E+06    -6.14582E+06    -3.46611E+06     109.281E+06    -3.23602E+06    -5.23456E+06         21.4873
             343     15.9968E-03     108.199E-03         4.62581     51.4215E-03        -4.12233         2.71201        -2.20852     51.4215E-03        -4.79939              0.              0.              0.              0.              0.              0.              0.     75.7047E+06    -7.23012E+06    -16.3693E+06    -5.32750E+06     73.7004E+06    -16.2676E+06    -11.5266E+06         20.6156
             344     14.9976E-03     108.200E-03         3.87723    -115.308E-03        -3.35275         2.38696        -1.86248    -115.308E-03        -3.59467              0.              0.              0.              0.              0.              0.              0.     35.6333E+06    -11.7243E+06    -29.5838E+06    -8.75837E+06     32.5656E+06    -29.4821E+06    -10.4532E+06         20.1500
             345     13.9969E-03     108.204E-03         3.06679    -181.610E-03        -2.47561    -671.567E-03         1.26275    -181.610E-03        -1.44499              0.              0.              0.              0.              0.              0.              0.     3.68894E+06    -21.3934E+06    -43.3199E+06    -16.6999E+06    -1.00448E+06    -43.3199E+06    -1.93857E+06         20.0106
             346     12.9976E-03     108.207E-03         3.40257    -166.774E-03        -2.30553    -104.476E-03         1.20151    -166.774E-03         1.16878              0.              0.              0.              0.              0.              0.              0.    -13.7333E+06    -37.7062E+06    -55.6258E+06    -28.8883E+06    -22.5513E+06    -55.6258E+06     7.43815E+06             20.
             347     11.9970E-03     108.207E-03         2.54603    -94.6989E-03        -1.09420     741.578E-03     824.289E-03    -208.732E-03         1.68700              0.              0.              0.              0.              0.              0.              0.    -23.3325E+06    -54.2347E+06    -65.7743E+06    -42.3715E+06    -35.1958E+06    -65.7743E+06     13.9284E+06             20.
             348     10.9977E-03     108.207E-03         3.68354    -145.889E-03        -1.57481     6.67413E-03         2.21608    -259.922E-03         3.21978              0.              0.              0.              0.              0.              0.              0.    -30.1588E+06    -67.1906E+06    -74.7961E+06    -55.0124E+06    -43.0502E+06    -74.0829E+06     17.2294E+06             20.
             349     9.99721E-03     108.212E-03         4.23111    -268.792E-03        -2.17641    -318.457E-03         2.37315    -268.792E-03         4.35533              0.              0.              0.              0.              0.              0.              0.    -36.8835E+06    -76.8948E+06     -82.147E+06    -66.1437E+06    -48.7438E+06    -81.0378E+06     17.9968E+06             20.
             350     8.99798E-03     108.210E-03         3.60806    -333.679E-03        -1.66055     885.211E-03         1.06230    -333.679E-03         3.35772              0.              0.              0.              0.              0.              0.              0.    -43.9373E+06    -83.5849E+06    -88.4796E+06    -75.3952E+06    -53.6715E+06    -86.9351E+06     17.1852E+06             20.
             351     7.99760E-03     108.212E-03         5.69665    -287.127E-03        -4.35983        -2.11235         3.44917    -287.127E-03        -2.24588              0.              0.              0.              0.              0.              0.              0.    -50.9047E+06    -89.5100E+06    -94.3535E+06    -83.7454E+06    -58.7061E+06    -92.3167E+06     15.6578E+06             20.
             352     6.99837E-03     108.213E-03         7.98295     181.260E-03        -7.55698        -4.77775         5.20373     181.260E-03         3.83874              0.              0.              0.              0.              0.              0.              0.    -57.8329E+06    -94.5886E+06    -99.0010E+06    -90.9787E+06    -63.4282E+06    -97.0156E+06     13.4171E+06             20.
             353     5.99807E-03     108.216E-03         7.21348     708.140E-03        -6.80246        -1.36341         1.77443     708.140E-03         2.01799              0.              0.              0.              0.              0.              0.              0.    -64.8295E+06    -99.0428E+06    -103.421E+06    -97.3004E+06    -68.6357E+06    -101.357E+06     10.9122E+06             20.
             354     4.99887E-03     108.216E-03         6.43530     767.507E-03        -5.90463         1.90386        -1.37320     767.507E-03     866.612E-03              0.              0.              0.              0.              0.              0.              0.    -71.3609E+06    -102.888E+06    -107.443E+06    -102.768E+06    -73.7452E+06    -105.179E+06     8.51093E+06             20.
             355     3.99859E-03     108.217E-03         6.83649     413.243E-03        -5.25000         2.35174    -765.252E-03     413.243E-03         11.3525              0.              0.              0.              0.              0.              0.              0.    -77.4688E+06    -105.772E+06    -110.864E+06    -106.854E+06    -78.8490E+06    -108.402E+06     6.18049E+06             20.
             356     2.99945E-03     108.221E-03         4.58462     87.7934E-03        -3.49337     657.808E-03     442.943E-03     78.2914E-03         3.93107              0.              0.              0.              0.              0.              0.              0.    -82.3523E+06    -108.212E+06    -113.685E+06    -110.022E+06    -83.1911E+06    -111.036E+06     4.62883E+06             20.
             357     1.99908E-03     108.224E-03         4.46715    -410.066E-03        -3.50658         1.20034    -230.272E-03    -419.568E-03         2.34217              0.              0.              0.              0.              0.              0.              0.    -85.4365E+06    -110.315E+06    -115.789E+06    -112.704E+06    -85.9569E+06    -112.879E+06     2.92142E+06             20.
             358     1.00016E-03     108.227E-03         7.97086         3.44963        -12.2313        -6.11215     863.161E-03         4.43822         13.1750              0.              0.              0.              0.              0.              0.              0.    -87.4774E+06    -110.461E+06    -118.180E+06    -113.830E+06    -88.1917E+06    -114.097E+06     1.60118E+06             20.
             359     16.9955E-03     107.196E-03         3.74159     230.858E-03        -3.17065     517.107E-03     53.8343E-03     230.858E-03    -907.767E-03     178.896E-06    -82.5246E-06    -96.3773E-06    -95.6489E-06     178.884E-06    -83.2412E-06    -941.016E-09     117.301E+06     7.38125E+06    -9.43467E+06     -303.94E+03     117.021E+06    -1.47008E+06    -3.73816E+06         21.4948
             360     15.9964E-03     107.199E-03         3.72990     167.676E-03        -3.36152         1.92324        -1.55486     167.676E-03        -3.18021              0.              0.              0.              0.              0.              0.              0.     76.3578E+06    -3.58005E+06    -29.1169E+06    -2.49644E+06     75.2742E+06    -29.1169E+06    -7.79528E+06         20.6176
             361     14.9957E-03     107.200E-03         3.27835     63.3464E-03        -2.68389         1.54310    -948.633E-03     63.3464E-03    -232.745E-03              0.              0.              0.              0.              0.              0.              0.     26.1045E+06    -16.9690E+06    -49.2391E+06    -10.8893E+06     20.0248E+06    -49.2391E+06     992.345E+03         20.1501
             362     13.9964E-03     107.201E-03         2.66011    -48.0081E-03        -1.59343         1.67836    -611.673E-03    -48.0081E-03    -548.179E-03              0.              0.              0.              0.              0.              0.              0.     1.36543E+06    -41.7571E+06    -66.7166E+06    -28.0896E+06    -12.3020E+06    -66.7166E+06     16.3405E+06         20.0109
             363     12.9957E-03     107.204E-03         3.00726    -202.646E-03        -1.52233         2.20842    -723.497E-03    -202.646E-03     716.560E-03              0.              0.              0.              0.              0.              0.              0.    -10.0129E+06    -66.2351E+06    -80.4828E+06    -47.9533E+06    -28.2947E+06    -80.4828E+06     25.9520E+06         20.0009
             364     11.9966E-03     107.206E-03         3.00739    -287.885E-03        -1.25336         2.15437    -286.309E-03    -401.919E-03         1.35315              0.              0.              0.              0.              0.              0.              0.    -17.1137E+06    -83.0950E+06    -92.1938E+06    -64.7406E+06    -36.8349E+06    -90.8271E+06     30.1592E+06         20.0017
             365     10.9960E-03     107.207E-03         4.11524    -531.207E-03        -2.16764         2.37325    -311.622E-03    -645.241E-03         3.56191              0.              0.              0.              0.              0.              0.              0.    -23.3101E+06    -93.7887E+06    -100.621E+06    -77.8189E+06    -41.3599E+06    -98.5415E+06     30.8893E+06         20.0025
             366     9.99690E-03     107.210E-03         4.25111    -709.679E-03        -2.27100         1.94214     253.487E-03    -925.198E-03         3.46079              0.              0.              0.              0.              0.              0.              0.    -30.0664E+06    -101.146E+06    -106.808E+06    -87.8981E+06    -45.2318E+06    -104.891E+06     29.4175E+06         20.0029
             367     8.99646E-03     107.210E-03         5.25473    -816.022E-03        -3.51206        -1.69621         3.65440        -1.03154         3.29359              0.              0.              0.              0.              0.              0.              0.    -36.7158E+06    -107.713E+06    -113.267E+06    -97.2213E+06    -49.5597E+06    -110.914E+06     27.6823E+06         20.0031
             368     7.99739E-03     107.209E-03         7.72778    -713.355E-03        -6.24991        -5.20816         6.68603    -713.355E-03     237.304E-03              0.              0.              0.              0.              0.              0.              0.    -42.9932E+06    -113.582E+06    -118.574E+06    -105.798E+06    -53.1118E+06    -116.240E+06     25.0301E+06         20.0031
             369     6.99709E-03     107.212E-03         8.92587    -236.247E-03        -7.90538        -2.96322         3.98371    -236.247E-03         5.92657              0.              0.              0.              0.              0.              0.              0.    -50.6224E+06    -118.685E+06    -123.758E+06    -113.500E+06    -58.0914E+06    -121.475E+06     21.5570E+06         20.0030
             370     5.99801E-03     107.215E-03         7.47599    -99.9364E-03        -6.55049     637.306E-03     288.190E-03    -99.9364E-03         8.65716              0.              0.              0.              0.              0.              0.              0.    -57.6514E+06    -123.670E+06    -128.833E+06    -120.759E+06    -63.0482E+06    -126.348E+06     18.3301E+06         20.0030
             371     4.99777E-03     107.218E-03         6.91921    -234.640E-03        -5.50562     542.424E-03     871.167E-03    -234.640E-03         6.24330              0.              0.              0.              0.              0.              0.              0.    -65.0694E+06    -128.109E+06    -133.598E+06    -127.334E+06    -68.5297E+06    -130.912E+06     14.5743E+06         20.0028
             372     3.99876E-03     107.219E-03         7.45986    -571.061E-03        -5.65135         1.52653     281.978E-03    -571.061E-03         10.4098              0.              0.              0.              0.              0.              0.              0.    -72.0333E+06    -131.821E+06    -138.235E+06    -132.996E+06    -74.1302E+06    -134.964E+06     11.1872E+06         20.0027
             373     2.99848E-03     107.222E-03         4.60953        -1.10084        -2.91780     994.234E-03     792.404E-03        -1.19575         3.52678              0.              0.              0.              0.              0.              0.              0.    -77.4286E+06    -134.709E+06    -141.381E+06    -136.997E+06    -78.5978E+06    -137.923E+06     7.72201E+06         20.0025
             374     1.99960E-03     107.224E-03         3.70177    -922.086E-03        -3.48665        -3.17737         3.48740        -1.01699         1.29249              0.              0.              0.              0.              0.              0.              0.    -81.4824E+06    -137.128E+06    -142.821E+06    -139.106E+06    -82.2424E+06    -140.084E+06     5.45296E+06         20.0024
             375     999.128E-06     107.230E-03         8.33948     546.551E-03        -10.9943        -6.90199        -1.13686         5.93058         10.1869              0.              0.              0.              0.              0.              0.              0.    -83.0495E+06    -138.203E+06    -145.367E+06    -141.558E+06    -83.6058E+06    -141.456E+06     3.37660E+06         20.0023
             376     16.9948E-03     106.196E-03         3.38373     164.233E-03        -2.79884         1.70008        -1.11519     164.233E-03        -1.37701     324.623E-06    -154.148E-06    -170.450E-06    -167.533E-06     324.605E-06    -157.047E-06    -3.65047E-06     120.678E+06     14.1611E+06    -15.1166E+06     3.06699E+06     120.461E+06    -3.80596E+06    -3.36384E+06         21.5137
             377     15.9941E-03     106.196E-03         3.88815     118.152E-03        -3.37108     152.596E-03     364.471E-03     118.152E-03    -157.737E-03     5.88805E-06    -1.49473E-06    -4.39335E-06    -1.49204E-06     5.88536E-06    -4.39335E-06    -281.443E-09     72.0353E+06    -11.4560E+06    -51.1053E+06    -5.78076E+06     66.3601E+06    -51.1053E+06     5.53374E+06         20.6223
             378     14.9949E-03     106.199E-03         3.49497     117.902E-03        -2.75579     101.881E-03     637.296E-03     117.902E-03         2.74634              0.              0.              0.              0.              0.              0.              0.     19.7374E+06    -46.5608E+06    -80.2888E+06    -28.5403E+06     1.71690E+06    -80.2888E+06     24.3692E+06         20.1534
             379     13.9940E-03     106.202E-03         3.66942     17.9495E-03        -2.41666         2.83477        -1.58201     17.9495E-03    -572.634E-03     20.2824E-06    -9.69481E-06    -10.5899E-06     2.24543E-06     8.34211E-06    -10.5899E-06     29.3507E-06     6.05170E+06    -79.6208E+06    -95.8624E+06    -51.8969E+06    -21.6722E+06    -95.8624E+06     39.5861E+06         20.0144
             380     12.9950E-03     106.203E-03         3.82220    -227.894E-03        -2.27102         3.54873        -1.99755    -227.894E-03         1.31295     61.0260E-06    -29.3838E-06    -31.6479E-06     3.46457E-06     26.8086E-06    -30.2789E-06     88.6969E-06     556.156E+03    -96.3117E+06    -105.155E+06    -68.8335E+06    -28.9146E+06    -103.163E+06     44.9493E+06         20.0046
             381     11.9944E-03     106.205E-03         3.98296    -547.195E-03        -2.27004         3.63143        -1.91852    -547.195E-03     711.803E-03     152.858E-06    -69.0746E-06    -83.7894E-06    -9.81268E-06     78.8816E-06    -69.0746E-06     218.929E-06    -6.96193E+06    -101.727E+06    -110.422E+06    -80.6354E+06    -34.0931E+06    -104.382E+06     44.3615E+06         20.0075
             382     10.9955E-03     106.206E-03         4.67937    -948.524E-03        -3.05328         4.05450        -2.42841    -948.524E-03         2.10153     216.944E-06    -97.3739E-06    -119.585E-06    -28.0812E-06     125.441E-06    -97.3739E-06     298.884E-06    -12.7127E+06    -103.256E+06    -113.706E+06    -88.6425E+06    -35.8824E+06    -105.150E+06     41.6437E+06         20.0103
             383     9.99502E-03     106.209E-03         4.28216        -1.11505        -2.78665         1.76878    -57.7474E-03        -1.33057         2.54017     242.462E-06    -108.124E-06    -134.367E-06    -49.0395E-06     157.134E-06    -108.124E-06     315.050E-06    -19.5510E+06    -107.512E+06    -118.264E+06    -95.7879E+06    -40.1333E+06    -109.406E+06     39.2720E+06         20.0114
             384     8.99613E-03     106.209E-03         5.72435        -1.24220        -4.55225        -1.95631         3.34393        -1.45772         4.23804     263.121E-06    -117.669E-06    -145.470E-06    -68.3044E-06     185.956E-06    -117.669E-06     318.853E-06    -25.1898E+06    -111.931E+06    -122.375E+06    -102.746E+06    -43.4685E+06    -113.281E+06     37.1875E+06         20.0121
             385     7.99579E-03     106.208E-03         5.79512        -1.39259        -4.40365        -1.36122         2.79358        -1.43347         3.72724     250.861E-06    -115.307E-06    -135.566E-06    -76.8626E-06     192.158E-06    -115.307E-06     277.121E-06    -30.7552E+06    -117.542E+06    -126.178E+06    -109.793E+06    -45.7897E+06    -118.892E+06     34.0474E+06         20.0124
             386     6.99688E-03     106.212E-03         7.65625        -1.55292        -5.72479     627.172E-03         1.34517        -1.59380         9.53505     250.656E-06    -116.211E-06    -134.442E-06    -87.8832E-06     204.097E-06    -116.211E-06     250.045E-06    -38.5635E+06    -123.156E+06    -131.350E+06    -117.459E+06    -50.9725E+06    -124.638E+06     30.7002E+06         20.0121
             387     5.99665E-03     106.211E-03         9.05858        -1.80446        -6.78606        -1.13410         3.40662        -1.80446         11.6875     234.810E-06    -111.530E-06    -123.246E-06    -91.1789E-06     202.744E-06    -111.530E-06     203.841E-06    -45.8576E+06    -128.885E+06    -136.479E+06    -125.164E+06    -55.1377E+06    -130.920E+06     26.6908E+06         20.0118
             388     4.99778E-03     106.216E-03         7.95588        -1.74214        -5.30231        -2.87598         5.52955        -1.74214         7.75950     229.918E-06    -110.716E-06    -119.182E-06    -96.7062E-06     207.443E-06    -110.716E-06     170.670E-06    -54.3467E+06    -134.655E+06    -142.056E+06    -132.990E+06    -61.2512E+06    -136.816E+06     22.6732E+06         20.0118
             389     3.99757E-03     106.219E-03         7.79606        -1.54404        -5.67313        -2.19193         4.31486        -1.54404         8.17791     224.908E-06    -108.687E-06    -116.211E-06    -101.739E-06     210.435E-06    -108.687E-06     135.786E-06    -61.4071E+06    -138.942E+06    -147.626E+06    -140.621E+06    -65.5540E+06    -141.801E+06     17.4444E+06         20.0119
             390     2.99883E-03     106.222E-03         5.05275        -1.51350        -3.58295    -774.934E-03         2.33013        -1.59891         3.58292     208.075E-06    -101.444E-06    -106.619E-06    -99.7236E-06     201.179E-06    -101.444E-06     90.8631E-06    -69.2243E+06    -144.214E+06    -152.038E+06    -146.861E+06    -71.4713E+06    -147.145E+06     12.3108E+06         20.0129
             391     1.99854E-03     106.223E-03         4.44351        -1.63103        -4.74605        -1.78482         1.56769        -1.71644    -397.802E-03     191.816E-06    -92.7609E-06    -99.0571E-06    -96.1762E-06     188.935E-06    -92.7609E-06     55.0928E-06    -74.7945E+06    -149.023E+06    -155.545E+06    -151.787E+06    -76.2049E+06    -151.371E+06     8.19795E+06         20.0142
             392     999.974E-06     106.229E-03         12.5036        -2.20599        -12.7690        -5.58119     803.702E-03         2.30603         11.6475     173.117E-06    -84.4762E-06    -88.6432E-06    -88.0488E-06     172.523E-06    -84.4762E-06     21.8642E-06    -75.7336E+06    -150.291E+06    -155.508E+06    -152.252E+06    -76.3444E+06    -152.936E+06     4.23682E+06         20.0143
             393     16.9917E-03     105.195E-03         2.65277     37.3921E-03        -2.20678         1.03651    -590.514E-03     37.3921E-03     136.308E-03     602.606E-06    -259.398E-06    -343.202E-06    -308.167E-06     601.498E-06    -293.324E-06     10.3588E-06     113.352E+06     9.57582E+06    -33.0554E+06    -10.5609E+06     111.909E+06    -11.4757E+06     3.56133E+06         21.6645
             394     15.9927E-03     105.195E-03         3.66606     14.0530E-03        -3.07698    -172.461E-03     761.540E-03     14.0530E-03         2.35530     73.2981E-06    -14.8503E-06    -58.4632E-06     7.82931E-06     50.6185E-06    -58.4632E-06     59.0022E-06     58.4815E+06    -44.2354E+06    -81.7855E+06    -27.5553E+06     41.8014E+06    -81.7855E+06     28.4207E+06         20.7360
             395     14.9918E-03     105.200E-03         2.98068     27.2271E-03        -2.23758    -184.960E-03     928.069E-03     27.2271E-03         1.49333     280.204E-06    -123.509E-06    -156.693E-06     37.6841E-06     95.5131E-06    -133.195E-06     423.234E-06     24.8618E+06    -73.9336E+06    -103.278E+06    -47.5326E+06    -11.4989E+06    -93.3186E+06     50.8859E+06         20.2371
             396     13.9930E-03     105.202E-03         3.23289    -48.7302E-03        -2.27670         2.28243        -1.32623    -48.7302E-03    -587.453E-03     529.621E-06    -233.781E-06    -295.872E-06     39.1135E-06     195.531E-06    -234.676E-06     808.713E-06     17.5616E+06    -81.7602E+06    -105.356E+06    -60.8774E+06    -22.0155E+06    -86.6614E+06     55.2639E+06         20.0617
             397     12.9922E-03     105.202E-03         5.17012    -321.148E-03        -3.85445         4.60232        -3.28665    -321.148E-03         3.45701     718.843E-06    -292.099E-06    -426.727E-06    -7.95423E-06     300.965E-06    -292.994E-06     1.10159E-03     13.3936E+06    -81.6805E+06    -105.690E+06    -64.6166E+06    -25.6655E+06    -83.6953E+06     54.2929E+06         20.0310
             398     11.9934E-03     105.205E-03         5.15940    -734.655E-03        -3.91705         4.64829        -3.40594    -734.655E-03         1.83127     897.454E-06    -361.541E-06    -535.904E-06    -74.3364E-06     435.886E-06    -361.541E-06     1.33626E-03     9.95311E+06    -77.0081E+06    -101.962E+06    -65.8206E+06    -26.1887E+06    -77.0081E+06     51.4014E+06         20.0276
             399     10.9927E-03     105.204E-03         4.45198        -1.13587        -3.31840         2.75647        -1.62289        -1.13587         2.50951     968.883E-06    -399.692E-06    -569.304E-06    -143.729E-06     543.309E-06    -399.692E-06     1.37508E-03     3.82809E+06    -77.4418E+06    -102.957E+06    -69.0064E+06    -30.1223E+06    -77.4418E+06     48.2184E+06         20.0237
             400     9.99399E-03     105.208E-03         4.09741        -1.41931        -3.49825     709.823E-03    -110.662E-03        -1.41931         2.79787     1.03641E-03    -429.788E-06    -606.748E-06    -217.305E-06     646.964E-06    -429.788E-06     1.39409E-03    -1.34423E+06    -79.1108E+06    -106.219E+06    -73.9759E+06    -33.5876E+06    -79.1108E+06     46.8106E+06         20.0210
             401     8.99359E-03     105.207E-03         5.22181        -1.74872        -4.37630         2.26513        -1.41962        -1.74872         3.79772     1.04141E-03    -443.561E-06    -598.084E-06    -274.768E-06     718.095E-06    -443.561E-06     1.30265E-03    -7.69136E+06    -82.9671E+06    -107.856E+06    -79.4683E+06    -36.0786E+06    -82.9671E+06     43.8943E+06         20.0220
             402     7.99493E-03     105.208E-03         6.12098        -2.22453        -4.85475         2.44241        -1.13530        -2.26541     832.644E-03     1.01747E-03    -443.139E-06    -574.507E-06    -315.571E-06     758.533E-06    -443.139E-06     1.17202E-03    -12.8413E+06    -89.6030E+06    -112.177E+06    -85.7387E+06    -39.2792E+06    -89.6030E+06     42.5342E+06         20.0229
             403     6.99470E-03     105.209E-03         7.00049        -2.36417        -5.29376    -520.207E-03         2.57853        -2.71577         2.37119     975.066E-06    -436.818E-06    -538.241E-06    -344.787E-06     781.612E-06    -436.818E-06     1.00738E-03    -19.3893E+06    -96.8023E+06    -115.006E+06    -93.3106E+06    -41.0850E+06    -96.8023E+06     39.3111E+06         20.0218
             404     5.99609E-03     105.211E-03         7.70978        -2.25112        -5.28463        -2.50550         5.58500        -2.90547         5.74836     932.035E-06    -431.579E-06    -500.362E-06    -361.566E-06     793.239E-06    -431.579E-06     844.781E-06    -28.4859E+06    -104.109E+06    -119.722E+06    -101.010E+06    -46.6444E+06    -104.662E+06     35.3648E+06         20.0208
             405     4.99594E-03     105.216E-03         7.20752        -2.51503        -4.59544        -3.64563         6.60134        -2.85866         3.48574     911.175E-06    -430.850E-06    -480.511E-06    -380.671E-06     811.335E-06    -430.850E-06     714.880E-06    -36.5184E+06    -110.276E+06    -123.014E+06    -108.729E+06    -50.2505E+06    -110.829E+06     30.7915E+06         20.0215
             406     3.99745E-03     105.218E-03         7.03385        -2.20299        -5.02177        -3.72566         6.17697        -2.64222         5.93745     884.751E-06    -427.802E-06    -457.149E-06    -393.464E-06     821.066E-06    -427.802E-06     565.060E-06    -45.0533E+06    -115.620E+06    -126.794E+06    -115.973E+06    -54.6242E+06    -116.870E+06     24.7850E+06         20.0233
             407     2.99733E-03     105.219E-03         6.03102        -2.01108        -4.50733        -1.52122         3.73156        -2.69772         6.77126     880.541E-06    -425.642E-06    -454.834E-06    -419.964E-06     845.671E-06    -425.642E-06     418.287E-06    -54.6190E+06    -120.631E+06    -130.713E+06    -123.548E+06    -60.5342E+06    -121.882E+06     18.7275E+06         20.0275
             408     1.99900E-03     105.224E-03         7.23374        -3.10423        -6.34725        -1.47460         2.60850        -3.35164         5.80311     851.827E-06    -408.993E-06    -442.880E-06    -428.831E-06     837.778E-06    -408.993E-06     253.772E-06    -62.8142E+06    -125.022E+06    -132.050E+06    -128.989E+06    -65.2081E+06    -125.689E+06     10.7100E+06         20.0329
             409     998.784E-06     105.231E-03         13.0166        -1.73300        -13.4942        -5.91233         5.43469        -1.73300         6.40280     751.415E-06    -368.044E-06    -383.424E-06    -380.770E-06     748.761E-06    -368.044E-06     94.7251E-06    -67.3681E+06    -129.921E+06    -135.429E+06    -133.603E+06    -68.5273E+06    -130.589E+06     3.84008E+06         20.0373
             410     16.9894E-03     104.194E-03         1.67483    -134.766E-03        -1.31319    -196.694E-03     558.342E-03    -134.766E-03         1.27215     1.20185E-03    -490.697E-06    -711.003E-06    -593.206E-06     1.16408E-03    -570.731E-06     198.690E-06     97.6926E+06     14.6045E+06    -48.1226E+06    -13.7268E+06     89.5673E+06    -11.6660E+06     17.0508E+06         22.4919
             411     15.9886E-03     104.197E-03         2.45336    -123.406E-03        -2.23431    -426.006E-03     645.059E-03    -123.406E-03         4.14965     1.12394E-03    -328.187E-06    -792.736E-06     157.733E-06     263.189E-06    -417.907E-06     1.77671E-03     49.5608E+06    -38.3373E+06    -96.3944E+06    -26.7141E+06     10.8411E+06    -69.2978E+06     48.3554E+06         21.3960
             412     14.9897E-03     104.198E-03         2.40109    -132.962E-03        -2.04296     433.201E-03    -75.0696E-03    -132.962E-03         1.33294     1.94802E-03    -662.558E-06    -1.28202E-03     228.141E-06     447.549E-06    -672.244E-06     3.20210E-03     43.1771E+06    -33.3110E+06    -89.9921E+06    -32.8312E+06    -9.29368E+06    -38.0011E+06     61.5449E+06         20.7296
             413     13.9884E-03     104.198E-03         2.98037    -231.657E-03        -2.52364         2.00327        -1.54654    -231.657E-03        -2.17277     2.30221E-03    -796.901E-06    -1.50454E-03     104.633E-06     693.035E-06    -796.901E-06     3.75942E-03     38.3577E+06    -26.2296E+06    -84.0067E+06    -29.4102E+06    -16.2388E+06    -26.2296E+06     56.7062E+06         20.3998
             414     12.9896E-03     104.201E-03         4.92703    -471.598E-03        -4.31656         3.69242        -3.08195    -471.598E-03         1.92067     2.72875E-03    -895.330E-06    -1.83292E-03    -73.7468E-06     969.577E-06    -895.330E-06     4.42766E-03     35.0332E+06    -18.8246E+06    -80.8064E+06    -25.9982E+06    -19.7750E+06    -18.8246E+06     54.2407E+06         20.2717
             415     11.9887E-03     104.203E-03         5.18690    -794.599E-03        -4.44736         3.11037        -2.37083    -794.599E-03    -679.259E-03     2.80140E-03    -954.825E-06    -1.84595E-03    -277.436E-06     1.23288E-03    -954.825E-06     4.39086E-03     33.9168E+06    -17.8194E+06    -77.8310E+06    -25.0752E+06    -18.8390E+06    -17.8194E+06     52.1216E+06         20.2144
             416     10.9902E-03     104.203E-03         3.88764        -1.04317        -3.65439     839.642E-03    -606.392E-03        -1.04317    -637.785E-03     2.85351E-03    -994.306E-06    -1.85900E-03    -445.636E-06     1.44014E-03    -994.306E-06     4.31078E-03     29.5286E+06    -22.2323E+06    -82.7601E+06    -27.1126E+06     -26.119E+06    -22.2323E+06     52.8303E+06         20.1714
             417     9.98967E-03     104.204E-03         4.51138        -1.28926        -4.73376         1.91446        -2.13684        -1.28926        -1.51453     2.80747E-03    -1.02170E-03    -1.78663E-03    -605.525E-06     1.62636E-03    -1.02170E-03     4.00693E-03     25.7534E+06    -25.9971E+06    -82.6661E+06    -31.5175E+06    -25.3953E+06    -25.9971E+06     51.4451E+06         20.1374
             418     8.99136E-03     104.204E-03         5.49806        -1.77608        -5.39312         4.09659        -3.99166        -1.77608        -1.90755     2.69015E-03    -1.02984E-03    -1.66106E-03    -714.063E-06     1.74315E-03    -1.02984E-03     3.58514E-03     19.5436E+06    -33.9215E+06    -87.7479E+06    -37.5895E+06    -30.6149E+06    -33.9215E+06     50.8917E+06         20.1142
             419     7.99114E-03     104.206E-03         5.78677        -2.35004        -4.99864         1.60489    -816.760E-03        -2.35004        -2.89797     2.57922E-03    -1.02717E-03    -1.55198E-03    -802.241E-06     1.82948E-03    -1.02717E-03     3.17456E-03     13.5138E+06    -42.0174E+06    -90.1528E+06    -45.5462E+06    -31.0928E+06    -42.0174E+06     49.7513E+06         20.0951
             420     6.99298E-03     104.208E-03         6.10794        -2.33506        -5.23987        -1.97632         3.15509        -2.64578        -1.89361     2.40156E-03    -1.00809E-03    -1.39371E-03    -850.020E-06     1.85787E-03    -1.00809E-03     2.65152E-03     7.66508E+06    -52.4168E+06    -92.8765E+06    -53.2421E+06    -31.9694E+06    -52.4168E+06     47.4384E+06         20.0759
             421     5.99298E-03     104.211E-03         6.24923        -2.19657        -4.72814    -976.306E-03         3.15175        -2.85092     586.966E-03     2.27646E-03    -998.422E-06    -1.27859E-03    -885.349E-06     1.88321E-03    -998.422E-06     2.22100E-03    -1.85248E+06    -61.3930E+06    -95.3794E+06    -62.1584E+06    -35.0735E+06    -61.3930E+06     43.8403E+06         20.0586
             422     4.99490E-03     104.215E-03         6.71964        -2.91114        -4.72027    -785.580E-03         3.12858        -3.25477         1.24028     2.14907E-03    -984.383E-06    -1.16501E-03    -898.035E-06     1.88210E-03    -984.383E-06     1.79512E-03    -11.4245E+06    -70.5144E+06    -96.7370E+06    -70.3254E+06    -37.8361E+06    -70.5144E+06     38.2888E+06         20.0464
             423     3.99499E-03     104.218E-03         6.28429        -2.76768        -4.51442        -2.02085         4.73501        -3.71197         5.77034     2.06402E-03    -979.895E-06    -1.08417E-03    -914.555E-06     1.89441E-03    -979.895E-06     1.41009E-03    -21.6497E+06    -77.5571E+06    -97.7003E+06    -78.1255E+06    -41.2245E+06    -77.5571E+06     32.4476E+06         20.0409
             424     2.99701E-03     104.218E-03         7.30222        -2.93988        -5.75329        -2.86252         5.60315        -4.13158         1.12448     2.03098E-03    -980.299E-06    -1.05037E-03    -953.248E-06     1.93386E-03    -980.299E-06     1.06084E-03    -32.4206E+06    -81.9453E+06    -96.8762E+06    -84.4906E+06    -44.8062E+06    -81.9453E+06     24.2015E+06         20.0422
             425     1.99727E-03     104.224E-03         9.95062        -3.09600        -7.65271        -4.11853         7.73546        -4.41503         3.08833     1.96672E-03    -960.765E-06    -1.00569E-03    -964.651E-06     1.92567E-03    -960.765E-06     657.716E-06    -44.0092E+06    -87.9306E+06    -97.6705E+06    -91.6769E+06    -50.0028E+06    -87.9306E+06     15.1653E+06         20.0496
             426     999.499E-06     104.229E-03         10.2708     619.763E-03        -13.1517        -9.74105         6.72845     751.461E-03     182.424E-03     1.85190E-03    -916.949E-06    -934.856E-06    -922.007E-06     1.84338E-03    -921.280E-06     258.356E-06    -56.2350E+06    -96.9888E+06    -101.807E+06    -98.6571E+06    -58.6122E+06    -97.7613E+06     6.04805E+06         20.0668
             427     16.9822E-03     103.192E-03         1.36825    -292.793E-03        -1.62845        -1.46159         1.20139    -292.793E-03     266.653E-03     3.73139E-03    -1.19052E-03    -2.54683E-03    -262.092E-06     1.49565E-03    -1.23953E-03     3.87671E-03     85.9267E+06     23.0878E+06    -52.9416E+06    -5.47035E+06     53.6404E+06     7.90282E+06     30.1997E+06         25.1130
             428     15.9828E-03     103.199E-03         2.04471    -261.830E-03        -2.26598    -136.744E-03    -84.5199E-03    -261.830E-03         2.06854     5.74557E-03    -1.32480E-03    -4.42088E-03     1.06496E-03     308.745E-06    -1.37380E-03     9.98216E-03     52.9996E+06     16.9433E+06    -82.0451E+06    -10.5597E+06    -3.30073E+06     1.75836E+06     53.7686E+06         23.4292
             429     14.9806E-03     103.195E-03         2.32440    -298.815E-03        -2.79099     696.897E-03        -1.16348    -298.815E-03    -491.934E-03     6.83207E-03    -1.64629E-03    -5.17789E-03     676.768E-06     977.408E-06    -1.64629E-03     11.9943E-03     61.3119E+06     34.5195E+06    -61.2069E+06    -671.630E+03     776.605E+03     34.5195E+06     51.5585E+06         22.1642
             430     13.9819E-03     103.199E-03         2.63175    -380.035E-03        -2.93652     963.339E-03        -1.26812    -380.035E-03        -4.78793     7.34497E-03    -1.76485E-03    -5.57750E-03     233.223E-06     1.53425E-03    -1.76485E-03     12.8374E-03     58.5244E+06     31.0398E+06    -59.7788E+06     9.84103E+06    -12.9613E+06     32.9056E+06     50.6325E+06         21.4907
             431     12.9803E-03     103.200E-03         2.72793    -482.830E-03        -2.83156     939.022E-03        -1.04265    -482.830E-03        -1.40085     7.76969E-03    -1.89350E-03    -5.87533E-03    -378.374E-06     2.27273E-03    -1.89350E-03     13.3559E-03     59.9360E+06     36.2093E+06    -56.1957E+06     14.2026E+06    -12.3281E+06     38.0751E+06     49.9220E+06         21.1415
             432     11.9822E-03     103.201E-03         2.53389    -568.641E-03        -2.68044     173.348E-03    -319.891E-03    -568.641E-03        -1.40052     7.44317E-03    -1.97189E-03    -5.47311E-03    -849.479E-06     2.81954E-03    -1.97189E-03     12.3777E-03     57.6783E+06     34.2384E+06    -61.1391E+06     14.8710E+06    -18.3318E+06     34.2384E+06     52.3187E+06         20.9195
             433     10.9814E-03     103.201E-03         2.77521    -664.363E-03        -3.45139     755.696E-03        -1.43187    -664.363E-03        -3.21002     7.31998E-03    -2.03661E-03    -5.28534E-03    -1.22893E-03     3.26357E-03    -2.03661E-03     11.7539E-03     56.0971E+06     32.9489E+06    -62.6813E+06     13.0365E+06    -19.6207E+06     32.9489E+06     53.9001E+06         20.7599
             434     9.98388E-03     103.201E-03         5.23535    -946.860E-03        -5.89455         3.40557        -4.06478    -946.860E-03        -6.48706     6.79918E-03    -2.06054E-03    -4.73991E-03    -1.52272E-03     3.58200E-03    -2.06054E-03     10.3370E-03     54.2748E+06     27.2804E+06    -65.2177E+06     10.6383E+06    -21.5812E+06     27.2804E+06     54.8104E+06         20.6364
             435     8.98386E-03     103.203E-03         5.85086        -1.38045        -6.56059         2.49766        -3.20739        -1.38045        -2.54269     6.35059E-03    -2.06816E-03    -4.28391E-03    -1.70627E-03     3.77295E-03    -2.06816E-03     9.09515E-03     50.6177E+06     20.3307E+06    -69.7171E+06     5.23494E+06    -24.3343E+06     20.3307E+06     56.5824E+06         20.5301
             436     7.98657E-03     103.204E-03         4.84678        -1.69836        -4.92950    -68.7995E-03    -13.9257E-03        -1.69836        -1.70674     5.82394E-03    -2.04961E-03    -3.77467E-03    -1.83091E-03     3.88018E-03    -2.04961E-03     7.69745E-03     46.4844E+06     11.8385E+06    -70.9722E+06    -1.18185E+06    -23.3060E+06     11.8385E+06     56.1334E+06         20.4318
             437     6.98702E-03     103.203E-03         6.08091        -1.95019        -5.52655     137.080E-03     417.278E-03        -1.95019        -3.78404     5.31044E-03    -2.01444E-03    -3.29614E-03    -1.88184E-03     3.89614E-03    -2.01444E-03     6.35884E-03     40.1772E+06     1.33853E+06    -72.0773E+06    -9.55349E+06    -22.3466E+06     1.33853E+06     54.9099E+06         20.3444
             438     5.98979E-03     103.209E-03         5.70160        -2.37991        -5.34667     966.740E-03    -611.807E-03        -2.37991    -226.265E-03     4.85453E-03    -1.97057E-03    -2.88421E-03    -1.89866E-03     3.86898E-03    -1.97057E-03     5.13921E-03     32.3540E+06    -10.2583E+06    -73.1573E+06    -18.3053E+06    -22.4980E+06    -10.2583E+06     51.8601E+06         20.2690
             439     4.99049E-03     103.212E-03         5.06700        -2.72536        -3.98977     502.591E-03     861.718E-03        -3.01244     877.438E-03     4.45190E-03    -1.92311E-03    -2.52879E-03    -1.88010E-03     3.80321E-03    -1.92311E-03     4.03125E-03     21.5803E+06    -22.2329E+06    -73.1438E+06    -28.4451E+06    -23.1184E+06    -22.2329E+06     46.7936E+06         20.2047
             440     3.99325E-03     103.213E-03         6.90237        -2.65648        -6.39507        -2.80693         4.10637        -3.44861        -1.56125     4.12944E-03    -1.88320E-03    -2.24564E-03    -1.84704E-03     3.73084E-03    -1.88320E-03     3.06220E-03     8.99226E+06    -32.4669E+06    -70.5060E+06    -37.1214E+06    -24.3923E+06    -32.4669E+06     38.6459E+06         20.1598
             441     2.99405E-03     103.219E-03         8.45243        -2.68092        -7.98867        -5.29743         6.26625        -3.18598        -8.09355     3.85568E-03    -1.85064E-03    -2.00490E-03    -1.78138E-03     3.63217E-03    -1.85064E-03     2.22022E-03    -3.29460E+06    -43.0658E+06    -68.4601E+06    -44.9903E+06    -26.7644E+06    -43.0658E+06     30.6125E+06         20.1347
             442     1.99679E-03     103.220E-03         7.27116        -1.77896        -5.97187        -2.83287         5.20377        -2.85058        -1.45305     3.70579E-03    -1.81872E-03    -1.88804E-03    -1.74374E-03     3.59962E-03    -1.85686E-03     1.47074E-03    -15.7347E+06    -51.7045E+06    -66.9969E+06    -52.1002E+06    -30.6313E+06    -51.7045E+06     21.4050E+06         20.1241
             443     997.517E-06     103.229E-03         10.1868         1.90512        -12.1557        -2.29255         5.57169        -3.34284         1.06633     3.77979E-03    -1.85190E-03    -1.92848E-03    -1.82013E-03     3.74565E-03    -1.92612E-03     784.175E-06    -35.3419E+06    -58.8100E+06    -67.7632E+06    -59.2969E+06    -43.0356E+06    -59.5825E+06     11.6338E+06         20.1415
             444     16.9675E-03     102.196E-03         1.65499    -378.336E-03        -2.34475        -1.00940     319.639E-03    -378.336E-03        -1.72724     18.6809E-03    -3.19560E-03    -15.4841E-03     2.56137E-03     635.499E-06    -3.19560E-03     31.4302E-03     68.9277E+06     37.9074E+06    -43.5711E+06    -11.4935E+06     34.7288E+06     40.0287E+06     33.0808E+06         30.2562
             445     15.9615E-03     102.198E-03         1.33004    -350.470E-03        -2.50315    -643.493E-03    -529.617E-03    -350.470E-03    -170.963E-03     27.2403E-03    -3.56656E-03    -23.6696E-03     3.76394E-03    -193.210E-06    -3.56656E-03     50.1266E-03     54.0507E+06     45.5644E+06    -46.6115E+06     1.98209E+06     2.41159E+06     48.6100E+06     37.6756E+06         27.2676
             446     14.9623E-03     102.197E-03         2.30318    -370.751E-03        -3.47070     545.635E-03        -1.71315    -370.751E-03        -2.91919     25.3295E-03    -3.85998E-03    -21.4696E-03     153.051E-06     3.70685E-03    -3.85998E-03     46.6320E-03     62.9355E+06     51.9032E+06    -38.9921E+06     17.8799E+06     262.106E+03     57.7045E+06     35.7645E+06         24.8518
             447     13.9589E-03     102.195E-03         2.25159    -414.513E-03        -3.27237    -29.5130E-03    -991.261E-03    -414.513E-03        -5.00536     25.2413E-03    -4.03677E-03    -21.2086E-03    -985.748E-06     5.01845E-03    -4.03677E-03     45.9201E-03     66.9187E+06     53.4977E+06    -42.9311E+06     28.0642E+06    -10.6007E+06     60.0217E+06     41.4824E+06         23.6053
             448     12.9615E-03     102.195E-03         1.63758    -395.486E-03        -2.36444        -1.24742     520.556E-03    -395.486E-03    -54.3050E-03     23.0809E-03    -4.14248E-03    -18.9422E-03    -2.68721E-03     6.82599E-03    -4.14248E-03     40.8998E-03     69.8902E+06     58.9039E+06    -45.5587E+06     33.2123E+06    -12.3233E+06     62.3464E+06     45.4487E+06         22.9355
             449     11.9612E-03     102.196E-03         1.44086    -344.373E-03        -2.21948    -788.156E-03     9.53751E-03    -344.373E-03     533.924E-03     20.8772E-03    -4.17577E-03    -16.7057E-03    -3.34846E-03     7.51997E-03    -4.17577E-03     35.9445E-03     70.7837E+06     60.1938E+06    -50.7698E+06     35.4508E+06    -17.0136E+06     61.7705E+06     50.0513E+06         22.4408
             450     10.9653E-03     102.195E-03         1.83034    -393.054E-03        -2.75442         1.08265        -2.00673    -393.054E-03        -2.32156     18.8260E-03    -4.17036E-03    -14.6568E-03    -3.93548E-03     8.10470E-03    -4.17036E-03     31.2135E-03     72.0618E+06     61.9572E+06    -51.8360E+06     36.6962E+06    -16.4703E+06     61.9572E+06     52.7849E+06         22.0595
             451     9.96659E-03     102.198E-03         3.69604    -582.211E-03        -4.84167         1.85857        -3.00420    -582.211E-03        -5.74419     16.6334E-03    -4.12557E-03    -12.5103E-03    -4.15936E-03     8.28251E-03    -4.12557E-03     26.3353E-03     72.1169E+06     58.8933E+06    -56.6992E+06     34.6175E+06    -19.1998E+06     58.8933E+06     56.5726E+06         21.7640
             452     8.97128E-03     102.196E-03         4.75832    -788.040E-03        -5.69339     714.588E-03        -1.64966    -788.040E-03     332.842E-03     14.8190E-03    -4.06108E-03    -10.7612E-03    -4.28284E-03     8.34070E-03    -4.06108E-03     22.2218E-03     72.0528E+06     56.1438E+06    -58.4292E+06     32.2534E+06    -18.6298E+06     56.1438E+06      58.581E+06         21.5036
             453     7.97335E-03     102.199E-03         4.59031    -924.077E-03        -5.20693    -92.5591E-03    -524.059E-03    -924.077E-03     207.805E-03     13.0573E-03    -3.96927E-03    -9.08924E-03    -4.27760E-03     8.24565E-03    -3.96927E-03     18.2385E-03     71.0509E+06     51.3008E+06    -58.9214E+06     28.4591E+06    -16.3296E+06     51.3008E+06     60.0004E+06         21.2508
             454     6.97813E-03     102.199E-03         4.39478        -1.17746        -4.61234         1.62921        -1.84677        -1.17746        -4.93652     11.5095E-03    -3.85835E-03    -7.65071E-03    -4.18689E-03     8.04564E-03    -3.85835E-03     14.7137E-03     68.6542E+06     45.1171E+06    -56.9026E+06     23.9012E+06    -12.1496E+06     45.1171E+06     59.4849E+06         21.0345
             455     5.98041E-03     102.202E-03         4.39696        -1.63885        -4.76393         1.46145        -1.82842        -1.63885        -2.32098     10.1787E-03    -3.73985E-03    -6.43802E-03    -4.05793E-03     7.79861E-03    -3.73985E-03     11.6037E-03     63.4946E+06     36.7734E+06    -55.7426E+06     17.8189E+06    -10.0669E+06     36.7734E+06     57.5586E+06         20.8609
             456     4.98493E-03     102.204E-03         3.45929        -1.62665        -4.70101        -1.79719     842.556E-03        -1.91373    -938.284E-03     9.04040E-03    -3.60853E-03    -5.43109E-03    -3.88891E-03     7.49822E-03    -3.60853E-03     8.88513E-03     56.5516E+06     27.2792E+06    -51.0932E+06     11.5440E+06    -6.08557E+06     27.2792E+06     52.6786E+06         20.7016
             457     3.98725E-03     102.209E-03         5.07091        -1.27783        -6.93067        -4.50967         2.93699        -1.56492        -2.16874     8.04550E-03    -3.47535E-03    -4.57109E-03    -3.65487E-03     7.12928E-03    -3.47535E-03     6.49905E-03     44.6552E+06     14.5471E+06    -47.1551E+06     2.90407E+06    -5.40390E+06     14.5471E+06     45.5086E+06         20.5644
             458     2.99139E-03     102.212E-03         7.44389    -854.421E-03        -9.19482        -2.96942         1.21849    -854.421E-03        -9.52488     7.22190E-03    -3.36806E-03    -3.85556E-03    -3.36618E-03     6.73252E-03    -3.36806E-03     4.49802E-03     30.8369E+06    -63.2122E+03    -42.0366E+06    -4.97985E+06    -6.21977E+06    -63.2122E+03     36.0112E+06         20.4674
             459     1.99321E-03     102.217E-03         7.38847        -1.11213        -7.64247         1.29660        -1.55061        -1.11213     506.075E-03     6.76301E-03    -3.29137E-03    -3.47257E-03    -3.16608E-03     6.53309E-03    -3.36795E-03     2.96403E-03     17.3372E+06    -9.97013E+06    -36.0460E+06    -9.88662E+06    -8.82219E+06    -9.97013E+06     26.3480E+06         20.4049
             460     997.104E-06     102.222E-03         16.5774        -1.94276        -12.2389         6.19201         5.81668        -9.61289         13.7753     6.93729E-03    -3.40312E-03    -3.53477E-03    -3.33062E-03     6.84146E-03    -3.51143E-03     1.90293E-03     2.73728E+06    -13.4768E+06    -32.7397E+06    -12.2576E+06    -17.7448E+06    -13.4768E+06     15.9628E+06         20.3831
             461     16.8970E-03     101.225E-03         1.63952    -339.400E-03        -3.08097    -190.269E-03        -1.25119    -339.400E-03        -4.46138     75.4415E-03    -9.32011E-03    -66.1017E-03     2.68354E-03     6.65631E-03    -9.32011E-03     139.695E-03     55.0379E+06     36.0969E+06    -14.5090E+06     6.47974E+06     27.7793E+06     42.3667E+06     18.6883E+06         36.7659
             462     15.8787E-03     101.181E-03         2.29787    -350.097E-03        -4.00888    -100.421E-03        -1.61059    -350.097E-03        -3.66071     82.1751E-03    -9.59861E-03    -72.5615E-03     1.79398E-03     7.81965E-03    -9.59861E-03     153.144E-03     51.3679E+06     43.9902E+06    -21.2860E+06     19.9046E+06     2.79964E+06     51.3679E+06     19.3216E+06         32.1373
             463     14.8840E-03     101.195E-03         2.45454    -369.964E-03        -4.19579     16.8581E-03        -1.75810    -369.964E-03        -3.69303     68.3532E-03    -9.75275E-03    -58.6098E-03    -5.83614E-03     15.5795E-03    -9.75275E-03     124.966E-03     57.4725E+06     50.8762E+06    -27.0295E+06     30.2083E+06    -5.75042E+06     56.8614E+06     29.0864E+06         28.4931
             464     13.8897E-03     101.185E-03         1.61474    -378.178E-03        -2.85756    -531.289E-03    -711.523E-03    -378.178E-03        -3.25500     63.9053E-03    -9.67168E-03    -54.2390E-03    -7.72218E-03     17.3885E-03    -9.67168E-03     115.081E-03     62.1264E+06     53.7065E+06    -36.6221E+06     31.9216E+06    -12.3900E+06     59.6792E+06     34.4740E+06         26.6802
             465     12.8980E-03     101.185E-03         1.32525    -352.073E-03        -2.16861    -893.780E-03     50.4259E-03    -352.073E-03         1.11903     55.4850E-03    -9.48414E-03    -45.9947E-03    -10.1032E-03     19.5936E-03    -9.48414E-03     96.9405E-03     65.6519E+06     59.5184E+06    -41.8755E+06     36.3128E+06    -15.4276E+06     62.4096E+06     40.8397E+06         25.6645
             466     11.9095E-03     101.183E-03         1.75208    -337.598E-03        -2.54678    -184.068E-03    -610.631E-03    -337.598E-03         1.07666     49.2660E-03    -9.20607E-03    -40.0482E-03    -10.6477E-03     19.8655E-03    -9.20607E-03     83.8317E-03     69.9781E+06     63.5132E+06    -45.6910E+06     38.9173E+06    -16.2068E+06     65.0898E+06     45.7453E+06         24.8603
             467     10.9181E-03     101.185E-03         1.56399    -382.956E-03        -2.25855     477.435E-03        -1.17200    -382.956E-03        -1.09206     43.0424E-03    -8.89396E-03    -34.1429E-03    -10.9349E-03     19.8344E-03    -8.89396E-03     70.7290E-03     74.3584E+06     67.2181E+06    -48.7020E+06     42.3053E+06    -16.6488E+06     67.2181E+06     50.9168E+06         24.2076
             468     9.92976E-03     101.184E-03         2.16720    -357.532E-03        -3.50008        -1.65515     322.267E-03    -357.532E-03        -2.89064     37.5082E-03    -8.55441E-03    -28.9578E-03    -10.7182E-03     19.2686E-03    -8.55441E-03     59.2683E-03     77.2784E+06     68.2163E+06    -50.5687E+06     43.0143E+06    -16.3046E+06     68.2163E+06     54.4831E+06         23.6619
             469     8.93759E-03     101.186E-03         3.78524    -230.098E-03        -4.71975        -1.37817     443.657E-03    -230.098E-03         2.42680     32.6493E-03    -8.21098E-03    -24.4418E-03    -10.3588E-03     18.5662E-03    -8.21098E-03     49.1798E-03     80.3667E+06     69.6392E+06    -50.5815E+06     43.7753E+06    -13.9901E+06     69.6392E+06     57.2219E+06         23.1678
             470     7.94808E-03     101.186E-03         4.95855    -229.274E-03        -5.79763     755.293E-03        -1.59437    -229.274E-03        -1.25729     28.2848E-03    -7.86025E-03    -20.4271E-03    -9.86093E-03     17.7187E-03    -7.86025E-03     40.1079E-03     82.4977E+06     69.8205E+06    -47.7024E+06     44.0288E+06    -9.23351E+06     69.8205E+06     58.3662E+06         22.7104
             471     6.95515E-03     101.191E-03         4.18734    -331.562E-03        -5.15690     215.855E-03        -1.18542    -331.562E-03        -5.83853     24.4516E-03    -7.50826E-03    -16.9483E-03    -9.30765E-03     16.8110E-03    -7.50826E-03     32.0714E-03     84.6397E+06     69.4430E+06    -43.8160E+06     44.0659E+06    -3.24219E+06     69.4430E+06     59.0987E+06         22.3233
             472     5.96423E-03     101.190E-03         3.40414    -330.847E-03        -4.58352    -850.861E-03    -328.518E-03    -330.847E-03        -4.68760     21.1674E-03    -7.16164E-03    -14.0027E-03    -8.72974E-03     15.8944E-03    -7.16164E-03     25.0478E-03     84.8477E+06     68.6609E+06    -37.9009E+06     43.6738E+06     3.27307E+06     68.6609E+06     57.5313E+06         22.0001
             473     4.97044E-03     101.195E-03         3.08337    -191.521E-03        -6.09709        -1.21693        -1.79679    -191.521E-03        -1.70137     18.2808E-03    -6.80670E-03    -11.4634E-03    -8.06737E-03     14.8848E-03    -6.80670E-03     18.8437E-03     81.7266E+06     63.8958E+06    -31.2050E+06     40.6786E+06     9.84296E+06     63.8958E+06     54.1688E+06         21.6956
             474     3.97822E-03     101.198E-03         3.25081     69.6352E-03        -6.88113        -1.25314        -2.37718     69.6352E-03         2.76102     15.7981E-03    -6.46764E-03    -9.32716E-03    -7.31808E-03     13.7890E-03    -6.46764E-03     13.5420E-03     75.9743E+06     55.6162E+06    -23.0964E+06     37.9355E+06     14.9425E+06     55.6162E+06     48.0785E+06         21.4142
             475     2.98335E-03     101.203E-03         5.13343     429.597E-03        -8.28468    -756.774E-03        -2.39448     429.597E-03        -7.24494     13.8698E-03    -6.18410E-03    -7.68590E-03    -6.62888E-03     12.8127E-03    -6.18410E-03     9.19341E-03     65.1375E+06     44.5159E+06    -15.2234E+06     33.3393E+06     16.5749E+06     44.5159E+06     39.2095E+06         21.1964
             476     1.98990E-03     101.209E-03         6.45110     196.365E-03        -8.17662     702.114E-03        -2.82940     598.130E-03    -985.064E-03     12.6183E-03    -5.94879E-03    -6.66778E-03    -6.15883E-03     12.1477E-03    -5.98723E-03     5.81065E-03     51.7010E+06     34.3080E+06    -6.92799E+06     28.8906E+06     15.8824E+06     34.3080E+06     28.3597E+06         21.0523
             477     993.970E-06     101.214E-03         18.3000        -5.59445        -11.7759         8.98204    -130.233E-03        -7.92219         20.7341     11.9759E-03    -5.83382E-03    -6.14159E-03    -5.93154E-03     11.8042E-03    -5.87225E-03     3.36383E-03     41.3401E+06     24.7599E+06     301.399E+03     25.7372E+06     12.4064E+06     28.2577E+06     16.4040E+06         20.9676
             478     16.6567E-03     100.210E-03         2.55316    -208.588E-03        -4.31476     733.861E-03        -2.49546    -208.588E-03        -5.49485     142.217E-03    -21.9691E-03    -120.238E-03    -10.3498E-03     32.3280E-03    -21.9691E-03     257.111E-03     44.4497E+06     6.09844E+06    -18.9109E+06     17.4936E+06     17.8912E+06    -3.74757E+06     10.0835E+06         42.8801
             479     15.6743E-03     100.146E-03         2.11081    -374.173E-03        -3.91230     681.465E-03        -2.58859    -268.540E-03        -3.97889     145.983E-03    -21.7121E-03    -124.273E-03    -12.8198E-03     34.5304E-03    -21.7121E-03     264.208E-03     30.8026E+06     17.9295E+06    -24.2034E+06     15.4132E+06    -11.6718E+06     20.7873E+06     7.61415E+06         36.8782
             480     14.7108E-03     100.165E-03         2.05550    -415.618E-03        -3.51081     67.2254E-03        -1.62816    -309.985E-03        -4.29845     123.615E-03    -21.2572E-03    -102.362E-03    -20.1847E-03     41.4384E-03    -21.2572E-03     216.991E-03     43.0789E+06     38.1275E+06    -29.0415E+06     23.7618E+06    -12.3010E+06     40.7041E+06     23.2148E+06         32.5036
             481     13.7379E-03     100.151E-03         1.68937    -314.513E-03        -2.74877    -530.511E-03    -528.889E-03    -314.513E-03        -1.27724     114.642E-03    -20.5099E-03    -94.1101E-03    -21.7038E-03     42.2356E-03    -20.5099E-03     198.236E-03     51.1851E+06     45.8605E+06    -35.9002E+06     30.6545E+06    -16.6842E+06     47.1751E+06     29.8898E+06         30.4358
             482     12.7693E-03     100.151E-03         1.23669    -315.245E-03        -1.69406    -87.5023E-03    -369.869E-03    -315.245E-03     107.618E-03     100.886E-03    -19.7136E-03    -81.1695E-03    -23.4292E-03     43.1458E-03    -19.7136E-03     169.251E-03     57.1702E+06     49.5868E+06    -41.2950E+06     33.0364E+06    -18.4756E+06     50.9014E+06     35.8601E+06         29.1333
             483     11.7959E-03     100.154E-03         1.69655    -363.404E-03        -2.09075     588.619E-03    -982.815E-03    -363.404E-03        -2.05232     90.6069E-03    -18.8446E-03    -71.7722E-03    -23.4880E-03     42.3227E-03    -18.8446E-03     148.275E-03     63.6531E+06     55.1350E+06    -43.4410E+06     37.6951E+06    -17.4830E+06     55.1350E+06     41.5556E+06         28.0554
             484     10.8242E-03     100.153E-03         2.24117    -360.539E-03        -3.19381        -1.30877     356.131E-03    -360.539E-03    -683.711E-03     80.2806E-03    -17.9695E-03    -62.3230E-03    -23.0911E-03     41.0488E-03    -17.9695E-03     127.247E-03     68.7725E+06     58.6087E+06    -45.4096E+06     40.3037E+06    -16.9408E+06     58.6087E+06     45.8897E+06         27.1637
             485     9.84717E-03     100.157E-03         3.58696    -130.052E-03        -4.27044        -3.93773         3.25425    -130.052E-03        -1.47372     71.0640E-03    -17.0982E-03    -53.9774E-03    -22.2862E-03     39.3728E-03    -17.0982E-03     108.686E-03     75.9722E+06     64.6115E+06    -43.9959E+06     45.5144E+06    -13.5381E+06     64.6115E+06     49.9308E+06         26.3676
             486     8.87166E-03     100.161E-03         4.37788     273.037E-03        -6.03033        -3.64294         1.99049     273.037E-03    -629.405E-03     62.6454E-03    -16.2422E-03    -46.4107E-03    -21.3074E-03     37.5422E-03    -16.2422E-03     91.7282E-03     81.1367E+06     69.5884E+06    -40.8448E+06     49.3163E+06    -9.02428E+06     69.5884E+06     51.9291E+06         25.6276
             487     7.89080E-03     100.164E-03         4.67983     567.650E-03        -6.02610    -747.282E-03    -598.989E-03     567.650E-03        -4.01439     54.8562E-03    -15.3993E-03    -39.4618E-03    -20.1474E-03     35.5418E-03    -15.3993E-03     76.0380E-03     86.8901E+06     74.3070E+06    -36.2795E+06     53.5221E+06    -2.91151E+06     74.3070E+06     53.6381E+06         24.9648
             488     6.91132E-03     100.165E-03         3.65853     417.838E-03        -4.60778        -1.21422    -105.002E-03     787.815E-03        -5.29085     47.8204E-03    -14.5716E-03    -33.2694E-03    -18.9507E-03     33.5016E-03    -14.5716E-03     61.7475E-03     91.1638E+06     79.0072E+06    -28.6498E+06     56.4712E+06     6.04279E+06     79.0072E+06     53.6028E+06         24.3772
             489     5.92731E-03     100.169E-03         3.29606     861.886E-03        -5.96587        -2.46710    -572.687E-03         1.23186        -6.38485     41.4467E-03    -13.7489E-03    -27.7073E-03    -17.6467E-03     31.3861E-03    -13.7489E-03     48.6538E-03     95.0517E+06     82.8861E+06    -20.0758E+06     59.6958E+06     15.2800E+06     82.8861E+06     52.6988E+06         23.8357
             490     4.94419E-03     100.173E-03         4.05392         1.62573        -7.62232     658.304E-03        -4.22671         1.62573        -4.29411     35.6579E-03    -12.9328E-03    -22.6992E-03    -16.1124E-03     29.0711E-03    -12.9328E-03     36.8061E-03     96.8784E+06     84.5944E+06    -9.06585E+06     62.2504E+06     25.5621E+06     84.5944E+06     49.4606E+06         23.3311
             491     3.95714E-03     100.182E-03         3.59275         1.58797        -7.78169         2.56488        -6.75383         1.58797     26.2469E-03     30.6193E-03    -12.1818E-03    -18.4294E-03    -14.4707E-03     26.6606E-03    -12.1818E-03     26.5667E-03     95.8749E+06     82.4018E+06     1.85454E+06     63.5712E+06     33.7441E+06     82.8159E+06     44.3424E+06         22.8812
             492     2.97026E-03     100.184E-03         5.47698         1.59533        -9.77376     748.859E-03        -5.04564         1.59533        -10.6861     26.6282E-03    -11.5154E-03    -15.1166E-03    -12.9964E-03     24.5080E-03    -11.5154E-03     18.1362E-03     92.0701E+06     77.9950E+06     13.2986E+06     65.0821E+06     39.8725E+06     78.4091E+06     36.9818E+06         22.5221
             493     1.98041E-03     100.194E-03         8.10429         1.93720        -11.7441    -103.965E-03        -3.93765         2.33897     538.243E-03     23.7471E-03    -10.9332E-03    -12.8130E-03    -11.8535E-03     22.7877E-03    -10.9332E-03     11.4300E-03     84.4773E+06     72.0677E+06     24.0477E+06     65.5684E+06     41.8986E+06     73.1257E+06     26.9622E+06         22.2730
             494     991.970E-06     100.195E-03         19.0262        -5.93394        -15.7617         11.9101        -8.60839        -5.97120         24.7626     21.5588E-03    -10.4241E-03    -11.1377E-03    -10.8213E-03     21.2424E-03    -10.4241E-03     6.02902E-03     80.7032E+06     61.4198E+06     31.0978E+06     66.2170E+06     41.0281E+06     65.9757E+06     17.0227E+06         22.1195
             495     16.3531E-03     99.1321E-03         2.59305    -127.188E-03        -4.04703         1.53998        -2.99396    -127.188E-03        -4.09101     177.567E-03    -39.0951E-03    -138.460E-03    -25.3352E-03     64.4414E-03    -39.0951E-03     301.797E-03     31.9826E+06    -10.5246E+06    -46.9399E+06     5.66149E+06     15.7964E+06    -46.9399E+06     13.4600E+06         47.7118
             496     15.3951E-03     99.0722E-03         1.46698    -324.220E-03        -2.69432         1.21450        -2.54747    -218.587E-03    -847.856E-03     187.299E-03    -38.6001E-03    -148.657E-03    -29.9177E-03     68.5594E-03    -38.6001E-03     319.636E-03     11.0399E+06    -15.6540E+06    -41.7783E+06     5.66765E+06    -21.1332E+06    -30.9268E+06     6.55128E+06         41.0032
             497     14.4563E-03     99.0888E-03         2.35616    -349.263E-03        -3.11914    -782.531E-03    -86.0743E-03    -243.630E-03        -1.23073     170.142E-03    -37.8027E-03    -132.234E-03    -37.1040E-03     75.0119E-03    -37.8027E-03     280.399E-03     17.4194E+06     50.8723E+03    -36.6292E+06     6.61286E+06    -24.9994E+06    -772.386E+03     10.8200E+06         36.3780
             498     13.5123E-03     99.0775E-03         3.49886    -216.671E-03        -3.89074    -469.469E-03     77.5812E-03    -216.671E-03        -1.64460     162.359E-03    -36.6003E-03    -125.697E-03    -38.1038E-03     74.7658E-03    -36.6003E-03     264.553E-03     35.0974E+06     20.0627E+06    -38.2195E+06     19.2240E+06    -22.3461E+06     20.0627E+06     23.2210E+06         34.2550
             499     12.5662E-03     99.0857E-03         2.05336    -336.535E-03        -2.22052     328.087E-03    -602.534E-03    -229.242E-03        -1.15654     148.627E-03    -35.3033E-03    -113.307E-03    -39.4622E-03     74.7821E-03    -35.3033E-03     235.456E-03     46.6837E+06     29.5634E+06    -40.6336E+06     27.9719E+06    -21.9219E+06     29.5634E+06     29.6391E+06         32.8648
             500     11.6190E-03     99.0872E-03         2.93778    -305.104E-03        -3.26863        -1.50285         1.06470    -197.812E-03        -2.54877     137.166E-03    -33.9355E-03    -103.186E-03    -39.1196E-03     73.0999E-03    -33.9355E-03     212.326E-03     55.9650E+06     37.9589E+06    -40.9417E+06     34.7162E+06    -19.6929E+06     37.9589E+06     34.8800E+06         31.6935
             501     10.6655E-03     99.0950E-03         3.93326    -10.8380E-03        -4.89959        -3.04869         2.08236    -10.8380E-03        -2.60764     125.249E-03    -32.5302E-03    -92.7524E-03    -38.5247E-03     71.0210E-03    -32.5302E-03     188.310E-03     64.4058E+06     46.6985E+06    -39.3831E+06     41.2547E+06    -16.2320E+06     46.6985E+06     39.4563E+06         30.6863
             502     9.71240E-03     99.1014E-03         3.33820     327.295E-03        -4.78923        -3.85525         2.40423     327.295E-03        -2.63437     114.041E-03    -31.0946E-03    -82.9928E-03    -37.5336E-03     68.5813E-03    -31.0946E-03     165.873E-03     72.1559E+06     54.8116E+06    -35.3066E+06     47.8367E+06    -10.9875E+06     54.8116E+06     42.2765E+06         29.7481
             503     8.75250E-03     99.1080E-03         3.45767     803.410E-03        -5.00784        -4.17632         2.62615     803.410E-03        -3.31573     103.267E-03    -29.6934E-03    -73.6147E-03    -36.3896E-03     66.0423E-03    -29.6934E-03     144.059E-03     80.5585E+06     62.3781E+06    -30.1527E+06     54.7675E+06    -4.36181E+06     62.3781E+06     45.3131E+06         28.8563
             504     7.79333E-03     99.1121E-03         2.84377     835.852E-03        -4.58218        -3.38424         1.11402         1.36767        -3.39346     93.0330E-03    -28.3122E-03    -64.7566E-03    -35.1762E-03     63.4525E-03    -28.3122E-03     123.015E-03     87.4386E+06     71.5131E+06    -21.7460E+06     60.9857E+06     4.70686E+06     71.5131E+06     45.7312E+06         28.0330
             505     6.82779E-03     99.1196E-03         2.21393         1.00246        -4.05237        -2.41999    -381.818E-03         1.96583        -2.56023     83.1557E-03    -26.8889E-03    -56.2929E-03    -33.7225E-03     60.5852E-03    -26.8889E-03     102.543E-03     94.7732E+06     81.3867E+06    -11.7816E+06     68.0264E+06     14.9652E+06     81.3867E+06     45.3086E+06         27.2516
             506     5.86251E-03     99.1268E-03         4.01856         1.62237        -6.20831        -1.93984        -1.27366         2.64612        -7.20191     73.4537E-03    -25.4277E-03    -48.0758E-03    -31.8367E-03     57.2145E-03    -25.4277E-03     82.5002E-03     100.739E+06     89.8110E+06     930.456E+03     74.2187E+06     27.4504E+06     89.8110E+06     43.4153E+06         26.4909
             507     4.89161E-03     99.1353E-03         4.80233         2.21141        -7.89046     344.852E-03        -4.53032         3.30875        -7.77486     64.3681E-03    -23.9715E-03    -40.3911E-03    -29.4540E-03     53.4309E-03    -23.9715E-03     63.8408E-03     106.732E+06     96.1262E+06     14.6357E+06     81.7396E+06     39.5534E+06     96.2009E+06     40.5891E+06         25.7846
             508     3.91964E-03     99.1430E-03         4.96263         2.97951        -8.76809         4.31835        -8.62895         3.48465    -498.258E-03     56.1738E-03    -22.5913E-03    -33.5570E-03    -26.8007E-03     49.4175E-03    -22.5913E-03     47.0847E-03     110.508E+06     100.468E+06     28.3083E+06     87.4903E+06     50.8372E+06     100.957E+06     36.1043E+06         25.1728
             509     2.94271E-03     99.1531E-03         7.46083         3.11477        -11.8516         4.63849        -9.02929         3.11477        -6.73594     49.2639E-03    -21.3497E-03    -27.9118E-03    -24.1917E-03     45.5438E-03    -21.3497E-03     32.7323E-03     112.497E+06     101.001E+06     42.8364E+06     92.8526E+06     60.4672E+06     103.015E+06     29.3881E+06         24.6771
             510     1.96472E-03     99.1591E-03         8.71952         2.72002        -14.6030         3.08604        -9.02892         2.77944     899.128E-03     43.8114E-03    -20.3141E-03    -23.4987E-03    -21.7877E-03     42.1004E-03    -20.3141E-03     20.7255E-03     111.576E+06     99.9565E+06     53.7332E+06     97.8793E+06     64.7730E+06     102.614E+06     21.4962E+06         24.3117
             511     982.102E-06     99.1736E-03         13.4773        -2.00819        -16.2747         7.26271        -10.1196        -1.94876         16.5295     40.1896E-03    -19.5310E-03    -20.6669E-03    -20.1129E-03     39.6356E-03    -19.5310E-03     10.7859E-03     121.353E+06     93.9002E+06     60.2358E+06     101.043E+06     66.9234E+06     107.522E+06     12.5635E+06         24.0815
             512     16.0524E-03     98.0265E-03         2.54094    -149.600E-03        -3.50798     217.407E-03        -1.18445    -149.600E-03        -1.45365     204.247E-03    -57.9815E-03    -146.260E-03    -32.1538E-03     90.1405E-03    -57.9815E-03     327.393E-03     26.6499E+06    -9.63515E+06    -64.0030E+06     8.27065E+06     8.74408E+06    -64.0030E+06     14.1094E+06         50.9325
             513     15.0898E-03     97.9552E-03         2.33485    -175.349E-03        -2.63272     334.374E-03    -632.253E-03    -175.349E-03     991.323E-03     214.886E-03    -58.0217E-03    -156.725E-03    -38.6725E-03     96.8337E-03    -58.0217E-03     344.402E-03     17.6873E+06    -25.0191E+06    -55.1728E+06     13.0041E+06    -20.3359E+06    -55.1728E+06     11.9299E+06         44.3538
             514     14.1662E-03     97.9726E-03         2.98605    -174.488E-03        -2.98016    -725.037E-03     730.929E-03    -174.488E-03        -1.24344     203.677E-03    -57.6290E-03    -145.861E-03    -48.4066E-03     106.223E-03    -57.6290E-03     313.270E-03     16.5395E+06    -29.5243E+06    -45.2222E+06     12.4146E+06    -32.4000E+06    -38.2215E+06     10.5942E+06         39.7218
             515     13.2337E-03     97.9613E-03         3.63008    -149.040E-03        -3.57033    -374.322E-03     434.072E-03    -149.040E-03        -1.92142     200.627E-03    -56.7369E-03    -143.923E-03    -50.8581E-03     107.562E-03    -56.7369E-03     305.587E-03     25.4462E+06    -15.0970E+06    -42.3451E+06     14.4848E+06    -30.3503E+06    -16.1304E+06     13.9885E+06         37.6404
             516     12.3096E-03     97.9694E-03         3.07572    -218.200E-03        -3.30665    -904.016E-03     565.799E-03    -110.907E-03         2.19076     190.925E-03    -55.5393E-03    -135.467E-03    -53.3057E-03     108.763E-03    -55.5393E-03     283.101E-03     41.1329E+06     2.67139E+06    -41.3814E+06     25.8418E+06    -26.0902E+06     2.67139E+06     21.9429E+06         36.3902
             517     11.3799E-03     97.9804E-03         4.89351     1.05310E-03        -5.83770        -4.53233         3.48084     108.346E-03     113.571E-03     182.104E-03    -54.1158E-03    -127.929E-03    -53.7587E-03     107.934E-03    -54.1158E-03     264.307E-03     50.4216E+06     16.8493E+06    -37.7927E+06     33.7422E+06    -21.1133E+06     16.8493E+06     27.1196E+06         35.3735
             518     10.4516E-03     97.9915E-03         4.30536     500.770E-03        -5.66741        -4.09041         2.72835     500.770E-03        -3.36075     171.909E-03    -52.6197E-03    -119.280E-03    -54.0227E-03     106.651E-03    -52.6197E-03     242.652E-03     61.0893E+06     30.6513E+06    -32.5261E+06     43.7239E+06    -15.1607E+06     30.6513E+06     30.4593E+06         34.4630
             519     9.51696E-03     98.0046E-03         2.16310     870.085E-03        -4.19265        -2.53405     504.497E-03     870.085E-03     164.641E-03     161.624E-03    -51.0573E-03    -110.602E-03    -53.8987E-03     104.921E-03    -51.0573E-03     220.894E-03     70.0398E+06     42.1648E+06    -25.6503E+06     52.5231E+06    -8.13365E+06     42.1648E+06     34.0232E+06         33.5719
             520     8.58235E-03     98.0145E-03         3.83247         1.30891        -5.62064        -3.71063         1.92247         1.30891        -2.59092     150.992E-03    -49.4336E-03    -101.581E-03    -53.7051E-03     103.116E-03    -49.4336E-03     197.760E-03     79.2986E+06     54.6185E+06    -16.5758E+06     61.7241E+06     998.659E+03     54.6185E+06     35.1009E+06         32.6760
             521     7.64139E-03     98.0256E-03         3.90337         1.24155        -5.82853        -4.12717         1.48919         1.95437        -3.31566     140.295E-03    -47.7075E-03    -92.5993E-03    -53.4318E-03     101.128E-03    -47.7075E-03     173.967E-03     89.2242E+06     67.3103E+06    -5.46971E+06     71.3287E+06     12.4258E+06     67.3103E+06     36.0573E+06         31.7998
             522     6.70170E-03     98.0360E-03         2.70719         1.53005        -5.14953        -2.69661    -922.872E-03         2.70719     349.338E-03     129.091E-03    -45.8328E-03    -83.2884E-03    -52.6862E-03     98.4885E-03    -45.8328E-03     148.853E-03     97.3843E+06     80.3516E+06     8.30628E+06     80.1197E+06     25.5709E+06     80.3516E+06     34.3376E+06         30.9237
             523     5.75536E-03     98.0487E-03         4.27055         2.29927        -6.17380     100.730E-03        -3.06050         3.35579        -4.19769     117.354E-03    -43.8610E-03    -73.5720E-03    -51.0771E-03     94.8596E-03    -43.8610E-03     122.755E-03     106.133E+06     92.5643E+06     22.6220E+06     90.2452E+06     38.5097E+06     92.5643E+06     31.8186E+06         30.0278
             524     4.80774E-03     98.0628E-03         5.93216         2.70875        -7.98173         2.01697        -5.16388         3.80609        -1.61408     105.847E-03    -41.8261E-03    -64.0551E-03    -48.5181E-03     90.3098E-03    -41.8261E-03     97.5501E-03     114.142E+06     103.837E+06     37.8129E+06     99.6418E+06     52.2381E+06     103.911E+06     28.9017E+06         29.1670
             525     3.85362E-03     98.0785E-03         7.46984         3.31924        -10.0682         5.23139        -8.33492         3.82438         6.23128     94.9941E-03    -39.7929E-03    -55.1404E-03    -45.2866E-03     85.1403E-03    -39.7929E-03     73.8838E-03     121.485E+06     113.046E+06     53.7243E+06     109.897E+06     65.2377E+06     113.120E+06     24.8275E+06         28.4069
             526     2.89667E-03     98.0896E-03         6.38186         3.21893        -9.66757         5.66308        -9.00052         3.27066         1.92073     85.2380E-03    -37.9643E-03    -47.2384E-03    -41.7094E-03     79.7091E-03    -37.9643E-03     52.3970E-03     128.375E+06     118.790E+06     67.6358E+06     117.767E+06     76.6445E+06     120.389E+06     20.4836E+06         27.7827
             527     1.93355E-03     98.1043E-03         4.31394         1.92485        -9.46913     569.337E-03        -7.43656         3.63688        -1.57657     77.3557E-03    -36.5096E-03    -40.8599E-03    -38.3129E-03     74.8088E-03    -36.5096E-03     33.4691E-03     134.372E+06     120.421E+06     78.4118E+06     122.177E+06     83.6091E+06     127.418E+06     13.6794E+06         27.3159
             528     968.232E-06     98.1161E-03         11.1722         1.68389        -18.5266         5.37190        -14.3867         3.34420         6.85920     72.3915E-03    -35.4154E-03    -36.9770E-03    -36.1511E-03     71.5656E-03    -35.4154E-03     17.7383E-03     149.303E+06     111.989E+06     82.2272E+06     128.153E+06     85.4149E+06     129.952E+06     5.14628E+06         27.0189
             529     15.7295E-03     96.8920E-03         3.25635    -211.290E-03        -3.27298        -1.06997         1.05334    -211.290E-03         1.92194     231.447E-03    -78.0216E-03    -153.523E-03    -36.9447E-03     114.869E-03    -78.0216E-03     352.561E-03     22.0475E+06    -12.1096E+06    -76.9999E+06     12.7220E+06    -2.78417E+06    -76.9999E+06     11.9033E+06         53.0721
             530     14.7786E-03     96.8053E-03         3.05381    -145.202E-03        -2.57624        -1.44459         1.92216    -145.202E-03         2.99601     241.420E-03    -79.0603E-03    -162.276E-03    -42.8968E-03     122.041E-03    -79.0603E-03     366.730E-03     24.0378E+06    -28.7494E+06    -66.6945E+06     18.6209E+06    -23.3324E+06    -66.6945E+06     14.2044E+06         47.0095
             531     13.8530E-03     96.8136E-03         2.77498    -95.8886E-03        -2.14851    -358.411E-03     984.884E-03    -95.8886E-03        -2.86080     231.892E-03    -79.6542E-03    -152.222E-03    -53.7829E-03     133.453E-03    -79.6542E-03     335.290E-03     32.0013E+06    -36.3526E+06    -53.3318E+06     25.9386E+06    -30.2899E+06    -53.3318E+06     14.1931E+06         42.6623
             532     12.9315E-03     96.8014E-03         3.07663    -50.8550E-03        -3.10787        -1.05998         1.02874    -50.8550E-03    -756.684E-03     232.260E-03    -79.6138E-03    -152.818E-03    -58.1887E-03     137.631E-03    -79.6138E-03     331.244E-03     37.2885E+06    -34.7182E+06    -47.5942E+06     29.0984E+06    -34.0236E+06    -40.0986E+06     13.8351E+06         40.7184
             533     12.0156E-03     96.8155E-03         3.96991     124.504E-03        -4.68846        -3.55367         2.83511     124.504E-03         3.83791     227.332E-03    -79.2951E-03    -148.301E-03    -62.6284E-03     141.659E-03    -79.2951E-03     315.065E-03     45.4921E+06    -19.2735E+06    -41.8199E+06     32.2519E+06    -28.5796E+06    -19.2735E+06     15.7147E+06         39.6719
             534     11.1024E-03     96.8248E-03         4.91701     435.613E-03        -6.41273        -3.76628         2.27056     435.613E-03        -2.63147     223.277E-03    -78.5858E-03    -144.800E-03    -65.0557E-03     143.533E-03    -78.5858E-03     303.064E-03     56.0830E+06     82.9868E+03    -34.9075E+06     42.9525E+06    -21.7770E+06     82.9868E+03     19.1043E+06         38.9197
             535     10.1873E-03     96.8401E-03         3.91036     759.530E-03        -5.82229        -2.63831     726.382E-03     759.530E-03        -1.03426     217.257E-03    -77.6373E-03    -139.603E-03    -67.4156E-03     145.069E-03    -77.6373E-03     286.488E-03     62.7605E+06     15.3473E+06    -26.1041E+06     50.4345E+06    -13.7781E+06     15.3473E+06     22.9470E+06         38.2795
             536     9.27494E-03     96.8543E-03         2.88944         1.05620        -3.97326        -1.85010     766.282E-03         1.05620         6.24100     210.433E-03    -76.5600E-03    -133.944E-03    -69.7357E-03     146.225E-03    -76.5600E-03     267.967E-03     72.0627E+06     32.3217E+06    -14.5169E+06     60.8487E+06    -3.30290E+06     32.3217E+06     23.9366E+06         37.6325
             537     8.35873E-03     96.8698E-03         3.47877         1.18043        -5.30148        -2.94524     859.834E-03         1.44312    -94.3154E-03     202.623E-03    -75.2368E-03    -127.324E-03    -71.9346E-03     147.234E-03    -75.2368E-03     246.290E-03     80.7485E+06     48.6921E+06    -3.33111E+06     70.8672E+06     6.55020E+06     48.6921E+06     24.6866E+06         36.9087
             538     7.44449E-03     96.8824E-03         5.13698         1.42202        -6.86588    -984.602E-03        -1.18799         1.86571         1.89445     193.519E-03    -73.6518E-03    -119.782E-03    -73.6151E-03     147.352E-03    -73.6518E-03     221.704E-03     91.6515E+06     64.6475E+06     11.5780E+06     82.1736E+06     21.0558E+06     64.6475E+06     24.0621E+06         36.1338
             539     6.52570E-03     96.8988E-03         4.61082         1.59708        -6.06013     420.651E-03        -2.45371         2.18083         8.49854     182.962E-03    -71.8831E-03    -111.223E-03    -74.5804E-03     146.319E-03    -71.8831E-03     193.770E-03     102.900E+06     79.1439E+06     26.9675E+06     94.2784E+06     35.5891E+06     79.1439E+06     22.6209E+06         35.3030
             540     5.60801E-03     96.9188E-03         4.33801         2.16394        -6.45224    -279.066E-03        -2.23791         2.56669         2.59147     171.517E-03    -69.8847E-03    -101.777E-03    -74.4268E-03     144.166E-03    -69.8847E-03     163.444E-03     112.618E+06     94.5824E+06     42.3961E+06     105.441E+06     49.5726E+06     94.5824E+06     19.5645E+06         34.3952
             541     4.68392E-03     96.9408E-03         6.47657         2.87901        -7.19799         2.37994        -3.10136         2.87901     548.782E-03     159.583E-03    -67.6079E-03    -92.0195E-03    -72.8642E-03     140.428E-03    -67.6079E-03     132.770E-03     121.802E+06     108.942E+06     57.6498E+06     116.433E+06     63.0195E+06     108.942E+06     16.3655E+06         33.4709
             542     3.75776E-03     96.9629E-03         6.56189         2.86717        -7.50430         3.48594        -4.42836         2.86717         2.63735     147.597E-03    -65.2613E-03    -82.3023E-03    -70.0016E-03     135.296E-03    -65.2613E-03     102.670E-03     129.920E+06     121.702E+06     73.0260E+06     125.779E+06     77.1674E+06     121.702E+06     12.9542E+06         32.6186
             543     2.82431E-03     96.9843E-03         5.46314         2.57859        -7.72888         3.62929        -5.94676         2.63032         1.14596     136.576E-03    -63.1260E-03    -73.4251E-03    -66.4454E-03     129.597E-03    -63.1260E-03     74.2900E-03     138.081E+06     132.018E+06     84.9074E+06     134.697E+06     87.7276E+06     132.582E+06     9.31438E+06         31.9074
             544     1.88708E-03     97.0045E-03         9.24399     179.818E-03        -10.3060         4.51584        -7.23044         1.83243         4.94204     127.670E-03    -61.3609E-03    -66.3153E-03    -63.0906E-03     124.445E-03    -61.3609E-03     48.2120E-03     153.402E+06     133.216E+06     93.2351E+06     145.291E+06     95.3836E+06     139.178E+06     6.83857E+06         31.3765
             545     944.588E-06     97.0242E-03         18.6911     873.279E-03        -26.7894     167.997E-03        -9.86718         2.47416         6.71218     121.851E-03    -59.7832E-03    -62.0538E-03    -61.0107E-03     120.808E-03    -59.7832E-03     25.7632E-03     173.201E+06     124.767E+06     95.1785E+06     150.674E+06     95.8930E+06     146.580E+06     5.48265E+06         31.0400
             546     15.4027E-03     95.7185E-03         3.58867    -234.304E-03        -2.97304        -1.10757         1.72321    -234.304E-03         3.87690     257.855E-03    -99.2225E-03    -158.781E-03    -40.5510E-03     139.625E-03    -99.2225E-03     374.428E-03     16.4484E+06    -20.3727E+06    -88.8306E+06     11.6045E+06    -15.5287E+06    -88.8306E+06     8.20173E+06         55.1861
             547     14.4466E-03     95.6216E-03         4.51616    -184.565E-03        -3.40515    -936.999E-03         2.04802    -184.565E-03         1.04318     268.250E-03    -101.468E-03    -166.692E-03    -46.0217E-03     147.580E-03    -101.468E-03     387.715E-03     29.0997E+06    -30.7055E+06    -79.3734E+06     24.4961E+06    -26.1019E+06    -79.3734E+06     11.5775E+06         49.5718
             548     13.5311E-03     95.6260E-03         4.70833    -74.5509E-03        -3.96278        -2.58983         3.33537    -74.5509E-03        -1.22042     260.238E-03    -103.262E-03    -156.925E-03    -56.8451E-03     160.158E-03    -103.262E-03     356.200E-03     40.8414E+06    -38.8058E+06    -64.6940E+06     32.9116E+06    -30.8760E+06    -64.6940E+06     14.7430E+06         45.6340
             549     12.6091E-03     95.6096E-03         4.31719     148.592E-03        -4.37776        -3.61255         3.55198     148.592E-03         3.18503     262.717E-03    -104.649E-03    -158.375E-03    -62.2327E-03     166.575E-03    -104.649E-03     353.169E-03     50.3748E+06    -37.2643E+06    -51.9411E+06      39.428E+06    -29.7553E+06    -48.5033E+06     14.7375E+06         43.8094
             550     11.7008E-03     95.6179E-03         3.82143     372.996E-03        -4.80693        -1.94371     958.207E-03     372.996E-03         1.74330     261.568E-03    -105.809E-03    -156.159E-03    -68.7369E-03     174.146E-03    -105.809E-03     339.697E-03     59.2462E+06    -27.3931E+06    -43.7179E+06     47.4512E+06    -28.0205E+06    -31.2955E+06     13.5968E+06         42.9346
             551     10.7945E-03     95.6311E-03         3.95702     529.848E-03        -5.07993        -1.12786     4.94754E-03     529.848E-03        -1.76153     262.086E-03    -106.407E-03    -155.756E-03    -73.5962E-03     179.927E-03    -106.407E-03     331.892E-03     65.5849E+06    -10.7223E+06    -33.1329E+06     53.3833E+06    -20.3381E+06    -11.3156E+06     15.4612E+06         42.4708
             552     9.89290E-03     95.6436E-03         4.49330     689.689E-03        -5.37084        -1.27808     400.540E-03     689.689E-03         3.58385     261.526E-03    -106.739E-03    -154.742E-03    -79.2500E-03     186.033E-03    -106.739E-03     320.459E-03     72.0118E+06     10.7947E+06    -18.3875E+06     62.9567E+06    -8.73912E+06     10.2015E+06     15.0637E+06         42.1708
             553     8.99388E-03     95.6581E-03         3.49794     843.253E-03        -4.48696    -396.740E-03    -592.276E-03     843.253E-03         5.86501     259.891E-03    -106.824E-03    -153.229E-03    -85.3672E-03     192.028E-03    -106.824E-03     305.707E-03     78.3701E+06     29.6692E+06    -5.26652E+06     71.5961E+06     1.50744E+06     29.6692E+06     15.2360E+06         41.8643
             554     8.10030E-03     95.6696E-03         3.01340     688.239E-03        -3.38396     197.963E-03    -831.212E-03     950.933E-03    -433.592E-03     256.322E-03    -106.409E-03    -149.941E-03    -90.9620E-03     197.343E-03    -106.409E-03     285.678E-03     87.9359E+06     49.0817E+06     9.54672E+06     82.8686E+06     14.6140E+06     49.0817E+06     13.6244E+06         41.4393
             555     7.20536E-03     95.6856E-03         4.56018     455.875E-03        -4.93594         1.69076        -2.56822     957.573E-03         3.17896     250.704E-03    -105.692E-03    -145.045E-03    -95.8238E-03     201.483E-03    -105.692E-03     260.478E-03     98.3383E+06     65.9832E+06     25.5168E+06     94.7394E+06     29.1157E+06     65.9832E+06     12.2711E+06         40.8906
             556     6.31461E-03     95.7033E-03         4.66138     581.875E-03        -5.36550         2.35510        -3.29822     820.878E-03         7.48159     242.957E-03    -104.581E-03    -138.648E-03    -99.4866E-03     203.795E-03    -104.581E-03     230.732E-03     110.545E+06     83.0065E+06     42.5915E+06     107.593E+06     45.5432E+06     83.0065E+06     10.0416E+06         40.2239
             557     5.42085E-03     95.7263E-03         4.26652     861.202E-03        -4.51334    -629.552E-03     382.735E-03     861.202E-03         4.16483     233.785E-03    -102.902E-03    -130.929E-03    -101.491E-03     204.346E-03    -102.902E-03     197.705E-03     120.914E+06     98.7533E+06     56.5423E+06     118.845E+06     58.6105E+06     98.7533E+06     6.94954E+06         39.4461
             558     4.52861E-03     95.7511E-03         5.74086         1.30427        -4.85010        -1.52702         2.41778         1.30427         1.21057     223.697E-03    -100.956E-03    -122.572E-03    -101.867E-03     202.992E-03    -100.956E-03     163.102E-03     130.548E+06     114.190E+06     70.7371E+06     128.844E+06     72.4408E+06     114.190E+06     4.53427E+06         38.6196
             559     3.63080E-03     95.7842E-03         6.41088         1.70375        -5.53483         1.13620    -260.154E-03         1.70375         1.26574     212.872E-03    -98.8803E-03    -114.037E-03    -100.720E-03     199.555E-03    -98.8803E-03     127.952E-03     139.101E+06     128.665E+06     83.8444E+06     138.557E+06     84.3879E+06     128.665E+06     2.99427E+06         37.8334
             560     2.72964E-03     95.8098E-03         6.15674         1.53620        -6.97397         3.25148        -4.06871         1.53620    -962.731E-03     202.837E-03    -96.8706E-03    -106.038E-03    -98.5028E-03     195.302E-03    -96.8706E-03     93.7527E-03     148.715E+06     139.458E+06     93.0881E+06     147.598E+06     93.6409E+06     140.022E+06     1.16338E+06         37.1494
             561     1.82289E-03     95.8376E-03         10.0616     3.84859E-03        -11.1888         5.05389        -6.18112     3.84859E-03     213.779E-03     194.736E-03    -95.1499E-03    -99.5735E-03    -96.1070E-03     191.269E-03    -95.1499E-03     61.4564E-03     163.966E+06     140.324E+06     97.5476E+06     155.257E+06     98.3856E+06     148.196E+06     380.213E+03         36.6108
             562     912.605E-06     95.8619E-03         12.6544         2.10690        -18.0748        -4.99890    -550.449E-03         2.23580        -3.12905     189.204E-03    -93.2726E-03    -95.9149E-03    -94.8072E-03     188.096E-03    -93.2726E-03     32.9745E-03     180.696E+06     137.091E+06     100.089E+06     156.007E+06     101.056E+06     160.814E+06     811.500E+03         36.2612
             563     15.0599E-03     94.5150E-03         4.44949    -136.765E-03        -3.23928     111.831E-03         1.09838    -136.765E-03     902.954E-03     284.833E-03    -121.564E-03    -163.220E-03    -43.1022E-03     164.716E-03    -121.564E-03     395.664E-03     14.1801E+06    -28.7857E+06    -99.7238E+06     12.9966E+06    -27.6022E+06    -99.7238E+06     2.40548E+06         57.8861
             564     14.1099E-03     94.4020E-03         5.17906    -100.606E-03        -4.32215        -1.24163         2.09855    -100.606E-03        -1.81662     295.668E-03    -125.404E-03    -170.180E-03    -47.9050E-03     173.393E-03    -125.404E-03     408.167E-03     29.9602E+06    -37.3794E+06    -88.8482E+06     23.9613E+06    -31.3805E+06    -88.8482E+06     10.4619E+06         52.4449
             565     13.1893E-03     94.4004E-03         5.30374     67.1159E-03        -4.76547        -3.51717         4.05544     67.1159E-03     61.3658E-03     289.586E-03    -128.805E-03    -161.045E-03    -59.0472E-03     187.589E-03    -128.805E-03     377.086E-03     46.0548E+06    -40.6131E+06    -71.6399E+06     34.8512E+06    -29.4095E+06    -71.6399E+06     11.1428E+06         48.8183
             566     12.2735E-03     94.3733E-03         4.68689     299.424E-03        -4.62061        -2.56414         2.63042     299.424E-03    -526.161E-03     294.886E-03    -131.530E-03    -163.717E-03    -65.5237E-03     196.693E-03    -131.530E-03     375.879E-03     60.6927E+06    -38.4397E+06    -57.6533E+06     47.2343E+06    -29.0492E+06    -53.5854E+06     12.1065E+06         47.0938
             567     11.3670E-03     94.3724E-03         4.21531     423.206E-03        -4.47338     19.5956E-03    -277.663E-03     423.206E-03    -253.983E-03     297.680E-03    -134.256E-03    -163.627E-03    -74.0732E-03     208.126E-03    -134.256E-03     364.758E-03     68.7737E+06    -25.9710E+06    -44.9064E+06     54.2477E+06    -22.7694E+06    -33.5821E+06     14.2606E+06         46.4001
             568     10.4673E-03     94.3721E-03         4.96072     525.002E-03        -5.23026        -1.40004         1.13051     525.002E-03        -1.00123     302.914E-03    -136.799E-03    -166.340E-03    -82.8806E-03     219.455E-03    -136.799E-03     358.508E-03     73.7065E+06    -5.95368E+06    -28.9110E+06     62.4081E+06    -13.3108E+06    -10.2555E+06     10.7979E+06         46.2414
             569     9.57460E-03     94.3733E-03         6.15529     638.165E-03        -5.91045     43.8670E-03     200.971E-03     638.165E-03        -1.16343     307.633E-03    -139.104E-03    -168.760E-03    -93.0334E-03     231.907E-03    -139.104E-03     347.832E-03     79.5478E+06     13.6353E+06    -12.1933E+06     71.1495E+06    -3.20180E+06     13.0420E+06     9.01213E+06         46.2807
             570     8.69083E-03     94.3744E-03         4.86324     522.419E-03        -5.02543         3.36618        -3.52837     522.419E-03     163.988E-03     311.090E-03    -140.788E-03    -170.597E-03    -103.326E-03     243.819E-03    -140.788E-03     333.137E-03     87.3216E+06     35.2014E+06     5.91383E+06     82.0912E+06     11.1443E+06     35.2014E+06     5.42007E+06         46.3152
             571     7.81277E-03     94.3854E-03         4.12998     257.117E-03        -4.46437         2.44068        -2.77506     257.117E-03        -1.28012     312.053E-03    -141.597E-03    -170.751E-03    -112.949E-03     254.251E-03    -141.597E-03     312.470E-03     96.1608E+06     54.2739E+06     20.4125E+06     92.8878E+06     23.6855E+06     54.2739E+06     2.52079E+06         46.2294
             572     6.94272E-03     94.3971E-03         3.63631    -79.7065E-03        -4.08978    -166.885E-03    -525.590E-03     159.297E-03    -274.292E-03     311.033E-03    -142.074E-03    -168.848E-03    -121.244E-03     263.429E-03    -142.074E-03     285.625E-03     106.593E+06     71.6767E+06     35.7931E+06     103.975E+06     38.4119E+06     71.6767E+06    -313.553E+03         45.9782
             573     6.07642E-03     94.4204E-03         3.15965    -56.2691E-03        -3.36246     192.447E-03    -634.260E-03     182.734E-03         1.89709     307.405E-03    -141.936E-03    -165.369E-03    -127.939E-03     269.975E-03    -141.936E-03     253.932E-03     116.191E+06     87.7800E+06     51.1892E+06     114.886E+06     52.4941E+06     87.7800E+06    -2.06849E+06         45.5760
             574     5.21381E-03     94.4455E-03         4.89198     55.4571E-03        -4.01847         1.57451    -701.001E-03     55.4571E-03        -1.12156     301.496E-03    -141.046E-03    -160.561E-03    -132.526E-03     273.460E-03    -141.046E-03     219.062E-03     127.400E+06     104.573E+06     64.2360E+06     125.811E+06     65.8253E+06     104.573E+06    -3.77518E+06         45.0526
             575     4.34906E-03     94.4792E-03         5.58723     37.3190E-03        -5.57587        -1.00285         1.01421     37.3190E-03        -3.53984     294.720E-03    -140.038E-03    -154.757E-03    -135.282E-03     275.245E-03    -140.038E-03     181.203E-03     136.532E+06     118.910E+06     75.1725E+06     135.362E+06     76.3427E+06     118.910E+06    -5.37874E+06         44.4718
             576     3.48505E-03     94.5138E-03         7.66183     202.678E-03        -6.19617    -119.754E-03         1.58542     202.678E-03    -917.668E-03     287.413E-03    -138.805E-03    -148.958E-03    -136.619E-03     275.074E-03    -138.805E-03     142.646E-03     145.092E+06     130.732E+06     85.2392E+06     144.118E+06     86.2133E+06     130.732E+06    -4.62717E+06         43.9035
             577     2.61816E-03     94.5508E-03         8.50413     353.314E-03        -6.80393    -151.783E-03         1.85198     353.314E-03        -4.88474     280.672E-03    -137.381E-03    -143.487E-03    -136.589E-03     273.775E-03    -137.381E-03     105.075E-03     154.931E+06     140.045E+06     92.3748E+06     150.659E+06     93.2926E+06     143.400E+06    -4.81792E+06         43.3610
             578     1.74817E-03     94.5803E-03         7.32971         1.62032        -9.54318        -3.10606     892.593E-03         1.62032        -2.30991     275.106E-03    -136.143E-03    -138.907E-03    -135.749E-03     271.949E-03    -136.143E-03     69.5418E-03     163.951E+06     142.707E+06     95.9673E+06     152.137E+06     97.1176E+06     153.369E+06    -3.83980E+06         42.8828
             579     875.633E-06     94.6126E-03         7.41672         4.74742        -9.33239     630.446E-03        -2.67502         4.87633         4.77439     271.250E-03    -134.468E-03    -136.709E-03    -135.689E-03     270.231E-03    -134.468E-03     37.6904E-03     170.390E+06     144.930E+06     99.4624E+06     159.119E+06     99.9662E+06     155.697E+06    -1.72648E+06         42.5562
             580     14.7082E-03     93.2723E-03         3.81382     27.9610E-03        -2.93357    -636.313E-03         1.51656     27.9610E-03     216.262E-03     312.992E-03    -144.349E-03    -168.426E-03    -45.2015E-03     190.613E-03    -145.194E-03     417.439E-03     10.0401E+06    -40.0634E+06    -107.509E+06     8.26769E+06    -38.2910E+06    -107.509E+06    -1.28142E+06         60.8919
             581     13.7534E-03     93.1506E-03         4.92471     112.703E-03        -4.52144        -1.44718         1.85045     112.703E-03         1.37033     324.895E-03    -150.239E-03    -175.100E-03    -49.9278E-03     200.385E-03    -150.902E-03     430.246E-03     31.7588E+06    -42.5300E+06    -91.6719E+06     23.3478E+06    -34.1189E+06    -91.6719E+06     1.72171E+06         55.6390
             582     12.8377E-03     93.1280E-03         4.11949     225.550E-03        -4.22097        -1.38162         1.28013     225.550E-03     928.878E-03     321.245E-03    -155.372E-03    -166.737E-03    -61.7920E-03     216.962E-03    -156.035E-03     399.652E-03     54.7602E+06    -48.8166E+06    -76.0567E+06     38.2812E+06    -34.0893E+06    -74.3051E+06     7.27717E+06         52.2481
             583     11.9206E-03     93.0902E-03         3.88407     330.471E-03        -3.86392        -1.00593         1.02609     330.471E-03        -3.68268     330.478E-03    -159.570E-03    -171.011E-03    -70.3117E-03     230.413E-03    -160.203E-03     400.032E-03     64.2689E+06    -39.6446E+06    -58.9636E+06     44.3573E+06    -25.5525E+06    -53.1440E+06     12.7571E+06         50.6687
             584     11.0171E-03     93.0767E-03         3.96362     427.865E-03        -3.65681    -771.071E-03         1.07788     427.865E-03         1.28557     338.880E-03    -163.943E-03    -174.419E-03    -83.1397E-03     248.234E-03    -164.576E-03     390.727E-03     69.7951E+06    -15.4194E+06    -38.8873E+06     53.7361E+06    -13.8739E+06    -24.3737E+06     7.56280E+06         50.2140
             585     10.1270E-03     93.0580E-03         4.37966     513.894E-03        -3.91325    -494.835E-03     961.249E-03     513.894E-03        -1.65060     349.242E-03    -169.349E-03    -180.102E-03    -97.6419E-03     266.781E-03    -169.349E-03     383.051E-03     77.1577E+06     5.84831E+06    -20.1193E+06     64.4888E+06    -3.74175E+06     2.13969E+06     5.24717E+06         50.3455
             586     9.24853E-03     93.0442E-03         5.19272     492.911E-03        -5.32554         1.63760        -1.77042     492.911E-03        -3.25746     358.092E-03    -173.666E-03    -185.194E-03    -112.911E-03     285.809E-03    -173.666E-03     367.932E-03     84.1144E+06     25.4543E+06      27.031E+03     74.8565E+06     9.28498E+06     25.4543E+06    -434.964E+03         50.6885
             587     8.37972E-03     93.0357E-03         4.78771     292.763E-03        -4.76236         3.03278        -3.00743     292.763E-03        -2.06389     365.436E-03    -176.672E-03    -189.533E-03    -127.380E-03     303.283E-03    -176.672E-03     348.624E-03     90.7601E+06     44.5546E+06     13.8338E+06     85.1645E+06     19.4295E+06     44.5546E+06    -5.00479E+06         51.0338
             588     7.52411E-03     93.0262E-03         3.57642     120.448E-03        -4.44232     741.912E-03        -1.60781     120.448E-03        -1.48122     370.618E-03    -178.642E-03    -191.956E-03    -140.206E-03     318.869E-03    -178.642E-03     323.466E-03     100.946E+06     62.3720E+06     27.2888E+06     95.4301E+06     32.8049E+06     62.3720E+06    -8.84252E+06         51.2568
             589     6.67562E-03     93.0301E-03         4.13104     171.628E-03        -5.63986        -1.11124    -397.580E-03     171.628E-03        -3.49832     374.139E-03    -180.330E-03    -192.715E-03    -151.025E-03     332.449E-03    -180.330E-03     294.035E-03     110.125E+06     78.4205E+06     40.1446E+06     105.136E+06     45.1328E+06     78.4205E+06    -12.5254E+06         51.3211
             590     5.83534E-03     93.0408E-03         5.92939     105.037E-03        -6.92633         2.17476        -3.17170     105.037E-03        -4.14036     374.390E-03    -181.421E-03    -192.564E-03    -160.383E-03     342.209E-03    -181.421E-03     260.315E-03     119.641E+06     92.1486E+06     51.4189E+06     114.824E+06     56.2351E+06     92.1486E+06    -12.9519E+06         51.2233
             591     4.99904E-03     93.0641E-03         8.49093    -453.919E-03        -9.36093         4.52964        -5.39964    -453.919E-03         5.57898     372.190E-03    -181.685E-03    -190.965E-03    -167.582E-03     348.807E-03    -181.685E-03     222.212E-03     126.906E+06     104.728E+06     62.6157E+06     122.995E+06     66.5266E+06     104.728E+06    -12.7561E+06         50.9779
             592     4.16751E-03     93.0922E-03         8.47967        -1.05764        -8.11548         1.05588    -691.689E-03        -1.05764         3.48279     369.637E-03    -181.525E-03    -188.209E-03    -172.466E-03     353.894E-03    -181.525E-03     182.119E-03     134.125E+06     117.635E+06     71.8878E+06     130.490E+06     75.5225E+06     117.635E+06    -12.0588E+06         50.6535
             593     3.33555E-03     93.1323E-03         7.45112        -1.06135        -6.75367        -2.45218         3.14963        -1.06135        -1.36533     366.428E-03    -181.142E-03    -185.428E-03    -175.659E-03     356.659E-03    -181.142E-03     143.029E-03     140.474E+06     127.973E+06     79.7778E+06     136.758E+06     82.5043E+06     128.963E+06    -11.1514E+06         50.3030
             594     2.50419E-03     93.1746E-03         9.10479    -152.153E-03        -7.11463        -4.42257         6.41273    -152.153E-03    -621.169E-03     363.394E-03    -180.593E-03    -183.071E-03    -177.659E-03     357.982E-03    -180.593E-03     105.633E-03     147.520E+06     131.864E+06     85.1165E+06     141.104E+06     87.1873E+06     136.208E+06    -7.72717E+06         49.9299
             595     1.67097E-03     93.2123E-03         13.6250         1.98054        -11.4451        -3.65048         5.83037         1.98054        -7.43743     361.043E-03    -180.042E-03    -181.025E-03    -178.580E-03     358.598E-03    -180.042E-03     69.7324E-03     154.092E+06     136.817E+06     89.0187E+06     147.680E+06     90.6766E+06     141.571E+06    -5.59873E+06         49.5802
             596     834.726E-06     93.2449E-03         15.4606         2.44591        -14.2182        -1.06619        -3.08287         7.83731        -3.84694     359.259E-03    -178.698E-03    -180.444E-03    -179.667E-03     358.481E-03    -178.698E-03     37.6260E-03     153.351E+06     141.250E+06     90.9961E+06     145.687E+06     92.3340E+06     147.576E+06    -4.30787E+06         49.3372
             597     14.3452E-03     92.0020E-03         2.14655     73.7409E-03        -2.38186        -1.43855         1.20325     73.7409E-03         2.53183     342.895E-03    -163.463E-03    -179.684E-03    -47.7295E-03     218.047E-03    -170.569E-03     440.435E-03     13.7151E+06    -49.5734E+06    -109.267E+06     9.34931E+06    -45.2076E+06    -109.267E+06    -9.93649E+06         63.9447
             598     13.3919E-03     91.8553E-03         2.76334     136.735E-03        -3.87109    -553.665E-03    -554.084E-03     136.735E-03         3.84170     356.584E-03    -170.418E-03    -186.734E-03    -52.9643E-03     230.015E-03    -177.619E-03     453.478E-03     38.9592E+06    -60.9203E+06    -96.3573E+06     22.8642E+06    -45.4002E+06    -95.7825E+06    -114.895E+03         59.1116
             599     12.4767E-03     91.8263E-03         3.17917     162.959E-03        -4.20677    -97.4782E-03    -930.120E-03     162.959E-03    -35.5545E-03     357.146E-03    -173.034E-03    -184.678E-03    -67.0872E-03     250.930E-03    -184.408E-03     424.413E-03     53.6411E+06    -58.6416E+06    -74.4302E+06     26.5488E+06    -33.8759E+06    -72.1036E+06     9.72221E+06         56.0088
             600     11.5594E-03     91.7685E-03         3.08919     213.350E-03        -3.72053    -999.812E-03     368.474E-03     213.350E-03    -410.174E-03     373.321E-03    -182.014E-03    -190.969E-03    -82.2189E-03     273.256E-03    -190.699E-03     425.891E-03     58.1683E+06    -25.7778E+06    -47.4373E+06     36.9337E+06    -16.3469E+06    -35.6336E+06     2.19111E+06         54.6326
             601     10.6654E-03     91.7255E-03         3.81948     198.680E-03        -3.73106         1.38423        -1.29581     198.680E-03         4.36180     387.289E-03    -189.332E-03    -197.070E-03    -102.720E-03     300.369E-03    -196.762E-03     411.543E-03     66.3931E+06     1.55555E+06    -27.4434E+06     49.7681E+06    -5.57268E+06    -3.69017E+06    -636.669E+03         54.4384
             602     9.78616E-03     91.6732E-03         4.78921     35.2183E-03        -4.30083         2.18690        -1.69852     35.2183E-03        -2.42958     401.331E-03    -197.532E-03    -203.599E-03    -122.829E-03     325.873E-03    -202.845E-03     395.910E-03     76.7077E+06     22.6486E+06    -5.06759E+06     62.0301E+06     9.61003E+06     22.6486E+06    -7.21310E+06         54.8392
             603     8.92546E-03     91.6312E-03         5.03993    -167.894E-03        -5.06735         1.69541        -1.72282    -167.894E-03     392.617E-03     412.778E-03    -203.719E-03    -209.630E-03    -141.935E-03     349.585E-03    -208.221E-03     372.288E-03     83.5064E+06     41.7993E+06     8.54102E+06     72.8542E+06     19.1932E+06     41.7993E+06    -13.3248E+06         55.4204
             604     8.08261E-03     91.5957E-03         5.65804    -277.521E-03        -6.17991    -282.603E-03    -239.260E-03    -277.521E-03         6.93765     422.399E-03    -208.436E-03    -214.775E-03    -158.664E-03     370.112E-03    -212.260E-03     346.275E-03     92.2523E+06     57.0472E+06     18.4289E+06     81.6538E+06     29.0274E+06     57.0472E+06    -15.9592E+06         55.9870
             605     7.24828E-03     91.5747E-03         5.36522    -276.966E-03        -5.93190    -757.421E-03     190.740E-03    -276.966E-03         4.16322     430.202E-03    -212.058E-03    -218.043E-03    -172.846E-03     388.234E-03    -215.286E-03     315.574E-03     99.9793E+06      69.872E+06     27.7237E+06       89.54E+06     38.1631E+06      69.872E+06    -20.2854E+06         56.4373
             606     6.42542E-03     91.5584E-03         5.77959    -383.321E-03        -6.67111         1.31537        -2.20688    -383.321E-03         1.69388     436.462E-03    -215.099E-03    -220.623E-03    -185.189E-03     403.965E-03    -218.037E-03     281.408E-03     107.878E+06     81.1205E+06     35.1175E+06     97.0450E+06     45.9500E+06     81.1205E+06    -21.1276E+06         56.7440
             607     5.61076E-03     91.5604E-03         8.89360    -547.732E-03        -11.0975     80.6547E-03        -2.28459    -547.732E-03        -4.14133     440.407E-03    -217.649E-03    -222.722E-03    -195.914E-03     416.113E-03    -220.163E-03     245.534E-03     113.468E+06     91.1024E+06     42.7557E+06     102.890E+06     53.3333E+06     91.1024E+06    -21.9139E+06         56.8817
             608     4.80313E-03     91.5729E-03         10.2506    -732.844E-03        -12.5044     930.408E-03        -3.18424    -732.844E-03         5.71308     442.492E-03    -219.286E-03    -223.297E-03    -204.362E-03     425.480E-03    -221.209E-03     206.685E-03     117.685E+06     98.7262E+06     51.5429E+06     108.220E+06     61.0078E+06     98.7262E+06    -20.1853E+06         56.8386
             609     4.00022E-03     91.6033E-03         9.46868        -1.01076        -9.58182     234.116E-03    -347.263E-03        -1.01076         5.47943     443.754E-03    -220.253E-03    -223.009E-03    -210.594E-03     432.649E-03    -221.563E-03     167.515E-03     120.652E+06     106.421E+06     60.8756E+06     113.416E+06     68.1112E+06     106.421E+06    -17.7277E+06         56.6687
             610     3.20066E-03     91.6394E-03         9.34113    -908.680E-03        -8.82292        -2.94269         3.46090    -908.680E-03        -5.56510     443.650E-03    -220.936E-03    -222.541E-03    -215.052E-03     436.932E-03    -221.707E-03     130.056E-03     123.994E+06     112.448E+06     67.4804E+06     117.626E+06     72.8587E+06     113.438E+06    -14.5474E+06         56.4362
             611     2.40001E-03     91.6772E-03         10.0977    -757.397E-03        -8.81709    -207.410E-03         1.48798    -757.397E-03     905.343E-03     443.077E-03    -221.200E-03    -222.013E-03    -218.007E-03     439.453E-03    -221.581E-03     94.9133E-03     129.774E+06     115.130E+06     71.9552E+06     122.463E+06     76.6484E+06     117.747E+06    -11.3529E+06         56.1952
             612     1.60078E-03     91.7152E-03         17.0134        -1.68300        -11.2073         1.89665         3.90950        -1.68300        -3.41556     442.567E-03    -221.098E-03    -221.421E-03    -219.640E-03     440.966E-03    -221.278E-03     62.1234E-03     129.891E+06     118.638E+06     74.4435E+06     123.187E+06     78.1208E+06     121.666E+06    -7.47285E+06         55.9923
             613     802.333E-06     91.7513E-03         24.7626    -663.837E-03        -18.7231     40.4614E-03         10.0923        -4.75713    -365.908E-03     442.050E-03    -220.287E-03    -221.698E-03    -221.099E-03     441.544E-03    -220.381E-03     34.0481E-03     133.020E+06     121.152E+06     78.7629E+06     128.853E+06     80.0637E+06     124.018E+06    -5.15337E+06         55.8534
             614     13.9722E-03     90.6809E-03         2.01170    -110.409E-03        -3.18744    -577.339E-03    -598.407E-03    -110.409E-03         3.37185     374.768E-03    -176.244E-03    -199.205E-03    -50.8947E-03     247.411E-03    -197.197E-03     464.362E-03     20.5209E+06    -74.9833E+06    -116.437E+06     5.51634E+06    -59.9788E+06    -116.437E+06    -6.16078E+06         67.2692
             615     13.0192E-03     90.5208E-03         1.55333    -116.498E-03        -4.04658    -246.843E-03        -2.24640    -116.498E-03         2.62791     393.911E-03    -186.563E-03    -207.261E-03    -59.3301E-03     264.670E-03    -205.253E-03     481.702E-03     39.2133E+06    -75.6972E+06    -92.1776E+06     4.81647E+06    -41.8752E+06    -91.6028E+06     3.77251E+06         62.8832
             616     12.1026E-03     90.4654E-03         2.33861    -149.007E-03        -4.88680    -58.7727E-03        -2.48941    -149.007E-03         3.79470     403.114E-03    -189.159E-03    -213.950E-03    -83.5839E-03     297.539E-03    -213.950E-03     452.536E-03     51.1654E+06    -36.5617E+06    -55.8771E+06     21.9372E+06    -20.3013E+06    -42.9093E+06    -7.48992E+06         60.2486
             617     11.1975E-03     90.3703E-03         2.26186    -209.916E-03        -3.84351     204.884E-03        -1.78653    -209.916E-03         2.89847     425.674E-03    -203.449E-03    -221.976E-03    -109.785E-03     332.010E-03    -221.976E-03     445.228E-03     54.6595E+06     2.49538E+06    -32.9700E+06     36.2369E+06     -9.9373E+06    -2.11468E+06    -10.0071E+06         59.1236
             618     10.3235E-03     90.2943E-03         2.97125    -370.878E-03        -3.13158         2.23317        -2.39350    -370.878E-03         2.21458     442.175E-03    -212.943E-03    -228.919E-03    -136.763E-03     365.995E-03    -228.919E-03     417.437E-03       68.11E+06     27.4642E+06    -12.3012E+06     47.7072E+06     8.10161E+06     27.4642E+06    -16.6658E+06         59.1045
             619     9.46897E-03     90.2376E-03         4.52128    -552.943E-03        -4.19198     613.383E-03    -284.089E-03    -552.943E-03        -4.80497     457.300E-03    -222.044E-03    -235.301E-03    -159.693E-03     394.949E-03    -235.301E-03     389.139E-03     74.5946E+06     44.5665E+06     109.079E+03     57.9741E+06     16.7296E+06     44.5665E+06    -22.6269E+06         59.6471
             620     8.63522E-03     90.1608E-03         5.23677    -381.896E-03        -4.12562     960.499E-03     460.682E-03    -691.919E-03        -2.26331     469.695E-03    -229.182E-03    -240.867E-03    -179.311E-03     419.824E-03    -240.867E-03     356.873E-03     81.7325E+06     56.2806E+06     9.07882E+06     64.6091E+06     26.2022E+06     56.2806E+06    -23.5681E+06         60.3304
             621     7.81409E-03     90.1012E-03         6.60294    -597.258E-03        -6.12209         1.76010    -969.224E-03    -907.281E-03         4.63502     479.478E-03    -234.884E-03    -245.062E-03    -195.445E-03     440.039E-03    -245.062E-03     323.030E-03     89.4443E+06     65.0196E+06     14.6943E+06     70.7424E+06     33.3962E+06     65.0196E+06    -28.1517E+06         60.9732
             622     7.00651E-03     90.0533E-03         10.0505        -1.20464        -9.68847         1.65429        -1.29231        -1.20464        -2.93087     487.629E-03    -239.553E-03    -248.345E-03    -209.382E-03     457.459E-03    -248.345E-03     286.457E-03     92.0024E+06     69.8572E+06      17.675E+06     73.0665E+06     36.6109E+06     69.8572E+06    -28.4544E+06         61.5248
             623     6.21105E-03     90.0251E-03         9.94041        -1.48224        -9.57026     407.500E-03    -37.3493E-03        -1.48224         2.90164     494.628E-03    -243.835E-03    -251.535E-03    -221.506E-03     472.299E-03    -251.535E-03     249.374E-03     96.8427E+06     75.7607E+06     21.3983E+06     76.9651E+06     41.2759E+06     75.7607E+06    -29.6345E+06         61.9309
             624     5.42284E-03     90.0103E-03         10.5716        -1.19736        -11.5795        -6.71115         5.70328        -1.19736    -741.210E-03     500.069E-03    -247.555E-03    -253.706E-03    -231.589E-03     484.102E-03    -253.706E-03     212.831E-03     98.1932E+06     80.5032E+06     26.8120E+06     79.7733E+06     45.2320E+06     80.5032E+06    -27.7314E+06         62.1709
             625     4.64137E-03     90.0155E-03         9.83294    -380.969E-03        -11.0336        -5.38083         4.18015    -380.969E-03        -1.48724     504.297E-03    -250.261E-03    -254.873E-03    -239.320E-03     493.356E-03    -254.873E-03     177.114E-03     99.4260E+06     84.5860E+06     33.5771E+06     82.8921E+06     50.1111E+06     84.5860E+06    -25.8351E+06         62.2504
             626     3.86376E-03     90.0363E-03         10.1247    -120.338E-03        -11.6989         1.30480        -2.87901    -120.338E-03         9.91993     507.740E-03    -252.155E-03    -255.806E-03    -245.217E-03     500.802E-03    -255.806E-03     141.340E-03     100.516E+06     86.2407E+06     39.4244E+06     86.8471E+06     53.0930E+06     86.2407E+06    -22.9119E+06         62.1770
             627     3.08962E-03     90.0694E-03         11.0716    -594.150E-03        -11.5595         1.94258        -2.43049    -594.150E-03        -1.49143     510.410E-03    -253.898E-03    -256.322E-03    -249.883E-03     506.395E-03    -256.322E-03     107.518E-03     100.805E+06     88.3475E+06     47.0501E+06     90.3155E+06     57.5396E+06     88.3475E+06    -18.7931E+06         62.0151
             628     2.31746E-03     90.1095E-03         9.70747        -1.61434        -7.81317         2.64028    -745.980E-03        -1.61434     161.636E-03     511.640E-03    -255.060E-03    -256.443E-03    -252.987E-03     509.567E-03    -256.443E-03     76.9460E-03     99.8348E+06     90.5171E+06     52.7727E+06     89.9980E+06     60.9820E+06     92.1446E+06    -14.3183E+06         61.8503
             629     1.54458E-03     90.1447E-03         13.3050        -3.25904        -10.0793     509.199E-03         2.71649        -3.25904         4.58659     511.891E-03    -255.619E-03    -256.371E-03    -254.731E-03     511.003E-03    -256.371E-03     49.3878E-03     100.213E+06     92.8406E+06     56.5276E+06     93.2620E+06     61.8510E+06     94.4680E+06    -10.1887E+06         61.7148
             630     770.606E-06     90.1781E-03         18.4311    -924.791E-03        -15.3683         1.97802         10.5695        -10.4095     311.510E-03     512.469E-03    -255.424E-03    -256.974E-03    -256.392E-03     512.189E-03    -255.726E-03     26.8571E-03     105.486E+06     89.2508E+06     58.7822E+06     97.9990E+06     61.0625E+06     94.4577E+06    -4.56433E+06         61.6136
             631     13.5921E-03     89.3375E-03         1.88437    -425.133E-03        -3.76276     179.991E-03        -2.05838    -425.133E-03         1.12071     414.013E-03    -189.980E-03    -224.791E-03    -60.4242E-03     284.458E-03    -224.791E-03     494.808E-03     16.3426E+06    -78.4228E+06    -107.759E+06    -10.3420E+06    -57.4027E+06    -102.095E+06    -5.70457E+06         71.4305
             632     12.6322E-03     89.1705E-03         1.31227    -494.762E-03        -3.68173    -56.0164E-03        -2.31344    -494.762E-03         1.37297     445.423E-03    -211.211E-03    -234.388E-03    -85.0337E-03     319.246E-03    -234.388E-03     511.946E-03     47.6457E+06    -37.6151E+06    -72.1789E+06     16.7276E+06    -35.4660E+06    -43.4098E+06    -17.9709E+06         67.5559
             633     11.7347E-03     89.0590E-03         3.07424    -626.826E-03        -5.15573         1.56990        -3.65139    -626.826E-03         3.76208     462.043E-03    -218.038E-03    -243.508E-03    -123.509E-03     367.514E-03    -243.508E-03     467.294E-03     53.9934E+06     7.05590E+06    -42.4204E+06     30.1905E+06    -16.8801E+06     5.31839E+06    -21.8847E+06         65.1856
             634     10.8616E-03     88.8988E-03         3.72027    -833.117E-03        -4.70013         1.42794        -2.40780    -833.117E-03         4.63285     484.139E-03    -232.191E-03    -251.524E-03    -154.943E-03     406.891E-03    -251.524E-03     439.510E-03     65.2474E+06     37.6651E+06    -18.5240E+06     40.7043E+06     6.01906E+06     37.6651E+06    -24.5998E+06         64.1047
             635     10.0191E-03     88.7757E-03         3.34009    -989.525E-03        -2.99509    -424.699E-03     769.700E-03    -989.525E-03         4.64405     498.819E-03    -240.853E-03    -258.685E-03    -181.794E-03     439.759E-03    -258.685E-03     397.034E-03     72.9746E+06     52.8680E+06    -10.4471E+06     47.4171E+06     14.3035E+06     53.6750E+06    -31.0743E+06         64.0155
             636     9.19706E-03     88.6503E-03         4.46949        -1.05262        -2.28492        -1.21670         3.40127        -1.05262        -1.38174     512.100E-03    -248.310E-03    -264.224E-03    -202.352E-03     466.142E-03    -264.224E-03     358.302E-03     72.6913E+06     58.7530E+06    -3.59611E+06     46.5031E+06     21.7850E+06     59.5600E+06    -30.2335E+06         64.4640
             637     8.39069E-03     88.5473E-03         5.06070    -787.088E-03        -3.13080    -974.184E-03         3.21412        -1.09711     183.945E-03     523.230E-03    -254.470E-03    -268.770E-03    -219.197E-03     487.958E-03    -268.770E-03     319.891E-03     77.1550E+06     62.5238E+06    -1.02436E+06     49.3699E+06     26.7607E+06     62.5238E+06    -33.7439E+06         65.0845
             638     7.59886E-03     88.4585E-03         6.73350    -945.578E-03        -4.25570     981.876E-03         1.80594        -1.25560         2.17351     532.186E-03    -260.155E-03    -272.614E-03    -233.236E-03     505.267E-03    -272.614E-03     283.369E-03     76.2367E+06     61.6725E+06    -1.40012E+06     47.1258E+06     27.7108E+06     61.6725E+06    -34.3771E+06         65.6387
             639     6.81831E-03     88.3895E-03         11.2546        -1.38617        -9.15818        -1.42917         3.52559        -1.38617        -6.82361     539.363E-03    -264.519E-03    -275.618E-03    -244.776E-03     519.620E-03    -275.618E-03     245.729E-03     78.7629E+06     62.3485E+06     367.961E+03     48.6086E+06     30.5222E+06     62.3485E+06    -35.3255E+06         66.0858
             640     6.04446E-03     88.3416E-03         11.7356        -1.22210        -10.8747        -3.71337         4.57429        -1.22210         2.33686     545.961E-03    -268.398E-03    -278.065E-03    -254.237E-03     531.800E-03    -278.065E-03     209.820E-03     76.8228E+06     60.6221E+06     1.38534E+06     47.4195E+06     30.7887E+06     60.6221E+06    -33.9191E+06         66.4062
             641     5.28003E-03     88.3157E-03         12.2493        -1.00869        -10.5068        -1.64749         3.39003        -1.00869        -2.46724     550.854E-03    -271.858E-03    -279.555E-03    -262.082E-03     541.078E-03    -279.555E-03     175.513E-03     76.1024E+06     58.2176E+06     3.94105E+06     46.8290E+06     33.2145E+06     58.2176E+06    -32.2436E+06         66.5866
             642     4.51960E-03     88.3097E-03         11.5838        -1.00221        -10.8292    -421.582E-03         1.17620        -1.00221        -9.91750     554.696E-03    -274.850E-03    -280.840E-03    -268.369E-03     548.215E-03    -280.840E-03     143.349E-03     74.4652E+06     56.0816E+06     7.19768E+06     47.3381E+06     34.3247E+06     56.0816E+06    -30.0371E+06         66.6582
             643     3.76295E-03     88.3237E-03         12.3314        -1.36258        -11.4419         2.01481        -1.12534        -1.36258         14.9073     558.255E-03    -277.209E-03    -282.107E-03    -273.272E-03     554.318E-03    -282.107E-03     111.740E-03     72.2159E+06     55.7544E+06     9.89039E+06     47.1406E+06     34.9657E+06     55.7544E+06    -26.9537E+06         66.6341
             644     3.00831E-03     88.3517E-03         14.5227        -1.76969        -12.3318    -880.720E-03         3.07160        -1.76969         13.7582     561.786E-03    -279.544E-03    -282.621E-03    -277.365E-03     559.608E-03    -282.621E-03     83.0664E-03     66.9440E+06     53.9802E+06     16.2514E+06     46.6616E+06     36.5338E+06     53.9802E+06    -21.3358E+06         66.5345
             645     2.25575E-03     88.3862E-03         11.4188    -852.396E-03        -11.5042        -6.95262         6.86730    -852.396E-03        -3.47791     563.858E-03    -281.217E-03    -282.903E-03    -280.134E-03     562.776E-03    -282.903E-03     58.1112E-03     65.8485E+06     51.3245E+06     23.8089E+06     50.5162E+06     39.1412E+06     51.3245E+06    -17.6341E+06         66.3961
             646     1.50362E-03     88.4228E-03         10.5581         1.60672        -14.2853        -4.47270     745.516E-03         1.60672        -5.72831     565.034E-03    -282.277E-03    -283.243E-03    -281.841E-03     564.597E-03    -283.243E-03     36.2908E-03     62.4268E+06     49.3539E+06     26.0232E+06     49.4702E+06     37.4916E+06     50.8422E+06    -13.2292E+06         66.2509
             647     753.280E-06     88.4491E-03         9.73551         2.76241        -15.5070         3.18683        -8.95831         2.76241        -1.69036     566.248E-03    -282.208E-03    -283.999E-03    -283.559E-03     566.120E-03    -282.519E-03     19.4770E-03     57.6254E+06     47.6612E+06     29.2178E+06     47.2385E+06     36.0612E+06     51.2047E+06    -5.62796E+06         66.1405
             648     13.1873E-03     87.9540E-03         1.02414    -601.472E-03        -2.68651     951.484E-03        -2.61386    -601.472E-03    -543.042E-03     472.240E-03    -218.714E-03    -252.981E-03    -98.9608E-03     352.486E-03    -252.981E-03     520.084E-03     40.3421E+06    -22.8110E+06    -85.1733E+06     22.4472E+06    -57.3876E+06    -32.7019E+06    -24.4805E+06         76.8571
             649     12.2646E-03     87.6704E-03         2.00330    -673.169E-03        -3.45189     95.2985E-03        -1.54389    -673.169E-03        -3.94155     509.105E-03    -245.965E-03    -262.939E-03    -141.262E-03     404.401E-03    -262.939E-03     511.097E-03     52.7223E+06     19.7647E+06    -53.4032E+06     28.8773E+06    -30.3222E+06     20.5287E+06    -27.7685E+06         73.2849
             650     11.4144E-03     87.4909E-03         5.28188    -761.744E-03        -5.37683         1.56148        -1.65643    -761.744E-03        -1.01298     522.727E-03    -251.846E-03    -271.141E-03    -180.521E-03     451.402E-03    -271.141E-03     442.865E-03     59.5136E+06     45.0186E+06    -31.2486E+06     28.6479E+06    -1.14691E+06     45.7826E+06    -27.0648E+06         70.6135
             651     10.5820E-03     87.2857E-03         5.99331    -893.311E-03        -4.54381         1.50823    -58.7274E-03    -893.311E-03         3.41639     539.629E-03    -262.286E-03    -277.333E-03    -206.859E-03     484.202E-03    -277.333E-03     401.079E-03     68.2899E+06     53.9354E+06    -28.7796E+06     27.0046E+06     12.5056E+06     53.9354E+06    -36.0196E+06         69.1643
             652     9.77680E-03     87.1160E-03         6.26086    -988.525E-03        -4.16589     585.321E-03         1.50965    -988.525E-03        -1.39883     550.037E-03    -267.902E-03    -283.256E-03    -227.375E-03     509.510E-03    -283.256E-03     350.716E-03     65.1854E+06     53.7918E+06    -26.8440E+06     20.7198E+06     16.8146E+06     54.5988E+06    -35.0531E+06         68.7248
             653     8.98531E-03     86.9625E-03         7.25564        -1.07992        -4.61707     966.810E-03         1.67175        -1.07992        -6.70873     559.790E-03    -273.289E-03    -288.089E-03    -242.434E-03     528.935E-03    -288.089E-03     310.822E-03     64.3467E+06     53.2813E+06    -24.8654E+06     19.5834E+06     19.0909E+06     54.0883E+06    -38.9175E+06         68.8568
             654     8.20814E-03     86.8316E-03         7.02914    -426.553E-03        -4.09271     772.643E-03         2.94593        -1.20870        -3.11016     567.915E-03    -277.980E-03    -291.699E-03    -255.073E-03     545.007E-03    -291.699E-03     271.392E-03     59.8170E+06     48.2404E+06    -27.4788E+06     13.0899E+06     19.2482E+06     48.2404E+06    -39.1081E+06         69.2003
             655     7.44041E-03     86.7215E-03         7.52424    -472.887E-03        -4.53086        -1.34958         5.12511        -1.25503     501.775E-03     575.742E-03    -282.660E-03    -294.817E-03    -265.590E-03     558.672E-03    -294.817E-03     236.665E-03     58.8392E+06     42.7754E+06    -27.0584E+06     10.6348E+06     21.1460E+06     42.7754E+06    -39.2520E+06         69.5188
             656     6.68073E-03     86.6344E-03         8.59718    -564.000E-03        -5.88656        -4.42186         7.59692        -1.02845    -318.022E-03     583.041E-03    -286.247E-03    -296.923E-03    -273.676E-03     570.470E-03    -296.923E-03     204.973E-03     55.3310E+06     35.6252E+06    -28.6034E+06     7.24086E+06     19.4867E+06     35.6252E+06    -38.2342E+06         69.7334
             657     5.92712E-03     86.5725E-03         9.80619    -152.036E-03        -8.06760        -3.83436         6.03739    -616.483E-03     416.820E-03     588.528E-03    -289.094E-03    -298.052E-03    -280.267E-03     579.701E-03    -298.052E-03     172.593E-03     51.6726E+06     28.2554E+06    -29.7739E+06     3.72736E+06     18.1713E+06     28.2554E+06    -36.7637E+06         69.8476
             658     5.17983E-03     86.5357E-03         11.5451    -302.689E-03        -10.5151        -1.71329         2.74330    -302.689E-03        -9.48439     590.915E-03    -292.159E-03    -298.836E-03    -286.299E-03     585.055E-03    -298.836E-03     141.113E-03     48.7348E+06     20.8318E+06    -30.9667E+06     608.159E+03     17.1599E+06     20.8318E+06    -35.6061E+06         69.8840
             659     4.43439E-03     86.5238E-03         13.8362    -64.9245E-03        -12.4193        -1.61581         3.03264    -64.9245E-03        -21.9988     593.336E-03    -294.698E-03    -299.760E-03    -290.943E-03     589.581E-03    -299.760E-03     112.985E-03     43.8949E+06     14.3517E+06    -30.4306E+06    -2.13826E+06     15.6026E+06     14.3517E+06    -32.7706E+06         69.8649
             660     3.69177E-03     86.5303E-03         13.7296     115.853E-03        -11.5959    -568.128E-03         2.70183     115.853E-03        -2.33538     595.815E-03    -296.693E-03    -300.970E-03    -294.510E-03     593.632E-03    -300.970E-03     85.9878E-03     35.9877E+06     8.00059E+06    -29.0962E+06    -4.92261E+06     11.8141E+06     8.00059E+06    -27.8767E+06         69.8019
             661     2.95262E-03     86.5517E-03         14.0576     277.310E-03        -12.4804    -960.277E-03         2.53747     277.310E-03         12.7025     598.399E-03    -298.686E-03    -301.582E-03    -297.551E-03     597.264E-03    -301.582E-03     61.7394E-03     32.0954E+06     3.22164E+06    -24.6002E+06    -4.70145E+06     12.1967E+06     3.22164E+06    -24.7964E+06         69.6919
             662     2.21411E-03     86.5843E-03         15.4749     829.592E-03        -14.8318        -1.93370         2.57684     829.592E-03        -10.4708     600.905E-03    -299.863E-03    -301.478E-03    -299.344E-03     600.386E-03    -301.478E-03     41.3467E-03     28.3303E+06    -360.373E+03    -21.8091E+06    -5.64339E+06     12.1646E+06    -360.373E+03    -19.2557E+06         69.5419
             663     1.47637E-03     86.6188E-03         13.8964         1.44701        -14.7091     906.141E-03        -1.71887         1.44701        -15.5593     601.984E-03    -300.740E-03    -301.456E-03    -300.538E-03     601.782E-03    -301.456E-03     25.5590E-03     19.0288E+06    -4.00338E+06    -14.6041E+06    -4.24481E+06     7.69515E+06    -3.02893E+06    -12.2203E+06         69.3896
             664     737.267E-06     86.6450E-03         13.2362         4.05569        -17.7281         5.23891        -3.90367        -1.77143         2.13060     602.732E-03    -300.833E-03    -302.125E-03    -301.545E-03     602.665E-03    -301.345E-03     14.5425E-03     12.9099E+06    -4.48153E+06    -14.6100E+06    -5.52248E+06     5.99970E+06    -6.65883E+06    -7.49626E+06         69.2833
             665     12.8340E-03     86.3964E-03         1.51443    -473.350E-03        -1.80947     292.161E-03    -587.198E-03    -473.350E-03        -1.29791     535.028E-03    -254.774E-03    -279.999E-03    -166.750E-03     446.224E-03    -279.218E-03     492.654E-03     42.7696E+06     12.9216E+06    -95.3444E+06    -7.28993E+06    -47.5477E+06     15.1845E+06    -42.4371E+06         82.5149
             666     11.9765E-03     86.0268E-03         4.46513    -440.721E-03        -3.56033    -295.057E-03         1.19986    -440.721E-03        -6.63668     566.076E-03    -277.962E-03    -288.541E-03    -206.163E-03     493.496E-03    -287.760E-03     462.376E-03     43.1122E+06     32.6974E+06    -66.8533E+06    -11.3802E+06    -13.1249E+06     33.4614E+06    -39.0391E+06         78.7551
             667     11.1682E-03     85.8079E-03         6.66825    -349.235E-03        -5.42302    -933.602E-03         2.17883    -349.235E-03    -222.351E-03     573.053E-03    -279.687E-03    -293.746E-03    -232.868E-03     526.233E-03    -293.746E-03     383.858E-03     55.7816E+06     37.2091E+06    -61.9516E+06    -12.6119E+06     5.67797E+06     37.9731E+06    -44.8271E+06         75.5678
             668     10.3767E-03     85.5549E-03         4.77750    -327.594E-03        -3.49889    -586.717E-03         1.76155    -223.824E-03         3.32115     585.023E-03    -286.574E-03    -297.445E-03    -250.421E-03     548.870E-03    -297.445E-03     342.466E-03     54.6835E+06     34.7769E+06    -66.9877E+06    -21.0288E+06     8.72454E+06     34.7769E+06    -44.6961E+06         73.6675
             669     9.60226E-03     85.3822E-03         5.25215    -236.330E-03        -3.14915     456.905E-03         1.54233    -132.559E-03        -6.60723     592.590E-03    -289.690E-03    -301.262E-03    -263.853E-03     566.753E-03    -301.262E-03     293.999E-03      52.253E+06     30.4611E+06    -64.9477E+06    -23.7682E+06     11.0735E+06     30.4611E+06    -47.3032E+06         72.7601
             670     8.83653E-03     85.2280E-03         6.96918    -80.5833E-03        -4.75339     729.544E-03         1.48625    -80.5833E-03        -9.84875     598.372E-03    -294.278E-03    -304.785E-03    -274.526E-03     578.620E-03    -304.785E-03     259.689E-03     45.2112E+06     23.1557E+06    -66.2407E+06    -29.4956E+06     8.46606E+06     23.1557E+06    -46.5808E+06         72.4208
             671     8.08098E-03     85.0796E-03         6.04943     769.937E-03        -4.01424     563.549E-03         2.25379    -12.2103E-03        -4.54674     602.249E-03    -297.446E-03    -306.813E-03    -282.587E-03     587.391E-03    -306.813E-03     226.985E-03     41.3694E+06     16.1649E+06    -65.2176E+06    -32.7210E+06     8.87280E+06     16.1649E+06    -46.4542E+06         72.3332
             672     7.32969E-03     84.9498E-03         7.19048     859.827E-03        -5.26640     514.721E-03         2.19150     77.6798E-03        -6.18842     607.241E-03    -299.332E-03    -308.963E-03    -288.391E-03     596.300E-03    -308.963E-03     196.144E-03     38.7201E+06     6.90563E+06    -66.8776E+06    -36.3618E+06     8.20437E+06     6.90563E+06    -45.5137E+06         72.3043
             673     6.58730E-03     84.8522E-03         8.50881     478.739E-03        -6.23571         2.72874     8.80620E-03     14.2920E-03        -5.95744     611.447E-03    -301.762E-03    -311.440E-03    -293.762E-03     603.448E-03    -311.440E-03     168.485E-03     32.4269E+06    -3.50561E+06    -68.8193E+06    -41.2538E+06     4.86140E+06    -3.50561E+06    -43.0854E+06         72.2535
             674     5.84603E-03     84.7750E-03         7.80825     279.541E-03        -5.98454         1.46639     821.768E-03    -184.906E-03        -2.46853     614.738E-03    -303.472E-03    -312.835E-03    -297.931E-03     609.197E-03    -312.835E-03     140.350E-03     27.1285E+06    -14.0196E+06    -71.1496E+06    -45.6216E+06     1.60052E+06    -14.0196E+06    -41.1535E+06         72.1714
             675     5.11180E-03     84.7278E-03         8.84427     93.9650E-03        -8.30916        -5.05980         5.59490     93.9650E-03        -3.25492     617.737E-03    -305.780E-03    -313.908E-03    -302.231E-03     614.188E-03    -313.908E-03     112.628E-03     20.5420E+06    -23.6532E+06    -72.2218E+06    -49.4041E+06    -2.27572E+06    -23.6532E+06    -37.8755E+06         72.0641
             676     4.37792E-03     84.7050E-03         12.1321         1.21836        -12.2006        -7.89298         7.82447         1.21836        -11.6468     621.410E-03    -308.864E-03    -315.002E-03    -306.696E-03     619.243E-03    -315.002E-03     87.9679E-03     11.9603E+06    -33.1703E+06    -73.3824E+06    -53.2268E+06    -8.19525E+06    -33.1703E+06    -33.9616E+06         71.9338
             677     3.64687E-03     84.7028E-03         10.7676         2.59330        -11.8819        -3.62580         2.51154         2.59330        -3.84705     624.543E-03    -311.258E-03    -315.966E-03    -310.062E-03     623.346E-03    -315.966E-03     65.1132E-03     5.68180E+06    -41.9765E+06    -72.5936E+06    -54.8867E+06    -12.0252E+06    -41.9765E+06    -30.4134E+06         71.7830
             678     2.91578E-03     84.7189E-03         9.98858         2.83968        -10.9140         5.81930        -6.74470         2.83968         14.5719     627.458E-03    -312.878E-03    -316.439E-03    -312.300E-03     626.880E-03    -316.439E-03     44.9089E-03    -1.64231E+06    -48.8743E+06    -70.7551E+06    -56.8335E+06    -15.5640E+06    -48.8743E+06    -25.7092E+06         71.6156
             679     2.18672E-03     84.7451E-03         12.7379         1.51677        -10.6844         7.22004        -5.16656         1.51677         2.30053     629.871E-03    -314.257E-03    -316.232E-03    -314.016E-03     629.629E-03    -316.232E-03     28.8583E-03    -10.9175E+06    -53.4136E+06    -67.7082E+06    -58.9222E+06    -19.7036E+06    -53.4136E+06    -19.3205E+06         71.4479
             680     1.45732E-03     84.7735E-03         18.1366     700.957E-03        -14.9411     76.4751E-03         3.11909     700.957E-03        -26.2756     631.219E-03    -315.442E-03    -316.102E-03    -315.387E-03     631.132E-03    -316.071E-03     16.8498E-03    -15.4003E+06    -56.8241E+06    -67.3068E+06    -59.3804E+06    -22.8128E+06    -57.3380E+06    -13.0553E+06         71.3008
             681     729.089E-06     84.7932E-03         27.3120        -2.96437        -21.5942         10.3452         1.19978        -8.79148        -12.4280     631.561E-03    -315.388E-03    -316.260E-03    -315.825E-03     631.537E-03    -315.798E-03     7.90040E-03    -24.9071E+06    -53.5324E+06    -68.2187E+06    -58.6958E+06    -29.3560E+06    -58.6063E+06    -6.60082E+06         71.1938
             682     12.5981E-03     84.7048E-03         3.32180     25.5595E-03        -2.39160     989.250E-03    -59.0489E-03     25.5595E-03        -2.53857     579.412E-03    -279.358E-03    -299.521E-03    -225.833E-03     524.911E-03    -298.546E-03     413.703E-03     48.6693E+06     29.6893E+06    -68.0619E+06    -25.4710E+06    -2.58053E+06     38.3482E+06    -25.8808E+06         86.7514
             683     11.7909E-03     84.3166E-03         4.00174     54.6846E-03        -2.30401    -225.292E-03         1.83102     146.691E-03        -5.01575     601.129E-03    -297.143E-03    -304.669E-03    -251.871E-03     554.882E-03    -303.694E-03     388.134E-03     40.1772E+06     5.19075E+06    -81.7103E+06    -43.1555E+06     1.62250E+06     5.19075E+06    -44.2021E+06         82.9004
             684     11.0106E-03     84.0682E-03         3.67357     224.079E-03        -2.42610    -637.524E-03         1.79299     316.085E-03    -130.900E-03     605.019E-03    -297.251E-03    -307.807E-03    -267.679E-03     575.447E-03    -307.807E-03     318.729E-03     47.2936E+06    -101.929E+03    -100.384E+06    -57.8948E+06     4.80463E+06    -101.929E+03    -53.3568E+06         79.3558
             685     10.2424E-03     83.7995E-03         3.00476     334.141E-03        -2.40130     376.812E-03     122.868E-03     437.912E-03         2.74446     614.174E-03    -301.983E-03    -310.734E-03    -278.556E-03     590.747E-03    -310.734E-03     286.297E-03     43.8909E+06    -1.10132E+06    -101.882E+06    -59.2164E+06     1.22498E+06    -1.10132E+06    -58.0232E+06         77.0515
             686     9.48830E-03     83.5807E-03         3.03672     436.253E-03        -2.72039    -804.857E-03         1.01742     540.024E-03         1.44302     618.308E-03    -303.775E-03    -313.654E-03    -286.860E-03     601.394E-03    -313.654E-03     245.703E-03     37.0170E+06    -6.78680E+06    -104.561E+06    -63.9286E+06    -3.61586E+06    -6.78680E+06    -58.1419E+06         75.6445
             687     8.74038E-03     83.3868E-03         4.24775     733.147E-03        -3.31627        -2.04292         2.97441     733.147E-03        -2.82447     623.950E-03    -307.422E-03    -316.049E-03    -294.416E-03     610.943E-03    -316.049E-03     217.049E-03     30.1806E+06    -13.5944E+06    -104.664E+06    -68.8372E+06    -5.64604E+06    -13.5944E+06    -56.5152E+06         74.8083
             688     7.99779E-03     83.2201E-03         5.22005     961.331E-03        -4.95993        -1.22460         1.48472     961.331E-03         2.46298     627.639E-03    -310.065E-03    -317.028E-03    -300.118E-03     617.691E-03    -317.028E-03     190.679E-03     23.8759E+06    -22.4331E+06    -106.022E+06    -72.6575E+06    -9.48868E+06    -22.4331E+06    -55.1336E+06         74.3517
             689     7.26152E-03     83.0873E-03         7.10579         1.00345        -6.54546         1.92775        -1.36742         1.00345        -1.20646     629.855E-03    -311.203E-03    -318.263E-03    -303.785E-03     622.437E-03    -318.263E-03     165.037E-03     17.8922E+06    -32.3036E+06    -107.761E+06    -77.6653E+06    -12.2037E+06    -32.3036E+06    -52.3331E+06         74.0633
             690     6.52743E-03     82.9761E-03         7.10242     727.162E-03        -6.36229         4.42142        -3.68129     727.162E-03        -3.97702     631.393E-03    -312.353E-03    -320.303E-03    -307.057E-03     626.097E-03    -320.303E-03     139.607E-03     10.3770E+06    -42.7857E+06    -108.499E+06    -81.8351E+06    -16.2872E+06    -42.7857E+06    -48.4127E+06         73.8198
             691     5.79678E-03     82.8959E-03         7.19199     222.888E-03        -6.32466         4.79724        -3.92990     222.888E-03         8.94581     631.482E-03    -313.855E-03    -322.184E-03    -310.249E-03     627.877E-03    -322.184E-03     115.285E-03     1.36671E+06    -54.1797E+06    -109.417E+06    -86.5835E+06    -21.4667E+06    -54.1797E+06    -43.5534E+06         73.5825
             692     5.06878E-03     82.8395E-03         8.95286    -313.428E-03        -7.22653         3.11563        -1.38930    -313.428E-03         8.47037     634.761E-03    -315.652E-03    -323.443E-03    -313.347E-03     632.456E-03    -323.443E-03     92.2777E-03    -8.22830E+06    -65.8013E+06    -110.634E+06    -91.2758E+06    -27.5870E+06    -65.8013E+06    -38.7233E+06         73.3297
             693     4.34290E-03     82.8116E-03         9.50628    -558.815E-03        -9.01617    -677.502E-03         1.16762    -558.815E-03        -5.78875     639.191E-03    -318.076E-03    -324.467E-03    -316.729E-03     637.843E-03    -324.467E-03     70.6025E-03    -16.9967E+06    -76.0272E+06    -111.893E+06    -95.1488E+06    -33.7411E+06    -76.0272E+06    -34.5289E+06         73.0655
             694     3.61794E-03     82.8075E-03         8.83464    -221.362E-03        -9.07056        -3.46820         3.23228    -221.362E-03        -4.67640     642.312E-03    -320.044E-03    -324.835E-03    -319.335E-03     641.603E-03    -324.835E-03     51.0712E-03    -25.7614E+06    -84.7090E+06    -112.439E+06    -98.8944E+06    -39.3062E+06    -84.7090E+06    -29.9792E+06         72.7997
             695     2.89453E-03     82.8221E-03         10.4568     574.537E-03        -10.5877        -2.95644         2.82555     574.537E-03         6.64296     645.572E-03    -321.335E-03    -324.733E-03    -321.015E-03     645.252E-03    -324.733E-03     34.0526E-03    -36.1129E+06    -93.4209E+06    -111.015E+06    -102.380E+06    -44.7478E+06    -93.4209E+06    -23.6544E+06         72.5549
             696     2.16970E-03     82.8476E-03         11.8397         1.15163        -12.6062     509.807E-03        -1.27630         1.15163         12.2578     646.949E-03    -322.908E-03    -324.662E-03    -322.787E-03     646.828E-03    -324.662E-03     20.6798E-03    -44.5008E+06    -100.260E+06    -111.163E+06    -103.986E+06    -51.6773E+06    -100.260E+06    -18.6346E+06         72.3596
             697     1.44718E-03     82.8731E-03         15.6526         1.23710        -15.8731         1.40657        -1.62712         1.23710        -9.75091     647.868E-03    -323.879E-03    -324.661E-03    -323.872E-03     647.830E-03    -324.630E-03     11.3898E-03    -51.7976E+06    -102.192E+06    -113.935E+06    -106.859E+06    -56.8529E+06    -104.214E+06    -12.6868E+06         72.2078
             698     724.245E-06     82.8936E-03         29.9190     262.225E-03        -27.4063         2.19071     321.965E-03     262.225E-03        -25.1745     648.387E-03    -323.315E-03    -324.945E-03    -324.762E-03     648.378E-03    -323.489E-03     5.01874E-03    -60.5755E+06    -99.5040E+06    -115.812E+06    -107.550E+06    -62.2564E+06    -106.085E+06    -4.93551E+06         72.0976
             699     12.4633E-03     82.9973E-03         4.72269     564.325E-03        -4.26697    -723.256E-03         1.17897     564.325E-03         2.17391     612.781E-03    -297.796E-03    -313.429E-03    -264.624E-03     577.017E-03    -310.838E-03     352.360E-03     83.9801E+06     56.2328E+06    -29.8845E+06     2.02223E+06     32.7767E+06     75.5295E+06     1.48045E+06         89.4469
             700     11.6805E-03     82.5263E-03         3.63463     667.778E-03        -3.50855        -1.50676         1.54083     759.784E-03        -2.50565     626.541E-03    -309.355E-03    -316.901E-03    -280.900E-03     595.494E-03    -314.310E-03     329.803E-03     77.2831E+06     34.9626E+06    -29.6893E+06    -12.9018E+06     43.9950E+06     51.4633E+06    -7.76076E+06         85.7747
             701     10.9167E-03     82.2366E-03         2.16871     849.228E-03        -2.14644     301.975E-03    -371.716E-03     941.234E-03        -2.80216     626.382E-03    -309.239E-03    -317.895E-03    -289.176E-03     606.319E-03    -317.895E-03     269.848E-03     70.8808E+06     13.6328E+06     -48.612E+06    -29.0788E+06     36.8756E+06     28.1047E+06    -20.3527E+06         82.0114
             702     10.1611E-03     81.9413E-03         3.01724         1.00173        -3.15339         2.31710        -2.45325         1.00173        -1.08732     632.147E-03    -312.725E-03    -320.754E-03    -296.417E-03     615.839E-03    -320.754E-03     243.970E-03     44.3360E+06    -4.04457E+06    -78.0037E+06    -51.3423E+06     17.6746E+06    -4.04457E+06    -33.5896E+06         79.2097
             703     9.41812E-03     81.7122E-03         4.55674     974.789E-03        -5.61294         2.57669        -3.63290     974.789E-03         3.72244     632.079E-03    -314.104E-03    -321.570E-03    -302.164E-03     620.140E-03    -321.570E-03     210.029E-03     25.0513E+06    -27.1233E+06    -92.9085E+06    -68.8697E+06     1.01250E+06    -27.1233E+06    -43.7334E+06         77.2941
             704     8.67911E-03     81.5036E-03         4.97065     941.654E-03        -7.19262         1.44201        -3.66398     941.654E-03    -402.156E-03     637.803E-03    -316.315E-03    -322.503E-03    -307.007E-03     628.494E-03    -322.503E-03     186.402E-03     14.6526E+06    -43.6683E+06    -111.019E+06    -82.3434E+06    -14.0233E+06    -43.6683E+06    -49.5161E+06         76.0641
             705     7.94590E-03     81.3333E-03         5.35275     881.535E-03        -7.00606         1.88771        -3.54102     881.535E-03     387.675E-03     642.398E-03    -318.248E-03    -323.414E-03    -311.184E-03     635.333E-03    -323.414E-03     163.259E-03     3.04775E+06    -56.8265E+06    -122.556E+06    -94.9982E+06    -24.5104E+06    -56.8265E+06    -51.1216E+06         75.4106
             706     7.22001E-03     81.1865E-03         6.62844     810.361E-03        -8.16207         1.19489        -2.72852     810.361E-03        -3.59628     643.022E-03    -319.604E-03    -323.339E-03    -314.343E-03     637.739E-03    -323.317E-03     141.357E-03    -6.71457E+06    -68.1749E+06    -130.472E+06    -103.605E+06    -33.5818E+06    -68.1749E+06    -50.0241E+06         75.1210
             707     6.49406E-03     81.0725E-03         5.90249     823.230E-03        -7.40842     481.240E-03        -1.98717     823.230E-03        -9.96475     642.271E-03    -319.678E-03    -324.103E-03    -315.901E-03     638.472E-03    -324.082E-03     119.984E-03    -17.3590E+06    -79.5683E+06    -135.722E+06    -111.803E+06    -41.2783E+06    -79.5683E+06    -46.8476E+06         74.9187
             708     5.76602E-03     80.9854E-03         6.10072     716.016E-03        -6.95882         3.22875        -4.08686     716.016E-03         4.55763     640.897E-03    -319.811E-03    -325.732E-03    -317.203E-03     638.290E-03    -325.732E-03     99.2114E-03    -26.9692E+06    -90.0976E+06    -138.599E+06    -117.639E+06    -47.9299E+06    -90.0976E+06    -42.7060E+06         74.6514
             709     5.04377E-03     80.9255E-03         6.51473     265.204E-03        -7.26010         4.89266        -5.63803     265.204E-03         6.37379     642.072E-03    -320.921E-03    -326.759E-03    -319.265E-03     640.416E-03    -326.759E-03     79.0095E-03    -37.0181E+06    -100.602E+06    -140.064E+06    -122.781E+06    -54.3020E+06    -100.602E+06    -37.5160E+06         74.3265
             710     4.32265E-03     80.8941E-03         9.57053    -400.564E-03        -9.67066         4.01211        -4.11224    -400.564E-03        -13.5112     644.363E-03    -321.914E-03    -327.459E-03    -320.955E-03     643.404E-03    -327.459E-03     59.9730E-03    -47.5046E+06    -110.596E+06    -141.692E+06    -127.540E+06    -61.6572E+06    -110.596E+06    -32.5605E+06         73.9938
             711     3.60092E-03     80.8894E-03         11.7599    -881.222E-03        -11.2885     367.436E-03     103.976E-03    -881.222E-03        -9.52941     647.753E-03    -322.736E-03    -327.803E-03    -322.247E-03     647.264E-03    -327.803E-03     42.6618E-03    -58.0933E+06    -119.138E+06    -141.729E+06    -130.978E+06    -68.8447E+06    -119.138E+06    -27.3161E+06         73.6495
             712     2.87940E-03     80.9027E-03         12.1666    -554.572E-03        -12.4105        -4.21881         3.97491    -554.572E-03        -4.93260     651.460E-03    -324.219E-03    -327.708E-03    -324.010E-03     651.251E-03    -327.708E-03     27.3832E-03    -67.2710E+06    -126.132E+06    -141.372E+06    -133.845E+06    -74.7980E+06    -126.132E+06    -22.0569E+06         73.3163
             713     2.16018E-03     80.9245E-03         13.4827     149.819E-03        -13.0972        -1.32264         1.70809     149.819E-03        -3.48166     653.274E-03    -325.720E-03    -327.725E-03    -325.654E-03     653.207E-03    -327.725E-03     15.2589E-03    -77.0428E+06    -131.905E+06    -142.230E+06    -137.654E+06    -81.6184E+06    -131.905E+06    -15.5507E+06         73.0465
             714     1.43951E-03     80.9511E-03         11.1563    -547.103E-03        -8.13956         3.25615    -239.376E-03    -547.103E-03    -846.487E-03     653.579E-03    -326.339E-03    -327.451E-03    -326.321E-03     653.562E-03    -327.451E-03     7.34429E-03    -84.0793E+06    -133.827E+06    -143.553E+06    -138.526E+06    -87.0852E+06    -135.848E+06    -10.3016E+06         72.8549
             715     718.422E-06     80.9708E-03         20.6572         3.62425        -18.9736        -6.64675         8.33033         3.62425        -8.43678     654.256E-03    -326.112E-03    -328.064E-03    -327.709E-03     654.251E-03    -326.461E-03     3.14615E-03    -89.0688E+06    -132.291E+06    -147.986E+06    -139.708E+06    -90.5938E+06    -139.043E+06    -6.61052E+06         72.7409
             716     12.3758E-03     81.1688E-03         3.97472     842.947E-03        -4.47860        -1.93574         1.43186     842.947E-03         6.77668     638.678E-03    -312.322E-03    -325.547E-03    -291.736E-03     610.776E-03    -318.231E-03     320.194E-03     82.9382E+06     58.7184E+06    -28.6928E+06    -11.3473E+06     41.3729E+06     82.9382E+06    -4.09951E+06         91.4516
             717     11.6133E-03     80.6815E-03         4.31127         1.05393        -4.34097        -1.79465         1.76495         1.05393        -3.06780     648.054E-03    -317.768E-03    -327.548E-03    -300.370E-03     623.341E-03    -320.233E-03     300.998E-03     83.0522E+06     59.6501E+06    -20.0903E+06    -10.0806E+06     49.6404E+06     83.0522E+06    -771.908E+03         87.7974
             718     10.8573E-03     80.3738E-03         3.90858         1.25558        -4.37049        -1.32564     863.733E-03         1.25558        -4.85146     643.595E-03    -318.410E-03    -323.826E-03    -303.758E-03     627.992E-03    -322.875E-03     242.869E-03     82.2094E+06     43.4178E+06    -15.1170E+06    -14.1058E+06     52.3040E+06     72.3120E+06     4.44071E+06         83.8484
             719     10.1140E-03     80.0637E-03         4.00542         1.42929        -5.67939    -378.749E-03        -1.29522         1.42929        -5.24980     644.996E-03    -320.285E-03    -326.408E-03    -308.584E-03     632.344E-03    -325.458E-03     218.288E-03     67.5642E+06     36.9501E+06    -30.4264E+06    -22.5267E+06     48.2610E+06     48.3536E+06     6.05287E+06         80.6250
             720     9.37985E-03     79.8176E-03         6.48929         1.50569        -8.70480         2.18361        -4.39912         1.50569     749.301E-03     642.661E-03    -320.974E-03    -326.257E-03    -311.827E-03     633.515E-03    -326.257E-03     186.419E-03     42.3726E+06     15.7402E+06    -47.3304E+06    -37.0841E+06     30.2407E+06     17.6258E+06     153.318E+03         78.3237
             721     8.64845E-03     79.6029E-03         7.85797         1.49457        -10.5793         2.80989        -5.53125         1.49457        -2.07345     644.705E-03    -321.709E-03    -325.781E-03    -314.461E-03     637.458E-03    -325.781E-03     166.158E-03     19.8026E+06    -16.8632E+06    -68.3771E+06    -57.3850E+06     6.92478E+06    -14.9776E+06    -8.29921E+06         76.8805
             722     7.91788E-03     79.4238E-03         7.22876         1.56341        -9.77774         1.31802        -3.86699         1.56341        -2.77999     648.389E-03    -322.488E-03    -325.952E-03    -316.997E-03     642.898E-03    -325.952E-03     145.072E-03     -4.3984E+06    -45.0115E+06    -88.4688E+06    -76.3452E+06    -16.5220E+06    -45.0115E+06    -16.5556E+06         76.1323
             723     7.19275E-03     79.2743E-03         10.0455         1.76339        -11.6980     691.460E-03        -2.34395         1.76339        -8.70972     647.679E-03    -324.057E-03    -325.591E-03    -320.016E-03     643.607E-03    -325.560E-03     124.938E-03    -23.0421E+06    -69.7050E+06    -105.944E+06    -94.5160E+06    -34.4696E+06    -69.7050E+06    -23.0586E+06         75.8538
             724     6.47187E-03     79.1520E-03         9.50547         1.93862        -10.5059         1.84214        -2.84256         1.93862        -16.2978     644.985E-03    -324.026E-03    -325.899E-03    -321.077E-03     642.005E-03    -325.868E-03     106.829E-03    -38.1745E+06    -88.5440E+06    -121.755E+06    -109.093E+06    -50.8366E+06    -88.5440E+06    -27.3636E+06         75.7635
             725     5.74960E-03     79.0615E-03         3.86031         1.93908        -5.29296         1.93076        -3.45444         2.03011        -1.60584     644.732E-03    -322.185E-03    -327.682E-03    -320.088E-03     642.636E-03    -327.682E-03     89.3156E-03    -52.5980E+06    -104.325E+06    -134.426E+06    -122.059E+06    -64.9642E+06    -104.325E+06    -28.3475E+06         75.5837
             726     5.02989E-03     78.9988E-03         4.34797         2.11804        -6.85298     569.212E-03        -3.16525         2.20908         7.09148     645.893E-03    -321.757E-03    -328.603E-03    -320.438E-03     644.574E-03    -328.603E-03     70.7419E-03    -64.0220E+06    -117.057E+06    -143.920E+06    -132.119E+06    -75.8235E+06    -117.057E+06    -27.0703E+06         75.2585
             727     4.30945E-03     78.9662E-03         10.3928         2.61342        -13.6045    -388.217E-03        -2.82349         2.61342        -9.67827     648.632E-03    -322.560E-03    -328.856E-03    -321.823E-03     647.895E-03    -328.856E-03     52.5476E-03    -75.0304E+06    -127.877E+06    -149.835E+06    -139.639E+06     -85.226E+06    -127.877E+06    -24.8346E+06         74.8810
             728     3.58961E-03     78.9578E-03         11.6607         2.97549        -14.9747         1.96170        -5.27575         2.97549        -8.73813     651.950E-03    -324.512E-03    -329.450E-03    -324.162E-03     651.600E-03    -329.450E-03     36.0548E-03    -85.7587E+06    -137.269E+06    -154.513E+06    -146.160E+06    -94.1117E+06    -137.269E+06    -21.7756E+06         74.4938
             729     2.87200E-03     78.9669E-03         11.7976         2.66049        -12.7067         5.80680        -6.71582         2.66049        -4.01358     654.061E-03    -326.316E-03    -329.751E-03    -326.180E-03     653.925E-03    -329.751E-03     21.9861E-03    -96.4557E+06    -144.452E+06    -156.495E+06    -150.930E+06    -102.021E+06    -144.452E+06    -17.3148E+06         74.1118
             730     2.15350E-03     78.9897E-03         12.0021         1.71307        -10.1573         4.76117        -2.91633         1.71307        -10.5768     656.802E-03    -327.411E-03    -329.946E-03    -327.374E-03     656.764E-03    -329.946E-03     11.2542E-03    -104.034E+06    -149.756E+06    -157.142E+06    -153.134E+06    -108.042E+06    -149.756E+06    -13.5179E+06         73.7681
             731     1.43576E-03     79.0138E-03         11.9291     10.5264E-03        -6.59132         4.65928     678.472E-03     10.5264E-03         5.18601     658.411E-03    -328.486E-03    -329.644E-03    -328.529E-03     658.404E-03    -329.593E-03     4.40926E-03    -108.913E+06    -152.265E+06    -161.284E+06    -156.296E+06    -111.594E+06    -154.571E+06    -9.36523E+06         73.5080
             732     718.885E-06     79.0355E-03         28.0362        -3.12318        -19.7361     856.247E-03         7.44385        -3.12318         39.8539     658.592E-03    -328.456E-03    -330.142E-03    -329.966E-03     658.591E-03    -328.632E-03     1.11095E-03    -116.213E+06    -150.330E+06    -166.461E+06    -158.230E+06    -117.406E+06    -157.367E+06    -5.59172E+06         73.3517
             733     12.3146E-03     79.3141E-03         5.36936         1.28204        -6.28775         2.61848        -3.53687         1.28204         9.04887     657.505E-03    -320.012E-03    -334.647E-03    -309.816E-03     634.432E-03    -321.770E-03     296.351E-03     87.0221E+06     58.5889E+06    -14.4290E+06    -1.71097E+06     45.8709E+06     87.0221E+06     1.17428E+06         92.9424
             734     11.5671E-03     78.8006E-03         6.25682         1.35643        -6.27087         1.98292        -1.99697         1.35643        -3.14527     660.447E-03    -321.570E-03    -335.436E-03    -313.958E-03     639.181E-03    -321.782E-03     283.104E-03     73.7294E+06     53.0318E+06    -24.6374E+06    -14.2342E+06     42.6286E+06     73.7294E+06    -1.63537E+06         89.1861
             735     10.8152E-03     78.4856E-03         6.62025         1.40662        -6.18164         1.60317        -1.16457         1.40662        -5.24821     651.677E-03    -323.915E-03    -328.496E-03    -314.791E-03     638.184E-03    -324.128E-03     228.238E-03     66.4823E+06     40.2689E+06    -22.0447E+06    -21.7988E+06     40.0230E+06     66.4823E+06     1.00214E+06         85.0858
             736     10.0879E-03     78.1639E-03         7.35247         1.43133        -7.81323     818.137E-03        -1.27890         1.43133        -7.97858     651.231E-03    -324.925E-03    -329.345E-03    -317.030E-03     640.146E-03    -326.154E-03     205.998E-03     66.0571E+06     43.4416E+06    -29.1142E+06    -25.3555E+06     39.9097E+06     65.8304E+06     7.86495E+06         81.6653
             737     9.35447E-03     77.9121E-03         10.5880         1.51604        -12.3928        -1.02656    -778.179E-03         1.51604         2.95616     649.501E-03    -324.320E-03    -329.059E-03    -316.398E-03     641.579E-03    -329.059E-03     174.624E-03     60.1249E+06     43.5667E+06    -35.6543E+06    -28.9671E+06     37.1063E+06     59.8982E+06     16.9860E+06         79.2185
             738     8.63025E-03     77.6858E-03         10.4984         1.70405        -11.5178        -1.67609     656.663E-03         1.70405         4.47091     650.872E-03    -324.096E-03    -329.247E-03    -317.903E-03     644.678E-03    -329.247E-03     154.413E-03     46.3696E+06     27.8130E+06    -41.9426E+06    -34.2814E+06     24.5139E+06     42.0075E+06     22.0967E+06         77.6923
             739     7.90276E-03     77.4743E-03         12.5215         1.92922        -12.9437        -1.27932     857.104E-03         1.92922         8.17534     653.941E-03    -324.843E-03    -328.902E-03    -320.172E-03     649.269E-03    -328.902E-03     134.484E-03     24.0274E+06     7.23228E+06    -54.3618E+06    -45.4233E+06     7.04783E+06     15.2732E+06     21.7003E+06         76.8035
             740     7.18013E-03     77.3056E-03         16.6453         2.05500        -16.2649     780.435E-03    -400.023E-03         2.05500     464.191E-03     652.301E-03    -325.806E-03    -328.904E-03    -322.345E-03     648.829E-03    -328.895E-03     115.949E-03     29.2347E+03    -17.2306E+06    -70.1460E+06    -59.1576E+06    -12.7982E+06    -15.3914E+06     17.4978E+06         76.3748
             741     6.46250E-03     77.1837E-03         14.4969         2.08589        -13.7293         1.07375    -306.130E-03         2.08589        -5.18517     650.398E-03    -326.897E-03    -328.622E-03    -324.557E-03     647.858E-03    -328.421E-03     99.2111E-03    -22.9545E+06    -45.4922E+06    -87.8536E+06    -75.7624E+06    -35.0457E+06    -45.4922E+06     11.7174E+06         76.2746
             742     5.73972E-03     77.0922E-03         8.26286         2.15066        -8.14470    -414.058E-03     441.183E-03         2.24170         6.61938     650.931E-03    -325.312E-03    -329.806E-03    -323.748E-03     649.176E-03    -329.615E-03     82.1051E-03    -46.4500E+06    -71.7131E+06    -102.655E+06    -91.9153E+06    -57.1900E+06    -71.7131E+06     5.09815E+06         76.1927
             743     5.02061E-03     77.0331E-03         10.5944         2.39187        -10.8126     841.665E-03        -1.15084         2.48290         12.4132     651.518E-03    -323.835E-03    -330.633E-03    -322.762E-03     650.445E-03    -330.633E-03     63.9483E-03    -66.1373E+06    -93.5109E+06    -116.591E+06    -106.950E+06    -75.7784E+06    -93.5109E+06    -28.0532E+03         75.9433
             744     4.30325E-03     76.9985E-03         14.7303         2.64798        -15.0085         1.73143        -2.00962         2.64798         4.43690     654.184E-03    -324.385E-03    -330.222E-03    -323.811E-03     653.610E-03    -330.222E-03     46.4814E-03    -83.5978E+06    -110.563E+06    -128.227E+06    -120.114E+06    -91.7115E+06    -110.563E+06    -3.84921E+06         75.5611
             745     3.58595E-03     76.9903E-03         12.7124         2.79402        -12.5078         2.00692        -1.80226         2.79402        -1.77307     656.441E-03    -326.483E-03    -330.208E-03    -326.224E-03     656.182E-03    -330.208E-03     31.1378E-03    -100.059E+06    -123.792E+06    -135.696E+06    -130.612E+06    -105.143E+06    -123.792E+06    -5.68851E+06         75.1261
             746     2.86821E-03     77.0034E-03         12.2725         2.92252        -11.9938         2.69029        -2.41157         2.92252         12.9968     656.584E-03    -328.206E-03    -330.710E-03    -328.109E-03     656.488E-03    -330.710E-03     18.5563E-03    -112.153E+06    -134.825E+06    -142.866E+06    -139.146E+06    -115.872E+06    -134.825E+06    -6.43683E+06         74.6967
             747     2.15146E-03     77.0270E-03         10.9118         2.70498        -9.85811         4.38174        -3.32805         2.70498     765.985E-03     658.503E-03    -328.773E-03    -330.846E-03    -328.749E-03     658.479E-03    -330.846E-03     9.10025E-03    -120.553E+06    -143.244E+06    -149.265E+06    -146.003E+06    -123.814E+06    -143.244E+06    -5.87880E+06         74.3133
             748     1.43376E-03     77.0544E-03         10.6934         1.32786        -9.47018         5.74489        -4.52172         1.32786         8.05573     660.318E-03    -329.555E-03    -330.716E-03    -329.601E-03     660.313E-03    -330.665E-03     3.71524E-03    -127.385E+06    -146.723E+06    -153.759E+06    -149.500E+06    -129.337E+06    -149.030E+06    -4.33123E+06         74.0156
             749     716.691E-06     77.0791E-03         35.4837        -1.37681        -35.1527         1.75512        -1.42412        -1.37681         67.8339     661.141E-03    -330.341E-03    -331.929E-03    -331.242E-03     661.140E-03    -331.027E-03     1.24237E-03    -130.545E+06    -150.421E+06    -162.119E+06    -154.247E+06    -136.110E+06    -152.728E+06    -2.73859E+06         73.8290
             750     12.2601E-03     77.4220E-03         8.46368         1.55416        -8.02706         1.91073        -1.47411         1.55416         13.3118     669.450E-03    -325.824E-03    -343.059E-03    -322.806E-03     649.197E-03    -325.824E-03     280.729E-03     83.7779E+06     51.9945E+06    -12.8518E+06    -6.06040E+06     45.2031E+06     83.7779E+06     605.677E+03         93.8455
             751     11.5333E-03     76.9031E-03         6.66682         1.45112        -6.07160         2.83625        -2.24103         1.45112         2.02163     668.905E-03    -326.624E-03    -343.925E-03    -324.838E-03     649.819E-03    -326.624E-03     270.975E-03     78.6718E+06     49.5178E+06    -14.2274E+06    -7.38976E+06     42.6802E+06     78.6718E+06     5.46020E+06         89.9945
             752     10.7910E-03     76.5709E-03         4.83476         1.26185        -5.04276         3.41779        -3.62580         1.26185        -3.33928     658.448E-03    -327.760E-03    -334.114E-03    -322.076E-03     646.410E-03    -327.760E-03     217.202E-03     69.0623E+06     38.5133E+06    -15.9115E+06    -14.3702E+06     36.9720E+06     69.0623E+06     8.06306E+06         85.8052
             753     10.0783E-03     76.2001E-03         6.73382         1.00391        -6.76741         3.54563        -3.57921         1.00391        -1.91437     657.595E-03    -328.699E-03    -332.512E-03    -322.472E-03     647.575E-03    -328.720E-03     197.236E-03     57.4097E+06     33.6330E+06    -28.5234E+06    -24.1975E+06     29.3071E+06     57.4097E+06     9.04931E+06         82.3537
             754     9.33442E-03     75.9426E-03         12.4173     765.340E-03        -11.9732         1.52168        -1.07756     765.340E-03         12.0867     656.867E-03    -327.942E-03    -331.505E-03    -320.642E-03     649.567E-03    -331.505E-03     168.658E-03     50.2212E+06     25.7409E+06    -38.0606E+06    -32.4537E+06     20.1340E+06     50.2212E+06     12.3527E+06         79.9026
             755     8.61640E-03     75.7142E-03         12.1745     554.849E-03        -12.4598     978.821E-03        -1.26407     554.849E-03         8.33238     658.908E-03    -327.972E-03    -332.037E-03    -322.434E-03     653.267E-03    -331.934E-03     148.345E-03     47.6699E+06     21.3877E+06    -44.9443E+06    -38.4518E+06     14.8952E+06     47.6699E+06     19.1694E+06         78.3226
             756     7.89382E-03     75.5242E-03         16.6549     227.273E-03        -16.3540         2.29116        -1.99020     227.273E-03         16.9422     658.707E-03    -328.704E-03    -330.440E-03    -324.616E-03     654.448E-03    -330.268E-03     129.177E-03     42.2730E+06     19.7046E+06    -53.3491E+06    -41.3833E+06     7.73876E+06     42.2730E+06     26.6089E+06         77.3083
             757     7.17180E-03     75.3678E-03         19.3328    -92.0798E-03        -18.2047    -197.786E-03         1.32586    -92.0798E-03         10.9312     657.040E-03    -327.300E-03    -329.318E-03    -324.131E-03     653.802E-03    -329.249E-03     112.407E-03     30.0148E+06     15.1977E+06    -63.7943E+06    -46.0191E+06    -1.57232E+06     29.0097E+06     32.8155E+06         76.6901
             758     6.45527E-03     75.2441E-03         16.1811    -126.358E-03        -14.3973        -2.92314         4.70701    -126.358E-03         3.64265     654.513E-03    -328.373E-03    -329.799E-03    -326.220E-03     652.168E-03    -329.608E-03     95.5092E-03     13.4296E+06     2.01721E+06    -74.3299E+06    -52.2880E+06    -15.4035E+06     8.80841E+06     35.3522E+06         76.4563
             759     5.73801E-03     75.1494E-03         13.3341     36.6328E-03        -10.2808        -2.42014         5.47344     36.6328E-03         11.4869     652.868E-03    -327.339E-03    -330.190E-03    -325.958E-03     651.296E-03    -329.999E-03     77.9087E-03    -8.89591E+06    -18.2671E+06    -84.5307E+06    -61.5571E+06    -34.1991E+06    -15.9375E+06     33.5875E+06         76.4308
             760     5.01854E-03     75.0866E-03         13.0760     88.0339E-03        -8.73834     57.5817E-03         4.28006     88.0339E-03         9.29194     653.411E-03    -325.670E-03    -330.812E-03    -324.716E-03     652.457E-03    -330.812E-03     60.5326E-03    -32.0849E+06    -41.3852E+06    -94.8327E+06    -72.8671E+06    -54.0506E+06    -41.3852E+06     28.9916E+06         76.3228
             761     4.30171E-03     75.0520E-03         14.9430    -193.601E-03        -9.74250         2.49477         2.70572    -193.601E-03         5.89542     654.703E-03    -325.689E-03    -331.237E-03    -325.172E-03     654.187E-03    -331.237E-03     44.2396E-03    -54.2808E+06    -64.5165E+06    -104.158E+06    -84.4269E+06    -74.0114E+06    -64.5165E+06     23.3028E+06         76.0224
             762     3.58375E-03     75.0454E-03         11.6759     294.418E-03        -6.69601         1.66165         4.27991    -667.229E-03        -1.38399     657.069E-03    -326.738E-03    -331.011E-03    -326.506E-03     656.837E-03    -331.011E-03     29.4464E-03    -74.7229E+06    -83.8420E+06    -112.809E+06    -95.5038E+06    -92.0286E+06    -83.8420E+06     16.9228E+06         75.5994
             763     2.86686E-03     75.0544E-03         10.7565         1.28641        -6.97526    -186.479E-03         6.23480    -980.651E-03         11.9141     659.085E-03    -328.648E-03    -331.128E-03    -328.567E-03     659.004E-03    -331.128E-03     16.8829E-03    -92.6588E+06    -98.9966E+06    -120.455E+06    -105.699E+06    -107.415E+06    -98.9966E+06     11.9251E+06         75.1474
             764     2.14914E-03     75.0792E-03         10.5669     752.634E-03        -9.18542        -3.42799         6.11492    -552.779E-03     637.543E-03     660.404E-03    -329.904E-03    -331.126E-03    -329.901E-03     660.386E-03    -331.111E-03     7.62529E-03    -106.618E+06    -110.415E+06    -127.508E+06    -113.920E+06    -120.206E+06    -110.415E+06     7.10381E+06         74.7414
             765     1.43255E-03     75.1071E-03         9.11638         2.00898        -11.5626        -6.13929         3.69302         2.00898         3.41416     661.529E-03    -330.621E-03    -331.478E-03    -330.805E-03     661.527E-03    -331.292E-03     2.58109E-03    -114.165E+06    -119.019E+06    -136.334E+06    -121.421E+06    -129.078E+06    -119.019E+06     4.20964E+06         74.4341
             766     715.984E-06     75.1299E-03         30.6471    -805.356E-03        -30.3132         8.92105        -8.58712    -805.356E-03         44.9557     663.394E-03    -332.181E-03    -333.090E-03    -332.352E-03     663.394E-03    -332.919E-03    -14.7037E-06    -118.270E+06    -124.519E+06    -138.421E+06    -122.584E+06    -134.537E+06    -124.088E+06     2.56608E+06         74.2481
             767     12.2214E-03     75.4868E-03         9.10843     841.204E-03        -9.09478        -2.39232         2.40596     841.204E-03         11.6692     675.852E-03    -329.881E-03    -349.503E-03    -331.215E-03     657.563E-03    -329.881E-03     268.395E-03     82.1209E+06     46.7649E+06    -10.5148E+06    -4.24553E+06     40.4956E+06     82.1209E+06     1.96494E+06         94.4245
             768     11.5130E-03     74.9382E-03         4.84419     641.372E-03        -5.24845     421.628E-03    -825.889E-03     641.372E-03         1.98915     675.759E-03    -330.975E-03    -348.421E-03    -330.937E-03     658.275E-03    -330.975E-03     261.024E-03     70.6242E+06     41.0458E+06    -19.2805E+06    -12.3280E+06     34.0933E+06     70.6242E+06     3.51103E+06         90.6060
             769     10.7782E-03     74.6006E-03         4.10686     316.321E-03        -3.73139         2.02450        -1.64904     316.321E-03    -728.706E-03     666.766E-03    -330.724E-03    -336.278E-03    -325.253E-03     655.740E-03    -330.724E-03     209.113E-03     64.8762E+06     30.6867E+06    -18.2860E+06    -16.3931E+06     28.7937E+06     64.8762E+06     7.55391E+06         86.4335
             770     10.0693E-03     74.2646E-03         7.34292    -23.1205E-03        -6.00539         1.28568     51.8473E-03    -23.1205E-03         6.26652     664.379E-03    -330.841E-03    -335.139E-03    -325.903E-03     655.146E-03    -330.844E-03     190.396E-03     59.1784E+06     28.4849E+06    -24.1115E+06    -19.5371E+06     23.9104E+06     59.1784E+06     13.3133E+06         82.9585
             771     9.32064E-03     74.0048E-03         9.89166    -325.220E-03        -7.94364         1.56935     378.671E-03    -325.220E-03         12.9423     662.093E-03    -329.808E-03    -333.677E-03    -324.122E-03     655.232E-03    -332.502E-03     164.314E-03     47.9624E+06     23.3789E+06    -31.8962E+06    -24.5944E+06     16.0772E+06     47.9624E+06     16.8523E+06         80.4112
             772     8.60788E-03     73.7731E-03         10.6765    -669.822E-03        -9.50132         3.27256        -2.09738    -669.822E-03        -5.72220     663.900E-03    -330.798E-03    -333.923E-03    -325.497E-03     658.496E-03    -333.820E-03     145.808E-03     38.2256E+06     14.5053E+06    -39.7389E+06    -30.8942E+06     5.66062E+06     38.2256E+06     18.7700E+06         78.7122
             773     7.88854E-03     73.5701E-03         16.8710        -1.05200        -16.8782         2.91055        -2.91776        -1.05200         11.7616     660.701E-03    -331.106E-03    -332.109E-03    -327.666E-03     656.588E-03    -331.436E-03     127.316E-03     32.3535E+06     8.16809E+06    -48.6846E+06    -38.2608E+06    -2.25567E+06     32.3535E+06     21.3539E+06         77.6318
             774     7.16800E-03     73.3709E-03         16.5987        -1.23356        -16.8791    -722.597E-03     442.271E-03        -1.23356         11.1368     659.702E-03    -328.594E-03    -329.791E-03    -326.023E-03     656.560E-03    -329.221E-03     110.950E-03     29.0478E+06     6.07758E+06    -56.7352E+06    -42.6934E+06    -7.96417E+06     29.0478E+06     25.6888E+06         76.9102
             775     6.45320E-03     73.2428E-03         11.6993        -1.20108        -10.5990        -1.32807         2.42841        -1.20108        -7.74438     657.889E-03    -329.000E-03    -330.173E-03    -326.740E-03     655.629E-03    -330.173E-03     93.9968E-03     23.4666E+06     6.36379E+06    -66.5603E+06    -46.8829E+06    -13.3136E+06     23.4666E+06     31.5517E+06         76.5218
             776     5.73479E-03     73.1491E-03         10.4148        -1.30885        -6.91086         1.12944         2.37448        -1.30885         2.28688     653.890E-03    -328.611E-03    -330.084E-03    -327.060E-03     652.338E-03    -330.084E-03     77.6185E-03     14.3019E+06     1.73761E+06    -74.5881E+06    -50.2916E+06    -21.5984E+06     13.3414E+06     35.3513E+06         76.4478
             777     5.01795E-03     73.0821E-03         10.3252        -1.46317        -5.59385        -1.21741         5.94879        -1.46317         5.44171     653.955E-03    -327.303E-03    -330.291E-03    -326.334E-03     652.986E-03    -330.291E-03     61.0417E-03     919.264E+03    -7.30171E+06    -82.6838E+06    -54.2088E+06    -32.8148E+06    -2.04267E+06     37.1830E+06         76.4238
             778     4.29831E-03     73.0480E-03         13.9869        -1.39093        -8.41228        -2.39595         7.97052        -1.39093        -6.23604     654.496E-03    -326.755E-03    -331.164E-03    -326.244E-03     653.985E-03    -331.164E-03     43.9526E-03    -15.5966E+06    -22.1880E+06    -90.8270E+06    -60.5481E+06    -46.5995E+06    -21.4641E+06     36.1771E+06         76.2239
             779     3.58129E-03     73.0378E-03         12.5051    -676.747E-03        -7.16835         1.70446         4.59392        -1.63839        -7.69400     656.356E-03    -327.469E-03    -331.596E-03    -327.249E-03     656.137E-03    -331.596E-03     28.5414E-03    -32.4389E+06    -41.5986E+06    -98.3900E+06    -68.0663E+06    -62.7626E+06    -41.5986E+06     32.3469E+06         75.8644
             780     2.86504E-03     73.0475E-03         10.8878    -164.119E-03        -7.30207         1.22059         4.63219        -2.43118         12.2039     659.831E-03    -328.939E-03    -331.533E-03    -328.867E-03     659.759E-03    -331.533E-03     15.8163E-03    -49.9068E+06    -59.4717E+06    -104.308E+06    -75.3176E+06    -78.8969E+06    -59.4717E+06     26.6701E+06         75.4447
             781     2.14881E-03     73.0697E-03         15.1686        -1.26611        -12.9374        -4.51032         8.04690        -2.57152        -2.42464     662.154E-03    -330.617E-03    -331.606E-03    -330.779E-03     662.141E-03    -331.431E-03     6.36794E-03    -66.5372E+06    -73.8674E+06    -108.864E+06    -82.0524E+06    -93.3485E+06    -73.8674E+06     20.0639E+06         75.0488
             782     1.43231E-03     73.0966E-03         13.9651    -564.138E-03        -15.0511        -7.25513         6.16918    -564.138E-03        -11.8331     663.472E-03    -331.594E-03    -332.180E-03    -332.179E-03     663.471E-03    -331.594E-03     1.12831E-03    -78.4772E+06    -84.3476E+06    -112.454E+06    -86.8596E+06    -104.072E+06    -84.3476E+06     13.3746E+06         74.7358
             783     716.130E-06     73.1229E-03         25.2980        -6.27436        -20.8056         8.65772        -4.16531        -6.27436        -15.4158     664.293E-03    -332.400E-03    -332.864E-03    -332.811E-03     664.293E-03    -332.452E-03    -232.267E-06    -87.0172E+06    -92.4580E+06    -114.381E+06    -90.6092E+06    -111.220E+06    -92.0269E+06     6.31569E+06         74.5371
             784     12.2061E-03     73.5417E-03         9.62396    -202.424E-03        -12.4785    -766.153E-03        -2.08842    -202.424E-03         6.52727     683.394E-03    -331.857E-03    -353.193E-03    -336.323E-03     666.524E-03    -331.857E-03     259.132E-03     79.1247E+06     41.4691E+06    -8.99938E+06    -3.68940E+06     36.1591E+06     79.1247E+06     3.51157E+06         94.9144
             785     11.5034E-03     73.0003E-03         4.55446    -349.158E-03        -7.12151    -846.558E-03        -1.72049    -349.158E-03        -4.72042     682.115E-03    -332.494E-03    -351.624E-03    -335.244E-03     665.735E-03    -332.494E-03     254.250E-03     68.4886E+06     36.5552E+06    -15.1181E+06    -7.76588E+06     29.2030E+06     68.4886E+06     6.23744E+06         91.2323
             786     10.7742E-03     72.6568E-03         5.03835    -480.785E-03        -4.40483     962.124E-03    -328.606E-03    -480.785E-03        -2.70158     671.809E-03    -331.638E-03    -339.147E-03    -328.647E-03     661.310E-03    -331.638E-03     204.978E-03     56.6352E+06     24.9600E+06    -16.8524E+06    -13.7586E+06     21.8662E+06     56.6352E+06     8.14005E+06         87.1663
             787     10.0679E-03     72.2705E-03         8.82122    -569.023E-03        -5.71097     711.933E-03         2.39831    -569.023E-03         3.40038     668.137E-03    -331.210E-03    -338.352E-03    -329.507E-03     659.292E-03    -331.210E-03     187.082E-03     49.0542E+06     18.2024E+06    -23.0992E+06    -19.2767E+06     14.3799E+06     49.0542E+06     9.58547E+06         83.6269
             788     9.31236E-03     72.0067E-03         10.3750    -530.587E-03        -7.84172    -984.333E-03         3.51764    -530.587E-03    -122.620E-03     664.371E-03    -330.521E-03    -335.134E-03    -327.147E-03     657.784E-03    -331.922E-03     161.459E-03     43.1997E+06     15.0028E+06    -29.5201E+06    -22.5713E+06     8.05391E+06     43.1997E+06     13.9064E+06         80.8640
             789     8.60091E-03     71.7729E-03         11.7569    -381.617E-03        -9.90445    -956.505E-03         2.80893    -381.617E-03        -21.1819     665.957E-03    -332.186E-03    -333.976E-03    -326.926E-03     660.696E-03    -333.976E-03     144.180E-03     35.5091E+06     12.4190E+06    -35.2018E+06    -25.9212E+06     3.13840E+06     35.5091E+06     18.3144E+06         78.9637
             790     7.88489E-03     71.5771E-03         14.8330    -121.038E-03        -14.9752        -2.07770         1.93549    -121.038E-03         4.72456     661.608E-03    -331.801E-03    -332.930E-03    -328.465E-03     657.532E-03    -332.190E-03     126.879E-03     27.3476E+06     8.17915E+06    -40.1539E+06    -28.2177E+06    -3.75702E+06     27.3476E+06     20.4477E+06         77.7915
             791     7.16516E-03     71.4173E-03         13.0958     194.800E-03        -14.5900        -1.00048    -493.640E-03     194.800E-03         6.93986     660.798E-03    -329.398E-03    -330.824E-03    -326.996E-03     657.656E-03    -330.084E-03     111.095E-03     20.5489E+06     3.32133E+06    -46.7653E+06    -32.7932E+06    -10.6508E+06     20.5489E+06     22.0415E+06         77.0467
             792     6.44875E-03     71.2887E-03         9.03716     256.669E-03        -10.5568         2.81321        -4.33286     256.669E-03        -17.2132     660.240E-03    -329.611E-03    -330.444E-03    -327.331E-03     657.961E-03    -330.444E-03     94.5680E-03     16.2808E+06     216.734E+03    -52.8491E+06    -36.6756E+06    -15.9568E+06     16.2808E+06     23.4291E+06         76.5860
             793     5.73387E-03     71.1936E-03         10.4699     234.663E-06        -11.6768         3.49051        -4.69741     234.663E-06         4.26297     655.970E-03    -329.346E-03    -330.149E-03    -327.775E-03     654.400E-03    -330.149E-03     78.1787E-03     12.5457E+06    -2.14769E+06    -58.2653E+06    -39.8928E+06    -20.5201E+06     12.5457E+06     25.3716E+06         76.4208
             794     5.01372E-03     71.1298E-03         11.4096    -282.624E-03        -11.2849         1.62956        -1.50493    -282.624E-03         13.8485     654.627E-03    -328.036E-03    -330.729E-03    -327.073E-03     653.663E-03    -330.729E-03     60.8643E-03     7.42440E+06    -3.69986E+06    -63.0776E+06     -42.511E+06    -24.2664E+06     7.42440E+06     27.8845E+06         76.4207
             795     4.29570E-03     71.0917E-03         14.2781    -611.283E-03        -13.0810         2.16268    -965.542E-03    -611.283E-03        -14.0181     654.849E-03    -327.193E-03    -331.522E-03    -326.698E-03     654.355E-03    -331.522E-03     43.2137E-03    -283.675E+03    -6.03689E+06    -68.5378E+06     -44.643E+06    -29.3880E+06    -827.306E+03     30.1780E+06         76.3126
             796     3.57963E-03     71.0795E-03         13.7929        -1.16448        -12.2688         2.15289    -628.799E-03        -1.16448        -8.92977     657.097E-03    -327.968E-03    -332.197E-03    -327.754E-03     656.883E-03    -332.197E-03     28.3069E-03    -9.72064E+06    -14.1913E+06    -72.8654E+06    -47.3714E+06    -36.7661E+06    -12.6399E+06     30.1049E+06         76.0230
             797     2.86478E-03     71.0901E-03         10.9302        -1.79597        -9.68294     580.191E-03     667.015E-03        -1.79597         17.7718     660.775E-03    -329.492E-03    -332.474E-03    -329.417E-03     660.700E-03    -332.474E-03     16.1263E-03    -19.8441E+06    -26.7478E+06    -76.5583E+06    -50.6744E+06    -46.0507E+06    -26.4251E+06     27.8552E+06         75.6541
             798     2.14915E-03     71.1128E-03         14.1771        -2.97468        -11.8076         2.34946     20.0595E-03        -2.97468     804.247E-03     663.542E-03    -331.112E-03    -332.752E-03    -331.257E-03     663.526E-03    -332.592E-03     7.04008E-03    -31.5357E+06    -39.8332E+06    -78.4120E+06    -54.1028E+06    -55.8449E+06    -39.8332E+06     23.0485E+06         75.2950
             799     1.43322E-03     71.1405E-03         12.9078        -3.21371        -12.2825         1.41186         1.56040        -5.56065        -13.5265     665.353E-03    -332.158E-03    -333.138E-03    -332.555E-03     665.350E-03    -332.739E-03     2.08309E-03    -43.6725E+06    -50.8256E+06    -78.3492E+06    -57.8735E+06    -64.1481E+06    -50.8256E+06     16.7939E+06         74.9982
             800     716.590E-06     71.1696E-03         23.5117    -594.803E-03        -29.9895         8.33719         7.19451        -22.6042        -26.0151     666.073E-03    -332.274E-03    -333.234E-03    -332.514E-03     666.072E-03    -332.994E-03     1.05644E-03    -53.8339E+06    -59.4817E+06    -78.9054E+06    -60.9496E+06    -72.1783E+06    -59.0930E+06     9.55462E+06         74.8001
             801     12.1992E-03     71.5890E-03         9.12418    -428.236E-03        -11.2396         2.35128        -4.46673    -428.236E-03         3.83656     689.034E-03    -332.433E-03    -356.575E-03    -340.473E-03     672.931E-03    -332.433E-03     254.323E-03     68.9067E+06     33.5377E+06    -10.7140E+06    -5.34516E+06     28.1689E+06     68.9067E+06     1.75749E+06         95.3085
             802     11.4974E-03     71.0007E-03         5.15363    -434.982E-03        -6.10777     468.656E-03        -1.42280    -434.982E-03        -5.35630     685.868E-03    -332.732E-03    -354.907E-03    -339.164E-03     670.124E-03    -332.732E-03     250.347E-03     59.2009E+06     29.8079E+06    -16.9199E+06    -9.36776E+06     22.2558E+06     59.2009E+06     4.43792E+06         91.6768
             803     10.7721E-03     70.6579E-03         4.39660    -274.021E-03        -5.78721        -2.61738         1.22677    -274.021E-03        -2.67991     673.334E-03    -331.134E-03    -342.379E-03    -332.076E-03     663.031E-03    -331.134E-03     203.544E-03     51.9213E+06     21.1925E+06    -16.0954E+06    -11.3248E+06     16.4220E+06     51.9213E+06     8.01204E+06         87.6508
             804     10.0670E-03     70.3174E-03         7.49955     16.4435E-03        -8.52043        -2.54197         1.52110     16.4435E-03         3.83034     670.021E-03    -331.105E-03    -340.867E-03    -332.110E-03     661.263E-03    -331.105E-03     186.523E-03     42.8387E+06     16.4739E+06    -19.4976E+06    -13.7027E+06     10.6790E+06     42.8387E+06     11.1340E+06         84.0551
             805     9.30874E-03     70.0496E-03         9.64397     300.506E-03        -9.43227        -1.27382         1.48552     300.506E-03        -1.20675     665.384E-03    -331.320E-03    -336.488E-03    -329.644E-03     658.902E-03    -331.681E-03     160.474E-03     33.2439E+06     10.2906E+06    -25.1211E+06    -18.2386E+06     3.40808E+06     33.2439E+06     11.9518E+06         81.1469
             806     8.59523E-03     69.8128E-03         9.69872     618.436E-03        -10.2872        -2.94880         2.36028     618.436E-03        -18.8331     665.936E-03    -332.860E-03    -333.329E-03    -327.656E-03     660.732E-03    -333.329E-03     143.486E-03     27.1496E+06     5.67466E+06    -29.0561E+06    -21.2040E+06    -2.17740E+06     27.1496E+06     13.3810E+06         79.1041
             807     7.88033E-03     69.6190E-03         12.1899     966.601E-03        -12.7026        -2.06982         1.55710     966.601E-03         5.73914     662.170E-03    -332.522E-03    -333.160E-03    -328.701E-03     658.110E-03    -332.921E-03     126.667E-03     21.1310E+06     3.72586E+06    -33.6420E+06    -24.1077E+06    -5.80848E+06     21.1310E+06     15.7787E+06         77.8545
             808     7.15910E-03     69.4613E-03         13.0084         1.06659        -13.4692         1.92074        -2.38154         1.06659         3.99525     661.380E-03    -330.471E-03    -331.360E-03    -327.578E-03     658.249E-03    -331.120E-03     110.956E-03     14.9553E+06     2.49816E+06    -37.0132E+06    -24.8408E+06    -9.67428E+06     14.9553E+06     17.3922E+06         77.1044
             809     6.44480E-03     69.3295E-03         8.81034     841.125E-03        -10.1624         3.43355        -4.78563     841.125E-03        -11.7376     661.963E-03    -329.714E-03    -330.187E-03    -327.451E-03     659.700E-03    -330.187E-03     94.2742E-03     9.33242E+06     969.170E+03    -39.8401E+06    -25.4662E+06    -13.4047E+06     9.33242E+06     18.4247E+06         76.6251
             810     5.72798E-03     69.2352E-03         13.6555     629.402E-03        -15.9947     999.618E-03        -3.33882     629.402E-03         20.8877     657.949E-03    -329.793E-03    -330.303E-03    -328.377E-03     656.389E-03    -330.160E-03     78.0395E-03     5.21013E+06    -1.77289E+06    -41.2769E+06    -26.3330E+06    -16.7168E+06     5.21013E+06     17.9907E+06         76.4063
             811     5.01222E-03     69.1696E-03         15.6579     385.118E-03        -18.1691         3.06556        -5.57674     385.118E-03         15.9217     654.353E-03    -328.645E-03    -331.162E-03    -327.817E-03     653.381E-03    -331.019E-03     61.1573E-03     1.61120E+06    -5.05289E+06    -42.9301E+06    -27.9850E+06    -19.9980E+06     1.61120E+06     17.8021E+06         76.4119
             812     4.29331E-03     69.1325E-03         12.4328    -316.101E-03        -14.7242         5.60741        -7.89883    -316.101E-03        -9.12084     654.399E-03    -326.947E-03    -332.036E-03    -326.434E-03     653.885E-03    -332.036E-03     44.0982E-03    -1.16225E+06    -6.73981E+06    -43.6599E+06    -28.8705E+06    -21.5292E+06    -1.16225E+06     17.6535E+06         76.3668
             813     3.57778E-03     69.1240E-03         10.1764    -993.787E-03        -12.9515     790.950E-03        -3.56612    -993.787E-03         4.05769     657.439E-03    -327.448E-03    -332.846E-03    -327.215E-03     657.206E-03    -332.846E-03     29.6521E-03    -4.43395E+06    -7.17384E+06    -43.6465E+06    -28.6234E+06    -22.1969E+06    -4.43395E+06     17.5228E+06         76.1433
             814     2.86302E-03     69.1338E-03         6.48795        -1.46514        -8.09295     869.279E-03        -2.47428        -1.46514         12.1243     661.500E-03    -329.350E-03    -333.272E-03    -329.263E-03     661.414E-03    -333.272E-03     17.5507E-03    -8.29657E+06    -10.0939E+06    -43.5594E+06    -28.7046E+06    -23.6579E+06    -9.58734E+06     17.1124E+06         75.8268
             815     2.14726E-03     69.1561E-03         7.44214        -2.56189        -8.35412         2.18883        -3.10080        -2.56189         1.30325     664.259E-03    -331.159E-03    -333.507E-03    -331.138E-03     664.238E-03    -333.507E-03     8.39506E-03    -11.9467E+06    -15.7037E+06    -42.8806E+06    -29.0624E+06    -25.7649E+06    -15.7037E+06     15.3437E+06         75.5041
             816     1.43113E-03     69.1861E-03         12.6344        -2.46839        -15.0603     795.905E-03    -874.900E-03        -4.81534        -14.9966     666.441E-03    -332.738E-03    -333.792E-03    -332.734E-03     666.437E-03    -333.792E-03     2.92792E-03    -16.7078E+06    -21.9546E+06    -41.0968E+06    -28.9746E+06    -28.8300E+06    -21.9546E+06     11.9461E+06         75.2378
             817     715.439E-06     69.2111E-03         36.1299        -1.62528        -41.8693         22.0293         5.28962        -34.6836         2.04042     667.584E-03    -332.680E-03    -333.833E-03    -333.061E-03     667.583E-03    -333.452E-03     610.225E-06    -22.2334E+06    -27.5366E+06    -38.6704E+06    -28.9609E+06    -32.3315E+06    -27.1480E+06     7.03053E+06         75.0612
             818     12.1923E-03     69.5914E-03         7.81449    -67.1076E-03        -7.37554    -26.7870E-03     465.736E-03    -67.1076E-03         1.21313     692.061E-03    -332.371E-03    -359.862E-03    -344.118E-03     676.317E-03    -332.371E-03     252.262E-03     61.8209E+06     28.9544E+06    -8.03016E+06    -2.92677E+06     23.8510E+06     61.8209E+06     2.83183E+06         95.5807
             819     11.4958E-03     69.0408E-03         6.17844     23.6500E-03        -6.41254     96.1895E-03    -330.291E-03     23.6500E-03    -306.448E-03     687.648E-03    -332.676E-03    -357.323E-03    -341.871E-03     672.196E-03    -332.676E-03     248.705E-03     50.7446E+06     26.4274E+06    -14.5766E+06    -5.88298E+06     17.7338E+06     50.7446E+06     4.83447E+06         91.9343
             820     10.7714E-03     68.6957E-03         5.05286     153.914E-03        -6.38673        -1.69421     360.337E-03     153.914E-03         3.17493     674.049E-03    -330.926E-03    -344.259E-03    -333.968E-03     663.758E-03    -330.926E-03     203.687E-03     39.7121E+06     15.7810E+06    -16.3117E+06    -10.2488E+06     9.71813E+06     39.7121E+06     6.62919E+06         87.8524
             821     10.0644E-03     68.3514E-03         4.73098     317.091E-03        -8.40756        -3.02898    -677.077E-03     346.576E-03         4.71595     670.295E-03    -331.553E-03    -342.033E-03    -333.240E-03     661.502E-03    -331.553E-03     186.992E-03     32.8952E+06     11.7005E+06    -20.5005E+06    -13.7158E+06     4.91587E+06     32.8952E+06     8.31708E+06         84.1934
             822     9.30294E-03     68.0963E-03         5.22887     477.604E-03        -9.38501        -1.63743        -2.54821     507.089E-03         8.30636     665.889E-03    -331.766E-03    -337.587E-03    -331.123E-03     659.431E-03    -331.772E-03     160.319E-03     26.8127E+06     10.0505E+06    -22.6912E+06    -14.1201E+06     1.47942E+06     26.8127E+06     10.5356E+06         81.2481
             823     8.58917E-03     67.8587E-03         5.18075     612.035E-03        -7.54276        -1.72528    -636.739E-03     612.035E-03        -3.82194     666.304E-03    -332.647E-03    -333.232E-03    -327.717E-03     661.137E-03    -332.995E-03     143.023E-03     19.4827E+06     4.69217E+06    -22.9384E+06    -15.5916E+06    -2.65459E+06     19.4827E+06     11.5136E+06         79.1785
             824     7.87545E-03     67.6607E-03         7.13837     624.616E-03        -7.38868     502.959E-03    -753.270E-03     624.616E-03         2.31774     663.672E-03    -333.103E-03    -333.761E-03    -329.057E-03     659.627E-03    -333.761E-03     126.562E-03     13.6317E+06     1.63101E+06    -24.1554E+06    -15.9237E+06    -6.60071E+06     13.6317E+06     11.3829E+06         77.9063
             825     7.15589E-03     67.4980E-03         8.63123     396.351E-03        -7.66201         3.42877        -2.45955     396.351E-03     309.769E-03     662.494E-03    -331.450E-03    -332.151E-03    -328.535E-03     659.363E-03    -331.934E-03     111.100E-03     9.18524E+06     1.13752E+06    -26.2763E+06    -16.5480E+06    -8.59078E+06     9.18524E+06     11.8080E+06         77.1517
             826     6.43991E-03     67.3728E-03         7.14474     232.553E-03        -6.51063    -375.155E-03         1.00927     232.553E-03        -5.58607     662.938E-03    -329.691E-03    -330.159E-03    -327.648E-03     660.677E-03    -329.942E-03     94.2843E-03     5.05875E+06     439.915E+03    -27.1119E+06    -16.4959E+06    -10.1760E+06     5.05875E+06     11.5828E+06         76.6640
             827     5.72593E-03     67.2721E-03         9.74294     379.440E-03        -9.92524        -1.50065         1.31835     379.440E-03         12.7155     658.971E-03    -329.955E-03    -330.452E-03    -328.808E-03     657.409E-03    -330.037E-03     78.1894E-03     1.17902E+06    -973.230E+03    -27.2305E+06    -15.9865E+06    -11.9813E+06     943.080E+03     11.4723E+06         76.4144
             828     5.00685E-03     67.2076E-03         14.4687     399.934E-03        -16.2906         1.99224        -3.81421     399.934E-03        -4.86535     653.620E-03    -328.923E-03    -331.180E-03    -328.339E-03     652.622E-03    -330.765E-03     62.1027E-03    -1.47140E+06    -2.97395E+06    -25.7415E+06    -14.8482E+06    -13.1636E+06    -2.17509E+06     10.5073E+06         76.4095
             829     4.28903E-03     67.1740E-03         13.6814     130.128E-03        -16.0056         2.21609        -4.54034     130.128E-03        -4.23430     653.986E-03    -327.047E-03    -332.065E-03    -326.501E-03     653.440E-03    -332.065E-03     45.5278E-03    -3.13496E+06    -5.69265E+06    -23.6323E+06    -13.7438E+06    -14.1154E+06    -4.60072E+06     8.93431E+06         76.3957
             830     3.57426E-03     67.1626E-03         11.3642    -244.339E-03        -12.7110         1.85105        -3.19781    -244.339E-03         7.73385     657.148E-03    -327.044E-03    -333.220E-03    -326.797E-03     656.902E-03    -333.220E-03     30.3445E-03    -3.82624E+06    -6.83681E+06    -21.2897E+06    -12.7750E+06    -13.5295E+06    -5.64831E+06     7.52417E+06         76.2190
             831     2.85937E-03     67.1725E-03         12.1807    -323.228E-03        -15.1928        -1.41160        -1.60045    -323.228E-03         10.2257     660.906E-03    -328.893E-03    -333.605E-03    -328.804E-03     660.817E-03    -333.605E-03     17.8622E-03    -4.75735E+06    -6.32369E+06    -19.0914E+06    -11.8181E+06    -12.2145E+06    -6.13986E+06     6.44767E+06         75.9414
             832     2.14398E-03     67.1951E-03         14.1222     720.177E-03        -20.0793        -4.92448        -1.03264     720.177E-03        -2.98419     664.315E-03    -331.122E-03    -333.801E-03    -331.100E-03     664.292E-03    -333.801E-03     8.80781E-03    -4.93874E+06    -6.48548E+06    -15.8864E+06    -10.0771E+06    -10.7481E+06    -6.48548E+06     4.96327E+06         75.6455
             833     1.43075E-03     67.2232E-03         16.3111         2.26395        -23.7145    -475.923E-03        -6.92740         2.26395        -24.5751     667.161E-03    -333.043E-03    -334.198E-03    -333.038E-03     667.156E-03    -334.198E-03     3.59936E-03    -4.56992E+06    -7.15367E+06    -14.1295E+06    -9.05471E+06    -9.64471E+06    -7.15367E+06     3.69056E+06         75.4020
             834     716.107E-06     67.2528E-03         39.6033        -4.18374        -37.9025         20.7494        -7.99963        -15.2326         32.1723     668.095E-03    -333.428E-03    -334.188E-03    -333.998E-03     668.094E-03    -333.617E-03     528.555E-06    -2.80764E+06    -7.02415E+06    -13.4890E+06    -7.66706E+06    -9.11655E+06    -6.53712E+06     2.01286E+06         75.2429
             835     12.1898E-03     67.6248E-03         8.70805     321.139E-03        -6.82544         1.42678     455.834E-03     321.139E-03        -6.97910     693.915E-03    -332.627E-03    -361.557E-03    -345.895E-03     678.253E-03    -332.627E-03     252.039E-03     48.7923E+06     22.9404E+06    -9.26099E+06    -2.96388E+06     16.6433E+06     48.7923E+06     1.95979E+06         95.7855
             836     11.4909E-03     67.0800E-03         8.60686     335.507E-03        -8.94038         1.25780        -1.59132     335.507E-03         1.93102     689.165E-03    -333.077E-03    -358.189E-03    -342.797E-03     673.773E-03    -333.077E-03     248.567E-03      39.563E+06     20.9081E+06    -17.0775E+06    -7.06361E+06     10.8943E+06      39.563E+06     3.58584E+06         92.1325
             837     10.7693E-03     66.7405E-03         5.17853     379.747E-03        -7.20129    -471.221E-03        -1.55154     379.747E-03         6.31574     675.504E-03    -330.920E-03    -345.782E-03    -335.488E-03     665.210E-03    -330.920E-03     204.018E-03     32.3861E+06     16.0810E+06    -17.0704E+06    -7.84511E+06     6.85569E+06     32.3861E+06     5.59124E+06         88.0115
             838     10.0586E-03     66.3963E-03         3.98884     405.006E-03        -5.84707     964.005E-03        -2.85173     434.492E-03        -5.23463     670.392E-03    -332.028E-03    -342.808E-03    -333.975E-03     661.558E-03    -332.028E-03     187.569E-03     25.3527E+06     12.8417E+06    -17.9856E+06    -8.08140E+06     2.93747E+06     25.3527E+06     7.61644E+06         84.3026
             839     9.29637E-03     66.1208E-03         6.11094     367.350E-03        -8.27538         2.17223        -4.36616     396.836E-03         4.48271     666.054E-03    -331.932E-03    -337.946E-03    -331.508E-03     659.616E-03    -331.932E-03     160.045E-03     18.3447E+06     8.93591E+06    -20.6435E+06    -10.4812E+06    -1.22639E+06     18.3447E+06     7.10197E+06         81.3272
             840     8.58434E-03     65.8969E-03         5.99935     289.179E-03        -6.69047         1.98603        -2.67715     289.179E-03         3.23061     667.280E-03    -332.018E-03    -333.326E-03    -327.586E-03     662.194E-03    -332.672E-03     141.984E-03     13.5241E+06     5.32019E+06    -18.6705E+06    -10.1931E+06    -3.15714E+06     13.5241E+06     7.24271E+06         79.2507
             841     7.87134E-03     65.7039E-03         4.92966     216.583E-03        -4.89160     663.218E-03    -625.149E-03     216.583E-03        -8.03368     664.627E-03    -333.136E-03    -334.002E-03    -329.104E-03     660.594E-03    -334.002E-03     126.440E-03     8.81896E+06     3.12478E+06    -17.7604E+06    -10.3120E+06    -4.32363E+06     8.81896E+06     7.72595E+06         77.9752
             842     7.15268E-03     65.5437E-03         5.67568     325.704E-03        -6.16162        -1.55646         1.07052     325.704E-03    -619.538E-03     662.705E-03    -331.965E-03    -332.448E-03    -329.070E-03     659.538E-03    -332.177E-03     111.796E-03     5.87634E+06     1.99050E+06    -17.9764E+06    -9.26094E+06    -5.88831E+06     5.03970E+06     6.70654E+06         77.2101
             843     6.43788E-03     65.3976E-03         7.16800     743.021E-03        -7.99570        -3.89492         3.06721     743.021E-03        -2.17632     662.535E-03    -329.697E-03    -330.110E-03    -327.647E-03     660.213E-03    -329.838E-03     95.5485E-03     3.22517E+06     100.190E+03    -16.9538E+06    -8.57628E+06    -7.16036E+06     2.10821E+06     6.34855E+06         76.7125
             844     5.72230E-03     65.2980E-03         5.74203         1.36656        -7.40125        -3.33377         1.67454         1.36656        -3.46822     658.782E-03    -329.805E-03    -330.750E-03    -328.997E-03     657.170E-03    -329.946E-03     79.4086E-03     783.244E+03    -752.783E+03    -16.5571E+06    -8.21881E+06    -7.90750E+06    -400.288E+03     5.17540E+06         76.4483
             845     5.00586E-03     65.2304E-03         10.0074         1.99166        -11.6074        -1.76172     161.736E-03         1.99166        -14.5448     653.280E-03    -329.245E-03    -331.396E-03    -329.024E-03     652.255E-03    -330.593E-03     62.9130E-03    -203.818E+03    -1.74028E+06    -13.9095E+06    -6.42480E+06    -7.68848E+06    -1.74028E+06     4.26234E+06         76.4304
             846     4.28469E-03     65.1895E-03         12.6576         2.06743        -13.4659    -184.900E-03        -1.09510         2.53907        -8.42900     654.174E-03    -327.816E-03    -331.955E-03    -327.253E-03     653.612E-03    -331.955E-03     46.2432E-03    -1.30925E+06    -3.06566E+06    -11.3884E+06    -5.30815E+06    -7.38950E+06    -3.06566E+06     3.61599E+06         76.4250
             847     3.57082E-03     65.1784E-03         10.1057         2.26151        -11.7267         2.10031        -4.32476         2.86504        -3.55322     657.402E-03    -327.448E-03    -333.088E-03    -327.194E-03     657.148E-03    -333.088E-03     30.8223E-03    -2.50693E+06    -4.53048E+06    -9.96374E+06    -4.75042E+06    -7.79658E+06    -4.45414E+06     2.37457E+06         76.2710
             848     2.85667E-03     65.1877E-03         17.6347         2.87566        -21.6633         2.35883        -6.51933         3.00755         11.0543     660.504E-03    -328.810E-03    -333.376E-03    -328.720E-03     660.415E-03    -333.376E-03     17.8923E-03    -2.50104E+06    -4.15784E+06    -7.42835E+06    -3.16448E+06    -6.84125E+06    -4.08151E+06     1.12717E+06         76.0143
             849     2.14245E-03     65.2020E-03         29.5655         2.63150        -33.9692         5.29951        -9.70314         2.63150        -12.4545     663.709E-03    -330.842E-03    -333.870E-03    -330.820E-03     663.688E-03    -333.870E-03     8.60544E-03    -2.21078E+06    -3.37461E+06    -5.99792E+06    -2.49858E+06    -5.71012E+06    -3.37461E+06     60.6158E+03         75.7331
             850     1.42712E-03     65.2296E-03         30.7551         1.31417        -33.6042         5.02571        -7.87477         1.31417        -9.77513     667.224E-03    -332.798E-03    -334.645E-03    -332.793E-03     667.219E-03    -334.645E-03     3.61491E-03    -1.41674E+06    -2.76532E+06    -5.53052E+06    -2.04470E+06    -4.97899E+06    -2.68889E+06    -571.872E+03         75.4975
             851     713.463E-06     65.2499E-03         29.0210        -3.01003        -26.1518         4.24060        -1.20843        -3.17296         49.7097     668.833E-03    -333.866E-03    -334.717E-03    -334.054E-03     668.831E-03    -334.527E-03     329.345E-06     1.32656E+06    -2.46475E+06    -6.89365E+06    -1.57426E+06    -4.55629E+06    -1.90129E+06    -799.937E+03         75.3410
             852     12.1840E-03     65.6690E-03         9.40359     847.363E-03        -8.00857         3.55803        -2.16301     847.363E-03        -15.6441     695.097E-03    -332.916E-03    -362.223E-03    -346.631E-03     679.505E-03    -332.916E-03     251.834E-03     39.4274E+06     19.7819E+06    -10.0126E+06    -2.10461E+06     11.8739E+06     39.4274E+06     2.37041E+06         95.9579
             853     11.4885E-03     65.1132E-03         9.30644     849.034E-03        -8.41500         3.76991        -2.87848     849.034E-03     729.237E-03     690.648E-03    -333.595E-03    -358.741E-03    -343.464E-03     675.371E-03    -333.595E-03     247.943E-03     31.3074E+06     21.7262E+06    -17.0578E+06    -2.89826E+06     7.56676E+06     31.3074E+06     3.32794E+06         92.3101
             854     10.7668E-03     64.7778E-03         7.42421     892.296E-03        -8.50837         1.81586        -2.90002     892.296E-03         2.00640     677.341E-03    -330.790E-03    -347.429E-03    -337.235E-03     667.147E-03    -330.790E-03     203.389E-03     24.5940E+06     16.8686E+06    -17.6841E+06    -4.70099E+06     3.99852E+06     24.4810E+06     3.91136E+06         88.1903
             855     10.0572E-03     64.4298E-03         6.25364     986.339E-03        -7.80304         1.08678        -2.63618     986.339E-03        -8.41162     671.580E-03    -332.065E-03    -344.154E-03    -335.345E-03     662.771E-03    -332.065E-03     187.687E-03     19.1255E+06     14.1696E+06    -19.6969E+06    -6.45944E+06     1.15663E+06     18.9010E+06     3.88837E+06         84.4628
             856     9.29171E-03     64.1557E-03         6.68565         1.01731        -5.50939         3.08734        -1.91109         1.01731     280.568E-03     665.889E-03    -332.025E-03    -337.758E-03    -331.254E-03     659.384E-03    -332.025E-03     160.809E-03     14.5602E+06     11.8864E+06    -19.5343E+06    -5.69011E+06    -1.23596E+06     13.8384E+06     4.88870E+06         81.4456
             857     8.57917E-03     63.9115E-03         5.88672     900.775E-03        -4.24588         4.58497        -2.94412     900.775E-03         1.83326     667.730E-03    -331.773E-03    -333.074E-03    -327.321E-03     662.577E-03    -332.374E-03     142.942E-03     10.0581E+06     7.63163E+06    -17.7383E+06    -6.65235E+06    -2.57305E+06     9.17683E+06     4.22855E+06         79.3335
             858     7.86774E-03     63.7144E-03         5.55643     770.181E-03        -5.15401         2.49244        -2.09002     770.181E-03        -4.97145     664.539E-03    -333.230E-03    -334.369E-03    -329.084E-03     660.392E-03    -334.369E-03     128.221E-03     7.59518E+06     4.94602E+06    -14.7365E+06    -5.50797E+06    -3.22150E+06     6.53419E+06     3.07822E+06         78.0421
             859     7.14933E-03     63.5537E-03         7.03428     830.183E-03        -8.66577    -851.844E-03    -779.639E-03     830.183E-03         4.34999     661.939E-03    -332.253E-03    -333.006E-03    -329.042E-03     658.674E-03    -332.952E-03     113.444E-03     5.57409E+06     2.44947E+06    -13.2914E+06    -5.42354E+06    -3.52225E+06     3.67796E+06     3.12098E+06         77.2647
             860     6.43394E-03     63.4300E-03         6.17533         1.03728        -9.69383        -1.59279        -1.94314         1.05471         4.37853     661.865E-03    -329.563E-03    -330.492E-03    -327.241E-03     659.489E-03    -330.438E-03     96.6078E-03     3.54513E+06     1.39375E+06    -12.3618E+06    -4.88478E+06    -3.93192E+06     1.39375E+06     2.07758E+06         76.7627
             861     5.71914E-03     63.3339E-03         6.19761         1.36492        -9.63805        -2.32129        -1.13658         1.38235         5.06301     659.227E-03    -329.511E-03    -331.340E-03    -328.982E-03     657.582E-03    -330.224E-03     80.2153E-03     2.41887E+06     234.165E+03    -10.1188E+06    -3.53689E+06    -4.16306E+06     234.165E+03     1.22316E+06         76.4986
             862     5.00175E-03     63.2673E-03         8.53841         1.91971        -10.6935        -3.24632         1.09128         1.91971     177.665E-03     654.555E-03    -329.651E-03    -331.851E-03    -329.729E-03     653.517E-03    -330.735E-03     63.3776E-03     741.535E+03    -904.707E+03    -9.35826E+06    -3.80780E+06    -4.80892E+06    -904.707E+03     625.792E+03         76.4739
             863     4.28022E-03     63.2242E-03         7.54396         2.18191        -9.04330        -2.32011     349.138E-03         2.65354        -2.85614     654.890E-03    -328.493E-03    -332.018E-03    -327.920E-03     654.317E-03    -332.018E-03     46.7576E-03    -531.031E+03    -1.78412E+06    -7.23235E+06    -3.37122E+06    -5.01328E+06    -1.16300E+06     178.225E+03         76.4662
             864     3.56671E-03     63.2122E-03         6.88905         2.99385        -9.49744        -1.90176        -1.31015         3.59737         6.09115     657.795E-03    -328.132E-03    -332.974E-03    -327.863E-03     657.526E-03    -332.974E-03     31.8234E-03    -1.14553E+06    -2.46046E+06    -5.07152E+06    -2.73252E+06    -4.67431E+06    -1.27068E+06    -157.919E+03         76.3165
             865     2.85442E-03     63.2221E-03         14.0276         3.96321        -15.5168         4.55992        -6.18097         4.09510         5.62979     661.103E-03    -329.467E-03    -333.356E-03    -329.368E-03     661.005E-03    -333.356E-03     18.7032E-03    -1.55839E+06    -2.81813E+06    -4.81693E+06    -2.63039E+06    -4.74087E+06    -1.82218E+06    -316.381E+03         76.0641
             866     2.13984E-03     63.2415E-03         23.3828         2.97282        -23.1881         9.36744        -9.17267         2.97282        -13.2527     664.080E-03    -331.404E-03    -333.889E-03    -331.382E-03     664.058E-03    -333.889E-03     8.38089E-03    -1.89880E+06    -3.07633E+06    -5.59368E+06    -2.58745E+06    -5.48209E+06    -2.49927E+06    -368.612E+03         75.7839
             867     1.42728E-03     63.2613E-03         26.0380     619.346E-03        -25.2697         1.87147        -2.32628         1.84248         4.55019     666.947E-03    -332.801E-03    -334.587E-03    -332.798E-03     666.945E-03    -334.587E-03     1.99851E-03    -1.58809E+06    -2.94726E+06    -6.46663E+06    -2.46000E+06    -5.82092E+06    -2.72106E+06    -354.973E+03         75.5443
             868     713.158E-06     63.2836E-03         26.5911    -711.971E-03        -27.9016         3.03989        -5.41057     348.239E-03         9.75909     668.377E-03    -333.504E-03    -334.631E-03    -333.503E-03     668.376E-03    -334.631E-03    -322.540E-06     316.183E+03    -4.10699E+06    -8.39650E+06    -2.48661E+06    -6.85746E+06    -2.84324E+06     609.453E+03         75.3823
             869     12.1828E-03     63.7073E-03         11.5121     968.433E-03        -11.1369        -1.24057         1.61574     968.433E-03        -11.9768     695.597E-03    -333.413E-03    -363.154E-03    -347.621E-03     680.063E-03    -333.413E-03     251.596E-03     30.5137E+06     17.1700E+06    -11.3865E+06    -1.88539E+06     7.66888E+06     30.5137E+06     399.595E+03         96.1297
             870     11.4850E-03     63.1443E-03         8.21559         1.02166        -8.10292        -1.90979         2.02246         1.02166         4.61112     691.836E-03    -333.881E-03    -359.704E-03    -344.436E-03     676.567E-03    -333.881E-03     248.266E-03     24.5743E+06     20.6562E+06    -18.7163E+06    -3.26621E+06     5.20611E+06     24.5743E+06     2.08105E+06         92.4933
             871     10.7668E-03     62.7944E-03         7.92741         1.01657        -7.49658     760.714E-03    -329.880E-03         1.01657         2.61345     678.894E-03    -330.836E-03    -348.324E-03    -338.104E-03     668.674E-03    -330.836E-03     203.900E-03     20.4468E+06     17.9318E+06    -20.7093E+06    -3.37709E+06     2.07702E+06     18.9694E+06     2.55169E+06         88.3810
             872     10.0554E-03     62.4531E-03         6.78335     955.078E-03        -7.26524    -46.1726E-03    -435.711E-03     955.078E-03         4.60795     671.895E-03    -331.958E-03    -344.795E-03    -335.909E-03     663.009E-03    -331.958E-03     188.699E-03     17.4828E+06     14.4212E+06    -20.3515E+06    -3.22258E+06     353.840E+03     14.4212E+06     2.41960E+06         84.6425
             873     9.28429E-03     62.1938E-03         4.08468     986.261E-03        -5.28806        -1.83827     634.888E-03     986.261E-03         6.19983     665.645E-03    -332.265E-03    -337.415E-03    -330.747E-03     658.977E-03    -332.265E-03     162.755E-03     15.6258E+06     11.2296E+06    -21.0885E+06    -4.57612E+06    -886.582E+03     11.2296E+06     1.58383E+06         81.5893
             874     8.57247E-03     61.9582E-03         4.14016     989.179E-03        -4.32244     945.392E-03        -1.12768     989.179E-03         3.60919     668.006E-03    -331.773E-03    -332.676E-03    -326.830E-03     662.727E-03    -332.340E-03     144.687E-03     12.5605E+06     8.76672E+06    -17.2505E+06    -3.23607E+06    -1.45387E+06     8.76672E+06     1.18076E+06         79.4325
             875     7.86017E-03     61.7677E-03         5.23324     776.156E-03        -4.89915         3.51201        -3.17791     776.156E-03         5.07835     664.238E-03    -333.129E-03    -334.976E-03    -328.840E-03     659.949E-03    -334.976E-03     130.416E-03     8.59188E+06     5.69685E+06    -14.1438E+06    -3.89613E+06    -1.65577E+06     5.69685E+06     1.15951E+06         78.1040
             876     7.14254E-03     61.5971E-03         5.92441     392.930E-03        -6.40160         3.91210        -4.38929     392.930E-03         7.25648     661.481E-03    -332.485E-03    -334.345E-03    -329.093E-03     658.089E-03    -334.345E-03     115.571E-03     6.54596E+06     3.82448E+06    -12.4749E+06    -3.84274E+06    -2.08620E+06     3.82448E+06    -28.6717E+03         77.3041
             877     6.42813E-03     61.4582E-03         5.00071     34.8479E-03        -6.95585         1.55789        -3.53046     52.2787E-03         8.67490     662.128E-03    -329.728E-03    -331.388E-03    -327.301E-03     659.701E-03    -331.388E-03     97.6330E-03     4.36943E+06     2.49513E+06    -10.5802E+06    -3.54953E+06    -2.66125E+06     2.49513E+06    -406.103E+03         76.8038
             878     5.71349E-03     61.3467E-03         5.99874    -97.0157E-03        -8.96682    -412.724E-03        -2.57279    -79.5849E-03         7.50171     660.737E-03    -329.409E-03    -331.519E-03    -328.779E-03     659.076E-03    -330.489E-03     80.6508E-03     2.77818E+06     965.725E+03    -10.0728E+06    -4.11562E+06    -3.17903E+06     965.725E+03    -734.016E+03         76.5438
             879     4.99719E-03     61.2711E-03         5.96807    -127.239E-03        -9.23795     92.8955E-03        -3.36278    -127.239E-03    -738.221E-03     656.551E-03    -329.549E-03    -331.896E-03    -329.529E-03     655.501E-03    -330.866E-03     63.8176E-03     830.171E+03    -339.334E+03    -8.66571E+06    -3.98065E+06    -3.93671E+06    -257.525E+03    -1.02467E+06         76.5115
             880     4.27529E-03     61.2319E-03         4.64564     161.707E-03        -6.72085    -829.337E-03    -962.844E-03    -121.323E-03        -1.13123     655.709E-03    -328.668E-03    -331.967E-03    -328.083E-03     655.124E-03    -331.967E-03     47.2773E-03    -430.048E+03    -1.75305E+06    -6.46132E+06    -3.52827E+06    -4.06602E+06    -1.05012E+06    -997.467E+03         76.5036
             881     3.56283E-03     61.2218E-03         7.18807     472.589E-03        -5.89546    -916.421E-03         2.66424     17.3758E-03         9.16652     657.744E-03    -328.452E-03    -332.731E-03    -328.183E-03     657.475E-03    -332.731E-03     31.7094E-03    -1.41395E+06    -3.07333E+06    -5.24048E+06    -3.49691E+06    -4.53815E+06    -1.69270E+06    -680.882E+03         76.3598
             882     2.85017E-03     61.2325E-03         11.0412     415.613E-03        -8.85590    -628.514E-03         2.98601     243.429E-03        -5.44851     661.244E-03    -329.571E-03    -333.306E-03    -329.476E-03     661.149E-03    -333.306E-03     18.5138E-03    -2.75754E+06    -4.03171E+06    -5.61595E+06    -4.18358E+06    -5.46408E+06    -2.75754E+06    -362.431E+03         76.1122
             883     2.13946E-03     61.2571E-03         16.6964         1.05918        -15.1616        -2.82734         4.36218         1.05918         6.82875     664.166E-03    -331.529E-03    -333.827E-03    -331.505E-03     664.141E-03    -333.827E-03     9.12671E-03    -3.31338E+06    -4.16245E+06    -6.10500E+06    -4.37726E+06    -5.70555E+06    -3.49802E+06    -13.2829E+03         75.8313
             884     1.42691E-03     61.2862E-03         16.0091         2.63335        -15.7107        -4.41238         3.48760         3.85648         15.3763     666.716E-03    -332.900E-03    -334.347E-03    -332.895E-03     666.711E-03    -334.347E-03     3.39204E-03    -2.84304E+06    -4.19703E+06    -7.69594E+06    -4.45745E+06    -6.23130E+06    -4.04725E+06     40.9132E+03         75.5848
             885     713.030E-06     61.3145E-03         26.9062         4.11964        -29.3306         6.72723        -10.3748         5.34278        -39.3672     667.767E-03    -333.219E-03    -334.428E-03    -333.625E-03     667.766E-03    -334.020E-03     1.67206E-03    -1.30549E+06    -5.24945E+06    -9.84996E+06    -4.73881E+06    -7.60396E+06    -4.06213E+06     917.373E+03         75.4173
             886     12.1815E-03     61.7130E-03         11.0039     267.486E-03        -10.2974        -1.99493         2.70150     267.486E-03        -3.25226     695.142E-03    -334.063E-03    -364.005E-03    -348.320E-03     679.457E-03    -334.063E-03     252.777E-03     25.7429E+06     18.9549E+06    -13.5547E+06    -364.728E+03     5.76488E+06     25.7429E+06     789.213E+03         96.3434
             887     11.4841E-03     61.1754E-03         9.07097     149.765E-03        -9.18375        -2.30790         2.19512     149.765E-03         3.12450     692.794E-03    -334.299E-03    -360.141E-03    -344.639E-03     677.292E-03    -334.299E-03     250.353E-03     22.7877E+06     19.0127E+06    -19.8757E+06    -1.63958E+06     3.31455E+06     20.2497E+06     270.776E+03         92.7207
             888     10.7650E-03     60.8463E-03         7.22381     41.2495E-03        -8.78085        -2.21845     661.412E-03     41.2495E-03         1.73793     680.000E-03    -331.284E-03    -348.342E-03    -337.864E-03     669.522E-03    -331.284E-03     206.531E-03     21.8371E+06     15.9404E+06    -22.6653E+06    -2.76108E+06     1.64843E+06     16.2249E+06     500.828E+03         88.6151
             889     10.0547E-03     60.4953E-03         4.86618    -39.0725E-03        -6.45179        -1.74805     162.447E-03    -39.0725E-03         10.0867     671.597E-03    -331.937E-03    -344.914E-03    -335.716E-03     662.398E-03    -331.937E-03     191.985E-03     20.7862E+06     13.4316E+06    -23.0117E+06    -3.59061E+06     1.36510E+06     13.4316E+06    -306.397E+03         84.8647
             890     9.27675E-03     60.2100E-03         2.78254    -55.3286E-03        -5.33439        -2.37534    -176.509E-03    -55.3286E-03         6.09676     665.505E-03    -332.849E-03    -337.800E-03    -330.807E-03     658.594E-03    -332.930E-03     165.634E-03     18.5862E+06     10.7015E+06    -21.5493E+06    -2.76214E+06    -200.927E+03     10.7015E+06    -381.752E+03         81.7701
             891     8.56583E-03     59.9623E-03         4.82237    -58.9760E-03        -6.87659        -1.13554    -918.675E-03    -58.9760E-03    -668.292E-03     668.055E-03    -332.198E-03    -332.778E-03    -326.852E-03     662.656E-03    -332.725E-03     146.295E-03     14.7522E+06     8.03935E+06    -19.6516E+06    -4.20565E+06    -693.818E+03     8.03935E+06    -876.379E+03         79.5538
             892     7.85412E-03     59.7555E-03         7.40658    -213.170E-03        -7.70859         1.54992        -1.85194    -213.170E-03         2.99740     663.840E-03    -332.740E-03    -335.328E-03    -328.368E-03     659.468E-03    -335.328E-03     131.613E-03     10.6436E+06     6.39834E+06    -15.0078E+06    -3.55520E+06    -809.010E+03     6.39834E+06    -1.91886E+06         78.1698
             893     7.13632E-03     59.5774E-03         6.65044    -462.106E-03        -5.78644         1.35346    -489.456E-03    -462.106E-03         7.81620     661.167E-03    -332.317E-03    -335.595E-03    -328.846E-03     657.696E-03    -335.595E-03     116.891E-03     6.82920E+06     3.99372E+06    -12.9767E+06    -4.23644E+06    -1.91107E+06     3.99372E+06    -1.77920E+06         77.3368
             894     6.42094E-03     59.4478E-03         5.50325    -658.134E-03        -4.98360     690.529E-03    -170.875E-03    -658.134E-03         4.60147     662.599E-03    -329.962E-03    -332.114E-03    -327.464E-03     660.101E-03    -332.114E-03     99.0917E-03     4.71306E+06     1.84217E+06    -12.7139E+06    -5.24897E+06    -2.75187E+06     1.84217E+06    -2.22287E+06         76.8335
             895     5.70838E-03     59.3514E-03         4.61105    -867.772E-03        -6.38957         1.16278        -2.94130    -867.772E-03        -1.23541     661.876E-03    -329.495E-03    -331.401E-03    -328.670E-03     660.162E-03    -330.513E-03     81.9510E-03     2.23527E+06     556.358E+03    -11.0927E+06    -5.07517E+06    -3.78228E+06     556.358E+03    -2.09313E+06         76.5689
             896     4.99137E-03     59.2876E-03         8.05195        -1.05136        -10.0806    -366.350E-03        -1.66226        -1.05136         2.78816     658.023E-03    -329.921E-03    -331.789E-03    -329.728E-03     656.942E-03    -330.900E-03     64.8247E-03     18.3557E+03    -1.28708E+06    -10.4319E+06    -5.69996E+06    -4.79542E+06    -1.20527E+06    -2.14958E+06         76.5209
             897     4.27130E-03     59.2502E-03         9.02814    -726.486E-03        -9.51398        -2.13059         1.92778        -1.00952         2.35442     656.452E-03    -329.261E-03    -331.787E-03    -328.655E-03     655.846E-03    -331.787E-03     48.1776E-03    -1.62084E+06    -3.29224E+06    -8.77542E+06    -5.71120E+06    -5.36066E+06    -2.61663E+06    -1.94322E+06         76.5166
             898     3.55925E-03     59.2408E-03         5.67383    -575.887E-03        -5.92916     116.390E-03     83.4899E-03        -1.03110        -5.81929     657.641E-03    -328.720E-03    -332.463E-03    -328.439E-03     657.359E-03    -332.463E-03     32.3921E-03    -3.28346E+06    -4.68771E+06    -7.44662E+06    -5.84503E+06    -5.74604E+06    -3.82672E+06    -1.28712E+06         76.3900
             899     2.84802E-03     59.2507E-03         8.07288        -1.12955        -8.04267    -137.967E-03     340.359E-03        -1.30173        -9.75198     660.592E-03    -329.113E-03    -333.251E-03    -329.014E-03     660.493E-03    -333.251E-03     18.9096E-03    -4.63165E+06    -5.59285E+06    -8.13006E+06    -6.41087E+06    -6.70540E+06    -5.23830E+06    -1.41745E+06         76.1583
             900     2.13460E-03     59.2742E-03         14.2884        -1.18660        -13.1094        -2.81603         3.99501        -1.18660         7.02491     663.605E-03    -330.841E-03    -334.032E-03    -330.815E-03     663.580E-03    -334.032E-03     9.38922E-03    -4.47612E+06    -5.68757E+06    -8.54905E+06    -6.24189E+06    -6.87065E+06    -5.60020E+06    -1.14206E+06         75.8876
             901     1.42233E-03     59.3071E-03         17.8623        -1.21947        -14.1253     101.769E-03         3.63522        -1.21947         1.38949     667.045E-03    -333.005E-03    -334.603E-03    -333.000E-03     667.040E-03    -334.603E-03     3.81955E-03    -4.02514E+06    -5.63951E+06    -8.42971E+06    -6.28898E+06    -6.16588E+06    -5.63951E+06    -530.145E+03         75.6394
             902     711.591E-06     59.3342E-03         32.0958        -1.44726        -24.0786         6.09269         9.39709        -8.91981        -46.1878     668.214E-03    -333.179E-03    -334.903E-03    -334.554E-03     668.212E-03    -333.528E-03     1.94769E-03    -3.90939E+06    -6.75367E+06    -11.2419E+06    -7.25165E+06    -8.17446E+06    -6.47888E+06    -549.355E+03         75.4644
             903     12.1792E-03     59.7697E-03         5.08749    -447.751E-03        -5.82636     554.402E-03        -1.29327    -447.751E-03        -2.15354     694.701E-03    -334.356E-03    -363.810E-03    -347.715E-03     678.607E-03    -334.356E-03     255.887E-03     23.9858E+06     17.8668E+06    -16.1010E+06    -1.43364E+06     4.72044E+06     22.4647E+06    -565.124E+03         96.6039
             904     11.4795E-03     59.1944E-03         6.61608    -655.044E-03        -6.37638         2.15566        -1.91596    -655.044E-03        -4.71096     693.076E-03    -334.732E-03    -359.748E-03    -343.794E-03     677.122E-03    -334.732E-03     253.958E-03     24.3300E+06     17.6827E+06    -22.8742E+06    -3.54476E+06     4.11811E+06     18.5651E+06    -756.155E+03         92.9937
             905     10.7641E-03     58.8491E-03         9.06096    -870.969E-03        -9.14587     590.714E-03    -675.626E-03    -870.969E-03         1.62879     680.805E-03    -331.853E-03    -348.490E-03    -337.670E-03     669.986E-03    -331.853E-03     209.938E-03     25.5631E+06     15.9946E+06    -26.0252E+06    -3.03083E+06     2.56876E+06     15.9946E+06    -1.81837E+06         88.8876
             906     10.0472E-03     58.4904E-03         6.20280    -937.717E-03        -8.21415        -2.74248     731.135E-03    -937.717E-03         5.19267     672.158E-03    -332.132E-03    -345.543E-03    -336.030E-03     662.645E-03    -332.132E-03     195.365E-03     23.6049E+06     13.2488E+06    -25.4126E+06    -3.18805E+06     1.38040E+06     13.2488E+06    -1.71536E+06         85.1090
             907     9.26857E-03     58.2105E-03         4.61195    -941.643E-03        -6.52103        -1.29634    -612.741E-03    -941.643E-03         1.96969     665.641E-03    -333.291E-03    -338.652E-03    -331.112E-03     658.489E-03    -333.679E-03     168.525E-03     20.1878E+06     10.0968E+06    -25.8980E+06    -6.01146E+06     301.207E+03     10.0968E+06    -2.76256E+06         81.9505
             908     8.55779E-03     57.9728E-03         7.56556    -945.839E-03        -9.53545        -2.20405     234.166E-03    -945.839E-03    -658.812E-03     667.741E-03    -332.675E-03    -333.404E-03    -327.335E-03     662.178E-03    -333.181E-03     148.535E-03     15.8935E+06     7.93040E+06    -21.5713E+06    -5.07559E+06    -602.156E+03     7.93040E+06    -3.46649E+06         79.6608
             909     7.84689E-03     57.7842E-03         7.52257    -835.916E-03        -8.58514        -2.97877         1.91621    -835.916E-03        -2.58102     664.202E-03    -332.645E-03    -335.378E-03    -328.371E-03     659.705E-03    -335.155E-03     133.496E-03     10.3786E+06     5.30297E+06    -17.9685E+06    -6.17931E+06    -1.41058E+06     5.30297E+06    -3.29461E+06         78.2279
             910     7.13042E-03     57.6207E-03         5.53727    -745.105E-03        -5.62098    -725.500E-03     641.787E-03    -745.105E-03         6.38796     661.318E-03    -332.406E-03    -336.027E-03    -328.845E-03     657.757E-03    -336.027E-03     118.401E-03     6.49277E+06     2.81355E+06    -16.3767E+06    -7.13375E+06    -2.75017E+06     2.81355E+06    -3.82133E+06         77.3703
             911     6.41631E-03     57.4927E-03         4.54769    -793.680E-03        -4.71931     42.6710E-03    -214.287E-03    -793.680E-03         1.96791     662.566E-03    -330.365E-03    -332.611E-03    -327.799E-03     660.000E-03    -332.611E-03     100.434E-03     3.79603E+06     197.825E+03    -15.0340E+06    -7.48592E+06    -3.75200E+06     197.825E+03    -3.50686E+06         76.8561
             912     5.70255E-03     57.4024E-03         5.36419    -932.792E-03        -4.64917     494.700E-03     220.324E-03    -932.792E-03        -6.02332     662.997E-03    -329.554E-03    -331.491E-03    -328.719E-03     661.243E-03    -330.572E-03     82.9443E-03     1.46405E+06    -2.39297E+06    -14.6661E+06    -8.38681E+06    -4.81519E+06    -2.39297E+06    -3.59814E+06         76.5758
             913     4.98741E-03     57.3339E-03         11.6292        -1.06053        -11.5294    -472.422E-03     572.303E-03        -1.06053         9.55010     659.345E-03    -330.607E-03    -331.774E-03    -330.429E-03     658.249E-03    -330.855E-03     65.3007E-03    -1.72361E+06    -4.33773E+06    -13.7508E+06    -8.83524E+06    -6.77029E+06    -4.20661E+06    -3.30843E+06         76.5063
             914     4.26587E-03     57.2949E-03         13.5653        -1.03295        -15.5129        -1.84453    -103.059E-03        -1.03295         3.74676     656.643E-03    -329.843E-03    -331.575E-03    -329.232E-03     656.032E-03    -331.575E-03     48.4148E-03    -4.23900E+06    -6.48562E+06    -13.0218E+06    -9.94557E+06    -8.04011E+06    -5.76071E+06    -2.72403E+06         76.5011
             915     3.55471E-03     57.2860E-03         10.1765    -836.044E-03        -13.3218        -2.15090    -994.380E-03    -836.044E-03        -6.94192     657.114E-03    -328.439E-03    -332.304E-03    -328.149E-03     656.824E-03    -332.304E-03     32.9839E-03    -5.80844E+06    -7.62183E+06    -12.1295E+06    -10.1447E+06    -8.38699E+06    -7.02803E+06    -2.61171E+06         76.3901
             916     2.84363E-03     57.2996E-03         11.7256    -234.822E-03        -14.0428        -4.03214         1.71489    -234.822E-03         10.6104     660.693E-03    -329.022E-03    -333.373E-03    -328.915E-03     660.587E-03    -333.373E-03     19.5340E-03    -6.66892E+06    -7.97344E+06    -11.5201E+06    -9.75728E+06    -8.43175E+06    -7.97344E+06    -2.03344E+06         76.1741
             917     2.13303E-03     57.3188E-03         13.7255     818.006E-03        -16.4607        -2.81729     82.0979E-03     818.006E-03        -8.04769     664.308E-03    -331.152E-03    -334.158E-03    -331.125E-03     664.281E-03    -334.158E-03     9.51056E-03    -7.49745E+06    -9.28787E+06    -11.7878E+06    -10.4442E+06    -8.84103E+06    -9.28787E+06    -1.52398E+06         75.9171
             918     1.42227E-03     57.3441E-03         18.6136     659.552E-03        -20.1708         3.42704        -4.98419     659.552E-03        -6.74358     667.107E-03    -333.173E-03    -334.528E-03    -333.168E-03     667.103E-03    -334.528E-03     3.29659E-03    -7.67916E+06    -10.0643E+06    -12.3397E+06    -10.4184E+06    -9.60041E+06    -10.0643E+06    -1.30980E+06         75.6749
             919     710.993E-06     57.3640E-03         28.1633     74.6672E-03        -25.9951         7.04009         2.60060        -7.39788        -12.8210     667.935E-03    -332.665E-03    -335.058E-03    -334.739E-03     667.935E-03    -332.984E-03     769.941E-06    -5.67339E+06    -9.47612E+06    -13.5193E+06    -9.09727E+06    -9.74997E+06    -9.82152E+06    -1.44796E+06         75.4976
             920     12.1723E-03     57.7738E-03         3.28943    -578.030E-03        -5.15510         2.81695        -4.68262    -578.030E-03        -3.20923     694.526E-03    -334.550E-03    -363.042E-03    -346.406E-03     677.890E-03    -334.550E-03     260.209E-03     26.7019E+06     21.4632E+06    -17.6360E+06    -916.652E+03     6.71187E+06     24.7339E+06    -742.423E+03         96.8878
             921     11.4726E-03     57.2063E-03         4.00015    -760.975E-03        -3.94646         3.10711        -3.05342    -760.975E-03        -4.27362     693.434E-03    -334.985E-03    -359.966E-03    -343.643E-03     677.111E-03    -334.985E-03     256.816E-03     27.4751E+06     20.1206E+06    -25.1321E+06    -2.48916E+06     4.45518E+06     20.4976E+06    -2.24533E+06         93.2799
             922     10.7575E-03     56.8585E-03         7.76092    -945.724E-03        -5.77450         2.25444    -268.015E-03    -945.724E-03         6.54973     681.844E-03    -332.241E-03    -349.559E-03    -338.523E-03     670.807E-03    -332.241E-03     212.231E-03     28.8872E+06     17.0944E+06    -30.4137E+06    -4.62911E+06     3.10258E+06     17.0944E+06    -2.62715E+06         89.1482
             923     10.0441E-03     56.5087E-03         11.2448        -1.08779        -9.09240         1.15304     999.387E-03        -1.08779    -794.836E-03     672.975E-03    -332.314E-03    -346.030E-03    -336.331E-03     663.276E-03    -332.314E-03     197.371E-03     26.4909E+06     13.9575E+06    -31.0319E+06    -6.71650E+06     2.17545E+06     13.9575E+06    -4.42162E+06         85.3080
             924     9.25627E-03     56.2235E-03         9.24518        -1.20677        -7.83222     634.625E-03     790.809E-03        -1.21924        -3.95497     665.950E-03    -333.663E-03    -339.011E-03    -331.444E-03     658.690E-03    -333.970E-03     169.834E-03     22.3644E+06     11.0873E+06    -28.0289E+06    -6.13484E+06     470.266E+03     11.0873E+06    -4.70614E+06         82.0717
             925     8.54662E-03     55.9749E-03         7.34521        -1.28635        -6.11366        -1.24455         2.48858        -1.29883         6.59996     667.078E-03    -333.013E-03    -333.898E-03    -327.957E-03     661.443E-03    -333.319E-03     149.484E-03     15.8920E+06     7.23631E+06    -25.7084E+06    -8.85721E+06    -959.192E+03     7.23631E+06    -4.71745E+06         79.7215
             926     7.83914E-03     55.7929E-03         7.22416        -1.23984        -7.60769        -3.32203         2.93851        -1.23984        -5.18209     664.479E-03    -332.543E-03    -335.332E-03    -328.457E-03     659.904E-03    -334.842E-03     134.698E-03     9.43537E+06     3.37572E+06    -21.6825E+06    -9.67751E+06    -2.89522E+06     3.70136E+06    -5.37321E+06         78.2583
             927     7.12007E-03     55.6327E-03         8.75112        -1.16682        -10.2167        -1.93120     465.650E-03        -1.16682         3.79997     661.710E-03    -332.554E-03    -335.927E-03    -328.915E-03     658.071E-03    -335.927E-03     119.727E-03     4.57534E+06    -119.496E+03    -19.7490E+06    -10.7287E+06    -4.77055E+06     206.142E+03    -4.62489E+06         77.3848
             928     6.40692E-03     55.5043E-03         7.41257        -1.15579        -7.41026        -1.58300         1.58531        -1.15579         10.3565     662.748E-03    -330.795E-03    -332.823E-03    -328.160E-03     660.112E-03    -332.823E-03     101.836E-03     1.82134E+06    -2.97248E+06    -19.7846E+06    -12.1306E+06    -5.83264E+06    -2.97248E+06    -4.62064E+06         76.8577
             929     5.69489E-03     55.4099E-03         6.02655        -1.05067        -4.49796        -2.75106         4.27965        -1.05067        -3.93204     663.974E-03    -329.764E-03    -331.699E-03    -328.931E-03     662.159E-03    -330.718E-03     84.4257E-03    -970.977E+03    -5.87671E+06    -19.3270E+06    -12.8821E+06    -7.41587E+06    -5.87671E+06    -4.47147E+06         76.5604
             930     4.98216E-03     55.3438E-03         9.62363    -873.210E-03        -8.87432        -1.96700         2.71631    -873.210E-03         4.81542     660.062E-03    -330.721E-03    -331.873E-03    -330.681E-03     658.917E-03    -330.768E-03     66.7813E-03    -4.61567E+06    -8.54257E+06    -18.4261E+06    -14.2146E+06    -8.95828E+06    -8.41146E+06    -3.50461E+06         76.4718
             931     4.26010E-03     55.3078E-03         15.7739    -983.312E-03        -16.9758         1.32595        -2.52782    -983.312E-03        -10.8452     656.438E-03    -329.980E-03    -331.512E-03    -329.460E-03     655.794E-03    -331.389E-03     49.6736E-03    -8.15622E+06    -10.7303E+06    -17.1577E+06    -14.7209E+06    -10.7241E+06    -10.5992E+06    -3.16912E+06         76.4631
             932     3.55031E-03     55.2992E-03         20.7091        -1.48946        -21.5953         1.73375        -2.61988        -1.48946     355.155E-03     656.683E-03    -328.290E-03    -332.176E-03    -327.987E-03     656.380E-03    -332.176E-03     33.6269E-03    -10.0190E+06    -12.5426E+06    -17.1425E+06    -15.3424E+06    -11.8190E+06    -12.5426E+06    -2.79695E+06         76.3595
             933     2.83964E-03     55.3037E-03         16.7644        -1.32106        -17.5711        -4.45695         3.74461        -1.41542         28.5405     660.843E-03    -328.853E-03    -333.292E-03    -328.744E-03     660.734E-03    -333.292E-03     19.7413E-03    -10.6377E+06    -13.5506E+06    -16.9363E+06    -15.7839E+06    -11.7900E+06    -13.5506E+06    -2.13177E+06         76.1513
             934     2.12930E-03     55.3215E-03         22.0768    -266.653E-03        -23.5729        -4.18474         2.78294    -361.018E-03        -24.6515     664.529E-03    -331.144E-03    -334.002E-03    -331.116E-03     664.501E-03    -334.002E-03     9.95761E-03    -11.4691E+06    -14.3323E+06    -16.5942E+06    -15.6874E+06    -12.3758E+06    -14.3323E+06    -1.72166E+06         75.9044
             935     1.41982E-03     55.3418E-03         32.1722     132.257E-03        -34.6009     993.561E-03        -3.42221     132.257E-03         1.29777     666.691E-03    -333.077E-03    -334.263E-03    -333.071E-03     666.685E-03    -334.263E-03     4.23667E-03    -11.6088E+06    -15.0322E+06    -17.0253E+06    -15.6457E+06    -12.9234E+06    -15.0971E+06    -1.36306E+06         75.6710
             936     710.440E-06     55.3711E-03         23.2293        -1.23764        -27.0974         1.34473        -5.21284        -1.23764         19.7874     667.277E-03    -332.950E-03    -334.356E-03    -334.111E-03     667.276E-03    -333.195E-03     793.324E-06    -10.7456E+06    -15.0761E+06    -19.4387E+06    -15.8407E+06    -13.6584E+06    -15.7613E+06    -871.474E+03         75.4986
             937     12.1667E-03     55.7765E-03         5.38009    -377.746E-03        -5.87746         1.83485        -2.33222    -377.746E-03    -254.828E-03     695.063E-03    -334.818E-03    -362.864E-03    -345.837E-03     678.035E-03    -334.818E-03     263.400E-03     30.9863E+06     26.1751E+06    -20.0954E+06    -1.74499E+06     9.62850E+06     29.1824E+06    -1.29888E+06         97.1991
             938     11.4676E-03     55.2009E-03         4.23358    -382.336E-03        -4.19233     765.482E-03    -724.228E-03    -382.336E-03        -4.73693     694.964E-03    -335.223E-03    -361.308E-03    -344.711E-03     678.368E-03    -335.223E-03     259.200E-03     31.9909E+06     24.2156E+06    -29.1962E+06    -5.29886E+06     7.71666E+06     24.5925E+06    -2.44537E+06         93.5812
             939     10.7577E-03     54.8406E-03         4.43816    -340.321E-03        -4.68147         1.63273        -1.87604    -340.321E-03         4.67717     683.223E-03    -332.517E-03    -350.587E-03    -339.384E-03     672.021E-03    -332.517E-03     214.056E-03     34.0558E+06     20.8101E+06    -35.2851E+06    -5.77939E+06     4.55012E+06     20.8101E+06    -4.85206E+06         89.4020
             940     10.0395E-03     54.4983E-03         7.86446    -195.580E-03        -5.79175         3.62744        -1.35377    -396.536E-03    -164.837E-03     673.623E-03    -332.342E-03    -346.033E-03    -336.190E-03     663.780E-03    -332.342E-03     198.868E-03     30.4431E+06     16.7670E+06    -34.0757E+06    -6.08694E+06     2.45438E+06     16.7670E+06    -4.37215E+06         85.4922
             941     9.24181E-03     54.2364E-03         8.04438    -308.840E-03        -4.63816         2.79187     827.783E-03    -522.274E-03        -9.11061     666.234E-03    -333.948E-03    -339.358E-03    -331.994E-03     658.870E-03    -333.948E-03     171.116E-03     23.1275E+06     11.3988E+06    -33.3975E+06    -10.6283E+06     358.367E+03     11.3988E+06    -5.36863E+06         82.1920
             942     8.53303E-03     54.0240E-03         7.58068    -696.041E-03        -4.37753         4.14125    -925.619E-03    -708.519E-03     110.130E-03     666.541E-03    -333.318E-03    -334.331E-03    -328.581E-03     660.791E-03    -333.318E-03     151.042E-03     15.6942E+06     6.94152E+06    -28.8930E+06    -11.0805E+06    -2.11831E+06     6.94152E+06    -6.11354E+06         79.7850
             943     7.82800E-03     53.8419E-03         10.5810    -956.647E-03        -8.79326         2.91000        -1.12225    -956.647E-03        -10.1627     664.806E-03    -332.586E-03    -335.193E-03    -328.496E-03     660.113E-03    -334.589E-03     136.431E-03     7.83037E+06     1.73635E+06    -25.5184E+06    -13.5774E+06    -4.43621E+06     2.06199E+06    -5.25579E+06         78.2664
             944     7.11135E-03     53.6810E-03         12.2788        -1.01512        -11.4079        -1.28322         2.15414        -1.01512        -3.16686     662.376E-03    -332.883E-03    -335.636E-03    -329.160E-03     658.653E-03    -335.636E-03     121.146E-03     2.01346E+06    -2.76205E+06    -24.3559E+06    -15.7371E+06    -6.93091E+06    -2.43642E+06    -5.26962E+06         77.3533
             945     6.40048E-03     53.5517E-03         9.13248    -932.121E-03        -8.13504    -782.268E-03         1.77971    -932.121E-03         6.51369     663.200E-03    -330.967E-03    -332.733E-03    -328.287E-03     660.521E-03    -332.733E-03     102.684E-03    -1.31469E+06    -6.41928E+06    -24.5169E+06    -16.9562E+06    -8.87529E+06    -6.41928E+06    -4.50835E+06         76.8080
             946     5.68698E-03     53.4514E-03         5.50308    -895.588E-03        -5.39142    -846.030E-03     957.684E-03    -895.588E-03        -2.86673     664.031E-03    -329.733E-03    -331.518E-03    -328.650E-03     662.180E-03    -330.749E-03     85.3196E-03    -4.28792E+06    -10.1655E+06    -25.2059E+06    -19.0372E+06    -10.4566E+06    -10.1655E+06    -4.47384E+06         76.4969
             947     4.97472E-03     53.3862E-03         6.19564    -806.104E-03        -5.54258        -1.82906         2.48212    -806.104E-03         1.45304     659.803E-03    -330.695E-03    -331.642E-03    -330.455E-03     658.616E-03    -330.695E-03     68.0083E-03    -8.21085E+06    -13.2792E+06    -23.7777E+06    -19.6680E+06    -12.3206E+06    -13.2792E+06    -3.80139E+06         76.3943
             948     4.25172E-03     53.3382E-03         16.0222    -757.261E-03        -13.9791    -458.270E-03         2.50133    -757.261E-03        -19.9603     656.216E-03    -330.127E-03    -331.527E-03    -329.626E-03     655.536E-03    -331.348E-03     51.1922E-03    -11.6054E+06    -16.1493E+06    -23.0070E+06    -20.9347E+06    -13.6776E+06    -16.1493E+06    -2.93198E+06         76.3845
             949     3.54367E-03     53.3247E-03         25.1979    -879.135E-03        -24.3459     47.9227E-03     804.013E-03    -879.135E-03         6.29980     656.587E-03    -328.597E-03    -332.140E-03    -328.260E-03     656.249E-03    -332.140E-03     35.6241E-03    -13.3480E+06    -18.5460E+06    -23.2040E+06    -22.0025E+06    -14.5494E+06    -18.5460E+06    -3.17788E+06         76.2877
             950     2.83557E-03     53.3288E-03         18.7000        -1.42873        -19.3182         2.83790        -3.36175        -1.52310         21.5950     660.576E-03    -328.721E-03    -333.098E-03    -328.592E-03     660.447E-03    -333.098E-03     21.6591E-03    -14.6210E+06    -19.9819E+06    -22.8467E+06    -21.8618E+06    -15.6059E+06    -19.9819E+06    -2.31704E+06         76.0863
             951     2.12672E-03     53.3442E-03         17.0912        -3.01251        -15.3508         3.22796        -1.36580        -3.13427        -27.0619     664.065E-03    -330.654E-03    -333.852E-03    -330.618E-03     664.029E-03    -333.852E-03     11.0964E-03    -15.6311E+06    -21.3180E+06    -23.3275E+06    -22.3768E+06    -16.5818E+06    -21.3180E+06    -2.04028E+06         75.8484
             952     1.41722E-03     53.3601E-03         25.8440        -4.93121        -21.0408        -1.85797         6.68852        -4.95861        -3.44491     666.283E-03    -332.706E-03    -334.214E-03    -332.699E-03     666.276E-03    -334.214E-03     4.78547E-03    -15.8617E+06    -22.1960E+06    -23.3994E+06    -22.4259E+06    -16.7703E+06    -22.2609E+06    -1.47263E+06         75.6230
             953     708.611E-06     53.3782E-03         30.1895        -9.75522        -21.6407         1.28462         10.1583        -12.6494         29.3457     667.297E-03    -333.248E-03    -334.287E-03    -333.921E-03     667.296E-03    -333.613E-03     929.063E-06    -16.6317E+06    -21.7966E+06    -25.5808E+06    -23.6860E+06    -17.6029E+06    -22.7202E+06     144.202E+03         75.4553
             954     12.1624E-03     53.7590E-03         4.97647    -224.811E-03        -6.02754        -2.50521         1.45414    -224.811E-03         4.26514     697.186E-03    -335.019E-03    -364.501E-03    -347.042E-03     679.727E-03    -335.019E-03     267.309E-03     39.0272E+06     33.0297E+06    -22.9257E+06    -2.42178E+06     13.8827E+06     37.6703E+06    -1.66450E+06         97.5751
             955     11.4619E-03     53.2069E-03         3.67362    -36.5329E-03        -4.79080        -3.39438         2.27719    -36.5329E-03        -2.77374     696.640E-03    -335.293E-03    -362.651E-03    -345.761E-03     679.750E-03    -335.293E-03     261.798E-03     39.8779E+06     30.6885E+06    -32.7857E+06    -3.87275E+06     9.59239E+06     32.0610E+06    -3.64487E+06         93.9516
             956     10.7511E-03     52.8805E-03         5.50459     124.841E-03        -4.74791        -1.27424         2.03093     124.841E-03         3.05260     683.990E-03    -332.543E-03    -351.073E-03    -339.729E-03     672.646E-03    -332.543E-03     215.521E-03     40.9286E+06     26.3943E+06    -40.1122E+06    -6.62254E+06     7.43897E+06     26.3943E+06    -3.45725E+06         89.7929
             957     10.0375E-03     52.5494E-03         5.98859     412.995E-03        -4.78992    -554.331E-03         1.95396     212.039E-03         8.42973     674.387E-03    -332.169E-03    -346.462E-03    -336.489E-03     664.415E-03    -332.169E-03     200.293E-03     32.9913E+06     19.3538E+06    -41.2418E+06    -12.0705E+06     3.82009E+06     19.3538E+06    -5.46877E+06         85.9159
             958     9.22341E-03     52.2954E-03         8.28693     472.629E-03        -6.93093     302.195E-03         1.25476     271.673E-03        -7.92146     666.891E-03    -333.749E-03    -339.798E-03    -332.279E-03     659.372E-03    -333.749E-03     173.021E-03     24.4692E+06     13.3228E+06    -36.7949E+06    -12.0064E+06    -319.277E+03     13.3228E+06    -5.52488E+06         82.5956
             959     8.51824E-03     52.0721E-03         9.48651     294.318E-03        -9.80171         1.04545        -1.36064     294.318E-03        -6.37083     666.405E-03    -333.185E-03    -334.684E-03    -328.790E-03     660.511E-03    -333.185E-03     152.922E-03     13.8539E+06     6.18840E+06    -33.7080E+06    -16.1859E+06    -3.66819E+06     6.18840E+06    -4.65240E+06         80.0817
             960     7.81144E-03     51.8778E-03         7.70874     300.042E-03        -8.14554         1.12951        -1.58252     316.241E-03        -1.89356     665.206E-03    -332.840E-03    -335.176E-03    -328.876E-03     660.404E-03    -334.337E-03     138.056E-03     4.77336E+06    -260.224E+03    -30.0434E+06    -18.9962E+06    -6.95265E+06     418.514E+03    -4.55459E+06         78.3821
             961     7.10077E-03     51.7065E-03         6.86563     282.322E-03        -6.36808         2.12708        -1.64574     298.521E-03        -3.82454     662.752E-03    -333.446E-03    -335.266E-03    -329.649E-03     658.955E-03    -335.266E-03     122.407E-03     250.092E+03    -5.15807E+06    -29.2366E+06    -20.7988E+06    -8.86639E+06    -4.47934E+06    -3.82752E+06         77.3101
             962     6.39172E-03     51.5685E-03         7.41326     219.767E-03        -8.22055         1.64342        -2.45072     219.767E-03         3.67822     663.320E-03    -331.159E-03    -332.401E-03    -328.444E-03     660.605E-03    -332.401E-03     103.335E-03    -5.11416E+06    -9.97772E+06    -29.9776E+06    -24.1023E+06    -10.9895E+06    -9.97772E+06    -3.67126E+06         76.6972
             963     5.67925E-03     51.4670E-03         7.53861     161.866E-03        -8.16640     927.821E-03        -1.55561     161.866E-03        -1.81717     664.145E-03    -329.550E-03    -331.129E-03    -328.357E-03     662.293E-03    -330.470E-03     85.2963E-03    -8.10773E+06    -14.5591E+06    -31.1656E+06    -26.2028E+06    -13.0706E+06    -14.5591E+06    -3.77131E+06         76.3646
             964     4.96824E-03     51.3875E-03         6.02945    -50.7182E-03        -5.82083         2.95459        -2.74597    -50.7182E-03        -4.55570     659.538E-03    -330.373E-03    -331.240E-03    -330.079E-03     658.377E-03    -330.373E-03     67.1637E-03    -10.3542E+06    -18.4041E+06    -32.3665E+06    -28.3428E+06    -14.3778E+06    -18.4041E+06    -3.94430E+06         76.2445
             965     4.24296E-03     51.3500E-03         8.73427    -201.557E-03        -8.70860    -702.122E-03     727.795E-03    -201.557E-03        -10.5931     655.609E-03    -329.770E-03    -331.364E-03    -329.329E-03     654.960E-03    -331.156E-03     49.9886E-03    -14.3623E+06    -21.8343E+06    -31.1136E+06    -29.0785E+06    -16.3974E+06    -21.8343E+06    -4.35869E+06         76.2300
             966     3.53605E-03     51.3321E-03         18.7859     144.301E-03        -19.5498        -2.85089         2.08702     144.301E-03        -7.84934     656.028E-03    -328.182E-03    -332.030E-03    -327.862E-03     655.708E-03    -332.030E-03     34.6138E-03    -16.6680E+06    -24.6782E+06    -30.6144E+06    -29.2915E+06    -17.9909E+06    -24.6782E+06    -3.82718E+06         76.1388
             967     2.82788E-03     51.3385E-03         22.8022    -96.7779E-03        -23.3239         4.20380        -4.72543    -96.7779E-03         6.96418     660.269E-03    -328.447E-03    -332.906E-03    -328.325E-03     660.147E-03    -332.906E-03     21.0207E-03    -18.1467E+06    -27.2796E+06    -31.2536E+06    -30.2401E+06    -19.1602E+06    -27.2796E+06    -3.06179E+06         75.9433
             968     2.12081E-03     51.3526E-03         12.8853        -1.26112        -12.4700         2.53176        -2.08905        -1.28852         1.74300     663.895E-03    -330.402E-03    -333.700E-03    -330.368E-03     663.860E-03    -333.700E-03     10.7343E-03    -19.6198E+06    -29.0015E+06    -31.0099E+06    -30.2733E+06    -20.3564E+06    -29.0015E+06    -2.56489E+06         75.7132
             969     1.41432E-03     51.3695E-03         9.01534        -1.80194        -7.36729        -2.38905         4.06449        -1.82934        -3.07494     665.978E-03    -332.282E-03    -334.151E-03    -332.276E-03     665.972E-03    -334.151E-03     4.13572E-03    -20.6695E+06    -30.3042E+06    -31.5079E+06    -31.0271E+06    -21.1503E+06    -30.3042E+06    -1.48055E+06         75.4945
             970     706.363E-06     51.3879E-03         31.4573        -7.18599        -22.0101         6.52243         5.81889        -10.0801         41.6671     667.461E-03    -332.027E-03    -335.521E-03    -334.951E-03     667.461E-03    -332.596E-03     889.381E-06    -21.2521E+06    -29.1851E+06    -32.5602E+06    -30.7587E+06    -22.1950E+06    -30.0438E+06    -269.369E+03         75.3293
             971     12.1511E-03     51.7967E-03         4.44788     9.95073E-03        -5.72532        -1.11118    -166.261E-03     9.95073E-03         2.47422     702.648E-03    -335.028E-03    -369.341E-03    -351.424E-03     684.731E-03    -335.028E-03     272.288E-03     48.1602E+06     40.5140E+06    -27.4157E+06    -2.89972E+06     18.2554E+06     45.9029E+06    -1.09669E+06         98.1217
             972     11.4558E-03     51.2613E-03         5.14320     144.563E-03        -5.80633    -578.118E-03    -85.0180E-03     144.563E-03     900.949E-03     701.319E-03    -335.151E-03    -366.779E-03    -349.566E-03     684.106E-03    -335.151E-03     265.439E-03     47.8017E+06     38.2797E+06    -37.7886E+06    -5.92269E+06     14.5632E+06     39.6523E+06    -981.481E+03         94.5858
             973     10.7475E-03     50.9171E-03         5.69174     275.526E-03        -4.87522        -1.13484         1.95135     275.526E-03         3.40121     687.775E-03    -332.276E-03    -354.540E-03    -343.003E-03     676.237E-03    -332.276E-03     218.102E-03     45.0136E+06     31.8145E+06    -46.6233E+06    -9.78367E+06     8.17393E+06     31.8145E+06    -2.78254E+06         90.6301
             974     10.0352E-03     50.5829E-03         7.25276     341.345E-03        -6.19067     737.442E-03     324.653E-03     341.345E-03         2.63583     678.646E-03    -331.748E-03    -350.299E-03    -340.180E-03     668.526E-03    -331.748E-03     202.576E-03     37.8476E+06     25.1269E+06    -43.3583E+06    -9.62548E+06     4.11482E+06     25.1269E+06    -2.12205E+06         86.9383
             975     9.20180E-03     50.3152E-03         8.72271     324.447E-03        -9.51274    -46.2474E-03    -743.784E-03     324.447E-03        -2.95878     671.232E-03    -333.248E-03    -343.649E-03    -336.038E-03     663.621E-03    -333.248E-03     174.744E-03     23.1460E+06     15.0361E+06    -39.7989E+06    -16.2489E+06    -1.35074E+06     15.9828E+06    -1.84529E+06         83.6254
             976     8.49903E-03     50.0809E-03         8.46518     427.670E-03        -10.0345        -2.82081         1.25153     427.670E-03        -5.28311     669.629E-03    -332.650E-03    -338.279E-03    -332.384E-03     663.733E-03    -332.650E-03     153.450E-03     12.3674E+06     7.31450E+06    -37.3346E+06    -20.8087E+06    -5.10527E+06     8.26121E+06    -1.48426E+06         80.9478
             977     7.79365E-03     49.8533E-03         4.76490     553.490E-03        -7.13035    -961.250E-03        -1.42040     569.689E-03     854.202E-03     667.549E-03    -333.126E-03    -337.451E-03    -332.067E-03     662.779E-03    -333.740E-03     137.966E-03     5.89543E+06     225.148E+03    -37.0016E+06    -25.7857E+06    -5.99919E+06     903.885E+03    -1.22289E+06         78.9475
             978     7.08517E-03     49.6192E-03         4.45728     627.215E-03        -7.77786    -935.676E-03        -2.40111     643.414E-03         6.31101     664.696E-03    -333.875E-03    -336.783E-03    -332.308E-03     660.969E-03    -334.623E-03     121.477E-03    -1.69198E+06    -9.10956E+06    -35.1339E+06    -30.7656E+06    -8.69991E+06    -6.46993E+06    -2.42621E+06         77.5257
             979     6.37892E-03     49.4587E-03         6.30257     777.212E-03        -8.60442        -2.18725    -188.485E-03     851.096E-03         10.2952     664.736E-03    -331.404E-03    -333.554E-03    -330.441E-03     662.106E-03    -331.887E-03     101.877E-03    -5.87948E+06    -14.1731E+06    -36.7966E+06    -33.8560E+06    -10.7810E+06    -12.2122E+06    -3.33348E+06         76.6476
             980     5.66699E-03     49.3744E-03         7.00736     998.589E-03        -8.42757     262.339E-03        -1.75643         1.07247        -3.11068     664.551E-03    -329.386E-03    -331.729E-03    -329.599E-03     662.770E-03    -329.735E-03     83.6661E-03    -7.62093E+06    -17.5834E+06    -41.3884E+06    -36.5432E+06    -12.4661E+06    -17.5834E+06    -5.01725E+06         76.1734
             981     4.95985E-03     49.3393E-03         6.58682     185.299E-03        -8.11268         1.51580        -3.96358         1.10721        -8.06147     658.788E-03    -329.371E-03    -331.925E-03    -330.824E-03     657.686E-03    -329.371E-03     65.3986E-03    -12.4372E+06    -22.5700E+06    -40.5649E+06    -36.7255E+06    -16.2765E+06    -22.5700E+06    -6.50320E+06         75.9968
             982     4.23625E-03     49.3101E-03         5.15499     180.340E-03        -7.97850     993.763E-03        -4.73919         1.10225         3.35818     654.192E-03    -329.161E-03    -331.299E-03    -329.515E-03     653.593E-03    -330.347E-03     47.8119E-03    -17.5463E+06    -27.2589E+06    -39.8497E+06    -37.9144E+06    -19.4816E+06    -27.2589E+06    -5.80709E+06         75.9684
             983     3.53073E-03     49.2993E-03         12.8613         1.01430        -15.2031         2.10608        -4.44792         1.01430        -17.3386     654.348E-03    -327.536E-03    -331.241E-03    -327.265E-03     654.077E-03    -331.241E-03     31.6664E-03    -20.0202E+06    -31.4368E+06    -41.3529E+06    -39.4224E+06    -21.9507E+06    -31.4368E+06    -5.67965E+06         75.8748
             984     2.82443E-03     49.3066E-03         23.5793     765.673E-03        -23.2752         1.88430        -1.58018     765.673E-03         6.84481     658.466E-03    -327.447E-03    -331.946E-03    -327.356E-03     658.374E-03    -331.946E-03     18.0653E-03    -22.9626E+06     -34.581E+06    -41.4893E+06    -39.7035E+06    -24.7485E+06     -34.581E+06    -4.97662E+06         75.6769
             985     2.11861E-03     49.3361E-03         18.1227         1.01534        -18.8680        -1.38135     636.076E-03         1.01534         18.4510     662.090E-03    -329.486E-03    -332.807E-03    -329.464E-03     662.069E-03    -332.807E-03     8.36330E-03    -24.8281E+06    -36.6702E+06    -40.9592E+06    -39.9445E+06    -25.8427E+06    -36.6702E+06    -3.78588E+06         75.4483
             986     1.41160E-03     49.3587E-03         6.84918         1.61156        -11.1140        -1.70360        -3.38669         2.43702        -9.33972     664.513E-03    -331.629E-03    -333.340E-03    -331.716E-03     664.510E-03    -333.250E-03     2.40399E-03    -25.2198E+06    -38.1090E+06    -40.6665E+06    -39.7950E+06    -26.0913E+06    -38.1090E+06    -2.75735E+06         75.2338
             987     706.403E-06     49.3772E-03         23.0427    -63.7157E-03        -26.9576         6.18434        -10.9247     761.747E-03         38.1284     665.533E-03    -330.837E-03    -334.468E-03    -334.188E-03     665.532E-03    -331.117E-03     894.341E-06    -27.8498E+06    -37.7584E+06    -42.1067E+06    -39.7903E+06    -28.4522E+06    -39.4724E+06    -1.75947E+06         75.0711
             988     12.1336E-03     49.8262E-03         6.60040     180.218E-03        -5.20292        -1.09671         2.49419     180.218E-03     655.944E-03     712.432E-03    -337.658E-03    -376.010E-03    -357.617E-03     694.040E-03    -337.658E-03     278.425E-03     55.9709E+06     46.0410E+06    -30.7190E+06    -4.40300E+06     21.9823E+06     53.7136E+06     761.004E+03         98.9354
             989     11.4462E-03     49.2626E-03         6.74286     249.473E-03        -6.26004        -1.35728         1.84009     249.473E-03         1.86312     710.711E-03    -337.842E-03    -372.686E-03    -355.209E-03     693.234E-03    -337.842E-03     269.662E-03     54.3029E+06     42.1464E+06    -41.1193E+06    -6.84124E+06     15.8942E+06     46.2770E+06    -186.012E+03         95.6291
             990     10.7375E-03     48.9164E-03         3.65111     307.385E-03        -5.12007    -809.092E-03    -659.873E-03     307.385E-03         4.62121     696.870E-03    -334.972E-03    -360.751E-03    -348.917E-03     685.036E-03    -334.972E-03     222.495E-03     49.0518E+06     37.5342E+06    -51.3018E+06    -12.0116E+06     9.76160E+06     37.5342E+06    -48.3242E+03         91.9666
             991     10.0332E-03     48.4476E-03         3.88088     265.383E-03        -5.42125         1.10462        -2.64499     265.383E-03        -1.94798     688.773E-03    -334.391E-03    -356.879E-03    -346.678E-03     678.572E-03    -334.391E-03     204.945E-03     34.6898E+06     24.1269E+06    -51.5075E+06    -20.7617E+06     1.47919E+06     26.5917E+06    -43.5807E+03         88.4293
             992     9.17212E-03     48.2438E-03         7.17806     139.446E-03        -8.03774         1.37889        -2.23857     139.446E-03         5.98814     681.429E-03    -335.967E-03    -350.484E-03    -342.959E-03     673.905E-03    -335.967E-03     175.169E-03     24.5868E+06     14.9625E+06    -46.9584E+06    -25.0536E+06    -729.550E+03     18.3741E+06     2.31462E+06         85.0764
             993     8.47474E-03     47.9567E-03         10.3212     9.86223E-03        -10.8360     993.814E-03        -1.50864     9.86223E-03        -4.12343     678.737E-03    -335.555E-03    -344.838E-03    -339.073E-03     672.971E-03    -335.555E-03     152.923E-03     16.8747E+06     9.42886E+06     -48.888E+06    -32.8419E+06    -118.103E+03     10.3756E+06     1.79733E+06         82.2549
             994     7.77221E-03     47.7521E-03         8.46301    -82.8501E-03        -9.76532     2.37226E-03        -1.30468    -82.8501E-03        -8.09966     675.967E-03    -336.510E-03    -342.201E-03    -337.624E-03     671.390E-03    -336.510E-03     136.005E-03     8.25167E+06    -379.195E+03    -43.4829E+06    -36.9649E+06    -1.62678E+06     2.98125E+06    -1.69581E+06         80.0291
             995     7.06925E-03     47.6042E-03         9.70128     36.7303E-03        -11.7518        -3.32803         1.27754     36.7303E-03         17.6474     672.509E-03    -337.187E-03    -340.689E-03    -337.219E-03     669.039E-03    -337.187E-03     117.865E-03     2.46744E+06    -8.84344E+06    -40.7311E+06    -39.2100E+06    -4.37504E+06    -3.52210E+06    -3.67333E+06         78.2770
             996     6.36699E-03     47.4996E-03         11.5641     252.631E-03        -13.0168        -2.67273         1.14617     326.514E-03         5.70286     671.590E-03    -334.558E-03    -337.495E-03    -335.114E-03     669.210E-03    -334.558E-03     97.3797E-03    -2.12772E+06    -12.7802E+06    -45.7625E+06    -41.8694E+06    -7.98168E+06    -10.8193E+06    -6.31879E+06         77.0166
             997     5.66109E-03     47.4023E-03         9.80534     458.570E-03        -13.0113        -1.01703        -2.26278     532.453E-03        -4.68991     670.717E-03    -332.017E-03    -335.279E-03    -333.715E-03     669.153E-03    -332.017E-03     78.6634E-03    -7.23159E+06    -18.4715E+06    -48.8441E+06    -43.1570E+06    -12.9187E+06    -18.4715E+06    -7.30460E+06         76.2161
             998     4.95097E-03     47.3352E-03         8.00442    -67.4236E-03        -11.6040        -2.92719        -1.59434     854.488E-03    -542.016E-03     664.725E-03    -331.312E-03    -335.368E-03    -334.431E-03     663.788E-03    -331.312E-03     60.3767E-03    -13.9963E+06    -26.2221E+06    -51.0485E+06    -47.0139E+06    -18.0309E+06    -26.2221E+06    -7.94055E+06         75.7956
             999     4.23019E-03     47.3005E-03         5.52269     255.731E-03        -7.74492     358.378E-03        -3.50252         1.17764        -1.85691     659.314E-03    -331.956E-03    -334.181E-03    -333.187E-03     658.824E-03    -332.461E-03     43.2230E-03    -19.7061E+06    -32.2980E+06    -52.0270E+06    -49.0284E+06    -22.7048E+06    -32.2980E+06    -8.86848E+06         75.6086
            1000     3.52592E-03     47.2984E-03         6.85768     920.918E-03        -9.11392         2.03265        -4.52387         1.15590        -6.34584     658.783E-03    -330.654E-03    -333.233E-03    -330.444E-03     658.572E-03    -333.233E-03     27.7522E-03    -24.2817E+06    -37.5281E+06    -52.9679E+06    -49.8677E+06    -27.3819E+06    -37.5281E+06    -8.46455E+06         75.4594
            1001     2.82179E-03     47.3053E-03         13.6545         1.09128        -16.4944    -762.064E-03        -2.31281         1.32626         13.1646     662.449E-03    -329.680E-03    -333.528E-03    -329.615E-03     662.384E-03    -333.528E-03     15.0185E-03    -27.8989E+06    -41.8601E+06    -54.2432E+06    -50.9899E+06    -31.1523E+06    -41.8601E+06    -8.12731E+06         75.2529
            1002     2.11601E-03     47.3341E-03         15.8494         1.50900        -17.9925         1.96079        -4.10393         1.50900         14.8105     665.464E-03    -331.346E-03    -334.197E-03    -331.332E-03     665.450E-03    -334.197E-03     6.21479E-03    -31.8402E+06    -45.8318E+06    -54.2713E+06    -51.3568E+06    -34.7548E+06    -45.8318E+06    -7.03578E+06         75.0183
            1003     1.41168E-03     47.3634E-03         10.4072     528.388E-03        -12.5906         1.70995        -4.71878         1.35385        -16.4743     667.337E-03    -333.303E-03    -334.477E-03    -333.398E-03     667.336E-03    -334.381E-03     1.04102E-03    -35.0633E+06    -48.9591E+06    -53.3599E+06    -51.3840E+06    -37.0392E+06    -48.9591E+06    -5.45461E+06         74.8025
            1004     706.105E-06     47.3774E-03         17.1711         3.44069        -25.3674        -1.66900        -7.35277         4.26615         17.8874     667.458E-03    -332.805E-03    -334.473E-03    -333.856E-03     667.457E-03    -333.421E-03    -462.253E-06    -38.1550E+06    -48.6974E+06    -54.3378E+06    -51.5711E+06    -39.2077E+06    -50.4114E+06    -3.57805E+06         74.6408
            1005     12.1069E-03     47.6756E-03         8.46798    -82.4227E-03        -6.52069    -867.995E-03         2.81528    -82.4227E-03         2.61217     724.888E-03    -342.277E-03    -386.898E-03    -367.401E-03     705.390E-03    -342.277E-03     290.016E-03     61.6371E+06     51.5480E+06    -34.9155E+06    -4.45464E+06     21.7649E+06     60.9593E+06    -1.64640E+06         99.8764
            1006     11.4206E-03     47.1748E-03         7.96058    -143.469E-03        -7.21433        -1.57347         2.31972    -143.469E-03         2.27383     723.495E-03    -342.685E-03    -382.930E-03    -364.697E-03     705.262E-03    -342.685E-03     278.355E-03     55.3286E+06     45.2987E+06    -48.4648E+06    -10.7718E+06     12.3292E+06     50.6052E+06    -1.98424E+06         96.8637
            1007     10.7230E-03     46.7586E-03         4.90426    -87.8179E-03        -4.52675    -985.568E-03         1.50156    -226.301E-03    -472.651E-03     710.029E-03    -340.025E-03    -371.496E-03    -359.390E-03     697.924E-03    -340.025E-03     227.525E-03     50.9650E+06     38.5015E+06    -69.3639E+06    -16.2295E+06    -3.34520E+06     39.6774E+06     668.400E+03         93.4763
            1008     10.0214E-03     46.4644E-03         3.07471    -118.317E-03        -3.53078        -2.17858         1.86099    -256.800E-03         1.09469     702.595E-03    -339.150E-03    -366.171E-03    -356.009E-03     692.433E-03    -339.150E-03     206.831E-03     46.6297E+06     31.7744E+06    -65.4892E+06    -19.4050E+06    -1.91932E+06     34.2392E+06     7.65076E+06         90.0364
            1009     9.14192E-03     46.1971E-03         5.94647    -276.192E-03        -4.91694     240.183E-03     789.349E-03    -276.192E-03         3.13391     694.519E-03    -340.102E-03    -358.727E-03    -351.273E-03     687.066E-03    -340.102E-03     176.114E-03     35.7080E+06     23.0336E+06    -54.6348E+06    -31.4583E+06     8.86920E+06     26.6959E+06     4.70243E+06         86.6403
            1010     8.44585E-03     45.9145E-03         9.18860    -387.349E-03        -9.16463     710.880E-03    -686.911E-03    -387.349E-03        -2.89240     690.529E-03    -339.733E-03    -352.523E-03    -346.901E-03     684.907E-03    -339.733E-03     152.421E-03     25.0664E+06     15.7348E+06    -49.4694E+06    -34.3497E+06     6.41369E+06     19.2679E+06    -680.414E+03         83.7305
            1011     7.75084E-03     45.7335E-03         7.91070    -409.462E-03        -8.28123        -1.60949         1.23897    -409.462E-03        -5.78667     687.338E-03    -340.297E-03    -348.962E-03    -344.639E-03     683.015E-03    -340.297E-03     133.279E-03     15.9866E+06     6.37756E+06    -43.2276E+06    -36.8042E+06     3.86710E+06     12.0737E+06    -2.00451E+06         81.3898
            1012     7.05192E-03     45.6116E-03         11.2081    -441.283E-03        -10.7169     884.812E-03    -393.663E-03    -441.283E-03         17.4514     682.347E-03    -340.352E-03    -347.009E-03    -343.865E-03     679.202E-03    -340.352E-03     113.022E-03     7.66842E+06    -2.82065E+06    -42.9687E+06    -41.6858E+06     1.22909E+06     2.33581E+06    -4.47045E+06         79.4527
            1013     6.35560E-03     45.4942E-03         16.4236    -620.644E-03        -18.6235     777.678E-03        -2.97756    -620.644E-03        -1.88786     679.613E-03    -337.700E-03    -343.688E-03    -341.605E-03     677.530E-03    -337.700E-03     91.6362E-03     1.16183E+06    -9.85153E+06    -50.8011E+06    -47.1069E+06    -4.32837E+06    -8.05552E+06    -6.25994E+06         77.9148
            1014     5.65265E-03     45.3925E-03         17.2363    -645.622E-03        -19.5429        -2.19311    -113.427E-03    -645.622E-03     91.4526E-03     679.009E-03    -334.912E-03    -341.054E-03    -339.757E-03     677.712E-03    -334.912E-03     71.9552E-03    -4.83567E+06    -18.0831E+06    -59.8029E+06    -53.4866E+06    -11.1520E+06    -18.0831E+06    -9.13183E+06         76.7756
            1015     4.95124E-03     45.3288E-03         16.4360    -380.218E-03        -16.4079        -3.21540         3.24345    -380.218E-03         4.38073     673.156E-03    -333.750E-03    -339.728E-03    -339.014E-03     672.442E-03    -333.750E-03     52.8501E-03    -13.5189E+06    -26.7017E+06    -60.6444E+06    -55.6638E+06    -18.4995E+06    -26.7017E+06    -11.4283E+06         75.9846
            1016     4.22772E-03     45.2949E-03         9.55552    -133.132E-03        -9.09290    -874.296E-03         1.33691    -133.132E-03        -17.9022     665.841E-03    -334.512E-03    -337.851E-03    -337.412E-03     665.500E-03    -334.609E-03     36.1119E-03    -22.1293E+06    -36.0167E+06    -62.8684E+06    -59.0462E+06    -25.9515E+06    -36.0167E+06    -11.6188E+06         75.4719
            1017     3.52514E-03     45.2939E-03         7.39376    -298.735E-03        -8.30863    -143.641E-03        -1.00621    -63.7511E-03         4.21949     663.950E-03    -333.742E-03    -335.920E-03    -334.220E-03     663.816E-03    -335.308E-03     21.8533E-03    -27.3593E+06    -44.2266E+06    -67.5841E+06    -61.8749E+06    -33.0685E+06    -44.2266E+06    -12.9808E+06         75.1420
            1018     2.82070E-03     45.3020E-03         7.19682     9.68579E-03        -10.5845        -2.01019        -1.61252     244.670E-03         12.6831     667.270E-03    -332.550E-03    -335.578E-03    -332.516E-03     667.235E-03    -335.578E-03     10.4683E-03    -35.3810E+06    -51.3165E+06    -69.1778E+06    -62.6195E+06    -41.9393E+06    -51.3165E+06    -12.7340E+06         74.8665
            1019     2.11677E-03     45.3279E-03         4.22274    -208.175E-03        -8.99600    -159.229E-03        -5.51903     696.823E-03         4.74797     669.789E-03    -333.510E-03    -336.184E-03    -333.505E-03     669.784E-03    -336.184E-03     3.35857E-03    -43.7251E+06    -57.2326E+06    -68.8091E+06    -63.8786E+06    -48.6555E+06    -57.2326E+06    -9.95649E+06         74.6023
            1020     1.41089E-03     45.3437E-03         6.65760    -568.844E-03        -8.30136         2.39625        -4.94500     336.154E-03        -5.43199     670.939E-03    -334.866E-03    -336.292E-03    -334.871E-03     670.939E-03    -336.286E-03    -191.070E-06    -49.4448E+06    -62.0988E+06    -69.1516E+06    -65.2936E+06    -53.3027E+06    -62.0988E+06    -7.59780E+06         74.3763
            1021     705.743E-06     45.3627E-03         15.4685         8.42187        -20.1728        -8.74646         4.04221         8.42187         17.3633     671.784E-03    -335.307E-03    -336.318E-03    -335.395E-03     671.783E-03    -336.231E-03    -1.45456E-03    -55.6464E+06    -64.8147E+06    -70.1478E+06    -66.9112E+06     -58.883E+06    -64.8147E+06    -4.85258E+06         74.2154
            1022     12.0449E-03     45.6081E-03         9.82992    -258.603E-03        -9.00889         3.29337        -2.47234    -258.603E-03         1.01202     745.343E-03    -347.783E-03    -398.906E-03    -378.077E-03     724.514E-03    -347.783E-03     304.186E-03     73.0405E+06     61.0941E+06    -41.3543E+06    -5.00085E+06     28.8552E+06     68.9260E+06     1.13659E+06         100.839
            1023     11.3652E-03     45.0785E-03         8.53088    -407.435E-03        -7.98191         2.43604        -1.88706    -407.435E-03         3.18186     745.593E-03    -347.728E-03    -395.602E-03    -376.331E-03     726.322E-03    -347.728E-03     290.430E-03     65.2526E+06     49.2896E+06    -69.7352E+06    -10.7823E+06     2.40928E+06     53.1799E+06     1.50765E+06         98.1905
            1024     10.6745E-03     44.7176E-03         5.42771    -360.153E-03        -4.31455         1.04693     204.712E-03    -498.636E-03        -6.35002     733.425E-03    -345.060E-03    -385.258E-03    -372.643E-03     720.810E-03    -345.060E-03     236.201E-03     55.5856E+06     31.7820E+06    -89.1440E+06    -14.3183E+06    -20.4160E+06     32.9579E+06     9.31308E+06         95.2358
            1025     9.99427E-03     44.4423E-03         4.58099    -433.897E-03        -2.69634         1.05063     972.499E-03    -572.380E-03     506.777E-03     726.087E-03    -343.811E-03    -379.319E-03    -368.777E-03     715.545E-03    -343.811E-03     214.283E-03     50.1846E+06     29.1928E+06    -66.3703E+06    -19.3740E+06    -1.42220E+06     33.8033E+06     10.9110E+06         92.1103
            1026     9.10361E-03     44.1536E-03         5.74760    -602.577E-03        -4.72473        -1.22019         2.24307    -602.577E-03        -4.81548     717.512E-03    -343.875E-03    -372.207E-03    -364.421E-03     709.725E-03    -343.875E-03     183.091E-03     55.2876E+06     36.4399E+06    -48.0825E+06    -18.9747E+06     20.3719E+06     42.2479E+06     11.0491E+06         88.8435
            1027     8.41501E-03     43.9172E-03         6.98219    -308.069E-03        -5.30059        -1.30771         3.23418    -552.943E-03        -3.49146     712.009E-03    -343.247E-03    -365.964E-03    -360.214E-03     706.259E-03    -343.247E-03     156.572E-03     45.1572E+06     28.7561E+06    -47.8179E+06    -28.8746E+06     22.6808E+06     32.2892E+06     8.94637E+06         85.8931
            1028     7.72667E-03     43.7116E-03         8.35120    -314.058E-03        -6.26507     206.324E-03         2.12468    -558.932E-03        -6.69034     707.099E-03    -343.270E-03    -361.545E-03    -357.364E-03     702.918E-03    -343.270E-03     132.997E-03     27.0971E+06     15.0863E+06    -45.3998E+06    -40.2309E+06     16.8722E+06     20.1423E+06     2.53034E+06         83.4053
            1029     7.03528E-03     43.5619E-03         10.1908    -719.305E-03        -9.95676         1.71925        -1.48520    -719.305E-03         1.84748     699.168E-03    -342.418E-03    -358.863E-03    -355.975E-03     696.281E-03    -342.418E-03     109.737E-03     16.0097E+06     3.69567E+06    -49.8758E+06    -48.4055E+06     10.0230E+06     8.21208E+06    -2.02585E+06         81.2499
            1030     6.34238E-03     43.4472E-03         11.2928    -996.849E-03        -12.0819         1.91438        -2.70355    -996.849E-03        -1.61885     692.114E-03    -339.752E-03    -354.248E-03    -352.427E-03     690.292E-03    -339.752E-03     86.5423E-03     9.81214E+06    -4.64464E+06    -58.1745E+06    -54.4879E+06     4.32954E+06    -2.84862E+06    -7.06344E+06         79.4407
            1031     5.64859E-03     43.3766E-03         18.3713        -1.26796        -17.5520     595.524E-03     223.770E-03        -1.26796         11.3648     688.586E-03    -337.062E-03    -349.743E-03    -348.677E-03     687.521E-03    -337.062E-03     65.6301E-03     509.911E+03    -13.7850E+06    -64.0387E+06    -57.6552E+06    -5.87352E+06    -13.7850E+06    -11.3245E+06         77.9890
            1032     4.94338E-03     43.3123E-03         23.0389        -1.59537        -20.2313         1.25995         1.54762        -1.59537         4.38494     680.387E-03    -334.925E-03    -345.718E-03    -345.173E-03     679.842E-03    -334.925E-03     46.3754E-03    -11.8115E+06    -26.9623E+06    -69.5054E+06    -63.6501E+06    -17.6668E+06    -26.9623E+06    -14.1395E+06         76.8627
            1033     4.22827E-03     43.2828E-03         15.5408        -1.99791        -12.2246     222.848E-03         3.09332        -1.99791        -17.8312     670.618E-03    -334.597E-03    -341.535E-03    -341.299E-03     670.382E-03    -334.597E-03     29.9298E-03    -23.8855E+06    -40.5497E+06    -74.6421E+06    -67.2802E+06    -31.2474E+06    -40.5497E+06    -16.2168E+06         76.0106
            1034     3.52527E-03     43.2793E-03         13.9675        -2.21112        -11.5209        -2.00209         4.44872        -2.21112         3.83124     665.787E-03    -334.336E-03    -336.995E-03    -336.322E-03     665.711E-03    -334.933E-03     16.0807E-03    -36.9016E+06    -53.3884E+06    -77.9094E+06    -69.9371E+06    -44.8739E+06    -53.3884E+06    -14.1434E+06         75.3838
            1035     2.82228E-03     43.2956E-03         9.45332        -2.23929        -10.6689        -2.12351     907.961E-03        -2.23929         1.73016     666.675E-03    -333.202E-03    -335.213E-03    -333.241E-03     666.662E-03    -335.160E-03     5.85230E-03    -49.9991E+06    -64.3366E+06    -81.3551E+06    -75.2509E+06    -56.1032E+06    -64.3366E+06    -11.5555E+06         74.9088
            1036     2.11620E-03     43.3297E-03         5.17855        -2.78370        -8.04241        -3.88369     114.832E-03        -1.87870         4.99649     668.718E-03    -333.132E-03    -335.678E-03    -333.130E-03     668.715E-03    -335.678E-03    -162.086E-06    -60.1237E+06    -72.2182E+06    -83.6728E+06    -78.2845E+06    -65.5121E+06    -72.2182E+06    -9.66471E+06         74.5399
            1037     1.41042E-03     43.3583E-03         8.85697        -1.76797        -8.35128        -3.31418         2.91488    -862.976E-03         10.9110     669.894E-03    -334.092E-03    -335.776E-03    -334.090E-03     669.891E-03    -335.776E-03    -2.62864E-03    -68.7358E+06    -78.2718E+06    -84.1898E+06    -80.1093E+06    -72.8164E+06    -78.2718E+06    -6.40497E+06         74.2747
            1038     704.127E-06     43.3707E-03         16.5598         11.4659        -25.1494        -12.4562         3.27351         12.0590         35.7882     671.422E-03    -335.203E-03    -336.404E-03    -335.282E-03     671.420E-03    -336.322E-03    -2.75787E-03    -75.4390E+06    -82.8395E+06    -85.3081E+06    -82.2165E+06    -78.0681E+06    -83.3021E+06    -2.64504E+06         74.1134
            1039     11.9636E-03     43.5651E-03         11.4512    -464.051E-03        -10.9313    -297.327E-03     817.191E-03    -464.051E-03    -496.245E-03     766.476E-03    -357.449E-03    -408.437E-03    -385.961E-03     744.000E-03    -357.449E-03     320.039E-03     86.3845E+06     62.1863E+06    -56.4428E+06    -4.09985E+06     23.0905E+06     73.1373E+06     8.37808E+06         102.219
            1040     11.2834E-03     43.0142E-03         8.77978    -597.013E-03        -8.48564    -207.955E-03     502.091E-03    -597.013E-03         11.5533     767.200E-03    -356.835E-03    -405.475E-03    -384.430E-03     746.156E-03    -356.835E-03     307.806E-03     78.9564E+06     53.5495E+06    -79.2960E+06    -7.42269E+06     4.36868E+06      56.264E+06     14.7386E+06         100.139
            1041     10.6057E-03     42.6265E-03         6.58734    -671.533E-03        -6.57345        -2.14819         2.16208    -671.533E-03    -517.175E-03     756.801E-03    -354.365E-03    -397.026E-03    -382.751E-03     742.527E-03    -354.365E-03     254.860E-03     62.3243E+06     28.9912E+06    -101.779E+06    -10.9862E+06    -28.4689E+06     28.9912E+06     14.1700E+06         97.7297
            1042     9.92314E-03     42.3267E-03         6.21302    -670.553E-03        -5.96649        -1.84795         2.09448    -670.553E-03         2.05969     751.643E-03    -352.914E-03    -393.337E-03    -381.362E-03     739.668E-03    -352.914E-03     232.157E-03     69.8864E+06     27.9734E+06    -83.1333E+06    -15.1248E+06    -2.73260E+06     32.5840E+06     20.5849E+06         94.9435
            1043     9.08306E-03     42.0224E-03         7.08605    -644.251E-03        -6.23709        -1.29120         2.14016    -644.251E-03        -2.40516     743.763E-03    -352.218E-03    -387.986E-03    -379.159E-03     734.936E-03    -352.218E-03     198.500E-03     78.4023E+06     42.4494E+06    -60.6813E+06    -31.4940E+06     44.6045E+06     47.0599E+06     19.3666E+06         91.8164
            1044     8.37860E-03     41.8060E-03         7.21118    -458.376E-03        -4.71049     898.864E-03         1.84670    -703.250E-03        -3.39725     736.721E-03    -350.948E-03    -381.624E-03    -375.268E-03     730.365E-03    -350.948E-03     167.395E-03     59.9524E+06     40.3374E+06    -53.4812E+06    -40.7582E+06     47.2294E+06     40.3374E+06     8.97374E+06         88.8315
            1045     7.69851E-03     41.6496E-03         8.65276    -588.635E-03        -7.30450     47.0481E-03         1.54608    -833.509E-03        -8.53058     730.376E-03    -350.435E-03    -376.175E-03    -371.798E-03     725.999E-03    -350.435E-03     138.324E-03     39.5975E+06     26.9875E+06    -46.0094E+06    -43.1885E+06     34.0563E+06     29.7079E+06     1.83198E+06         86.2002
            1046     7.01192E-03     41.4964E-03         8.80524    -914.699E-03        -8.86764    -516.587E-03     454.186E-03    -914.699E-03        -9.25896     720.326E-03    -349.414E-03    -371.697E-03    -368.785E-03     717.414E-03    -349.414E-03     111.914E-03     29.9936E+06     16.3538E+06    -49.2129E+06    -47.1004E+06     25.1606E+06     19.0742E+06    -4.37650E+06         83.8505
            1047     6.32508E-03     41.3691E-03         7.25265        -1.12090        -5.89903         1.98930    -635.682E-03        -1.12090         4.84427     709.412E-03    -346.774E-03    -365.537E-03    -363.765E-03     707.639E-03    -346.774E-03     86.4797E-03     18.7653E+06     5.13740E+06    -55.1566E+06    -50.8095E+06     14.4182E+06     5.13740E+06    -8.90828E+06         81.8099
            1048     5.63360E-03     41.2771E-03         12.7198        -1.53795        -10.2544         2.19444     271.006E-03        -1.53795         18.0680     703.415E-03    -344.071E-03    -359.082E-03    -358.091E-03     702.424E-03    -344.071E-03     64.0174E-03     2.06747E+06    -13.1815E+06    -63.2485E+06    -56.7587E+06    -4.42235E+06    -13.1815E+06    -11.1462E+06         80.0823
            1049     4.93342E-03     41.2415E-03         18.4429        -2.16532        -15.3477         3.10830    -13.1197E-03        -2.16532        -2.35123     694.529E-03    -341.025E-03    -353.313E-03    -352.836E-03     694.052E-03    -341.025E-03     43.7080E-03    -15.9331E+06    -32.0963E+06    -71.6074E+06    -63.3851E+06    -24.1554E+06    -32.0963E+06    -9.61281E+06         78.6590
            1050     4.22635E-03     41.2277E-03         19.0930        -2.65213        -16.5530        -1.64737         4.18736        -2.65213        -2.57975     685.406E-03    -338.764E-03    -348.159E-03    -347.976E-03     685.224E-03    -338.764E-03     26.3209E-03    -31.0742E+06    -50.1397E+06    -82.5106E+06    -73.5773E+06    -40.0074E+06    -50.1397E+06    -6.31723E+06         77.5245
            1051     3.52655E-03     41.2399E-03         22.6906        -2.32722        -21.5480        -6.71983         7.86240        -2.32722        -10.5675     678.282E-03    -337.891E-03    -342.682E-03    -342.634E-03     678.235E-03    -337.891E-03     12.4589E-03    -47.8723E+06    -65.6502E+06    -88.8037E+06    -83.9503E+06    -52.7257E+06    -65.6502E+06    -6.11309E+06         76.6383
            1052     2.82180E-03     41.2719E-03         15.3268        -1.77790        -15.2959        -3.02956         3.06052        -1.77790        -23.9305     673.990E-03    -336.948E-03    -339.324E-03    -338.733E-03     673.984E-03    -337.534E-03     2.55797E-03    -64.9296E+06    -78.0236E+06    -91.4784E+06    -89.0912E+06    -67.3167E+06    -78.0236E+06    -6.43356E+06         75.9447
            1053     2.11758E-03     41.3010E-03         6.74976        -1.70277        -6.91357        -1.74387         1.58006        -1.70277         9.48801     674.116E-03    -336.444E-03    -338.450E-03    -337.371E-03     674.112E-03    -337.519E-03    -3.39605E-03    -76.4087E+06    -88.2399E+06    -96.6527E+06    -93.6247E+06    -79.4367E+06    -88.2399E+06    -4.71217E+06         75.4111
            1054     1.41151E-03     41.3507E-03         9.00404        -1.35272        -7.64349        -3.26313         4.62369        -1.35272         10.3390     674.621E-03    -336.543E-03    -338.106E-03    -337.416E-03     674.614E-03    -337.226E-03    -5.29424E-03    -84.5101E+06    -94.4405E+06    -98.7068E+06    -96.9801E+06    -86.2367E+06    -94.4405E+06    -2.66282E+06         75.0346
            1055     706.578E-06     41.3707E-03         20.0060         1.42059        -23.9143    -684.990E-03    -416.694E-03        -1.38594         11.5654     674.308E-03    -337.076E-03    -338.285E-03    -337.328E-03     674.304E-03    -338.029E-03    -3.85123E-03    -88.5665E+06    -95.7316E+06    -98.8754E+06    -96.3524E+06    -90.6270E+06    -96.1941E+06    -2.03888E+06         74.8147
            1056     11.8402E-03     41.4171E-03         8.42330    -953.536E-03        -9.00069        -1.74883         1.17144    -953.536E-03    -434.290E-03     785.401E-03    -366.623E-03    -418.616E-03    -392.810E-03     759.596E-03    -366.623E-03     346.434E-03     85.9049E+06     51.2116E+06    -76.9833E+06    -6.32939E+06    -6.58407E+06     73.0467E+06     3.01813E+06         104.564
            1057     11.1606E-03     40.8050E-03         8.34344        -1.03197        -8.39690    -698.317E-03     644.862E-03        -1.03197         11.2142     785.612E-03    -366.350E-03    -416.186E-03    -391.209E-03     760.635E-03    -366.350E-03     339.651E-03     75.2884E+06     37.0299E+06    -99.9991E+06    -13.0730E+06    -25.2363E+06     50.6284E+06     7.79956E+06         103.034
            1058     10.4768E-03     40.4872E-03         8.22524        -1.03479        -8.75512        -2.68761         2.15774        -1.03479         3.66456     777.284E-03    -364.314E-03    -410.466E-03    -392.786E-03     759.604E-03    -364.314E-03     287.189E-03     51.9277E+06     10.1456E+06    -111.744E+06    -16.2650E+06    -43.5509E+06     10.1456E+06     18.1941E+06         100.927
            1059     9.80217E-03     40.0762E-03         7.24132    -919.768E-03        -7.99046        -3.12882         2.37968    -919.768E-03        -4.84589     776.095E-03    -362.381E-03    -410.346E-03    -395.597E-03     761.346E-03    -362.381E-03     261.818E-03     72.0348E+06     22.9836E+06    -86.7273E+06    -24.8426E+06     10.1501E+06     22.9836E+06     20.5885E+06         98.1728
            1060     9.00522E-03     39.7804E-03         8.86193    -948.520E-03        -7.48363     935.280E-03     443.021E-03    -948.520E-03         4.07312     769.734E-03    -361.216E-03    -406.064E-03    -395.190E-03     758.860E-03    -361.216E-03     224.237E-03     97.1177E+06     65.8454E+06    -43.4683E+06    -24.2857E+06     77.9350E+06     65.8454E+06     12.3144E+06         94.9642
            1061     8.32507E-03     39.5139E-03         9.83846        -1.02626        -9.58998        -2.00751         2.25599        -1.02626    -792.786E-03     760.513E-03    -359.150E-03    -398.801E-03    -390.953E-03     752.665E-03    -359.150E-03     189.060E-03     76.1246E+06     62.1143E+06    -32.1932E+06    -22.0726E+06     66.0040E+06     62.1143E+06     4.80865E+06         91.8751
            1062     7.65682E-03     39.3304E-03         9.13966    -876.751E-03        -9.94782        -3.68631         2.87814    -876.751E-03        -13.7491     751.998E-03    -357.988E-03    -391.816E-03    -386.408E-03     746.590E-03    -357.988E-03     155.930E-03     55.7576E+06     44.9511E+06    -32.7917E+06    -29.3497E+06     51.1315E+06     46.1353E+06     2.58970E+06         89.1307
            1063     6.97812E-03     39.1848E-03         8.69773    -697.910E-03        -7.72240        -1.49915         2.47448    -697.910E-03        -14.5104     740.667E-03    -357.190E-03    -385.077E-03    -381.490E-03     737.080E-03    -357.190E-03     125.818E-03     34.3288E+06     22.5575E+06    -42.7424E+06    -39.5579E+06     29.9602E+06     23.7416E+06     691.816E+03         86.6572
            1064     6.29604E-03     39.0706E-03         8.79206    -651.535E-03        -6.45040    -384.069E-03         2.72573    -651.535E-03         1.73972     726.682E-03    -354.126E-03    -377.007E-03    -374.811E-03     724.486E-03    -354.126E-03     97.2695E-03     13.4255E+06     375.661E+03    -54.2695E+06    -51.9821E+06     11.1380E+06     375.661E+03     3.87585E+06         84.4855
            1065     5.61129E-03     39.0156E-03         7.47386    -844.997E-03        -3.89075         2.43395         1.14916    -844.997E-03         9.79085     718.634E-03    -350.689E-03    -368.405E-03    -367.168E-03     717.397E-03    -350.689E-03     72.1645E-03     3.81752E+06    -21.7693E+06    -73.1298E+06    -65.3768E+06    -3.93541E+06    -21.7693E+06     6.85408E+06         82.6033
            1066     4.90681E-03     38.9918E-03         7.72473        -1.16697        -6.18533     732.077E-03     807.319E-03        -1.16697        -5.98080     709.644E-03    -347.793E-03    -360.977E-03    -360.375E-03     709.042E-03    -347.793E-03     49.3872E-03    -13.5615E+06    -41.5855E+06    -88.5884E+06    -78.7104E+06    -23.4395E+06    -41.5855E+06     4.05734E+06         80.9928
            1067     4.21885E-03     39.0151E-03         15.8639        -1.12264        -16.4879        -3.33880         2.71478        -1.12264         13.1403     701.129E-03    -345.380E-03    -355.890E-03    -355.660E-03     700.899E-03    -345.380E-03     29.6371E-03    -39.3918E+06    -57.2205E+06    -88.9084E+06    -84.9608E+06    -43.3395E+06    -57.2205E+06     1.02860E+06         79.6713
            1068     3.51993E-03     39.0562E-03         27.1727    -451.068E-03        -27.7528        -5.58555         5.00543    -451.068E-03        -10.9307     694.060E-03    -343.958E-03    -350.967E-03    -350.908E-03     694.001E-03    -343.958E-03     13.9432E-03    -50.7251E+06    -70.6391E+06    -91.8905E+06    -88.2068E+06    -54.4088E+06    -70.6391E+06     1.87677E+06         78.6313
            1069     2.81874E-03     39.1043E-03         20.5005     750.955E-03        -19.1359        -5.05609         6.42065     750.955E-03        -30.3575     688.046E-03    -342.568E-03    -346.689E-03    -346.681E-03     688.039E-03    -342.568E-03     2.29375E-03    -63.9847E+06    -82.0356E+06    -96.8562E+06    -94.2237E+06    -66.6173E+06    -82.0356E+06     1.14194E+06         77.8144
            1070     2.11548E-03     39.1812E-03         6.04670         2.04564        -4.58261        -1.60712         3.07121         2.04564         4.96313     684.682E-03    -341.325E-03    -343.654E-03    -343.650E-03     684.677E-03    -341.325E-03    -4.12669E-03    -79.8633E+06    -90.2145E+06    -100.453E+06    -98.4809E+06    -82.5899E+06    -89.4604E+06    -1.43830E+06         77.1649
            1071     1.41287E-03     39.2408E-03         5.17073         1.45647        -7.49031    -525.379E-03        -3.97296         3.63524        -1.88656     681.946E-03    -340.373E-03    -341.774E-03    -341.691E-03     681.939E-03    -340.449E-03    -5.24461E-03    -87.6222E+06    -96.7818E+06    -102.536E+06    -100.040E+06    -90.4675E+06    -96.4330E+06    -1.82765E+06         76.6731
            1072     706.566E-06     39.3028E-03         31.4198        -10.0129        -21.9827         23.2200        -9.73521        -14.0606        -27.8191     680.459E-03    -340.227E-03    -340.888E-03    -340.669E-03     680.456E-03    -340.443E-03    -2.43835E-03    -95.1205E+06    -101.149E+06    -107.022E+06    -101.562E+06    -100.175E+06    -101.555E+06    -1.81645E+06         76.3600
            1073     11.7034E-03     39.1348E-03         3.05228    -741.283E-03        -5.90415     642.749E-03        -3.49462    -741.283E-03        -2.53472     812.210E-03    -375.829E-03    -433.840E-03    -402.127E-03     780.496E-03    -375.829E-03     389.648E-03     101.495E+06     39.0413E+06    -89.9401E+06    -2.08367E+06    -18.7706E+06     71.4506E+06     17.1855E+06         107.839
            1074     11.0143E-03     38.3946E-03         6.93416    -594.639E-03        -10.2516         1.19880        -4.51621    -594.639E-03         6.23934     816.848E-03    -375.979E-03    -436.887E-03    -405.502E-03     785.463E-03    -375.979E-03     388.461E-03     95.7534E+06     15.9050E+06    -108.347E+06    -9.69955E+06    -16.4922E+06     29.5035E+06     25.1367E+06         106.454
            1075     10.3394E-03     37.9676E-03         8.97546    -529.381E-03        -10.2587         2.65330        -3.93651    -529.381E-03         10.3423     811.843E-03    -373.744E-03    -433.814E-03    -410.970E-03     789.000E-03    -373.744E-03     333.719E-03     65.9106E+06     1.02775E+06    -92.3160E+06    -7.08609E+06    -19.3192E+06     1.02775E+06     9.01972E+06         104.401
            1076     9.64852E-03     37.4881E-03         10.2730    -613.113E-03        -8.66010         2.93896        -1.32610    -613.113E-03        -11.5069     811.516E-03    -372.140E-03    -434.517E-03    -415.491E-03     792.491E-03    -372.140E-03     304.314E-03     84.7374E+06     47.1662E+06    -40.2567E+06     12.5110E+06     25.2958E+06     53.8402E+06    -840.331E+03         101.631
            1077     8.86551E-03     37.2001E-03         15.9352    -679.130E-03        -16.2268     243.568E-03    -535.220E-03    -679.130E-03         9.95119     804.818E-03    -372.127E-03    -428.272E-03    -414.036E-03     790.582E-03    -372.127E-03     262.387E-03     99.5691E+06     81.8676E+06    -3.60896E+06     15.2548E+06     74.0314E+06     88.5415E+06     7.33786E+06         98.3552
            1078     8.23170E-03     36.9633E-03         20.1137    -508.043E-03        -21.1626        -3.33447         2.28556    -508.043E-03         1.81987     794.192E-03    -370.138E-03    -419.228E-03    -408.535E-03     783.499E-03    -370.138E-03     225.640E-03     90.7206E+06     69.2361E+06    -9.39156E+06     10.1216E+06     71.2074E+06     69.2361E+06     13.8739E+06         95.1474
            1079     7.57106E-03     36.7719E-03         14.4138    -198.452E-03        -13.0786        -2.77176         4.10697    -198.452E-03        -21.7332     783.777E-03    -368.449E-03    -411.698E-03    -403.889E-03     775.969E-03    -368.449E-03     191.146E-03     66.0380E+06     43.5102E+06    -14.6883E+06     5.49495E+06     44.6706E+06     44.6944E+06     19.4982E+06         92.2361
            1080     6.90412E-03     36.6476E-03         7.93035     117.449E-03        -6.79833        -2.98817         4.12019     117.449E-03        -8.60294     771.143E-03    -367.271E-03    -403.702E-03    -398.277E-03     765.718E-03    -367.271E-03     157.659E-03     56.6516E+06     33.3355E+06    -19.4513E+06    -1.29619E+06     37.3123E+06     34.5197E+06     25.8428E+06         89.5675
            1081     6.23860E-03     36.5992E-03         7.02258     463.956E-03        -6.58902        -2.54145         2.97501     463.956E-03        -6.10992     755.313E-03    -364.010E-03    -395.258E-03    -391.714E-03     751.770E-03    -364.010E-03     125.673E-03     48.7662E+06     20.8142E+06    -30.9545E+06    -9.85951E+06     18.9541E+06     29.5313E+06     22.2255E+06         87.1986
            1082     5.56401E-03     36.5778E-03         5.87989     645.629E-03        -5.55550     529.028E-03    -204.638E-03     645.629E-03         3.71671     743.733E-03    -359.738E-03    -384.590E-03    -382.427E-03     741.571E-03    -359.738E-03     96.6632E-03     34.9122E+06     7.06516E+06    -33.8803E+06    -14.6176E+06     6.93256E+06     15.7822E+06     14.8343E+06         85.1242
            1083     4.87380E-03     36.6063E-03         6.35795     643.498E-03        -6.03257     518.744E-03    -193.360E-03     643.498E-03    -589.600E-03     732.083E-03    -356.086E-03    -374.776E-03    -373.597E-03     730.904E-03    -356.086E-03     69.8689E-03     38.9239E+06     4.07009E+06    -55.7724E+06    -13.3995E+06    -3.44896E+06     4.07009E+06     10.5806E+06         83.3174
            1084     4.18852E-03     36.6546E-03         11.4108     594.490E-03        -12.1662     845.859E-03        -1.60134     594.490E-03         11.5989     721.611E-03    -353.373E-03    -368.220E-03    -367.687E-03     721.078E-03    -353.373E-03     45.7328E-03     12.5218E+06    -11.2038E+06    -76.5651E+06    -23.1001E+06    -45.7359E+06    -6.41106E+06     9.54463E+06         81.7967
            1085     3.50016E-03     36.7187E-03         17.6220     483.187E-03        -18.9792         1.19083        -2.54800     483.187E-03        -2.32245     712.425E-03    -350.932E-03    -361.927E-03    -361.741E-03     712.239E-03    -350.932E-03     25.4879E-03    -11.0963E+06    -27.9686E+06    -62.9005E+06    -36.3779E+06    -46.5249E+06    -19.0626E+06     8.08332E+06         80.5858
            1086     2.80609E-03     36.7997E-03         13.7011     558.360E-03        -13.2730    -282.853E-03     710.922E-03     558.360E-03        -20.0935     703.550E-03    -347.748E-03    -355.610E-03    -355.565E-03     703.505E-03    -347.748E-03     10.3164E-03    -18.8017E+06    -35.4458E+06    -73.2759E+06    -42.2052E+06    -53.9857E+06    -31.3325E+06     3.33785E+06         79.6558
            1087     2.10934E-03     36.8951E-03         9.54621         1.05220        -6.05011    -311.700E-03         3.80779         1.05220         6.59735     695.320E-03    -345.152E-03    -349.435E-03    -349.426E-03     695.311E-03    -345.152E-03     1.15474E-03    -36.3757E+06    -43.8364E+06    -84.5063E+06    -48.6255E+06    -74.6658E+06    -41.4271E+06     908.242E+03         78.9389
            1088     1.40671E-03     37.0309E-03         17.3833     83.1340E-03        -11.8173    -387.945E-03         3.77516         2.26190        -7.68191     689.535E-03    -344.205E-03    -345.469E-03    -345.390E-03     689.532E-03    -344.281E-03    -2.39163E-03    -49.6765E+06    -54.3386E+06    -90.8427E+06    -55.5095E+06    -87.3578E+06    -51.9906E+06    -2.99800E+06         78.4027
            1089     703.619E-06     37.1045E-03         39.6249        -2.86770        -28.4711         25.5828     642.720E-03        -17.9395        -27.9155     687.830E-03    -343.552E-03    -344.133E-03    -344.056E-03     687.828E-03    -343.627E-03    -1.62483E-03    -54.9965E+06    -57.4755E+06    -118.229E+06    -57.8843E+06    -115.280E+06    -57.5367E+06    -5.46527E+06         78.0490
            1090     11.5257E-03     36.5801E-03         4.12614     61.8712E-03        -5.08911    -180.082E-03    -782.880E-03     61.8712E-03        -5.25709     848.785E-03    -392.108E-03    -455.602E-03    -415.676E-03     808.859E-03    -392.108E-03     446.755E-03     94.5324E+06     30.4497E+06    -138.223E+06     7.36817E+06    -69.8699E+06     49.2606E+06     6.13066E+06         111.647
            1091     10.8399E-03     35.8456E-03         8.04443     168.508E-03        -7.99056         1.16638        -1.11251     168.508E-03         9.17574     862.234E-03    -393.411E-03    -466.540E-03    -426.331E-03     822.026E-03    -393.411E-03     452.249E-03     121.370E+06     53.8739E+06    -109.261E+06     29.0451E+06    -16.9362E+06     53.8739E+06     7.53973E+06         110.288
            1092     10.1672E-03     35.3568E-03         8.70010     136.087E-03        -7.82647         2.33304        -1.45941     136.087E-03         13.3355     858.574E-03    -391.295E-03    -463.062E-03    -432.902E-03     828.413E-03    -391.295E-03     393.856E-03     138.802E+06     66.0363E+06    -60.7921E+06     47.8758E+06     30.1339E+06     66.0363E+06     16.7541E+06         108.301
            1093     9.48825E-03     34.9454E-03         8.02187     169.461E-03        -8.47977    -647.387E-03     189.483E-03     169.461E-03        -7.35285     852.728E-03    -390.635E-03    -459.599E-03    -433.801E-03     826.929E-03    -390.635E-03     362.926E-03     115.828E+06     61.7935E+06    -31.5891E+06     25.3747E+06     52.1905E+06     68.4674E+06     16.8149E+06         105.636
            1094     8.72636E-03     34.6570E-03         18.5784     314.216E-03        -19.0894     191.725E-03    -702.751E-03     314.216E-03         15.9874     842.412E-03    -391.309E-03    -450.470E-03    -429.553E-03     821.495E-03    -391.309E-03     324.026E-03     87.1203E+06     60.8613E+06    -8.28350E+06     9.89731E+06     62.2656E+06     67.5352E+06     11.4763E+06         102.444
            1095     8.08957E-03     34.4459E-03         24.5782     325.513E-03        -23.8931         2.03920        -1.35405     325.513E-03         4.23457     833.247E-03    -388.905E-03    -441.084E-03    -424.403E-03     816.566E-03    -388.905E-03     287.284E-03     72.3374E+06     43.9815E+06    -19.4178E+06     1.69541E+06     51.2242E+06     43.9815E+06     14.0504E+06         99.2010
            1096     7.43823E-03     34.3138E-03         14.2567     303.896E-03        -15.0852    -335.728E-03    -492.754E-03     303.896E-03        -16.0576     822.881E-03    -386.640E-03    -434.099E-03    -421.107E-03     809.889E-03    -386.640E-03     251.559E-03     70.1787E+06     38.6889E+06    -19.3116E+06     587.645E+03     50.2794E+06     38.6889E+06     11.6272E+06         96.1234
            1097     6.78263E-03     34.2404E-03         5.64890     446.643E-03        -7.81826        -1.98885    -180.506E-03     446.643E-03     488.349E-03     809.779E-03    -384.608E-03    -424.693E-03    -414.994E-03     800.080E-03    -384.608E-03     215.094E-03     77.2250E+06     46.6721E+06    -11.3211E+06     12.4847E+06     53.4192E+06     46.6721E+06     2.94988E+06         93.2125
            1098     6.12997E-03     34.2082E-03         5.12430     845.263E-03        -8.16375        -4.52809         1.48864     845.263E-03        -10.0287     794.382E-03    -381.118E-03    -416.288E-03    -409.271E-03     787.365E-03    -381.118E-03     180.476E-03     72.6161E+06     48.4648E+06    -12.2236E+06     28.9095E+06     22.4446E+06     57.5032E+06     116.708E+03         90.5989
            1099     5.47656E-03     34.2171E-03         8.27513         1.41813        -10.2764        -3.33919         1.33787         1.41813         6.31939     781.658E-03    -376.781E-03    -405.457E-03    -400.703E-03     776.903E-03    -376.781E-03     146.357E-03     70.4951E+06     52.8243E+06     2.95063E+06     35.1857E+06     24.3302E+06     66.7541E+06     3.31486E+06         88.2951
            1100     4.79717E-03     34.2477E-03         13.6269         1.70695        -11.8373         1.72938     60.1900E-03         1.70695        -2.96425     769.163E-03    -372.406E-03    -395.147E-03    -392.185E-03     766.201E-03    -372.406E-03     113.471E-03     66.6250E+06     33.1015E+06    -27.1755E+06     28.7104E+06    -9.09611E+06     52.9368E+06     5.97672E+06         86.2588
            1101     4.13262E-03     34.3226E-03         14.9098         1.28108        -13.3742         6.54904        -5.01344         1.28108        -4.59376     756.873E-03    -368.355E-03    -387.751E-03    -386.093E-03     755.215E-03    -368.355E-03     82.6832E-03     63.7386E+06     32.1046E+06    -41.1704E+06     34.7514E+06    -33.8699E+06     53.7913E+06     5.46841E+06         84.5247
            1102     3.45685E-03     34.4091E-03         11.0625     290.955E-03        -14.0429         6.13760        -9.11802     290.955E-03     230.559E-03     744.196E-03    -364.234E-03    -379.670E-03    -378.866E-03     743.392E-03    -364.234E-03     55.5540E-03     61.6076E+06     48.5602E+06    -31.0996E+06     44.5760E+06    -24.9241E+06     59.4164E+06     618.148E+03         83.1286
            1103     2.77409E-03     34.5016E-03         5.56909    -414.873E-03        -11.6947     398.813E-03        -6.56657    -372.766E-03        -7.44855     730.814E-03    -359.849E-03    -371.259E-03    -370.935E-03     730.490E-03    -359.849E-03     33.1095E-03     54.5863E+06     40.1218E+06    -55.1444E+06     42.4983E+06    -54.4875E+06     51.5529E+06    -1.27953E+06         82.0475
            1104     2.08553E-03     34.6174E-03         6.99592    -281.590E-03        -10.3741        -2.20601        -1.21426    -239.483E-03         12.8594     719.224E-03    -356.398E-03    -362.951E-03    -362.858E-03     719.131E-03    -356.398E-03     16.2564E-03     48.6319E+06     32.9892E+06    -67.3665E+06     39.3756E+06    -67.0831E+06     41.9621E+06     877.957E+03         81.2206
            1105     1.39526E-03     34.7655E-03         18.5215    -176.759E-03        -12.6774    -230.966E-03         6.07510    -176.759E-03        -7.61921     711.318E-03    -354.568E-03    -356.904E-03    -356.881E-03     711.295E-03    -354.568E-03     6.49878E-03     40.9652E+06     21.4293E+06    -88.6297E+06     37.5968E+06    -87.2606E+06     23.4286E+06     3.46105E+06         80.6192
            1106     698.541E-06     34.8644E-03         31.2877         10.1845        -30.8869        -2.59888         14.6045        -1.42042        -27.1461     707.453E-03    -352.703E-03    -354.548E-03    -354.543E-03     707.448E-03    -352.703E-03     1.81239E-03     36.0438E+06     20.1288E+06    -119.475E+06     34.1682E+06    -117.944E+06     20.4730E+06     2.75913E+06         80.2056
            1107     11.2874E-03     34.0592E-03         8.06104     290.141E-03        -5.25932        -2.37465         5.17637     290.141E-03        -5.25977     911.883E-03    -414.749E-03    -492.502E-03    -429.639E-03     849.019E-03    -414.749E-03     573.035E-03     71.4974E+06     27.7289E+06    -174.067E+06     7.14289E+06    -109.712E+06     27.7289E+06    -27.5483E+06         116.105
            1108     10.5891E-03     33.3268E-03         8.06179     303.254E-03        -4.50917     700.735E-03         2.85188     303.254E-03         4.52300     927.356E-03    -417.430E-03    -502.519E-03    -440.164E-03     865.001E-03    -417.430E-03     575.886E-03     108.634E+06     25.3850E+06    -147.407E+06     2.89608E+06    -41.6690E+06     25.3850E+06    -7.27325E+06         115.234
            1109     9.93930E-03     32.8939E-03         4.75563    -58.4558E-03        -4.35772    -286.200E-03     318.907E-03     306.744E-03         6.88056     920.884E-03    -417.088E-03    -496.043E-03    -445.392E-03     870.234E-03    -417.088E-03     519.822E-03     132.640E+06     17.0705E+06    -113.942E+06    -31.0174E+06     49.7158E+06     17.0705E+06     781.745E+03         114.055
            1110     9.23690E-03     32.5132E-03         2.30995     86.4125E-03        -4.37732        -2.83968     407.105E-03     451.612E-03    -687.047E-03     915.553E-03    -416.875E-03    -493.892E-03    -442.638E-03     864.299E-03    -416.875E-03     517.413E-03     99.5918E+06     17.6795E+06    -56.0093E+06    -31.6537E+06     75.2362E+06     17.6795E+06    -14.0228E+06         112.150
            1111     8.51704E-03     32.2727E-03         9.86758     480.496E-03        -9.84782         2.39481        -2.37506     480.496E-03         12.3066     904.305E-03    -417.359E-03    -485.467E-03    -439.003E-03     857.841E-03    -417.359E-03     487.774E-03     69.4103E+06     21.3827E+06    -42.2181E+06    -17.5086E+06     44.7008E+06     21.3827E+06    -20.7388E+06         109.354
            1112     7.87555E-03     32.0883E-03         15.2663     306.903E-03        -16.8696         2.14409        -3.74743     306.903E-03        -3.95508     897.306E-03    -416.021E-03    -478.061E-03    -437.718E-03     856.963E-03    -416.021E-03     451.249E-03     74.4221E+06     18.3066E+06    -44.6680E+06    -4.74757E+06     37.2625E+06     15.5458E+06    -24.4486E+06         106.153
            1113     7.23631E-03     31.9757E-03         11.5250     250.151E-03        -15.9665    -549.035E-03        -3.89241     250.151E-03        -7.42831     886.462E-03    -414.096E-03    -471.392E-03    -437.921E-03     852.991E-03    -414.096E-03     407.922E-03     73.6750E+06     17.8383E+06    -38.0901E+06     9.88338E+06     45.3506E+06    -1.81079E+06    -26.4508E+06         102.876
            1114     6.60118E-03     31.9216E-03         6.26840     333.645E-03        -10.0239    -733.430E-03        -3.02204     333.645E-03         7.61593     869.879E-03    -411.827E-03    -457.581E-03    -430.764E-03     843.062E-03    -411.827E-03     360.610E-03     68.3747E+06     30.9519E+06    -33.4594E+06     15.1790E+06     47.8569E+06     2.83138E+06    -21.5879E+06         99.7266
            1115     5.96451E-03     31.9088E-03         3.88071     635.862E-03        -6.55526        -3.92690         1.25235     635.862E-03        -3.75792     852.165E-03    -407.661E-03    -445.648E-03    -424.818E-03     831.334E-03    -407.661E-03     313.611E-03     59.9405E+06     44.0527E+06    -27.4491E+06     9.65961E+06     33.7428E+06     33.1418E+06    -23.6577E+06         96.9086
            1116     5.32172E-03     31.9399E-03         7.08181         1.00672        -6.83296    -848.400E-03         1.09725         1.00672         5.89609     839.006E-03    -403.265E-03    -436.092E-03    -420.638E-03     823.552E-03    -403.265E-03     267.034E-03     72.4620E+06     44.5476E+06    -37.1622E+06     8.82763E+06     21.2594E+06     49.7604E+06    -30.1153E+06         94.3300
            1117     4.67712E-03     31.9920E-03         14.0001         1.12427        -12.3706         1.48764     141.830E-03         1.12427        -9.04237     826.859E-03    -398.731E-03    -425.031E-03    -414.127E-03     815.954E-03    -398.731E-03     220.705E-03     83.8482E+06     29.7685E+06    -65.5425E+06     26.6608E+06    -28.1905E+06     49.6038E+06    -32.6033E+06         91.9289
            1118     4.02557E-03     32.0708E-03         14.7750     988.962E-03        -12.4379         2.73861    -401.442E-03     988.962E-03        -13.6114     811.182E-03    -393.814E-03    -415.718E-03    -408.736E-03     804.201E-03    -393.814E-03     173.558E-03     68.4819E+06     31.4590E+06    -63.4635E+06     39.9879E+06    -55.3301E+06     51.8197E+06    -26.3772E+06         89.8049
            1119     3.37230E-03     32.1725E-03         9.52242     738.392E-03        -9.92724         1.58439        -1.98921     738.392E-03        -4.46667     794.219E-03    -389.090E-03    -406.199E-03    -402.097E-03     790.117E-03    -389.090E-03     129.923E-03     68.6954E+06     44.8085E+06    -45.6925E+06     43.6023E+06    -42.2951E+06     66.5041E+06    -9.22865E+06         88.0206
            1120     2.71041E-03     32.2939E-03         5.42894     958.440E-03        -11.0019        -2.67342        -2.94165         1.00055        -1.45637     778.564E-03    -384.552E-03    -396.075E-03    -393.939E-03     776.428E-03    -384.552E-03     90.6049E-03     75.8532E+06     43.0652E+06    -54.4341E+06     44.9588E+06    -54.1365E+06     73.6620E+06    -3.66815E+06         86.5486
            1121     2.04135E-03     32.3978E-03         7.74285         2.22730        -15.3348        -3.42870        -4.20533         2.26940         21.9971     766.307E-03    -380.298E-03    -386.952E-03    -385.958E-03     765.314E-03    -380.298E-03     58.8909E-03     74.8979E+06     33.8835E+06    -71.4119E+06     38.7509E+06    -70.4516E+06     69.0703E+06    -7.20778E+06         85.3682
            1122     1.36683E-03     32.5604E-03         11.9349         2.22306        -15.1526        -1.78721        -3.89555         4.68813         7.35208     756.023E-03    -376.475E-03    -379.562E-03    -379.167E-03     755.628E-03    -376.475E-03     35.2023E-03     86.3939E+06     25.0103E+06    -100.984E+06     38.6482E+06    -97.0850E+06     68.8573E+06    -6.55572E+06         84.5161
            1123     686.284E-06     32.6774E-03         36.0206         2.28690        -31.2170        -22.5736        -3.40935         33.0735        -24.6223     748.298E-03    -373.043E-03    -375.504E-03    -375.381E-03     748.176E-03    -373.043E-03     18.7194E-03     78.2206E+06     32.3488E+06    -119.062E+06     44.2491E+06    -115.617E+06     62.8749E+06    -2.26694E+06         83.9162
            1124     10.9329E-03     31.4675E-03         6.71860     77.5118E-03        -6.08432        -2.93870         3.57298     77.5118E-03        -4.47246         1.00079    -445.764E-03    -540.611E-03    -418.623E-03     878.798E-03    -445.764E-03     819.800E-03     102.364E+06    -30.7001E+06    -163.021E+06    -20.4148E+06    -40.2427E+06    -30.7001E+06     7.66710E+06         122.562
            1125     10.2454E-03     30.6985E-03         5.74458     226.923E-03        -6.19181        -2.98285         2.53563     226.923E-03        -1.32360         1.02973    -456.556E-03    -561.558E-03    -441.818E-03     909.993E-03    -456.556E-03     826.718E-03     130.911E+06    -34.6648E+06    -134.643E+06    -57.8246E+06     54.0932E+06    -34.6648E+06    -16.5193E+06         124.054
            1126     9.56735E-03     30.2925E-03         4.89522    -63.9532E-03        -3.76426     173.924E-03     591.831E-03     301.247E-03     290.921E-03         1.03903    -466.045E-03    -568.258E-03    -463.727E-03     934.496E-03    -466.045E-03     782.891E-03     125.295E+06    -24.2189E+06    -132.728E+06    -40.7734E+06     33.3403E+06    -24.2189E+06    -83.8373E+06         125.020
            1127     8.82296E-03     29.9132E-03         4.43873    -187.189E-03        -1.74783         3.04357    -717.882E-03     178.011E-03     399.103E-03         1.04354    -469.869E-03    -569.770E-03    -471.076E-03     944.849E-03    -469.869E-03     768.967E-03     94.4757E+06     639.562E+03    -113.011E+06     2.93226E+06    -21.4672E+06     639.562E+03    -85.0314E+06         124.162
            1128     8.12149E-03     29.6638E-03         5.63102    -458.429E-06        -5.33254         1.19838    -899.907E-03    -458.429E-06        -1.27029         1.03008    -472.193E-03    -555.879E-03    -471.265E-03     945.469E-03    -472.193E-03     710.819E-03     99.5590E+06     40.2811E+06    -53.6906E+06     34.7693E+06     11.0991E+06     40.2811E+06    -56.6507E+06         121.649
            1129     7.49411E-03     29.5101E-03         9.39788    -67.7239E-03        -10.0504    -98.6007E-03    -553.922E-03    -67.7239E-03        -5.79149         1.01647    -473.963E-03    -539.404E-03    -470.327E-03     947.395E-03    -473.963E-03     639.177E-03     87.0916E+06     31.6537E+06    -34.1816E+06     35.8648E+06     19.8060E+06     28.8928E+06    -48.9894E+06         118.500
            1130     6.89312E-03     29.4249E-03         11.2467    -99.5947E-03        -10.6949     495.553E-03     56.2899E-03    -99.5947E-03         6.63545         1.00561    -474.574E-03    -526.893E-03    -470.085E-03     948.806E-03    -474.574E-03     578.582E-03     70.3036E+06     24.9096E+06    -41.6164E+06     41.4286E+06     6.90763E+06     5.26057E+06    -41.4336E+06         115.359
            1131     6.21938E-03     29.4216E-03         6.70193     95.8921E-03        -6.64706    -741.575E-03     986.123E-03    -93.7783E-03         12.4110     999.118E-03    -473.962E-03    -521.242E-03    -472.167E-03     950.043E-03    -473.962E-03     536.386E-03     79.5100E+06     48.5062E+06    -31.6787E+06     52.4348E+06     23.5171E+06     20.3857E+06    -31.5258E+06         112.154
            1132     5.61662E-03     29.4635E-03         3.26893     389.369E-03        -1.95898    -162.243E-03         1.90920    -47.6362E-03         3.63542     986.913E-03    -470.501E-03    -514.190E-03    -474.976E-03     947.699E-03    -470.501E-03     477.369E-03     102.975E+06     60.6532E+06    -18.4307E+06     60.9957E+06     34.7812E+06     49.4209E+06    -28.0267E+06         108.904
            1133     5.03857E-03     29.5345E-03         8.10230     96.4406E-03        -4.51742         2.10623         1.72598    -150.894E-03        -7.28040     971.317E-03    -464.576E-03    -503.017E-03    -473.253E-03     941.552E-03    -464.576E-03     413.399E-03     104.192E+06     35.0623E+06    -59.9476E+06     60.3890E+06    -16.1447E+06     35.0623E+06    -30.4132E+06         105.725
            1134     4.43409E-03     29.6293E-03         15.1220    -478.900E-03        -11.4635         3.14294     515.586E-03    -478.900E-03        -8.73950     953.328E-03    -457.108E-03    -489.778E-03    -468.019E-03     931.569E-03    -457.108E-03     349.921E-03     68.8171E+06     5.54518E+06    -110.426E+06     45.4491E+06    -87.0576E+06     5.54518E+06    -29.2183E+06         102.649
            1135     3.83686E-03     29.7463E-03         12.1651    -670.032E-03        -9.28632     165.023E-03         2.71376    -670.032E-03        -3.51469     930.178E-03    -449.973E-03    -475.802E-03    -461.055E-03     915.430E-03    -449.973E-03     284.376E-03     46.7981E+06     13.5031E+06    -108.762E+06     38.3665E+06    -103.797E+06     16.9698E+06    -20.4839E+06         99.7373
            1136     3.19282E-03     29.8953E-03         8.30764    -499.199E-03        -5.89558    -757.466E-03         3.16953    -499.199E-03        -9.42278     907.828E-03    -443.839E-03    -463.549E-03    -454.041E-03     898.321E-03    -443.839E-03     225.055E-03     53.0476E+06     17.3005E+06    -74.7932E+06     31.4922E+06    -72.9832E+06     37.0459E+06    -12.9608E+06         97.1006
            1137     2.57816E-03     30.0372E-03         9.95168    -267.146E-03        -10.5818     384.379E-03        -1.01451    -267.146E-03         4.72972     887.223E-03    -437.557E-03    -451.278E-03    -445.632E-03     881.578E-03    -437.557E-03     170.133E-03     48.6652E+06     436.527E+03    -81.9597E+06     24.0712E+06    -80.6447E+06     23.7155E+06    -7.58174E+06         94.8449
            1138     1.94600E-03     30.1858E-03         16.5815     421.311E-03        -20.4343        -2.02423        -1.82862     421.311E-03         36.2175     869.291E-03    -431.153E-03    -439.492E-03    -436.566E-03     866.365E-03    -431.153E-03     120.279E-03     52.0148E+06     1.93024E+06    -91.0461E+06     21.4673E+06    -88.3676E+06     29.7992E+06     3.38247E+06         93.0382
            1139     1.29995E-03     30.3364E-03         20.4228     261.210E-03        -21.3426        -3.09808    -286.724E-03         2.72628         10.7353     854.182E-03    -424.745E-03    -431.551E-03    -430.296E-03     852.928E-03    -424.745E-03     76.4304E-03     55.2514E+06    -17.4905E+06    -103.278E+06     2.66019E+06    -94.5342E+06     26.3565E+06     5.72256E+06         91.7246
            1140     650.800E-06     30.4563E-03         40.3372        -6.88383        -25.6689        -8.16098        -5.13839         21.0839        -37.2607     839.450E-03    -417.794E-03    -425.468E-03    -421.412E-03     839.076E-03    -421.476E-03     40.4344E-03     25.0220E+06    -35.0264E+06    -117.092E+06    -16.4183E+06    -106.178E+06    -4.50035E+06    -7.45590E+06         90.8059
            1141     10.3487E-03     28.8297E-03         3.71728     371.939E-03        -4.56309        -1.10888     804.330E-03    -169.320E-03     583.495E-03         1.14581    -500.896E-03    -634.687E-03    -451.672E-03     962.796E-03    -500.896E-03         1.08086     158.949E+06    -23.4229E+06    -147.169E+06    -37.9245E+06     49.7047E+06    -23.4229E+06    -39.4396E+06         139.916
            1142     9.43527E-03     28.1184E-03         4.37613     351.749E-03        -4.92857        -3.89319         3.88201    -189.510E-03        -2.40122         1.22857    -530.519E-03    -687.198E-03    -507.129E-03         1.04850    -530.519E-03         1.11723     163.336E+06     37.0616E+06    -106.160E+06     18.7588E+06     38.4172E+06     37.0616E+06    -89.7790E+06         146.488
            1143     8.67994E-03     27.5835E-03         6.39095    -189.137E-03        -3.93464        -1.79081         4.24712    -189.137E-03        -4.37619         1.26022    -550.708E-03    -699.322E-03    -540.971E-03         1.10187    -550.708E-03         1.06666     123.942E+06     48.3084E+06    -120.901E+06     64.8208E+06    -61.7796E+06     48.3084E+06    -88.8712E+06         149.161
            1144     7.99516E-03     27.2045E-03         6.02693     66.0369E-03        -1.74584         3.27860         1.42646    -357.937E-03     14.8514E-03         1.26127    -558.599E-03    -692.477E-03    -556.506E-03         1.12530    -558.599E-03     993.560E-03     85.5414E+06     38.2119E+06    -144.489E+06     45.4294E+06    -104.377E+06     38.2119E+06    -82.4852E+06         148.087
            1145     7.42261E-03     26.9763E-03         9.52015    -170.127E-03        -4.95934         1.59834         3.38644    -594.102E-03        -8.39059         1.25482    -561.639E-03    -673.330E-03    -553.745E-03         1.13523    -561.639E-03     929.442E-03     63.7429E+06     35.2336E+06    -115.381E+06     36.7207E+06    -88.3584E+06     35.2336E+06    -61.6853E+06         145.173
            1146     6.88424E-03     26.8789E-03         11.0695    -708.849E-03        -9.07774    -343.448E-03         2.33524    -708.849E-03    -694.670E-03         1.22855    -559.688E-03    -645.460E-03    -549.773E-03         1.13286    -559.688E-03     821.745E-03     58.0187E+06     33.3128E+06    -89.1988E+06     41.2675E+06    -72.4476E+06     33.3128E+06    -33.2147E+06         141.329
            1147     6.30835E-03     26.8478E-03         7.00109    -771.112E-03        -8.41831    -77.5525E-03        -1.33967    -771.112E-03         14.1216         1.20064    -555.889E-03    -622.200E-03    -547.833E-03         1.12627    -555.889E-03     720.552E-03     47.3593E+06     15.4406E+06    -87.8666E+06     31.3852E+06    -71.8925E+06     15.4406E+06    -17.3195E+06         136.938
            1148     5.74786E-03     26.8603E-03         3.99392    -652.211E-03        -5.02182    -75.2387E-03    -763.000E-03    -841.882E-03         5.74947         1.18182    -552.231E-03    -612.292E-03    -550.605E-03         1.12014    -552.231E-03     652.469E-03     60.7906E+06     9.92965E+06    -81.6312E+06     22.4778E+06    -43.3184E+06     9.92965E+06     3.30552E+06         132.301
            1149     5.12592E-03     26.8969E-03         4.89266    -617.582E-03        -4.21965         2.25675        -1.14673        -1.05459        -1.58212         1.15094    -547.638E-03    -599.359E-03    -552.106E-03         1.10369    -547.638E-03     566.151E-03     101.077E+06     16.4386E+06    -87.9768E+06     13.5149E+06    -414.615E+03     16.4386E+06     28.1209E+06         127.637
            1150     4.58682E-03     26.9657E-03         13.8459        -1.29198        -9.97427         3.83563     283.289E-03        -1.53932        -19.6546         1.12724    -542.076E-03    -581.735E-03    -544.823E-03         1.09033    -542.076E-03     496.179E-03     92.1727E+06     15.3370E+06    -102.577E+06     5.42194E+06    -18.8918E+06     18.4025E+06     37.0710E+06         123.203
            1151     4.05734E-03     27.0715E-03         21.5420        -2.44675        -16.0632         6.95145        -1.47267        -2.44675         1.30013         1.10526    -534.948E-03    -567.454E-03    -538.443E-03         1.07625    -534.948E-03     435.690E-03     35.9120E+06    -3.53846E+06    -113.745E+06    -3.11911E+06    -85.1364E+06     6.88438E+06     16.8085E+06         119.149
            1152     3.52203E-03     27.2204E-03         16.8818        -3.43651        -14.9853         2.45200    -555.488E-03        -3.43651         7.52984         1.08217    -528.126E-03    -553.691E-03    -531.989E-03         1.06046    -528.126E-03     372.692E-03     11.6768E+06    -27.7515E+06    -120.559E+06    -15.0511E+06    -120.094E+06    -1.48928E+06    -1.42657E+06         115.518
            1153     2.97135E-03     27.3842E-03         13.2824        -3.66500        -14.8292        -4.54829         3.00151        -3.66500        -24.7667         1.06278    -522.290E-03    -539.867E-03    -524.638E-03         1.04756    -522.290E-03     308.729E-03     25.8996E+06    -25.6536E+06    -101.009E+06    -15.6475E+06    -95.0132E+06     9.89783E+06    -3.38990E+06         112.325
            1154     2.36927E-03     27.5440E-03         13.6102        -2.92398        -20.7737        -7.45603     292.521E-03        -2.92398         3.64794         1.04089    -515.973E-03    -526.519E-03    -516.815E-03         1.03119    -515.973E-03     243.312E-03     35.2755E+06    -30.6133E+06    -93.9770E+06    -11.7453E+06    -87.8952E+06     10.3258E+06    -2.62967E+06         109.645
            1155     1.79829E-03     27.7021E-03         13.4138        -1.75845        -22.2902        -7.13340        -2.03695        -1.46451         33.8604         1.02076    -508.080E-03    -514.867E-03    -508.067E-03         1.01521    -509.338E-03     180.939E-03     36.0719E+06    -25.7404E+06    -103.597E+06    -7.78571E+06    -99.3362E+06     13.8563E+06     1.66720E+06         107.452
            1156     1.19863E-03     27.8534E-03         22.1122        -1.07955        -25.3721    -208.751E-03        -3.34514    -785.602E-03        -12.3812         1.00593    -499.674E-03    -508.424E-03    -502.432E-03         1.00338    -503.113E-03     119.198E-03     44.4517E+06    -22.4083E+06    -88.7132E+06    -1.61732E+06    -80.6093E+06     15.5568E+06     9.69378E+06         105.684
            1157     606.386E-06     27.9964E-03         43.3029        -11.6898        -36.0301         12.4914        -5.21852        -11.6898        -75.7539     990.276E-03    -478.268E-03    -522.077E-03    -515.473E-03     989.534E-03    -484.131E-03     60.8248E-03     22.1238E+06    -34.6571E+06    -73.1650E+06    -18.9271E+06    -59.3725E+06    -7.39861E+06     7.87769E+06         104.097
            1158     9.03241E-03     25.9380E-03         5.30403    -325.153E-03        -3.61869        -1.20377         3.43037    -866.412E-03        -1.20110         1.57828    -670.172E-03    -905.463E-03    -444.515E-03         1.11734    -670.172E-03         1.86597     107.592E+06     21.0105E+06    -142.674E+06    -13.5046E+06    -30.3265E+06     29.7601E+06    -63.5260E+06         183.442
            1159     8.07755E-03     24.8073E-03         6.27859    -178.929E-03        -3.69435        -1.05487         4.56980        -1.10961        -6.39708         1.61058    -721.082E-03    -889.958E-03    -374.775E-03         1.09539    -721.082E-03         1.92142     49.2751E+06     1.10284E+06    -163.767E+06     3.39172E+06    -91.6707E+06    -25.1098E+06    -42.0706E+06         195.146
            1160     7.53232E-03     24.2395E-03         4.66173    -604.659E-03        -3.48223        -2.02426         3.82467        -1.22557        -3.79197         1.62365    -742.076E-03    -871.281E-03    -408.519E-03         1.16089    -742.076E-03         1.83277    -4.92469E+06    -54.1421E+06    -204.711E+06    -30.5443E+06    -136.819E+06    -96.4152E+06    -9.71383E+06         196.852
            1161     6.93260E-03     23.9039E-03         4.95695    -634.674E-03        -3.79326        -1.56606         3.38521        -1.29014        -2.11703         1.60658    -749.376E-03    -846.428E-03    -454.735E-03         1.21489    -749.376E-03         1.70165     529.092E+03    -75.3008E+06    -198.413E+06    -40.5111E+06    -141.312E+06    -91.3612E+06     13.6763E+06         193.827
            1162     6.53221E-03     23.7667E-03         8.99638    -854.258E-03        -7.36165        -3.04474         5.10344        -1.27823        -9.68897         1.59661    -751.794E-03    -825.361E-03    -491.379E-03         1.26263    -751.794E-03         1.59650    -11.2854E+06    -100.451E+06    -213.704E+06    -70.1264E+06    -142.671E+06    -112.643E+06     15.9672E+06         189.531
            1163     6.14063E-03     23.7381E-03         8.79654        -1.08167        -10.1334        -4.63126         3.29445        -1.08167        -5.98020         1.54962    -730.885E-03    -801.847E-03    -442.664E-03         1.20539    -745.831E-03         1.53865     9.09260E+06    -99.1030E+06    -201.144E+06    -60.0492E+06    -119.810E+06    -111.296E+06     31.1986E+06         183.655
            1164     5.74056E-03     23.7920E-03         3.47289    -885.214E-03        -6.99044        -1.74425        -1.77330    -885.214E-03         2.98313         1.49482    -707.458E-03    -778.008E-03    -438.952E-03         1.17942    -731.110E-03         1.42434     28.8199E+06    -99.8387E+06    -170.155E+06    -47.8201E+06    -93.5151E+06    -99.8387E+06     59.4222E+06         175.314
            1165     5.29440E-03     23.8795E-03         1.94231    -953.247E-03        -3.65612     995.710E-03        -2.70953    -953.247E-03        -1.50981         1.45421    -696.968E-03    -754.273E-03    -520.576E-03         1.23967    -716.127E-03         1.21620     60.1565E+06    -73.7803E+06    -128.947E+06    -37.4741E+06    -31.3162E+06    -73.7803E+06     76.5342E+06         167.375
            1166     4.78778E-03     23.9492E-03         5.90998    -934.138E-03        -4.85106         3.35560        -1.89245        -1.33837        -7.64568         1.42196    -682.969E-03    -736.130E-03    -551.472E-03         1.26226    -707.928E-03         1.05462     71.8220E+06    -45.3198E+06    -153.142E+06    -52.4850E+06     14.6753E+06    -88.8298E+06     78.1420E+06         161.400
            1167     4.23463E-03     24.0493E-03         11.2802    -609.970E-03        -7.45249         5.59623    -279.133E-03        -2.09937        -13.6815         1.41448    -674.872E-03    -722.673E-03    -567.492E-03         1.28779    -703.360E-03     947.111E-03     65.8024E+06    -32.3173E+06    -154.431E+06    -74.9406E+06     34.1425E+06    -80.1477E+06     59.3584E+06         156.487
            1168     3.70777E-03     24.1935E-03         16.8235        -2.29603        -12.5417         7.07827        -1.71133        -3.38121         9.19818         1.39086    -669.324E-03    -711.945E-03    -585.094E-03         1.29231    -697.621E-03     838.319E-03     42.4626E+06    -67.2550E+06    -145.614E+06    -75.0739E+06    -17.4690E+06    -77.8633E+06     47.3929E+06         152.307
            1169     3.20100E-03     24.3548E-03         15.3891        -4.70077        -14.7364     710.613E-03    -57.8919E-03        -4.70077         8.80577         1.36953    -665.321E-03    -702.583E-03    -604.859E-03         1.29771    -691.223E-03     720.318E-03     29.2828E+06    -98.7875E+06    -155.591E+06    -70.4613E+06    -63.8736E+06    -90.7612E+06     46.0419E+06         148.839
            1170     2.68973E-03     24.5466E-03         12.5574        -4.60304        -17.0935        -11.0685         6.53237        -4.60304        -17.7086         1.36779    -665.395E-03    -691.716E-03    -621.125E-03         1.31666    -684.850E-03     611.274E-03     54.6748E+06    -77.6639E+06    -120.987E+06    -64.4586E+06    -15.3821E+06    -64.1353E+06     41.9857E+06         146.006
            1171     2.14779E-03     24.7364E-03         14.6876        -2.97174        -19.4244        -11.0807         6.34385        -2.97174         5.79553         1.36036    -669.149E-03    -679.919E-03    -636.524E-03         1.32532    -677.501E-03     506.092E-03     32.2297E+06    -74.3117E+06    -131.247E+06    -71.9756E+06    -23.2384E+06    -78.1156E+06     23.0569E+06         143.735
            1172     1.61982E-03     24.8939E-03         10.5297    -464.997E-03        -13.0187        -3.81704         2.39716        -1.53418         18.7080         1.34372    -667.907E-03    -672.553E-03    -648.571E-03         1.32148    -669.648E-03     399.872E-03     2.67302E+06    -71.6333E+06    -148.984E+06    -68.1957E+06    -63.4925E+06    -86.2559E+06    -5.17660E+06         141.775
            1173     1.08587E-03     25.0392E-03         17.0879    -236.609E-03        -14.8017         2.10648         1.93641        -1.99329        -17.1547         1.32763    -658.347E-03    -669.395E-03    -654.728E-03         1.31641    -661.785E-03     277.583E-03     7.13984E+06    -62.5672E+06    -133.298E+06    -43.2789E+06    -80.1312E+06    -65.3157E+06    -18.6054E+06         140.032
            1174     553.793E-06     25.1793E-03         42.3127        -8.87067        -30.4226         6.07988         6.49771        -9.55817        -56.0398         1.30547    -627.389E-03    -687.048E-03    -679.584E-03         1.30018    -629.570E-03     185.185E-03     40.3530E+06    -36.5135E+06     -91.958E+06     5.95503E+06    -71.0135E+06    -23.0600E+06    -3.46574E+06         137.864
            1175     5.82109E-03     18.5815E-03         5.65228    -997.344E-03        -3.35746    -894.470E-03         3.48173        -1.28978        -6.05397         2.07074    -675.068E-03        -1.37254     658.340E-03     586.323E-03        -1.22153         2.35387     110.759E+06     36.7578E+06    -75.3322E+06     47.3822E+06    -9.35922E+06     34.1610E+06     29.8709E+06         252.483
            1176     5.33800E-03     17.7487E-03         5.31748        -1.24141        -4.22845    -559.601E-03         1.75303        -1.34580        -7.39929         2.22483    -840.568E-03        -1.36085     580.536E-03     733.345E-03        -1.29047         2.81538     88.3153E+06    -11.1938E+06    -114.945E+06     20.2289E+06     627.863E+03    -58.6802E+06     57.6675E+06         260.867
            1177     5.09111E-03     17.4960E-03         3.31544        -1.12845        -4.06697    -333.600E-03    -82.0493E-03        -1.46432        -5.54707         2.38084        -1.03280        -1.35173     84.4860E-03         1.22280        -1.31098         3.19263     64.4729E+06    -52.9307E+06    -124.820E+06    -4.75910E+06     7.95893E+06    -116.478E+06     42.1076E+06         259.769
            1178     4.70875E-03     17.4446E-03         4.75559        -1.35925        -5.17867        -1.64995         1.45836        -1.59074        -8.14132         2.43220        -1.09528        -1.34029    -262.793E-03         1.57963        -1.32021         3.01652     129.080E+06    -19.6588E+06    -77.5346E+06     4.41151E+06     63.1943E+06    -35.7192E+06     71.3727E+06         253.922
            1179     4.36525E-03     17.4364E-03         4.69709        -1.61661        -7.33584        -4.58248         1.94374        -1.61661        -8.30676         2.46546        -1.11773        -1.33617    -445.962E-03         1.78713        -1.32960         2.80532     174.017E+06     13.2285E+06    -64.4198E+06     14.4691E+06     107.321E+06     1.03583E+06     84.8779E+06         246.476
            1180     4.05151E-03     17.4431E-03         5.60067        -1.42727        -7.47208        -4.89410         3.02268        -1.42727        -9.18402         2.46147        -1.13033        -1.33006    -645.131E-03         1.97614        -1.32993         2.12194     156.075E+06    -9.62990E+06    -63.6984E+06    -6.00653E+06     110.576E+06    -21.8225E+06     75.1373E+06         237.554
            1181     3.62956E-03     18.9688E-03         4.97028        -1.10736        -4.92429        -2.41242         2.45840        -1.10736        -7.47545         2.44253        -1.14040        -1.31423    -839.964E-03         2.14210        -1.31423         1.51990     138.501E+06    -36.8489E+06    -76.2215E+06    -10.0652E+06     72.3446E+06    -36.8489E+06     97.5000E+06         226.662
            1182     3.45715E-03     19.5461E-03         4.82090    -894.462E-03        -3.91969        -1.30535         2.20655    -894.462E-03        -2.09752         2.45959        -1.15703        -1.29771    -864.856E-03         2.16741        -1.29771         1.80164     103.703E+06    -42.9771E+06    -118.957E+06    -13.2094E+06     39.5310E+06    -84.5527E+06     69.5435E+06         218.265
            1183     3.21060E-03     19.6849E-03         7.40514    -410.979E-03        -5.55693    -350.320E-03         2.60275    -815.207E-03         2.75024         2.46324        -1.15010        -1.29261    -858.860E-03         2.17200        -1.29261         1.93887     113.308E+06    -12.1444E+06    -117.938E+06     1.47738E+06     78.9781E+06    -97.2299E+06     33.3208E+06         213.684
            1184     2.89608E-03     19.8381E-03         7.83692     551.480E-03        -6.06549         1.72873         1.53210    -937.923E-03         6.96456         2.45647        -1.12596        -1.29361    -921.589E-03         2.25210        -1.29361         1.61433     148.756E+06     34.5772E+06    -59.3317E+06     16.4573E+06     123.862E+06    -16.3187E+06     45.8482E+06         210.485
            1185     2.63418E-03     20.0107E-03         8.94154    -292.096E-03        -6.18768         3.30443     534.602E-03        -1.37727         13.4219         2.45251        -1.13059        -1.29339    -986.368E-03         2.30829        -1.29339         1.36006     132.309E+06     25.7317E+06    -71.6462E+06    -19.5112E+06     101.205E+06     4.70049E+06     51.3839E+06         207.940
            1186     2.11802E-03     20.1836E-03         9.19028        -1.58653        -7.78267    -563.519E-03         1.97113        -1.58653         13.5204         2.44564        -1.13914        -1.28985        -1.04060         2.34710        -1.28985         1.10912     134.105E+06     15.6121E+06    -71.9961E+06    -25.0992E+06     105.444E+06    -2.62378E+06     47.8905E+06         205.781
            1187     1.82188E-03     20.3542E-03         8.06662    -828.008E-03        -11.0967        -6.23744         3.20738    -828.008E-03         11.3133         2.45553        -1.14953        -1.28477        -1.09146         2.39747        -1.28477     818.709E-03     143.559E+06    -2.76600E+06    -61.5977E+06    -20.7276E+06     124.711E+06    -24.7888E+06     45.0115E+06         203.935
            1188     1.49901E-03     20.5176E-03         9.56156        -1.95339        -12.2212        -4.47397    -170.957E-03     31.9154E-03         13.1155         2.45675        -1.15154        -1.28012        -1.11752         2.42272        -1.28012     559.085E-03     129.772E+06    -27.0766E+06    -91.1738E+06    -37.6831E+06     121.024E+06    -71.8195E+06     32.9896E+06         202.516
            1189     1.11107E-03     20.7152E-03         8.91273        -1.02201        -9.44592    -795.191E-03    -360.168E-03    -399.833E-03         11.3810         2.44605        -1.15217        -1.27938        -1.13506         2.42622        -1.27666     281.625E-03     102.699E+06    -30.6067E+06    -101.427E+06    -38.0237E+06     93.5155E+06    -84.8261E+06     20.0720E+06         201.339
            1190     767.263E-06     20.9171E-03         11.1979    -735.011E-03        -9.90376     812.500E-03         2.53225        -2.78564         5.94860         2.44277        -1.14844        -1.28063        -1.14399         2.43072        -1.27302     55.0440E-03     77.2379E+06    -44.9847E+06    -113.612E+06    -33.7203E+06     52.1741E+06    -99.8123E+06     7.11746E+06         200.383
            1191     352.917E-06     21.0933E-03         24.2750    -20.5677E-03        -18.2035        -6.31232         13.0713    -708.066E-03         10.9720         2.33281    -987.357E-03        -1.28796    -812.073E-03         2.13494        -1.26537    -716.281E-03     104.209E+06    -39.6490E+06    -95.8359E+06    -2.44069E+06     38.7325E+06    -67.5680E+06     4.58320E+06         199.075
            1192     1.00030E-03     114.231E-03         10.6653         2.35955        -11.1576         1.70078        -3.19362         3.36011         15.5301              0.              0.              0.              0.              0.              0.              0.    -16.2597E+06    -21.7738E+06    -78.6975E+06    -19.1141E+06    -78.5741E+06    -19.0428E+06    -2.45431E+06             20.
            1193     1.99990E-03     114.222E-03         5.35753     731.437E-03        -5.76573        -1.62615     217.396E-03         1.73200        -6.93019              0.              0.              0.              0.              0.              0.              0.    -16.8655E+06    -19.8333E+06    -77.4050E+06    -18.5716E+06    -77.0123E+06    -18.5198E+06    -4.64212E+06             20.
            1194     3.00032E-03     114.216E-03         6.14168     486.906E-03        -7.25247        -2.01324     902.448E-03     486.906E-03     492.057E-03              0.              0.              0.              0.              0.              0.              0.    -16.0102E+06    -18.5813E+06    -75.7152E+06    -17.7636E+06    -74.8451E+06    -17.6979E+06    -6.97000E+06             20.
            1195     4.00004E-03     114.214E-03         7.68426     146.651E-03        -9.45657     717.950E-03        -2.49027     146.651E-03        -3.76930              0.              0.              0.              0.              0.              0.              0.    -14.6625E+06    -17.1338E+06    -73.1658E+06    -16.7853E+06    -71.6383E+06    -16.5385E+06    -9.19232E+06             20.
            1196     5.00040E-03     114.213E-03         8.37422     301.572E-03        -9.81481         1.12263        -2.56322     301.572E-03        -2.79087              0.              0.              0.              0.              0.              0.              0.    -12.7487E+06    -15.3124E+06    -70.0714E+06    -15.4224E+06    -67.6428E+06    -15.0673E+06    -11.4278E+06             20.
            1197     6.00015E-03     114.212E-03         6.35754     417.801E-03        -6.57603     825.660E-03        -1.04414     417.801E-03         2.15542              0.              0.              0.              0.              0.              0.              0.    -10.2194E+06    -13.2694E+06    -66.2809E+06    -13.7784E+06    -62.7219E+06    -13.2694E+06    -13.5995E+06             20.
            1198     7.00048E-03     114.211E-03         5.60914     580.777E-03        -5.22224         2.37775        -1.99084     580.777E-03    -590.169E-03              0.              0.              0.              0.              0.              0.              0.    -6.86830E+06    -11.1481E+06    -61.8669E+06    -11.9080E+06    -56.8271E+06    -11.1481E+06    -15.7756E+06             20.
            1199     8.00023E-03     114.208E-03         5.79679     757.445E-03        -5.51818         1.52278        -1.24417     757.445E-03        -1.75197              0.              0.              0.              0.              0.              0.              0.    -2.90702E+06    -8.72267E+06    -56.9023E+06    -9.81944E+06    -49.9898E+06    -8.72267E+06    -17.9595E+06             20.
            1200     9.00056E-03     114.211E-03         4.65031     808.732E-03        -4.99802     867.714E-03        -1.21543     808.732E-03        -4.72047              0.              0.              0.              0.              0.              0.              0.     1.62758E+06    -6.00315E+06    -51.3384E+06    -7.62284E+06    -42.0880E+06    -6.00315E+06    -19.9992E+06             20.
            1201     10.0003E-03     114.207E-03         4.68217     782.388E-03        -5.96683     174.705E-03        -1.45937     782.388E-03        -5.68227              0.              0.              0.              0.              0.              0.              0.     6.80895E+06    -3.03175E+06    -45.2882E+06    -5.63922E+06    -32.8401E+06    -3.03175E+06    -22.0598E+06             20.
            1202     11.0006E-03     114.207E-03         5.12009     625.052E-03        -6.37930        -2.18750     928.279E-03     625.052E-03        -4.00928              0.              0.              0.              0.              0.              0.              0.     12.5004E+06     168.232E+03    -38.5439E+06    -3.89506E+06    -22.1484E+06     168.232E+03    -23.6573E+06             20.
            1203     12.0003E-03     114.205E-03         5.01733     408.596E-03        -5.46931        -1.72993         1.27795     408.596E-03        -3.06767              0.              0.              0.              0.              0.              0.              0.     19.1066E+06     3.55421E+06    -31.5417E+06    -2.46911E+06    -9.96600E+06     3.55421E+06    -24.7763E+06             20.
            1204     13.0006E-03     114.203E-03         6.73796     250.311E-03        -6.15827        -1.55138         2.13107     250.311E-03     172.235E-03              0.              0.              0.              0.              0.              0.              0.     26.5316E+06     7.06877E+06    -24.2748E+06    -1.46456E+06     3.72130E+06     7.06877E+06    -24.9792E+06             20.
            1205     14.0003E-03     114.202E-03         5.67853     125.385E-03        -4.42807        -1.42687         2.67733     125.385E-03         5.65890              0.              0.              0.              0.              0.              0.              0.     35.0061E+06     10.5882E+06    -17.2301E+06    -976.296E+03     18.7523E+06     10.5882E+06    -23.7647E+06         20.0106
            1206     15.0005E-03     114.200E-03         3.22485     57.5617E-03        -2.23083    -306.551E-03         1.30057     57.5617E-03    -904.539E-03              0.              0.              0.              0.              0.              0.              0.     44.3286E+06     13.6782E+06    -10.8664E+06    -700.559E+03     34.1627E+06     13.6782E+06    -20.9622E+06         20.1500
            1207     16.0001E-03     114.201E-03         3.36515     10.0962E-03        -3.27291        -1.11976         1.21200     10.0962E-03         3.35546              0.              0.              0.              0.              0.              0.              0.     54.0018E+06     15.6781E+06    -5.70482E+06    -561.021E+03     48.8580E+06     15.6781E+06    -16.0980E+06         20.6145
            1208     17.0003E-03     114.203E-03         4.34993    -53.4475E-03        -4.94493        -1.02050     425.496E-03    -53.4475E-03        -1.05420              0.              0.              0.              0.              0.              0.              0.     63.6351E+06     16.2993E+06    -2.07466E+06    -464.141E+03     62.0246E+06     16.2993E+06    -8.88275E+06         21.4828
            1209     999.847E-06     115.230E-03         10.1087        -1.04578        -7.72833    -191.588E-03         3.70156        -2.17543         8.08508              0.              0.              0.              0.              0.              0.              0.    -8.68238E+06    -13.8178E+06    -73.8929E+06    -11.2395E+06    -73.7514E+06    -11.4021E+06    -2.68626E+06             20.
            1210     2.00032E-03     115.221E-03         6.23918     215.828E-03        -6.61597    -93.2626E-03     846.123E-03    -913.822E-03        -3.90966              0.              0.              0.              0.              0.              0.              0.    -9.27137E+06    -12.1092E+06    -72.7139E+06    -10.9921E+06    -72.2400E+06    -10.8623E+06    -5.21876E+06             20.
            1211     3.00006E-03     115.218E-03         6.87131    -724.407E-03        -7.39357    -884.589E-03     362.333E-03    -724.407E-03         2.87694              0.              0.              0.              0.              0.              0.              0.    -8.59809E+06    -10.9700E+06    -71.0034E+06    -10.4056E+06    -70.0126E+06    -10.1533E+06    -7.65127E+06             20.
            1212     4.00043E-03     115.215E-03         7.01442    -428.276E-03        -8.17747         2.14456        -3.30761    -428.276E-03        -4.23032              0.              0.              0.              0.              0.              0.              0.    -7.44481E+06    -9.68511E+06    -68.6625E+06    -9.70806E+06    -66.8961E+06    -9.18828E+06    -10.0886E+06             20.
            1213     5.00021E-03     115.213E-03         7.84278    -46.0441E-03        -9.00561     553.623E-03        -1.71646    -46.0441E-03    -916.725E-03              0.              0.              0.              0.              0.              0.              0.    -5.87769E+06    -8.10185E+06    -65.6505E+06    -8.84120E+06    -62.8337E+06    -7.95519E+06    -12.5681E+06             20.
            1214     6.00054E-03     115.212E-03         7.97676    -87.6009E-03        -7.76793        -1.31769         1.52652    -87.6009E-03    -933.410E-03              0.              0.              0.              0.              0.              0.              0.    -3.54566E+06    -6.45853E+06    -62.1065E+06    -7.68598E+06    -57.9661E+06    -6.45853E+06    -14.9259E+06             20.
            1215     7.00033E-03     115.210E-03         6.86329    -124.351E-03        -6.03643     779.812E-03     47.0474E-03    -124.351E-03        -4.33665              0.              0.              0.              0.              0.              0.              0.    -547.120E+03    -4.69454E+06    -58.0290E+06    -6.32299E+06    -52.2531E+06    -4.69454E+06    -17.2046E+06             20.
            1216     8.00065E-03     115.208E-03         5.94071     29.8703E-03        -5.54552         1.45246        -1.05728     29.8703E-03        -2.40630              0.              0.              0.              0.              0.              0.              0.     2.86289E+06    -2.68204E+06    -53.3319E+06    -4.98007E+06    -45.4889E+06    -2.68204E+06    -19.3750E+06             20.
            1217     9.00043E-03     115.209E-03         3.89211     133.367E-03        -4.30013     397.074E-03    -805.098E-03     133.367E-03        -6.24593              0.              0.              0.              0.              0.              0.              0.     6.68693E+06    -449.245E+03    -48.0171E+06    -3.65913E+06    -37.6710E+06    -449.245E+03    -21.3226E+06             20.
            1218     10.0007E-03     115.210E-03         1.58459     141.776E-03        -2.54674     12.5389E-03    -974.688E-03     141.776E-03        -2.25836              0.              0.              0.              0.              0.              0.              0.     11.0833E+06     1.97292E+06    -42.2919E+06    -2.41468E+06    -28.7940E+06     1.97292E+06    -23.0636E+06             20.
            1219     11.0005E-03     115.208E-03         2.87671     211.338E-03        -3.58633         1.87175        -2.58137     211.338E-03        -2.00363              0.              0.              0.              0.              0.              0.              0.     15.9037E+06     4.55184E+06    -36.0219E+06    -1.48873E+06    -18.6295E+06     4.55184E+06    -24.3298E+06             20.
            1220     12.0008E-03     115.204E-03         3.81959     334.287E-03        -3.69800         1.46635        -1.34476     334.287E-03    -809.504E-03              0.              0.              0.              0.              0.              0.              0.     21.3758E+06     7.25740E+06    -29.4604E+06    -762.067E+03    -7.32257E+06     7.25740E+06    -25.0063E+06             20.
            1221     13.0005E-03     115.201E-03         4.20814     353.967E-03        -3.30296    -362.536E-03         1.26771     353.967E-03         1.82777              0.              0.              0.              0.              0.              0.              0.     27.5215E+06     10.0241E+06    -22.8025E+06    -395.336E+03     5.11431E+06     10.0241E+06    -24.7135E+06             20.
            1222     14.0007E-03     115.201E-03         4.05541     374.844E-03        -3.04124         1.73333    -719.162E-03     374.844E-03         1.93033              0.              0.              0.              0.              0.              0.              0.     34.2340E+06     12.7564E+06    -16.1428E+06    -325.773E+03     18.4169E+06     12.7564E+06    -23.0813E+06         20.0106
            1223     15.0004E-03     115.201E-03         3.35341     416.628E-03        -3.16903     216.960E-03    -32.5851E-03     416.628E-03     44.1547E-03              0.              0.              0.              0.              0.              0.              0.     41.7032E+06     15.0216E+06    -10.3632E+06    -390.600E+03     31.7306E+06     15.0216E+06    -20.0624E+06         20.1500
            1224     16.0006E-03     115.201E-03         3.12789     308.863E-03        -3.52459        -2.92964         2.53295     308.863E-03         3.42547              0.              0.              0.              0.              0.              0.              0.     48.9946E+06     16.1823E+06    -5.49403E+06    -535.500E+03     44.0361E+06     16.1823E+06    -15.1130E+06         20.6145
            1225     17.0002E-03     115.202E-03         4.00944     163.612E-03        -4.30992        -1.34174         1.04126     163.612E-03        -2.27462              0.              0.              0.              0.              0.              0.              0.     55.9490E+06     15.9871E+06    -1.99793E+06    -432.634E+03     54.3837E+06     15.9871E+06    -8.28328E+06         21.4828
            1226     1.00029E-03     116.227E-03         13.7456        -3.88210        -9.78586        -1.10980         6.19915        -5.01175         8.68539              0.              0.              0.              0.              0.              0.              0.    -2.88009E+06    -7.34566E+06    -68.6693E+06    -5.28703E+06    -68.5026E+06    -5.10536E+06    -2.93132E+06             20.
            1227     2.00001E-03     116.218E-03         6.42392    -959.333E-03        -6.00145         1.85452    -302.397E-03        -2.08898    -361.757E-03              0.              0.              0.              0.              0.              0.              0.    -3.29621E+06    -5.84548E+06    -67.6258E+06    -4.88369E+06    -67.1097E+06    -4.77402E+06    -5.53658E+06             20.
            1228     3.00040E-03     116.217E-03         3.05710    -890.245E-03        -3.78916     928.648E-03        -1.73629    -814.661E-03         4.29228              0.              0.              0.              0.              0.              0.              0.    -2.73747E+06    -4.97146E+06    -65.9228E+06    -4.62196E+06    -64.8302E+06    -4.17956E+06    -8.06404E+06             20.
            1229     4.00021E-03     116.213E-03         4.09307    -701.106E-03        -4.37501        -1.43962         1.08210    -625.521E-03        -6.29637              0.              0.              0.              0.              0.              0.              0.    -1.76568E+06    -3.85904E+06    -63.6920E+06    -4.18607E+06    -61.7436E+06    -3.38705E+06    -10.6610E+06             20.
            1230     5.00054E-03     116.209E-03         6.85058    -821.398E-03        -6.84144        -1.77762         1.78676    -821.398E-03     664.460E-03              0.              0.              0.              0.              0.              0.              0.    -414.763E+03    -2.52852E+06    -60.9044E+06    -3.61507E+06    -57.8507E+06    -2.38187E+06    -13.1447E+06             20.
            1231     6.00037E-03     116.208E-03         7.20602    -877.518E-03        -6.42976    -419.679E-03         1.19594    -877.518E-03        -1.17214              0.              0.              0.              0.              0.              0.              0.     1.55417E+06    -1.14953E+06    -57.5554E+06    -2.93403E+06    -53.0672E+06    -1.14953E+06    -15.5675E+06             20.
            1232     7.00067E-03     116.208E-03         5.90020    -773.118E-03        -5.10260     143.193E-03     654.410E-03    -773.118E-03        -3.78534              0.              0.              0.              0.              0.              0.              0.     4.12076E+06     283.828E+03    -53.7293E+06    -2.12273E+06    -47.4858E+06     283.828E+03    -17.8715E+06             20.
            1233     8.00049E-03     116.208E-03         4.24776    -552.382E-03        -4.03703         1.92621        -1.71549    -552.382E-03     764.840E-03              0.              0.              0.              0.              0.              0.              0.     7.03356E+06     1.91479E+06    -49.3322E+06    -1.35585E+06    -40.9428E+06     1.91479E+06    -19.9652E+06             20.
            1234     9.00077E-03     116.207E-03         3.51027    -269.726E-03        -4.04709         2.02957        -2.56639    -269.726E-03    -139.343E-03              0.              0.              0.              0.              0.              0.              0.     10.3051E+06     3.71313E+06    -44.4076E+06    -687.124E+03    -33.4153E+06     3.71313E+06    -21.8186E+06             20.
            1235     10.0006E-03     116.206E-03         2.36589    -69.5264E-03        -3.04309         1.38355        -2.06075    -69.5264E-03         3.36318              0.              0.              0.              0.              0.              0.              0.     13.9716E+06     5.64072E+06    -39.0400E+06    -193.729E+03    -24.8747E+06     5.64072E+06    -23.3222E+06             20.
            1236     11.0008E-03     116.205E-03         2.97678     125.989E-03        -3.11489         2.83617        -2.97428     125.989E-03     919.647E-03              0.              0.              0.              0.              0.              0.              0.     18.0344E+06     7.67720E+06    -33.2724E+06     234.414E+03    -15.4724E+06     7.67720E+06    -24.2892E+06             20.
            1237     12.0006E-03     116.202E-03         4.49569     329.101E-03        -3.93468         2.25307        -1.69205     329.101E-03         4.52455              0.              0.              0.              0.              0.              0.              0.     22.5677E+06     9.79012E+06    -27.2754E+06     378.027E+03    -5.08570E+06     9.79012E+06    -24.5659E+06             20.
            1238     13.0008E-03     116.199E-03         4.94321     463.078E-03        -3.98064         1.86323    -900.659E-03     463.078E-03         1.19526              0.              0.              0.              0.              0.              0.              0.     27.4462E+06     11.9252E+06    -21.0547E+06     257.261E+03     6.13417E+06     11.9252E+06    -23.8601E+06             20.
            1239     14.0005E-03     116.201E-03         4.86767     579.249E-03        -4.46689         2.32325        -1.92248     579.249E-03    -911.866E-03              0.              0.              0.              0.              0.              0.              0.     32.8923E+06     13.9926E+06    -15.0805E+06     113.928E+03     17.6978E+06     13.9926E+06    -22.0283E+06         20.0106
            1240     15.0007E-03     116.200E-03         4.40314     620.029E-03        -4.71257    -26.2062E-03    -283.224E-03     620.029E-03         1.07248              0.              0.              0.              0.              0.              0.              0.     38.6092E+06     15.5829E+06    -9.68940E+06    -210.024E+03     29.1298E+06     15.5829E+06    -18.8168E+06         20.1500
            1241     16.0004E-03     116.203E-03         3.11711     544.870E-03        -3.67441        -1.17285     615.548E-03     544.870E-03     842.189E-03              0.              0.              0.              0.              0.              0.              0.     44.0270E+06     16.0680E+06    -5.23072E+06    -513.803E+03     39.3101E+06     16.0680E+06    -13.9981E+06         20.6145
            1242     17.0006E-03     116.202E-03         3.82340     441.726E-03        -3.40382        -1.24840         1.66798     441.726E-03        -1.01406              0.              0.              0.              0.              0.              0.              0.     48.7736E+06     15.2230E+06    -1.90566E+06    -395.219E+03     47.2632E+06     15.2230E+06    -7.64270E+06         21.4828
            1243     999.912E-06     117.228E-03         13.2210        -4.09271        -10.6812         2.19524     344.569E-03        -4.09271         5.07106              0.              0.              0.              0.              0.              0.              0.     1.79679E+06    -2.29993E+06    -63.3266E+06    -425.841E+03    -63.1383E+06    -265.615E+03    -2.96007E+06             20.
            1244     2.00034E-03     117.217E-03         7.10990        -1.01920        -6.67696        -1.20433         1.63727        -1.01920        -1.74135              0.              0.              0.              0.              0.              0.              0.     1.29573E+06    -1.03873E+06    -62.2040E+06    -277.558E+03    -61.6502E+06    -19.2323E+03    -5.72683E+06             20.
            1245     3.00016E-03     117.217E-03         3.58950        -1.09015        -3.75495    -685.592E-03     444.552E-03        -1.01456     997.526E-03              0.              0.              0.              0.              0.              0.              0.     1.75044E+06    -303.021E+03    -60.6178E+06    -126.424E+03    -59.4809E+06     436.923E+03    -8.16715E+06             20.
            1246     4.00049E-03     117.212E-03         4.12677        -1.17259        -3.48284        -2.21321         2.78156        -1.09701        -1.36637              0.              0.              0.              0.              0.              0.              0.     2.57445E+06     662.752E+03    -58.5570E+06     81.5930E+03    -56.4831E+06     1.08165E+06    -10.9090E+06             20.
            1247     5.00034E-03     117.209E-03         5.99279        -1.36087        -4.88384        -2.61679         3.72573        -1.36087         1.17886              0.              0.              0.              0.              0.              0.              0.     3.72053E+06     1.80265E+06    -56.0078E+06     428.571E+03    -52.8094E+06     1.89622E+06    -13.3669E+06             20.
            1248     6.00064E-03     117.208E-03         5.07056        -1.28741        -4.49248         1.09864    -520.552E-03        -1.28741         2.04039              0.              0.              0.              0.              0.              0.              0.     5.42682E+06     2.89316E+06    -52.9022E+06     710.278E+03    -48.1856E+06     2.89316E+06    -15.7896E+06             20.
            1249     7.00050E-03     117.206E-03         4.24614    -881.728E-03        -3.90267         2.01711        -1.67365    -881.728E-03         1.32042              0.              0.              0.              0.              0.              0.              0.     7.48756E+06     4.03070E+06    -49.2226E+06     935.646E+03    -42.6707E+06     4.03070E+06    -18.0552E+06             20.
            1250     8.00077E-03     117.205E-03         2.44649    -571.375E-03        -2.93940         1.08624        -1.57915    -571.375E-03         2.90520              0.              0.              0.              0.              0.              0.              0.     9.97139E+06     5.30912E+06    -45.1606E+06     1.22908E+06    -36.4183E+06     5.30912E+06    -20.0360E+06             20.
            1251     9.00061E-03     117.206E-03         3.47770    -325.648E-03        -4.01325         2.23476        -2.77032    -325.648E-03     701.792E-03              0.              0.              0.              0.              0.              0.              0.     12.7291E+06     6.71549E+06    -40.6199E+06     1.38269E+06    -29.2735E+06     6.71549E+06    -21.7309E+06             20.
            1252     10.0008E-03     117.207E-03         3.96889    -33.9869E-03        -4.21619         2.95338        -3.20067    -33.9869E-03         2.28636              0.              0.              0.              0.              0.              0.              0.     15.7801E+06     8.21387E+06    -35.6740E+06     1.42951E+06    -21.3234E+06     8.21387E+06    -22.9622E+06             20.
            1253     11.0007E-03     117.203E-03         3.23461     155.421E-03        -2.94933         1.03422    -748.936E-03     155.421E-03    -248.372E-03              0.              0.              0.              0.              0.              0.              0.     19.1889E+06     9.78680E+06    -30.4475E+06     1.39213E+06    -12.6508E+06     9.78680E+06    -23.6718E+06             20.
            1254     12.0009E-03     117.201E-03         5.19843     272.875E-03        -4.32726         2.13239        -1.26122     272.875E-03         1.73747              0.              0.              0.              0.              0.              0.              0.     22.7374E+06     11.4013E+06    -24.8382E+06     1.14251E+06    -3.24324E+06     11.4013E+06    -23.5327E+06             20.
            1255     13.0007E-03     117.201E-03         7.03144     489.648E-03        -6.49355         4.11077        -3.57288     489.648E-03        -2.20156              0.              0.              0.              0.              0.              0.              0.     26.7538E+06     13.0114E+06    -19.3093E+06     776.450E+03     6.66802E+06     13.0114E+06    -22.6363E+06             20.
            1256     14.0008E-03     117.200E-03         5.74758     641.945E-03        -5.89167         1.00469        -1.14878     641.945E-03        -1.85382              0.              0.              0.              0.              0.              0.              0.     30.9811E+06     14.5359E+06    -13.8486E+06     351.535E+03     16.7809E+06     14.5359E+06    -20.6090E+06         20.0106
            1257     15.0006E-03     117.200E-03         4.96503     628.436E-03        -5.53701    -166.658E-03    -405.316E-03     628.436E-03        -1.40318              0.              0.              0.              0.              0.              0.              0.     35.3436E+06     15.5814E+06    -8.95745E+06    -128.863E+03     26.5150E+06     15.5814E+06    -17.3625E+06         20.1500
            1258     16.0007E-03     117.201E-03         4.55609     623.474E-03        -4.71220         1.31375        -1.46986     623.474E-03        -2.59345              0.              0.              0.              0.              0.              0.              0.     39.1508E+06     15.5314E+06    -4.83091E+06    -394.161E+03     34.7141E+06     15.5314E+06    -12.8415E+06         20.6145
            1259     17.0004E-03     117.205E-03         5.35436     597.130E-03        -4.13323        -1.03082         2.25196     597.130E-03        -1.15178              0.              0.              0.              0.              0.              0.              0.     42.1637E+06     14.1674E+06    -1.77902E+06    -345.552E+03     40.7302E+06     14.1674E+06    -6.94039E+06         21.4828
            1260     1.00027E-03     118.225E-03         11.6716        -5.13961        -8.21137         3.38102     79.2116E-03        -5.13961        -8.49736              0.              0.              0.              0.              0.              0.              0.     5.46704E+06     1.41247E+06    -57.9602E+06     3.28213E+06    -57.7691E+06     3.40629E+06    -2.96515E+06             20.
            1261     2.00007E-03     118.217E-03         6.54502        -1.18136        -6.07473        -2.53016         3.00045        -1.18136    -684.586E-03              0.              0.              0.              0.              0.              0.              0.     4.71441E+06     2.61630E+06    -56.6754E+06     3.16936E+06    -56.1093E+06     3.59530E+06    -5.67601E+06             20.
            1262     3.00041E-03     118.215E-03         5.67409        -1.46614        -4.49647        -2.89324         4.31536        -1.71064        -3.70203              0.              0.              0.              0.              0.              0.              0.     5.03038E+06     3.29890E+06    -55.2567E+06     3.24540E+06    -54.0855E+06     3.91271E+06    -8.15745E+06             20.
            1263     4.00028E-03     118.212E-03         3.57220        -1.46198        -2.47495    -115.989E-03         1.45773        -1.70647         1.93919              0.              0.              0.              0.              0.              0.              0.     5.75513E+06     4.13279E+06    -53.4413E+06     3.35388E+06    -51.3329E+06     4.42557E+06    -10.8278E+06             20.
            1264     5.00058E-03     118.209E-03         3.91805        -1.37496        -2.89788    -59.5202E-03         1.07969        -1.37496     202.229E-03              0.              0.              0.              0.              0.              0.              0.     6.69737E+06     4.97906E+06    -50.9600E+06     3.30656E+06    -47.6628E+06     5.07263E+06    -13.2947E+06             20.
            1265     6.00046E-03     118.209E-03         4.13442        -1.04030        -3.96228         1.39967        -1.22753        -1.04030         1.33062              0.              0.              0.              0.              0.              0.              0.     8.14044E+06     5.83920E+06    -48.1153E+06     3.30656E+06    -43.2814E+06     5.83920E+06    -15.6681E+06             20.
            1266     7.00072E-03     118.207E-03         3.69985    -687.391E-03        -4.21925         1.41551        -1.93491    -687.391E-03         1.61647              0.              0.              0.              0.              0.              0.              0.     9.90085E+06     6.72918E+06    -44.7406E+06     3.22473E+06    -38.0645E+06     6.72918E+06    -17.8153E+06             20.
            1267     8.00060E-03     118.206E-03         1.91141    -514.622E-03        -2.40743    -146.053E-03    -349.962E-03    -514.622E-03     43.5707E-03              0.              0.              0.              0.              0.              0.              0.     11.8703E+06     7.70765E+06    -40.9029E+06     3.01423E+06    -32.0468E+06     7.70765E+06    -19.6255E+06             20.
            1268     9.00082E-03     118.204E-03         3.37399    -440.959E-03        -3.53927     471.382E-03    -636.666E-03    -440.959E-03        -2.99621              0.              0.              0.              0.              0.              0.              0.     14.1697E+06     8.78155E+06    -36.7432E+06     2.89926E+06    -25.4728E+06     8.78155E+06    -21.0617E+06             20.
            1269     10.0007E-03     118.204E-03         4.42787    -302.513E-03        -3.85582         1.43829    -866.244E-03    -302.513E-03        -1.87525              0.              0.              0.              0.              0.              0.              0.     16.6846E+06     9.92677E+06    -32.2407E+06     2.65787E+06    -18.2140E+06     9.92677E+06    -22.0141E+06             20.
            1270     11.0009E-03     118.200E-03         4.72587    -158.940E-03        -3.81124         1.05711    -142.476E-03    -158.940E-03        -2.89873              0.              0.              0.              0.              0.              0.              0.     19.3704E+06     11.1120E+06    -27.4120E+06     2.18024E+06    -10.2218E+06     11.1120E+06    -22.4375E+06             20.
            1271     12.0007E-03     118.202E-03         5.90901     21.1834E-03        -5.09326         3.00253        -2.18678     21.1834E-03        -5.38000              0.              0.              0.              0.              0.              0.              0.     22.2293E+06     12.3131E+06    -22.3553E+06     1.68590E+06    -1.81196E+06     12.3131E+06    -22.0779E+06             20.
            1272     13.0009E-03     118.201E-03         5.34394     258.370E-03        -5.19449         3.19538        -3.04593     258.370E-03        -5.16048              0.              0.              0.              0.              0.              0.              0.     25.3834E+06     13.4884E+06    -17.3746E+06     1.13465E+06     6.87414E+06     13.4884E+06    -21.0158E+06             20.
            1273     14.0006E-03     118.201E-03         4.52837     394.670E-03        -4.99506         1.04786        -1.51454     394.670E-03        -4.71970              0.              0.              0.              0.              0.              0.              0.     28.7387E+06     14.5737E+06    -12.5497E+06     444.764E+03     15.7442E+06     14.5737E+06    -18.9302E+06         20.0106
            1274     15.0008E-03     118.199E-03         5.34573     451.079E-03        -5.75760         1.44144        -1.85331     451.079E-03        -6.34394              0.              0.              0.              0.              0.              0.              0.     31.9489E+06     15.1821E+06    -8.09489E+06    -51.2618E+03     23.9053E+06     15.1821E+06    -15.8118E+06         20.1500
            1275     16.0005E-03     118.202E-03         5.23767     502.092E-03        -4.82071         1.08096    -663.997E-03     502.092E-03        -3.81183              0.              0.              0.              0.              0.              0.              0.     34.5444E+06     14.7128E+06    -4.39504E+06    -286.577E+03     30.4360E+06     14.7128E+06    -11.5831E+06         20.6145
            1276     17.0007E-03     118.202E-03         4.48504     500.288E-03        -2.65432    -166.171E-03         1.99690     500.288E-03    -330.695E-03              0.              0.              0.              0.              0.              0.              0.     36.1741E+06     12.9486E+06    -1.62346E+06    -320.537E+03     34.8712E+06     12.9486E+06    -6.20315E+06         21.4828
            1277     999.953E-06     119.228E-03         15.7656        -4.52086        -11.6239        -3.64955         7.79125        -4.52086        -12.1698              0.              0.              0.              0.              0.              0.              0.     7.92241E+06     4.25926E+06    -52.5152E+06     6.06957E+06    -52.3371E+06     5.93394E+06    -2.97109E+06             20.
            1278     2.00033E-03     119.220E-03         10.2593        -3.41797        -7.08540    -706.718E-03         3.88063        -3.41797    -128.760E-03              0.              0.              0.              0.              0.              0.              0.     7.24957E+06     5.28089E+06    -51.3359E+06     5.77123E+06    -50.7794E+06     6.20275E+06    -5.46478E+06             20.
            1279     3.00020E-03     119.215E-03         6.82275        -2.14202        -4.51853    -310.758E-03         2.85948        -2.38651        -4.32892              0.              0.              0.              0.              0.              0.              0.     7.44642E+06     5.88516E+06    -50.0028E+06     5.69958E+06    -48.8127E+06     6.44183E+06    -8.02679E+06             20.
            1280     4.00049E-03     119.210E-03         4.06716        -1.54539        -2.85707     218.525E-03         1.23606        -1.78989         3.67506              0.              0.              0.              0.              0.              0.              0.     8.03856E+06     6.51038E+06    -48.3028E+06     5.62944E+06    -46.2054E+06     6.82207E+06    -10.5334E+06             20.
            1281     5.00039E-03     119.207E-03         4.68002        -1.18920        -4.11927         2.31774        -1.75698        -1.18920    -782.517E-03              0.              0.              0.              0.              0.              0.              0.     8.75214E+06     7.20617E+06    -45.9617E+06     5.35485E+06    -42.6769E+06     7.31865E+06    -12.8957E+06             20.
            1282     6.00065E-03     119.205E-03         4.88565    -788.331E-03        -4.96937    -185.824E-03     102.101E-03    -788.331E-03        -1.17664              0.              0.              0.              0.              0.              0.              0.     9.91090E+06     7.89864E+06    -43.3088E+06     5.09976E+06    -38.4977E+06     7.89864E+06    -15.1733E+06             20.
            1283     7.00055E-03     119.205E-03         4.62792    -794.327E-03        -4.94350        -1.58169         1.26611    -794.327E-03        -1.60624              0.              0.              0.              0.              0.              0.              0.     11.3867E+06     8.56658E+06    -40.2419E+06     4.82298E+06    -33.6782E+06     8.56658E+06    -17.1247E+06             20.
            1284     8.00077E-03     119.208E-03         3.86785    -777.749E-03        -3.74565     387.028E-03    -264.827E-03    -777.749E-03        -1.75017              0.              0.              0.              0.              0.              0.              0.     13.0394E+06     9.31354E+06    -36.7693E+06     4.44279E+06    -28.1727E+06     9.31354E+06    -18.7414E+06             20.
            1285     9.00065E-03     119.204E-03         4.69892    -692.182E-03        -3.97180    -467.361E-03         1.19449    -692.182E-03        -2.27522              0.              0.              0.              0.              0.              0.              0.     14.8817E+06     10.1162E+06    -32.9779E+06     3.99565E+06    -22.0919E+06     10.1162E+06    -19.9851E+06             20.
            1286     10.0008E-03     119.204E-03         6.29060    -647.230E-03        -5.17396    -6.62892E-03         1.12327    -647.230E-03     434.274E-03              0.              0.              0.              0.              0.              0.              0.     16.8457E+06     10.9708E+06    -28.8175E+06     3.45820E+06    -15.4300E+06     10.9708E+06    -20.6966E+06             20.
            1287     11.0007E-03     119.201E-03         6.14848    -467.716E-03        -4.96120         2.76853        -1.58125    -467.716E-03         1.47544              0.              0.              0.              0.              0.              0.              0.     19.0067E+06     11.8397E+06    -24.4751E+06     2.76843E+06    -8.23680E+06     11.8397E+06    -20.9188E+06             20.
            1288     12.0009E-03     119.200E-03         4.74855    -230.531E-03        -4.27762         1.92934        -1.45841    -230.531E-03        -4.23495              0.              0.              0.              0.              0.              0.              0.     21.2793E+06     12.7012E+06    -19.9683E+06     2.06786E+06    -756.803E+03     12.7012E+06    -20.4563E+06             20.
            1289     13.0007E-03     119.200E-03         3.67793    -116.597E-03        -3.84643     508.450E-03    -676.952E-03    -116.597E-03        -3.52059              0.              0.              0.              0.              0.              0.              0.     23.7255E+06     13.5257E+06    -15.5057E+06     1.28514E+06     6.93465E+06     13.5257E+06    -19.2411E+06             20.
            1290     14.0008E-03     119.201E-03         3.86387    -12.8198E-03        -4.23988         2.22158        -2.59759    -12.8198E-03        -5.21375              0.              0.              0.              0.              0.              0.              0.     26.2396E+06     14.2550E+06    -11.1483E+06     534.938E+03     14.5564E+06     14.2550E+06    -17.1538E+06         20.0106
            1291     15.0006E-03     119.200E-03         4.46226     123.242E-03        -4.49919         1.80822        -1.84515     123.242E-03        -6.19956              0.              0.              0.              0.              0.              0.              0.     28.6854E+06     14.5198E+06    -7.28149E+06     39.7274E+03     21.3641E+06     14.5198E+06    -14.2631E+06         20.1500
            1292     16.0007E-03     119.200E-03         4.38908     202.216E-03        -3.51991     932.967E-03    -63.7906E-03     202.216E-03        -5.01899              0.              0.              0.              0.              0.              0.              0.     30.2984E+06     13.7241E+06    -3.97719E+06    -277.349E+03     26.5986E+06     13.7241E+06    -10.3173E+06         20.6145
            1293     17.0005E-03     119.202E-03         3.33819     273.122E-03        -1.63145         1.91795    -211.218E-03     273.122E-03     72.8115E-03              0.              0.              0.              0.              0.              0.              0.     30.8272E+06     11.6549E+06    -1.47751E+06    -304.272E+03     29.6540E+06     11.6549E+06    -5.46572E+06         21.4828
            1294     1.00024E-03     120.228E-03         12.9167        -1.63435        -9.78137        -3.31576         8.31801        -3.50130        -7.44335              0.              0.              0.              0.              0.              0.              0.     9.54672E+06     6.14744E+06    -47.1399E+06     7.75066E+06    -46.9699E+06     7.77345E+06    -2.83261E+06             20.
            1295     2.00009E-03     120.217E-03         9.51728        -3.05981        -6.70778        -1.58597         4.39547        -3.05981         4.84169              0.              0.              0.              0.              0.              0.              0.     9.07063E+06     7.09522E+06    -46.1899E+06     7.65105E+06    -45.6435E+06     7.96840E+06    -5.23250E+06             20.
            1296     3.00039E-03     120.214E-03         7.33048        -2.04357        -5.01018         1.92541     394.881E-03        -2.04357     328.328E-03              0.              0.              0.              0.              0.              0.              0.     9.22651E+06     7.54432E+06    -44.9692E+06     7.42480E+06    -43.7896E+06     8.16650E+06    -7.75092E+06             20.
            1297     4.00030E-03     120.210E-03         4.35733        -1.16630        -3.52696     590.509E-03     239.866E-03        -1.16630         3.18534              0.              0.              0.              0.              0.              0.              0.     9.50502E+06     8.06382E+06    -43.2050E+06     7.07064E+06    -41.1478E+06     8.44102E+06    -10.0735E+06             20.
            1298     5.00055E-03     120.207E-03         5.34283    -930.030E-03        -5.02955    -744.711E-03         1.05800    -930.030E-03        -1.12835              0.              0.              0.              0.              0.              0.              0.     10.1358E+06     8.69464E+06    -41.1819E+06     6.81428E+06    -37.9728E+06     8.80712E+06    -12.3313E+06             20.
            1299     6.00047E-03     120.204E-03         6.68845    -950.498E-03        -6.24525        -1.41718         1.86037    -950.498E-03    -177.742E-03              0.              0.              0.              0.              0.              0.              0.     11.0414E+06     9.24385E+06    -38.7468E+06     6.38523E+06    -34.0906E+06     9.24385E+06    -14.4125E+06             20.
            1300     7.00069E-03     120.203E-03         6.45383        -1.00901        -5.87974        -1.28875         1.86284        -1.00901        -1.24461              0.              0.              0.              0.              0.              0.              0.     12.2291E+06     9.74428E+06    -35.9225E+06     5.91410E+06    -29.6075E+06     9.74428E+06    -16.1888E+06             20.
            1301     8.00060E-03     120.205E-03         6.58473    -941.723E-03        -5.59305     450.722E-03     540.957E-03    -941.723E-03     487.992E-03              0.              0.              0.              0.              0.              0.              0.     13.6230E+06     10.2902E+06    -32.8555E+06     5.41209E+06    -24.6446E+06     10.2902E+06    -17.6487E+06             20.
            1302     9.00079E-03     120.204E-03         5.70837    -757.895E-03        -4.58069     980.460E-03     147.227E-03    -757.895E-03         3.73916              0.              0.              0.              0.              0.              0.              0.     15.1236E+06     10.8763E+06    -29.4567E+06     4.69699E+06    -19.0301E+06     10.8763E+06    -18.7903E+06             20.
            1303     10.0007E-03     120.202E-03         5.32303    -584.783E-03        -4.22753     949.090E-03     146.417E-03    -584.783E-03         2.93393              0.              0.              0.              0.              0.              0.              0.     16.6718E+06     11.4861E+06    -25.7015E+06     3.93069E+06    -12.9604E+06     11.4861E+06    -19.3475E+06             20.
            1304     11.0008E-03     120.201E-03         4.96058    -410.271E-03        -4.35191         1.75152        -1.14284    -410.271E-03         2.47366              0.              0.              0.              0.              0.              0.              0.     18.3778E+06     12.0994E+06    -21.8069E+06     3.18594E+06    -6.61504E+06     12.0994E+06    -19.3966E+06             20.
            1305     12.0007E-03     120.199E-03         4.18162    -282.743E-03        -4.21540     426.725E-03    -460.508E-03    -282.743E-03     706.177E-03              0.              0.              0.              0.              0.              0.              0.     20.1620E+06     12.6914E+06    -17.8203E+06     2.29677E+06     44.9634E+03     12.6914E+06    -18.8363E+06             20.
            1306     13.0008E-03     120.198E-03         3.98677    -271.285E-03        -4.34911    -738.580E-03     376.249E-03    -271.285E-03     857.231E-03              0.              0.              0.              0.              0.              0.              0.     21.9373E+06     13.2412E+06    -13.7491E+06     1.42276E+06     6.76550E+06     13.2412E+06    -17.5226E+06             20.
            1307     14.0006E-03     120.200E-03         2.96983    -250.445E-03        -3.19560     836.922E-03        -1.06270    -250.445E-03        -4.01145              0.              0.              0.              0.              0.              0.              0.     23.8365E+06     13.7007E+06    -9.89183E+06     716.531E+03     13.2281E+06     13.7007E+06    -15.4918E+06         20.0106
            1308     15.0007E-03     120.200E-03         3.53586    -163.160E-03        -3.23222         1.28746    -983.810E-03    -163.160E-03    -81.3528E-03              0.              0.              0.              0.              0.              0.              0.     25.5674E+06     13.6997E+06    -6.47115E+06     86.7038E+03     19.0095E+06     13.6997E+06    -12.7379E+06         20.1500
            1309     16.0006E-03     120.199E-03         5.03543    -77.4454E-03        -4.19489         1.11868    -278.133E-03    -77.4454E-03        -2.71434              0.              0.              0.              0.              0.              0.              0.     26.4439E+06     12.6511E+06    -3.58591E+06    -266.190E+03     23.1242E+06     12.6511E+06    -9.13958E+06         20.6145
            1310     17.0007E-03     120.202E-03         4.74898     13.2831E-03        -4.06018         1.83842        -1.14963     13.2831E-03    -455.465E-03              0.              0.              0.              0.              0.              0.              0.     26.0254E+06     10.3444E+06    -1.29198E+06    -234.441E+03     24.9678E+06     10.3444E+06    -4.78683E+06         21.4828
            1311     999.978E-06     121.228E-03         7.51940     767.931E-03        -6.98462     329.093E-03     415.642E-03     557.977E-03        -7.00898              0.              0.              0.              0.              0.              0.              0.     10.5208E+06     7.54424E+06    -42.0431E+06     9.14227E+06    -41.8750E+06     8.75467E+06    -2.75954E+06         20.0000
            1312     2.00029E-03     121.219E-03         4.32478     62.5193E-03        -4.20933    -998.881E-03         1.06865     108.200E-03         3.38482              0.              0.              0.              0.              0.              0.              0.     10.1703E+06     8.16281E+06    -41.2176E+06     8.73778E+06    -40.6975E+06     9.07515E+06    -4.91886E+06             20.
            1313     3.00020E-03     121.214E-03         5.26017    -413.866E-03        -4.94813        -1.48692         1.75328    -368.186E-03     677.000E-03              0.              0.              0.              0.              0.              0.              0.     10.2337E+06     8.57024E+06    -39.9848E+06     8.43834E+06    -38.8507E+06     9.23159E+06    -7.29971E+06             20.
            1314     4.00045E-03     121.210E-03         4.81230    -527.937E-03        -4.32153    -277.758E-03     768.535E-03    -527.937E-03         2.15971              0.              0.              0.              0.              0.              0.              0.     10.4312E+06     9.06784E+06    -38.4541E+06     8.08127E+06    -36.4614E+06     9.42504E+06    -9.53901E+06             20.
            1315     5.00038E-03     121.208E-03         4.53743    -635.234E-03        -4.13278        -2.00542         2.41006    -635.234E-03         1.38844              0.              0.              0.              0.              0.              0.              0.     10.8957E+06     9.60137E+06    -36.6157E+06     7.70983E+06    -33.5223E+06     9.69385E+06    -11.6358E+06             20.
            1316     6.00060E-03     121.204E-03         6.20424    -783.736E-03        -5.20709    -905.276E-03         1.90242    -783.736E-03         4.35080              0.              0.              0.              0.              0.              0.              0.     11.6875E+06     10.0203E+06    -34.4665E+06     7.26397E+06    -30.0430E+06     10.0203E+06    -13.5190E+06             20.
            1317     7.00053E-03     121.202E-03         5.97539    -633.737E-03        -4.89346     240.656E-03     933.055E-03    -725.525E-03         4.30088              0.              0.              0.              0.              0.              0.              0.     12.6485E+06     10.3814E+06    -31.9564E+06     6.60497E+06    -25.9129E+06     10.3814E+06    -15.1917E+06             20.
            1318     8.00071E-03     121.202E-03         5.52681    -535.651E-03        -4.41014    -163.053E-03         1.37151    -627.440E-03         3.28093              0.              0.              0.              0.              0.              0.              0.     13.7218E+06     10.7673E+06    -29.1326E+06     5.87355E+06    -21.2844E+06     10.7673E+06    -16.5130E+06             20.
            1319     9.00062E-03     121.203E-03         4.84533    -535.374E-03        -3.79575     597.943E-03     451.633E-03    -535.374E-03         4.96020              0.              0.              0.              0.              0.              0.              0.     14.9459E+06     11.1684E+06    -26.1112E+06     5.10138E+06    -16.2667E+06     11.1684E+06    -17.4537E+06             20.
            1320     10.0008E-03     121.204E-03         2.27860    -429.071E-03        -1.71043     437.986E-03     130.184E-03    -429.071E-03    -324.206E-03              0.              0.              0.              0.              0.              0.              0.     16.1950E+06     11.5875E+06    -22.7923E+06     4.26492E+06    -10.8622E+06     11.5875E+06    -17.8975E+06             20.
            1321     11.0007E-03     121.201E-03         2.09620    -374.017E-03        -1.99654    -117.443E-03     217.101E-03    -374.017E-03        -1.70426              0.              0.              0.              0.              0.              0.              0.     17.5253E+06     11.9962E+06    -19.3437E+06     3.40592E+06    -5.22425E+06     11.9962E+06    -17.8364E+06             20.
            1322     12.0008E-03     121.201E-03         3.34264    -326.065E-03        -3.63328     541.977E-03    -832.620E-03    -326.065E-03    -923.925E-03              0.              0.              0.              0.              0.              0.              0.     18.7714E+06     12.3809E+06    -15.6945E+06     2.50757E+06     569.267E+03     12.3809E+06    -17.1170E+06             20.
            1323     13.0007E-03     121.199E-03         3.42497    -269.135E-03        -3.78026     267.662E-03    -622.953E-03    -269.135E-03     370.789E-03              0.              0.              0.              0.              0.              0.              0.     20.1178E+06     12.7258E+06    -12.1187E+06     1.61056E+06     6.38849E+06     12.7258E+06    -15.8238E+06             20.
            1324     14.0008E-03     121.199E-03         2.46931    -268.775E-03        -2.51370    -839.161E-03     794.767E-03    -268.775E-03        -2.14032              0.              0.              0.              0.              0.              0.              0.     21.5160E+06     12.9831E+06    -8.71719E+06     860.759E+03     11.9380E+06     12.9831E+06    -13.9313E+06         20.0106
            1325     15.0006E-03     121.199E-03         3.15071    -265.155E-03        -2.81961     453.279E-03    -122.181E-03    -265.155E-03         2.28484              0.              0.              0.              0.              0.              0.              0.     22.6092E+06     12.7874E+06    -5.63208E+06     233.666E+03     16.7434E+06     12.7874E+06    -11.2766E+06         20.1500
            1326     16.0007E-03     121.199E-03         3.91590    -217.006E-03        -3.71909     558.300E-03    -361.495E-03    -217.006E-03    -567.849E-03              0.              0.              0.              0.              0.              0.              0.     22.8842E+06     11.5484E+06    -3.12736E+06    -173.308E+03     19.9301E+06     11.5484E+06    -8.04845E+06         20.6145
            1327     17.0005E-03     121.199E-03         3.70635    -183.685E-03        -4.31734     131.290E-03    -742.277E-03    -183.685E-03    -101.458E-03              0.              0.              0.              0.              0.              0.              0.     21.8241E+06     9.06114E+06    -1.15062E+06    -181.055E+03     20.8545E+06     9.06114E+06    -4.19744E+06         21.4828
            1328     1.00020E-03     122.227E-03         8.29034         4.19376        -12.9698        -1.49925        -5.32185         6.33541        -1.59744              0.              0.              0.              0.              0.              0.              0.     10.9505E+06     8.38767E+06    -37.3047E+06     9.64964E+06    -37.1387E+06     9.52248E+06    -2.64929E+06             20.
            1329     2.00010E-03     122.218E-03         5.13044         1.74856        -6.18494    -594.229E-03    -505.953E-03         1.79424        -2.74464              0.              0.              0.              0.              0.              0.              0.     10.6286E+06     8.85748E+06    -36.3656E+06     9.31223E+06    -35.8859E+06     9.69421E+06    -4.51714E+06             20.
            1330     3.00035E-03     122.213E-03         3.52569     822.325E-03        -4.58957        -1.09559    -13.9804E-03     868.005E-03        -1.91285              0.              0.              0.              0.              0.              0.              0.     10.6063E+06     9.17931E+06    -35.2625E+06     8.93561E+06    -34.1774E+06     9.76489E+06    -6.80746E+06             20.
            1331     4.00028E-03     122.209E-03         4.11357     296.625E-03        -4.25984        -1.62809         1.48181     296.625E-03         4.51969              0.              0.              0.              0.              0.              0.              0.     10.8383E+06     9.63006E+06    -33.9649E+06     8.67668E+06    -32.0847E+06     9.91149E+06    -8.88468E+06             20.
            1332     5.00050E-03     122.206E-03         4.14179     102.714E-03        -3.64648     613.667E-03    -118.356E-03     102.714E-03         6.22292              0.              0.              0.              0.              0.              0.              0.     11.2505E+06     10.0098E+06    -32.3665E+06     8.21050E+06    -29.4190E+06     10.1023E+06    -10.8497E+06             20.
            1333     6.00044E-03     122.201E-03         4.83530     121.666E-03        -4.19941    -227.245E-03     863.142E-03     121.666E-03         7.08238              0.              0.              0.              0.              0.              0.              0.     11.8545E+06     10.3326E+06    -30.4222E+06     7.64142E+06    -26.2091E+06     10.3326E+06    -12.6066E+06             20.
            1334     7.00062E-03     122.202E-03         4.34389     117.396E-03        -3.35447    -898.510E-03         1.97972     25.6075E-03         5.72675              0.              0.              0.              0.              0.              0.              0.     12.6489E+06     10.5810E+06    -28.2063E+06     6.94976E+06    -22.5071E+06     10.5810E+06    -14.0864E+06             20.
            1335     8.00055E-03     122.202E-03         3.81147    -62.9233E-03        -3.00760        -1.98404         2.87970    -154.712E-03         2.65768              0.              0.              0.              0.              0.              0.              0.     13.5038E+06     10.8402E+06    -25.7018E+06     6.15050E+06    -18.3485E+06     10.8402E+06    -15.2484E+06             20.
            1336     9.00070E-03     122.202E-03         4.64982    -401.891E-03        -3.93591        -2.79472         3.50864    -401.891E-03     608.653E-03              0.              0.              0.              0.              0.              0.              0.     14.4270E+06     11.1136E+06    -22.9436E+06     5.34267E+06    -13.8593E+06     11.1136E+06    -15.9700E+06             20.
            1337     10.0006E-03     122.202E-03         3.15171    -543.761E-03        -2.77698    -724.167E-03         1.09890    -543.761E-03        -4.25887              0.              0.              0.              0.              0.              0.              0.     15.3811E+06     11.3853E+06    -20.0010E+06     4.48518E+06    -9.10507E+06     11.3853E+06    -16.2686E+06             20.
            1338     11.0007E-03     122.203E-03         2.25674    -537.389E-03        -2.29700    -202.406E-03     162.148E-03    -537.389E-03        -2.11162              0.              0.              0.              0.              0.              0.              0.     16.3177E+06     11.6423E+06    -16.8774E+06     3.55276E+06    -4.11247E+06     11.6423E+06    -16.0755E+06             20.
            1339     12.0006E-03     122.200E-03         3.12455    -496.542E-03        -3.16685     111.306E-03    -153.606E-03    -496.542E-03        -3.78864              0.              0.              0.              0.              0.              0.              0.     17.2506E+06     11.8705E+06    -13.6748E+06     2.62772E+06     948.062E+03     11.8705E+06    -15.3562E+06             20.
            1340     13.0007E-03     122.199E-03         4.23471    -372.207E-03        -4.23551         2.19507        -2.19587    -372.207E-03        -1.20974              0.              0.              0.              0.              0.              0.              0.     18.2255E+06     12.0586E+06    -10.5280E+06     1.77340E+06     5.92406E+06     12.0586E+06    -14.1364E+06             20.
            1341     14.0006E-03     122.198E-03         4.27751    -252.944E-03        -4.18791     317.310E-03    -227.707E-03    -252.944E-03    -212.333E-03              0.              0.              0.              0.              0.              0.              0.     19.2364E+06     12.1641E+06    -7.55204E+06     976.695E+03     10.7077E+06     12.1641E+06    -12.3465E+06         20.0106
            1342     15.0007E-03     122.198E-03         3.81214    -263.806E-03        -3.78724        -1.20381         1.22871    -263.806E-03     41.7310E-03              0.              0.              0.              0.              0.              0.              0.     19.8477E+06     11.8226E+06    -4.80247E+06     383.416E+03     14.6618E+06     11.8226E+06    -9.92368E+06         20.1500
            1343     16.0005E-03     122.197E-03         2.52839    -288.299E-03        -3.05362    -71.0268E-03    -454.197E-03    -288.299E-03     898.066E-03              0.              0.              0.              0.              0.              0.              0.     19.6523E+06     10.4486E+06    -2.64273E+06     33.7352E+03     16.9758E+06     10.4486E+06    -7.06645E+06         20.6145
            1344     17.0006E-03     122.199E-03         1.30005    -424.007E-03        -2.89681    -624.749E-03        -1.10459    -291.423E-03        -1.05004              0.              0.              0.              0.              0.              0.              0.     18.0940E+06     7.83702E+06    -952.023E+03    -69.8658E+03     17.2118E+06     7.83702E+06    -3.65239E+06         21.4828
            1345     999.995E-06     123.225E-03         11.8212         3.07027        -16.0209         1.62187        -6.30613         3.55492         9.11303              0.              0.              0.              0.              0.              0.              0.     10.9872E+06     8.74870E+06    -32.7671E+06     9.73603E+06    -32.6120E+06     9.84466E+06    -2.42754E+06             20.
            1346     2.00025E-03     123.217E-03         6.62972         1.85950        -8.37326     711.719E-03        -2.85100         2.25523        -3.45307              0.              0.              0.              0.              0.              0.              0.     10.5238E+06     9.22720E+06    -31.7389E+06     9.42203E+06    -31.2849E+06     9.87486E+06    -4.17162E+06             20.
            1347     3.00019E-03     123.214E-03         4.04825         1.35402        -5.22687         1.05633        -2.63068         1.74975         3.01313              0.              0.              0.              0.              0.              0.              0.     10.6443E+06     9.51035E+06    -30.9536E+06     9.23423E+06    -29.9401E+06     9.90688E+06    -6.27772E+06             20.
            1348     4.00039E-03     123.209E-03         3.28293         1.06744        -4.02981     339.092E-03        -1.50422         1.48569         4.80652              0.              0.              0.              0.              0.              0.              0.     10.8290E+06     9.75350E+06    -29.7376E+06     8.79308E+06    -27.9544E+06     10.0062E+06    -8.21267E+06             20.
            1349     5.00034E-03     123.205E-03         3.87708     785.498E-03        -3.52991    -139.877E-03     68.8055E-03         1.20374         5.36823              0.              0.              0.              0.              0.              0.              0.     11.2010E+06     10.0699E+06    -28.3728E+06     8.34290E+06    -25.5785E+06     10.1336E+06    -10.0539E+06             20.
            1350     6.00052E-03     123.204E-03         4.12202     899.220E-03        -3.89800        -1.12031         1.34433     899.220E-03         4.43084              0.              0.              0.              0.              0.              0.              0.     11.6831E+06     10.2812E+06    -26.6607E+06     7.72464E+06    -22.7023E+06     10.2812E+06    -11.6137E+06             20.
            1351     7.00047E-03     123.204E-03         4.38941     488.391E-03        -3.88581        -2.90482         3.40842     488.391E-03         1.77692              0.              0.              0.              0.              0.              0.              0.     12.3768E+06     10.4505E+06    -24.7475E+06     7.08353E+06    -19.4543E+06     10.4505E+06    -12.9242E+06             20.
            1352     8.00062E-03     123.202E-03         5.20907    -16.0063E-03        -4.55231        -4.20962         4.86638    -16.0063E-03    -10.0440E-03              0.              0.              0.              0.              0.              0.              0.     13.0744E+06     10.6306E+06    -22.5645E+06     6.38004E+06    -15.8701E+06     10.6306E+06    -13.8764E+06             20.
            1353     9.00055E-03     123.202E-03         4.30418    -414.830E-03        -3.89968        -2.87820         3.28269    -414.830E-03    -616.277E-03              0.              0.              0.              0.              0.              0.              0.     13.7178E+06     10.8155E+06    -20.0681E+06     5.50016E+06    -11.8504E+06     10.8155E+06    -14.4359E+06             20.
            1354     10.0007E-03     123.203E-03         4.04320    -593.385E-03        -3.79591        -1.43057         1.67786    -593.385E-03        -2.54285              0.              0.              0.              0.              0.              0.              0.     14.3953E+06     10.9848E+06    -17.4261E+06     4.60375E+06    -7.63455E+06     10.9848E+06    -14.6358E+06             20.
            1355     11.0006E-03     123.201E-03         4.38773    -620.646E-03        -4.19618    -299.563E-03     491.117E-03    -620.646E-03     577.229E-03              0.              0.              0.              0.              0.              0.              0.     15.0167E+06     11.1252E+06    -14.6238E+06     3.61313E+06    -3.22020E+06     11.1252E+06    -14.3476E+06             20.
            1356     12.0007E-03     123.200E-03         4.68388    -533.345E-03        -4.48840         1.21436        -1.01888    -533.345E-03        -1.30319              0.              0.              0.              0.              0.              0.              0.     15.7148E+06     11.2336E+06    -11.8392E+06     2.64436E+06     1.23119E+06     11.2336E+06    -13.6923E+06             20.
            1357     13.0006E-03     123.199E-03         6.59136    -392.953E-03        -6.30624         1.36865        -1.08352    -392.953E-03         2.07512              0.              0.              0.              0.              0.              0.              0.     16.4141E+06     11.2992E+06    -9.09628E+06     1.83396E+06     5.48385E+06     11.2992E+06    -12.5389E+06             20.
            1358     14.0007E-03     123.196E-03         6.66831    -281.915E-03        -6.59013     932.620E-03    -854.444E-03    -281.915E-03         2.36440              0.              0.              0.              0.              0.              0.              0.     17.0761E+06     11.2910E+06    -6.45997E+06     1.08271E+06     9.53340E+06     11.2910E+06    -10.8828E+06         20.0106
            1359     15.0005E-03     123.195E-03         4.81260    -224.543E-03        -5.23043     194.515E-03    -612.348E-03    -224.543E-03     119.049E-03              0.              0.              0.              0.              0.              0.              0.     17.4067E+06     10.8433E+06    -4.11550E+06     518.028E+03     12.7732E+06     10.8433E+06    -8.73118E+06         20.1500
            1360     16.0006E-03     123.197E-03         3.38857    -254.689E-03        -4.57061        -1.66731     485.264E-03    -254.689E-03         3.64257              0.              0.              0.              0.              0.              0.              0.     16.7441E+06     9.37133E+06    -2.16907E+06     230.412E+03     14.3447E+06     9.37133E+06    -6.17831E+06         20.6145
            1361     17.0005E-03     123.199E-03         2.22256    -446.977E-03        -4.05647    -844.855E-03        -1.12165    -314.392E-03        -1.31980              0.              0.              0.              0.              0.              0.              0.     14.8513E+06     6.67565E+06    -780.034E+03     52.7149E+03     14.0185E+06     6.67565E+06    -3.22054E+06         21.4828
            1362     1.00016E-03     124.227E-03         11.6734         3.72604        -15.8841         1.62706        -6.18388         4.07214         15.0472              0.              0.              0.              0.              0.              0.              0.     10.5900E+06     8.71612E+06    -28.2561E+06     9.62158E+06    -28.1159E+06     9.54430E+06    -2.15198E+06         20.0000
            1363     2.00009E-03     124.217E-03         5.87258         2.69945        -9.04273         4.27263        -7.83852         3.09519    -161.917E-03              0.              0.              0.              0.              0.              0.              0.     10.2467E+06     9.30675E+06    -27.6010E+06     9.42690E+06    -27.1610E+06     9.68663E+06    -3.89137E+06             20.
            1364     3.00029E-03     124.213E-03         4.24869         2.41754        -6.21157     642.696E-03        -3.18100         2.99297         4.51507              0.              0.              0.              0.              0.              0.              0.     10.3784E+06     9.43062E+06    -26.8870E+06     9.12186E+06    -25.9296E+06      9.7298E+06    -5.78447E+06             20.
            1365     4.00025E-03     124.208E-03         3.09641         1.05679        -3.41852    -177.787E-03        -1.37751         2.28997         1.91718              0.              0.              0.              0.              0.              0.              0.     10.5489E+06     9.64339E+06    -25.8898E+06     8.72339E+06    -24.2197E+06     9.79877E+06    -7.53081E+06             20.
            1366     5.00042E-03     124.205E-03         3.44124     561.305E-03        -2.95326        -2.04885         1.48335         1.61479         2.73528              0.              0.              0.              0.              0.              0.              0.     10.8545E+06     9.81238E+06    -24.6535E+06     8.17441E+06    -22.0372E+06     9.87615E+06    -9.20101E+06             20.
            1367     6.00038E-03     124.202E-03         4.21678     949.633E-03        -4.21799        -2.64340         2.64218     949.633E-03    -429.401E-03              0.              0.              0.              0.              0.              0.              0.     11.3459E+06     9.97404E+06    -23.2638E+06     7.69563E+06    -19.6136E+06     9.97404E+06    -10.5877E+06             20.
            1368     7.00052E-03     124.200E-03         6.16987     428.061E-03        -6.07944        -2.68712         2.77754     428.061E-03         2.77849              0.              0.              0.              0.              0.              0.              0.     11.9335E+06     10.0945E+06    -21.6381E+06     7.10984E+06    -16.8144E+06     10.0945E+06    -11.7237E+06             20.
            1369     8.00047E-03     124.202E-03         7.13018     28.5202E-03        -6.95535        -2.80391         2.97874     28.5202E-03         1.39639              0.              0.              0.              0.              0.              0.              0.     12.4517E+06     10.2233E+06    -19.6913E+06     6.37637E+06    -13.6159E+06     10.2233E+06    -12.5455E+06             20.
            1370     9.00060E-03     124.200E-03         5.41198    -168.568E-03        -5.36481    -528.498E-03     575.670E-03    -168.568E-03     704.523E-03              0.              0.              0.              0.              0.              0.              0.     12.9589E+06     10.3417E+06    -17.5357E+06     5.56610E+06    -10.1428E+06     10.3417E+06    -13.0211E+06             20.
            1371     10.0005E-03     124.202E-03         4.38066    -230.443E-03        -4.38561        -1.06857         1.06362    -230.443E-03         3.57631              0.              0.              0.              0.              0.              0.              0.     13.4006E+06     10.4323E+06    -15.1744E+06     4.56217E+06    -6.33601E+06     10.4323E+06    -13.1528E+06             20.
            1372     11.0006E-03     124.201E-03         4.85643    -272.934E-03        -4.68985    -277.673E-03     444.259E-03    -272.934E-03         3.97519              0.              0.              0.              0.              0.              0.              0.     13.8085E+06     10.4860E+06    -12.6903E+06     3.56314E+06    -2.44493E+06     10.4860E+06    -12.8542E+06             20.
            1373     12.0005E-03     124.199E-03         5.19658    -229.162E-03        -5.01834     843.763E-03    -665.518E-03    -229.162E-03         3.22002              0.              0.              0.              0.              0.              0.              0.     14.3439E+06     10.5023E+06    -10.3211E+06     2.68159E+06     1.34124E+06     10.5023E+06    -12.2497E+06             20.
            1374     13.0006E-03     124.197E-03         5.86212    -191.588E-03        -5.74611    -364.102E-03     480.114E-03    -191.588E-03         4.57136              0.              0.              0.              0.              0.              0.              0.     14.7613E+06     10.4826E+06    -7.86986E+06     1.81230E+06     5.07915E+06     10.4826E+06    -11.1175E+06             20.
            1375     14.0005E-03     124.196E-03         5.43313    -178.127E-03        -5.67114     389.829E-03    -627.835E-03    -178.127E-03         4.69379              0.              0.              0.              0.              0.              0.              0.     15.1794E+06     10.3886E+06    -5.57706E+06     1.13671E+06     8.46564E+06     10.3886E+06    -9.62510E+06         20.0106
            1376     15.0006E-03     124.196E-03         3.29098    -140.926E-03        -4.14107     369.863E-03        -1.21996    -140.926E-03         1.43536              0.              0.              0.              0.              0.              0.              0.     15.1844E+06     9.86489E+06    -3.49393E+06     717.257E+03     10.9732E+06     9.86489E+06    -7.71321E+06         20.1500
            1377     16.0005E-03     124.196E-03         3.67059    -137.921E-03        -5.10378    -587.098E-03    -846.097E-03    -137.921E-03         4.43196              0.              0.              0.              0.              0.              0.              0.     14.2580E+06     8.32204E+06    -1.85897E+06     322.489E+03     12.0765E+06     8.32204E+06    -5.40994E+06         20.6145
            1378     17.0005E-03     124.196E-03         3.20616    -144.465E-03        -4.84120     95.9447E-03        -1.73098    -144.465E-03     115.370E-03              0.              0.              0.              0.              0.              0.              0.     12.0414E+06     5.56657E+06    -664.420E+03     106.319E+03     11.2707E+06     5.56657E+06    -2.82921E+06         21.4828
            1379     999.991E-06     125.225E-03         16.2366         7.31403        -23.6331        -6.57759        -7.10852         13.6037         14.7767              0.              0.              0.              0.              0.              0.              0.     10.1362E+06     8.37321E+06    -24.1444E+06      9.2694E+06    -24.0112E+06     9.10673E+06    -1.87035E+06         20.0000
            1380     2.00020E-03     125.217E-03         7.70203         3.36377        -11.3653         2.98915        -6.65243         3.36377        -4.12377              0.              0.              0.              0.              0.              0.              0.     9.79831E+06     8.97292E+06    -23.7696E+06     9.11384E+06    -23.3667E+06     9.25451E+06    -3.52361E+06             20.
            1381     3.00015E-03     125.210E-03         4.80773         2.77555        -6.93729         1.03331        -3.34256         2.95525         4.71743              0.              0.              0.              0.              0.              0.              0.     9.90816E+06     9.11949E+06    -23.1637E+06     8.81653E+06    -22.2730E+06     9.32038E+06    -5.23763E+06             20.
            1382     4.00032E-03     125.206E-03         4.16882         1.18808        -4.52710        -3.09068         1.91746         2.00301        -2.66280              0.              0.              0.              0.              0.              0.              0.     10.0761E+06      9.2779E+06    -22.3684E+06     8.45219E+06    -20.8361E+06     9.36951E+06    -6.82382E+06             20.
            1383     5.00029E-03     125.201E-03         6.13273     509.652E-03        -5.96598        -1.10326     634.780E-03         1.14489         1.43103              0.              0.              0.              0.              0.              0.              0.     10.3617E+06     9.43405E+06    -21.3652E+06     8.00241E+06    -19.0059E+06     9.43405E+06    -8.25954E+06             20.
            1384     6.00043E-03     125.199E-03         6.48738     679.049E-03        -6.86024        -2.23194         1.85908     679.049E-03         1.33169              0.              0.              0.              0.              0.              0.              0.     10.8422E+06     9.50804E+06    -20.2033E+06     7.49974E+06    -16.8609E+06     9.50804E+06    -9.58087E+06             20.
            1385     7.00039E-03     125.200E-03         6.96831     317.225E-03        -7.25680        -1.35565         1.06716     317.225E-03         2.26388              0.              0.              0.              0.              0.              0.              0.     11.2831E+06     9.59656E+06    -18.7547E+06     6.93140E+06    -14.4031E+06     9.59656E+06    -10.5284E+06             20.
            1386     8.00052E-03     125.200E-03         6.51126     278.466E-03        -6.94369         1.57242        -2.00486     278.466E-03         1.27692              0.              0.              0.              0.              0.              0.              0.     11.7087E+06     9.67784E+06    -17.0861E+06     6.17238E+06    -11.5498E+06     9.67784E+06    -11.3006E+06             20.
            1387     9.00046E-03     125.200E-03         6.02055     335.741E-03        -6.40120    -85.0085E-03    -295.644E-03     335.741E-03         1.47569              0.              0.              0.              0.              0.              0.              0.     12.0858E+06     9.73130E+06    -15.2157E+06     5.35050E+06    -8.48035E+06     9.73130E+06    -11.7286E+06             20.
            1388     10.0006E-03     125.199E-03         5.64353     304.091E-03        -5.79172     140.465E-03    -288.649E-03     304.091E-03         2.62586              0.              0.              0.              0.              0.              0.              0.     12.3883E+06     9.75733E+06    -13.1519E+06     4.42188E+06    -5.18548E+06     9.75733E+06    -11.7860E+06             20.
            1389     11.0005E-03     125.199E-03         4.99646     297.987E-03        -5.12572     349.576E-03    -478.837E-03     297.987E-03         1.32478              0.              0.              0.              0.              0.              0.              0.     12.7024E+06     9.74803E+06    -11.0470E+06     3.51053E+06    -1.85518E+06     9.74803E+06    -11.5220E+06             20.
            1390     12.0006E-03     125.198E-03         4.44702     202.856E-03        -4.50630        -2.12351         2.06422     202.856E-03         4.53787              0.              0.              0.              0.              0.              0.              0.     13.0249E+06     9.70538E+06    -8.94770E+06     2.64472E+06     1.43250E+06     9.70538E+06    -10.9134E+06             20.
            1391     13.0005E-03     125.195E-03         3.72585     71.6352E-03        -4.02589    -809.792E-03     509.748E-03     71.6352E-03         1.56582              0.              0.              0.              0.              0.              0.              0.     13.2505E+06     9.62753E+06    -6.80663E+06     1.85446E+06     4.58942E+06     9.62753E+06    -9.86237E+06             20.
            1392     14.0006E-03     125.198E-03         3.71649     38.0374E-03        -4.41719     49.2728E-03    -749.979E-03     38.0374E-03         4.45380              0.              0.              0.              0.              0.              0.              0.     13.4337E+06     9.47853E+06    -4.78450E+06     1.24990E+06     7.39930E+06     9.47853E+06    -8.50607E+06         20.0106
            1393     15.0005E-03     125.196E-03         2.85744     3.08334E-03        -3.95376        -1.05324    -43.0786E-03     3.08334E-03         2.66347              0.              0.              0.              0.              0.              0.              0.     13.2544E+06     8.89721E+06    -3.02566E+06     781.205E+03     9.44749E+06     8.89721E+06    -6.80540E+06         20.1500
            1394     16.0005E-03     125.195E-03         3.79337     24.3374E-03        -5.07000         1.83612        -3.11274     24.3374E-03         3.16227              0.              0.              0.              0.              0.              0.              0.     12.0156E+06     7.30726E+06    -1.55168E+06     441.216E+03     10.0227E+06     7.30726E+06    -4.74711E+06         20.6145
            1395     17.0004E-03     125.197E-03         3.58110     112.532E-03        -4.60431         1.17832        -2.20152     112.532E-03         1.15281              0.              0.              0.              0.              0.              0.              0.     9.57611E+06     4.51255E+06    -572.471E+03     177.832E+03     8.82581E+06     4.51255E+06    -2.48635E+06         21.4828
            1396     1.00014E-03     126.225E-03         22.3912         5.18497        -27.3955        -12.5711        -4.60700         17.3587         7.62825              0.              0.              0.              0.              0.              0.              0.     9.58539E+06     7.97187E+06    -20.7975E+06     8.60729E+06    -20.6714E+06     8.82389E+06    -1.51656E+06             20.
            1397     2.00007E-03     126.214E-03         11.8983         1.81093        -13.4054    -712.883E-03    -794.187E-03         1.81093        -5.28292              0.              0.              0.              0.              0.              0.              0.     9.29884E+06     8.36597E+06    -20.2515E+06     8.53464E+06    -19.8873E+06     8.76605E+06    -3.19279E+06             20.
            1398     3.00024E-03     126.210E-03         9.83083         1.07053        -10.3556     325.962E-03    -850.782E-03         1.07053         2.18012              0.              0.              0.              0.              0.              0.              0.     9.36627E+06     8.59203E+06    -19.8516E+06     8.40003E+06    -19.0828E+06     8.78950E+06    -4.56319E+06             20.
            1399     4.00020E-03     126.206E-03         6.66097     892.208E-03        -6.81251     387.518E-03    -539.058E-03     892.208E-03     525.693E-03              0.              0.              0.              0.              0.              0.              0.     9.52260E+06     8.74632E+06    -19.2080E+06     8.03969E+06    -17.8133E+06     8.83451E+06    -6.11112E+06             20.
            1400     5.00034E-03     126.201E-03         5.87416     602.662E-03        -6.42496        -1.69036         1.13956     602.662E-03     112.468E-03              0.              0.              0.              0.              0.              0.              0.     9.85127E+06     8.89505E+06    -18.4626E+06     7.76493E+06    -16.3762E+06     8.89505E+06    -7.36316E+06             20.
            1401     6.00031E-03     126.199E-03         7.17103     352.900E-03        -7.59093     97.8316E-03    -517.733E-03     352.900E-03         2.56908              0.              0.              0.              0.              0.              0.              0.     10.1708E+06     8.95615E+06    -17.3990E+06     7.16604E+06    -14.3942E+06     8.95615E+06    -8.53256E+06             20.
            1402     7.00043E-03     126.195E-03         5.28500     263.855E-03        -5.88833         1.05307        -1.77290     380.359E-03    -600.872E-03              0.              0.              0.              0.              0.              0.              0.     10.4718E+06     9.00598E+06    -16.0742E+06     6.51001E+06    -12.1124E+06     9.00598E+06    -9.43390E+06             20.
            1403     8.00039E-03     126.199E-03         2.64098     322.364E-03        -3.11469         1.63315        -2.28421     499.718E-03    -35.8845E-03              0.              0.              0.              0.              0.              0.              0.     10.8501E+06     9.03563E+06    -14.6845E+06     5.86618E+06    -9.70062E+06     9.03563E+06    -10.0738E+06             20.
            1404     9.00049E-03     126.198E-03         3.95601     534.629E-03        -4.23560         1.04063        -1.38107     595.479E-03        -1.20265              0.              0.              0.              0.              0.              0.              0.     11.0256E+06     9.03498E+06    -12.9749E+06     4.97969E+06    -6.92901E+06     9.03498E+06    -10.3834E+06             20.
            1405     10.0004E-03     126.199E-03         5.65046     608.994E-03        -5.86493     385.203E-03    -599.674E-03     608.994E-03        -2.15953              0.              0.              0.              0.              0.              0.              0.     11.3009E+06     9.00742E+06    -11.2699E+06     4.19486E+06    -4.16382E+06     9.00742E+06    -10.4447E+06             20.
            1406     11.0005E-03     126.198E-03         4.67815     535.985E-03        -4.76194    -823.800E-03     740.011E-03     535.985E-03        -2.07829              0.              0.              0.              0.              0.              0.              0.     11.5343E+06     8.95550E+06    -9.49238E+06     3.42878E+06    -1.38686E+06     8.95550E+06    -10.1945E+06             20.
            1407     12.0005E-03     126.198E-03         3.24357     406.377E-03        -3.59967        -1.22048     864.387E-03     406.377E-03     662.415E-03              0.              0.              0.              0.              0.              0.              0.     11.6738E+06     8.87321E+06    -7.62410E+06     2.55582E+06     1.49384E+06     8.87321E+06    -9.58053E+06             20.
            1408     13.0005E-03     126.197E-03         3.05141     285.188E-03        -3.71280        -1.10013     438.736E-03     285.188E-03        -1.72105              0.              0.              0.              0.              0.              0.              0.     11.8247E+06     8.75569E+06    -5.84033E+06     1.89912E+06     4.08520E+06     8.75569E+06    -8.72247E+06             20.
            1409     14.0004E-03     126.196E-03         4.51853     199.187E-03        -5.46438    -713.693E-03    -232.165E-03     199.187E-03         3.78811              0.              0.              0.              0.              0.              0.              0.     11.8518E+06     8.57098E+06    -4.10113E+06     1.33442E+06     6.41626E+06     8.57098E+06    -7.49204E+06         20.0106
            1410     15.0005E-03     126.195E-03         5.05921     179.194E-03        -6.13705     561.980E-03        -1.63981     179.194E-03         1.30889              0.              0.              0.              0.              0.              0.              0.     11.5227E+06     7.95478E+06    -2.61381E+06     808.035E+03     8.10089E+06     7.95478E+06    -6.00149E+06         20.1500
            1411     16.0004E-03     126.194E-03         5.13299     217.663E-03        -6.02644         1.04545        -1.93889     217.663E-03     509.609E-03              0.              0.              0.              0.              0.              0.              0.     10.0946E+06     6.32912E+06    -1.36360E+06     511.252E+03     8.21976E+06     6.32912E+06    -4.19516E+06         20.6145
            1412     17.0005E-03     126.194E-03         4.50724     257.114E-03        -4.95159     717.919E-03        -1.16227     257.114E-03         2.60524              0.              0.              0.              0.              0.              0.              0.     7.40369E+06     3.51430E+06    -485.547E+03     236.992E+03     6.68115E+06     3.51430E+06    -2.17707E+06         21.4828
            1413     999.994E-06     127.225E-03         23.9309         5.28900        -28.2042        -16.5214     188.934E-03         17.3482        -3.30357              0.              0.              0.              0.              0.              0.              0.     8.94977E+06     7.55419E+06    -17.8543E+06     8.25879E+06    -17.7499E+06     8.14075E+06    -1.38469E+06             20.
            1414     2.00017E-03     127.216E-03         11.5018     219.695E-03        -11.4201    -492.623E-03     574.288E-03     219.695E-03         8.41092              0.              0.              0.              0.              0.              0.              0.     8.79547E+06     7.70539E+06    -17.3097E+06     7.93145E+06    -16.9554E+06     8.21516E+06    -2.89943E+06             20.
            1415     3.00012E-03     127.208E-03         9.98607     22.5090E-03        -9.49457    -92.6616E-03     584.162E-03     22.5090E-03         3.73604              0.              0.              0.              0.              0.              0.              0.     8.85308E+06     7.90895E+06    -16.9343E+06     7.84261E+06    -16.2310E+06     8.21611E+06     -4.1307E+06             20.
            1416     4.00026E-03     127.203E-03         7.08139     336.124E-03        -7.08622         3.00577        -3.01060     336.124E-03         8.99823              0.              0.              0.              0.              0.              0.              0.     9.00936E+06     8.16983E+06    -16.5440E+06     7.67755E+06    -15.3004E+06     8.25802E+06    -5.42394E+06             20.
            1417     5.00023E-03     127.200E-03         3.90449     531.870E-03        -4.62024    -849.070E-03     133.318E-03     531.870E-03         4.36540              0.              0.              0.              0.              0.              0.              0.     9.12464E+06     8.30455E+06    -15.7648E+06     7.21556E+06    -13.8558E+06     8.30455E+06    -6.59008E+06             20.
            1418     6.00035E-03     127.199E-03         4.96755     442.801E-03        -5.60370         1.04320        -1.67935     442.801E-03         4.20361              0.              0.              0.              0.              0.              0.              0.     9.43588E+06     8.33837E+06    -14.8765E+06     6.73765E+06    -12.1782E+06     8.33837E+06    -7.59559E+06             20.
            1419     7.00032E-03     127.196E-03         3.23864     484.161E-03        -3.90286         2.19214        -2.97759     605.392E-03         1.70275              0.              0.              0.              0.              0.              0.              0.     9.66688E+06     8.35260E+06    -13.7480E+06     6.08859E+06    -10.1697E+06     8.35260E+06    -8.39395E+06             20.
            1420     8.00042E-03     127.196E-03     976.078E-03     485.794E-03        -1.35447    -148.643E-03    -411.825E-03     667.875E-03         1.39370              0.              0.              0.              0.              0.              0.              0.     9.84611E+06     8.34021E+06    -12.4282E+06     5.36795E+06    -7.95006E+06     8.34021E+06    -8.89487E+06             20.
            1421     9.00037E-03     127.196E-03         2.50024     602.025E-03        -2.61794         1.48556        -1.66411     662.875E-03    -929.232E-03              0.              0.              0.              0.              0.              0.              0.     10.0230E+06     8.29613E+06    -11.0376E+06     4.67764E+06    -5.69224E+06     8.29613E+06    -9.13396E+06             20.
            1422     10.0005E-03     127.198E-03         3.64636     690.210E-03        -3.77331     320.211E-03    -447.157E-03     690.210E-03    -164.946E-03              0.              0.              0.              0.              0.              0.              0.     10.2052E+06     8.23507E+06    -9.57626E+06       3.912E+06    -3.28302E+06     8.23507E+06    -9.17069E+06             20.
            1423     11.0004E-03     127.197E-03         2.99745     580.005E-03        -3.24929        -1.44054         1.18870     580.005E-03    -515.543E-03              0.              0.              0.              0.              0.              0.              0.     10.3328E+06     8.14917E+06    -8.02839E+06     3.16071E+06    -856.302E+03     8.14917E+06    -8.92261E+06             20.
            1424     12.0005E-03     127.195E-03         2.76678     480.404E-03        -3.28766     290.915E-03    -811.789E-03     480.404E-03    -63.2575E-03              0.              0.              0.              0.              0.              0.              0.     10.4199E+06      8.0337E+06    -6.47360E+06     2.48989E+06     1.45638E+06      8.0337E+06    -8.39730E+06             20.
            1425     13.0004E-03     127.194E-03         3.49979     409.456E-03        -4.37721        -1.22920     351.772E-03     409.456E-03    -509.251E-03              0.              0.              0.              0.              0.              0.              0.     10.5527E+06     7.89104E+06    -5.03400E+06     1.84336E+06     3.67538E+06     7.89104E+06    -7.69475E+06             20.
            1426     14.0005E-03     127.194E-03         3.73561     298.657E-03        -4.63691        -1.03639     135.086E-03     298.657E-03    -263.382E-03              0.              0.              0.              0.              0.              0.              0.     10.4146E+06     7.67687E+06    -3.50215E+06     1.29277E+06     5.61972E+06     7.67687E+06    -6.56969E+06         20.0106
            1427     15.0004E-03     127.191E-03         3.55113     240.203E-03        -4.26105         1.04048        -1.78658     276.391E-03    -781.487E-03              0.              0.              0.              0.              0.              0.              0.     9.96947E+06     7.03871E+06    -2.26167E+06     883.776E+03     6.82402E+06     7.03871E+06    -5.30271E+06         20.1500
            1428     16.0004E-03     127.191E-03         3.85064     257.047E-03        -4.24274     18.8303E-03    -447.125E-03     293.235E-03        -1.91551              0.              0.              0.              0.              0.              0.              0.     8.45644E+06     5.39999E+06    -1.25130E+06     526.410E+03     6.67873E+06     5.39999E+06    -3.70833E+06         20.6145
            1429     17.0004E-03     127.194E-03         3.53032     302.414E-03        -3.63726     906.746E-03        -1.01369     302.414E-03     949.317E-03              0.              0.              0.              0.              0.              0.              0.     5.55980E+06     2.56570E+06    -488.768E+03     218.361E+03     4.85267E+06     2.56570E+06    -1.88222E+06         21.4828
            1430     1.00011E-03     128.223E-03         26.2330         3.06036        -28.5765        -21.3494     642.473E-03         21.4238        -4.68406              0.              0.              0.              0.              0.              0.              0.     8.11260E+06     6.97779E+06    -14.9882E+06     7.53329E+06    -14.8828E+06     7.45172E+06    -1.45346E+06         20.0000
            1431     2.00006E-03     128.213E-03         8.75033     691.919E-03        -8.97184         3.44611        -3.66762     691.919E-03         12.9330              0.              0.              0.              0.              0.              0.              0.     8.21005E+06     7.14616E+06    -14.7805E+06     7.47843E+06    -14.4460E+06     7.54330E+06    -2.62702E+06             20.
            1432     3.00019E-03     128.207E-03         7.52431         1.33706        -8.67135         1.15018        -2.29722         1.33706         9.73730              0.              0.              0.              0.              0.              0.              0.     8.31674E+06     7.28568E+06    -14.4903E+06     7.32324E+06    -13.8045E+06     7.59332E+06    -3.82790E+06             20.
            1433     4.00016E-03     128.205E-03         6.45570         1.05203        -7.38876    -916.762E-03    -16.2963E-03         1.05203         11.2312              0.              0.              0.              0.              0.              0.              0.     8.33541E+06     7.54257E+06    -14.0785E+06     7.08369E+06    -12.9154E+06     7.63124E+06    -4.90918E+06             20.
            1434     5.00027E-03     128.200E-03         5.43196     994.890E-03        -6.45483         2.92007        -3.94294     994.890E-03         7.87327              0.              0.              0.              0.              0.              0.              0.     8.44618E+06     7.65873E+06    -13.4231E+06     6.66608E+06    -11.6430E+06     7.65873E+06    -5.94627E+06             20.
            1435     6.00025E-03     128.197E-03         4.98170         1.12895        -6.12190     452.030E-03        -1.59224         1.12895         4.75687              0.              0.              0.              0.              0.              0.              0.     8.68648E+06     7.66406E+06    -12.6595E+06     6.21248E+06    -10.1855E+06     7.66406E+06    -6.80322E+06             20.
            1436     7.00034E-03     128.195E-03         3.81873         1.00629        -4.57214     164.277E-03    -922.413E-03         1.01102         3.01537              0.              0.              0.              0.              0.              0.              0.     8.85642E+06     7.65396E+06    -11.6883E+06     5.62717E+06    -8.45907E+06     7.65396E+06    -7.44872E+06             20.
            1437     8.00031E-03     128.196E-03         3.14851     983.314E-03        -3.72850         1.58911        -2.17383     988.041E-03         4.64322              0.              0.              0.              0.              0.              0.              0.     8.97658E+06     7.61161E+06    -10.5690E+06     4.92533E+06    -6.51780E+06     7.61161E+06    -7.89365E+06             20.
            1438     9.00039E-03     128.196E-03         3.14886     961.598E-03        -3.55095    -196.347E-03    -205.748E-03     961.598E-03         1.26497              0.              0.              0.              0.              0.              0.              0.     9.08499E+06     7.54280E+06    -9.36569E+06     4.29449E+06    -4.57519E+06     7.54280E+06    -8.06498E+06             20.
            1439     10.0003E-03     128.198E-03         4.44377     846.506E-03        -4.91019    -171.478E-03    -294.943E-03     846.506E-03         3.86731              0.              0.              0.              0.              0.              0.              0.     9.21088E+06     7.45650E+06    -8.12586E+06     3.59018E+06    -2.50516E+06     7.45650E+06    -8.07308E+06             20.
            1440     11.0004E-03     128.194E-03         5.56726     746.165E-03        -6.20184    -339.707E-03    -294.881E-03     746.165E-03     806.816E-03              0.              0.              0.              0.              0.              0.              0.     9.29367E+06     7.34399E+06    -6.83522E+06     2.88621E+06    -427.765E+03     7.34399E+06    -7.86542E+06             20.
            1441     12.0004E-03     128.197E-03         4.67589     606.174E-03        -5.49537        -1.56823     748.751E-03     606.174E-03        -1.14537              0.              0.              0.              0.              0.              0.              0.     9.31710E+06     7.20953E+06    -5.51134E+06     2.32459E+06     1.48117E+06     7.20953E+06    -7.37188E+06             20.
            1442     13.0004E-03     128.192E-03         4.04554     423.915E-03        -4.86271        -1.96087         1.14370     423.915E-03     427.912E-03              0.              0.              0.              0.              0.              0.              0.     9.33728E+06     7.04516E+06    -4.28423E+06     1.75343E+06     3.29962E+06     7.04516E+06    -6.73354E+06             20.
            1443     14.0003E-03     128.191E-03         3.11709     290.559E-03        -3.69326    -876.174E-03     300.002E-03     290.559E-03        -6.03647              0.              0.              0.              0.              0.              0.              0.     9.13555E+06     6.81757E+06    -2.99799E+06     1.26570E+06     4.87185E+06     6.81757E+06    -5.75264E+06         20.0106
            1444     15.0004E-03     128.191E-03         1.69995     203.482E-03        -1.96394    -37.7816E-03    -262.391E-03     239.670E-03        -1.82188              0.              0.              0.              0.              0.              0.              0.     8.55958E+06     6.16927E+06    -1.92342E+06     877.825E+03     5.75833E+06     6.16927E+06    -4.60635E+06         20.1500
            1445     16.0003E-03     128.189E-03         2.12020     200.949E-03        -2.20837     452.197E-03    -576.560E-03     237.137E-03        -2.55067              0.              0.              0.              0.              0.              0.              0.     6.99820E+06     4.52191E+06    -1.14136E+06     514.170E+03     5.34267E+06     4.52191E+06    -3.23521E+06         20.6145
            1446     17.0004E-03     128.191E-03         2.66308     282.038E-03        -2.70672         1.58425        -1.62789     282.038E-03        -2.06623              0.              0.              0.              0.              0.              0.              0.     3.98686E+06     1.69000E+06    -494.177E+03     252.804E+03     3.23988E+06     1.69000E+06    -1.64895E+06         21.4828
            1447     999.992E-06     129.223E-03         19.7243     904.064E-03        -20.0559        -13.4066        -3.71186         17.6909        -4.78623              0.              0.              0.              0.              0.              0.              0.     7.49367E+06     6.18831E+06    -12.5221E+06     6.67592E+06    -12.4213E+06     6.90519E+06    -1.32913E+06             20.
            1448     2.00013E-03     129.215E-03         8.70405         2.13848        -10.5240         1.92973        -3.74966         2.13848         6.15121              0.              0.              0.              0.              0.              0.              0.     7.46715E+06     6.61862E+06    -12.4217E+06     6.90629E+06    -12.1150E+06     6.87281E+06    -2.35536E+06             20.
            1449     3.00010E-03     129.208E-03         10.4999         1.95068        -12.2463         1.14013        -2.88654         1.95068         5.70182              0.              0.              0.              0.              0.              0.              0.     7.52200E+06     6.75969E+06    -12.2207E+06     6.70395E+06    -11.5674E+06     6.92439E+06    -3.46586E+06             20.
            1450     4.00020E-03     129.203E-03         6.77740         1.51484        -8.11298         1.03738        -2.58929         1.73118         5.24183              0.              0.              0.              0.              0.              0.              0.     7.59594E+06     6.86094E+06    -11.7928E+06     6.38472E+06    -10.6702E+06     6.94962E+06    -4.47904E+06             20.
            1451     5.00018E-03     129.198E-03         4.87146         1.31935        -6.04310     463.978E-03        -1.85195         1.53568         4.64011              0.              0.              0.              0.              0.              0.              0.     7.80527E+06     6.95968E+06    -11.3822E+06     6.17339E+06    -9.75034E+06     6.95968E+06    -5.33033E+06             20.
            1452     6.00028E-03     129.195E-03         6.58253         1.40109        -7.55546         1.08001        -2.05294         1.40109         1.67378              0.              0.              0.              0.              0.              0.              0.     7.93818E+06     6.95623E+06    -10.6875E+06     5.65013E+06    -8.39943E+06     6.95623E+06    -6.07101E+06             20.
            1453     7.00025E-03     129.194E-03         6.44486         1.36414        -7.34455         1.21525        -2.11494         1.36414    -925.665E-03              0.              0.              0.              0.              0.              0.              0.     8.06597E+06     6.92555E+06    -9.86010E+06     5.12303E+06    -6.91717E+06     6.92555E+06    -6.62386E+06             20.
            1454     8.00033E-03     129.195E-03         5.80143         1.32395        -6.57315     846.704E-03        -1.61842         1.32395         4.12063              0.              0.              0.              0.              0.              0.              0.     8.17130E+06     6.86873E+06    -8.94461E+06     4.55448E+06    -5.32780E+06     6.86873E+06    -6.95343E+06             20.
            1455     9.00029E-03     129.196E-03         6.38573         1.20583        -7.27143    -386.748E-03    -498.955E-03         1.20583    -670.860E-03              0.              0.              0.              0.              0.              0.              0.     8.24423E+06     6.78579E+06    -7.93411E+06     3.85774E+06    -3.54762E+06     6.78579E+06    -7.16740E+06             20.
            1456     10.0004E-03     129.195E-03         7.12927         1.02245        -8.07936    -875.372E-03    -74.7160E-03         1.02245     577.887E-03              0.              0.              0.              0.              0.              0.              0.     8.24058E+06     6.67974E+06    -6.81038E+06     3.26251E+06    -1.83230E+06     6.67974E+06    -7.06138E+06             20.
            1457     11.0003E-03     129.195E-03         7.97711     793.040E-03        -8.95428        -2.16359         1.18643     793.040E-03    -833.162E-03              0.              0.              0.              0.              0.              0.              0.     8.33548E+06     6.55787E+06    -5.78215E+06     2.68445E+06    -131.115E+03     6.55787E+06    -6.88932E+06             20.
            1458     12.0004E-03     129.194E-03         5.72914     513.401E-03        -6.54617        -2.97654         2.15950     513.401E-03        -6.63023              0.              0.              0.              0.              0.              0.              0.     8.28955E+06     6.41030E+06    -4.66716E+06     2.14463E+06     1.47777E+06     6.41030E+06    -6.44824E+06             20.
            1459     13.0003E-03     129.192E-03         3.26403     290.796E-03        -3.77427        -1.72807         1.21783     290.796E-03        -1.97538              0.              0.              0.              0.              0.              0.              0.     8.16679E+06     6.23933E+06    -3.55707E+06     1.65355E+06     2.95617E+06     6.23933E+06    -5.79639E+06             20.
            1460     14.0004E-03     129.189E-03         4.10631     162.513E-03        -4.29857        -1.26486         1.07260     162.513E-03        -7.92625              0.              0.              0.              0.              0.              0.              0.     7.97393E+06     6.00508E+06    -2.54893E+06     1.22819E+06     4.19680E+06     6.00508E+06    -5.02027E+06         20.0106
            1461     15.0003E-03     129.189E-03         3.46841     112.166E-03        -3.47290     127.739E-03    -132.229E-03     112.166E-03        -3.45582              0.              0.              0.              0.              0.              0.              0.     7.30730E+06     5.35451E+06    -1.62718E+06     828.069E+03     4.85205E+06     5.35451E+06    -3.95590E+06         20.1500
            1462     16.0003E-03     129.190E-03         3.39977     149.196E-03        -3.42137         1.31718        -1.33878     149.196E-03        -3.40543              0.              0.              0.              0.              0.              0.              0.     5.67790E+06     3.70525E+06    -1.00253E+06     483.822E+03     4.19154E+06     3.70525E+06    -2.76951E+06         20.6145
            1463     17.0003E-03     129.190E-03         2.61978     197.062E-03        -3.12313     586.628E-03        -1.08998     197.062E-03        -3.22118              0.              0.              0.              0.              0.              0.              0.     2.83635E+06     968.973E+03    -821.196E+03     260.614E+03     1.84633E+06     877.180E+03    -1.42700E+06         21.4828
            1464     1.00009E-03     130.223E-03         14.6546         1.12113        -14.8469        -6.85923        -3.11832         10.9064        -6.91876              0.              0.              0.              0.              0.              0.              0.     7.03138E+06     5.63680E+06    -10.6580E+06     6.24904E+06    -10.5541E+06     6.31522E+06    -1.26365E+06             20.
            1465     2.00005E-03     130.213E-03         9.63754         1.36174        -10.4905        -1.34837     495.459E-03         1.36174         2.50629              0.              0.              0.              0.              0.              0.              0.     6.57256E+06     6.06743E+06    -10.2208E+06     6.06964E+06    -9.93365E+06     6.28316E+06    -2.09144E+06             20.
            1466     3.00014E-03     130.207E-03         8.36250     968.700E-03        -8.79901         2.59397        -3.03047     968.700E-03         1.34736              0.              0.              0.              0.              0.              0.              0.     6.62349E+06     6.17802E+06    -9.99425E+06     5.93405E+06    -9.38083E+06     6.25404E+06    -3.08736E+06             20.
            1467     4.00012E-03     130.202E-03         5.96321         1.17410        -6.89622         2.56181        -3.71116         1.39043         4.79405              0.              0.              0.              0.              0.              0.              0.     6.90890E+06     6.25232E+06    -9.89676E+06     5.87301E+06    -8.86088E+06     6.25232E+06    -4.01066E+06             20.
            1468     5.00021E-03     130.199E-03         6.36925         1.16400        -7.13220    -217.714E-03    -761.565E-03         1.38034     63.2690E-03              0.              0.              0.              0.              0.              0.              0.     7.01207E+06     6.25666E+06    -9.43071E+06     5.50743E+06    -7.92607E+06     6.25666E+06    -4.71412E+06             20.
            1469     6.00019E-03     130.194E-03         8.58018         1.32735        -9.40269         2.59405        -3.41656         1.32735         1.18663              0.              0.              0.              0.              0.              0.              0.     7.17062E+06     6.23902E+06    -8.90101E+06     5.13198E+06    -6.86238E+06     6.23902E+06    -5.31866E+06             20.
            1470     7.00026E-03     130.194E-03         7.76413         1.39114        -8.67963     808.093E-03        -1.72359         1.39114     27.9617E-03              0.              0.              0.              0.              0.              0.              0.     7.30095E+06     6.19888E+06    -8.25949E+06     4.64601E+06    -5.60454E+06     6.19888E+06    -5.81819E+06             20.
            1471     8.00024E-03     130.194E-03         6.14235         1.25555        -7.11292    -245.097E-03    -725.471E-03         1.25555        -2.71413              0.              0.              0.              0.              0.              0.              0.     7.27025E+06     6.13326E+06    -7.38050E+06     4.05226E+06    -4.16251E+06     6.13326E+06    -6.03814E+06             20.
            1472     9.00029E-03     130.194E-03         6.94106         1.07615        -8.04057    -463.135E-03    -636.376E-03         1.07615    -389.354E-03              0.              0.              0.              0.              0.              0.              0.     7.39893E+06     6.04266E+06    -6.61977E+06     3.52816E+06    -2.74900E+06     6.04266E+06    -6.24288E+06             20.
            1473     10.0003E-03     130.194E-03         7.62622     806.188E-03        -8.71530        -2.88342         1.79433     806.188E-03        -5.78706              0.              0.              0.              0.              0.              0.              0.     7.32979E+06     5.93830E+06    -5.63706E+06     3.02199E+06    -1.32926E+06     5.93830E+06    -6.09060E+06             20.
            1474     11.0003E-03     130.194E-03         7.38372     482.687E-03        -8.29846        -2.57935         1.66461     482.687E-03        -2.90495              0.              0.              0.              0.              0.              0.              0.     7.30502E+06     5.81093E+06    -4.72518E+06     2.46658E+06     113.272E+03     5.81093E+06    -5.87084E+06             20.
            1475     12.0003E-03     130.192E-03         6.79810     205.404E-03        -7.30387        -3.11808         2.61231     205.404E-03        -6.30048              0.              0.              0.              0.              0.              0.              0.     7.28909E+06     5.66328E+06    -3.86003E+06     1.99191E+06     1.43715E+06     5.66328E+06    -5.54797E+06             20.
            1476     13.0003E-03     130.192E-03         5.22263     38.1054E-03        -5.38588    -724.479E-03     561.224E-03     38.1054E-03        -6.04791              0.              0.              0.              0.              0.              0.              0.     7.07366E+06     5.48697E+06    -2.89399E+06     1.53413E+06     2.64553E+06     5.48697E+06    -4.92696E+06             20.
            1477     14.0003E-03     130.189E-03         4.58270     5.79171E-03        -4.57985    -89.0094E-03     91.8557E-03     5.79171E-03        -5.02909              0.              0.              0.              0.              0.              0.              0.     6.92713E+06     5.25285E+06    -2.13662E+06     1.09849E+06     3.69202E+06     5.25285E+06    -4.31570E+06         20.0106
            1478     15.0003E-03     130.187E-03         4.23473    -1.78592E-03        -4.17568    -131.452E-03     190.508E-03    -1.78592E-03        -5.96158              0.              0.              0.              0.              0.              0.              0.     6.16144E+06     4.60000E+06    -1.32690E+06     780.789E+03     4.05374E+06     4.60000E+06    -3.35389E+06         20.1500
            1479     16.0003E-03     130.188E-03         3.58099     43.2041E-03        -3.87123         1.62249        -1.91274     43.2041E-03        -3.49465              0.              0.              0.              0.              0.              0.              0.     4.54534E+06     2.95536E+06    -907.634E+03     468.601E+03     3.16911E+06     2.95536E+06    -2.34793E+06         20.6145
            1480     17.0003E-03     130.189E-03         2.15155     102.318E-03        -2.96315     436.216E-03        -1.24782     102.318E-03        -1.92332              0.              0.              0.              0.              0.              0.              0.     1.90925E+06     291.780E+03    -1.21816E+06     189.108E+03     671.535E+03     122.231E+03    -1.20685E+06         21.4828
            1481     999.995E-06     131.223E-03         15.0517     818.029E-03        -15.1802        -8.81683         3.16046         6.34597         4.28339              0.              0.              0.              0.              0.              0.              0.     6.39535E+06     5.10304E+06    -8.88196E+06     5.52425E+06    -8.77869E+06     5.87088E+06    -1.20651E+06         20.0000
            1482     2.00010E-03     131.214E-03         9.79873    -511.454E-03        -7.64427         2.07918     80.0616E-03    -516.236E-03    -218.522E-03              0.              0.              0.              0.              0.              0.              0.     5.82132E+06     5.54062E+06    -8.36001E+06     5.42006E+06    -8.09846E+06     5.68033E+06    -1.82103E+06             20.
            1483     3.00007E-03     131.208E-03         6.82670     481.850E-03        -6.85083         2.56554        -2.58967     481.850E-03         4.02217              0.              0.              0.              0.              0.              0.              0.     5.96464E+06     5.63446E+06    -8.29316E+06     5.40035E+06    -7.72886E+06     5.63446E+06    -2.74887E+06             20.
            1484     4.00016E-03     131.203E-03         6.69024     807.747E-03        -6.93358     637.777E-03    -881.119E-03     807.747E-03         7.22211              0.              0.              0.              0.              0.              0.              0.     6.10294E+06     5.57496E+06    -8.00326E+06     5.16864E+06    -7.11109E+06     5.61709E+06    -3.40676E+06             20.
            1485     5.00013E-03     131.197E-03         8.02794         1.08207        -8.69325         4.03969        -4.70500         1.08207         2.35481              0.              0.              0.              0.              0.              0.              0.     6.30762E+06     5.54697E+06    -7.73367E+06     4.89191E+06    -6.36009E+06     5.58910E+06    -4.13405E+06             20.
            1486     6.00021E-03     131.194E-03         6.81263         1.38775        -7.95564         1.51248        -2.65549         1.38775         1.09196              0.              0.              0.              0.              0.              0.              0.     6.40867E+06     5.55800E+06    -7.31892E+06     4.61803E+06    -5.52828E+06     5.55800E+06    -4.61343E+06             20.
            1487     7.00018E-03     131.193E-03         6.27356         1.25861        -7.38221    -695.734E-03    -412.914E-03         1.25861         3.95370              0.              0.              0.              0.              0.              0.              0.     6.42012E+06     5.50970E+06    -6.69569E+06     4.09248E+06    -4.36805E+06     5.50970E+06    -4.97089E+06             20.
            1488     8.00024E-03     131.193E-03         6.60397         1.00371        -7.74808    -840.396E-03    -303.708E-03         1.00371        -3.13466              0.              0.              0.              0.              0.              0.              0.     6.49324E+06     5.44077E+06    -6.07221E+06     3.68698E+06    -3.26596E+06     5.44077E+06    -5.22860E+06             20.
            1489     9.00022E-03     131.195E-03         7.20482     727.634E-03        -8.33162        -2.16404         1.03724     727.634E-03         2.11441              0.              0.              0.              0.              0.              0.              0.     6.48627E+06     5.35660E+06    -5.34559E+06     3.24359E+06    -2.10292E+06     5.35660E+06    -5.24898E+06             20.
            1490     10.0003E-03     131.194E-03         8.50585     389.488E-03        -9.47667        -3.16012         2.18930     389.488E-03        -3.62376              0.              0.              0.              0.              0.              0.              0.     6.45739E+06     5.25331E+06    -4.58809E+06     2.74672E+06    -877.425E+03     5.25331E+06    -5.20685E+06             20.
            1491     11.0002E-03     131.194E-03         8.50448     142.459E-03        -9.12836        -1.39048     766.592E-03     142.459E-03        -1.45293              0.              0.              0.              0.              0.              0.              0.     6.37149E+06     5.13055E+06    -3.80129E+06     2.33627E+06     233.930E+03     5.13055E+06    -4.95064E+06             20.
            1492     12.0003E-03     131.192E-03         8.43729     9.67857E-03        -8.84919        -1.50996         1.09806     9.67857E-03    -670.606E-03              0.              0.              0.              0.              0.              0.              0.     6.29514E+06     4.98114E+06    -3.08062E+06     1.78151E+06     1.43301E+06     4.98114E+06    -4.65017E+06             20.
            1493     13.0002E-03     131.189E-03         6.66088    -85.6194E-03        -6.71109    -919.722E-03     869.516E-03    -85.6194E-03        -6.95312              0.              0.              0.              0.              0.              0.              0.     6.10960E+06     4.80573E+06    -2.31858E+06     1.37450E+06     2.41651E+06     4.80573E+06    -4.15789E+06             20.
            1494     14.0003E-03     131.189E-03         4.00238    -80.4513E-03        -4.05301     962.280E-03        -1.01290    -80.4513E-03    -838.264E-03              0.              0.              0.              0.              0.              0.              0.     5.87073E+06     4.57085E+06    -1.65310E+06     988.822E+03     3.22880E+06     4.57085E+06    -3.55591E+06         20.0106
            1495     15.0002E-03     131.188E-03         3.97240    -33.6198E-03        -4.21975     254.544E-03    -501.892E-03    -33.6198E-03        -6.46321              0.              0.              0.              0.              0.              0.              0.     5.20559E+06     3.92249E+06    -1.10023E+06     645.759E+03     3.45960E+06     3.92249E+06    -2.80750E+06         20.1500
            1496     16.0003E-03     131.188E-03         3.19234    -1.25970E-03        -3.75982     728.817E-03        -1.29630    -1.25970E-03        -2.23620              0.              0.              0.              0.              0.              0.              0.     3.52246E+06     2.27784E+06    -785.298E+03     439.418E+03     2.29774E+06     2.27784E+06    -1.92901E+06         20.6145
            1497     17.0002E-03     131.188E-03         1.96411     43.1046E-03        -2.90769     778.588E-03        -1.72216     43.1046E-03    -125.509E-03              0.              0.              0.              0.              0.              0.              0.     1.27717E+06    -472.306E+03    -1.55217E+06     178.933E+03    -376.173E+03    -550.063E+03    -980.394E+03         21.4828
            1498     1.00007E-03     132.225E-03         21.6014        -2.13692        -18.3863         3.74357         1.99333        -4.65870         15.5353              0.              0.              0.              0.              0.              0.              0.     5.45619E+06     4.71738E+06    -7.20273E+06     4.69595E+06    -7.11751E+06     5.39239E+06    -849.270E+03         20.0000
            1499     2.00003E-03     132.213E-03         11.6834     177.047E-03        -10.1347         2.50605    -952.572E-03     172.265E-03        -2.96189              0.              0.              0.              0.              0.              0.              0.     5.33048E+06     5.05137E+06    -6.95570E+06     5.04944E+06    -6.72155E+06     5.09826E+06    -1.62241E+06             20.
            1500     3.00011E-03     132.207E-03         9.27478     533.377E-03        -9.07016    -750.039E-03     954.651E-03     533.377E-03         9.09587              0.              0.              0.              0.              0.              0.              0.     5.42051E+06     5.01007E+06    -6.83378E+06     4.84457E+06    -6.32364E+06     5.07587E+06    -2.39234E+06             20.
            1501     4.00009E-03     132.204E-03         8.05516     701.846E-03        -8.19246         3.76482        -3.90212     701.846E-03         2.38228              0.              0.              0.              0.              0.              0.              0.     5.45415E+06     4.93681E+06    -6.45369E+06     4.52931E+06    -5.63678E+06     5.04475E+06    -2.97985E+06             20.
            1502     5.00016E-03     132.198E-03         7.64537         1.29273        -8.62150         3.39166        -4.36779         1.29273         6.12384              0.              0.              0.              0.              0.              0.              0.     5.61396E+06     4.94968E+06    -6.27553E+06     4.34645E+06    -5.05016E+06     4.99181E+06    -3.57854E+06             20.
            1503     6.00014E-03     132.195E-03         5.16078         1.32948        -6.71785    -738.123E-03    -818.948E-03         1.32948         2.78746              0.              0.              0.              0.              0.              0.              0.     5.61146E+06     4.94011E+06    -5.85298E+06     4.00623E+06    -4.24776E+06     4.94011E+06    -3.96817E+06             20.
            1504     7.00020E-03     132.193E-03         5.04385         1.13177        -6.38913     774.005E-03        -2.11928         1.13177         2.24603              0.              0.              0.              0.              0.              0.              0.     5.67552E+06     4.88702E+06    -5.37869E+06     3.70116E+06    -3.40434E+06     4.88702E+06    -4.22056E+06             20.
            1505     8.00017E-03     132.192E-03         6.81666     875.499E-03        -8.29252        -2.81642         1.34056     875.499E-03         1.88754              0.              0.              0.              0.              0.              0.              0.     5.78395E+06     4.82240E+06    -4.93670E+06     3.36883E+06    -2.52158E+06     4.82240E+06    -4.46759E+06             20.
            1506     9.00022E-03     132.192E-03         6.90393     460.787E-03        -8.05905        -2.85065         1.69554     460.787E-03         1.61240              0.              0.              0.              0.              0.              0.              0.     5.66154E+06     4.73990E+06    -4.24979E+06     2.93954E+06    -1.52779E+06     4.73990E+06    -4.41425E+06             20.
            1507     10.0002E-03     132.193E-03         5.73926     232.320E-03        -6.58828    -659.923E-03    -189.104E-03     232.320E-03         1.90328              0.              0.              0.              0.              0.              0.              0.     5.68226E+06     4.63967E+06    -3.69149E+06     2.50634E+06    -515.572E+03     4.63967E+06    -4.42074E+06             20.
            1508     11.0002E-03     132.192E-03         5.81326     78.8373E-03        -6.52714        -2.32088         1.60700     78.8373E-03    -350.591E-03              0.              0.              0.              0.              0.              0.              0.     5.54635E+06     4.51892E+06    -3.01261E+06     2.11556E+06     418.182E+03     4.51892E+06    -4.18322E+06             20.
            1509     12.0002E-03     132.191E-03         6.58750    -2.49259E-03        -6.93380     661.493E-03        -1.00780    -2.49259E-03     423.509E-03              0.              0.              0.              0.              0.              0.              0.     5.41008E+06     4.37335E+06    -2.38862E+06     1.65644E+06     1.36502E+06     4.37335E+06    -3.86240E+06             20.
            1510     13.0002E-03     132.191E-03         5.30033     3.40742E-03        -5.68073    -559.491E-03     179.087E-03     3.40742E-03        -4.02611              0.              0.              0.              0.              0.              0.              0.     5.29516E+06     4.20153E+06    -1.85150E+06     1.22609E+06     2.21757E+06     4.20153E+06    -3.50789E+06             20.
            1511     14.0002E-03     132.188E-03         3.86681    -32.5916E-03        -4.19302    -428.942E-03     102.734E-03    -32.5916E-03        -2.19641              0.              0.              0.              0.              0.              0.              0.     4.93877E+06     3.97324E+06    -1.19962E+06     883.920E+03     2.85522E+06     3.97324E+06    -2.87231E+06         20.0106
            1512     15.0002E-03     132.188E-03         3.02533     2.04505E-03        -3.59723         1.46973        -2.04162     2.04505E-03        -4.13762              0.              0.              0.              0.              0.              0.              0.     4.34263E+06     3.32887E+06    -854.637E+03     556.831E+03     2.93116E+06     3.32887E+06    -2.30179E+06         20.1500
            1513     16.0002E-03     132.186E-03         2.81858     22.8072E-03        -3.58751    -876.712E-03     107.781E-03     22.8072E-03        -2.62543              0.              0.              0.              0.              0.              0.              0.     2.73216E+06     1.69485E+06    -723.894E+03     376.823E+03     1.63145E+06     1.69485E+06    -1.54880E+06         20.6145
            1514     17.0002E-03     132.186E-03         2.85857    -6.72197E-03        -3.68475    -52.5952E-03    -773.590E-03    -6.72197E-03        -1.43705              0.              0.              0.              0.              0.              0.              0.     869.764E+03    -1.11972E+06    -1.90029E+06     208.699E+03    -1.23922E+06    -1.11972E+06    -763.096E+03         21.4828
            1515     999.990E-06     133.222E-03         22.1446        -5.29177        -15.5537         11.0385        -1.93064        -7.80877         4.37236              0.              0.              0.              0.              0.              0.              0.     4.81627E+06     4.40247E+06    -5.92638E+06     4.51801E+06    -5.83365E+06     4.60801E+06    -606.389E+03             20.
            1516     2.00008E-03     133.213E-03         9.28509         1.07934        -9.30258    -875.827E-03     858.332E-03         1.07934    -560.272E-03              0.              0.              0.              0.              0.              0.              0.     4.91239E+06     4.40641E+06    -5.69577E+06     4.49837E+06    -5.45432E+06     4.57897E+06    -1.54551E+06             20.
            1517     3.00005E-03     133.205E-03         7.06588     639.411E-03        -6.76115     914.571E-03    -609.841E-03     639.411E-03         4.69122              0.              0.              0.              0.              0.              0.              0.     4.87627E+06     4.34842E+06    -5.41114E+06     4.22800E+06    -4.95434E+06     4.53989E+06    -2.05873E+06             20.
            1518     4.00012E-03     133.202E-03         5.84756     952.134E-03        -6.52139         3.09059        -3.76443     952.134E-03    -488.162E-03              0.              0.              0.              0.              0.              0.              0.     4.99071E+06     4.43405E+06    -5.33959E+06     4.13489E+06    -4.54957E+06     4.49985E+06    -2.71188E+06             20.
            1519     5.00010E-03     133.200E-03         6.83422         1.17024        -7.93245     669.556E-03        -1.76778         1.17024         5.36107              0.              0.              0.              0.              0.              0.              0.     4.93377E+06     4.45400E+06    -5.01754E+06     3.83412E+06    -3.91788E+06     4.45400E+06    -3.10040E+06             20.
            1520     6.00015E-03     133.196E-03         6.64482         1.07847        -8.12624     556.382E-03        -2.03781         1.07847         1.53202              0.              0.              0.              0.              0.              0.              0.     4.94902E+06     4.39433E+06    -4.63370E+06     3.52479E+06    -3.20948E+06     4.39433E+06    -3.39491E+06             20.
            1521     7.00013E-03     133.192E-03         6.12100     911.058E-03        -7.71580    -835.728E-03    -759.071E-03     911.058E-03         1.11624              0.              0.              0.              0.              0.              0.              0.     5.09599E+06     4.34276E+06    -4.33010E+06     3.37921E+06    -2.61332E+06     4.34276E+06    -3.63004E+06             20.
            1522     8.00018E-03     133.192E-03         6.05142     611.864E-03        -7.42334        -2.18274     810.823E-03     611.864E-03         4.46631              0.              0.              0.              0.              0.              0.              0.     5.07910E+06     4.27557E+06    -3.88828E+06     2.99962E+06    -1.80880E+06     4.27557E+06    -3.76554E+06             20.
            1523     9.00016E-03     133.192E-03         4.52333     335.173E-03        -5.68837        -1.50195     336.909E-03     335.173E-03        -2.82246              0.              0.              0.              0.              0.              0.              0.     5.01594E+06     4.19144E+06    -3.38101E+06     2.65811E+06    -1.02319E+06     4.19144E+06    -3.77034E+06             20.
            1524     10.0002E-03     133.193E-03         3.53538     183.295E-03        -4.42151    -814.936E-03    -71.1932E-03     183.295E-03         2.77333              0.              0.              0.              0.              0.              0.              0.     4.97726E+06     4.09428E+06    -2.89906E+06     2.31328E+06    -235.079E+03     4.09428E+06    -3.70737E+06             20.
            1525     11.0002E-03     133.190E-03         4.33594     83.0393E-03        -4.96205        -1.02859     402.473E-03     83.0393E-03        -1.54732              0.              0.              0.              0.              0.              0.              0.     4.82636E+06     3.97492E+06    -2.33442E+06     1.84978E+06     642.161E+03     3.97492E+06    -3.51805E+06             20.
            1526     12.0002E-03     133.190E-03         4.82530     42.7726E-03        -5.37748     288.031E-03    -840.216E-03     42.7726E-03        -3.77657              0.              0.              0.              0.              0.              0.              0.     4.65112E+06     3.83591E+06    -1.78700E+06     1.55568E+06     1.30844E+06     3.83591E+06    -3.20819E+06             20.
            1527     13.0002E-03     133.189E-03         4.45512     64.9767E-03        -4.98230     377.717E-03    -904.890E-03     64.9767E-03        -1.36906              0.              0.              0.              0.              0.              0.              0.     4.52029E+06     3.67185E+06    -1.36528E+06     1.14608E+06     2.00893E+06     3.67185E+06    -2.87689E+06             20.
            1528     14.0002E-03     133.189E-03         5.03786     56.9448E-03        -5.71151    -502.325E-03    -171.330E-03     56.9448E-03        -7.00234              0.              0.              0.              0.              0.              0.              0.     4.19641E+06     3.45420E+06    -852.005E+03     790.991E+03     2.55342E+06     3.45420E+06    -2.35350E+06         20.0106
            1529     15.0002E-03     133.187E-03         3.45729     39.3357E-03        -4.11170     113.179E-03    -767.597E-03     39.3357E-03        -3.62349              0.              0.              0.              0.              0.              0.              0.     3.53953E+06     2.82389E+06    -544.310E+03     584.573E+03     2.41065E+06     2.82389E+06    -1.81549E+06         20.1500
            1530     16.0002E-03     133.186E-03         2.48148     17.6614E-03        -3.15148    -754.346E-03     84.3471E-03     17.6614E-03        -1.64428              0.              0.              0.              0.              0.              0.              0.     2.05488E+06     1.20284E+06    -634.743E+03     322.240E+03     1.09790E+06     1.20284E+06    -1.22001E+06         20.6145
            1531     17.0002E-03     133.185E-03         2.53192    -10.4625E-03        -3.00678    -149.381E-03    -325.479E-03    -10.4625E-03        -2.52340              0.              0.              0.              0.              0.              0.              0.     601.390E+03    -1.59249E+06    -2.27334E+06     181.063E+03    -1.85301E+06    -1.59249E+06    -603.084E+03         21.4828
            1532     1.00005E-03     134.222E-03         11.2612    -646.296E-03        -10.2216     799.314E-03     240.251E-03    -646.296E-03        -4.08505              0.              0.              0.              0.              0.              0.              0.     4.49795E+06     3.81500E+06    -4.81391E+06     4.09488E+06    -4.73111E+06     4.13527E+06    -636.051E+03             20.
            1533     2.00002E-03     134.210E-03         6.30740     163.399E-03        -5.97022     532.903E-03    -195.729E-03     163.399E-03         1.78386              0.              0.              0.              0.              0.              0.              0.     4.40983E+06     3.81027E+06    -4.42641E+06     3.92581E+06    -4.22968E+06     4.09756E+06    -1.25226E+06             20.
            1534     3.00008E-03     134.207E-03         4.57175     594.256E-03        -4.72208         2.59386        -2.74419     594.256E-03        -3.09868              0.              0.              0.              0.              0.              0.              0.     4.36378E+06     3.91872E+06    -4.31832E+06     3.84095E+06    -3.92532E+06     4.04855E+06    -1.75885E+06             20.
            1535     4.00007E-03     134.204E-03         2.96628     746.456E-03        -3.73726    -716.972E-03    -54.0147E-03     746.456E-03     393.854E-03              0.              0.              0.              0.              0.              0.              0.     4.37062E+06     4.00980E+06    -4.21481E+06     3.68095E+06    -3.52930E+06     4.01396E+06    -2.30199E+06             20.
            1536     5.00012E-03     134.198E-03         3.62420     554.927E-03        -4.24217     440.380E-03        -1.05835     554.927E-03         2.00331              0.              0.              0.              0.              0.              0.              0.     4.33700E+06     3.96788E+06    -3.90198E+06     3.41458E+06    -2.97956E+06     3.96788E+06    -2.59152E+06             20.
            1537     6.00010E-03     134.194E-03         4.72007     598.888E-03        -5.87142         1.23268        -2.38402     598.888E-03         1.28913              0.              0.              0.              0.              0.              0.              0.     4.50332E+06     3.91696E+06    -3.73772E+06     3.23354E+06    -2.46794E+06     3.91696E+06    -2.95568E+06             20.
            1538     7.00015E-03     134.191E-03         4.71129     494.235E-03        -5.95314        -1.73360     491.755E-03     494.235E-03         2.33571              0.              0.              0.              0.              0.              0.              0.     4.48621E+06     3.86135E+06    -3.37452E+06     2.96520E+06    -1.85351E+06     3.86135E+06    -3.10168E+06             20.
            1539     8.00013E-03     134.192E-03         3.86454     280.233E-03        -4.97939    -602.544E-03    -512.307E-03     280.233E-03         3.74831              0.              0.              0.              0.              0.              0.              0.     4.43515E+06     3.79491E+06    -2.96515E+06     2.69129E+06    -1.22130E+06     3.79491E+06    -3.12719E+06             20.
            1540     9.00017E-03     134.193E-03         3.45386     143.940E-03        -4.43678        -1.31221     329.294E-03     143.940E-03        -2.17206              0.              0.              0.              0.              0.              0.              0.     4.44703E+06     3.71059E+06    -2.64169E+06     2.41893E+06    -613.594E+03     3.71059E+06    -3.19531E+06             20.
            1541     10.0001E-03     134.193E-03         4.11359     1.70791E-03        -4.75440        -1.22562     584.820E-03     1.70791E-03    -706.247E-03              0.              0.              0.              0.              0.              0.              0.     4.26967E+06     3.61486E+06    -2.12984E+06     2.06832E+06     71.5148E+03     3.61486E+06    -3.02684E+06             20.
            1542     11.0002E-03     134.190E-03         4.24627    -3.23662E-03        -4.80129         1.23277        -1.78779    -3.23662E-03        -2.00049              0.              0.              0.              0.              0.              0.              0.     4.16123E+06     3.50169E+06    -1.70765E+06     1.72936E+06     724.218E+03     3.50169E+06    -2.88203E+06             20.
            1543     12.0001E-03     134.189E-03         3.44322     31.0360E-03        -3.95696    -499.060E-03    -14.6769E-03     31.0360E-03        -4.49791              0.              0.              0.              0.              0.              0.              0.     3.97825E+06     3.36867E+06    -1.26053E+06     1.41158E+06     1.30614E+06     3.36867E+06    -2.60843E+06             20.
            1544     13.0002E-03     134.187E-03         3.40931     28.4126E-03        -3.97915     533.350E-03        -1.10319     28.4126E-03        -3.20674              0.              0.              0.              0.              0.              0.              0.     3.71519E+06     3.21698E+06    -790.657E+03     1.08412E+06     1.84041E+06     3.21698E+06    -2.20646E+06             20.
            1545     14.0001E-03     134.188E-03         4.00855     73.0596E-03        -4.63133     779.487E-03        -1.40226     73.0596E-03        -6.43489              0.              0.              0.              0.              0.              0.              0.     3.51442E+06     3.01142E+06    -497.131E+03     786.306E+03     2.23098E+06     3.01142E+06    -1.85887E+06         20.0106
            1546     15.0002E-03     134.185E-03         3.17713     54.1318E-03        -3.76023        -1.27073     687.633E-03     54.1318E-03        -3.84273              0.              0.              0.              0.              0.              0.              0.     2.86847E+06     2.39725E+06    -276.589E+03     566.024E+03     2.02586E+06     2.39725E+06    -1.38245E+06         20.1500
            1547     16.0001E-03     134.186E-03         2.89553     30.3658E-03        -3.16791     681.932E-03    -954.304E-03     30.3658E-03    -763.749E-03              0.              0.              0.              0.              0.              0.              0.     1.53832E+06     796.035E+03    -573.911E+03     343.816E+03     620.591E+03     796.035E+03    -902.090E+03         20.6145
            1548     17.0002E-03     134.187E-03         2.97047     47.0435E-03        -2.93435    -80.3316E-03     116.445E-03     47.0435E-03        -1.19315              0.              0.              0.              0.              0.              0.              0.     454.436E+03    -1.97967E+06    -2.62387E+06     161.587E+03    -2.33102E+06    -1.97967E+06    -475.139E+03         21.4828
            1549     999.992E-06     135.222E-03         6.71958         2.45844        -9.39805        -5.35367         1.84294         3.29070    -862.987E-03              0.              0.              0.              0.              0.              0.              0.     4.09783E+06     3.39023E+06    -3.83438E+06     3.61572E+06    -3.79148E+06     3.82944E+06    -536.239E+03         20.0000
            1550     2.00006E-03     135.213E-03         6.07457    -543.874E-03        -6.07212         1.43373        -1.43128    -543.874E-03        -1.13025              0.              0.              0.              0.              0.              0.              0.     3.93728E+06     3.52390E+06    -3.51254E+06     3.60298E+06    -3.37364E+06     3.71930E+06    -943.240E+03             20.
            1551     3.00004E-03     135.208E-03         4.92727     73.4742E-03        -5.26413     800.459E-03        -1.13732     73.4742E-03        -3.21706              0.              0.              0.              0.              0.              0.              0.     3.83109E+06     3.63834E+06    -3.39989E+06     3.48933E+06    -3.09608E+06     3.67629E+06    -1.41865E+06             20.
            1552     4.00009E-03     135.205E-03         2.50703     134.095E-03        -2.81539    -367.280E-03     58.9119E-03     134.095E-03         4.04144              0.              0.              0.              0.              0.              0.              0.     3.76887E+06     3.60854E+06    -3.18192E+06     3.21181E+06    -2.63540E+06     3.61908E+06    -1.83655E+06             20.
            1553     5.00007E-03     135.199E-03         2.16382     96.0898E-03        -2.63337     330.866E-03    -800.420E-03     96.0898E-03    -434.891E-03              0.              0.              0.              0.              0.              0.              0.     3.85759E+06     3.55885E+06    -3.00499E+06     3.07621E+06    -2.23000E+06     3.56523E+06    -2.16494E+06             20.
            1554     6.00011E-03     135.194E-03         4.84281     108.838E-03        -5.33553    -36.4504E-03    -456.276E-03     108.838E-03         5.71378              0.              0.              0.              0.              0.              0.              0.     3.95802E+06     3.50543E+06    -2.86304E+06     2.88791E+06    -1.79292E+06     3.50543E+06    -2.46042E+06             20.
            1555     7.00010E-03     135.189E-03         5.20484     51.9054E-03        -5.96648    -589.507E-03    -172.131E-03     51.9054E-03         3.70531              0.              0.              0.              0.              0.              0.              0.     3.94169E+06     3.44892E+06    -2.55750E+06     2.64979E+06    -1.26560E+06     3.44892E+06    -2.59056E+06             20.
            1556     8.00014E-03     135.193E-03         4.17802    -1.43246E-03        -4.91506    -122.143E-03    -614.895E-03    -1.43246E-03         1.75899              0.              0.              0.              0.              0.              0.              0.     3.90898E+06     3.38084E+06    -2.25109E+06     2.45832E+06    -800.443E+03     3.38084E+06    -2.60451E+06             20.
            1557     9.00012E-03     135.192E-03         4.41528    -78.6027E-03        -5.05469        -1.32899     689.580E-03    -78.6027E-03         2.31432              0.              0.              0.              0.              0.              0.              0.     3.81734E+06     3.30067E+06    -1.89871E+06     2.16899E+06    -250.354E+03     3.30067E+06    -2.58090E+06             20.
            1558     10.0001E-03     135.193E-03         3.29205    -163.628E-03        -3.73802    -476.035E-03     30.0561E-03    -163.628E-03        -2.88141              0.              0.              0.              0.              0.              0.              0.     3.65095E+06     3.20565E+06    -1.48603E+06     1.88721E+06     277.713E+03     3.20565E+06    -2.43411E+06             20.
            1559     11.0001E-03     135.189E-03         2.73705    -127.087E-03        -3.05080         1.01490        -1.32864    -127.087E-03        -2.19885              0.              0.              0.              0.              0.              0.              0.     3.51485E+06     3.09940E+06    -1.12446E+06     1.63511E+06     755.278E+03     3.09940E+06    -2.26875E+06             20.
            1560     12.0002E-03     135.188E-03         2.95837    -46.3368E-03        -3.32659     638.248E-03        -1.00647    -46.3368E-03        -2.98525              0.              0.              0.              0.              0.              0.              0.     3.31214E+06     2.97826E+06    -728.047E+03     1.29519E+06     1.28890E+06     2.97826E+06    -2.00497E+06             20.
            1561     13.0001E-03     135.187E-03         4.26087     16.5769E-03        -4.63344     907.043E-03        -1.27961     16.5769E-03        -5.39045              0.              0.              0.              0.              0.              0.              0.     3.07521E+06     2.83447E+06    -363.137E+03     1.02427E+06     1.68780E+06     2.83447E+06    -1.67585E+06             20.
            1562     14.0001E-03     135.187E-03         4.03329     69.1118E-03        -4.46231     580.552E-03        -1.00957     69.1118E-03        -2.67039              0.              0.              0.              0.              0.              0.              0.     2.88113E+06     2.64518E+06    -133.659E+03     782.214E+03     1.96526E+06     2.64518E+06    -1.36620E+06         20.0106
            1563     15.0001E-03     135.186E-03         4.25525     73.5155E-03        -4.50265    -343.379E-03     95.9771E-03     73.5155E-03        -3.61435              0.              0.              0.              0.              0.              0.              0.     2.33148E+06     2.04518E+06    -61.4474E+03     517.686E+03     1.75235E+06     2.04518E+06    -1.01142E+06         20.1500
            1564     16.0001E-03     135.187E-03         4.78744     62.4681E-03        -4.69644     152.562E-03    -61.5611E-03     62.4681E-03        -3.42956              0.              0.              0.              0.              0.              0.              0.     1.19647E+06     461.942E+03    -588.153E+03     387.180E+03     221.135E+03     461.942E+03    -654.519E+03         20.6145
            1565     17.0001E-03     135.186E-03         3.81269     48.2333E-03        -3.27522    -529.007E-03         1.06648     48.2333E-03     638.469E-03              0.              0.              0.              0.              0.              0.              0.     302.180E+03    -2.28496E+06    -2.82532E+06     197.456E+03    -2.72060E+06    -2.28496E+06    -345.399E+03         21.4828
            1566     1.00004E-03     136.221E-03         7.40667         3.51003        -11.2643        -6.00245     486.446E-03         5.16845        -7.27590              0.              0.              0.              0.              0.              0.              0.     3.79167E+06     3.13195E+06    -3.08646E+06     3.40819E+06    -3.05511E+06     3.48408E+06    -429.408E+03         20.0000
            1567     2.00001E-03     136.214E-03         5.29282    -365.199E-03        -6.35690    -104.623E-03    -959.452E-03    -365.199E-03         1.39614              0.              0.              0.              0.              0.              0.              0.     3.58728E+06     3.32314E+06    -2.86458E+06     3.34520E+06    -2.73082E+06     3.43146E+06    -830.152E+03             20.
            1568     3.00007E-03     136.209E-03         6.42440    -361.190E-03        -6.71772    -722.465E-03     429.147E-03    -361.190E-03    -951.179E-03              0.              0.              0.              0.              0.              0.              0.     3.47029E+06     3.28787E+06    -2.62751E+06     3.12977E+06    -2.37677E+06     3.37765E+06    -1.19781E+06             20.
            1569     4.00005E-03     136.207E-03         6.28734    -177.815E-03        -6.47046         1.76927        -1.95239    -177.815E-03         4.31057              0.              0.              0.              0.              0.              0.              0.     3.39789E+06     3.23759E+06    -2.42017E+06     2.88625E+06    -1.97091E+06     3.29996E+06    -1.50479E+06             20.
            1570     5.00009E-03     136.198E-03         5.72470    -21.5417E-03        -6.25816    -889.567E-03     356.103E-03    -21.5417E-03         3.60192              0.              0.              0.              0.              0.              0.              0.     3.45663E+06     3.21967E+06    -2.33488E+06     2.74514E+06    -1.62976E+06     3.22605E+06    -1.88509E+06             20.
            1571     6.00008E-03     136.194E-03         6.76275    -189.514E-03        -6.85081        -1.16585         1.07779    -189.514E-03         5.29105              0.              0.              0.              0.              0.              0.              0.     3.46004E+06     3.16467E+06    -2.11453E+06     2.57463E+06    -1.22911E+06     3.16467E+06    -2.02345E+06             20.
            1572     7.00011E-03     136.191E-03         6.21262    -250.346E-03        -6.49274     29.1562E-03    -309.269E-03    -250.346E-03         4.59411              0.              0.              0.              0.              0.              0.              0.     3.49953E+06     3.09337E+06    -1.95203E+06     2.38439E+06    -836.882E+03     3.09337E+06    -2.18834E+06             20.
            1573     8.00009E-03     136.191E-03         4.96394    -260.583E-03        -5.29108    -746.208E-03     419.076E-03    -260.583E-03         2.58122              0.              0.              0.              0.              0.              0.              0.     3.45303E+06     3.02836E+06    -1.68215E+06     2.23405E+06    -463.170E+03     3.02836E+06    -2.17506E+06             20.
            1574     9.00012E-03     136.192E-03         5.21067    -239.058E-03        -5.50646     695.282E-03    -991.071E-03    -239.058E-03         2.44402              0.              0.              0.              0.              0.              0.              0.     3.29992E+06     2.95028E+06    -1.33425E+06     1.97448E+06    -8.81295E+03     2.95028E+06    -2.08279E+06             20.
            1575     10.0001E-03     136.192E-03         3.57742    -173.286E-03        -3.92391     105.344E-03    -451.832E-03    -173.286E-03        -1.34034              0.              0.              0.              0.              0.              0.              0.     3.17343E+06     2.86034E+06    -1.02837E+06     1.75195E+06     393.110E+03     2.86034E+06    -1.98347E+06             20.
            1576     11.0001E-03     136.190E-03         3.04133    -163.237E-03        -3.18664    -245.498E-03     100.188E-03    -163.237E-03    -983.143E-03              0.              0.              0.              0.              0.              0.              0.     2.98386E+06     2.76048E+06    -677.658E+03     1.49422E+06     811.983E+03     2.76048E+06    -1.78588E+06             20.
            1577     12.0001E-03     136.186E-03         3.34552    -78.2840E-03        -3.45041         2.05196        -2.15685    -78.2840E-03        -2.41569              0.              0.              0.              0.              0.              0.              0.     2.79052E+06     2.62440E+06    -340.772E+03     1.19306E+06     1.23759E+06     2.64349E+06    -1.54285E+06             20.
            1578     13.0001E-03     136.187E-03         3.87358     57.0925E-03        -4.05291         1.26922        -1.44855     57.0925E-03        -3.71849              0.              0.              0.              0.              0.              0.              0.     2.62841E+06     2.49415E+06    -90.8861E+03     957.235E+03     1.56119E+06     2.51324E+06    -1.30480E+06             20.
            1579     14.0001E-03     136.187E-03         3.50465     95.9351E-03        -3.58641    -121.958E-03     40.2001E-03     95.9351E-03        -2.06260              0.              0.              0.              0.              0.              0.              0.     2.44549E+06     2.29565E+06     93.3952E+03     725.315E+03     1.77582E+06     2.33341E+06    -1.00536E+06         20.0106
            1580     15.0001E-03     136.185E-03         4.25256     80.8400E-03        -4.17085    -139.515E-03     221.227E-03     80.8400E-03        -3.27275              0.              0.              0.              0.              0.              0.              0.     1.91365E+06     1.71357E+06     122.957E+03     538.947E+03     1.45991E+06     1.75132E+06    -733.585E+03         20.1500
            1581     16.0001E-03     136.185E-03         4.80277     30.6969E-03        -4.40250        -1.33969         1.73996     30.6969E-03        -4.21723              0.              0.              0.              0.              0.              0.              0.     961.999E+03     190.256E+03    -634.750E+03     406.687E+03    -79.4376E+03     190.256E+03    -483.591E+03         20.6145
            1582     17.0001E-03     136.186E-03         3.05771    -20.8450E-03        -2.21584    -314.882E-03         1.15675    -20.8450E-03     505.584E-03              0.              0.              0.              0.              0.              0.              0.     242.707E+03    -2.53475E+06    -3.04588E+06     208.730E+03    -3.01190E+06    -2.53475E+06    -203.416E+03         21.4828
            1583     999.993E-06     137.223E-03         11.7150         1.09445        -13.7188        -7.61980        -1.72966         8.44015        -6.49435              0.              0.              0.              0.              0.              0.              0.     3.53406E+06     2.88885E+06    -2.47472E+06     3.17198E+06    -2.42477E+06     3.20098E+06    -515.811E+03             20.
            1584     2.00005E-03     137.213E-03         7.41187     129.101E-03        -8.50144    -850.853E-03    -238.716E-03     129.101E-03         2.76621              0.              0.              0.              0.              0.              0.              0.     3.33288E+06     2.95144E+06    -2.18671E+06     3.03714E+06    -2.09110E+06     3.15157E+06    -652.279E+03             20.
            1585     3.00003E-03     137.210E-03         7.26914    -202.829E-03        -7.92990    -715.424E-03     54.6684E-03    -202.829E-03     940.521E-03              0.              0.              0.              0.              0.              0.              0.     3.24483E+06     2.90142E+06    -1.99122E+06     2.82477E+06    -1.75274E+06     3.08300E+06    -1.04750E+06             20.
            1586     4.00007E-03     137.206E-03         7.43916    -244.216E-03        -7.64352     99.4178E-03    -303.772E-03    -244.216E-03         1.60536              0.              0.              0.              0.              0.              0.              0.     3.17094E+06     2.91914E+06    -1.91552E+06     2.71280E+06    -1.54207E+06     3.00383E+06    -1.30404E+06             20.
            1587     5.00006E-03     137.200E-03         6.36362    -256.370E-03        -6.65958    -840.168E-03     544.212E-03    -256.370E-03         6.35057              0.              0.              0.              0.              0.              0.              0.     3.10899E+06     2.90509E+06    -1.76319E+06     2.45333E+06    -1.13623E+06     2.93378E+06    -1.59068E+06             20.
            1588     6.00009E-03     137.193E-03         4.94006    -395.802E-03        -4.89886        -1.39370         1.43490    -395.802E-03         2.24278              0.              0.              0.              0.              0.              0.              0.     3.09631E+06     2.86104E+06    -1.60476E+06     2.31240E+06    -820.845E+03     2.86104E+06    -1.75034E+06             20.
            1589     7.00007E-03     137.191E-03         4.62209    -483.320E-03        -4.43401    -549.915E-03     737.999E-03    -483.320E-03         5.91641              0.              0.              0.              0.              0.              0.              0.     3.14065E+06     2.79162E+06    -1.48796E+06     2.18785E+06    -535.167E+03     2.79162E+06    -1.85318E+06             20.
            1590     8.00010E-03     137.192E-03         4.48763    -473.731E-03        -4.44737    -244.404E-03     284.667E-03    -473.731E-03         1.79186              0.              0.              0.              0.              0.              0.              0.     3.01931E+06     2.71944E+06    -1.21073E+06     1.96648E+06    -157.902E+03     2.71944E+06    -1.82599E+06             20.
            1591     9.00009E-03     137.192E-03         4.94514    -363.087E-03        -4.91736         1.37095        -1.34317    -363.087E-03     576.882E-03              0.              0.              0.              0.              0.              0.              0.     2.92833E+06     2.64594E+06    -960.464E+03     1.83501E+06     132.859E+03     2.64594E+06    -1.73724E+06             20.
            1592     10.0001E-03     137.193E-03         4.91613    -186.510E-03        -5.04986         1.41890        -1.55263    -186.510E-03    -500.055E-03              0.              0.              0.              0.              0.              0.              0.     2.79661E+06     2.54017E+06    -686.082E+03     1.59304E+06     497.467E+03     2.56019E+06    -1.63092E+06             20.
            1593     11.0001E-03     137.189E-03         3.84356    -69.1857E-03        -3.94556     749.864E-03    -851.863E-03    -69.1857E-03        -1.07998              0.              0.              0.              0.              0.              0.              0.     2.58326E+06     2.44065E+06    -369.298E+03     1.32319E+06     870.757E+03     2.46067E+06    -1.43683E+06             20.
            1594     12.0001E-03     137.188E-03         3.80007     13.2825E-03        -3.77617         1.10608        -1.08218     13.2825E-03        -2.69313              0.              0.              0.              0.              0.              0.              0.     2.43982E+06     2.27792E+06    -90.7728E+03     1.11858E+06     1.15740E+06     2.35099E+06    -1.21792E+06             20.
            1595     13.0001E-03     137.186E-03         4.56100     86.0027E-03        -4.49396     796.585E-03    -729.547E-03     86.0027E-03        -1.78501              0.              0.              0.              0.              0.              0.              0.     2.27313E+06     2.14893E+06     120.839E+03     873.624E+03     1.44125E+06     2.22803E+06    -984.834E+03             20.
            1596     14.0001E-03     137.185E-03         4.29558     102.857E-03        -4.08444    -190.356E-03     401.500E-03     102.857E-03        -2.73486              0.              0.              0.              0.              0.              0.              0.     2.10992E+06     1.96099E+06     276.143E+03     700.042E+03     1.58220E+06     2.06482E+06    -727.294E+03         20.0106
            1597     15.0001E-03     137.187E-03         4.50297     67.5942E-03        -4.16218    -676.296E-03         1.01708     67.5942E-03        -2.64176              0.              0.              0.              0.              0.              0.              0.     1.58560E+06     1.40112E+06     263.337E+03     586.202E+03     1.16493E+06     1.49891E+06    -507.715E+03         20.1500
            1598     16.0001E-03     137.184E-03         4.54580    -914.088E-06        -3.99806        -1.40052         1.94825    -914.088E-06        -1.19227              0.              0.              0.              0.              0.              0.              0.     773.374E+03    -36.7357E+03    -685.471E+03     420.610E+03    -332.707E+03    -36.7357E+03    -334.927E+03         20.6145
            1599     17.0001E-03     137.186E-03         3.75410    -57.9486E-03        -2.98236    -510.127E-03         1.28187    -57.9486E-03        -1.10874              0.              0.              0.              0.              0.              0.              0.     246.239E+03    -2.73383E+06    -3.25704E+06     240.678E+03    -3.25148E+06    -2.73383E+06    -117.466E+03         21.4828
            1600     1.00003E-03     138.222E-03         12.9160        -1.27266        -12.6063        -3.21879        -2.99102         5.24688         3.97699              0.              0.              0.              0.              0.              0.              0.     3.17732E+06     2.66130E+06    -1.95127E+06     2.74139E+06    -1.89997E+06     3.04593E+06    -429.766E+03             20.
            1601     2.00001E-03     138.214E-03         6.55012     625.058E-03        -7.28782        -1.12964     391.941E-03     625.058E-03        -2.38829              0.              0.              0.              0.              0.              0.              0.     3.09288E+06     2.60126E+06    -1.58213E+06     2.75877E+06    -1.52064E+06     2.87389E+06    -502.092E+03             20.
            1602     3.00005E-03     138.209E-03         5.99919     199.012E-03        -6.75555     281.041E-03        -1.03740     199.012E-03         4.46742              0.              0.              0.              0.              0.              0.              0.     3.00329E+06     2.63573E+06    -1.54330E+06     2.63673E+06    -1.34478E+06     2.80376E+06    -834.747E+03             20.
            1603     4.00004E-03     138.210E-03         6.34332    -187.524E-03        -6.65819        -3.39244         3.07757    -187.524E-03         2.52472              0.              0.              0.              0.              0.              0.              0.     2.85778E+06     2.67146E+06    -1.41896E+06     2.48285E+06    -1.11518E+06     2.74260E+06    -1.08799E+06             20.
            1604     5.00007E-03     138.198E-03         6.44241    -622.020E-03        -6.24309    -972.238E-03         1.17155    -622.020E-03         6.69619              0.              0.              0.              0.              0.              0.              0.     2.81369E+06     2.64381E+06    -1.33694E+06     2.30152E+06    -853.460E+03     2.67250E+06    -1.28512E+06             20.
            1605     6.00006E-03     138.196E-03         6.41351    -678.801E-03        -6.04648    -957.958E-03         1.32499    -678.801E-03         2.81059              0.              0.              0.              0.              0.              0.              0.     2.78680E+06     2.60646E+06    -1.21196E+06     2.11823E+06    -543.381E+03     2.60646E+06    -1.48598E+06             20.
            1606     7.00008E-03     138.193E-03         6.56385    -727.738E-03        -6.07974        -1.10258         1.58668    -727.738E-03         3.62587              0.              0.              0.              0.              0.              0.              0.     2.71676E+06     2.51091E+06    -1.01531E+06     1.93554E+06    -252.189E+03     2.52901E+06    -1.49105E+06             20.
            1607     8.00007E-03     138.193E-03         6.07540    -654.148E-03        -5.56240     947.444E-03    -434.444E-03    -654.148E-03         1.72030              0.              0.              0.              0.              0.              0.              0.     2.69431E+06     2.43658E+06    -871.912E+03     1.78773E+06     16.5668E+03     2.45468E+06    -1.53566E+06             20.
            1608     9.00010E-03     138.192E-03         4.71678    -492.234E-03        -4.38059     621.444E-03    -285.253E-03    -492.234E-03    -750.861E-03              0.              0.              0.              0.              0.              0.              0.     2.59558E+06     2.31063E+06    -609.678E+03     1.63725E+06     279.634E+03     2.37966E+06    -1.40791E+06             20.
            1609     10.0001E-03     138.192E-03         5.74073    -322.979E-03        -5.51315         1.82329        -1.59571    -322.979E-03        -2.17588              0.              0.              0.              0.              0.              0.              0.     2.43414E+06     2.20626E+06    -338.835E+03     1.42545E+06     580.818E+03     2.29530E+06    -1.26186E+06             20.
            1610     11.0001E-03     138.192E-03         5.25623    -101.992E-03        -5.12205         2.39320        -2.25901    -101.992E-03        -4.07400              0.              0.              0.              0.              0.              0.              0.     2.27049E+06     2.08341E+06    -83.6090E+03     1.20931E+06     861.735E+03     2.19925E+06    -1.09209E+06             20.
            1611     12.0001E-03     138.189E-03         5.12674     35.1003E-03        -5.01345     596.483E-03    -483.192E-03     35.1003E-03        -4.66750              0.              0.              0.              0.              0.              0.              0.     2.13264E+06     1.91154E+06     152.284E+03     1.01387E+06     1.09038E+06     2.09221E+06    -887.924E+03             20.
            1612     13.0001E-03     138.189E-03         5.80160     55.7214E-03        -5.48440    -20.4253E-03     337.623E-03     55.7214E-03        -2.45974              0.              0.              0.              0.              0.              0.              0.     1.98254E+06     1.77635E+06     346.552E+03     841.774E+03     1.28113E+06     1.98254E+06    -658.610E+03             20.
            1613     14.0001E-03     138.187E-03         5.96895     46.6921E-03        -5.54933    -126.034E-03     545.651E-03     46.6921E-03        -2.66788              0.              0.              0.              0.              0.              0.              0.     1.83177E+06     1.62485E+06     435.244E+03     698.446E+03     1.36165E+06     1.83177E+06    -477.722E+03         20.0106
            1614     15.0001E-03     138.187E-03         5.68062     23.6409E-03        -5.13856    -482.369E-03         1.02442     23.6409E-03        -3.39907              0.              0.              0.              0.              0.              0.              0.     1.31146E+06     1.13807E+06     376.707E+03      598.88E+03     938.843E+03     1.28852E+06    -305.619E+03         20.1500
            1615     16.0001E-03     138.188E-03         4.45901    -14.6372E-03        -3.89782    -698.238E-03         1.25943    -14.6372E-03    -791.291E-03              0.              0.              0.              0.              0.              0.              0.     619.894E+03    -290.648E+03    -669.336E+03     447.734E+03    -562.037E+03    -225.788E+03    -168.042E+03         20.6145
            1616     17.0001E-03     138.187E-03         4.09634    -72.4443E-03        -3.54873        -1.31032         1.85794    -72.4443E-03        -2.81288              0.              0.              0.              0.              0.              0.              0.     280.614E+03    -2.89500E+06    -3.45132E+06     274.296E+03    -3.44501E+06    -2.89500E+06    -91.2114E+03         21.4828
            1617     999.997E-06     139.224E-03         15.5637         2.74941        -18.0627         10.4178    -757.399E-03        -9.40989         3.73322              0.              0.              0.              0.              0.              0.              0.     2.82905E+06     2.44531E+06    -1.54068E+06     2.44426E+06    -1.48291E+06     2.77234E+06    -160.848E+03         20.0000
            1618     2.00003E-03     139.215E-03         8.22703     601.241E-03        -8.65706     529.927E-03    -959.955E-03     601.241E-03        -5.35206              0.              0.              0.              0.              0.              0.              0.     2.75598E+06     2.44866E+06    -1.18223E+06     2.52197E+06    -1.11124E+06     2.61167E+06    -501.185E+03             20.
            1619     3.00002E-03     139.214E-03         9.19037     322.046E-03        -9.52481        -1.25301     918.568E-03     322.046E-03         4.78031              0.              0.              0.              0.              0.              0.              0.     2.68821E+06     2.50240E+06    -1.19901E+06     2.49282E+06    -1.06204E+06     2.56081E+06    -654.885E+03             20.
            1620     4.00005E-03     139.206E-03         8.98946    -247.983E-03        -9.14770        -2.71015         2.55190    -247.983E-03         4.56287              0.              0.              0.              0.              0.              0.              0.     2.57643E+06     2.47137E+06    -1.06183E+06     2.27047E+06    -798.319E+03     2.51381E+06    -917.336E+03             20.
            1621     5.00004E-03     139.201E-03         9.35152    -778.722E-03        -8.71960        -3.00593         3.63785    -778.722E-03         3.72618              0.              0.              0.              0.              0.              0.              0.     2.54176E+06     2.45504E+06    -1.00544E+06     2.18332E+06    -646.992E+03     2.45504E+06    -1.05925E+06             20.
            1622     6.00007E-03     139.198E-03         8.15584    -870.672E-03        -7.53802        -1.67480         2.47462        -1.05267         5.15141              0.              0.              0.              0.              0.              0.              0.     2.50454E+06     2.38724E+06    -912.059E+03     1.95197E+06    -359.496E+03     2.38724E+06    -1.23355E+06             20.
            1623     7.00006E-03     139.194E-03         5.26029    -823.393E-03        -4.42468     366.121E-03     651.487E-03        -1.00539    -155.537E-03              0.              0.              0.              0.              0.              0.              0.     2.40672E+06     2.29389E+06    -710.555E+03     1.75340E+06    -75.3275E+03     2.31199E+06    -1.24452E+06             20.
            1624     8.00008E-03     139.193E-03         4.00988    -621.495E-03        -3.36044     903.555E-03    -75.1214E-03    -800.487E-03         2.65005              0.              0.              0.              0.              0.              0.              0.     2.36064E+06     2.20801E+06    -588.218E+03     1.61998E+06     129.467E+03     2.23098E+06    -1.23780E+06             20.
            1625     9.00007E-03     139.195E-03         3.19191    -436.489E-03        -2.64198     797.450E-03    -68.5350E-03    -615.481E-03    -947.724E-03              0.              0.              0.              0.              0.              0.              0.     2.25502E+06     2.06094E+06    -333.131E+03     1.43594E+06     393.815E+03     2.15307E+06    -1.12141E+06             20.
            1626     10.0001E-03     139.194E-03         4.01393    -452.753E-03        -3.42664         1.23196    -644.676E-03    -452.753E-03        -2.14554              0.              0.              0.              0.              0.              0.              0.     2.09871E+06     1.94018E+06    -81.1524E+03     1.28648E+06     603.363E+03     2.06789E+06    -952.017E+03             20.
            1627     11.0001E-03     139.192E-03         4.28675    -276.925E-03        -3.84100         1.73484        -1.28909    -276.925E-03        -3.93004              0.              0.              0.              0.              0.              0.              0.     2.00570E+06     1.73365E+06     157.593E+03     1.10491E+06     817.160E+03     1.97488E+06    -775.918E+03             20.
            1628     12.0001E-03     139.191E-03         4.41304    -120.516E-03        -3.97670         1.43053    -994.194E-03    -120.516E-03        -3.69314              0.              0.              0.              0.              0.              0.              0.     1.87496E+06     1.58959E+06     345.404E+03       910.8E+03     1.02419E+06     1.87496E+06    -605.059E+03             20.
            1629     13.0001E-03     139.188E-03         4.64834    -53.7937E-03        -4.18846    -7.96185E-03     467.837E-03    -53.7937E-03        -3.47386              0.              0.              0.              0.              0.              0.              0.     1.77102E+06     1.45025E+06     474.412E+03     787.405E+03     1.13726E+06     1.77102E+06    -430.255E+03             20.
            1630     14.0001E-03     139.187E-03         4.52065    -49.1160E-03        -3.87974     27.8023E-03     613.107E-03    -49.1160E-03        -2.47642              0.              0.              0.              0.              0.              0.              0.     1.63544E+06     1.32016E+06     538.482E+03     681.286E+03     1.17735E+06     1.63544E+06    -297.265E+03         20.0106
            1631     15.0001E-03     139.187E-03         4.25025    -65.4555E-03        -3.58166    -638.678E-03         1.30727    -65.4555E-03        -3.09926              0.              0.              0.              0.              0.              0.              0.     1.12529E+06     962.463E+03     350.670E+03     589.353E+03     742.635E+03     1.10643E+06    -188.192E+03         20.1500
            1632     16.0001E-03     139.188E-03         3.30154    -103.017E-03        -2.63477    -690.842E-03         1.35761    -103.017E-03        -3.05390              0.              0.              0.              0.              0.              0.              0.     558.910E+03    -447.540E+03    -778.416E+03     485.506E+03    -769.872E+03    -382.680E+03    -53.5836E+03         20.6145
            1633     17.0001E-03     139.188E-03         3.05034    -150.042E-03        -2.46584        -1.11803         1.70253    -150.042E-03        -2.88492              0.              0.              0.              0.              0.              0.              0.     274.647E+03    -3.03164E+06    -3.59003E+06     270.249E+03    -3.58564E+06    -3.03164E+06    -48.0356E+03         21.4828
            1634     1.00002E-03     140.224E-03         22.7333     598.941E-03        -22.2744         16.7971         2.55119        -18.2905        -8.98849              0.              0.              0.              0.              0.              0.              0.     2.66366E+06     2.10210E+06    -1.16075E+06     2.43572E+06    -1.12126E+06     2.29055E+06    -50.6144E+03             20.
            1635     2.00001E-03     140.215E-03         9.29414    -400.445E-03        -8.55346     987.704E-03    -247.021E-03    -400.445E-03     445.913E-03              0.              0.              0.              0.              0.              0.              0.     2.44861E+06     2.34615E+06    -948.666E+03     2.32843E+06    -852.928E+03     2.37059E+06    -476.559E+03             20.
            1636     3.00004E-03     140.213E-03         9.05704    -426.497E-03        -8.33786        -2.69808         3.41726    -426.497E-03    -444.892E-03              0.              0.              0.              0.              0.              0.              0.     2.40079E+06     2.31810E+06    -866.471E+03     2.26900E+06    -756.277E+03     2.33969E+06    -549.193E+03             20.
            1637     4.00003E-03     140.209E-03         8.74271    -876.257E-03        -7.88872        -1.47987         2.33386    -876.257E-03         3.95723              0.              0.              0.              0.              0.              0.              0.     2.43701E+06     2.30242E+06    -891.450E+03     2.18997E+06    -650.042E+03     2.30804E+06    -774.343E+03             20.
            1638     5.00006E-03     140.204E-03         7.80314        -1.11718        -6.64202        -2.80839         3.96950        -1.11718         1.67262              0.              0.              0.              0.              0.              0.              0.     2.37309E+06     2.21429E+06    -762.145E+03     1.99659E+06    -430.727E+03     2.25937E+06    -952.740E+03             20.
            1639     6.00004E-03     140.198E-03         5.87509        -1.06581        -4.69641    -802.675E-03         2.16335        -1.24781         4.59989              0.              0.              0.              0.              0.              0.              0.     2.29310E+06     2.14567E+06    -655.441E+03     1.81459E+06    -222.009E+03     2.19074E+06    -1.00596E+06             20.
            1640     7.00007E-03     140.196E-03         4.03069    -946.927E-03        -2.96095     16.3814E-03         1.23535        -1.12892         1.84506              0.              0.              0.              0.              0.              0.              0.     2.23822E+06     2.09596E+06    -581.667E+03     1.66261E+06    -29.1723E+03     2.11908E+06    -1.10566E+06             20.
            1641     8.00006E-03     140.195E-03         3.66619    -759.795E-03        -2.55094     795.993E-03     498.246E-03    -938.787E-03         1.32738              0.              0.              0.              0.              0.              0.              0.     2.06805E+06     2.01081E+06    -367.469E+03     1.45073E+06     220.319E+03     2.04034E+06    -1.01267E+06             20.
            1642     9.00008E-03     140.195E-03         3.31271    -490.520E-03        -2.58194         2.22637        -1.31661    -669.512E-03    -577.032E-03              0.              0.              0.              0.              0.              0.              0.     1.95557E+06     1.87670E+06    -162.857E+03     1.26605E+06     447.797E+03     1.95557E+06    -920.071E+03             20.
            1643     10.0001E-03     140.196E-03         3.24724    -412.622E-03        -2.50358         1.51160    -767.936E-03    -412.622E-03     532.774E-03              0.              0.              0.              0.              0.              0.              0.     1.86943E+06     1.69803E+06     54.4568E+03     1.13489E+06     617.599E+03     1.86943E+06    -763.639E+03             20.
            1644     11.0001E-03     140.193E-03         3.78651    -272.265E-03        -3.19275     706.347E-03    -112.579E-03    -272.265E-03    -741.124E-03              0.              0.              0.              0.              0.              0.              0.     1.78033E+06     1.49959E+06     272.830E+03     982.080E+03     790.340E+03     1.78033E+06    -596.939E+03             20.
            1645     12.0001E-03     140.191E-03         4.11261    -199.492E-03        -3.56825     482.919E-03     61.4432E-03    -199.492E-03     167.029E-03              0.              0.              0.              0.              0.              0.              0.     1.68368E+06     1.33799E+06     423.577E+03     827.393E+03     934.172E+03     1.68368E+06    -438.930E+03             20.
            1646     13.0001E-03     140.191E-03         4.69917    -143.377E-03        -4.02711     575.117E-03     96.9353E-03    -143.377E-03        -1.21384              0.              0.              0.              0.              0.              0.              0.     1.58779E+06     1.24287E+06     500.877E+03     694.788E+03     1.04895E+06     1.58779E+06    -317.501E+03             20.
            1647     14.0001E-03     140.189E-03         4.72396    -116.510E-03        -4.06443    -139.343E-03     798.874E-03    -116.510E-03        -1.35992              0.              0.              0.              0.              0.              0.              0.     1.46126E+06     1.11136E+06     559.859E+03     649.759E+03     1.02146E+06     1.46126E+06    -203.566E+03         20.0106
            1648     15.0001E-03     140.188E-03         4.76109    -141.012E-03        -3.96315    -852.180E-03         1.65012    -141.012E-03    -833.362E-03              0.              0.              0.              0.              0.              0.              0.     966.782E+03     778.664E+03     353.299E+03     583.165E+03     568.058E+03     947.521E+03    -116.323E+03         20.1500
            1649     16.0001E-03     140.189E-03         4.13146    -187.332E-03        -3.31823    -910.748E-03         1.72397    -187.332E-03        -2.36867              0.              0.              0.              0.              0.              0.              0.     507.873E+03    -525.422E+03    -961.827E+03     495.137E+03    -949.091E+03    -525.422E+03    -32.5915E+03         20.6145
            1650     17.0001E-03     140.191E-03         2.91127    -225.388E-03        -2.22038    -749.287E-03         1.44017    -225.388E-03    -70.6129E-03              0.              0.              0.              0.              0.              0.              0.     285.973E+03    -3.15161E+06    -3.73131E+06     284.910E+03    -3.73025E+06    -3.15161E+06    -2.23419E+03         21.4828
            1651     999.996E-06     141.225E-03         22.4149        -4.10429        -18.0926         12.6658         2.12452        -14.5723        -11.8512              0.              0.              0.              0.              0.              0.              0.     2.47995E+06     1.87939E+06    -873.711E+03     2.27083E+06    -824.488E+03     2.03928E+06    -216.404E+03             20.
            1652     2.00003E-03     141.216E-03         10.5499        -1.12851        -8.71793        -1.65212         3.48411        -1.12851         7.76643              0.              0.              0.              0.              0.              0.              0.     2.31063E+06     2.10596E+06    -737.185E+03     2.18783E+06    -673.481E+03     2.16505E+06    -295.319E+03             20.
            1653     3.00002E-03     141.213E-03         10.3855        -1.48971        -8.48203        -2.87928         4.78277        -1.48971         1.10524              0.              0.              0.              0.              0.              0.              0.     2.23386E+06     2.09426E+06    -629.451E+03     2.06295E+06    -514.794E+03     2.15052E+06    -504.958E+03             20.
            1654     4.00004E-03     141.209E-03         10.7787        -1.68274        -8.77574        -1.39507         3.39804        -1.68274         3.57521              0.              0.              0.              0.              0.              0.              0.     2.25225E+06     2.09273E+06    -647.346E+03     2.03506E+06    -458.037E+03     2.12061E+06    -640.460E+03             20.
            1655     5.00003E-03     141.204E-03         9.13222        -1.49127        -7.20357     46.6999E-03         1.88196        -1.49127         5.59331              0.              0.              0.              0.              0.              0.              0.     2.20783E+06     2.00777E+06    -565.273E+03     1.85986E+06    -284.629E+03     2.07510E+06    -807.375E+03             20.
            1656     6.00006E-03     141.201E-03         6.44319        -1.25512        -4.90360    -269.928E-03         1.80952        -1.25512         1.02239              0.              0.              0.              0.              0.              0.              0.     2.12274E+06     1.96075E+06     -497.22E+03     1.72350E+06    -150.762E+03     2.01352E+06    -870.278E+03             20.
            1657     7.00005E-03     141.199E-03         5.70913        -1.09722        -4.20339    -32.6183E-03         1.53836        -1.09722         4.08528              0.              0.              0.              0.              0.              0.              0.     2.00590E+06     1.91103E+06    -403.466E+03     1.51109E+06     60.5236E+03     1.94184E+06    -933.565E+03             20.
            1658     8.00007E-03     141.197E-03         4.32261    -910.196E-03        -3.03624     866.183E-03     420.186E-03    -910.196E-03     137.199E-03              0.              0.              0.              0.              0.              0.              0.     1.86611E+06     1.80095E+06    -221.817E+03     1.31015E+06     273.336E+03     1.86176E+06    -870.656E+03             20.
            1659     9.00006E-03     141.198E-03         3.67914    -633.621E-03        -2.68166         2.34212        -1.34464    -633.621E-03     234.114E-03              0.              0.              0.              0.              0.              0.              0.     1.77607E+06     1.66718E+06    -68.7260E+03     1.13778E+06     460.670E+03     1.77607E+06    -789.951E+03             20.
            1660     10.0001E-03     141.197E-03         3.61517    -336.737E-03        -2.91595         2.29111        -1.59189    -336.737E-03    -799.133E-03              0.              0.              0.              0.              0.              0.              0.     1.69062E+06     1.46613E+06     159.410E+03     961.262E+03     664.275E+03     1.69062E+06    -630.875E+03             20.
            1661     11.0001E-03     141.193E-03         3.34324    -160.198E-03        -2.84150     833.521E-03    -331.780E-03    -160.198E-03    -196.017E-03              0.              0.              0.              0.              0.              0.              0.     1.60002E+06     1.31247E+06     315.591E+03     853.604E+03     774.452E+03     1.60002E+06    -488.310E+03             20.
            1662     12.0001E-03     141.194E-03         3.35119    -117.271E-03        -2.80878    -169.100E-03     711.516E-03    -117.271E-03     582.613E-03              0.              0.              0.              0.              0.              0.              0.     1.50981E+06     1.15613E+06     454.952E+03     741.701E+03     869.376E+03     1.50981E+06    -332.274E+03             20.
            1663     13.0001E-03     141.191E-03         4.01714    -114.907E-03        -3.45175     5.66729E-03     559.721E-03    -114.907E-03     500.969E-03              0.              0.              0.              0.              0.              0.              0.     1.42182E+06     1.07782E+06     503.541E+03     660.019E+03     921.343E+03     1.42182E+06    -241.568E+03             20.
            1664     14.0001E-03     141.192E-03         3.79523    -123.038E-03        -3.10112    -478.630E-03         1.17274    -123.038E-03     413.019E-03              0.              0.              0.              0.              0.              0.              0.     1.30608E+06     1.00169E+06     503.703E+03     609.550E+03     895.840E+03     1.30608E+06    -140.120E+03         20.0106
            1665     15.0001E-03     141.191E-03         3.26935    -138.745E-03        -2.55383    -228.233E-03     943.756E-03    -138.745E-03     240.994E-03              0.              0.              0.              0.              0.              0.              0.     910.654E+03     625.718E+03     261.760E+03     574.139E+03     418.474E+03     805.519E+03    -54.5506E+03         20.1500
            1666     16.0001E-03     141.190E-03         3.03769    -151.673E-03        -2.25837    -471.056E-03         1.25038    -151.673E-03     353.021E-03              0.              0.              0.              0.              0.              0.              0.     505.295E+03    -654.725E+03    -1.11161E+06     486.633E+03    -1.09295E+06    -654.725E+03    -13.6010E+03         20.6145
            1667     17.0001E-03     141.192E-03         2.34452    -165.147E-03        -1.61768    -290.712E-03         1.01755    -165.147E-03         1.71554              0.              0.              0.              0.              0.              0.              0.     284.315E+03    -3.26272E+06    -3.84987E+06     281.960E+03    -3.84752E+06    -3.26272E+06     37.8831E+03         21.4828
            1668     1.00002E-03     142.224E-03         22.3450        -4.82071        -17.8193         12.2540     198.130E-03        -12.7472     937.874E-03              0.              0.              0.              0.              0.              0.              0.     2.19383E+06     1.85352E+06    -744.234E+03     1.87730E+06    -657.363E+03     2.08318E+06    -257.910E+03         20.0000
            1669     2.00001E-03     142.217E-03         10.9557        -1.01603        -9.32678        -4.59490         6.32087        -1.11310         5.05115              0.              0.              0.              0.              0.              0.              0.     2.16700E+06     1.90382E+06    -499.453E+03     2.02037E+06    -453.508E+03     2.00451E+06    -223.636E+03             20.
            1670     3.00003E-03     142.213E-03         10.6651        -1.83932        -8.32395        -1.65151         4.08971        -1.93638         5.07591              0.              0.              0.              0.              0.              0.              0.     2.09573E+06     1.92930E+06    -483.058E+03     1.90872E+06    -346.668E+03     1.97993E+06    -456.192E+03             20.
            1671     4.00002E-03     142.207E-03         11.6616        -1.88879        -9.25347        -1.88088         4.28897        -1.88879         3.89911              0.              0.              0.              0.              0.              0.              0.     2.04191E+06     1.92866E+06    -433.655E+03     1.85463E+06    -268.631E+03     1.95091E+06    -581.334E+03             20.
            1672     5.00005E-03     142.206E-03         9.76445        -1.68900        -7.46174     299.891E-03         2.00281        -1.68900         3.76299              0.              0.              0.              0.              0.              0.              0.     2.00740E+06     1.88346E+06    -424.617E+03     1.75443E+06    -193.902E+03     1.90571E+06    -653.813E+03             20.
            1673     6.00004E-03     142.200E-03         6.31315        -1.38568        -4.46350    -144.520E-03         1.99418        -1.38568     540.133E-03              0.              0.              0.              0.              0.              0.              0.     1.92791E+06     1.84451E+06    -374.540E+03     1.59029E+06    -44.6142E+03     1.85221E+06    -802.369E+03             20.
            1674     7.00006E-03     142.201E-03         5.09111        -1.13691        -3.54452     889.495E-03     657.096E-03        -1.13691     595.794E-03              0.              0.              0.              0.              0.              0.              0.     1.79022E+06     1.76678E+06    -234.086E+03     1.40838E+06     129.712E+03     1.78482E+06    -760.983E+03             20.
            1675     8.00005E-03     142.196E-03         3.07636    -776.281E-03        -1.95889         1.87408    -709.616E-03    -823.284E-03        -1.60042              0.              0.              0.              0.              0.              0.              0.     1.70509E+06     1.62575E+06    -108.730E+03     1.18400E+06     337.368E+03     1.70074E+06    -756.971E+03             20.
            1676     9.00006E-03     142.200E-03         2.37725    -529.689E-03        -1.61508     822.494E-03    -13.3241E-03    -576.691E-03        -1.11785              0.              0.              0.              0.              0.              0.              0.     1.61357E+06     1.45225E+06     65.1609E+03     1.01183E+06     505.576E+03     1.61357E+06    -642.679E+03             20.
            1677     10.0001E-03     142.199E-03         2.75283    -390.783E-03        -2.10910         1.76719        -1.12347    -390.783E-03        -2.41839              0.              0.              0.              0.              0.              0.              0.     1.52288E+06     1.29282E+06     214.921E+03     835.962E+03     671.777E+03     1.52288E+06    -526.414E+03             20.
            1678     11.0001E-03     142.196E-03         2.09363    -202.815E-03        -1.63319         1.55171        -1.09127    -202.815E-03    -659.907E-03              0.              0.              0.              0.              0.              0.              0.     1.43510E+06     1.15929E+06     345.954E+03     713.232E+03     792.011E+03     1.43510E+06    -395.950E+03             20.
            1679     12.0001E-03     142.196E-03         1.75124    -88.0855E-03        -1.38929     748.326E-03    -386.374E-03    -88.0855E-03        -1.43435              0.              0.              0.              0.              0.              0.              0.     1.35085E+06     1.02824E+06     458.324E+03     678.483E+03     808.086E+03     1.35085E+06    -257.983E+03             20.
            1680     13.0001E-03     142.197E-03         2.42926    -63.1356E-03        -1.99148    -319.628E-03     757.414E-03    -63.1356E-03     693.760E-03              0.              0.              0.              0.              0.              0.              0.     1.27077E+06     952.797E+03     491.242E+03     641.195E+03     802.844E+03     1.27077E+06    -187.046E+03             20.
            1681     14.0001E-03     142.195E-03         2.50247    -74.1982E-03        -2.05085    -104.639E-03     556.258E-03    -74.1982E-03     659.590E-03              0.              0.              0.              0.              0.              0.              0.     1.16701E+06     901.001E+03     466.227E+03     590.048E+03     777.179E+03     1.16701E+06    -106.473E+03         20.0106
            1682     15.0001E-03     142.192E-03         2.52311    -56.4912E-03        -1.99210     511.433E-03     19.5795E-03    -56.4912E-03     998.769E-03              0.              0.              0.              0.              0.              0.              0.     826.319E+03     546.706E+03     150.151E+03      554.07E+03     294.196E+03     674.911E+03    -44.4778E+03         20.1500
            1683     16.0001E-03     142.193E-03         2.23412    -33.8865E-03        -1.75997     83.7996E-03     390.357E-03    -33.8865E-03         1.85373              0.              0.              0.              0.              0.              0.              0.     471.440E+03    -771.893E+03    -1.20491E+06     464.722E+03    -1.19819E+06    -771.893E+03     6.02293E+03         20.6145
            1684     17.0001E-03     142.193E-03         1.57182    -17.0128E-03        -1.01037     426.048E-03     135.402E-03    -17.0128E-03     374.128E-03              0.              0.              0.              0.              0.              0.              0.     288.547E+03    -3.36884E+06    -3.97199E+06     286.445E+03    -3.96989E+06    -3.36884E+06     39.6785E+03         21.4828
            1685    1000.000E-06     143.228E-03         19.4173        -1.26211        -17.9457         10.4141         2.97446        -13.1791         9.50934              0.              0.              0.              0.              0.              0.              0.     1.98801E+06     1.78354E+06    -582.075E+03     1.80625E+06    -540.200E+03     1.92342E+06    -140.061E+03         20.0000
            1686     2.00002E-03     143.218E-03         10.1899        -1.66380        -8.04076        -3.33698         5.58323        -1.76086         2.51882              0.              0.              0.              0.              0.              0.              0.     1.90092E+06     1.73578E+06    -226.895E+03     1.72120E+06    -158.882E+03     1.84749E+06    -267.380E+03             20.
            1687     3.00001E-03     143.214E-03         8.64798        -1.93725        -6.20346        -1.33069         3.87227        -2.03431         2.83428              0.              0.              0.              0.              0.              0.              0.     1.95446E+06     1.81057E+06    -349.424E+03     1.82821E+06    -223.178E+03     1.81057E+06    -416.134E+03             20.
            1688     4.00004E-03     143.209E-03         8.56856        -1.90460        -6.18561        -1.80569         4.18864        -1.90460         4.18530              0.              0.              0.              0.              0.              0.              0.     1.90502E+06     1.77060E+06    -320.571E+03     1.71793E+06    -150.415E+03     1.78754E+06    -533.487E+03             20.
            1689     5.00003E-03     143.207E-03         7.37916        -1.81684        -4.94043        -1.06609         3.50483        -1.81684     669.473E-03              0.              0.              0.              0.              0.              0.              0.     1.85689E+06     1.73241E+06    -303.751E+03     1.62924E+06    -93.0431E+03     1.74935E+06    -588.237E+03             20.
            1690     6.00005E-03     143.204E-03         5.97002        -1.53817        -4.07238     901.016E-03     996.624E-03        -1.53817         3.27814              0.              0.              0.              0.              0.              0.              0.     1.77863E+06     1.65192E+06    -227.510E+03     1.45030E+06     55.6594E+03     1.69708E+06    -660.563E+03             20.
            1691     7.00004E-03     143.201E-03         4.55426        -1.16602        -3.06114         1.19610     297.006E-03        -1.16602        -1.62210              0.              0.              0.              0.              0.              0.              0.     1.64025E+06     1.56963E+06    -115.662E+03     1.25903E+06     210.054E+03     1.62514E+06    -659.523E+03             20.
            1692     8.00005E-03     143.198E-03         3.28968    -781.435E-03        -2.36904         1.87528    -907.638E-03    -828.437E-03    -853.665E-03              0.              0.              0.              0.              0.              0.              0.     1.56275E+06     1.41936E+06     17.2782E+03     1.09005E+06     360.661E+03     1.54868E+06    -600.813E+03             20.
            1693     9.00004E-03     143.200E-03         2.49330    -490.602E-03        -1.96800         1.65940        -1.08710    -537.605E-03    -993.255E-03              0.              0.              0.              0.              0.              0.              0.     1.46388E+06     1.24400E+06     195.082E+03     848.275E+03     590.812E+03     1.46388E+06    -497.517E+03             20.
            1694     10.0001E-03     143.201E-03         1.99525    -348.107E-03        -1.63227         1.00547    -642.494E-03    -348.107E-03     168.976E-03              0.              0.              0.              0.              0.              0.              0.     1.37292E+06     1.13456E+06     290.634E+03     717.852E+03     707.341E+03     1.37292E+06    -414.630E+03             20.
            1695     11.0000E-03     143.198E-03         2.30686    -206.608E-03        -2.12229         1.42166        -1.23709    -206.608E-03         2.24568              0.              0.              0.              0.              0.              0.              0.     1.28648E+06     1.03307E+06     374.439E+03     624.638E+03     782.871E+03     1.28648E+06    -312.980E+03             20.
            1696     12.0001E-03     143.198E-03         2.09357    -77.4346E-03        -1.97412         1.24780        -1.12835    -77.4346E-03         1.04876              0.              0.              0.              0.              0.              0.              0.     1.20716E+06     948.735E+03     432.200E+03     604.322E+03     776.612E+03     1.20716E+06    -229.041E+03             20.
            1697     13.0000E-03     143.197E-03         2.52916     14.1579E-03        -2.48109     963.679E-03    -915.605E-03     14.1579E-03         2.66503              0.              0.              0.              0.              0.              0.              0.     1.13597E+06     848.415E+03     493.773E+03     592.024E+03     750.165E+03     1.13597E+06    -133.531E+03             20.
            1698     14.0001E-03     143.195E-03         2.98457     72.7477E-03        -2.91935     700.848E-03    -635.624E-03     72.7477E-03         2.26600              0.              0.              0.              0.              0.              0.              0.     1.03612E+06     775.644E+03     472.103E+03     562.862E+03     684.886E+03     1.03612E+06    -110.604E+03         20.0106
            1699     15.0000E-03     143.192E-03         2.76480     101.990E-03        -2.69381     316.044E-03    -245.052E-03     101.990E-03         2.46300              0.              0.              0.              0.              0.              0.              0.     727.328E+03     441.139E+03     128.989E+03     533.267E+03     207.660E+03     556.529E+03    -58.5601E+03         20.1500
            1700     16.0001E-03     143.193E-03         2.34525     118.230E-03        -2.19466     410.188E-03    -259.604E-03     118.230E-03         2.47440              0.              0.              0.              0.              0.              0.              0.     441.464E+03    -885.023E+03    -1.29075E+06     440.843E+03    -1.29013E+06    -885.023E+03    -15.8278E+03         20.6145
            1701     17.0001E-03     143.195E-03         1.25244     120.196E-03        -1.12538    -128.354E-03     255.417E-03     120.196E-03     61.9298E-03              0.              0.              0.              0.              0.              0.              0.     296.009E+03    -3.47370E+06    -4.09310E+06     295.377E+03    -4.09247E+06    -3.47370E+06    -14.3706E+03         21.4828
            1702     1.00002E-03     144.225E-03         16.9198        -2.26458        -13.8624         2.80405         8.17597        -10.1873         10.6924              0.              0.              0.              0.              0.              0.              0.     1.78337E+06     1.56823E+06    -264.116E+03     1.65703E+06    -251.046E+03     1.68150E+06    -113.782E+03             20.
            1703     2.00001E-03     144.218E-03         11.6581        -2.57714        -8.33305     916.665E-03         2.60268        -2.77145         2.60565              0.              0.              0.              0.              0.              0.              0.     1.78944E+06     1.61062E+06    -125.239E+03     1.65248E+06    -49.9188E+03     1.67227E+06    -278.872E+03             20.
            1704     3.00002E-03     144.212E-03         10.4808        -2.01515        -8.24263        -3.02236         5.26049        -2.01515         4.73502              0.              0.              0.              0.              0.              0.              0.     1.81129E+06     1.61497E+06    -175.688E+03     1.67875E+06    -84.6608E+03     1.65649E+06    -378.404E+03             20.
            1705     4.00002E-03     144.210E-03         8.38139        -1.99653        -5.78051    -505.404E-03         3.10629        -1.99653         2.52840              0.              0.              0.              0.              0.              0.              0.     1.79033E+06     1.57967E+06    -187.511E+03     1.61154E+06    -67.1851E+03     1.63813E+06    -411.805E+03             20.
            1706     5.00004E-03     144.208E-03         6.62526        -1.64341        -4.78639     30.5363E-03         1.80834        -1.64341         3.28297              0.              0.              0.              0.              0.              0.              0.     1.73922E+06     1.53979E+06    -161.644E+03     1.48686E+06     23.9347E+03     1.60657E+06    -537.853E+03             20.
            1707     6.00003E-03     144.203E-03         6.16146        -1.31799        -4.57900     596.528E-03     985.935E-03        -1.31799         2.64434              0.              0.              0.              0.              0.              0.              0.     1.63703E+06     1.45728E+06    -81.2490E+03     1.33920E+06     121.586E+03     1.55228E+06    -503.865E+03             20.
            1708     7.00005E-03     144.202E-03         5.22066    -943.871E-03        -4.15988         2.07613        -1.01536    -943.871E-03         1.62996              0.              0.              0.              0.              0.              0.              0.     1.53134E+06     1.38999E+06    -5.25903E+03     1.13855E+06     289.637E+03     1.48788E+06    -545.467E+03             20.
            1709     8.00004E-03     144.199E-03         5.33087    -622.550E-03        -4.76793         1.07455    -511.610E-03    -622.550E-03     860.255E-03              0.              0.              0.              0.              0.              0.              0.     1.42471E+06     1.21863E+06     163.852E+03     943.766E+03     452.783E+03     1.41064E+06    -464.413E+03             20.
            1710     9.00005E-03     144.203E-03         5.30141    -361.248E-03        -5.03253         2.43203        -2.16315    -361.248E-03     874.311E-03              0.              0.              0.              0.              0.              0.              0.     1.33133E+06     1.10878E+06     285.262E+03     753.512E+03     640.528E+03     1.33133E+06    -389.353E+03             20.
            1711     10.0000E-03     144.200E-03         4.17939    -134.744E-03        -4.33151         1.29356        -1.44568    -134.744E-03         1.97416              0.              0.              0.              0.              0.              0.              0.     1.24228E+06     1.03232E+06     341.477E+03     604.599E+03     769.196E+03     1.24228E+06    -331.717E+03             20.
            1712     11.0000E-03     144.199E-03         3.77793    -19.4201E-03        -4.03516     952.788E-03        -1.21002    -19.4201E-03         1.71983              0.              0.              0.              0.              0.              0.              0.     1.15658E+06     943.752E+03     398.663E+03     556.954E+03     785.461E+03     1.15658E+06    -240.915E+03             20.
            1713     12.0000E-03     144.200E-03         2.55431     78.2315E-03        -2.95826         1.36370        -1.76765     78.2315E-03         4.10822              0.              0.              0.              0.              0.              0.              0.     1.08190E+06     912.956E+03     398.533E+03     518.142E+03     793.347E+03     1.08190E+06    -208.910E+03             20.
            1714     13.0000E-03     144.199E-03         2.01410     183.403E-03        -2.46863         1.53016        -1.98468     183.403E-03         2.33583              0.              0.              0.              0.              0.              0.              0.     1.01237E+06     791.166E+03     468.814E+03     530.174E+03     729.806E+03     1.01237E+06    -117.215E+03             20.
            1715     14.0000E-03     144.196E-03         2.53714     269.766E-03        -3.01768         1.24675        -1.72729     269.766E-03         3.33729              0.              0.              0.              0.              0.              0.              0.     921.091E+03     703.000E+03     470.114E+03     524.687E+03     648.427E+03     921.091E+03    -89.3314E+03         20.0106
            1716     15.0000E-03     144.196E-03         1.90435     292.257E-03        -2.31127    -72.4763E-03    -334.449E-03     292.257E-03         2.28943              0.              0.              0.              0.              0.              0.              0.     681.277E+03     363.103E+03     47.0589E+03     488.696E+03     159.935E+03     442.807E+03    -61.7416E+03         20.1500
            1717     16.0000E-03     144.195E-03         1.47042     270.430E-03        -1.70227    -37.9099E-03    -193.942E-03     270.430E-03         1.95979              0.              0.              0.              0.              0.              0.              0.     445.211E+03    -988.788E+03    -1.37600E+06     443.994E+03    -1.37479E+06    -988.788E+03    -37.8813E+03         20.6145
            1718     17.0001E-03     144.198E-03         1.07139     239.431E-03        -1.14961    -490.112E-03     411.900E-03     239.431E-03         1.00472              0.              0.              0.              0.              0.              0.              0.     267.387E+03    -3.58320E+06    -4.18904E+06     266.200E+03    -4.18785E+06    -3.58320E+06    -40.8250E+03         21.4828
            1719     999.994E-06     145.228E-03         14.7955        -2.83336        -10.5015         1.18159         8.19439        -7.91539         3.71659              0.              0.              0.              0.              0.              0.              0.     1.61952E+06     1.40588E+06    -58.8575E+03     1.49866E+06     10.3736E+03     1.45751E+06    -95.9829E+03             20.
            1720     2.00002E-03     145.218E-03         9.79634        -2.72748        -6.55471        -1.04342         4.47935        -2.92179         2.91881              0.              0.              0.              0.              0.              0.              0.     1.77309E+06     1.52458E+06    -160.382E+03     1.69673E+06    -84.0212E+03     1.52458E+06    -262.544E+03             20.
            1721     3.00001E-03     145.215E-03         9.94395        -2.25327        -7.19989        -1.05610         3.80017        -2.25327         4.48116              0.              0.              0.              0.              0.              0.              0.     1.64849E+06     1.50119E+06    -72.7104E+03     1.53066E+06     3.60337E+03     1.54271E+06    -263.086E+03             20.
            1722     4.00003E-03     145.212E-03         8.20979        -1.82287        -6.17935     20.4552E-03         2.00998        -1.82287        -1.15370              0.              0.              0.              0.              0.              0.              0.     1.61465E+06     1.47783E+06    -48.2366E+03     1.47125E+06     49.7382E+03     1.52326E+06    -358.560E+03             20.
            1723     5.00002E-03     145.210E-03         7.14485        -1.34373        -5.79652         1.15216     196.176E-03        -1.34373         3.62585              0.              0.              0.              0.              0.              0.              0.     1.56069E+06     1.40899E+06    -14.3123E+03     1.36722E+06     104.746E+03     1.48340E+06    -381.235E+03             20.
            1724     6.00004E-03     145.206E-03         5.24612    -884.116E-03        -4.34275         1.64721    -743.847E-03    -884.116E-03    -581.727E-03              0.              0.              0.              0.              0.              0.              0.     1.47426E+06     1.36967E+06     56.0926E+03     1.22342E+06     236.430E+03     1.44017E+06    -407.970E+03             20.
            1725     7.00003E-03     145.204E-03         4.52852    -518.405E-03        -4.05619         1.66005        -1.18772    -518.405E-03         2.28192              0.              0.              0.              0.              0.              0.              0.     1.40396E+06     1.23194E+06     138.844E+03     1.04004E+06     364.824E+03     1.36988E+06    -385.647E+03             20.
            1726     8.00004E-03     145.202E-03         4.97517    -250.093E-03        -4.78067         1.55793        -1.36344    -250.093E-03     353.246E-03              0.              0.              0.              0.              0.              0.              0.     1.31007E+06     1.10879E+06     270.477E+03     788.362E+03     605.452E+03     1.29552E+06    -351.438E+03             20.
            1727     9.00003E-03     145.203E-03         4.53944    -90.6384E-03        -4.67832     742.664E-03    -881.539E-03    -90.6384E-03    -922.309E-03              0.              0.              0.              0.              0.              0.              0.     1.22814E+06     1.01499E+06     355.400E+03     681.529E+03     703.404E+03     1.21359E+06    -287.151E+03             20.
            1728     10.0000E-03     145.202E-03         4.72828     19.2526E-03        -5.06242         1.28985        -1.62399     19.2526E-03         1.45455              0.              0.              0.              0.              0.              0.              0.     1.16232E+06     951.733E+03     371.103E+03     552.997E+03     802.806E+03     1.12935E+06    -241.474E+03             20.
            1729     11.0000E-03     145.201E-03         4.09712     127.296E-03        -4.74536         1.10724        -1.75548     127.296E-03        -1.26341              0.              0.              0.              0.              0.              0.              0.     1.08062E+06     921.148E+03     363.713E+03     479.532E+03     838.295E+03     1.04765E+06    -214.953E+03             20.
            1730     12.0000E-03     145.201E-03         3.03867     216.963E-03        -3.80113         1.29987        -2.06233     216.963E-03         1.92133              0.              0.              0.              0.              0.              0.              0.     977.668E+03     863.210E+03     403.959E+03     461.751E+03     809.931E+03     973.154E+03    -137.153E+03             20.
            1731     13.0000E-03     145.201E-03         2.42352     291.753E-03        -3.27367         1.06395        -1.91410     291.753E-03    -299.272E-03              0.              0.              0.              0.              0.              0.              0.     913.858E+03     812.166E+03     407.933E+03     457.287E+03     767.325E+03     909.344E+03    -121.640E+03             20.
            1732     14.0000E-03     145.199E-03         2.75976     344.890E-03        -3.58414         1.00152        -1.82590     344.890E-03         1.00104              0.              0.              0.              0.              0.              0.              0.     816.131E+03     658.149E+03     457.045E+03     483.825E+03     631.369E+03     816.131E+03    -54.5170E+03         20.0106
            1733     15.0000E-03     145.197E-03         2.59121     370.013E-03        -3.25974     419.821E-03        -1.08835     370.013E-03     876.261E-03              0.              0.              0.              0.              0.              0.              0.     604.327E+03     272.757E+03     61.6375E+03     464.002E+03     129.907E+03     344.813E+03    -57.2588E+03         20.1500
            1734     16.0000E-03     145.197E-03         1.71332     346.922E-03        -2.24245    -444.940E-03    -84.1891E-03     346.922E-03    -374.731E-03              0.              0.              0.              0.              0.              0.              0.     431.702E+03    -1.08651E+06    -1.43772E+06     428.227E+03    -1.43425E+06    -1.08651E+06    -39.2987E+03         20.6145
            1735     17.0001E-03     145.197E-03         1.30182     306.100E-03        -1.34434    -239.389E-03     196.865E-03     306.100E-03     720.124E-03              0.              0.              0.              0.              0.              0.              0.     270.420E+03    -3.67897E+06    -4.28347E+06     269.768E+03    -4.28282E+06    -3.67897E+06    -24.7421E+03         21.4828
            1736     1.00001E-03     146.228E-03         11.7311         3.71288        -14.0347        -4.45522         7.03938        -1.17484        -7.43101              0.              0.              0.              0.              0.              0.              0.     1.81329E+06     1.22289E+06    -202.249E+03     1.65180E+06    -134.028E+03     1.31615E+06    -126.684E+03         20.0000
            1737     2.00000E-03     146.218E-03         9.13180        -2.82670        -5.76509        -3.85830         7.45971        -3.06140         4.08239              0.              0.              0.              0.              0.              0.              0.     1.60548E+06     1.37681E+06    -8.77790E+03     1.45110E+06     49.8664E+03     1.47255E+06    -201.196E+03             20.
            1738     3.00002E-03     146.216E-03         7.42124        -2.14862        -4.70638         1.49019         1.65704        -2.58099        -1.53693              0.              0.              0.              0.              0.              0.              0.     1.52365E+06     1.45529E+06    -3.91168E+03     1.45692E+06     60.3429E+03     1.45776E+06    -231.808E+03             20.
            1739     4.00002E-03     146.214E-03         7.06832        -1.34872        -5.82428         1.30483     136.873E-03        -1.54638         1.95946              0.              0.              0.              0.              0.              0.              0.     1.48115E+06     1.39578E+06     20.8456E+03     1.36600E+06     103.121E+03     1.42865E+06    -316.603E+03             20.
            1740     5.00003E-03     146.211E-03         8.41232    -983.368E-03        -7.54979         1.09320    -230.674E-03    -983.368E-03    -142.802E-03              0.              0.              0.              0.              0.              0.              0.     1.39681E+06     1.31713E+06     149.660E+03     1.25353E+06     213.260E+03     1.39681E+06    -255.009E+03             20.
            1741     6.00003E-03     146.207E-03         8.35438    -505.776E-03        -7.99458         2.74722        -2.38742    -505.776E-03     950.969E-03              0.              0.              0.              0.              0.              0.              0.     1.35143E+06     1.23743E+06     213.102E+03     1.09818E+06     357.055E+03     1.34673E+06    -305.026E+03             20.
            1742     7.00004E-03     146.206E-03         8.10513    -145.589E-03        -8.00615         1.11125        -1.01228    -145.589E-03     291.659E-03              0.              0.              0.              0.              0.              0.              0.     1.28142E+06     1.04577E+06     376.740E+03     917.963E+03     509.249E+03     1.27671E+06    -233.224E+03             20.
            1743     8.00003E-03     146.205E-03         7.82288     36.2848E-03        -7.91926         1.51604        -1.61242     36.2848E-03    -375.257E-03              0.              0.              0.              0.              0.              0.              0.     1.21136E+06     943.410E+03     440.341E+03     750.919E+03     647.378E+03     1.19682E+06    -179.756E+03             20.
            1744     9.00004E-03     146.202E-03         6.29360     125.104E-03        -6.50528     64.7748E-03    -276.460E-03     125.104E-03     378.742E-03              0.              0.              0.              0.              0.              0.              0.     1.13847E+06     948.931E+03     445.000E+03     586.335E+03     822.142E+03     1.12392E+06    -160.004E+03             20.
            1745     10.0000E-03     146.201E-03         5.40165     146.814E-03        -5.85078     652.304E-03        -1.10144     146.814E-03    -529.012E-03              0.              0.              0.              0.              0.              0.              0.     1.07239E+06     901.981E+03     433.287E+03     516.607E+03     851.628E+03     1.03943E+06    -96.6121E+03             20.
            1746     11.0000E-03     146.201E-03         4.09191     214.192E-03        -4.75974         1.14333        -1.81115     214.192E-03         1.51748              0.              0.              0.              0.              0.              0.              0.     1.03210E+06     869.732E+03     376.622E+03     444.940E+03     872.893E+03     960.626E+03    -126.778E+03             20.
            1747     12.0000E-03     146.201E-03         3.07209     270.452E-03        -3.92084     608.248E-03        -1.45700     270.452E-03     156.616E-03              0.              0.              0.              0.              0.              0.              0.     934.175E+03     846.064E+03     383.092E+03     413.195E+03     858.986E+03     891.150E+03    -47.6033E+03             20.
            1748     13.0000E-03     146.201E-03         2.71167     301.533E-03        -3.65132     743.974E-03        -1.68363     301.533E-03         1.46267              0.              0.              0.              0.              0.              0.              0.     859.883E+03     804.137E+03     367.658E+03     398.730E+03     807.996E+03     824.952E+03    -51.8329E+03             20.
            1749     14.0000E-03     146.200E-03         2.04907     308.728E-03        -2.85310     93.2198E-03    -899.315E-03     310.794E-03    -166.917E-03              0.              0.              0.              0.              0.              0.              0.     765.902E+03     670.770E+03     394.566E+03     423.909E+03     673.281E+03     734.048E+03    -11.9078E+03         20.0106
            1750     15.0000E-03     146.200E-03         2.64022     317.143E-03        -3.38777     803.560E-03        -1.55318     319.209E-03         1.04900              0.              0.              0.              0.              0.              0.              0.     567.147E+03     217.852E+03     34.5084E+03     460.664E+03     96.9353E+03     261.908E+03    -14.4603E+03         20.1500
            1751     16.0000E-03     146.200E-03         2.42751     326.736E-03        -2.88871     50.4463E-03    -511.652E-03     326.736E-03    -475.469E-03              0.              0.              0.              0.              0.              0.              0.     411.969E+03    -1.16676E+06    -1.46540E+06     407.319E+03    -1.46075E+06    -1.16676E+06    -34.5674E+03         20.6145
            1752     17.0001E-03     146.199E-03         1.32891     295.318E-03        -1.61626    -478.301E-03     190.955E-03     295.318E-03    -384.796E-03              0.              0.              0.              0.              0.              0.              0.     253.751E+03    -3.76041E+06    -4.33441E+06     253.599E+03    -4.33425E+06    -3.76041E+06    -9.45847E+03         21.4828
            1753     1.00000E-03     147.226E-03         14.4634         3.95148        -17.4713        -14.3251         9.05696         6.21171        -6.21902              0.              0.              0.              0.              0.              0.              0.     1.77940E+06     1.24411E+06    -337.422E+03     1.58715E+06    -307.439E+03     1.40638E+06    -211.385E+03         20.0000
            1754     2.00002E-03     147.221E-03         9.33241        -3.22645        -5.36728        -1.07211         5.27194        -3.46115    -534.651E-03              0.              0.              0.              0.              0.              0.              0.     1.46147E+06     1.31438E+06     111.854E+03     1.28551E+06     141.344E+03     1.46085E+06    -133.328E+03             20.
            1755     3.00001E-03     147.218E-03         5.96214        -1.85624        -3.92055         1.16329         1.31065        -2.28860        -3.44275              0.              0.              0.              0.              0.              0.              0.     1.45847E+06     1.34544E+06     83.2983E+03     1.34828E+06     140.285E+03     1.39863E+06    -239.393E+03             20.
            1756     4.00003E-03     147.214E-03         6.75940        -1.10263        -5.63334         2.01309    -689.363E-03        -1.30029         1.64443              0.              0.              0.              0.              0.              0.              0.     1.42153E+06     1.28189E+06     115.222E+03     1.28867E+06     168.279E+03     1.36170E+06    -177.932E+03             20.
            1757     5.00002E-03     147.214E-03         6.65300    -582.398E-03        -6.39837         2.46300        -2.20837    -582.398E-03        -2.66096              0.              0.              0.              0.              0.              0.              0.     1.35066E+06     1.21773E+06     214.354E+03     1.13838E+06     320.681E+03     1.32369E+06    -227.588E+03             20.
            1758     6.00003E-03     147.211E-03         6.92515    -128.483E-03        -6.79321         1.67624        -1.54431    -128.483E-03         1.22508              0.              0.              0.              0.              0.              0.              0.     1.30175E+06     1.16757E+06     280.358E+03     1.01520E+06     459.692E+03     1.27478E+06    -141.667E+03             20.
            1759     7.00003E-03     147.209E-03         8.42996     150.221E-03        -8.67392         1.95765        -2.20162     150.221E-03     916.529E-03              0.              0.              0.              0.              0.              0.              0.     1.22018E+06     1.03988E+06     396.205E+03     847.809E+03     604.257E+03     1.20420E+06    -91.9392E+03             20.
            1760     8.00003E-03     147.207E-03         7.95642     309.964E-03        -8.16549     810.997E-03        -1.02007     309.964E-03     372.581E-03              0.              0.              0.              0.              0.              0.              0.     1.18258E+06     964.167E+03     426.102E+03     746.480E+03     694.000E+03     1.13237E+06    -30.2966E+03             20.
            1761     9.00003E-03     147.205E-03         7.08387     365.324E-03        -7.39098     808.011E-03        -1.11512     365.324E-03         2.31835              0.              0.              0.              0.              0.              0.              0.     1.10276E+06     971.447E+03     408.583E+03     560.876E+03     863.222E+03     1.05869E+06     25.6672E+03             20.
            1762     10.0000E-03     147.205E-03         6.37607     370.512E-03        -6.86260    -9.63050E-03    -476.895E-03     370.512E-03    -933.212E-03              0.              0.              0.              0.              0.              0.              0.     1.03227E+06     929.999E+03     406.955E+03     472.421E+03     917.106E+03     979.699E+03     5.51953E+03             20.
            1763     11.0000E-03     147.200E-03         4.64867     346.012E-03        -5.18219     232.542E-03    -766.068E-03     346.012E-03         2.00796              0.              0.              0.              0.              0.              0.              0.     1.00874E+06     856.464E+03     378.797E+03     421.595E+03     918.541E+03     903.864E+03     48.3706E+03             20.
            1764     12.0000E-03     147.202E-03         3.17523     340.842E-03        -3.91384     343.917E-03        -1.08252     340.842E-03     166.386E-03              0.              0.              0.              0.              0.              0.              0.     940.592E+03     831.594E+03     342.821E+03     365.258E+03     916.564E+03     833.186E+03     20.3964E+03             20.
            1765     13.0000E-03     147.200E-03         2.54394     327.552E-03        -3.24730    -20.6864E-03    -682.671E-03     327.552E-03         2.33018              0.              0.              0.              0.              0.              0.              0.     873.406E+03     767.841E+03     345.502E+03     375.559E+03     841.757E+03     769.433E+03     69.1895E+03             20.
            1766     14.0000E-03     147.200E-03         1.29280     301.578E-03        -2.00098     9.99093E-03    -720.236E-03     303.644E-03         1.21140              0.              0.              0.              0.              0.              0.              0.     763.201E+03     678.472E+03     338.663E+03     375.270E+03     726.593E+03     678.472E+03     49.7803E+03         20.0106
            1767     15.0000E-03     147.199E-03         1.83466     281.649E-03        -2.35538     1.20800E-03    -523.993E-03     283.715E-03         1.49503              0.              0.              0.              0.              0.              0.              0.     562.664E+03     203.631E+03    -13.5637E+03     420.654E+03     128.446E+03     203.631E+03     46.5299E+03         20.1500
            1768     16.0000E-03     147.199E-03         2.47039     272.416E-03        -2.88312     212.539E-03    -625.270E-03     272.416E-03         1.26600              0.              0.              0.              0.              0.              0.              0.     376.803E+03    -1.22631E+06    -1.44932E+06     371.731E+03    -1.44425E+06    -1.22631E+06     15.7539E+03         20.6145
            1769     17.0001E-03     147.200E-03         1.36740     270.869E-03        -1.64981     281.223E-03    -563.627E-03     270.869E-03    -663.160E-03              0.              0.              0.              0.              0.              0.              0.     214.899E+03    -3.82854E+06    -4.35165E+06     214.792E+03    -4.35154E+06    -3.82854E+06     2.33147E+03         21.4828
            1770     1.00001E-03     148.229E-03         13.5874         1.30455        -13.7892        -10.1128         7.65073         3.56479     755.516E-03              0.              0.              0.              0.              0.              0.              0.     1.58314E+06     1.29084E+06    -267.689E+03     1.43814E+06    -244.740E+03     1.41289E+06    -83.4718E+03             20.
            1771     2.00001E-03     148.222E-03         8.35191        -2.69761        -5.65031    -469.706E-03         3.17131        -2.69761        -7.68778              0.              0.              0.              0.              0.              0.              0.     1.50499E+06     1.33356E+06     26.8187E+03     1.38570E+06     42.3283E+03     1.43733E+06    -103.516E+03             20.
            1772     3.00002E-03     148.217E-03         5.98372        -1.77243        -3.84092     464.053E-03         1.67874        -1.77243        -1.55349              0.              0.              0.              0.              0.              0.              0.     1.47003E+06     1.19850E+06     148.226E+03     1.25107E+06     184.127E+03     1.38156E+06    -166.930E+03             20.
            1773     4.00001E-03     148.215E-03         6.93969        -1.04615        -5.96875         1.78866    -817.719E-03        -1.04615        -4.86244              0.              0.              0.              0.              0.              0.              0.     1.37058E+06     1.14498E+06     274.800E+03     1.15758E+06     304.619E+03     1.32816E+06    -78.6564E+03             20.
            1774     5.00003E-03     148.214E-03         7.14952    -366.563E-03        -6.79628         2.88911        -2.53587    -366.563E-03    -670.852E-03              0.              0.              0.              0.              0.              0.              0.     1.32286E+06     1.13647E+06     284.913E+03     1.08492E+06     384.420E+03     1.27491E+06    -81.7034E+03             20.
            1775     6.00002E-03     148.211E-03         6.87152     107.504E-03        -6.97310         1.89000        -1.99158     107.504E-03        -2.33859              0.              0.              0.              0.              0.              0.              0.     1.24397E+06     1.06137E+06     382.102E+03     921.313E+03     549.131E+03     1.21699E+06    -3.00241E+03             20.
            1776     7.00003E-03     148.212E-03         8.23763     404.875E-03        -8.53451         2.48897        -2.78585     404.875E-03     748.468E-03              0.              0.              0.              0.              0.              0.              0.     1.16718E+06     1.05896E+06     391.555E+03     808.820E+03     657.678E+03     1.15120E+06     39.2916E+03             20.
            1777     8.00002E-03     148.207E-03         7.23741     571.666E-03        -7.63255     861.427E-03        -1.25657     571.666E-03         1.63408              0.              0.              0.              0.              0.              0.              0.     1.13267E+06     1.04161E+06     366.785E+03     659.553E+03     799.050E+03     1.08246E+06     81.0675E+03             20.
            1778     9.00003E-03     148.207E-03         6.36139     595.830E-03        -6.75482     707.955E-03        -1.10138     595.830E-03    -564.433E-03              0.              0.              0.              0.              0.              0.              0.     1.05502E+06     994.242E+03     397.352E+03     588.703E+03     846.959E+03     1.01095E+06     124.960E+03             20.
            1779     10.0000E-03     148.205E-03         6.09701     556.658E-03        -6.47719    -347.895E-03    -32.2883E-03     556.658E-03     894.362E-03              0.              0.              0.              0.              0.              0.              0.     1.05338E+06     941.709E+03     354.716E+03     468.137E+03     939.889E+03     941.779E+03     92.9782E+03             20.
            1780     11.0000E-03     148.203E-03         4.80136     448.138E-03        -5.17342    -939.932E-03     567.872E-03     448.138E-03        -1.87675              0.              0.              0.              0.              0.              0.              0.     1.03743E+06     870.232E+03     329.021E+03     381.973E+03     984.482E+03     870.232E+03     138.320E+03             20.
            1781     12.0000E-03     148.203E-03         3.19124     365.017E-03        -3.51634    -113.736E-03    -211.365E-03     365.017E-03     637.463E-03              0.              0.              0.              0.              0.              0.              0.     976.137E+03     799.779E+03     329.347E+03     357.764E+03     947.720E+03     799.779E+03     99.4673E+03             20.
            1782     13.0000E-03     148.201E-03         2.41782     334.996E-03        -2.81647     72.2183E-03    -470.873E-03     334.996E-03    -204.419E-03              0.              0.              0.              0.              0.              0.              0.     927.462E+03     739.660E+03     320.445E+03     350.376E+03     897.532E+03     739.660E+03     122.371E+03             20.
            1783     14.0000E-03     148.201E-03         1.82043     327.275E-03        -2.18092     393.495E-03    -753.979E-03     327.275E-03         2.32664              0.              0.              0.              0.              0.              0.              0.     777.859E+03     648.078E+03     346.425E+03     378.196E+03     746.088E+03     648.078E+03     106.216E+03         20.0106
            1784     15.0000E-03     148.201E-03         1.54139     293.971E-03        -1.85369    -775.894E-03     463.600E-03     293.971E-03         1.79932              0.              0.              0.              0.              0.              0.              0.     533.551E+03     192.857E+03     24.4900E+03     360.838E+03     215.275E+03     174.785E+03     89.2290E+03         20.1500
            1785     16.0000E-03     148.201E-03         1.76998     255.203E-03        -1.96255     155.871E-03    -348.446E-03     255.203E-03         1.33004              0.              0.              0.              0.              0.              0.              0.     341.640E+03    -1.24652E+06    -1.43443E+06     329.333E+03    -1.40406E+06    -1.26459E+06     75.1124E+03         20.6145
            1786     17.0001E-03     148.200E-03         1.17612     263.810E-03        -1.30371     663.400E-03    -790.992E-03     263.810E-03    -51.2052E-03              0.              0.              0.              0.              0.              0.              0.     227.467E+03    -3.86374E+06    -4.36357E+06     227.063E+03    -4.36316E+06    -3.86374E+06     30.0694E+03         21.4829
            1787     1.00000E-03     149.230E-03         8.91442     626.313E-03        -9.06608        -3.03178         1.82192         1.68451        -2.85478              0.              0.              0.              0.              0.              0.              0.     1.60045E+06     1.28952E+06    -236.103E+03     1.52077E+06    -209.471E+03     1.34257E+06     79.0148E+03             20.
            1788     2.00001E-03     149.222E-03         6.30939    -876.153E-03        -5.61897        -1.60179         2.29221    -876.153E-03        -5.89201              0.              0.              0.              0.              0.              0.              0.     1.54426E+06     1.29417E+06    -13.8306E+03     1.39359E+06     3.89120E+03     1.42711E+06    -103.861E+03             20.
            1789     3.00001E-03     149.218E-03         5.74134    -916.264E-03        -4.49916    -26.6883E-03         1.26887    -916.264E-03        -1.79114              0.              0.              0.              0.              0.              0.              0.     1.45917E+06     1.17044E+06     188.583E+03     1.23485E+06     200.669E+03     1.38267E+06    -43.9876E+03             20.
            1790     4.00002E-03     149.217E-03         6.17674    -514.151E-03        -5.44641         1.53982    -809.496E-03    -514.151E-03        -4.53088              0.              0.              0.              0.              0.              0.              0.     1.34714E+06     1.10689E+06     316.187E+03     1.10615E+06     347.371E+03     1.31670E+06    -62.8500E+03             20.
            1791     5.00002E-03     149.214E-03         7.64803    -94.8361E-03        -7.39681         1.54321        -1.29199    -94.8361E-03     207.413E-03              0.              0.              0.              0.              0.              0.              0.     1.30118E+06     1.09012E+06     342.707E+03     1.00948E+06     469.335E+03     1.25519E+06     73.7727E+03             20.
            1792     6.00003E-03     149.212E-03         8.75897     271.399E-03        -8.68381         2.70439        -2.62922     271.399E-03        -1.65326              0.              0.              0.              0.              0.              0.              0.     1.20799E+06     971.602E+03     471.645E+03     852.832E+03     615.421E+03     1.18298E+06     99.9894E+03             20.
            1793     7.00002E-03     149.214E-03         8.69246     531.290E-03        -9.00498         1.32943        -1.64195     531.290E-03    -192.329E-03              0.              0.              0.              0.              0.              0.              0.     1.18772E+06     968.965E+03     443.576E+03     734.145E+03     749.155E+03     1.11697E+06     151.000E+03             20.
            1794     8.00003E-03     149.207E-03         8.27860     664.493E-03        -8.61743         1.87876        -2.21760     664.493E-03     503.667E-03              0.              0.              0.              0.              0.              0.              0.     1.11825E+06     964.120E+03     442.701E+03     616.537E+03     861.042E+03     1.04749E+06     193.377E+03             20.
            1795     9.00002E-03     149.208E-03         7.20988     703.779E-03        -7.56708     42.4151E-03    -399.616E-03     703.779E-03    -504.645E-03              0.              0.              0.              0.              0.              0.              0.     1.07305E+06     920.725E+03     446.818E+03     580.150E+03     880.487E+03     979.956E+03     169.780E+03             20.
            1796     10.0000E-03     149.204E-03         5.65855     607.361E-03        -5.93506    -586.482E-03     309.973E-03     607.361E-03     352.841E-03              0.              0.              0.              0.              0.              0.              0.     1.07433E+06     916.454E+03     361.449E+03     494.728E+03     940.977E+03     916.524E+03     216.802E+03             20.
            1797     11.0000E-03     149.202E-03         4.13680     497.176E-03        -4.20864    -613.835E-03     541.990E-03     497.176E-03        -1.79209              0.              0.              0.              0.              0.              0.              0.     1.04696E+06     852.211E+03     351.344E+03     407.243E+03     991.061E+03     852.211E+03     162.929E+03             20.
            1798     12.0000E-03     149.200E-03         2.90142     401.734E-03        -2.95241    -676.126E-03     625.133E-03     401.734E-03         1.33403              0.              0.              0.              0.              0.              0.              0.     1.04341E+06     788.936E+03     305.168E+03     373.385E+03     975.192E+03     788.936E+03     198.496E+03             20.
            1799     13.0000E-03     149.200E-03         2.18638     349.471E-03        -2.18568     159.045E-03    -158.352E-03     349.471E-03     769.730E-03              0.              0.              0.              0.              0.              0.              0.     972.098E+03     729.063E+03     311.969E+03     361.152E+03     922.915E+03     729.063E+03     161.227E+03             20.
            1800     14.0000E-03     149.202E-03         1.73498     320.640E-03        -1.74220    -281.704E-03     274.486E-03     320.640E-03         1.84366              0.              0.              0.              0.              0.              0.              0.     863.341E+03     644.215E+03     315.541E+03     380.699E+03     798.184E+03     644.215E+03     176.094E+03         20.0106
            1801     15.0000E-03     149.201E-03         1.65538     300.203E-03        -1.65412     331.675E-03    -330.408E-03     300.203E-03         1.96735              0.              0.              0.              0.              0.              0.              0.     588.963E+03     187.635E+03     16.7904E+03     363.813E+03     260.012E+03     169.563E+03     152.274E+03         20.1500
            1802     16.0000E-03     149.202E-03         2.02802     292.062E-03        -1.92962    -2.54630E-03     100.945E-03     292.062E-03         1.21138              0.              0.              0.              0.              0.              0.              0.     369.676E+03    -1.24645E+06    -1.40135E+06     350.461E+03    -1.36407E+06    -1.26452E+06     117.876E+03         20.6145
            1803     17.0000E-03     149.201E-03         1.42790     258.159E-03        -1.33250    -579.847E-03     675.239E-03     258.159E-03     812.659E-03              0.              0.              0.              0.              0.              0.              0.     231.461E+03    -3.86270E+06    -4.30863E+06     229.658E+03    -4.30682E+06    -3.86270E+06     62.2682E+03         21.4828
            1804     1.00001E-03     150.228E-03         7.52974         2.22498        -10.3715    -512.787E-03        -3.38717         3.28318        -9.58302              0.              0.              0.              0.              0.              0.              0.     1.57554E+06     1.37896E+06    -288.073E+03     1.51176E+06    -262.754E+03     1.41742E+06     49.5420E+03         20.0000
            1805     2.00001E-03     150.224E-03         5.32132     910.870E-03        -6.20649    -930.315E-03     45.1462E-03     910.870E-03        -1.60267              0.              0.              0.              0.              0.              0.              0.     1.49407E+06     1.30289E+06     46.7582E+03     1.34296E+06     56.8014E+03     1.44396E+06    -4.65511E+03             20.
            1806     3.00002E-03     150.221E-03         6.42048     358.911E-03        -6.58115    -160.910E-03     239.551E-06     358.911E-03        -7.20887              0.              0.              0.              0.              0.              0.              0.     1.39081E+06     1.24020E+06     190.094E+03     1.24526E+06     194.495E+03     1.38135E+06     40.4563E+03             20.
            1807     4.00002E-03     150.216E-03         5.29243     276.874E-03        -5.24776     338.575E-03    -293.909E-03     276.874E-03        -2.11055              0.              0.              0.              0.              0.              0.              0.     1.32713E+06     1.17142E+06     282.459E+03     1.09490E+06     368.434E+03     1.31767E+06     35.4076E+03             20.
            1808     5.00002E-03     150.214E-03         5.72400     381.821E-03        -5.58011         1.37013        -1.22623     381.821E-03        -2.95184              0.              0.              0.              0.              0.              0.              0.     1.26715E+06     1.05560E+06     399.739E+03     922.271E+03     558.070E+03     1.24214E+06     128.472E+03             20.
            1809     6.00002E-03     150.213E-03         6.81368     558.469E-03        -6.91887         1.50089        -1.60608     558.469E-03     797.787E-03              0.              0.              0.              0.              0.              0.              0.     1.22726E+06     1.01519E+06     422.991E+03     838.491E+03     658.581E+03     1.16836E+06     178.896E+03             20.
            1810     7.00003E-03     150.210E-03         6.34237     634.525E-03        -6.52046     603.683E-03    -781.774E-03     634.525E-03     519.262E-03              0.              0.              0.              0.              0.              0.              0.     1.20105E+06     979.800E+03     417.372E+03     690.036E+03     811.783E+03     1.09640E+06     249.607E+03             20.
            1811     8.00002E-03     150.209E-03         6.49384     646.666E-03        -6.72789     874.387E-03        -1.10844     646.666E-03    -197.197E-03              0.              0.              0.              0.              0.              0.              0.     1.16901E+06     947.121E+03     426.433E+03     659.218E+03     851.441E+03     1.03190E+06     273.997E+03             20.
            1812     9.00003E-03     150.208E-03         6.73484     626.263E-03        -6.96259    -1.72901E-03    -226.018E-03     626.263E-03     595.656E-03              0.              0.              0.              0.              0.              0.              0.     1.17193E+06     923.814E+03     358.843E+03     561.943E+03     926.310E+03     966.335E+03     290.593E+03             20.
            1813     10.0000E-03     150.207E-03         5.18601     555.588E-03        -5.24896    -163.110E-03     100.169E-03     555.588E-03        -2.58398              0.              0.              0.              0.              0.              0.              0.     1.13306E+06     907.456E+03     338.766E+03     524.404E+03     947.419E+03     907.456E+03     308.792E+03             20.
            1814     11.0000E-03     150.203E-03         3.97638     499.011E-03        -3.93185     44.0398E-03     495.076E-06     499.011E-03    -544.625E-03              0.              0.              0.              0.              0.              0.              0.     1.10176E+06     849.651E+03     330.479E+03     485.156E+03     947.087E+03     849.651E+03     282.763E+03             20.
            1815     12.0000E-03     150.202E-03         3.49229     448.803E-03        -3.33474    -260.225E-03     417.768E-03     448.803E-03        -1.51920              0.              0.              0.              0.              0.              0.              0.     1.09262E+06     795.799E+03     298.459E+03     421.698E+03     969.385E+03     795.799E+03     281.398E+03             20.
            1816     13.0000E-03     150.201E-03         2.43196     367.770E-03        -2.20566    -972.134E-03         1.19843     367.770E-03         1.19230              0.              0.              0.              0.              0.              0.              0.     1.03335E+06     743.413E+03     304.400E+03     416.228E+03     921.522E+03     743.413E+03     256.448E+03             20.
            1817     14.0000E-03     150.202E-03         1.77167     290.912E-03        -1.49054    -418.914E-03     700.047E-03     290.912E-03     464.491E-03              0.              0.              0.              0.              0.              0.              0.     975.008E+03     661.230E+03     261.168E+03     391.146E+03     845.030E+03     661.230E+03     269.416E+03         20.0106
            1818     15.0000E-03     150.201E-03         1.63468     280.495E-03        -1.33692     728.046E-03    -430.285E-03     280.495E-03         1.09486              0.              0.              0.              0.              0.              0.              0.     716.035E+03     196.136E+03    -6.57991E+03     432.187E+03     277.268E+03     196.136E+03     232.567E+03         20.1500
            1819     16.0000E-03     150.202E-03         2.08309     286.849E-03        -1.73242     12.4725E-03     338.194E-03     286.849E-03     704.778E-03              0.              0.              0.              0.              0.              0.              0.     418.831E+03    -1.23201E+06    -1.33195E+06     384.634E+03    -1.29775E+06    -1.23201E+06     181.838E+03         20.6145
            1820     17.0001E-03     150.201E-03         1.85882     252.352E-03        -1.29219    -628.567E-03         1.19520     252.352E-03     844.243E-03              0.              0.              0.              0.              0.              0.              0.     225.466E+03    -3.82543E+06    -4.17855E+06     220.124E+03    -4.17321E+06    -3.82543E+06     98.9757E+03         21.4828
            1821     1.00000E-03     151.229E-03         8.12290         1.82803        -11.0508    -6.64330E-03        -3.90509         2.81185        -7.14088              0.              0.              0.              0.              0.              0.              0.     1.61469E+06     1.33082E+06    -285.148E+03     1.38289E+06    -267.336E+03     1.54481E+06    -1.21374E+03             20.
            1822     2.00001E-03     151.226E-03         5.36705         1.02093        -6.46125         1.13809        -2.57349         1.36213        -4.88171              0.              0.              0.              0.              0.              0.              0.     1.44929E+06     1.36479E+06     37.6204E+03     1.35357E+06     48.8337E+03     1.44929E+06     92.6450E+03             20.
            1823     3.00001E-03     151.223E-03         4.94112     711.856E-03        -5.76771    -466.325E-03    -701.454E-03         1.05305        -9.02220              0.              0.              0.              0.              0.              0.              0.     1.38442E+06     1.25844E+06     176.087E+03     1.23966E+06     194.870E+03     1.38442E+06     70.6233E+03             20.
            1824     4.00002E-03     151.218E-03         5.03585     762.216E-03        -5.49299     464.703E-03    -921.844E-03     762.216E-03        -6.05633              0.              0.              0.              0.              0.              0.              0.     1.31356E+06     1.14418E+06     320.740E+03     1.04484E+06     420.076E+03     1.31356E+06     193.054E+03             20.
            1825     5.00002E-03     151.216E-03         4.82764     765.100E-03        -5.02508         1.17005        -1.36750     765.100E-03        -4.06639              0.              0.              0.              0.              0.              0.              0.     1.23118E+06     1.01450E+06     478.689E+03     890.648E+03     602.542E+03     1.23118E+06     175.950E+03             20.
            1826     6.00002E-03     151.212E-03         5.75642     764.475E-03        -6.05553     274.178E-03    -573.296E-03     764.475E-03    -686.409E-03              0.              0.              0.              0.              0.              0.              0.     1.22144E+06     1.01743E+06     425.908E+03     797.871E+03     714.222E+03     1.15268E+06     271.517E+03             20.
            1827     7.00002E-03     151.209E-03         6.01199     727.579E-03        -6.25034     784.798E-03        -1.02314     727.579E-03     1.02150E-03              0.              0.              0.              0.              0.              0.              0.     1.15327E+06     1.01394E+06     435.362E+03     753.256E+03     764.810E+03     1.08451E+06     312.192E+03             20.
            1828     8.00003E-03     151.210E-03         5.19014     627.979E-03        -5.42050        -1.03060     800.248E-03     627.979E-03     812.797E-03              0.              0.              0.              0.              0.              0.              0.     1.18926E+06     950.152E+03     385.797E+03     671.638E+03     832.856E+03     1.02072E+06     342.620E+03             20.
            1829     9.00002E-03     151.207E-03         5.48790     486.868E-03        -5.60584    -188.340E-03     70.4005E-03     486.868E-03     770.273E-03              0.              0.              0.              0.              0.              0.              0.     1.19444E+06     968.750E+03     318.618E+03     611.229E+03     901.831E+03     968.750E+03     390.387E+03             20.
            1830     10.0000E-03     151.206E-03         4.92469     434.119E-03        -4.85853     126.851E-03    -60.6877E-03     434.119E-03        -2.12961              0.              0.              0.              0.              0.              0.              0.     1.17331E+06     914.079E+03     313.705E+03     585.766E+03     901.246E+03     914.079E+03     378.762E+03             20.
            1831     11.0000E-03     151.203E-03         3.71676     389.012E-03        -3.57638    -269.168E-03     409.554E-03     389.012E-03        -2.76942              0.              0.              0.              0.              0.              0.              0.     1.20187E+06     866.385E+03     258.811E+03     547.057E+03     913.619E+03     866.385E+03     424.306E+03             20.
            1832     12.0000E-03     151.205E-03         2.85801     325.254E-03        -2.53726    -491.400E-03     812.149E-03     325.254E-03        -2.95689              0.              0.              0.              0.              0.              0.              0.     1.14070E+06     821.549E+03     288.995E+03     509.330E+03     920.368E+03     821.549E+03     365.409E+03             20.
            1833     13.0000E-03     151.203E-03         2.20588     257.934E-03        -1.81281    -612.778E-03         1.00585     257.934E-03        -1.34770              0.              0.              0.              0.              0.              0.              0.     1.12909E+06     776.265E+03     258.267E+03     458.324E+03     929.031E+03     776.265E+03     363.466E+03             20.
            1834     14.0000E-03     151.203E-03         1.95966     220.668E-03        -1.55120     113.085E-03     295.376E-03     220.668E-03        -1.61702              0.              0.              0.              0.              0.              0.              0.     1.03265E+06     703.680E+03     277.637E+03     476.693E+03     833.589E+03     703.680E+03     325.077E+03         20.0106
            1835     15.0000E-03     151.204E-03         1.26697     224.379E-03    -845.082E-03    -288.298E-03     734.068E-03     200.494E-03     6.47820E-03              0.              0.              0.              0.              0.              0.              0.     762.444E+03     245.525E+03      39.366E+03     474.298E+03     327.543E+03     245.494E+03     296.816E+03         20.1500
            1836     16.0000E-03     151.203E-03         1.05330     208.906E-03    -537.492E-03     212.974E-03     326.715E-03     185.021E-03    -234.243E-03              0.              0.              0.              0.              0.              0.              0.     466.612E+03    -1.17464E+06    -1.25179E+06     403.369E+03    -1.18852E+06    -1.17467E+06     227.321E+03         20.6145
            1837     17.0001E-03     151.205E-03         1.41364     257.573E-03    -635.599E-03     148.658E-03     702.148E-03     184.807E-03    -208.848E-03              0.              0.              0.              0.              0.              0.              0.     262.931E+03    -3.75882E+06    -4.04483E+06     255.634E+03    -4.03753E+06    -3.75882E+06     125.585E+03         21.4829
            1838     1.00001E-03     152.227E-03         7.47827    -682.304E-03        -7.82441         2.87955        -2.67991        -1.22808        -1.81649              0.              0.              0.              0.              0.              0.              0.     1.68646E+06     1.20037E+06    -277.785E+03     1.16153E+06    -229.418E+03     1.67694E+06     74.1983E+03             20.
            1839     2.00001E-03     152.224E-03         3.97537     262.105E-03        -4.74942         1.81645        -3.36590         1.03750        -5.93259              0.              0.              0.              0.              0.              0.              0.     1.43300E+06     1.38457E+06     14.8930E+03     1.37399E+06     34.9940E+03     1.42348E+06     99.5723E+03             20.
            1840     3.00002E-03     152.222E-03         3.62850     857.703E-03        -5.01472         1.00223        -2.72964         1.19890        -5.26761              0.              0.              0.              0.              0.              0.              0.     1.36054E+06     1.22002E+06     199.972E+03     1.18313E+06     236.861E+03     1.36054E+06     149.042E+03             20.
            1841     4.00002E-03     152.217E-03         4.79217         1.10166        -5.85520     594.264E-03        -1.65730         1.10166        -7.27955              0.              0.              0.              0.              0.              0.              0.     1.29270E+06     1.13038E+06     339.278E+03     1.04960E+06     420.062E+03     1.29270E+06     233.983E+03             20.
            1842     5.00002E-03     152.216E-03         3.82314     931.787E-03        -4.58318    -126.007E-03    -634.035E-03     931.787E-03        -2.18625              0.              0.              0.              0.              0.              0.              0.     1.21442E+06     1.08867E+06     396.422E+03     901.378E+03     583.718E+03     1.21442E+06     280.767E+03             20.
            1843     6.00002E-03     152.213E-03         4.09556     755.985E-03        -4.59988    -85.5485E-03    -418.768E-03     755.985E-03        -3.24909              0.              0.              0.              0.              0.              0.              0.     1.17802E+06     1.06648E+06     412.419E+03     796.343E+03     717.425E+03     1.14315E+06     338.212E+03             20.
            1844     7.00003E-03     152.211E-03         4.99161     630.987E-03        -5.36981    -140.751E-03    -237.449E-03     630.987E-03    -523.224E-03              0.              0.              0.              0.              0.              0.              0.     1.16584E+06     1.04376E+06     373.995E+03     786.217E+03     721.720E+03     1.07566E+06     367.531E+03             20.
            1845     8.00002E-03     152.210E-03         4.30577     523.081E-03        -4.65144    -322.393E-03    -23.2767E-03     523.081E-03     410.462E-03              0.              0.              0.              0.              0.              0.              0.     1.22523E+06     993.263E+03     306.994E+03     723.855E+03     780.064E+03     1.02157E+06     422.281E+03             20.
            1846     9.00003E-03     152.209E-03         4.22203     420.617E-03        -4.38479    -471.266E-03     308.501E-03     420.617E-03     16.4340E-03              0.              0.              0.              0.              0.              0.              0.     1.21212E+06     977.050E+03     294.082E+03     697.762E+03     808.441E+03     977.050E+03     437.624E+03             20.
            1847     10.0000E-03     152.207E-03         4.36092     317.694E-03        -4.41227    -750.739E-03     699.395E-03     317.694E-03    -325.704E-03              0.              0.              0.              0.              0.              0.              0.     1.22050E+06     936.217E+03     275.144E+03     664.128E+03     831.520E+03     936.217E+03     454.206E+03             20.
            1848     11.0000E-03     152.206E-03         3.82191     226.481E-03        -3.61566    -608.559E-03     814.807E-03     226.481E-03        -2.90194              0.              0.              0.              0.              0.              0.              0.     1.23676E+06     897.793E+03     240.599E+03     634.547E+03     842.817E+03     897.793E+03     479.595E+03             20.
            1849     12.0000E-03     152.204E-03         2.77955     149.875E-03        -2.48646    -781.411E-03         1.07451     149.875E-03    -144.427E-03              0.              0.              0.              0.              0.              0.              0.     1.22409E+06     862.374E+03     236.422E+03     585.725E+03     874.788E+03     862.374E+03     468.758E+03             20.
            1850     13.0000E-03     152.203E-03         2.44663     103.316E-03        -2.05653    -101.367E-03     491.469E-03     103.316E-03        -1.92829              0.              0.              0.              0.              0.              0.              0.     1.20238E+06     826.779E+03     236.393E+03     543.278E+03     895.499E+03     826.779E+03     445.465E+03             20.
            1851     14.0000E-03     152.203E-03         2.14418     81.3296E-03        -1.76387    -314.352E-03     694.663E-03     81.3296E-03        -1.29438              0.              0.              0.              0.              0.              0.              0.     1.10851E+06     762.690E+03     276.081E+03     537.142E+03     847.449E+03     762.690E+03     382.995E+03         20.0106
            1852     15.0000E-03     152.203E-03         1.22590     78.3059E-03    -832.701E-03    -325.898E-03     742.982E-03     54.4209E-03        -1.25573              0.              0.              0.              0.              0.              0.              0.     861.117E+03     311.271E+03     43.9176E+03     498.423E+03     406.644E+03     311.240E+03     349.482E+03         20.1500
            1853     16.0000E-03     152.204E-03     859.570E-03     64.3306E-03    -397.245E-03     3.38325E-03     482.827E-03     40.4457E-03    -577.254E-03              0.              0.              0.              0.              0.              0.              0.     513.950E+03    -1.10112E+06    -1.16775E+06     432.644E+03    -1.08396E+06    -1.10360E+06     255.461E+03         20.6145
            1854     17.0001E-03     152.206E-03         1.06007     103.661E-03    -469.803E-03    -253.841E-03     916.878E-03     30.8951E-03    -208.825E-03              0.              0.              0.              0.              0.              0.              0.     279.344E+03    -3.67402E+06    -3.87685E+06     270.302E+03    -3.86536E+06    -3.67647E+06     139.366E+03         21.4829
            1855     1.00000E-03     153.229E-03         8.89686    -118.980E-03        -9.76074         5.31054        -4.64482        -1.64858        -2.49161              0.              0.              0.              0.              0.              0.              0.     1.65943E+06     1.18018E+06    -307.379E+03     1.14267E+06    -260.348E+03     1.64991E+06     187.667E+03         20.0000
            1856     2.00001E-03     153.224E-03         4.17633         1.31224        -6.64907         1.49994        -4.40689         1.74644        -1.22216              0.              0.              0.              0.              0.              0.              0.     1.38420E+06     1.26472E+06     77.9366E+03     1.24267E+06     109.520E+03     1.37468E+06     148.064E+03             20.
            1857     3.00001E-03     153.221E-03         3.20230         1.68312        -5.60949         1.97253        -4.42023         1.72363        -3.98763              0.              0.              0.              0.              0.              0.              0.     1.33842E+06     1.20732E+06     183.549E+03     1.16433E+06     256.134E+03     1.30882E+06     251.509E+03             20.
            1858     4.00002E-03     153.219E-03         3.14106         1.46316        -5.31304    -577.109E-03        -1.63538         1.50367        -4.02220              0.              0.              0.              0.              0.              0.              0.     1.27986E+06     1.13516E+06     289.539E+03     1.04989E+06     404.401E+03     1.25027E+06     286.435E+03             20.
            1859     5.00002E-03     153.215E-03         2.91334         1.02609        -4.26825        -1.14318    -211.730E-03         1.02609        -3.39800              0.              0.              0.              0.              0.              0.              0.     1.23326E+06     1.11611E+06     309.366E+03     939.221E+03     531.857E+03     1.18765E+06     355.163E+03             20.
            1860     6.00002E-03     153.214E-03         2.87835     686.206E-03        -3.97627    -789.152E-03    -308.768E-03     686.206E-03        -1.66809              0.              0.              0.              0.              0.              0.              0.     1.17542E+06     1.07365E+06     369.141E+03     860.959E+03     627.438E+03     1.12982E+06     346.892E+03             20.
            1861     7.00002E-03     153.210E-03         3.93730     446.864E-03        -4.59542        -1.18649     528.382E-03     446.864E-03    -255.436E-03              0.              0.              0.              0.              0.              0.              0.     1.20962E+06     1.03262E+06     314.277E+03     793.301E+03     691.090E+03     1.07213E+06     416.841E+03             20.
            1862     8.00003E-03     153.208E-03         3.96806     296.031E-03        -4.47032    -255.366E-03    -246.897E-03     296.031E-03    -695.776E-03              0.              0.              0.              0.              0.              0.              0.     1.20855E+06     1.02295E+06     274.652E+03     795.914E+03     685.334E+03     1.02490E+06     455.623E+03             20.
            1863     9.00003E-03     153.209E-03         4.12056     219.106E-03        -4.48110    -548.534E-03     187.997E-03     219.106E-03        -1.73325              0.              0.              0.              0.              0.              0.              0.     1.23201E+06     992.380E+03     265.445E+03     782.909E+03     712.600E+03     994.330E+03     469.694E+03             20.
            1864     10.0000E-03     153.209E-03         3.76287     147.074E-03        -3.86241    -444.282E-03     344.743E-03     147.074E-03        -2.26916              0.              0.              0.              0.              0.              0.              0.     1.24605E+06     963.442E+03     245.899E+03     738.595E+03     753.355E+03     963.442E+03     492.260E+03             20.
            1865     11.0000E-03     153.207E-03         3.32663     81.9790E-03        -3.36438    -704.243E-03     666.500E-03     81.9790E-03        -2.17863              0.              0.              0.              0.              0.              0.              0.     1.23868E+06     937.386E+03     256.919E+03     724.494E+03     771.103E+03     937.386E+03     486.329E+03             20.
            1866     12.0000E-03     153.205E-03         2.83314     25.1869E-03        -2.69093    -483.662E-03     625.866E-03     25.1869E-03        -1.03254              0.              0.              0.              0.              0.              0.              0.     1.26318E+06     910.539E+03     223.880E+03     692.652E+03     794.405E+03     910.539E+03     512.518E+03             20.
            1867     13.0000E-03     153.206E-03         2.30992    -26.2501E-03        -2.15400    -814.844E-03     970.760E-03    -26.2501E-03        -2.03378              0.              0.              0.              0.              0.              0.              0.     1.22539E+06     887.990E+03     265.069E+03     657.383E+03     833.079E+03     887.990E+03     469.714E+03             20.
            1868     14.0000E-03     153.204E-03         2.03635    -84.3928E-03        -1.83319    -864.396E-03         1.06755    -84.3928E-03        -1.32479              0.              0.              0.              0.              0.              0.              0.     1.20726E+06     830.714E+03     248.746E+03     573.373E+03     882.637E+03     830.714E+03     450.011E+03         20.0106
            1869     15.0000E-03     153.206E-03         1.49608    -118.526E-03        -1.28750    -303.953E-03     512.535E-03    -118.526E-03        -1.82506              0.              0.              0.              0.              0.              0.              0.     951.108E+03     386.540E+03     60.8006E+03     537.577E+03     474.331E+03     386.540E+03     382.015E+03         20.1500
            1870     16.0000E-03     153.207E-03         1.27612    -134.466E-03        -1.03245    -442.364E-03     686.043E-03    -134.466E-03    -955.361E-03              0.              0.              0.              0.              0.              0.              0.     577.934E+03    -1.00651E+06    -1.08980E+06     466.183E+03    -965.917E+03    -1.01864E+06     306.756E+03         20.6145
            1871     17.0001E-03     153.206E-03         1.08444    -151.050E-03    -857.801E-03    -386.793E-03     613.428E-03    -151.050E-03    -246.317E-03              0.              0.              0.              0.              0.              0.              0.     277.027E+03    -3.57231E+06    -3.68854E+06     264.065E+03    -3.66344E+06    -3.58444E+06     163.170E+03         21.4829
            1872     1.00001E-03     154.229E-03         11.7906     186.998E-03        -13.8206    -196.143E-03        -7.46900         5.82212        -3.39293              0.              0.              0.              0.              0.              0.              0.     1.64792E+06     1.04542E+06    -283.866E+03     1.03106E+06    -216.682E+03     1.59509E+06     146.317E+03         20.0000
            1873     2.00001E-03     154.222E-03         6.41272         2.05468        -9.39032         2.81576        -6.52997         2.79129    -589.430E-03              0.              0.              0.              0.              0.              0.              0.     1.34622E+06     1.16695E+06     79.0454E+03     1.17046E+06     128.366E+03     1.29340E+06     215.387E+03             20.
            1874     3.00002E-03     154.222E-03         4.17297         1.48556        -7.28447    -940.275E-03        -2.94835         2.26269        -4.92205              0.              0.              0.              0.              0.              0.              0.     1.30448E+06     1.18673E+06     143.936E+03     1.13244E+06     258.203E+03     1.24450E+06     290.367E+03             20.
            1875     4.00002E-03     154.217E-03         4.33824         1.43106        -6.84067    -592.561E-03        -1.95038         1.47157        -4.23744              0.              0.              0.              0.              0.              0.              0.     1.25997E+06     1.14218E+06     208.222E+03     1.02901E+06     385.771E+03     1.19558E+06     379.240E+03             20.
            1876     5.00002E-03     154.217E-03         3.87303     997.567E-03        -6.18914        -1.16825        -1.14785     997.567E-03        -4.60897              0.              0.              0.              0.              0.              0.              0.     1.21949E+06     1.09507E+06     275.072E+03     956.996E+03     484.164E+03     1.14848E+06     374.909E+03             20.
            1877     6.00002E-03     154.212E-03         3.38346     580.836E-03        -5.01683        -1.82446     191.089E-03     580.836E-03        -1.05686              0.              0.              0.              0.              0.              0.              0.     1.18883E+06     1.06857E+06     301.025E+03     908.560E+03     545.381E+03     1.10448E+06     380.874E+03             20.
            1878     7.00002E-03     154.213E-03         3.53986     245.407E-03        -4.69577        -1.64916     493.248E-03     245.407E-03        -1.18080              0.              0.              0.              0.              0.              0.              0.     1.18738E+06     1.02563E+06     294.270E+03     867.859E+03     577.878E+03     1.06154E+06     396.918E+03             20.
            1879     8.00003E-03     154.209E-03         3.79102     13.9947E-03        -4.55518        -1.52952     765.358E-03     13.9947E-03        -1.10651              0.              0.              0.              0.              0.              0.              0.     1.20268E+06     1.02720E+06     250.206E+03     850.516E+03     600.416E+03     1.02915E+06     452.892E+03             20.
            1880     9.00003E-03     154.208E-03         3.91114    -107.624E-03        -4.34705    -564.782E-03     128.870E-03    -107.624E-03        -1.19971              0.              0.              0.              0.              0.              0.              0.     1.21474E+06     1.00557E+06     260.552E+03     827.955E+03     645.389E+03     1.00752E+06     466.742E+03             20.
            1881     10.0000E-03     154.208E-03         3.36646    -125.473E-03        -3.64383     21.6867E-03    -299.051E-03    -125.473E-03        -3.04295              0.              0.              0.              0.              0.              0.              0.     1.22573E+06     988.565E+03     264.010E+03     824.587E+03     665.154E+03     988.565E+03     469.818E+03             20.
            1882     11.0000E-03     154.207E-03         3.12578    -134.247E-03        -3.32729    -494.976E-03     293.463E-03    -134.247E-03        -2.47760              0.              0.              0.              0.              0.              0.              0.     1.23845E+06     972.669E+03     268.739E+03     798.967E+03     708.219E+03     972.669E+03     479.030E+03             20.
            1883     12.0000E-03     154.206E-03         3.01029    -176.178E-03        -3.10360    -794.257E-03     700.952E-03    -176.178E-03        -3.34787              0.              0.              0.              0.              0.              0.              0.     1.24831E+06     959.434E+03     276.807E+03     807.572E+03     717.544E+03     959.434E+03     482.692E+03             20.
            1884     13.0000E-03     154.206E-03         2.77730    -227.457E-03        -2.83832    -896.369E-03     835.353E-03    -227.457E-03        -2.22305              0.              0.              0.              0.              0.              0.              0.     1.24081E+06     944.528E+03     295.736E+03     746.924E+03     789.619E+03     944.528E+03     466.444E+03             20.
            1885     14.0000E-03     154.205E-03         2.47672    -267.678E-03        -2.52309    -677.196E-03     630.826E-03    -267.678E-03        -3.04898              0.              0.              0.              0.              0.              0.              0.     1.23290E+06     900.626E+03     304.643E+03     675.499E+03     862.041E+03     900.626E+03     450.331E+03         20.0106
            1886     15.0000E-03     154.206E-03         1.60024    -296.217E-03        -1.62730    -711.588E-03     684.529E-03    -296.217E-03        -1.15103              0.              0.              0.              0.              0.              0.              0.     976.112E+03     464.463E+03     142.873E+03     596.294E+03     522.691E+03     464.463E+03     387.946E+03         20.1500
            1887     16.0000E-03     154.205E-03         1.29302    -324.801E-03        -1.40405    -792.713E-03     681.681E-03    -324.801E-03        -1.24725              0.              0.              0.              0.              0.              0.              0.     628.979E+03    -902.095E+03    -992.306E+03     489.102E+03    -826.219E+03    -928.306E+03     319.767E+03         20.6145
            1888     17.0001E-03     154.206E-03     759.917E-03    -334.652E-03    -864.643E-03    -171.933E-03     67.2075E-03    -334.652E-03    -400.795E-03              0.              0.              0.              0.              0.              0.              0.     317.170E+03    -3.44746E+06    -3.51486E+06     302.154E+03    -3.46787E+06    -3.47944E+06     175.955E+03         21.4829
            1889     999.998E-06     155.227E-03         12.9393    -442.006E-03        -14.0708         1.11223        -8.31182         5.62614        -1.68366              0.              0.              0.              0.              0.              0.              0.     1.60776E+06     814.064E+03    -181.204E+03     766.164E+03    -50.0765E+03     1.52453E+06     148.671E+03             20.
            1890     2.00001E-03     155.222E-03         5.32221         1.67930        -8.54762     701.992E-03        -5.09704         2.84893        -2.79810              0.              0.              0.              0.              0.              0.              0.     1.30545E+06     1.14172E+06     41.1967E+03     1.18545E+06     129.124E+03     1.17379E+06     244.123E+03             20.
            1891     3.00001E-03     155.218E-03         4.24398         1.15496        -7.39190    -645.954E-03        -3.23858         1.89157        -3.57178              0.              0.              0.              0.              0.              0.              0.     1.23011E+06     1.11015E+06     138.739E+03     1.06570E+06     262.007E+03     1.15130E+06     286.221E+03             20.
            1892     4.00002E-03     155.217E-03         4.01946     779.057E-03        -6.61184    -493.428E-03        -2.57152         1.25162        -4.55062              0.              0.              0.              0.              0.              0.              0.     1.25913E+06     1.12032E+06     127.733E+03     1.04818E+06     329.604E+03     1.12939E+06     403.763E+03             20.
            1893     5.00002E-03     155.216E-03         3.04381     287.515E-03        -5.30741        -1.64654        -1.11972     790.182E-03        -1.84702              0.              0.              0.              0.              0.              0.              0.     1.21811E+06     1.07307E+06     188.838E+03     969.147E+03     413.122E+03     1.09775E+06     412.293E+03             20.
            1894     6.00002E-03     155.214E-03         3.41662     268.473E-03        -5.49339        -2.68493     578.053E-03     298.574E-03        -2.72582              0.              0.              0.              0.              0.              0.              0.     1.20224E+06     1.04676E+06     227.952E+03     937.414E+03     468.105E+03     1.07144E+06     407.558E+03             20.
            1895     7.00002E-03     155.211E-03         3.58721    -79.3866E-03        -4.99647        -1.89851     489.260E-03    -79.3866E-03        -1.63814              0.              0.              0.              0.              0.              0.              0.     1.17749E+06     1.03171E+06     227.727E+03     925.108E+03     470.049E+03     1.04177E+06     410.869E+03             20.
            1896     8.00003E-03     155.211E-03         3.77680    -275.176E-03        -4.81683        -1.33527     295.239E-03    -275.176E-03        -1.37949              0.              0.              0.              0.              0.              0.              0.     1.19764E+06     1.01326E+06     224.775E+03     881.618E+03     530.735E+03     1.02332E+06     443.096E+03             20.
            1897     9.00003E-03     155.210E-03         3.81246    -343.931E-03        -4.43618    -393.291E-03    -230.427E-03    -343.931E-03    -781.630E-03              0.              0.              0.              0.              0.              0.              0.     1.18930E+06     1.01096E+06     257.815E+03     867.688E+03     579.426E+03     1.01096E+06     439.809E+03             20.
            1898     10.0000E-03     155.209E-03         3.34700    -353.574E-03        -3.88841    -494.291E-03    -47.1207E-03    -353.574E-03        -1.27612              0.              0.              0.              0.              0.              0.              0.     1.21115E+06     1.00284E+06     269.735E+03     891.794E+03     589.094E+03     1.00284E+06     443.466E+03             20.
            1899     11.0000E-03     155.207E-03         3.43293    -361.919E-03        -3.81674    -393.329E-03     9.52172E-03    -361.919E-03        -1.07365              0.              0.              0.              0.              0.              0.              0.     1.25658E+06     1.00062E+06     262.114E+03     905.217E+03     613.474E+03     1.00062E+06     470.732E+03             20.
            1900     12.0000E-03     155.208E-03         2.90346    -376.518E-03        -3.26116    -694.609E-03     336.906E-03    -376.518E-03        -1.21402              0.              0.              0.              0.              0.              0.              0.     1.25618E+06     997.770E+03     297.008E+03     866.474E+03     686.719E+03     997.770E+03     464.040E+03             20.
            1901     13.0000E-03     155.206E-03         2.56471    -397.392E-03        -2.88064    -597.924E-03     281.993E-03    -397.392E-03    -434.485E-03              0.              0.              0.              0.              0.              0.              0.     1.28522E+06     995.764E+03     313.766E+03     833.630E+03     765.356E+03     995.764E+03     479.641E+03             20.
            1902     14.0000E-03     155.205E-03         2.52053    -419.421E-03        -2.77417    -821.471E-03     567.831E-03    -419.421E-03        -1.23330              0.              0.              0.              0.              0.              0.              0.     1.24444E+06     959.954E+03     370.550E+03     776.088E+03     838.905E+03     959.954E+03     429.847E+03         20.0106
            1903     15.0000E-03     155.206E-03         1.48686    -450.282E-03        -1.74656    -942.395E-03     682.694E-03    -450.282E-03    -688.647E-03              0.              0.              0.              0.              0.              0.              0.     1.03322E+06     537.642E+03     205.304E+03     662.905E+03     575.623E+03     537.642E+03     390.724E+03         20.1500
            1904     16.0000E-03     155.208E-03     994.704E-03    -472.928E-03        -1.28711    -669.584E-03     377.178E-03    -472.928E-03    -130.168E-03              0.              0.              0.              0.              0.              0.              0.     631.734E+03    -779.891E+03    -885.699E+03     517.127E+03    -702.802E+03    -848.180E+03     279.571E+03         20.6145
            1905     17.0001E-03     155.207E-03     579.111E-03    -480.549E-03        -1.07185    -531.053E-03     38.3182E-03    -480.549E-03    -75.0665E-03              0.              0.              0.              0.              0.              0.              0.     327.601E+03    -3.28382E+06    -3.38760E+06      313.35E+03    -3.26957E+06    -3.38760E+06     162.837E+03         21.4829
            1906     1.00001E-03     156.227E-03         9.53586         1.42376        -12.1896         2.20785        -5.29465         1.85678        -1.89852              0.              0.              0.              0.              0.              0.              0.     1.31323E+06     900.097E+03    -80.0056E+03     812.011E+03     38.4838E+03     1.28283E+06     181.632E+03             20.
            1907     2.00000E-03     156.223E-03         5.23521         1.26733        -8.56083     302.897E-03        -4.06153         1.70035        -1.78748              0.              0.              0.              0.              0.              0.              0.     1.19534E+06     1.00503E+06     116.581E+03     1.02364E+06     241.045E+03     1.05226E+06     273.624E+03             20.
            1908     3.00001E-03     156.220E-03         4.26916         1.35953        -7.84633         1.39131        -4.96848         1.35953        -1.67853              0.              0.              0.              0.              0.              0.              0.     1.20317E+06     1.03871E+06     119.458E+03     1.05866E+06     254.888E+03     1.04779E+06     336.015E+03             20.
            1909     4.00001E-03     156.217E-03         3.75718     654.712E-03        -6.77981    -777.760E-03        -2.71743         1.12728        -2.65261              0.              0.              0.              0.              0.              0.              0.     1.20988E+06     1.03290E+06     115.239E+03     1.01669E+06     299.352E+03     1.04198E+06     380.477E+03             20.
            1910     5.00002E-03     156.216E-03         3.30526     62.9965E-03        -5.77325        -2.67369    -296.969E-03     565.664E-03     326.224E-03              0.              0.              0.              0.              0.              0.              0.     1.23594E+06     1.01051E+06     114.962E+03     1.01419E+06     312.031E+03     1.03519E+06     414.968E+03             20.
            1911     6.00002E-03     156.213E-03         3.76433    -34.5067E-03        -5.96952        -2.96328     727.983E-03    -4.40550E-03    -586.744E-03              0.              0.              0.              0.              0.              0.              0.     1.19423E+06     999.418E+03     163.750E+03     978.542E+03     352.237E+03     1.02662E+06     383.907E+03             20.
            1912     7.00002E-03     156.212E-03         3.32807    -384.969E-03        -4.84974        -2.26555     743.877E-03    -384.969E-03        -1.34447              0.              0.              0.              0.              0.              0.              0.     1.16251E+06     999.750E+03     186.637E+03     908.829E+03     427.734E+03     1.01234E+06     414.702E+03             20.
            1913     8.00003E-03     156.211E-03         3.18789    -538.227E-03        -4.29557    -844.409E-03    -263.272E-03    -538.227E-03        -1.41217              0.              0.              0.              0.              0.              0.              0.     1.14671E+06     990.654E+03     227.452E+03     885.405E+03     478.700E+03     1.00071E+06     403.240E+03             20.
            1914     9.00003E-03     156.209E-03         3.14718    -553.621E-03        -4.01222    -488.505E-03    -376.529E-03    -553.621E-03        -1.75962              0.              0.              0.              0.              0.              0.              0.     1.16264E+06     1.00115E+06     256.170E+03     924.907E+03     493.902E+03     1.00115E+06     394.910E+03             20.
            1915     10.0000E-03     156.211E-03         3.06098    -544.652E-03        -3.75004    -441.942E-03    -247.116E-03    -544.652E-03        -1.24128              0.              0.              0.              0.              0.              0.              0.     1.18960E+06     1.00394E+06     271.692E+03     951.887E+03     509.401E+03     1.00394E+06     396.169E+03             20.
            1916     11.0000E-03     156.206E-03         2.93841    -519.085E-03        -3.64575    -77.1472E-03    -630.190E-03    -519.085E-03        -1.57113              0.              0.              0.              0.              0.              0.              0.     1.24332E+06     1.01291E+06     271.557E+03     967.734E+03     547.145E+03     1.01291E+06     431.848E+03             20.
            1917     12.0000E-03     156.206E-03         1.93679    -468.005E-03        -2.57913     272.424E-03    -914.761E-03    -468.005E-03     694.454E-03              0.              0.              0.              0.              0.              0.              0.     1.26437E+06     1.02384E+06     315.501E+03     934.121E+03     645.752E+03     1.02384E+06     443.109E+03             20.
            1918     13.0000E-03     156.205E-03         1.96888    -440.183E-03        -2.57611    -518.070E-03    -89.1666E-03    -440.183E-03     561.207E-03              0.              0.              0.              0.              0.              0.              0.     1.27661E+06     1.03267E+06     375.475E+03     892.401E+03     759.685E+03     1.03267E+06     439.944E+03             20.
            1919     14.0000E-03     156.206E-03         1.72699    -421.311E-03        -2.27288        -1.21790     720.606E-03    -469.909E-03         1.42206              0.              0.              0.              0.              0.              0.              0.     1.27791E+06     1.00782E+06     424.447E+03     821.127E+03     881.226E+03     1.00782E+06     417.417E+03         20.0106
            1920     15.0000E-03     156.209E-03         1.44681    -471.526E-03        -1.85024        -1.22495     870.106E-03    -520.123E-03     184.661E-03              0.              0.              0.              0.              0.              0.              0.     1.06842E+06     593.046E+03     284.214E+03     716.204E+03     636.427E+03     593.046E+03     359.009E+03         20.1500
            1921     16.0000E-03     156.209E-03         1.21651    -551.584E-03        -1.61623    -806.374E-03     406.647E-03    -551.584E-03         1.05557              0.              0.              0.              0.              0.              0.              0.     663.074E+03    -663.905E+03    -818.985E+03     564.036E+03    -600.771E+03    -783.081E+03     257.497E+03         20.6145
            1922     17.0001E-03     156.209E-03     728.316E-03    -543.387E-03        -1.37767     5.60839E-03    -654.957E-03    -543.387E-03     33.6368E-03              0.              0.              0.              0.              0.              0.              0.     321.629E+03    -3.10693E+06    -3.31879E+06     310.452E+03    -3.09575E+06    -3.31879E+06     138.948E+03         21.4829
            1923     1.00000E-03     157.229E-03         5.82263         1.95168        -9.66328    -153.166E-03        -3.68749         1.95168         1.74715              0.              0.              0.              0.              0.              0.              0.     1.20864E+06     886.012E+03    -100.453E+03     797.805E+03     105.206E+03     1.09118E+06     124.568E+03         20.0000
            1924     2.00001E-03     157.223E-03         5.27416         1.20556        -8.20454         2.43637        -5.36675         1.20556         1.63948              0.              0.              0.              0.              0.              0.              0.     1.13593E+06     892.795E+03     171.687E+03     915.242E+03     330.941E+03     954.232E+03     268.172E+03             20.
            1925     3.00001E-03     157.220E-03         4.34757         1.28657        -8.10625    -66.2164E-03        -3.69246         1.28657    -490.877E-03              0.              0.              0.              0.              0.              0.              0.     1.17933E+06     931.300E+03     112.816E+03     972.257E+03     305.690E+03     945.498E+03     327.520E+03             20.
            1926     4.00001E-03     157.218E-03         4.16534     767.355E-03        -7.33671        -1.58865        -1.58272     767.355E-03    -774.338E-03              0.              0.              0.              0.              0.              0.              0.     1.16779E+06     946.563E+03     94.1781E+03     972.399E+03     289.570E+03     946.563E+03     385.347E+03             20.
            1927     5.00001E-03     157.215E-03         5.08389     202.646E-03        -7.82483        -2.51203    -228.907E-03     202.646E-03    -890.976E-03              0.              0.              0.              0.              0.              0.              0.     1.16785E+06     954.558E+03     93.2477E+03     1.00492E+06     256.181E+03     954.558E+03     362.325E+03             20.
            1928     6.00002E-03     157.214E-03         5.55837    -240.671E-03        -7.58669        -2.31165     283.326E-03    -240.671E-03     246.238E-03              0.              0.              0.              0.              0.              0.              0.     1.13505E+06     958.172E+03     130.431E+03     968.098E+03     294.859E+03     960.699E+03     362.947E+03             20.
            1929     7.00002E-03     157.211E-03         4.92276    -530.041E-03        -6.37032        -2.16886     721.303E-03    -530.041E-03    -934.974E-03              0.              0.              0.              0.              0.              0.              0.     1.08934E+06     959.655E+03     201.786E+03     901.362E+03     387.235E+03     962.182E+03     349.042E+03             20.
            1930     8.00003E-03     157.211E-03         4.97897    -683.908E-03        -6.07546        -1.27431     177.819E-03    -683.908E-03    -779.709E-03              0.              0.              0.              0.              0.              0.              0.     1.10551E+06     964.190E+03     224.795E+03     921.371E+03     408.931E+03     964.190E+03     343.633E+03             20.
            1931     9.00003E-03     157.211E-03         3.94987    -710.825E-03        -4.82509    -531.037E-03    -344.179E-03    -710.825E-03     66.5226E-03              0.              0.              0.              0.              0.              0.              0.     1.12945E+06     972.433E+03     245.333E+03     967.405E+03     407.375E+03     972.433E+03     331.433E+03             20.
            1932     10.0000E-03     157.211E-03         3.81897    -670.912E-03        -4.71657    -72.0133E-03    -825.590E-03    -670.912E-03     88.1674E-03              0.              0.              0.              0.              0.              0.              0.     1.16755E+06     986.895E+03     260.147E+03     987.794E+03     439.900E+03     986.895E+03     359.910E+03             20.
            1933     11.0000E-03     157.207E-03         3.73951    -598.081E-03        -4.65099     344.424E-03        -1.25591    -598.081E-03    -517.846E-03              0.              0.              0.              0.              0.              0.              0.     1.19393E+06     1.00495E+06     303.408E+03     976.089E+03     521.245E+03     1.00495E+06     375.602E+03             20.
            1934     12.0000E-03     157.209E-03         2.67219    -514.557E-03        -3.56656     460.474E-03        -1.35484    -514.557E-03     610.891E-03              0.              0.              0.              0.              0.              0.              0.     1.23243E+06     1.02772E+06     361.090E+03     974.188E+03     619.330E+03     1.02772E+06     397.639E+03             20.
            1935     13.0000E-03     157.208E-03         2.15041    -460.819E-03        -2.96434    -120.551E-03    -693.383E-03    -460.819E-03         1.61651              0.              0.              0.              0.              0.              0.              0.     1.24277E+06     1.04801E+06     454.085E+03     919.873E+03     776.981E+03     1.04801E+06     377.840E+03             20.
            1936     14.0000E-03     157.208E-03         1.31076    -405.603E-03        -1.94768    -636.741E-03     48.4172E-03    -454.201E-03         1.86139              0.              0.              0.              0.              0.              0.              0.     1.28345E+06     1.03259E+06     494.053E+03     844.132E+03     933.369E+03     1.03259E+06     388.971E+03         20.0106
            1937     15.0000E-03     157.210E-03         1.58659    -436.344E-03        -2.08197        -1.21366     766.884E-03    -484.942E-03         2.41929              0.              0.              0.              0.              0.              0.              0.     1.07610E+06     631.418E+03     380.386E+03     757.988E+03     702.410E+03     627.509E+03     324.915E+03         20.1500
            1938     16.0000E-03     157.210E-03         1.50221    -519.734E-03        -1.93402    -857.245E-03     425.435E-03    -519.734E-03         1.89122              0.              0.              0.              0.              0.              0.              0.     719.247E+03    -604.649E+03    -764.819E+03     608.434E+03    -516.545E+03    -742.110E+03     250.396E+03         20.6146
            1939     17.0001E-03     157.210E-03         1.02011    -494.402E-03        -1.62986     723.948E-03        -1.33370    -494.402E-03         1.02653              0.              0.              0.              0.              0.              0.              0.     357.615E+03    -2.98502E+06    -3.26922E+06     348.282E+03    -2.97569E+06    -3.26922E+06     129.789E+03         21.4829
            1940     1.00000E-03     158.227E-03         9.58688    -915.336E-03        -10.4284         6.58834        -5.60311        -2.74208     635.636E-03              0.              0.              0.              0.              0.              0.              0.     1.07666E+06     761.666E+03     3.23242E+03     683.469E+03     244.488E+03     913.605E+03     125.666E+03         20.0000
            1941     2.00000E-03     158.224E-03         4.25140         1.65357        -7.84246     489.845E-03        -4.08091         1.65357     937.512E-03              0.              0.              0.              0.              0.              0.              0.     1.07771E+06     826.103E+03     203.635E+03     872.151E+03     394.994E+03     840.302E+03     223.703E+03             20.
            1942     3.00001E-03     158.220E-03         3.73433     935.598E-03        -6.68557        -1.63303        -1.31820     935.598E-03     578.223E-03              0.              0.              0.              0.              0.              0.              0.     1.08313E+06     820.049E+03     160.947E+03     859.768E+03     370.110E+03     834.248E+03     277.520E+03             20.
            1943     4.00001E-03     158.219E-03         3.39701     181.139E-03        -5.89793        -2.44136    -59.5665E-03     181.139E-03    -355.078E-03              0.              0.              0.              0.              0.              0.              0.     1.12264E+06     845.464E+03     91.9914E+03     932.408E+03     282.220E+03     845.464E+03     344.790E+03             20.
            1944     5.00001E-03     158.216E-03         3.48588    -318.388E-03        -5.34204        -2.04726     191.110E-03    -318.388E-03     110.195E-03              0.              0.              0.              0.              0.              0.              0.     1.07922E+06     857.290E+03     108.120E+03     917.021E+03     270.319E+03     857.290E+03     324.668E+03             20.
            1945     6.00002E-03     158.214E-03         3.15100    -560.826E-03        -4.55294        -1.40464     2.69691E-03    -560.826E-03    -886.987E-03              0.              0.              0.              0.              0.              0.              0.     1.08548E+06     872.303E+03     117.832E+03     909.698E+03     293.611E+03     872.303E+03     351.297E+03             20.
            1946     7.00002E-03     158.212E-03         3.33933    -655.533E-03        -4.43934        -1.00227    -97.7415E-03    -655.533E-03    -899.564E-03              0.              0.              0.              0.              0.              0.              0.     1.09839E+06     892.823E+03     150.710E+03     931.509E+03     317.589E+03     892.823E+03     338.004E+03             20.
            1947     8.00002E-03     158.210E-03         3.32689    -685.904E-03        -4.20450    -776.690E-03    -100.919E-03    -685.904E-03        -1.12318              0.              0.              0.              0.              0.              0.              0.     1.10418E+06     911.938E+03     183.520E+03     963.087E+03     324.612E+03     911.938E+03     309.230E+03             20.
            1948     9.00003E-03     158.209E-03         2.46176    -644.555E-03        -3.40134     205.283E-03        -1.14486    -644.555E-03         2.11385              0.              0.              0.              0.              0.              0.              0.     1.12082E+06     928.259E+03     194.955E+03     987.601E+03     328.174E+03     928.259E+03     307.709E+03             20.
            1949     10.0000E-03     158.208E-03         2.76264    -547.368E-03        -3.82981     462.151E-03        -1.52932    -547.368E-03         2.76334              0.              0.              0.              0.              0.              0.              0.     1.15473E+06     950.692E+03     218.562E+03     980.613E+03     392.680E+03     950.692E+03     348.962E+03             20.
            1950     11.0000E-03     158.204E-03         2.59545    -471.308E-03        -3.73012     102.229E-03        -1.23690    -471.308E-03         2.91190              0.              0.              0.              0.              0.              0.              0.     1.16905E+06     977.750E+03     295.726E+03     961.348E+03     503.425E+03     977.750E+03     368.833E+03             20.
            1951     12.0000E-03     158.207E-03         2.92210    -429.740E-03        -4.00191    -58.4323E-03        -1.02138    -429.740E-03         3.54533              0.              0.              0.              0.              0.              0.              0.     1.19555E+06     1.00806E+06     390.285E+03     947.209E+03     638.624E+03     1.00806E+06     367.804E+03             20.
            1952     13.0000E-03     158.208E-03         2.68754    -393.916E-03        -3.54862     127.766E-03    -988.845E-03    -393.916E-03         5.22808              0.              0.              0.              0.              0.              0.              0.     1.25865E+06     1.03713E+06     460.819E+03     917.530E+03     801.937E+03     1.03713E+06     387.904E+03             20.
            1953     14.0000E-03     158.209E-03         2.09635    -363.454E-03        -2.74698    -78.5150E-03    -572.109E-03    -363.454E-03         3.86677              0.              0.              0.              0.              0.              0.              0.     1.29399E+06     1.03188E+06     536.853E+03     863.541E+03     967.306E+03     1.03188E+06     372.806E+03         20.0106
            1954     15.0000E-03     158.210E-03         2.46180    -350.952E-03        -2.92534    -285.075E-03    -178.473E-03    -350.952E-03         4.80000              0.              0.              0.              0.              0.              0.              0.     1.12627E+06     652.634E+03     402.457E+03     780.839E+03     763.319E+03     637.207E+03     338.827E+03         20.1500
            1955     16.0000E-03     158.209E-03         1.67908    -344.191E-03        -2.08297    -201.051E-03    -202.840E-03    -344.191E-03         2.93605              0.              0.              0.              0.              0.              0.              0.     740.301E+03    -542.763E+03    -725.354E+03     626.145E+03    -428.606E+03    -725.354E+03     245.675E+03         20.6146
            1956     17.0001E-03     158.210E-03         1.03356    -324.011E-03        -1.66732     207.230E-03    -840.988E-03    -324.011E-03         1.61993              0.              0.              0.              0.              0.              0.              0.     378.479E+03    -2.89284E+06    -3.25044E+06     368.235E+03    -2.88259E+06    -3.25044E+06     129.971E+03         21.4829
            1957     1.00000E-03     159.229E-03         17.1321        -3.90100        -14.4253         10.0950        -2.26741        -9.02178        -5.91278              0.              0.              0.              0.              0.              0.              0.     926.571E+03     582.830E+03     191.803E+03     806.675E+03     311.699E+03     582.830E+03     143.140E+03             20.
            1958     2.00000E-03     159.221E-03         7.36204     147.186E-03        -9.34971        -1.53083    -456.844E-03     147.186E-03        -1.49932              0.              0.              0.              0.              0.              0.              0.     941.314E+03     724.838E+03     264.287E+03     742.244E+03     463.358E+03     724.838E+03     243.044E+03             20.
            1959     3.00000E-03     159.220E-03         5.87288    -382.741E-03        -7.11596        -1.09311    -149.963E-03    -382.741E-03        -2.23055              0.              0.              0.              0.              0.              0.              0.     954.206E+03     723.514E+03     225.417E+03     776.527E+03     403.096E+03     723.514E+03     278.915E+03             20.
            1960     4.00001E-03     159.218E-03         4.47012    -588.859E-03        -5.77352        -1.30914     5.73345E-03    -588.859E-03    -385.593E-03              0.              0.              0.              0.              0.              0.              0.     968.815E+03     732.624E+03     171.873E+03     810.524E+03     330.164E+03     732.624E+03     290.211E+03             20.
            1961     5.00001E-03     159.217E-03         3.81718    -744.330E-03        -4.75203        -1.40718     472.324E-03    -744.330E-03     937.592E-03              0.              0.              0.              0.              0.              0.              0.     999.018E+03     749.566E+03     125.077E+03     832.229E+03     291.866E+03     749.566E+03     327.851E+03             20.
            1962     6.00001E-03     159.211E-03         2.75386    -817.338E-03        -3.37440    -905.150E-03     284.611E-03    -817.338E-03     94.9790E-03              0.              0.              0.              0.              0.              0.              0.     1.00454E+06     765.056E+03     104.618E+03     857.558E+03     251.596E+03     765.056E+03     316.170E+03             20.
            1963     7.00002E-03     159.211E-03         2.89804    -766.587E-03        -3.42578     42.3171E-03    -570.059E-03    -766.587E-03    -527.810E-03              0.              0.              0.              0.              0.              0.              0.     1.08137E+06     810.661E+03     102.437E+03     938.491E+03     245.314E+03     810.661E+03     328.034E+03             20.
            1964     8.00002E-03     159.212E-03         2.95696    -620.997E-03        -3.51511     785.455E-03        -1.34360    -620.997E-03        -1.14551              0.              0.              0.              0.              0.              0.              0.     1.08105E+06     846.925E+03     137.701E+03     965.314E+03     253.432E+03     846.925E+03     297.523E+03             20.
            1965     9.00002E-03     159.210E-03         2.84154    -456.816E-03        -3.66465     922.298E-03        -1.74541    -456.816E-03     753.243E-03              0.              0.              0.              0.              0.              0.              0.     1.06783E+06     864.547E+03     152.213E+03     943.785E+03     276.257E+03     864.547E+03     302.253E+03             20.
            1966     10.0000E-03     159.207E-03         2.90714    -319.384E-03        -3.96772     905.177E-03        -1.96576    -319.384E-03         2.14508              0.              0.              0.              0.              0.              0.              0.     1.08892E+06     896.772E+03     214.788E+03     938.030E+03     365.681E+03     896.772E+03     315.363E+03             20.
            1967     11.0000E-03     159.205E-03         2.70845    -218.706E-03        -3.89632     654.834E-03        -1.84270    -218.706E-03         2.58430              0.              0.              0.              0.              0.              0.              0.     1.12393E+06     929.074E+03     283.561E+03     928.895E+03     478.596E+03     929.074E+03     352.089E+03             20.
            1968     12.0000E-03     159.205E-03         2.41807    -248.459E-03        -3.46505    -56.8268E-03        -1.06459    -174.018E-03         5.54069              0.              0.              0.              0.              0.              0.              0.     1.16313E+06     965.917E+03     384.838E+03     901.751E+03     646.219E+03     965.917E+03     360.466E+03             20.
            1969     13.0000E-03     159.207E-03         2.71711    -249.339E-03        -3.50798    -333.843E-03    -531.474E-03    -174.898E-03         5.99745              0.              0.              0.              0.              0.              0.              0.     1.25942E+06     1.00249E+06     447.725E+03     885.537E+03     821.609E+03     1.00249E+06     402.517E+03             20.
            1970     14.0000E-03     159.209E-03         2.68184    -174.931E-03        -3.29315    -14.9329E-03    -596.374E-03    -174.931E-03         5.61415              0.              0.              0.              0.              0.              0.              0.     1.33697E+06     1.00814E+06     517.734E+03     847.643E+03     1.00706E+06     1.00814E+06     394.670E+03         20.0106
            1971     15.0000E-03     159.210E-03         2.39094    -150.576E-03        -2.79313     400.689E-03    -802.879E-03    -150.576E-03         4.66804              0.              0.              0.              0.              0.              0.              0.     1.17710E+06     652.884E+03     394.501E+03     770.977E+03     829.971E+03     623.537E+03     354.772E+03         20.1500
            1972     16.0000E-03     159.211E-03         1.90143    -114.877E-03        -2.25978     434.125E-03    -792.475E-03    -114.877E-03         2.96788              0.              0.              0.              0.              0.              0.              0.     750.525E+03    -474.379E+03    -732.468E+03     618.584E+03    -342.439E+03    -732.468E+03     267.658E+03         20.6146
            1973     17.0001E-03     159.212E-03     920.615E-03    -90.8307E-03        -1.32756     140.421E-03    -547.370E-03    -90.8307E-03         1.03748              0.              0.              0.              0.              0.              0.              0.     360.858E+03    -2.79416E+06    -3.25758E+06     346.208E+03    -2.77951E+06    -3.25758E+06     145.487E+03         21.4829
            1974     1.00000E-03     160.227E-03         16.2014        -1.67533        -15.5107         8.86743         3.32108        -13.1731        -3.83659              0.              0.              0.              0.              0.              0.              0.     933.992E+03     386.236E+03     154.571E+03     812.401E+03     276.162E+03     386.236E+03     122.894E+03             20.
            1975     2.00000E-03     160.222E-03         7.82907        -2.08344        -7.30459        -1.89219         2.41667        -2.08344         2.42745              0.              0.              0.              0.              0.              0.              0.     794.579E+03     624.026E+03     282.960E+03     619.365E+03     458.174E+03     624.026E+03     221.609E+03             20.
            1976     3.00001E-03     160.219E-03         6.64102        -1.82830        -6.02688    -604.236E-03         1.21838        -1.82830    -745.570E-03              0.              0.              0.              0.              0.              0.              0.     845.387E+03     615.715E+03     213.917E+03     656.743E+03     402.561E+03     615.715E+03     269.620E+03             20.
            1977     4.00001E-03     160.218E-03         4.15575        -1.47569        -4.16487    -298.239E-03     289.119E-03        -1.47569    -336.709E-03              0.              0.              0.              0.              0.              0.              0.     860.252E+03     619.817E+03     169.734E+03     662.644E+03     367.343E+03     619.817E+03     303.659E+03             20.
            1978     5.00001E-03     160.218E-03         3.77493        -1.18270        -3.68915     264.722E-03    -178.941E-03        -1.18270     12.1697E-03              0.              0.              0.              0.              0.              0.              0.     918.833E+03     639.652E+03     112.365E+03     743.796E+03     287.402E+03     639.652E+03     329.944E+03             20.
            1979     6.00001E-03     160.214E-03         3.21748    -924.949E-03        -3.21784     421.726E-03    -422.087E-03    -924.949E-03     239.852E-03              0.              0.              0.              0.              0.              0.              0.     952.988E+03     659.302E+03     45.8486E+03     807.228E+03     191.609E+03     659.302E+03     317.993E+03             20.
            1980     7.00002E-03     160.214E-03         3.28084    -686.985E-03        -3.39889         1.07166        -1.18972    -686.985E-03    -18.5972E-03              0.              0.              0.              0.              0.              0.              0.     958.573E+03     708.631E+03     94.4944E+03     845.205E+03     207.863E+03     708.631E+03     280.711E+03             20.
            1981     8.00002E-03     160.211E-03         3.62702    -440.483E-03        -3.88998         1.50118        -1.76414    -440.483E-03     236.901E-03              0.              0.              0.              0.              0.              0.              0.     971.418E+03     751.282E+03     118.240E+03     868.369E+03     221.288E+03     751.282E+03     259.370E+03             20.
            1982     9.00002E-03     160.207E-03         3.05423    -257.243E-03        -3.61131     867.244E-03        -1.42433    -257.243E-03         1.20323              0.              0.              0.              0.              0.              0.              0.     961.185E+03     778.285E+03     149.687E+03     871.911E+03     238.960E+03     778.285E+03     240.958E+03             20.
            1983     10.0000E-03     160.206E-03         2.76612    -135.893E-03        -3.54869         1.04956        -1.83213    -135.893E-03         1.65495              0.              0.              0.              0.              0.              0.              0.     985.048E+03     818.326E+03     229.312E+03     873.505E+03     340.855E+03     818.326E+03     267.306E+03             20.
            1984     11.0000E-03     160.206E-03         2.82451    -23.0727E-03        -3.69521         1.16001        -2.03071    -23.0727E-03         2.19555              0.              0.              0.              0.              0.              0.              0.     1.04743E+06     854.397E+03     274.441E+03     885.777E+03     436.089E+03     854.397E+03     308.087E+03             20.
            1985     12.0000E-03     160.204E-03         2.15827    -31.4273E-03        -2.94894     340.504E-03        -1.20561     43.0143E-03         4.66401              0.              0.              0.              0.              0.              0.              0.     1.12918E+06     896.359E+03     338.022E+03     864.125E+03     603.072E+03     896.359E+03     367.461E+03             20.
            1986     13.0000E-03     160.205E-03         2.41190    -22.5463E-03        -3.00001    -43.7931E-03    -618.762E-03     51.8953E-03         5.16621              0.              0.              0.              0.              0.              0.              0.     1.23307E+06     944.423E+03     426.383E+03     827.526E+03     831.930E+03     944.423E+03     397.886E+03             20.
            1987     14.0000E-03     160.207E-03         2.75400     56.4335E-03        -3.16730     274.664E-03    -687.972E-03     56.4335E-03         5.59109              0.              0.              0.              0.              0.              0.              0.     1.36876E+06     961.136E+03     475.575E+03     805.583E+03     1.03875E+06     961.136E+03     425.253E+03         20.0106
            1988     15.0000E-03     160.209E-03         2.52438     80.3462E-03        -2.84448     548.132E-03    -868.238E-03     80.3462E-03         5.00348              0.              0.              0.              0.              0.              0.              0.     1.23107E+06     617.875E+03     371.086E+03     737.298E+03     894.095E+03     588.634E+03     394.557E+03         20.1500
            1989     16.0000E-03     160.211E-03         2.16497     116.892E-03        -2.34572     774.526E-03    -955.280E-03     116.892E-03         3.59481              0.              0.              0.              0.              0.              0.              0.     799.311E+03    -454.872E+03    -756.590E+03     592.926E+03    -248.488E+03    -756.590E+03     322.686E+03         20.6146
            1990     17.0001E-03     160.211E-03         1.13096     147.732E-03        -1.20138     490.361E-03    -560.788E-03     147.732E-03         1.48881              0.              0.              0.              0.              0.              0.              0.     359.293E+03    -2.70684E+06    -3.27573E+06     337.730E+03    -2.68528E+06    -3.27573E+06     179.919E+03         21.4829
            1991    1000.000E-06     161.227E-03         14.8069         1.07036        -17.1604         11.7098         4.08650        -17.0795         1.19227              0.              0.              0.              0.              0.              0.              0.     773.185E+03     323.705E+03     57.6539E+03     673.008E+03      265.98E+03     215.556E+03     75.5214E+03         20.0000
            1992     2.00000E-03     161.224E-03         5.12161        -2.25334        -3.91525        -1.60588         3.01376        -2.45485         3.90646              0.              0.              0.              0.              0.              0.              0.     670.868E+03     485.112E+03     253.584E+03     520.315E+03     404.137E+03     485.112E+03     125.924E+03             20.
            1993     3.00000E-03     161.222E-03         5.10352        -2.14949        -3.84341        -1.58467         2.84477        -2.14949         3.19361              0.              0.              0.              0.              0.              0.              0.     706.217E+03     484.764E+03     181.982E+03     535.780E+03     352.419E+03     484.764E+03     216.073E+03             20.
            1994     4.00001E-03     161.219E-03         3.62330        -1.90147        -2.71152    -665.217E-03         1.57700        -1.90147         1.01464              0.              0.              0.              0.              0.              0.              0.     742.235E+03     498.412E+03     130.215E+03     568.370E+03     304.080E+03     498.412E+03     261.885E+03             20.
            1995     5.00001E-03     161.216E-03         2.97323        -1.47588        -2.17555         1.23679    -439.112E-03        -1.47588         1.67501              0.              0.              0.              0.              0.              0.              0.     796.239E+03     524.885E+03     79.3353E+03     643.515E+03     232.060E+03     524.885E+03     285.170E+03             20.
            1996     6.00001E-03     161.211E-03         2.44892    -961.123E-03        -1.99677         1.96002        -1.50787    -961.123E-03    -131.549E-03              0.              0.              0.              0.              0.              0.              0.     855.599E+03     562.939E+03     41.5736E+03     718.448E+03     178.724E+03     562.939E+03     287.407E+03             20.
            1997     7.00001E-03     161.211E-03         2.93420    -527.545E-03        -2.86265         2.13501        -2.06346    -527.545E-03        -1.26507              0.              0.              0.              0.              0.              0.              0.     844.799E+03     603.996E+03     92.8022E+03     741.562E+03     196.039E+03     603.996E+03     233.761E+03             20.
            1998     8.00002E-03     161.209E-03         2.99821    -214.692E-03        -3.07223         1.75251        -1.82654    -214.692E-03    -318.727E-03              0.              0.              0.              0.              0.              0.              0.     854.008E+03     638.882E+03     122.852E+03     772.440E+03     204.419E+03     638.882E+03     201.995E+03             20.
            1999     9.00002E-03     161.207E-03         1.75530    -33.5240E-03        -2.09771         1.02156        -1.36397    -33.5240E-03         1.77440              0.              0.              0.              0.              0.              0.              0.     867.679E+03     670.947E+03     149.625E+03     806.312E+03     210.993E+03     670.947E+03     183.566E+03             20.
            2000     10.0000E-03     161.206E-03         1.30762     65.1763E-03        -1.68481     873.668E-03        -1.25086     65.1763E-03         1.03035              0.              0.              0.              0.              0.              0.              0.     897.204E+03     708.485E+03     193.524E+03     817.603E+03     273.125E+03     708.485E+03     212.666E+03             20.
            2001     11.0000E-03     161.203E-03         1.52461     131.994E-03        -1.93081     717.104E-03        -1.12331     131.994E-03         2.88807              0.              0.              0.              0.              0.              0.              0.     944.543E+03     746.878E+03     243.409E+03     809.919E+03     378.033E+03     746.878E+03     270.977E+03             20.
            2002     12.0000E-03     161.203E-03         2.43289     180.675E-03        -2.79121     712.134E-03        -1.07045     180.675E-03         4.86707              0.              0.              0.              0.              0.              0.              0.     1.05233E+06     798.481E+03     300.371E+03     807.916E+03     544.784E+03     798.481E+03     346.944E+03             20.
            2003     13.0000E-03     161.203E-03         2.83325     235.366E-03        -3.06565         1.07877        -1.31117     235.366E-03         5.15446              0.              0.              0.              0.              0.              0.              0.     1.20251E+06     857.719E+03     366.560E+03     782.130E+03     786.938E+03     857.719E+03     408.491E+03             20.
            2004     14.0000E-03     161.205E-03         2.95557     293.563E-03        -3.18569         1.00353        -1.23365     293.563E-03         5.44167              0.              0.              0.              0.              0.              0.              0.     1.37753E+06     890.311E+03     420.407E+03     757.146E+03     1.04079E+06     890.311E+03     455.044E+03         20.0106
            2005     15.0000E-03     161.209E-03         2.85779     336.273E-03        -3.00822     837.558E-03    -987.987E-03     336.273E-03         5.45560              0.              0.              0.              0.              0.              0.              0.     1.31231E+06     564.405E+03     308.183E+03     702.804E+03     944.512E+03     537.586E+03     468.662E+03         20.1500
            2006     16.0000E-03     161.211E-03         1.91219     362.356E-03        -1.97081     645.286E-03    -703.908E-03     362.356E-03         3.47998              0.              0.              0.              0.              0.              0.              0.     847.357E+03    -437.491E+03    -792.628E+03     560.036E+03    -150.169E+03    -792.628E+03     390.503E+03         20.6146
            2007     17.0001E-03     161.212E-03         1.34144     362.167E-03        -1.14019     46.8816E-03     154.368E-03     362.167E-03         1.97076              0.              0.              0.              0.              0.              0.              0.     366.819E+03    -2.58437E+06    -3.29284E+06     330.010E+03    -2.54756E+06    -3.29284E+06     224.638E+03         21.4829
            2008     1.00000E-03     162.226E-03         18.9102     210.598E-03        -20.1601         14.1213         3.95806        -19.1187    -291.734E-03              0.              0.              0.              0.              0.              0.              0.     639.728E+03     205.457E+03    -71.3657E+03     553.923E+03     249.645E+03    -29.7486E+03     60.1834E+03             20.
            2009     2.00000E-03     162.224E-03         5.15221        -1.85201        -4.02075        -2.10123         3.80211        -2.42143         1.26988              0.              0.              0.              0.              0.              0.              0.     520.081E+03     308.904E+03     198.917E+03     359.787E+03     360.432E+03     307.682E+03     96.6815E+03             20.
            2010     3.00000E-03     162.220E-03         4.02148        -1.69353        -2.78342    -702.211E-03         2.35294        -2.10620     831.900E-03              0.              0.              0.              0.              0.              0.              0.     519.011E+03     317.914E+03     161.321E+03     395.263E+03     286.290E+03     316.692E+03     154.941E+03             20.
            2011     4.00000E-03     162.217E-03         2.89985        -1.43337        -2.07105     81.6605E-03     969.457E-03        -1.65569         1.43874              0.              0.              0.              0.              0.              0.              0.     575.207E+03     344.881E+03     92.7677E+03     472.867E+03     195.108E+03     344.881E+03     189.055E+03             20.
            2012     5.00001E-03     162.213E-03         3.42610        -1.02672        -2.70715         1.15387    -257.371E-03        -1.20427         3.34769              0.              0.              0.              0.              0.              0.              0.     590.130E+03     380.700E+03     83.9856E+03     501.344E+03     172.772E+03     380.700E+03     185.153E+03             20.
            2013     6.00001E-03     162.213E-03         3.32069    -751.612E-03        -2.87043         1.86236        -1.41210    -751.612E-03         1.54531              0.              0.              0.              0.              0.              0.              0.     612.928E+03     426.163E+03     123.654E+03     543.243E+03     193.340E+03     426.163E+03     164.162E+03             20.
            2014     7.00001E-03     162.211E-03         2.98928    -371.425E-03        -2.83388         1.90919        -1.75378    -371.425E-03    -997.882E-03              0.              0.              0.              0.              0.              0.              0.     676.320E+03     460.863E+03     103.188E+03     626.028E+03     153.479E+03     460.863E+03     134.472E+03             20.
            2015     8.00001E-03     162.207E-03         2.93218    -105.617E-03        -2.91614         1.54756        -1.53152    -105.617E-03    -766.923E-03              0.              0.              0.              0.              0.              0.              0.     702.539E+03     490.114E+03     110.024E+03     670.714E+03     141.848E+03     490.114E+03     114.128E+03             20.
            2016     9.00001E-03     162.206E-03         1.97705     64.7807E-03        -2.04303         1.27475        -1.34074     64.7807E-03    -484.637E-03              0.              0.              0.              0.              0.              0.              0.     722.544E+03     526.384E+03     143.112E+03     688.705E+03     176.951E+03     526.384E+03     121.390E+03             20.
            2017     10.0000E-03     162.206E-03         1.32612     173.697E-03        -1.35307         1.00750        -1.03445     173.697E-03    -581.499E-03              0.              0.              0.              0.              0.              0.              0.     741.831E+03     556.893E+03     160.769E+03     696.423E+03     206.177E+03     556.893E+03     142.357E+03             20.
            2018     11.0000E-03     162.204E-03         1.87202     233.865E-03        -1.77298     640.505E-03    -541.465E-03     233.865E-03         1.98383              0.              0.              0.              0.              0.              0.              0.     781.365E+03     601.636E+03     226.198E+03     697.759E+03     309.804E+03     601.636E+03     195.416E+03             20.
            2019     12.0000E-03     162.205E-03         2.50452     278.881E-03        -2.34853     915.663E-03    -759.666E-03     278.881E-03         3.50101              0.              0.              0.              0.              0.              0.              0.     908.111E+03     661.790E+03     278.141E+03     718.306E+03     467.947E+03     661.790E+03     279.511E+03             20.
            2020     13.0000E-03     162.205E-03         2.61378     351.123E-03        -2.43111         1.53906        -1.35639     351.123E-03         3.08241              0.              0.              0.              0.              0.              0.              0.     1.11149E+06     738.665E+03     328.845E+03     750.469E+03     689.867E+03     738.665E+03     384.245E+03             20.
            2021     14.0000E-03     162.205E-03         2.49672     428.037E-03        -2.39963         1.30042        -1.20334     428.037E-03         3.20913              0.              0.              0.              0.              0.              0.              0.     1.35141E+06     792.362E+03     364.777E+03     727.271E+03     988.915E+03     792.362E+03     467.634E+03         20.0106
            2022     15.0000E-03     162.208E-03         1.69038     472.828E-03        -1.68945     880.037E-03    -879.115E-03     472.828E-03         1.53704              0.              0.              0.              0.              0.              0.              0.     1.37098E+06     498.042E+03     234.360E+03     666.963E+03     971.131E+03     465.287E+03     525.319E+03         20.1500
            2023     16.0000E-03     162.212E-03         1.23392     487.308E-03        -1.19535     515.481E-03    -476.915E-03     487.308E-03     491.523E-03              0.              0.              0.              0.              0.              0.              0.     900.511E+03    -402.416E+03    -834.053E+03     546.425E+03    -48.3302E+03    -834.053E+03     461.323E+03         20.6146
            2024     17.0000E-03     162.212E-03         1.25650     468.282E-03    -925.278E-03    -209.911E-03     541.137E-03     468.282E-03     178.144E-03              0.              0.              0.              0.              0.              0.              0.     368.692E+03    -2.40850E+06    -3.30812E+06     307.670E+03    -2.34748E+06    -3.30812E+06     276.226E+03         21.4829
            2025     999.999E-06     163.227E-03         16.5546    -195.367E-03        -16.7401         10.6258         4.34343        -15.3501         2.62445              0.              0.              0.              0.              0.              0.              0.     469.816E+03     9.73576E+03    -170.429E+03     303.262E+03     124.175E+03    -118.314E+03     46.1712E+03             20.
            2026     2.00000E-03     163.222E-03         5.31802        -1.87410        -3.71537        -2.05876         4.11267        -2.32537         2.94919              0.              0.              0.              0.              0.              0.              0.     350.562E+03     146.963E+03     84.6905E+03     147.657E+03     297.752E+03     136.806E+03     88.2537E+03             20.
            2027     3.00000E-03     163.220E-03         2.93265        -1.05441        -1.87223     461.945E-03         1.41629        -1.87223     414.173E-03              0.              0.              0.              0.              0.              0.              0.     344.547E+03     148.219E+03     69.3429E+03     225.294E+03     198.753E+03     138.062E+03     127.513E+03             20.
            2028     4.00000E-03     163.218E-03         1.91279    -617.004E-03        -1.43604         1.42858    -407.722E-03        -1.16111     896.256E-03              0.              0.              0.              0.              0.              0.              0.     386.088E+03     162.862E+03     30.8792E+03     256.957E+03     160.011E+03     162.862E+03     149.484E+03             20.
            2029     5.00000E-03     163.215E-03         2.66685    -458.137E-03        -2.17908         1.39412    -728.801E-03    -635.688E-03         2.09285              0.              0.              0.              0.              0.              0.              0.     366.282E+03     191.742E+03     73.6968E+03     276.274E+03     163.704E+03     191.742E+03     115.214E+03             20.
            2030     6.00000E-03     163.212E-03         2.49064    -313.926E-03        -2.32613         1.12230    -957.789E-03    -313.926E-03         1.38977              0.              0.              0.              0.              0.              0.              0.     364.800E+03     222.195E+03     113.739E+03     317.739E+03     160.799E+03     222.195E+03     74.7548E+03             20.
            2031     7.00000E-03     163.211E-03         1.62262    -120.506E-03        -1.63444     920.838E-03    -932.656E-03    -120.506E-03    -104.550E-03              0.              0.              0.              0.              0.              0.              0.     408.725E+03     249.886E+03     93.2587E+03     400.591E+03     101.393E+03     249.886E+03     34.7704E+03             20.
            2032     8.00001E-03     163.206E-03         1.86991    -3.35967E-03        -1.88168     691.915E-03    -703.685E-03    -3.35967E-03     479.660E-03              0.              0.              0.              0.              0.              0.              0.     473.527E+03     282.228E+03     59.9479E+03     462.131E+03     71.3439E+03     282.228E+03     11.5683E+03             20.
            2033     9.00001E-03     163.206E-03         1.77358     89.4303E-03        -1.72310     984.613E-03    -934.135E-03     89.4303E-03     98.7004E-03              0.              0.              0.              0.              0.              0.              0.     501.318E+03     323.508E+03     93.6498E+03     488.989E+03     105.979E+03     323.508E+03     13.9116E+03             20.
            2034     10.0000E-03     163.203E-03         1.45653     184.730E-03        -1.19827         1.09661    -838.338E-03     184.730E-03     183.165E-03              0.              0.              0.              0.              0.              0.              0.     518.506E+03     361.206E+03     135.621E+03     506.049E+03     148.078E+03     361.206E+03     56.8605E+03             20.
            2035     11.0000E-03     163.203E-03         1.85736     252.999E-03        -1.42484     750.694E-03    -318.173E-03     252.999E-03         1.62474              0.              0.              0.              0.              0.              0.              0.      590.04E+03     411.040E+03     178.243E+03     543.366E+03     224.918E+03     411.040E+03     117.000E+03             20.
            2036     12.0000E-03     163.202E-03         2.01595     297.477E-03        -1.44270     821.959E-03    -248.714E-03     297.477E-03         2.10330              0.              0.              0.              0.              0.              0.              0.     728.943E+03     484.080E+03     243.365E+03     609.101E+03     363.207E+03     484.080E+03     202.121E+03             20.
            2037     13.0000E-03     163.205E-03         1.75462     337.396E-03        -1.20242     809.347E-03    -257.149E-03     337.396E-03         1.12626              0.              0.              0.              0.              0.              0.              0.     968.840E+03     576.491E+03     284.232E+03     678.458E+03     574.614E+03     576.491E+03     330.198E+03             20.
            2038     14.0000E-03     163.206E-03         1.61474     375.214E-03        -1.17766     932.219E-03    -495.137E-03     375.214E-03     897.688E-03              0.              0.              0.              0.              0.              0.              0.     1.29094E+06     658.823E+03     305.400E+03     702.160E+03     894.181E+03     658.823E+03     474.368E+03         20.0106
            2039     15.0000E-03     163.208E-03         1.11385     407.424E-03    -883.333E-03     787.813E-03    -557.292E-03     407.424E-03    -489.861E-03              0.              0.              0.              0.              0.              0.              0.     1.38219E+06     398.378E+03     179.046E+03     656.645E+03     939.788E+03     363.183E+03     562.518E+03         20.1500
            2040     16.0000E-03     163.213E-03     972.314E-03     420.951E-03    -854.575E-03     456.820E-03    -339.081E-03     420.951E-03        -1.45165              0.              0.              0.              0.              0.              0.              0.     980.104E+03    -386.648E+03    -890.205E+03     546.542E+03     46.9141E+03    -890.205E+03     541.668E+03         20.6146
            2041     17.0000E-03     163.210E-03     972.674E-03     414.785E-03    -821.044E-03     168.565E-03    -16.9350E-03     414.785E-03        -1.39784              0.              0.              0.              0.              0.              0.              0.     418.714E+03    -2.18667E+06    -3.30951E+06     323.794E+03    -2.09175E+06    -3.30951E+06     343.991E+03         21.4829
            2042     1.00000E-03     164.227E-03         9.77174    -211.060E-03        -9.30308         6.56361         2.39361        -8.69963         6.90068              0.              0.              0.              0.              0.              0.              0.     205.665E+03    -122.618E+03    -264.356E+03     77.2755E+03    -25.9699E+03    -232.615E+03    -2.88156E+03         20.0000
            2043     2.00000E-03     164.226E-03         2.96761    -919.172E-03        -1.63684    -784.564E-03         2.22955        -1.03338         3.22968              0.              0.              0.              0.              0.              0.              0.     204.176E+03    -29.8134E+03    -101.425E+03    -63.1992E+03     175.683E+03    -39.5461E+03     42.4186E+03             20.
            2044     3.00000E-03     164.220E-03         1.96031    -382.473E-03        -1.09497     132.716E-03         1.16861    -818.470E-03     430.498E-03              0.              0.              0.              0.              0.              0.              0.     234.854E+03    -44.1418E+03    -108.022E+03    -41.1263E+03     177.439E+03    -53.6234E+03     47.7840E+03             20.
            2045     4.00000E-03     164.219E-03         2.29343    -210.195E-03        -1.64460     514.701E-03     455.913E-03    -531.982E-03     997.826E-03              0.              0.              0.              0.              0.              0.              0.     211.243E+03    -35.3800E+03    -79.4114E+03    -9.72427E+03     155.999E+03    -49.8231E+03     70.8133E+03             20.
            2046     5.00000E-03     164.215E-03         2.58536    -309.714E-03        -1.98388     613.667E-03    -12.1853E-03    -309.714E-03    -441.084E-03              0.              0.              0.              0.              0.              0.              0.     182.657E+03    -3.69388E+03    -59.1249E+03     29.1664E+03     127.056E+03    -36.3834E+03     70.3567E+03             20.
            2047     6.00000E-03     164.210E-03         1.91272    -119.202E-03        -1.72009         1.05956    -866.929E-03    -119.202E-03        -2.47918              0.              0.              0.              0.              0.              0.              0.     157.706E+03     37.0644E+03    -34.4879E+03     91.9051E+03     82.1216E+03    -13.7438E+03     36.4310E+03             20.
            2048     7.00000E-03     164.210E-03         1.20750     37.6079E-03        -1.38551     856.710E-03        -1.03472     37.6079E-03        -1.50782              0.              0.              0.              0.              0.              0.              0.     178.853E+03     60.1653E+03    -9.52097E+03     141.812E+03     69.4742E+03     18.2115E+03    -12.0072E+03             20.
            2049     8.00000E-03     164.208E-03         1.28009     134.174E-03        -1.44297     746.206E-03    -909.093E-03     134.174E-03     5.73786E-03              0.              0.              0.              0.              0.              0.              0.     242.990E+03     69.4227E+03    -19.8902E+03     192.924E+03     50.6248E+03     48.9735E+03    -50.7133E+03             20.
            2050     9.00000E-03     164.203E-03         1.27268     194.563E-03        -1.34503     597.518E-03    -669.863E-03     194.563E-03     794.918E-03              0.              0.              0.              0.              0.              0.              0.     268.990E+03     89.4550E+03    -8.89975E+03     241.219E+03     29.3822E+03     78.9445E+03    -60.7193E+03             20.
            2051    10.00000E-03     164.206E-03         1.25373     219.568E-03    -979.533E-03     273.962E-03     235.178E-06     219.568E-03         1.13992              0.              0.              0.              0.              0.              0.              0.     292.837E+03     132.307E+03     39.5277E+03     280.776E+03     62.5139E+03     121.382E+03    -19.0958E+03             20.
            2052     11.0000E-03     164.202E-03         1.48095     228.375E-03    -884.480E-03     362.716E-03     233.750E-03     228.375E-03         1.46312              0.              0.              0.              0.              0.              0.              0.     356.460E+03     191.437E+03     91.3763E+03     331.037E+03     132.897E+03     175.340E+03     28.5165E+03             20.
            2053     12.0000E-03     164.204E-03         1.48170     235.297E-03    -734.195E-03     256.584E-03     490.918E-03     235.297E-03         1.26299              0.              0.              0.              0.              0.              0.              0.     499.706E+03     259.129E+03     167.778E+03     434.498E+03     238.158E+03     253.957E+03     103.893E+03             20.
            2054     13.0000E-03     164.205E-03         1.19495     233.457E-03    -364.142E-03     166.977E-03     663.829E-03     233.457E-03     574.378E-03              0.              0.              0.              0.              0.              0.              0.     771.526E+03     359.925E+03     205.202E+03     539.737E+03     436.990E+03     359.925E+03     267.201E+03             20.
            2055     14.0000E-03     164.207E-03         1.09776     245.988E-03    -479.675E-03     675.932E-03    -57.8510E-03     245.988E-03     209.804E-03              0.              0.              0.              0.              0.              0.              0.     1.16289E+06     466.790E+03     211.263E+03     617.546E+03     756.602E+03     466.790E+03     466.949E+03         20.0106
            2056     15.0000E-03     164.211E-03         1.18693     281.887E-03    -800.535E-03     907.020E-03    -520.622E-03     281.887E-03     333.767E-03              0.              0.              0.              0.              0.              0.              0.     1.37320E+06     268.606E+03     77.2294E+03     651.819E+03     848.502E+03     218.720E+03     612.668E+03         20.1500
            2057     16.0000E-03     164.212E-03     853.966E-03     306.767E-03    -742.545E-03     441.265E-03    -329.844E-03     306.767E-03    -590.019E-03              0.              0.              0.              0.              0.              0.              0.     1.07266E+06    -388.610E+03    -970.549E+03     562.401E+03     121.649E+03    -970.549E+03     636.931E+03         20.6146
            2058     17.0000E-03     164.211E-03     566.850E-03     270.270E-03    -734.425E-03     182.511E-03    -387.084E-03     307.269E-03    -515.874E-03              0.              0.              0.              0.              0.              0.              0.     486.842E+03    -1.91212E+06    -3.31190E+06     332.569E+03    -1.75785E+06    -3.31190E+06     433.308E+03         21.4829
            2059     999.997E-06     165.233E-03         5.95503     570.310E-03        -5.49364         1.51698         2.02333        -2.50861         3.33727              0.              0.              0.              0.              0.              0.              0.     4.72258E+03    -249.245E+03    -481.555E+03    -248.160E+03    -130.763E+03    -347.154E+03     8.79391E+03         20.0000
            2060     2.00000E-03     165.225E-03         2.16428     107.142E-03        -1.30689     619.831E-03     630.289E-03    -285.582E-03        -1.55593              0.              0.              0.              0.              0.              0.              0.     134.712E+03    -234.061E+03    -335.737E+03    -307.707E+03     122.323E+03    -249.702E+03    -11.5233E+03             20.
            2061     2.99999E-03     165.220E-03         2.54128     5.08931E-03        -1.61283     171.354E-03     787.940E-03    -25.7538E-03        -3.36679              0.              0.              0.              0.              0.              0.              0.     182.933E+03    -263.214E+03    -333.299E+03    -315.611E+03     180.634E+03    -278.603E+03     4.69696E+03             20.
            2062     4.00000E-03     165.217E-03         2.34713    -29.8119E-03        -1.45654    -318.890E-03         1.20948    -29.8119E-03    -626.188E-03              0.              0.              0.              0.              0.              0.              0.     158.432E+03    -267.374E+03    -318.258E+03    -285.067E+03     151.568E+03    -293.699E+03     15.4537E+03             20.
            2063     4.99999E-03     165.214E-03         2.34514    -90.5449E-03        -1.71396    -328.169E-03     959.351E-03    -90.5449E-03     30.1445E-03              0.              0.              0.              0.              0.              0.              0.     85.0310E+03    -210.956E+03    -284.108E+03    -198.001E+03     72.0759E+03    -284.108E+03    -16.8188E+03             20.
            2064     5.99999E-03     165.212E-03         2.08873    -81.6773E-03        -1.83333     316.933E-03    -61.5334E-03    -81.6773E-03        -2.47231              0.              0.              0.              0.              0.              0.              0.     38.0815E+03    -174.770E+03    -266.473E+03    -150.556E+03     13.8677E+03    -266.473E+03    -47.3297E+03             20.
            2065     6.99999E-03     165.210E-03         1.71499     36.6384E-03        -1.81032         1.23067        -1.32600     36.6384E-03        -2.01299              0.              0.              0.              0.              0.              0.              0.     80.3054E+03    -171.051E+03    -231.210E+03    -126.312E+03     35.5663E+03    -231.210E+03    -85.8115E+03             20.
            2066     7.99999E-03     165.206E-03         1.35078     127.159E-03        -1.64912     927.206E-03        -1.26771     169.318E-03    -865.960E-03              0.              0.              0.              0.              0.              0.              0.     98.7353E+03    -169.038E+03    -205.296E+03    -98.5792E+03     28.2762E+03    -205.296E+03    -105.754E+03             20.
            2067     8.99999E-03     165.205E-03     768.311E-03     168.414E-03    -882.125E-03     98.1543E-03    -254.128E-03     210.574E-03    -538.853E-03              0.              0.              0.              0.              0.              0.              0.     95.2539E+03    -163.233E+03    -197.633E+03    -60.2447E+03    -16.4871E+03    -188.880E+03    -106.424E+03             20.
            2068     9.99999E-03     165.203E-03         1.14457     179.933E-03    -955.976E-03    -309.718E-03     498.312E-03     179.933E-03    -65.0605E-03              0.              0.              0.              0.              0.              0.              0.     115.789E+03    -118.051E+03    -161.515E+03    -19.5478E+03     8.53342E+03    -152.762E+03    -87.2155E+03             20.
            2069     11.0000E-03     165.203E-03         1.65236     124.960E-03        -1.05919    -545.520E-03         1.13869     124.960E-03     285.822E-03              0.              0.              0.              0.              0.              0.              0.     154.546E+03    -53.7108E+03    -103.301E+03     51.7583E+03     49.0772E+03    -103.301E+03    -77.3957E+03             20.
            2070     12.0000E-03     165.202E-03         1.41746     84.1209E-03    -540.313E-03    -162.675E-03         1.03982     84.1209E-03     52.0597E-03              0.              0.              0.              0.              0.              0.              0.     257.374E+03     17.8585E+03    -41.2501E+03     144.991E+03     125.052E+03    -36.0610E+03    -27.4936E+03             20.
            2071     13.0000E-03     165.204E-03         1.14215     90.2008E-03    -285.291E-03     522.286E-03     334.575E-03     90.2008E-03    -280.854E-03              0.              0.              0.              0.              0.              0.              0.     446.268E+03     146.669E+03     33.8067E+03     284.106E+03     274.849E+03     67.7882E+03     127.765E+03             20.
            2072     14.0000E-03     165.209E-03         1.01644     128.960E-03    -311.853E-03     760.401E-03    -55.8153E-03     128.960E-03    -367.560E-03              0.              0.              0.              0.              0.              0.              0.     868.790E+03     239.568E+03     85.2289E+03     458.497E+03     540.580E+03     194.510E+03     365.347E+03         20.0106
            2073     15.0000E-03     165.211E-03         1.12235     179.213E-03    -731.237E-03         1.01920    -628.088E-03     179.213E-03     234.242E-03              0.              0.              0.              0.              0.              0.              0.     1.24195E+06     98.8492E+03    -83.2971E+03     574.048E+03     686.260E+03    -2.80801E+03     607.732E+03         20.1500
            2074     16.0000E-03     165.213E-03     949.599E-03     224.312E-03    -879.219E-03     774.694E-03    -704.314E-03     224.312E-03     55.9203E-03              0.              0.              0.              0.              0.              0.              0.     1.12986E+06    -408.632E+03    -1.10099E+06     541.647E+03     179.579E+03    -1.10099E+06     719.058E+03         20.6146
            2075     17.0000E-03     165.212E-03     441.132E-03     204.008E-03    -770.273E-03     224.559E-03    -590.699E-03     241.006E-03    -146.901E-03              0.              0.              0.              0.              0.              0.              0.     564.192E+03    -1.59151E+06    -3.33396E+06     313.261E+03    -1.34058E+06    -3.33396E+06     537.013E+03         21.4829
            2076     1.00000E-03     166.232E-03         7.57913         1.09430        -7.10793        -5.60933         2.27580         4.89903         4.50515              0.              0.              0.              0.              0.              0.              0.    -122.068E+03    -505.096E+03    -706.938E+03    -655.628E+03    -184.473E+03    -494.001E+03    -24.8862E+03             20.
            2077     1.99999E-03     166.224E-03         3.20397     94.8635E-03        -1.94790     238.796E-03         1.37915    -267.018E-03        -1.80686              0.              0.              0.              0.              0.              0.              0.     138.421E+03    -459.488E+03    -567.765E+03    -549.124E+03     134.624E+03    -474.331E+03    -16.5200E+03             20.
            2078     3.00000E-03     166.220E-03         3.08402    -20.5421E-03        -1.80152     708.728E-03     573.780E-03    -20.5421E-03        -4.09392              0.              0.              0.              0.              0.              0.              0.     124.702E+03    -487.647E+03    -568.557E+03    -532.814E+03     121.918E+03    -520.605E+03     26.8764E+03             20.
            2079     3.99999E-03     166.218E-03         1.87680     177.644E-03    -939.997E-03     791.410E-03     145.394E-03     177.644E-03        -1.28990              0.              0.              0.              0.              0.              0.              0.     133.264E+03    -500.117E+03    -562.836E+03    -528.793E+03     129.219E+03    -530.114E+03     18.5929E+03             20.
            2080     4.99999E-03     166.213E-03         1.04851     239.773E-03    -809.417E-03     103.440E-03     135.656E-03     239.773E-03     180.216E-03              0.              0.              0.              0.              0.              0.              0.     93.9359E+03    -490.137E+03    -539.962E+03    -487.945E+03     83.5808E+03    -531.799E+03    -23.6174E+03             20.
            2081     5.99999E-03     166.211E-03         1.45579     188.784E-03        -1.44604    -248.979E-03     258.722E-03     188.784E-03        -1.76261              0.              0.              0.              0.              0.              0.              0.     35.2110E+03    -458.295E+03    -525.264E+03    -434.401E+03     11.3168E+03    -525.264E+03    -84.7426E+03             20.
            2082     6.99999E-03     166.210E-03         1.68524     144.896E-03        -1.93481     47.6018E-03    -297.171E-03     144.896E-03        -1.32260              0.              0.              0.              0.              0.              0.              0.     54.2441E+03    -454.298E+03    -498.589E+03    -414.316E+03     14.2626E+03    -498.589E+03    -126.918E+03             20.
            2083     7.99998E-03     166.209E-03         1.09191     84.8206E-03        -1.48881    -47.4260E-03    -391.640E-03     126.980E-03    -54.1526E-03              0.              0.              0.              0.              0.              0.              0.     54.8667E+03    -464.028E+03    -482.963E+03    -405.724E+03    -5.35189E+03    -481.048E+03    -157.345E+03             20.
            2084     8.99998E-03     166.205E-03     446.661E-03     54.1029E-03    -666.367E-03    -264.302E-03     2.43566E-03     96.2623E-03    -140.260E-03              0.              0.              0.              0.              0.              0.              0.     12.4899E+03    -443.726E+03    -474.066E+03    -383.361E+03    -49.7889E+03    -472.152E+03    -152.678E+03             20.
            2085     9.99998E-03     166.204E-03         1.23774     47.2772E-03        -1.11140    -535.280E-03     661.619E-03     47.2772E-03     750.005E-03              0.              0.              0.              0.              0.              0.              0.     18.0783E+03    -395.907E+03    -444.799E+03    -353.887E+03    -23.9416E+03    -444.799E+03    -116.246E+03             20.
            2086     11.0000E-03     166.204E-03         1.94054    -18.6680E-03        -1.39769    -829.612E-03         1.37246    -18.6680E-03         1.41902              0.              0.              0.              0.              0.              0.              0.     72.5925E+03    -372.131E+03    -435.000E+03    -336.292E+03     19.1927E+03    -417.440E+03    -123.593E+03             20.
            2087     12.0000E-03     166.204E-03         1.50743    -65.0813E-03    -678.132E-03    -294.129E-03         1.12343    -65.0813E-03     364.347E-03              0.              0.              0.              0.              0.              0.              0.     129.997E+03    -328.334E+03    -396.612E+03    -288.395E+03     72.4980E+03    -379.052E+03    -135.908E+03             20.
            2088     13.0000E-03     166.204E-03         1.26736    -43.2238E-03    -420.311E-03     777.415E-03     69.6337E-03    -43.2238E-03    -494.114E-03              0.              0.              0.              0.              0.              0.              0.     171.033E+03    -197.832E+03    -311.571E+03    -147.158E+03     120.358E+03    -311.571E+03    -50.1782E+03             20.
            2089     14.0000E-03     166.209E-03         1.36579     32.1630E-03    -717.772E-03         1.26784    -619.822E-03     32.1630E-03    -81.4854E-03              0.              0.              0.              0.              0.              0.              0.     432.282E+03    -52.1642E+03    -214.561E+03     88.0632E+03     277.738E+03    -200.244E+03     168.591E+03         20.0106
            2090     15.0000E-03     166.212E-03         1.17229     105.677E-03    -820.509E-03     993.303E-03    -641.519E-03     105.677E-03     448.268E-03              0.              0.              0.              0.              0.              0.              0.     867.374E+03    -110.715E+03    -373.545E+03     306.936E+03     435.406E+03    -359.229E+03     484.453E+03         20.1500
            2091     16.0000E-03     166.211E-03         1.13304     159.241E-03        -1.05592     927.725E-03    -850.610E-03     159.241E-03     523.219E-03              0.              0.              0.              0.              0.              0.              0.     1.02036E+06    -487.682E+03    -1.35501E+06     362.644E+03     170.036E+03    -1.35501E+06     735.076E+03         20.6146
            2092     17.0000E-03     166.211E-03     960.575E-03     203.284E-03        -1.11626     884.151E-03        -1.03984     203.284E-03    -97.6945E-03              0.              0.              0.              0.              0.              0.              0.     598.382E+03    -1.21756E+06    -3.41259E+06     241.285E+03    -860.464E+03    -3.41259E+06     605.133E+03         21.4830
            2093     999.995E-06     167.238E-03         11.7287    -309.719E-03        -10.2039        -9.08181    -270.463E-03         10.5674         4.85476              0.              0.              0.              0.              0.              0.              0.    -146.419E+03    -667.236E+03    -906.144E+03    -898.535E+03    -154.029E+03    -667.236E+03    -64.6111E+03             20.
            2094     2.00000E-03     167.227E-03         2.69908     546.683E-03        -1.18538    -161.824E-03         1.67553     546.683E-03    -354.173E-03              0.              0.              0.              0.              0.              0.              0.     92.6233E+03    -709.638E+03    -811.544E+03    -808.426E+03     89.5054E+03    -709.638E+03    -8.83089E+03             20.
            2095     2.99999E-03     167.222E-03         2.11261     401.791E-03        -1.34152     633.630E-03     137.460E-03     401.791E-03        -2.33774              0.              0.              0.              0.              0.              0.              0.     79.3228E+03    -735.107E+03    -793.311E+03    -770.849E+03     77.9588E+03    -756.205E+03     18.2020E+03             20.
            2096     3.99999E-03     167.219E-03         1.47388     499.900E-03        -1.15182     999.409E-03    -677.346E-03     499.900E-03     32.4982E-03              0.              0.              0.              0.              0.              0.              0.     43.6605E+03    -724.511E+03    -770.649E+03    -731.058E+03     42.0436E+03    -762.486E+03     14.4530E+03             20.
            2097     4.99998E-03     167.214E-03         1.02256     533.329E-03        -1.10437     257.089E-03    -338.905E-03     533.329E-03    -228.129E-03              0.              0.              0.              0.              0.              0.              0.     78.6067E+03    -732.916E+03    -761.338E+03    -739.370E+03     76.8978E+03    -753.175E+03     5.29426E+03             20.
            2098     5.99998E-03     167.212E-03         1.49907     448.343E-03        -1.91242    -231.073E-03    -182.283E-03     448.343E-03        -3.29042              0.              0.              0.              0.              0.              0.              0.     49.1568E+03    -723.065E+03    -754.155E+03    -717.958E+03     44.0502E+03    -754.155E+03    -35.4074E+03             20.
            2099     6.99998E-03     167.212E-03         1.71985     287.951E-03        -2.30907        -1.16056     571.345E-03     287.951E-03        -2.39384              0.              0.              0.              0.              0.              0.              0.     23.8647E+03    -715.335E+03    -749.136E+03    -704.685E+03     13.2152E+03    -749.136E+03    -58.0700E+03             20.
            2100     7.99998E-03     167.208E-03         1.00162     108.450E-03        -1.65778        -1.10689     450.728E-03     108.450E-03     87.5538E-03              0.              0.              0.              0.              0.              0.              0.     27.6059E+03    -728.964E+03    -741.449E+03    -703.334E+03         62.0161    -739.535E+03    -95.7585E+03             20.
            2101     8.99997E-03     167.204E-03     588.062E-03    -9.18484E-03        -1.14352    -760.995E-03     205.537E-03    -9.18484E-03     585.595E-03              0.              0.              0.              0.              0.              0.              0.    -31.4202E+03    -732.256E+03    -754.561E+03    -704.834E+03    -63.3799E+03    -750.024E+03    -113.981E+03             20.
            2102     9.99997E-03     167.205E-03     978.249E-03    -84.0023E-03        -1.15818    -746.976E-03     567.047E-03    -84.0023E-03         1.41405              0.              0.              0.              0.              0.              0.              0.    -24.9706E+03    -721.081E+03    -767.200E+03    -726.108E+03    -40.9572E+03    -746.186E+03    -91.1902E+03             20.
            2103     11.0000E-03     167.204E-03         1.40304    -50.6972E-03    -980.034E-03    -304.721E-03     802.301E-03    -125.273E-03         2.00379              0.              0.              0.              0.              0.              0.              0.     43.4827E+03    -728.881E+03    -799.411E+03    -772.358E+03     28.2454E+03    -740.697E+03    -98.7728E+03             20.
            2104     12.0000E-03     167.203E-03         1.23043    -23.2352E-03    -487.994E-03     115.626E-03     726.980E-03    -123.408E-03     760.740E-03              0.              0.              0.              0.              0.              0.              0.     72.5706E+03    -751.006E+03    -842.472E+03    -812.508E+03     44.5775E+03    -752.977E+03    -129.475E+03             20.
            2105     13.0000E-03     167.205E-03         1.06719    -57.4130E-03    -427.578E-03     705.574E-03    -40.3699E-03    -83.0090E-03     57.1987E-03              0.              0.              0.              0.              0.              0.              0.     51.2106E+03    -731.348E+03    -877.341E+03    -820.334E+03     29.0616E+03    -766.207E+03    -106.695E+03             20.
            2106     14.0000E-03     167.209E-03         1.22292    -13.6727E-03    -816.589E-03         1.07763    -671.303E-03    -13.6727E-03     679.163E-03              0.              0.              0.              0.              0.              0.              0.     103.160E+03    -655.949E+03    -880.285E+03    -752.813E+03     78.7107E+03    -758.971E+03     9.68401E+03         20.0106
            2107     15.0000E-03     167.213E-03         1.23854     56.1295E-03    -846.518E-03     982.975E-03    -590.956E-03     56.1295E-03     763.126E-03              0.              0.              0.              0.              0.              0.              0.     352.852E+03    -671.517E+03    -1.02486E+06    -554.084E+03     176.068E+03    -965.505E+03     267.537E+03         20.1500
            2108     16.0000E-03     167.212E-03         1.23380     115.062E-03        -1.04206         1.01389    -822.148E-03     115.062E-03     190.522E-03              0.              0.              0.              0.              0.              0.              0.     554.987E+03    -735.252E+03    -1.85917E+06    -267.783E+03     87.5174E+03    -1.85917E+06     534.478E+03         20.6146
            2109     17.0000E-03     167.213E-03         1.00766     161.764E-03        -1.00632     797.044E-03    -795.706E-03     161.764E-03    -18.8901E-03              0.              0.              0.              0.              0.              0.              0.     366.566E+03    -802.526E+03    -3.66317E+06    -38.6795E+03    -397.281E+03    -3.66317E+06     471.296E+03         21.4832


