********************************************************************************
Field Output Report, written Mon May  5 21:03:01 2025

Source 1
---------

   ODB: D:/AISI_1020/Vel_10/1020_2a_16_rd_2500_cal_30_v_10_fric_050.odb
   Step: Step-1
   Frame: Increment  16601876: Step Time =    1.998

Loc 1 : Nodal values from source 1

Output sorted by column "Node Label".

Field Output reported at nodes for region: DIE_2A_16_D0_36-1.Region_1
   Computation algorithm: EXTRAPOLATE_COMPUTE_AVERAGE
   Averaged at nodes
   Averaging regions: ODB_REGIONS

      Node Label     COORD.COOR1     COORD.COOR2
                          @Loc 1          @Loc 1
-------------------------------------------------
               1     15.3788E-03     191.736E-03


Field Output reported at nodes for region: DIE_2A_16_D0_36-1.Region_2
   Computation algorithm: EXTRAPOLATE_COMPUTE_AVERAGE
   Averaged at nodes
   Averaging regions: ODB_REGIONS

      Node Label     COORD.COOR1     COORD.COOR2
                          @Loc 1          @Loc 1
-------------------------------------------------
               1     15.3788E-03     191.736E-03


Field Output reported at nodes for part: WIRE_1-1
   Computation algorithm: EXTRAPOLATE_COMPUTE_AVERAGE
   Averaged at nodes
   Averaging regions: ODB_REGIONS

      Node Label     COORD.COOR1     COORD.COOR2    ER.Max. Prin    ER.Mid. Prin    ER.Min. Prin         ER.ER11         ER.ER22         ER.ER33         ER.ER12    PE.Max. Prin    PE.Mid. Prin    PE.Min. Prin         PE.PE11         PE.PE22         PE.PE33         PE.PE12     S.Max. Prin     S.Mid. Prin     S.Min. Prin           S.S11           S.S22           S.S33           S.S12            TEMP
                          @Loc 1          @Loc 1          @Loc 1          @Loc 1          @Loc 1          @Loc 1          @Loc 1          @Loc 1          @Loc 1          @Loc 1          @Loc 1          @Loc 1          @Loc 1          @Loc 1          @Loc 1          @Loc 1          @Loc 1          @Loc 1          @Loc 1          @Loc 1          @Loc 1          @Loc 1          @Loc 1          @Loc 1
-----------------------------------------------------------------------------------------------------------------------------------------------------------------------------------------------------------------------------------------------------------------------------------------------------------------------------------------------------------------------------------------------------------------
               1     13.3466E-03     101.587E-03     184.092E-03    -37.4690E-03    -219.071E-03    -103.781E-03     178.201E-03    -146.868E-03    -73.3696E-03     604.471E-03    -296.713E-03    -300.227E-03    -297.198E-03     601.441E-03    -296.713E-03     104.531E-03     19.3479E+06     15.7612E+06    -581.384E+03    -580.578E+03     15.7604E+06     19.3479E+06     66.5050E+03         90.0556
               2     93.9562E-09     100.618E-03         7.34757        -1.07793        -6.21549        -1.08071         2.21280        -1.07793         13.1299     597.795E-03    -298.478E-03    -299.141E-03    -298.477E-03     597.795E-03    -299.141E-03    -958.086E-06    -16.1850E+06    -25.0842E+06    -26.6526E+06    -25.9620E+06    -16.2210E+06    -25.7387E+06     251.055E+03         66.4638
               3     4.84098E-06    -573.695E-09         5.66829        -1.90341        -3.39567        -1.89715         4.16977        -1.90341        -6.73408     645.657E-03    -321.080E-03    -324.519E-03    -324.512E-03     645.650E-03    -321.080E-03     5.19113E-03     22.3824E+06     9.46669E+06     7.22741E+06     8.63731E+06     20.9725E+06     9.46669E+06     4.40220E+06         69.1526
               4     13.0978E-03    -573.695E-09         1.58360    -310.669E-03    -772.508E-03    -301.950E-03         1.57488    -772.508E-03     256.446E-03     861.891E-03    -299.791E-03    -552.129E-03    -547.446E-03     857.208E-03    -299.791E-03     162.480E-03     73.6310E+06     6.22114E+06     -89.659E+06     20.1791E+06    -36.2071E+06     6.22114E+06     76.6228E+06         95.4142
               5     13.5012E-03     204.057E-03    -137.591E-03        -1.26966        -15.0135        -13.0947        -3.18849    -137.591E-03        -9.52686     416.180E-03    -120.129E-03    -293.632E-03    -120.127E-03     416.177E-03    -293.632E-03     2.25011E-03     17.2576E+06    -133.510E+06    -243.978E+06    -243.948E+06     17.2272E+06    -133.510E+06    -2.81856E+06         94.6348
               6    -57.7356E-06     197.674E-03         4.44128        -1.82736        -4.89270    -630.044E-03     178.627E-03        -1.82736        -9.29889     880.099E-03    -379.718E-03    -498.976E-03    -335.498E-03     835.879E-03    -498.976E-03    -463.696E-03    -441.634E+06    -636.022E+06    -667.790E+06    -576.853E+06    -500.803E+06    -667.790E+06    -89.4473E+06         64.9875
               7     12.6142E-03     101.361E-03     398.533E-03    -97.8631E-03    -229.832E-03     26.9774E-03     196.423E-03    -152.563E-03     29.4848E-03     603.270E-03    -296.634E-03    -302.921E-03    -299.330E-03     599.679E-03    -296.634E-03     113.524E-03     19.1013E+06     16.2339E+06    -1.13677E+06    -1.12946E+06     16.2266E+06     19.1013E+06     282.685E+03         88.4706
               8     11.8729E-03     101.172E-03     503.382E-03    -147.379E-03    -215.085E-03     89.4659E-03     219.128E-03    -167.675E-03    -156.930E-03     601.279E-03    -296.792E-03    -301.990E-03    -298.860E-03     598.149E-03    -296.792E-03     104.727E-03     18.1613E+06     16.6907E+06    -2.39338E+06    -2.37331E+06     17.0671E+06     17.7648E+06     611.646E+03         84.7925
               9     11.1144E-03     101.001E-03     430.508E-03    -131.630E-03    -244.595E-03    -26.9096E-03     264.963E-03    -183.771E-03    -318.261E-03     596.247E-03    -298.100E-03    -299.321E-03    -296.893E-03     594.372E-03    -298.653E-03     81.6970E-03     16.9460E+06     15.7121E+06    -3.67251E+06    -3.65173E+06     16.7241E+06     15.9132E+06     639.024E+03         80.6463
              10     10.3726E-03     100.884E-03     551.668E-03    -161.813E-03    -355.025E-03    -113.353E-03     341.839E-03    -193.657E-03    -385.564E-03     592.693E-03    -297.018E-03    -298.144E-03    -296.248E-03     591.350E-03    -297.571E-03     68.6548E-03     15.9600E+06     14.6615E+06    -5.09273E+06    -5.05233E+06     15.7185E+06     14.8626E+06     868.292E+03         76.8357
              11     9.63118E-03     100.790E-03     664.496E-03    -205.017E-03    -436.928E-03     11.3769E-03     216.191E-03    -205.017E-03    -313.871E-03     593.171E-03    -292.122E-03    -295.096E-03    -291.820E-03     592.296E-03    -294.523E-03     55.4187E-03     15.3657E+06     14.4550E+06    -6.62444E+06    -6.56090E+06     15.2483E+06     14.5089E+06     1.16302E+06         73.7101
              12     8.89116E-03     100.694E-03     555.384E-03    -179.045E-03    -365.024E-03     246.298E-03    -2.07920E-03    -232.904E-03    -155.267E-03     594.366E-03    -292.101E-03    -296.390E-03    -291.529E-03     593.794E-03    -296.390E-03     44.7073E-03     14.5125E+06     12.7918E+06    -8.15015E+06    -8.08998E+06     14.3984E+06     12.8457E+06     1.14383E+06         71.4031
              13     8.14945E-03     100.628E-03     470.203E-03    -151.209E-03    -282.676E-03     229.713E-03     82.2880E-03    -275.683E-03    -181.655E-03     593.619E-03    -296.025E-03    -300.498E-03    -295.692E-03     593.286E-03    -300.498E-03     34.0277E-03     12.5292E+06     10.1921E+06    -9.91549E+06    -9.82400E+06     12.4377E+06     10.1921E+06     1.39797E+06         69.8547
              14     7.40797E-03     100.584E-03     581.759E-03    -143.870E-03    -386.134E-03    -2.83496E-03     369.422E-03    -314.831E-03     82.3162E-03     589.053E-03    -297.120E-03    -302.611E-03    -296.947E-03     588.881E-03    -302.611E-03     24.3603E-03     10.3281E+06     7.37242E+06    -11.6755E+06    -11.5554E+06     10.2080E+06     7.37242E+06     1.60210E+06         68.8440
              15     6.66724E-03     100.543E-03     758.449E-03    -234.080E-03    -503.698E-03    -283.163E-03     638.260E-03    -334.426E-03    -237.658E-03     592.041E-03    -297.552E-03    -301.802E-03    -297.476E-03     591.965E-03    -301.802E-03     15.8639E-03     7.88317E+06     3.34546E+06    -13.4993E+06    -13.3994E+06     7.78329E+06     3.34546E+06     1.43497E+06         68.1980
              16     5.92641E-03     100.526E-03     883.755E-03    -343.120E-03    -524.522E-03    -266.073E-03     625.307E-03    -343.120E-03    -43.1996E-03     600.230E-03    -297.838E-03    -299.283E-03    -297.918E-03     600.208E-03    -299.180E-03     8.22574E-03     4.61269E+06    -540.190E+03    -15.3485E+06    -15.2132E+06     4.47745E+06    -540.190E+03     1.57224E+06         67.7489
              17     5.18526E-03     100.526E-03     797.998E-03    -334.350E-03    -478.121E-03     19.3419E-03     342.677E-03    -376.492E-03     834.657E-03     604.085E-03    -296.313E-03    -299.278E-03    -299.275E-03     604.081E-03    -296.313E-03     1.74138E-03     1.83459E+06    -4.35379E+06    -16.9432E+06    -16.7813E+06     1.67270E+06    -4.35379E+06     1.69398E+06         67.3258
              18     4.44417E-03     100.539E-03     680.763E-03    -253.422E-03    -471.113E-03    -5.84553E-03     402.143E-03    -440.068E-03     356.533E-03     599.551E-03    -295.192E-03    -301.788E-03    -301.784E-03     599.547E-03    -295.192E-03    -3.29699E-03    -845.108E+03    -8.60162E+06    -18.7609E+06    -18.6288E+06    -977.149E+03    -8.60162E+06     1.47132E+06         66.9375
              19     3.70321E-03     100.556E-03         1.06023    -351.081E-03    -712.473E-03    -281.109E-03     773.370E-03    -495.586E-03     798.760E-03     591.166E-03    -295.653E-03    -299.825E-03    -299.814E-03     591.155E-03    -295.653E-03    -6.29999E-03    -4.09670E+06    -12.6999E+06    -20.9489E+06    -20.8063E+06    -4.23922E+06    -12.6999E+06     1.46678E+06         66.6503
              20     2.96241E-03     100.569E-03         1.65882    -511.075E-03        -1.12996    -536.283E-03         1.06514    -511.075E-03     6.03683E-03     589.438E-03    -295.084E-03    -296.537E-03    -295.505E-03     589.421E-03    -296.098E-03    -7.77912E-03    -6.71196E+06    -16.4756E+06    -22.4239E+06    -22.2770E+06    -6.85882E+06    -16.4756E+06     1.41844E+06         66.4447
              21     2.22171E-03     100.590E-03         2.14622    -512.804E-03        -1.57438    -471.796E-03         1.04365    -512.804E-03         1.02898     590.971E-03    -294.937E-03    -296.941E-03    -294.921E-03     590.954E-03    -296.941E-03    -7.60311E-03    -9.18718E+06    -20.0714E+06    -23.6037E+06    -23.5123E+06    -9.27849E+06    -20.0714E+06     1.04377E+06         66.3458
              22     1.48125E-03     100.606E-03         3.03782    -633.744E-03        -2.19407    -179.311E-03         1.02306    -633.744E-03        -1.03265     593.765E-03    -296.476E-03    -298.259E-03    -296.467E-03     593.756E-03    -298.259E-03    -5.75854E-03    -11.5780E+06    -23.2875E+06    -24.9315E+06    -24.8828E+06    -11.6267E+06    -23.2875E+06     803.562E+03         66.3715
              23     740.385E-06     100.615E-03         5.49254    -913.135E-03        -4.39552    -584.615E-03         1.68164    -913.135E-03         3.55910     596.939E-03    -297.880E-03    -299.004E-03    -297.877E-03     596.936E-03    -299.004E-03    -2.74271E-03    -14.3550E+06    -24.8635E+06    -26.0492E+06    -25.6787E+06    -14.3983E+06    -25.1908E+06     528.011E+03         66.4359
              24    -355.841E-09     98.7888E-03         5.49796     878.163E-03        -5.93544    -531.145E-03     93.6708E-03     878.163E-03         11.3287     596.891E-03    -297.336E-03    -299.262E-03    -297.336E-03     596.891E-03    -299.262E-03    -772.956E-06    -13.0833E+06    -22.0678E+06    -23.1871E+06    -22.4872E+06    -13.1287E+06    -22.7224E+06     128.805E+03         66.4745
              25    -1.44037E-06     96.9680E-03         5.88605    -255.373E-03        -5.48712    -289.061E-03     687.990E-03    -255.373E-03         11.1934     596.522E-03    -296.911E-03    -299.278E-03    -296.911E-03     596.521E-03    -299.278E-03    -966.737E-06    -11.8622E+06    -21.0375E+06    -21.5797E+06    -21.4285E+06    -11.9360E+06    -21.1149E+06     276.595E+03         66.4689
              26    -51.1570E-09     95.1429E-03         4.52024    -898.744E-03        -3.90903    -16.1763E-03     627.390E-03    -898.744E-03         8.15693     597.169E-03    -297.927E-03    -299.200E-03    -297.926E-03     597.168E-03    -299.200E-03    -1.31388E-03    -9.19364E+06    -18.7572E+06    -18.9073E+06    -18.6934E+06    -9.25739E+06    -18.9073E+06     632.961E+03         66.4579
              27     41.6900E-09     93.3145E-03         1.76641     658.566E-03        -2.64812     420.978E-03        -1.30878     664.658E-03         4.00770     597.261E-03    -298.190E-03    -299.003E-03    -298.190E-03     597.261E-03    -299.003E-03    -899.890E-06    -8.11075E+06    -17.8017E+06    -18.1305E+06    -17.7908E+06    -8.12173E+06    -18.1305E+06    -95.4743E+03         66.4508
              28    -769.923E-09     91.4898E-03         1.48717         1.05318        -2.31875    -671.298E-03    -166.371E-03         1.05927         2.81591     597.700E-03    -297.832E-03    -299.285E-03    -297.832E-03     597.700E-03    -299.285E-03    -838.917E-06    -6.78174E+06    -16.4622E+06    -17.1703E+06     -16.889E+06    -6.80699E+06    -16.7182E+06     97.4108E+03         66.4497
              29     378.646E-09     89.6627E-03         2.02973     146.485E-03        -1.82155        -1.57570         1.78389     146.485E-03         1.54678     598.183E-03    -297.763E-03    -299.595E-03    -298.597E-03     598.183E-03    -298.761E-03    -1.40243E-03    -4.61376E+06    -14.6723E+06    -15.4612E+06    -15.1005E+06    -4.63759E+06    -15.0091E+06     491.609E+03         66.4581
              30     313.294E-09     87.8355E-03         2.36800    -98.4506E-03        -2.10022    -415.882E-03     683.666E-03    -98.4506E-03        -2.20760     597.973E-03    -298.053E-03    -299.241E-03    -298.886E-03     597.972E-03    -298.407E-03    -907.838E-06    -2.73372E+06    -13.1781E+06    -13.5784E+06    -13.1556E+06    -2.75622E+06    -13.5784E+06     477.596E+03         66.4681
              31    -438.781E-09     86.0072E-03         2.59227    -437.385E-03        -2.15219     555.194E-03    -115.115E-03    -437.385E-03        -4.62794     598.227E-03    -298.395E-03    -298.986E-03    -298.632E-03     598.226E-03    -298.749E-03    -586.423E-06    -1.61869E+06    -12.1854E+06    -12.6024E+06    -12.4721E+06    -1.68548E+06    -12.2490E+06    -247.258E+03         66.4694
              32     151.873E-09     84.1792E-03         4.00445        -1.28866        -2.86297     398.475E-03     743.010E-03        -1.28866        -6.85867     598.114E-03    -297.691E-03    -299.482E-03    -297.928E-03     598.113E-03    -299.246E-03    -223.737E-06    -1.25989E+06    -11.9373E+06    -12.5101E+06    -12.2196E+06    -1.33102E+06    -12.1567E+06    -205.933E+03         66.4639
              33    -1.61138E-06     82.3534E-03         5.21707     303.894E-03        -5.73992    -305.013E-03    -217.837E-03     303.894E-03        -10.9480     597.908E-03    -296.831E-03    -300.252E-03    -296.831E-03     597.908E-03    -300.252E-03    -440.604E-06     959.285E+03    -9.84884E+06    -10.4275E+06    -10.1814E+06     932.566E+03    -10.0682E+06     124.827E+03         66.4567
              34    -793.127E-09     80.5265E-03         5.88266         1.08404        -7.36087    -765.770E-03    -712.443E-03         1.08404        -13.2379     598.210E-03    -297.585E-03    -300.231E-03    -297.584E-03     598.209E-03    -300.231E-03    -1.79576E-03     2.36966E+06    -8.41617E+06    -9.14061E+06    -8.76235E+06     2.35659E+06    -8.78136E+06    -381.158E+03         66.4499
              35    -98.5361E-09     78.6994E-03         4.53693     620.876E-03        -5.54363     106.082E-03        -1.11279     620.876E-03        -9.72104     598.117E-03    -298.322E-03    -300.088E-03    -298.321E-03     598.116E-03    -300.088E-03    -1.55853E-03     1.66331E+06    -9.31042E+06    -10.1550E+06    -9.72407E+06     1.59762E+06    -9.67561E+06     416.453E+03         66.4454
              36    -741.957E-09     76.8673E-03         2.94975     373.146E-03        -3.61851     235.186E-03    -903.945E-03     373.146E-03        -6.19933     598.505E-03    -298.539E-03    -300.160E-03    -298.539E-03     598.505E-03    -300.160E-03    -909.223E-06     3.50598E+06    -7.67049E+06    -8.41305E+06    -8.04608E+06     3.40222E+06    -7.93371E+06     98.8276E+03         66.4478
              37     575.494E-09     75.0390E-03         5.45713    -539.287E-03        -5.12881     407.617E-03    -79.2988E-03    -539.287E-03        -10.5294     599.447E-03    -299.034E-03    -299.991E-03    -299.356E-03     599.446E-03    -299.669E-03    -1.09594E-03     4.29302E+06    -7.05415E+06    -7.34431E+06    -6.97516E+06     4.21402E+06    -7.34431E+06    -51.9703E+03         66.4535
              38     89.7031E-09     73.2096E-03         6.45958    -512.705E-03        -5.90481         1.79010        -1.23534    -512.705E-03        -11.8206     599.399E-03    -298.744E-03    -299.700E-03    -299.066E-03     599.399E-03    -299.377E-03    -1.18256E-03     5.02250E+06    -6.13008E+06    -6.54317E+06    -6.48119E+06     4.98747E+06    -6.15703E+06     441.215E+03         66.4514
              39    -814.920E-09     71.3787E-03         3.72359     48.4969E-03        -3.83070     866.851E-03    -973.962E-03     48.4969E-03        -7.01925     598.792E-03    -297.710E-03    -299.966E-03    -297.710E-03     598.792E-03    -299.966E-03    -388.890E-06     5.21331E+06    -5.46762E+06    -6.77938E+06    -5.85370E+06     5.21324E+06    -6.39323E+06     15.7866E+03         66.4422
              40    -1.33314E-06     69.5512E-03         2.02955     465.139E-03        -2.72810     665.661E-03        -1.36422     465.139E-03        -1.82003     599.060E-03    -297.310E-03    -301.247E-03    -297.310E-03     599.060E-03    -301.247E-03    -76.3749E-06      5.4042E+06    -5.04622E+06    -6.47301E+06    -5.52952E+06     5.38631E+06    -5.97183E+06     338.679E+03         66.4401
              41    -1.89705E-06     67.7209E-03         1.91532     895.472E-03        -3.16426         1.41430        -2.99734         1.22958         1.55688     599.068E-03    -298.101E-03    -301.196E-03    -298.101E-03     599.067E-03    -301.196E-03    -1.46395E-03     6.22994E+06    -3.95973E+06    -4.67586E+06    -4.40137E+06     6.17040E+06    -4.17468E+06    -133.617E+03         66.4486
              42     1.07408E-06     65.8935E-03         1.67038         1.27168        -3.29561    -315.699E-03        -1.64364         1.60579         3.38193     598.414E-03    -298.616E-03    -300.122E-03    -299.343E-03     598.413E-03    -299.394E-03    -2.12539E-03     4.94283E+06    -5.11235E+06    -5.99595E+06    -5.68566E+06     4.84749E+06    -5.32730E+06     100.791E+03         66.4578
              43     512.871E-09     64.0672E-03         1.66165         1.03204        -2.63375    -763.827E-03    -208.269E-03         1.03204         4.19979     598.676E-03    -298.737E-03    -300.040E-03    -299.464E-03     598.676E-03    -299.312E-03    -1.31638E-03     5.03062E+06    -5.43607E+06    -6.27602E+06    -6.04255E+06     4.96844E+06    -5.60736E+06     339.257E+03         66.4674
              44    -746.007E-09     62.2320E-03         3.60794    -121.557E-03        -3.41694     703.161E-03    -512.168E-03    -121.557E-03         6.89838     599.590E-03    -298.530E-03    -300.939E-03    -298.530E-03     599.590E-03    -300.939E-03    -1.21115E-03     5.48066E+06    -4.86772E+06    -5.44286E+06    -5.26232E+06     5.47141E+06    -5.03901E+06    -274.628E+03         66.4818
              45    -699.441E-09     60.3960E-03         5.04626    -953.185E-03        -4.05903         1.88724    -900.015E-03    -953.185E-03         8.61754     600.517E-03    -298.291E-03    -301.445E-03    -298.290E-03     600.516E-03    -301.445E-03    -1.16056E-03     5.85676E+06    -4.00737E+06    -4.88642E+06    -4.37894E+06     5.82448E+06    -4.48257E+06     331.176E+03         66.4980
              46    -995.954E-09     58.5584E-03         3.33317    -361.569E-03        -3.35863         1.24909        -1.27455    -361.569E-03         6.18837     601.006E-03    -298.760E-03    -301.282E-03    -298.759E-03     601.006E-03    -301.282E-03    -1.41956E-03     6.50518E+06    -3.25148E+06    -4.08314E+06    -3.21987E+06     6.47357E+06    -4.08314E+06     385.031E+03         66.5119
              47    -339.207E-09     56.7255E-03         2.62287    -47.3330E-03        -3.11494    -111.385E-03    -380.688E-03    -47.3330E-03         5.54236     600.791E-03    -299.140E-03    -300.859E-03    -299.656E-03     600.790E-03    -300.342E-03    -1.94420E-03     6.30727E+06    -3.32785E+06    -3.69592E+06    -3.32559E+06     6.30500E+06    -3.69592E+06     97.1203E+03         66.5190
              48     979.311E-09     54.8915E-03         3.55100     53.5256E-03        -3.15010        -1.53334     247.199E-03         1.74056         1.47893     600.937E-03    -299.634E-03    -300.609E-03    -300.151E-03     600.936E-03    -300.092E-03    -878.823E-06     6.29606E+06    -2.95806E+06    -3.53478E+06    -3.49481E+06     6.26769E+06    -2.96967E+06    -258.920E+03         66.5240
              49    -1.16177E-06     53.0541E-03         3.61871     715.279E-03        -3.71531    -798.960E-03    -984.682E-03         2.40232        -4.96627     601.030E-03    -299.336E-03    -300.869E-03    -299.336E-03     601.030E-03    -300.869E-03    -340.513E-06     5.82535E+06    -2.95922E+06    -4.24087E+06    -3.49810E+06     5.79911E+06    -3.67576E+06    -385.706E+03         66.5368
              50    -415.317E-09     51.2246E-03         2.73261    -147.246E-03        -2.85014     139.132E-03    -38.5288E-03    -365.380E-03        -4.57866     600.899E-03    -298.689E-03    -301.323E-03    -298.689E-03     600.899E-03    -301.323E-03    -645.312E-06     6.30023E+06    -2.51113E+06    -3.23892E+06    -2.48441E+06     6.27351E+06    -3.23892E+06    -368.926E+03         66.5549
              51    -1.98034E-06     49.3952E-03         2.20443    -806.123E-03        -2.21620    -472.994E-03         1.87130        -2.21620    -425.634E-03     601.733E-03    -298.952E-03    -302.126E-03    -298.952E-03     601.732E-03    -302.126E-03    -960.249E-06     5.64570E+06    -2.90041E+06    -3.65727E+06    -3.56035E+06     5.56003E+06    -2.91167E+06     181.838E+03         66.5749
              52    -98.9884E-09     47.5545E-03         2.62953    -224.823E-03        -2.48776     57.7124E-03         2.34700        -2.48776    -253.102E-03     602.436E-03    -299.759E-03    -302.221E-03    -300.605E-03     602.435E-03    -301.374E-03    -1.41071E-03     5.26279E+06    -3.07195E+06    -3.88568E+06    -3.72768E+06     5.17291E+06    -3.14008E+06     164.509E+03         66.5977
              53     1.75587E-06     45.7182E-03         2.32264     221.036E-03        -2.22542     137.278E-03     436.591E-03    -255.619E-03        -2.05346     602.558E-03    -300.374E-03    -301.772E-03    -301.772E-03     602.558E-03    -300.374E-03    -301.687E-06     6.13041E+06    -2.37691E+06    -2.46595E+06    -2.34132E+06     6.09482E+06    -2.46595E+06    -504.613E+03         66.6269
              54    -790.372E-09     43.8855E-03         1.81088     801.784E-03        -2.53589    -964.987E-03    -354.372E-03         1.39613        -2.95419     603.428E-03    -300.843E-03    -301.844E-03    -301.843E-03     603.426E-03    -300.843E-03    -1.09458E-03     7.06705E+06    -1.16625E+06    -1.51283E+06    -1.15967E+06     7.06047E+06    -1.51283E+06    -56.3259E+03         66.6627
              55     1.12872E-06     42.0497E-03         2.76853    -406.861E-06        -2.84459        -2.24740         2.17134    -406.861E-06    -558.198E-03     603.342E-03    -300.600E-03    -301.785E-03    -301.784E-03     603.341E-03    -300.600E-03    -1.91678E-03     6.86688E+06    -974.757E+03    -1.92237E+06    -1.57127E+06     6.84145E+06    -1.30043E+06    -237.411E+03         66.7156
              56    -417.455E-09     40.2167E-03         3.86477        -1.58470        -2.52181    -351.839E-03         1.74994        -1.63985         4.29075     603.571E-03    -300.548E-03    -302.017E-03    -301.283E-03     603.570E-03    -301.281E-03    -350.859E-06     6.80926E+06    -733.108E+03    -1.99934E+06    -1.33119E+06     6.78540E+06    -1.37739E+06    -351.543E+03         66.8069
              57    -743.056E-09     38.3774E-03         2.40025    -963.554E-03        -1.42560         1.03512     401.576E-03        -1.42560         3.12710     604.969E-03    -301.094E-03    -302.880E-03    -301.094E-03     604.968E-03    -302.880E-03    -748.091E-06     7.94224E+06     263.668E+03    -448.896E+03     267.845E+03     7.93806E+06    -448.896E+03     95.8821E+03         66.9251
              58    -55.0850E-09     36.5341E-03         2.43427    -473.233E-03        -1.71880     15.7339E-03         1.10663    -880.135E-03        -3.21497     605.309E-03    -301.214E-03    -303.330E-03    -301.214E-03     605.308E-03    -303.330E-03    -1.05364E-03     7.75740E+06     11.4200E+03    -162.835E+03     16.6738E+03     7.75214E+06    -162.835E+03     195.095E+03         67.0546
              59    -697.526E-09     34.7030E-03         2.61365    -93.5522E-03        -2.35019    -691.266E-03     954.732E-03    -93.5522E-03        -4.63446     606.767E-03    -301.984E-03    -304.226E-03    -301.984E-03     606.767E-03    -304.226E-03    -222.535E-06     7.99296E+06     472.555E+03     354.378E+03     474.850E+03     7.99067E+06     354.378E+03     131.086E+03         67.2068
              60    -857.369E-09     32.8556E-03         1.73945     837.866E-03        -2.32077    -890.270E-03    -524.411E-03         1.67123     424.276E-03     610.796E-03    -304.363E-03    -305.777E-03    -304.363E-03     610.796E-03    -305.777E-03    -195.535E-06     8.73808E+06     1.60800E+06     1.30078E+06     1.32181E+06     8.72925E+06     1.59580E+06     230.980E+03         67.3768
              61    -210.394E-09     30.9982E-03         2.25367     273.669E-03        -1.92614    -404.754E-03    -101.070E-03         1.10703         3.12980     614.497E-03    -305.632E-03    -307.810E-03    -307.574E-03     614.497E-03    -305.868E-03    -699.726E-06     9.04820E+06     2.02017E+06     1.17677E+06     1.88527E+06     8.88808E+06     1.47179E+06    -555.952E+03         67.5437
              62     2.36813E-06     29.1422E-03         2.48901    -31.9247E-03        -1.96888         1.18493     813.029E-03        -1.50975         2.28034     618.321E-03    -307.186E-03    -309.687E-03    -309.686E-03     618.320E-03    -307.186E-03     954.702E-06     7.53607E+06     333.408E+03    -638.452E+03     63.1193E+03     7.38288E+06    -214.973E+03    -786.213E+03         67.7073
              63    -2.17298E-06     27.2670E-03         2.47169     367.496E-03        -3.22050         2.10042        -1.37142        -1.11032         2.38293     622.008E-03    -309.131E-03    -311.823E-03    -309.689E-03     622.006E-03    -311.264E-03     496.266E-06     6.83513E+06    -503.855E+03    -1.44702E+06    -1.24546E+06     6.63357E+06    -503.855E+03     843.669E+03         67.8664
              64    -283.385E-09     25.3816E-03         2.06694     19.5142E-03        -2.50465     116.188E-03        -1.87143         1.33705         1.42740     624.371E-03    -310.381E-03    -313.750E-03    -310.380E-03     624.370E-03    -313.750E-03    -191.127E-06     7.39332E+06     459.684E+03    -939.965E+03     234.386E+03     7.09893E+06    -420.283E+03     365.675E+03         67.9849
              65    -854.179E-09     23.5054E-03         2.84377     957.527E-03        -3.42034        -1.34520        -1.11762         2.84377        -4.07362     626.147E-03    -311.926E-03    -314.604E-03    -311.925E-03     626.147E-03    -314.604E-03     469.367E-06     6.19091E+06    -351.401E+03    -1.63442E+06    -651.138E+03     6.08759E+06    -1.23137E+06    -348.329E+03         68.0291
              66    -882.744E-09     21.6283E-03         3.62358         1.94387        -5.13130     408.104E-03        -2.48453         2.51257        -7.18791     625.085E-03    -311.557E-03    -313.888E-03    -311.556E-03     625.084E-03    -313.888E-03    -1.27454E-03     3.70022E+06    -2.54868E+06    -3.31239E+06    -3.20605E+06     3.59388E+06    -2.54868E+06    -362.599E+03         67.9872
              67    -353.436E-09     19.7555E-03         3.85848     81.5954E-03        -3.66340         2.04145        -1.84637     81.5954E-03        -6.31451     621.374E-03    -308.650E-03    -312.500E-03    -308.650E-03     621.374E-03    -312.500E-03    -1.22245E-03     2.25333E+06    -3.49019E+06    -4.35805E+06    -3.55130E+06     1.95380E+06    -3.99740E+06     180.970E+03         67.8007
              68    -4.04343E-06     17.8938E-03         3.05682    -849.055E-03        -2.08443         1.95328    -379.231E-03        -1.45071        -3.50665     614.402E-03    -305.064E-03    -309.280E-03    -305.060E-03     614.397E-03    -309.280E-03    -3.20736E-03     2.76423E+06    -3.59840E+06    -4.27554E+06    -3.48523E+06     2.48113E+06    -4.10562E+06     195.750E+03         67.3435
              69     1.72909E-06     16.0491E-03         1.61389    -121.080E-03        -1.30366         1.55995    -648.055E-03    -722.738E-03    -690.673E-03     601.764E-03    -299.724E-03    -301.947E-03    -299.717E-03     601.757E-03    -301.947E-03    -4.89511E-03     2.55073E+06    -4.43512E+06    -5.76695E+06    -5.68533E+06     2.46911E+06    -4.43512E+06    -459.837E+03         66.5852
              70    -2.47273E-06     14.2366E-03         1.62509     494.759E-03        -1.73402    -335.944E-03    -408.335E-03         1.13011        -1.60377     582.875E-03    -290.535E-03    -292.104E-03    -290.526E-03     582.866E-03    -292.104E-03    -5.28549E-03     4.35378E+06    -2.62713E+06    -5.26455E+06    -3.78401E+06     4.34876E+06    -4.10265E+06     191.809E+03         65.5934
              71     967.505E-09     12.4696E-03         1.80683     460.301E-03        -1.72943        -1.08514     527.179E-03         1.09565        -2.40816     561.607E-03    -280.123E-03    -281.523E-03    -280.907E-03     561.592E-03    -280.724E-03    -7.18409E-03     8.27478E+06     689.768E+03    -835.061E+03     743.408E+03     8.22115E+06    -835.061E+03     562.732E+03         64.6479
              72     245.242E-09     10.7357E-03         3.06054     51.9406E-03        -2.65419    -745.234E-03         1.15159     51.9406E-03         3.20681     545.177E-03    -271.397E-03    -273.701E-03    -273.686E-03     545.162E-03    -271.397E-03    -7.10298E-03     10.5500E+06     3.40839E+06     1.00658E+06     1.13860E+06     10.4672E+06     3.35909E+06     868.629E+03         64.1367
              73     1.75076E-06     9.01885E-03         3.03679     493.302E-03        -3.38871    -816.351E-03     464.439E-03     493.302E-03         6.24565     539.971E-03    -268.824E-03    -271.072E-03    -271.065E-03     539.964E-03    -268.824E-03    -2.99699E-03     14.3765E+06     8.91560E+06     4.00414E+06     6.61104E+06     14.3286E+06     6.35665E+06     229.853E+03         63.9804
              74    -446.347E-09     7.29919E-03         1.34107     259.890E-03        -1.52421    -330.821E-03     214.027E-03     193.541E-03         2.61913     547.326E-03    -270.445E-03    -276.766E-03    -271.188E-03     547.326E-03    -276.023E-03     728.786E-06     16.5195E+06     10.5817E+06     6.52823E+06     10.6241E+06     16.4771E+06     6.52823E+06    -499.374E+03         64.0117
              75    -8.94999E-06     5.58200E-03         2.37168    -904.704E-03        -1.31759    -396.294E-03         1.86327        -1.31759        -1.05468     570.465E-03    -281.543E-03    -288.880E-03    -281.542E-03     570.464E-03    -288.880E-03     1.89937E-03     11.9433E+06     3.85186E+06     1.94455E+06     3.46969E+06     11.9127E+06     2.35736E+06    -438.885E+03         64.5636
              76     6.00165E-06     3.77832E-03         3.75991        -1.01344        -2.72777    -687.186E-03         2.06586        -1.35997        -5.26929     605.858E-03    -301.303E-03    -304.671E-03    -302.904E-03     605.851E-03    -303.062E-03     4.98427E-03     6.55093E+06    -1.37351E+06    -5.16880E+06    -5.13948E+06     6.52161E+06    -1.37351E+06    -547.326E+03         65.9542
              77    -2.49179E-06     1.89558E-03         4.81846        -1.29948        -3.41341        -1.31966         2.72471        -1.29948        -6.92614     635.040E-03    -315.859E-03    -319.188E-03    -319.178E-03     635.031E-03    -315.859E-03     6.08056E-03     13.5962E+06     3.76853E+06    -733.593E+03     -2.7065E+03     12.8653E+06     3.76853E+06     1.78343E+06         68.0097
              78     719.750E-06    -573.695E-09         4.29336        -1.59766        -2.52283        -1.51787         3.46744        -1.77670        -2.57834     644.072E-03    -320.657E-03    -323.332E-03    -322.366E-03     644.061E-03    -321.612E-03     6.23445E-03     19.2536E+06     6.09745E+06     4.85469E+06     5.69096E+06     18.5404E+06     5.97434E+06     1.96679E+06         69.0539
              79     1.44675E-03    -573.695E-09         2.91453        -1.31812        -1.56672        -1.21605         2.81246        -1.56672         1.25090     637.370E-03    -315.981E-03    -321.046E-03    -315.967E-03     637.357E-03    -321.046E-03     7.25558E-03     16.6000E+06     2.98425E+06     2.54372E+06     2.99255E+06     16.5917E+06     2.54372E+06    -259.071E+03         68.8262
              80     2.17698E-03    -573.695E-09         3.03230        -1.41827        -1.62285        -1.49855         2.97756        -1.48783     996.081E-03     623.241E-03    -305.275E-03    -318.087E-03    -305.252E-03     623.218E-03    -318.087E-03     9.14306E-03     16.3826E+06     2.83312E+06     1.91203E+06     2.23275E+06     16.3793E+06     2.51570E+06    -177.211E+03         68.5339
              81     2.91523E-03    -573.695E-09         3.25235        -1.52091        -1.77044        -1.74069         3.22260        -1.52091     598.550E-03     604.895E-03    -293.874E-03    -313.364E-03    -293.833E-03     604.854E-03    -313.364E-03     12.0917E-03     16.0280E+06     2.94265E+06     1.37216E+06     1.37709E+06     16.0230E+06     2.94265E+06    -265.383E+03         68.1801
              82     3.66312E-03    -573.695E-09         2.90749        -1.17032        -1.64028        -1.27931         2.90197        -1.52577    -117.598E-03     589.772E-03    -284.699E-03    -307.471E-03    -284.650E-03     589.723E-03    -307.471E-03     13.0427E-03     16.2395E+06     2.94221E+06     1.87372E+06     1.87699E+06     16.2362E+06     2.94221E+06    -216.675E+03         67.7843
              83     4.41859E-03    -573.695E-09         2.10382    -495.649E-03        -1.42017    -448.683E-03         2.05686        -1.42017     212.279E-03     579.691E-03    -275.200E-03    -301.421E-03    -275.153E-03     579.644E-03    -301.421E-03     12.6824E-03     16.0879E+06     2.17511E+06     1.92375E+06     2.07508E+06     16.0862E+06     2.02542E+06    -128.431E+03         67.3660
              84     5.18105E-03    -573.695E-09         1.68299    -184.017E-03        -1.25539    -125.810E-03         1.62478        -1.25539     154.730E-03     565.402E-03    -266.557E-03    -296.078E-03    -266.513E-03     565.358E-03    -296.078E-03     12.0611E-03     16.7959E+06     2.54244E+06     1.93111E+06     2.08923E+06     16.7875E+06     2.39275E+06    -277.134E+03         67.0278
              85     5.95082E-03    -573.695E-09         1.63415    -279.760E-03        -1.11596    -249.714E-03         1.60410        -1.11596    -474.375E-03     550.234E-03    -260.458E-03    -292.860E-03    -260.420E-03     550.196E-03    -292.860E-03     11.1474E-03     17.3894E+06     4.07684E+06     2.25986E+06     2.27646E+06     17.3728E+06     4.07684E+06    -4.01097E+03         67.0788
              86     6.72339E-03    -573.695E-09         1.74430    -497.482E-03        -1.02780    -478.749E-03         1.72556        -1.02780    -391.382E-03     542.043E-03    -255.966E-03    -289.695E-03    -255.938E-03     542.015E-03    -289.695E-03     9.34890E-03     17.2123E+06     6.25595E+06     2.39472E+06     2.41097E+06     17.1961E+06     6.25595E+06     6.39562E+03         67.8379
              87     7.49988E-03    -573.695E-09         1.82342    -594.958E-03    -975.875E-03    -586.287E-03         1.81475    -975.875E-03    -288.223E-03     537.449E-03    -254.830E-03    -285.384E-03    -254.815E-03     537.433E-03    -285.384E-03     6.92332E-03     17.1349E+06     7.68890E+06     2.40326E+06     2.43032E+06     17.1078E+06     7.68890E+06     133.007E+03         69.3911
              88     8.27408E-03    -573.695E-09         1.78236    -577.125E-03    -937.873E-03    -556.216E-03         1.76145    -937.873E-03     150.209E-03     536.866E-03    -257.264E-03    -281.077E-03    -257.256E-03     536.859E-03    -281.077E-03     4.67793E-03     15.9827E+06     6.49784E+06     2.10579E+06     2.24055E+06     15.8480E+06     6.49784E+06    -483.013E+03         71.7025
              89     9.04629E-03    -573.695E-09         1.66883    -501.839E-03    -901.004E-03    -452.662E-03         1.61965    -901.004E-03    -70.9823E-03     542.615E-03    -263.864E-03    -278.735E-03    -263.862E-03     542.613E-03    -278.735E-03     1.65541E-03     16.7127E+06     6.81678E+06    -779.500E+03     890.587E+03     15.0426E+06     6.81678E+06     2.97620E+06         74.7364
              90     9.81249E-03    -573.695E-09         1.56930    -468.092E-03    -865.116E-03    -424.157E-03         1.52537    -865.116E-03    -131.031E-03     559.490E-03    -273.205E-03    -284.829E-03    -279.822E-03     559.481E-03    -278.202E-03    -4.06797E-03     24.2481E+06     3.01013E+06    -12.0376E+06     2.06114E+06     10.1494E+06     3.01013E+06    -8.80201E+06         78.4373
              91     10.5661E-03    -573.695E-09         1.65051    -566.151E-03    -838.251E-03    -544.982E-03         1.62934    -838.251E-03     14.3392E-03     582.541E-03    -277.285E-03    -305.940E-03    -305.845E-03     582.445E-03    -277.285E-03    -16.5014E-03     25.0768E+06     1.03492E+06    -10.5424E+06     5.05663E+06     9.47778E+06     1.03492E+06    -7.91691E+06         82.7032
              92     11.2994E-03    -573.695E-09         1.71287    -579.912E-03    -820.540E-03    -570.648E-03         1.70361    -820.540E-03    -182.229E-03     621.931E-03    -278.953E-03    -345.000E-03    -344.696E-03     621.626E-03    -278.953E-03    -33.6579E-03     27.1430E+06     16.3457E+06    -10.6917E+06    -719.597E+03     14.2060E+06     19.3107E+06     15.7552E+06         87.3372
              93     12.0226E-03    -573.695E-09         1.66566    -446.177E-03    -802.972E-03    -425.398E-03         1.64488    -802.972E-03    -260.045E-03     691.617E-03    -285.602E-03    -410.676E-03    -410.438E-03     691.379E-03    -285.602E-03    -14.0538E-03     53.7400E+06     24.3872E+06    -43.6092E+06     4.48310E+06     2.68273E+06     27.3522E+06    -23.3316E+06         91.5804
              94     12.6247E-03    -573.695E-09         1.61423    -337.719E-03    -782.811E-03    -312.721E-03         1.58924    -782.811E-03    -156.814E-03     797.369E-03    -294.956E-03    -502.181E-03    -499.819E-03     795.007E-03    -294.956E-03     88.2541E-03     73.5185E+06     13.4257E+06    -77.9870E+06     18.1070E+06    -22.5755E+06     13.4257E+06     3.94390E+06         94.4307
              95     13.2753E-03     2.47325E-03         1.20053    -272.062E-03    -747.950E-03    -137.033E-03         1.06550    -747.950E-03     582.475E-03     774.784E-03    -300.238E-03    -466.842E-03    -462.282E-03     770.224E-03    -300.238E-03     149.982E-03     41.0764E+06     7.04476E+06    -65.2065E+06    -2.27395E+06    -22.1829E+06     7.37151E+06     49.7395E+06         94.8129
              96     13.3106E-03     4.42676E-03     606.442E-03    -119.980E-03    -653.985E-03     28.1686E-03     458.294E-03    -653.985E-03     340.988E-03     667.294E-03    -300.410E-03    -361.922E-03    -357.574E-03     662.946E-03    -300.410E-03     133.506E-03     9.51994E+06    -8.63324E+06    -47.9237E+06    -10.5833E+06    -13.1680E+06    -23.2858E+06     4.36324E+06         93.9267
              97     13.3221E-03     6.28925E-03     813.540E-03    -223.164E-03    -553.760E-03    -135.142E-03     683.959E-03    -512.201E-03    -699.027E-03     636.975E-03    -299.724E-03    -333.972E-03    -330.521E-03     633.524E-03    -299.724E-03     114.874E-03     10.0016E+06    -8.84036E+06    -29.6374E+06     1.36812E+06    -6.02466E+06    -23.8196E+06    -4.12330E+06         93.3506
              98     13.3243E-03     8.15434E-03         1.13269    -336.206E-03    -420.365E-03    -251.734E-03         1.00666    -378.806E-03    -771.505E-03     619.245E-03    -299.705E-03    -317.686E-03    -315.134E-03     616.692E-03    -299.705E-03     97.6684E-03     5.46591E+06     224.550E+03    -11.8768E+06    -1.57545E+06     1.44812E+06    -6.05905E+06     840.804E+03         92.6751
              99     13.3259E-03     9.98998E-03     922.708E-03    -204.176E-03    -290.483E-03    -232.336E-03     907.162E-03    -246.776E-03    -126.865E-03     609.372E-03    -301.214E-03    -306.331E-03    -303.986E-03     607.028E-03    -301.214E-03     92.5362E-03     4.45649E+06    -4.26185E+06    -11.1923E+06     291.085E+03    -96.4455E+03    -11.1923E+06     145.268E+03         91.8558
             100     13.3240E-03     11.8184E-03     952.416E-03    -100.525E-03    -481.888E-03    -384.575E-03     855.103E-03    -100.525E-03    -494.906E-03     603.706E-03    -299.626E-03    -302.556E-03    -300.220E-03     601.370E-03    -299.626E-03     91.8773E-03     7.02937E+06    -929.848E+03    -1.96795E+06     922.200E+03     4.78608E+06    -1.57671E+06     2.58225E+06         91.0294
             101     13.3227E-03     13.6397E-03     621.274E-03     52.5837E-03    -345.747E-03    -233.613E-03     509.141E-03     52.5837E-03    -613.211E-03     597.726E-03    -296.238E-03    -299.232E-03    -296.341E-03     595.206E-03    -296.608E-03     94.9246E-03     5.92012E+06     2.18213E+06    -1.98462E+06    -1.84662E+06     5.51083E+06     2.45343E+06    -294.454E+03         90.3521
             102     13.3233E-03     15.4510E-03     243.207E-03     198.341E-03    -345.022E-03     102.275E-03    -204.090E-03     198.341E-03    -447.141E-03     596.002E-03    -295.548E-03    -297.829E-03    -292.882E-03     593.335E-03    -297.829E-03     97.3592E-03     4.89613E+06     2.76730E+06    -3.91306E+06    -899.336E+03     4.51596E+06     133.750E+03    -658.176E+03         89.8844
             103     13.3247E-03     17.2681E-03     364.578E-03     131.338E-03    -480.260E-03    -29.6982E-03    -283.832E-03     329.186E-03    -294.944E-03     595.153E-03    -295.234E-03    -298.748E-03    -292.387E-03     592.307E-03    -298.748E-03     100.508E-03     4.21492E+06     182.592E+03    -2.82907E+06     224.515E+03     4.17300E+06    -2.82907E+06     270.101E+03         89.5814
             104     13.3255E-03     19.0816E-03     457.658E-03     201.873E-03    -395.738E-03    -112.069E-03    -81.7968E-03     457.658E-03     557.716E-03     595.457E-03    -294.650E-03    -298.025E-03    -291.693E-03     592.499E-03    -298.025E-03     102.444E-03     3.79497E+06    -199.982E+03    -2.46496E+06    -2.24054E+06     3.67736E+06    -306.790E+03     842.527E+03         89.3740
             105     13.3256E-03     20.9003E-03     547.655E-03     293.844E-03    -481.992E-03    -215.714E-03     27.5663E-03     547.655E-03     518.017E-03     596.354E-03    -294.059E-03    -297.326E-03    -291.055E-03     593.350E-03    -297.326E-03     103.257E-03     8.11776E+06     6.00752E+06     24.1135E+03     118.906E+03     8.02297E+06     6.00752E+06     821.677E+03         89.2383
             106     13.3310E-03     22.7069E-03     546.065E-03     234.400E-03    -604.675E-03    -92.5424E-03    -277.732E-03     546.065E-03     265.462E-03     598.030E-03    -293.877E-03    -297.516E-03    -290.904E-03     595.056E-03    -297.516E-03     102.820E-03     8.31948E+06     5.64972E+06     77.8934E+03     2.33218E+06     7.81178E+06     3.90314E+06    -684.784E+03         89.1778
             107     13.3266E-03     24.5210E-03     470.098E-03     335.812E-03    -945.099E-03     309.011E-03    -918.299E-03     470.098E-03     330.431E-03     600.361E-03    -294.230E-03    -297.446E-03    -291.312E-03     597.443E-03    -297.446E-03     102.020E-03     3.73232E+06     436.981E+03    -3.71877E+06    -1.33918E+06     3.09930E+06    -1.30960E+06    -284.726E+03         89.1883
             108     13.3324E-03     26.3408E-03     528.857E-03     369.866E-03    -953.873E-03    -184.290E-03    -259.221E-03     388.361E-03    -146.174E-03     597.603E-03    -293.094E-03    -297.362E-03    -290.138E-03     594.646E-03    -297.362E-03     102.459E-03     5.61436E+06     1.89985E+06    -1.11382E+06    -303.784E+03     5.40883E+06     1.29535E+06     266.416E+03         89.2697
             109     13.3317E-03     28.1520E-03     517.759E-03     329.799E-03    -510.598E-03    -379.378E-03     386.540E-03     329.799E-03    -560.485E-03     598.074E-03    -293.895E-03    -298.455E-03    -290.859E-03     595.038E-03    -298.455E-03     103.907E-03     5.56822E+06     565.719E+03    -1.27459E+06     627.250E+03     5.50669E+06    -1.27459E+06    -413.126E+03         89.4192
             110     13.3336E-03     29.9751E-03     404.939E-03     219.422E-03    -344.657E-03     174.222E-03    -113.940E-03     219.422E-03    -493.508E-03     602.313E-03    -297.226E-03    -298.993E-03    -294.559E-03     599.245E-03    -298.592E-03     104.921E-03     3.30327E+06    -1.39585E+06    -2.90495E+06    -1.37084E+06     3.27825E+06    -2.90495E+06    -251.314E+03         89.6057
             111     13.3318E-03     31.7919E-03     592.292E-03     39.5276E-03    -511.146E-03    -58.4254E-03     139.571E-03     39.5276E-03     118.616E-03     604.810E-03    -298.471E-03    -299.840E-03    -296.801E-03     601.771E-03    -298.471E-03     104.679E-03     4.34306E+06     302.588E+03    -1.02810E+06     471.725E+03     4.17392E+06    -1.02810E+06     200.756E+03         89.7774
             112     13.3374E-03     33.6171E-03     579.401E-03    -105.241E-03    -419.595E-03    -258.812E-03     418.617E-03    -105.241E-03     635.478E-03     605.830E-03    -298.450E-03    -299.601E-03    -296.633E-03     602.862E-03    -298.450E-03     103.505E-03     5.36987E+06     2.24834E+06    -926.616E+03     2.39950E+06     5.21872E+06    -926.616E+03     344.298E+03         89.8834
             113     13.3351E-03     35.4426E-03     509.268E-03    -194.781E-03    -492.189E-03     283.779E-03    -266.699E-03    -194.781E-03     514.141E-03     607.067E-03    -298.343E-03    -300.203E-03    -297.335E-03     604.199E-03    -298.343E-03     101.863E-03     5.56713E+06     1.93738E+06    -741.479E+03     1.38667E+06     5.55655E+06    -180.186E+03    -8.77052E+03         89.9027
             114     13.3366E-03     37.2797E-03     707.908E-03    -291.745E-03    -632.583E-03     108.629E-03    -33.3034E-03    -291.745E-03    -254.697E-03     606.487E-03    -297.990E-03    -300.351E-03    -297.470E-03     603.606E-03    -297.990E-03     102.062E-03     5.19472E+06     665.349E+03    -136.633E+03    -133.015E+03     5.19110E+06     665.349E+03     82.6551E+03         89.8593
             115     13.3368E-03     39.1070E-03     862.412E-03    -381.697E-03    -496.123E-03    -259.353E-03     634.506E-03    -390.561E-03        -1.00077     604.107E-03    -297.600E-03    -298.923E-03    -295.933E-03     601.116E-03    -297.600E-03     103.758E-03     5.20423E+06     573.487E+03    -257.158E+03    -227.203E+03     5.17427E+06     573.487E+03     271.229E+03         89.7926
             116     13.3361E-03     40.9300E-03     678.851E-03    -217.275E-03    -453.167E-03     136.720E-03     324.855E-03    -453.167E-03    -618.025E-03     603.542E-03    -297.568E-03    -298.940E-03    -295.890E-03     600.492E-03    -297.568E-03     104.757E-03     5.46872E+06     825.573E+03    -228.325E+03    -193.424E+03     5.43381E+06     825.573E+03     163.275E+03         89.7288
             117     13.3369E-03     42.7576E-03     498.840E-03    -169.649E-03    -468.784E-03     113.093E-03     216.098E-03    -468.784E-03     260.870E-03     603.193E-03    -297.553E-03    -298.974E-03    -295.950E-03     600.169E-03    -297.553E-03     104.291E-03     5.36195E+06     656.565E+03    -638.867E+03    -633.762E+03     5.35685E+06     656.565E+03    -104.818E+03         89.6845
             118     13.3382E-03     44.5808E-03     421.426E-03    -128.035E-03    -435.505E-03     8.28702E-03     285.103E-03    -435.505E-03     420.050E-03     604.060E-03    -297.511E-03    -299.585E-03    -296.533E-03     601.007E-03    -297.511E-03     104.862E-03     5.95132E+06     1.50026E+06    -489.812E+03    -485.440E+03     5.94695E+06     1.50026E+06     137.178E+03         89.6678
             119     13.3379E-03     46.4047E-03     224.284E-03    -995.148E-06    -375.128E-03     104.199E-03     119.090E-03    -375.128E-03    -24.5107E-03     604.772E-03    -297.453E-03    -300.250E-03    -297.223E-03     601.745E-03    -297.453E-03     104.500E-03     6.53605E+06     1.92614E+06    -134.952E+03    -122.489E+03     6.52359E+06     1.92614E+06    -43.1488E+03         89.6710
             120     13.3379E-03     48.2372E-03     306.969E-03    -73.9205E-03    -290.672E-03    -11.2206E-03     244.269E-03    -290.672E-03     29.8373E-03     604.808E-03    -297.374E-03    -300.312E-03    -297.351E-03     601.847E-03    -297.374E-03     103.372E-03     6.84554E+06     1.76072E+06         321.438     10.6509E+03     6.83521E+06     1.76072E+06    -76.1051E+03         89.6827
             121     13.3388E-03     50.0711E-03     347.853E-03    -23.5768E-03    -199.246E-03     80.6349E-03     243.641E-03    -199.246E-03     255.687E-03     604.751E-03    -296.997E-03    -300.265E-03    -297.272E-03     601.757E-03    -296.997E-03     103.930E-03     6.78602E+06     2.20736E+06    -911.796E+03    -906.317E+03     6.78054E+06     2.20736E+06    -29.8041E+03         89.6921
             122     13.3384E-03     51.9081E-03     471.535E-03    -23.4402E-03    -364.566E-03    -166.590E-03     371.246E-03    -121.128E-03     325.323E-03     604.603E-03    -296.709E-03    -300.417E-03    -297.368E-03     601.554E-03    -296.709E-03     104.892E-03     6.82798E+06     3.06716E+06    -1.34546E+06    -1.34206E+06     6.82457E+06     3.06716E+06    -134.677E+03         89.6872
             123     13.3382E-03     53.7482E-03     602.616E-03    -25.0628E-03    -551.520E-03    -129.645E-03     180.741E-03    -25.0628E-03    -241.873E-03     603.732E-03    -296.642E-03    -299.959E-03    -296.871E-03     600.644E-03    -296.642E-03     105.467E-03     8.13087E+06     4.02790E+06    -104.844E+03    -86.8030E+03     8.11283E+06     4.02790E+06     256.480E+03         89.6630
             124     13.3421E-03     55.5853E-03     359.782E-03     70.4691E-03    -533.097E-03     201.655E-03    -374.970E-03     70.4691E-03    -267.458E-03     603.488E-03    -296.633E-03    -299.672E-03    -296.595E-03     600.411E-03    -296.633E-03     105.255E-03     8.99483E+06     4.17094E+06     369.698E+03     401.520E+03     8.96301E+06     4.17094E+06     26.4550E+03         89.6227
             125     13.3397E-03     57.4230E-03     270.273E-03     181.814E-03    -481.473E-03    -86.3596E-03    -124.841E-03     181.814E-03     478.488E-03     604.641E-03    -296.737E-03    -300.232E-03    -297.184E-03     601.593E-03    -296.737E-03     104.857E-03     8.18414E+06     3.24677E+06    -536.373E+03    -522.382E+03     8.17014E+06     3.24677E+06    -223.340E+03         89.5778
             126     13.3412E-03     59.2654E-03     354.688E-03     265.323E-03    -458.299E-03    -40.9096E-03    -102.920E-03     305.542E-03     94.5219E-03     604.259E-03    -296.717E-03    -300.223E-03    -297.142E-03     601.177E-03    -296.717E-03     105.407E-03     8.11884E+06     4.25843E+06    -554.527E+03    -554.356E+03     8.11867E+06     4.25843E+06     36.7461E+03         89.5407
             127     13.3427E-03     61.1089E-03     385.131E-03     183.020E-03    -615.623E-03     67.3789E-03    -499.981E-03     385.131E-03     149.848E-03     604.216E-03    -296.707E-03    -300.093E-03    -297.019E-03     601.142E-03    -296.707E-03     105.278E-03     8.62404E+06     4.37251E+06     49.0926E+03     49.1861E+03     8.62395E+06     4.37251E+06     28.0966E+03         89.5167
             128     13.3414E-03     62.9487E-03     432.505E-03     237.316E-03    -893.847E-03     122.065E-03    -778.597E-03     432.505E-03     76.1893E-03     604.276E-03    -296.644E-03    -299.932E-03    -296.909E-03     601.252E-03    -296.644E-03     104.404E-03     8.44067E+06     4.20776E+06    -161.703E+03    -161.181E+03     8.44015E+06     4.20776E+06    -29.8358E+03         89.5069
             129     13.3410E-03     64.7894E-03     442.086E-03     224.071E-03    -806.642E-03     196.863E-03    -779.434E-03     442.086E-03    -308.295E-03     603.764E-03    -296.567E-03    -299.711E-03    -296.644E-03     600.697E-03    -296.567E-03     105.098E-03     8.62386E+06     5.63792E+06     3.21509E+03      3.7015E+03     8.62337E+06     5.63792E+06    -54.9023E+03         89.5108
             130     13.3416E-03     66.6347E-03     431.494E-03     224.440E-03    -814.869E-03     112.495E-03    -702.924E-03     431.494E-03     478.228E-03     604.434E-03    -296.587E-03    -300.151E-03    -297.054E-03     601.336E-03    -296.587E-03     105.687E-03     9.11818E+06     5.20225E+06     182.855E+03     182.997E+03     9.11804E+06     5.20225E+06     14.2239E+03         89.5248
             131     13.3412E-03     68.4822E-03     435.023E-03     395.155E-03        -1.24530     281.846E-03        -1.13199     435.023E-03     620.293E-03     605.064E-03    -296.603E-03    -300.650E-03    -297.571E-03     601.985E-03    -296.603E-03     105.442E-03     9.33065E+06     4.53601E+06    -404.450E+03    -403.036E+03     9.32924E+06     4.53601E+06     104.319E+03         89.5455
             132     13.3415E-03     70.3314E-03     459.934E-03     377.958E-03        -1.04290     171.389E-03    -836.328E-03     459.934E-03     593.669E-03     604.515E-03    -296.579E-03    -300.365E-03    -297.322E-03     601.472E-03    -296.579E-03     104.784E-03     9.68201E+06     5.25754E+06    -348.248E+03    -345.398E+03     9.67916E+06     5.25754E+06    -7.92466E+03         89.5697
             133     13.3424E-03     72.1803E-03     470.372E-03     193.392E-03    -621.401E-03    -10.4310E-03    -417.578E-03     470.372E-03     492.869E-03     604.196E-03    -296.622E-03    -300.169E-03    -297.120E-03     601.147E-03    -296.622E-03     104.845E-03     9.87779E+06     5.61723E+06    -59.8739E+03    -50.4604E+03     9.86838E+06     5.61723E+06     107.982E+03         89.5925
             134     13.3423E-03     74.0298E-03     389.881E-03     114.602E-03    -691.110E-03     111.950E-03    -688.458E-03     389.881E-03     71.6240E-03     604.162E-03    -296.626E-03    -300.008E-03    -296.936E-03     601.090E-03    -296.626E-03     105.226E-03     9.95212E+06     5.83982E+06    -137.293E+03    -128.928E+03     9.94375E+06     5.83982E+06     145.111E+03         89.6154
             135     13.3425E-03     75.8853E-03     430.302E-03     176.577E-03    -838.303E-03     333.368E-03    -804.111E-03     239.319E-03     365.255E-03     604.096E-03    -296.594E-03    -299.939E-03    -296.887E-03     601.043E-03    -296.594E-03     104.887E-03     9.93550E+06     7.71106E+06    -253.752E+03    -252.508E+03     9.93425E+06     7.71106E+06    -112.034E+03         89.6418
             136     13.3430E-03     77.7461E-03     362.789E-03     122.576E-03    -860.263E-03     109.268E-03    -606.742E-03     122.576E-03     799.269E-03     604.125E-03    -296.613E-03    -300.054E-03    -296.995E-03     601.066E-03    -296.613E-03     105.002E-03     10.3058E+06     8.33844E+06    -134.790E+03    -130.846E+03     10.3019E+06     8.33844E+06     71.1104E+03         89.6716
             137     13.3438E-03     79.5992E-03     399.956E-03     85.5797E-03    -817.475E-03     88.7194E-03    -506.239E-03     85.5797E-03     975.749E-03     604.112E-03    -296.617E-03    -300.063E-03    -296.991E-03     601.040E-03    -296.617E-03     105.229E-03     11.0111E+06     8.09871E+06    -13.6213E+03    -9.76215E+03     11.0073E+06     8.09871E+06     192.273E+03         89.7034
             138     13.3438E-03     81.4416E-03     664.380E-03     63.8072E-03    -886.835E-03     488.250E-03    -710.704E-03     63.8072E-03     982.630E-03     604.661E-03    -296.635E-03    -300.341E-03    -297.268E-03     601.587E-03    -296.635E-03     105.303E-03     11.0262E+06     8.96513E+06    -516.924E+03    -516.256E+03     11.0255E+06     8.96513E+06     70.5496E+03         89.7327
             139     13.3450E-03     83.2832E-03     361.865E-03    -26.6748E-03    -636.814E-03     125.477E-03    -453.539E-03     26.4373E-03     556.380E-03     604.681E-03    -296.642E-03    -300.086E-03    -297.006E-03     601.602E-03    -296.642E-03     105.392E-03     11.3551E+06     9.55203E+06    -513.565E+03    -512.205E+03     11.3538E+06     9.55203E+06     99.3560E+03         89.7565
             140     13.3452E-03     85.1194E-03     179.432E-03    -49.8290E-03    -227.905E-03    -184.231E-03     82.6466E-03     3.28322E-03    -138.967E-03     604.233E-03    -296.642E-03    -299.647E-03    -296.562E-03     601.148E-03    -296.642E-03     105.432E-03     11.6912E+06     9.76301E+06    -275.957E+03    -272.708E+03     11.6880E+06     9.76301E+06    -18.0983E+03         89.7772
             141     13.3458E-03     86.9692E-03     439.356E-03    -21.9653E-03    -182.743E-03     128.646E-03     127.968E-03    -21.9653E-03     142.162E-03     604.327E-03    -296.633E-03    -299.593E-03    -296.516E-03     601.250E-03    -296.633E-03     105.290E-03     12.1270E+06     10.5451E+06    -174.594E+03    -168.309E+03     12.1207E+06     10.5451E+06     58.2160E+03         89.8009
             142     13.3449E-03     88.8145E-03     320.985E-03    -95.3045E-03    -245.050E-03     77.7490E-03    -1.81375E-03    -95.3045E-03     496.112E-03     604.506E-03    -296.614E-03    -299.689E-03    -296.618E-03     601.436E-03    -296.614E-03     105.202E-03     12.9924E+06     12.2026E+06    -83.4026E+03    -78.7013E+03     12.8349E+06     12.3554E+06     211.810E+03         89.8306
             143     13.3453E-03     90.6382E-03     486.861E-03    -170.449E-03    -472.344E-03    -407.271E-03     421.788E-03    -170.449E-03     382.433E-03     604.430E-03    -296.620E-03    -299.811E-03    -296.737E-03     601.357E-03    -296.620E-03     105.263E-03     13.3472E+06     13.0779E+06    -329.758E+03    -329.225E+03     13.0773E+06     13.3472E+06     84.0158E+03         89.8633
             144     13.3458E-03     92.4641E-03     858.586E-03    -171.871E-03    -527.690E-03    -20.5452E-03     351.442E-03    -171.871E-03    -298.411E-03     604.272E-03    -296.615E-03    -299.675E-03    -296.607E-03     601.204E-03    -296.615E-03     105.139E-03     14.2269E+06     13.2598E+06    -408.308E+03    -407.311E+03     13.2588E+06     14.2269E+06    -36.0616E+03         89.9002
             145     13.3468E-03     94.2876E-03     515.827E-03    -181.721E-03    -374.543E-03     382.786E-03    -241.502E-03    -181.721E-03    -547.230E-03     604.297E-03    -296.594E-03    -299.707E-03    -296.671E-03     601.261E-03    -296.594E-03     104.594E-03     15.4579E+06     13.8383E+06    -473.514E+03    -469.875E+03     13.8347E+06     15.4579E+06     71.3834E+03         89.9444
             146     13.3470E-03     96.1119E-03     492.276E-03    -234.087E-03    -452.231E-03    -23.6913E-03     63.7361E-03    -234.087E-03     542.091E-03     604.624E-03    -296.606E-03    -299.993E-03    -296.985E-03     601.616E-03    -296.606E-03     104.169E-03     16.5584E+06     14.5498E+06    -575.312E+03    -571.838E+03     14.5464E+06     16.5584E+06     214.515E+03         89.9843
             147     13.3468E-03     97.9408E-03     756.984E-03    -230.942E-03    -392.735E-03    -82.9112E-03     447.160E-03    -230.942E-03         1.01647     604.607E-03    -296.669E-03    -300.127E-03    -297.118E-03     601.599E-03    -296.669E-03     104.169E-03     17.8636E+06     15.2360E+06    -345.418E+03    -343.584E+03     15.2341E+06     17.8636E+06     166.894E+03         90.0084
             148     13.3469E-03     99.7777E-03     443.667E-03    -176.050E-03    -265.029E-03    -112.808E-03     291.446E-03    -176.050E-03     362.553E-03     604.424E-03    -296.712E-03    -300.183E-03    -297.168E-03     601.409E-03    -296.712E-03     104.270E-03     18.6348E+06     15.5687E+06    -382.082E+03    -380.845E+03     15.5674E+06     18.6348E+06     83.7847E+03         90.0281
             149     13.3473E-03     103.379E-03     259.012E-03     35.0945E-03    -131.996E-03     191.594E-03     102.512E-03    -131.996E-03     82.3774E-03     604.341E-03    -296.675E-03    -300.133E-03    -297.097E-03     601.305E-03    -296.675E-03     104.629E-03     20.5851E+06     16.1941E+06    -865.307E+03    -863.975E+03     16.1928E+06     20.5851E+06      10.605E+03         90.0879
             150     13.3469E-03     105.172E-03     332.857E-03     8.85369E-03    -438.111E-03    -8.42854E-03    -39.1344E-03    -48.8373E-03     615.739E-03     604.315E-03    -296.670E-03    -300.368E-03    -297.333E-03     601.280E-03    -296.670E-03     104.629E-03     22.9496E+06     17.3243E+06    -765.587E+03    -760.266E+03     17.3190E+06     22.9496E+06     140.558E+03         90.1174
             151     13.3465E-03     106.981E-03     338.889E-03     80.1379E-03    -671.166E-03     5.37272E-03    -337.650E-03     80.1379E-03     607.658E-03     604.301E-03    -296.706E-03    -300.631E-03    -297.580E-03     601.250E-03    -296.706E-03     104.909E-03     24.5868E+06     18.3050E+06      -305.6E+03    -300.101E+03     18.2995E+06     24.5868E+06     292.620E+03         90.1293
             152     13.3461E-03     108.792E-03     257.159E-03     150.058E-03    -442.743E-03     249.147E-03    -434.731E-03     150.058E-03     142.175E-03     603.766E-03    -296.643E-03    -300.699E-03    -297.638E-03     600.704E-03    -296.643E-03     105.064E-03     25.9458E+06     18.8097E+06    -566.433E+03    -562.057E+03     18.8053E+06     25.9458E+06     273.708E+03         90.1038
             153     13.3479E-03     110.591E-03     187.058E-03     84.1704E-03    -432.631E-03     84.2321E-03    -427.567E-03     181.932E-03     64.6428E-03     603.593E-03    -296.551E-03    -301.037E-03    -298.008E-03     600.564E-03    -296.551E-03     104.514E-03     28.1648E+06     19.9697E+06    -795.522E+03    -790.518E+03     19.9647E+06     28.1648E+06     311.896E+03         90.0380
             154     13.3475E-03     112.391E-03     237.141E-03    -16.4492E-03    -433.865E-03    -45.4159E-03    -404.899E-03     237.141E-03    -112.583E-03     604.084E-03    -296.418E-03    -301.572E-03    -298.574E-03     601.086E-03    -296.418E-03     104.030E-03     28.5237E+06     20.2489E+06    -1.19397E+06    -1.19247E+06     20.2473E+06     28.5237E+06     161.100E+03         89.9538
             155     13.3473E-03     114.177E-03     306.685E-03     135.024E-03    -398.202E-03     99.9078E-03    -363.085E-03     306.685E-03    -10.1668E-03     604.182E-03    -296.217E-03    -301.821E-03    -298.807E-03     601.168E-03    -296.217E-03     104.339E-03     29.5694E+06     21.2912E+06    -806.874E+03    -799.364E+03     21.2837E+06     29.5694E+06     329.863E+03         89.8789
             156     13.3499E-03     115.990E-03     373.240E-03     322.343E-03    -754.803E-03     215.231E-03    -612.626E-03     338.175E-03    -460.249E-03     604.120E-03    -296.024E-03    -301.658E-03    -298.654E-03     601.115E-03    -296.024E-03     104.155E-03     32.7765E+06     23.8451E+06     176.194E+03     190.447E+03     23.8309E+06     32.7765E+06     580.279E+03         89.8223
             157     13.3492E-03     117.813E-03     700.819E-03     308.356E-03    -870.525E-03    -275.434E-03     105.728E-03     308.356E-03    -822.996E-03     605.151E-03    -295.968E-03    -301.528E-03    -298.562E-03     602.185E-03    -295.968E-03     103.556E-03     35.4242E+06     24.8086E+06    -566.693E+03    -559.788E+03     24.8017E+06     35.4242E+06     280.480E+03         89.7776
             158     13.3479E-03     119.636E-03     713.470E-03     278.737E-03    -445.243E-03    -255.021E-03     523.249E-03     278.737E-03     30.8747E-03     606.077E-03    -296.096E-03    -301.091E-03    -298.099E-03     603.084E-03    -296.096E-03     104.025E-03     38.3421E+06     24.9864E+06    -1.01877E+06    -1.01876E+06     24.9864E+06     38.3421E+06    -8.77565E+03         89.7416
             159     13.3483E-03     121.457E-03     400.075E-03     245.658E-03    -762.809E-03     229.916E-03    -592.651E-03     245.658E-03     666.344E-03     605.775E-03    -296.223E-03    -300.330E-03    -297.332E-03     602.777E-03    -296.223E-03     104.062E-03     42.4870E+06     26.4341E+06    -668.482E+03    -661.025E+03     26.4266E+06     42.4870E+06     326.904E+03         89.7105
             160     13.3485E-03     123.277E-03     420.203E-03     195.827E-03    -966.305E-03     114.838E-03    -660.940E-03     195.827E-03     892.808E-03     605.698E-03    -296.451E-03    -299.390E-03    -296.400E-03     602.708E-03    -296.451E-03     103.872E-03     45.3322E+06     27.5209E+06    -1.01410E+06    -1.00565E+06     27.5124E+06     45.3322E+06     445.029E+03         89.6653
             161     13.3493E-03     125.093E-03     672.382E-03     154.592E-03    -741.591E-03     11.0454E-03    -80.2548E-03     154.592E-03    -366.007E-03     604.078E-03    -296.473E-03    -299.033E-03    -296.064E-03     601.108E-03    -296.473E-03     103.392E-03     48.0954E+06     28.4803E+06    -1.12203E+06    -1.12039E+06     28.4787E+06     48.0954E+06     20.6657E+03         89.6109
             162     13.3502E-03     126.825E-03     472.611E-03     20.4611E-03    -563.878E-03    -68.5183E-03    -104.403E-03     102.115E-03    -899.751E-03     602.527E-03    -297.301E-03    -299.307E-03    -296.381E-03     599.602E-03    -297.301E-03     102.561E-03     53.2778E+06     29.8377E+06    -1.16074E+06    -1.15870E+06     29.8357E+06     53.2778E+06     48.7071E+03         89.6198
             163     13.3517E-03     128.542E-03     175.417E-03    -38.8398E-03    -319.433E-03     17.0439E-03    -242.714E-03     42.8141E-03     130.111E-03     603.531E-03    -297.987E-03    -299.086E-03    -296.072E-03     600.517E-03    -297.987E-03     104.123E-03     57.1260E+06     30.3206E+06    -1.77562E+06    -1.77302E+06     30.3180E+06     57.1260E+06     288.421E+03         89.7684
             164     13.3534E-03     130.347E-03     245.399E-03    -20.5609E-03    -334.817E-03     188.636E-03    -278.053E-03    -20.5609E-03     319.297E-03     602.578E-03    -297.569E-03    -299.019E-03    -295.927E-03     599.486E-03    -297.569E-03     105.412E-03     59.8774E+06     30.0265E+06    -2.40578E+06    -2.40381E+06     30.0246E+06     59.8774E+06     250.861E+03         89.9956
             165     13.3542E-03     132.181E-03     341.086E-03    -103.382E-03    -272.893E-03     110.092E-03    -41.8990E-03    -103.382E-03     561.462E-03     602.012E-03    -297.660E-03    -298.710E-03    -295.652E-03     598.955E-03    -297.660E-03     104.776E-03     63.2851E+06     32.5361E+06    -1.73517E+06    -1.70939E+06     32.5103E+06     63.2851E+06     784.715E+03         90.0710
             166     13.3558E-03     133.995E-03     177.443E-03    -180.043E-03    -265.898E-03    -32.8386E-03    -43.3852E-03    -192.274E-03     338.530E-03     604.532E-03    -297.910E-03    -298.679E-03    -295.740E-03     601.593E-03    -297.910E-03     102.859E-03     65.8656E+06     35.7043E+06    -1.46263E+06    -1.43355E+06     35.6752E+06     65.8656E+06     397.411E+03         89.8337
             167     13.3565E-03     135.812E-03     319.548E-03    -233.722E-03    -552.610E-03     84.8348E-03    -305.667E-03    -245.952E-03    -762.311E-03     607.292E-03    -298.037E-03    -299.686E-03    -296.841E-03     604.446E-03    -298.037E-03     101.449E-03     69.9179E+06     36.0893E+06    -1.04561E+06    -1.03770E+06     36.0814E+06     69.9179E+06    -11.9172E+03         89.3896
             168     13.3570E-03     137.608E-03     487.689E-03    -61.1799E-03    -558.230E-03     269.316E-03    -149.464E-03    -251.571E-03    -689.949E-03     607.203E-03    -298.057E-03    -299.605E-03    -296.766E-03     604.364E-03    -298.057E-03     101.318E-03     74.1154E+06     37.3534E+06    -1.65552E+06    -1.64451E+06     37.3423E+06     74.1154E+06     650.951E+03         88.9803
             169     13.3560E-03     139.426E-03     392.070E-03    -18.5209E-03    -263.278E-03     81.7107E-03     237.473E-03    -208.912E-03     404.834E-03     605.436E-03    -298.032E-03    -299.112E-03    -296.215E-03     602.538E-03    -298.032E-03     102.216E-03     76.3258E+06     41.4145E+06    -2.50442E+06    -2.46143E+06     41.3715E+06     76.3258E+06     1.29460E+06         88.8084
             170     13.3550E-03     141.237E-03     628.045E-03    -148.197E-03    -967.876E-03     277.215E-03    -617.046E-03    -148.197E-03    -72.2620E-03     605.421E-03    -297.714E-03    -299.069E-03    -296.193E-03     602.545E-03    -297.714E-03     101.835E-03     77.2231E+06     44.9926E+06    -2.87606E+06    -2.83413E+06     44.9507E+06     77.2231E+06     520.528E+03         88.9921
             171     13.3544E-03     143.072E-03     590.691E-03    -105.691E-03        -1.20851     345.939E-03    -963.759E-03    -105.691E-03        -1.03461     605.110E-03    -297.212E-03    -298.351E-03    -295.215E-03     602.359E-03    -297.597E-03     99.5362E-03     80.5150E+06     44.4188E+06    -2.55146E+06    -2.54455E+06     44.4119E+06     80.5150E+06    -252.777E+03         89.5419
             172     13.3562E-03     144.862E-03     457.213E-03    -56.8604E-03    -914.500E-03     168.999E-03    -626.286E-03    -56.8604E-03        -1.06602     603.746E-03    -297.234E-03    -297.623E-03    -294.461E-03     600.972E-03    -297.623E-03     99.8187E-03     84.0253E+06     43.9400E+06    -2.61151E+06    -2.61053E+06     43.9390E+06     84.0253E+06     75.0761E+03         90.3539
             173     13.3595E-03     146.687E-03     489.677E-03     2.09755E-03        -1.10113     394.870E-03        -1.00632     2.09755E-03    -627.513E-03     603.239E-03    -297.052E-03    -298.191E-03    -295.300E-03     600.352E-03    -297.055E-03     101.862E-03     86.1616E+06     49.3457E+06    -2.24181E+06    -2.15620E+06     49.2601E+06     86.1616E+06     1.46222E+06         91.2534
             174     13.3651E-03     148.508E-03     466.326E-03     112.446E-03        -1.02154     458.522E-03        -1.01374     112.446E-03    -82.7379E-03     602.956E-03    -296.137E-03    -299.090E-03    -296.076E-03     599.943E-03    -296.137E-03     104.089E-03     87.3573E+06     55.1640E+06    -3.04342E+06    -2.95665E+06     55.0772E+06     87.3573E+06     1.32181E+06         92.0646
             175     13.3695E-03     150.410E-03     504.602E-03     300.889E-03        -1.35636     427.855E-03        -1.27961     300.889E-03    -524.041E-03     602.267E-03    -295.327E-03    -299.257E-03    -296.134E-03     599.144E-03    -295.327E-03     105.939E-03     87.9794E+06     60.1801E+06    -2.65002E+06    -2.59633E+06     60.1264E+06     87.9794E+06     1.08959E+06         92.6718
             176     13.3752E-03     152.298E-03     599.608E-03     367.600E-03        -1.82084     238.588E-03        -1.57973     487.513E-03        -1.36621     601.206E-03    -294.286E-03    -299.326E-03    -296.116E-03     597.996E-03    -294.286E-03     107.337E-03     89.5132E+06     61.6378E+06    -3.06456E+06    -2.96335E+06     61.5366E+06     89.5132E+06     24.5754E+03         93.0355
             177     13.3838E-03     154.164E-03     777.363E-03     501.928E-03        -2.07772     462.135E-03        -1.88241     621.840E-03        -1.21691     600.161E-03    -293.536E-03    -300.329E-03    -297.024E-03     596.856E-03    -293.536E-03     108.908E-03     92.8148E+06     59.7909E+06    -2.99806E+06    -2.90867E+06     59.7015E+06     92.8148E+06    -164.805E+03         93.2012
             178     13.3902E-03     156.065E-03     881.794E-03     695.877E-03        -2.45016     812.059E-03        -2.41081     726.271E-03    -182.388E-03     598.486E-03    -293.254E-03    -300.096E-03    -296.628E-03     595.018E-03    -293.254E-03     111.422E-03     95.3564E+06     63.0966E+06    -4.20500E+06    -4.16390E+06     63.0555E+06     95.3564E+06     1.24252E+06         93.2804
             179     13.4004E-03     157.962E-03     821.731E-03     635.141E-03        -2.58542     625.204E-03        -2.57548     821.731E-03     241.240E-03     593.461E-03    -292.954E-03    -298.082E-03    -294.405E-03     589.784E-03    -292.954E-03     114.268E-03     98.0138E+06     73.9409E+06    -2.97172E+06    -2.79102E+06     73.7602E+06     98.0138E+06     2.80416E+06         93.3762
             180     13.4131E-03     159.846E-03         1.05064     762.936E-03        -2.53726     894.418E-03        -2.53723     919.132E-03    -11.2293E-03     588.412E-03    -293.042E-03    -296.521E-03    -292.683E-03     584.575E-03    -293.042E-03     116.289E-03     101.455E+06     84.0257E+06    -2.45108E+06    -2.25957E+06     83.8342E+06     101.455E+06     1.93287E+06         93.5402
             181     13.4255E-03     161.747E-03         1.14715     749.915E-03        -2.87188     880.982E-03        -2.87143         1.01563    -55.5834E-03     587.763E-03    -292.671E-03    -294.904E-03    -291.018E-03     583.878E-03    -292.671E-03     116.864E-03     106.681E+06     85.4917E+06    -1.46876E+06    -1.41337E+06     85.4363E+06     106.681E+06     597.020E+03         93.8290
             182     13.4368E-03     163.612E-03         1.09048     368.846E-03        -3.06037     363.703E-03        -3.05523         1.09048    -227.588E-03     587.760E-03    -291.252E-03    -292.276E-03    -288.255E-03     583.859E-03    -291.372E-03     116.917E-03     105.975E+06     89.1698E+06     1.21941E+06     1.26778E+06     89.1214E+06     105.975E+06     1.78227E+06         94.2888
             183     13.4496E-03     165.498E-03         1.28067     684.602E-03        -3.20503     785.059E-03        -3.16534         1.14052    -756.401E-03     585.207E-03    -288.504E-03    -290.238E-03    -284.265E-03     580.967E-03    -290.238E-03     121.342E-03     109.759E+06     102.159E+06    -1.40820E+06    -1.19461E+06     101.945E+06     109.759E+06     3.86106E+06         94.7529
             184     13.4674E-03     167.418E-03         1.31254         1.08572        -3.45016         1.13630        -3.36058         1.17238     94.6999E-03     584.780E-03    -286.920E-03    -292.255E-03    -285.306E-03     579.445E-03    -288.534E-03     135.915E-03     119.039E+06     113.796E+06    -1.92915E+06    -1.71467E+06     113.582E+06     119.039E+06     2.84510E+06         94.8318
             185     13.4793E-03     169.508E-03         1.19226         1.06355        -3.39469     922.406E-03        -3.25354         1.19226         1.55227     588.653E-03    -287.248E-03    -297.303E-03    -291.835E-03     583.185E-03    -287.248E-03     138.492E-03     117.860E+06     114.453E+06    -5.08053E+06    -5.05662E+06     114.429E+06     117.860E+06     493.275E+03         94.2901
             186     13.4823E-03     171.558E-03         1.17800     852.309E-03        -3.24804     752.332E-03        -3.14807         1.17800     559.228E-03     589.294E-03    -287.643E-03    -298.690E-03    -294.555E-03     585.160E-03    -287.643E-03     120.506E-03     122.117E+06     117.014E+06    -6.01365E+06    -5.98220E+06     116.983E+06     122.117E+06     153.032E+03         93.2917
             187     13.4862E-03     173.349E-03         1.13412     371.974E-03        -3.09013     352.020E-03        -3.07018         1.13412    -104.858E-03     586.119E-03    -287.558E-03    -296.178E-03    -292.715E-03     582.656E-03    -287.558E-03     110.332E-03     128.272E+06     121.448E+06    -4.18606E+06    -4.13135E+06     121.393E+06     128.272E+06     712.122E+03         92.2728
             188     13.4911E-03     175.087E-03         1.28613     621.393E-03        -2.74797     728.718E-03        -2.66906         1.09989     937.548E-03     586.113E-03    -286.916E-03    -295.884E-03    -292.370E-03     582.600E-03    -286.916E-03     111.115E-03     132.193E+06     122.586E+06    -5.97335E+06    -5.92710E+06     122.540E+06     132.193E+06     1.07757E+06         91.8063
             189     13.4961E-03     176.796E-03         1.40962         1.04687        -2.92227         1.33622        -2.84887         1.04687     631.410E-03     589.552E-03    -286.472E-03    -299.173E-03    -295.652E-03     586.031E-03    -286.472E-03     111.652E-03     137.834E+06     122.505E+06    -4.81764E+06    -4.80603E+06     122.494E+06     137.834E+06     131.121E+03         92.4131
             190     13.4994E-03     178.544E-03         1.09685    -132.351E-03        -2.93623     39.5693E-03        -2.93165     920.348E-03    -9.91563E-03     589.023E-03    -286.422E-03    -301.099E-03    -297.667E-03     585.590E-03    -286.422E-03     110.337E-03     147.773E+06     119.957E+06    -1.25946E+06    -1.24426E+06     119.942E+06     147.773E+06    -24.1095E+03         94.3622
             191     13.5032E-03     180.320E-03     770.516E-03        -1.02981        -2.72083        -1.15476        -2.59588     770.516E-03     787.613E-03     591.016E-03    -286.596E-03    -304.645E-03    -300.965E-03     587.336E-03    -286.596E-03     114.516E-03     154.538E+06     112.704E+06     4.03323E+06     4.04273E+06     112.695E+06     154.538E+06    -968.936E+03         97.4029
             192     13.5044E-03     182.136E-03         1.04883    -79.9333E-03        -2.70469     43.9689E-03        -2.44746     667.691E-03    -275.618E-03     603.603E-03    -286.260E-03    -316.043E-03    -311.925E-03     599.486E-03    -286.260E-03     122.788E-03     146.145E+06     103.769E+06     -8.4058E+06    -8.40296E+06     103.766E+06     146.145E+06    -559.611E+03         100.739
             193     13.5047E-03     184.200E-03         1.90885     583.347E-03        -2.45583         1.72204        -2.26902     583.347E-03        -1.67796     617.309E-03    -285.590E-03    -328.385E-03    -323.862E-03     612.785E-03    -285.590E-03     130.462E-03     147.816E+06     112.571E+06    -5.80014E+06    -5.70488E+06     112.475E+06     147.816E+06     1.97983E+06         103.820
             194     13.5055E-03     186.383E-03         2.12955     495.758E-03        -2.49243         1.90713        -2.27000     495.758E-03        -1.86559     632.312E-03    -285.194E-03    -345.365E-03    -340.784E-03     627.731E-03    -285.194E-03     133.451E-03     147.485E+06     129.845E+06    -1.35896E+06    -1.26480E+06     130.708E+06     146.527E+06     2.36012E+06         106.532
             195     13.5045E-03     188.372E-03         1.06668    -27.8731E-03        -2.68909    -22.7003E-03        -2.00483     377.244E-03        -2.35945     647.799E-03    -285.351E-03    -363.739E-03    -359.933E-03     643.992E-03    -285.351E-03     123.463E-03     145.838E+06     137.305E+06    -4.98586E+06    -4.96707E+06     145.819E+06     137.305E+06     1.26704E+06         108.381
             196     13.5054E-03     190.522E-03     256.833E-03        -1.02527        -2.48229        -1.76691        -1.74065     256.833E-03        -1.31758     646.356E-03    -285.978E-03    -360.911E-03    -357.118E-03     642.563E-03    -285.978E-03     122.973E-03     159.268E+06     132.729E+06    -8.96452E+06    -8.87984E+06     159.183E+06     132.729E+06     3.67285E+06         108.624
             197     13.5032E-03     192.746E-03         2.59269    -678.670E-03        -1.28876         1.47854        -1.05158     198.315E-03    -422.345E-03     634.218E-03    -286.431E-03    -347.034E-03    -343.217E-03     630.401E-03    -286.431E-03     121.899E-03     173.905E+06     129.552E+06     595.416E+03     663.884E+03     173.837E+06     129.552E+06     2.06699E+06         107.879
             198     13.5042E-03     194.786E-03         11.3486     197.653E-03    -911.292E-03         11.3126    -875.321E-03     197.653E-03     720.492E-03     625.824E-03    -286.591E-03    -336.873E-03    -333.908E-03     622.859E-03    -286.591E-03     106.555E-03     184.577E+06     114.427E+06    -9.86727E+06    -9.61348E+06     184.323E+06     114.427E+06    -5.83746E+06         107.088
             199     13.5008E-03     196.934E-03         10.8908     161.799E-03    -615.200E-03         10.7116    -402.370E-03     128.101E-03    -27.1205E-03     609.453E-03    -286.680E-03    -320.096E-03    -317.636E-03     606.993E-03    -286.680E-03     95.4934E-03     155.603E+06     60.6152E+06    -92.1525E+06    -91.8517E+06     155.303E+06     60.6152E+06    -2.84788E+06         106.071
             200     13.5011E-03     198.892E-03         1.93527    -185.237E-03        -5.96845        -4.11380    -33.7447E-03    -70.8763E-03        -1.04518     581.820E-03    -281.411E-03    -298.164E-03    -290.454E-03     579.819E-03    -287.120E-03     83.4580E-03     128.152E+06     14.1439E+06    -125.299E+06    -125.019E+06     127.873E+06     14.1439E+06     7.83918E+06         104.332
             201     13.5012E-03     200.950E-03    -102.008E-03    -388.318E-03        -11.8618        -11.7568    -493.238E-03    -102.008E-03         1.54091     543.116E-03    -253.134E-03    -288.547E-03    -251.366E-03     541.348E-03    -288.547E-03     74.8824E-03     112.178E+06    -25.8789E+06    -142.007E+06    -141.556E+06     111.727E+06    -25.8789E+06    -116.755E+03         101.124
             202     13.5015E-03     202.820E-03    -77.5324E-03    -781.817E-03        -13.3777        -12.3133        -1.84615    -77.5324E-03        -3.22780     467.981E-03    -175.164E-03    -291.621E-03    -174.258E-03     467.075E-03    -291.621E-03     37.9261E-03     55.3627E+06    -94.2973E+06    -207.500E+06    -207.264E+06     55.1263E+06    -94.2973E+06    -6.81359E+06         96.8363
             203     12.5180E-03     204.173E-03         2.84783    -124.059E-03        -7.45248        -3.63307        -1.08112    -14.5258E-03        -4.91407     406.001E-03    -105.591E-03    -299.308E-03    -103.192E-03     403.603E-03    -299.308E-03    -46.9525E-03     26.5333E+06    -129.358E+06    -244.802E+06    -240.910E+06     22.6414E+06    -129.358E+06    -24.4418E+06         88.8349
             204     11.5902E-03     203.891E-03         3.89351     541.034E-03        -2.30001     637.812E-03         1.41218     84.5349E-03        -1.15705     398.645E-03    -87.2225E-03    -311.290E-03    -78.3319E-03     389.754E-03    -311.290E-03    -126.359E-03     26.5941E+06    -135.687E+06    -251.912E+06    -237.865E+06     12.5467E+06    -135.687E+06    -59.0597E+06         79.3669
             205     10.6754E-03     203.628E-03         1.55623     142.050E-03        -2.86428        -2.21591     907.854E-03     142.050E-03     81.6975E-03     411.541E-03    -86.1782E-03    -324.227E-03    -67.5332E-03     392.896E-03    -324.227E-03    -186.993E-03     6.63596E+06    -155.611E+06    -262.937E+06    -237.871E+06    -18.4301E+06    -155.611E+06    -77.7537E+06         73.5144
             206     9.77892E-03     203.322E-03         1.58941     179.948E-03        -1.13488     652.897E-03    -198.365E-03     179.948E-03         2.51423     433.036E-03    -94.9019E-03    -337.802E-03    -64.7044E-03     402.839E-03    -337.802E-03    -244.277E-03     640.038E+03    -162.710E+06    -266.874E+06    -233.119E+06    -33.1158E+06    -162.710E+06    -88.6756E+06         69.9782
             207     8.91379E-03     202.983E-03         1.04998    -116.543E-03        -1.12446     327.075E-03    -626.170E-03     108.077E-03         1.15133     459.910E-03    -109.253E-03    -350.459E-03    -66.3914E-03     417.049E-03    -350.459E-03    -299.789E-03     2.05506E+06    -165.113E+06    -269.978E+06    -229.227E+06    -38.6965E+06    -165.113E+06    -96.9951E+06         67.7023
             208     8.07074E-03     202.626E-03     128.397E-03    -115.197E-03        -1.70128    -617.037E-03        -1.18046     109.423E-03        -1.49820     496.644E-03    -130.599E-03    -362.238E-03    -74.5818E-03     440.626E-03    -362.238E-03    -357.570E-03    -1.56019E+06    -169.732E+06    -274.710E+06    -226.868E+06    -49.4025E+06    -169.732E+06    -103.692E+06         66.3825
             209     7.30256E-03     202.177E-03     227.238E-03    -82.2003E-03        -1.96890        -1.04020    -991.926E-03     208.264E-03        -1.63461     534.072E-03    -157.138E-03    -373.008E-03    -90.9401E-03     467.875E-03    -373.008E-03    -406.800E-03    -9.71744E+06    -174.898E+06    -281.312E+06    -228.402E+06    -62.6267E+06    -174.898E+06    -107.551E+06         66.0802
             210     6.52266E-03     201.871E-03     614.473E-03     46.1285E-03    -884.377E-03    -805.586E-03     245.217E-03     336.593E-03    -402.587E-03     567.301E-03    -180.411E-03    -384.804E-03    -108.585E-03     495.475E-03    -384.804E-03    -440.657E-03    -12.3432E+06    -178.264E+06    -283.053E+06    -229.148E+06    -66.2488E+06    -178.264E+06    -108.106E+06         66.4278
             211     5.77202E-03     201.543E-03         1.50734     414.311E-03    -716.574E-03    -498.384E-03         1.28915     414.311E-03         1.11899     595.082E-03    -197.109E-03    -397.249E-03    -121.540E-03     519.513E-03    -397.249E-03    -465.422E-03    -10.9000E+06    -179.946E+06    -275.715E+06    -222.290E+06    -64.3249E+06    -179.946E+06    -106.264E+06         67.0298
             212     5.00197E-03     201.288E-03         1.37560     451.309E-03        -1.54222    -888.058E-03     721.439E-03     451.309E-03         2.32848     621.024E-03    -210.168E-03    -412.383E-03    -129.490E-03     540.346E-03    -412.383E-03    -492.124E-03    -16.3311E+06    -186.097E+06    -269.659E+06    -217.309E+06    -68.6811E+06    -186.097E+06    -102.572E+06         67.7444
             213     4.27423E-03     200.921E-03         1.26708     504.776E-03        -2.42756        -1.13009    -30.3826E-03     504.776E-03         3.52649     654.333E-03    -220.940E-03    -432.933E-03    -132.341E-03     565.734E-03    -432.933E-03    -527.949E-03    -19.7901E+06    -193.985E+06    -266.316E+06    -215.175E+06    -70.9317E+06    -193.985E+06    -99.9613E+06         68.4846
             214     3.50446E-03     200.689E-03         2.76726     474.802E-03        -2.84568    -166.949E-03     88.5356E-03     474.802E-03         5.48457     684.513E-03    -226.994E-03    -455.983E-03    -127.802E-03     585.321E-03    -455.983E-03    -567.541E-03    -20.5122E+06    -202.483E+06    -262.965E+06    -212.133E+06    -71.3447E+06    -202.483E+06    -98.6911E+06         69.2171
             215     2.79092E-03     200.293E-03         3.87889    -1.77535E-03        -1.58216         2.34252    -45.7889E-03    -1.77535E-03         4.29518     707.316E-03    -225.553E-03    -484.819E-03    -113.052E-03     594.815E-03    -484.819E-03    -607.266E-03    -28.3505E+06    -217.480E+06    -265.074E+06    -214.353E+06    -79.0716E+06    -217.480E+06    -97.1283E+06         69.8259
             216     2.01036E-03     200.034E-03         3.73053     78.3672E-03        -1.10088         3.57665     217.663E-03        -1.08630     945.784E-03     740.690E-03    -219.824E-03    -519.556E-03    -90.8738E-03     611.739E-03    -519.556E-03    -654.654E-03    -50.1790E+06    -236.071E+06    -272.954E+06    -224.160E+06    -98.9728E+06    -236.071E+06    -92.1337E+06         70.0527
             217     1.36628E-03     199.452E-03         2.87306    -495.107E-03        -2.44757         2.65918    -281.231E-03        -2.44757        -1.38101     788.401E-03    -224.211E-03    -559.692E-03    -78.9162E-03     643.106E-03    -559.692E-03    -709.934E-03    -102.584E+06    -284.691E+06    -308.892E+06    -265.572E+06    -145.903E+06    -284.691E+06    -83.9684E+06         69.5175
             218     766.770E-06     198.824E-03         2.09747        -1.45450        -3.30067         1.18730    -544.334E-03        -3.30067        -2.79089     836.701E-03    -259.004E-03    -577.649E-03    -121.318E-03     699.016E-03    -577.649E-03    -723.524E-03    -175.110E+06    -364.032E+06    -375.267E+06    -327.853E+06    -222.525E+06    -364.032E+06    -84.5852E+06         68.0094
             219     405.247E-06     197.926E-03         3.14085        -1.58808        -4.17912    -96.4464E-03     116.551E-03        -2.64645        -6.23252     870.038E-03    -333.077E-03    -536.315E-03    -249.593E-03     786.554E-03    -536.315E-03    -586.323E-03    -324.873E+06    -518.760E+06    -538.255E+06    -465.056E+06    -382.188E+06    -534.644E+06    -89.5845E+06         66.0007
             220     59.3784E-06     195.302E-03         2.99339    -531.053E-03        -4.68095    -239.289E-03        -1.83839    -140.930E-03        -6.33353     651.566E-03    -280.102E-03    -371.974E-03    -289.076E-03     628.298E-03    -339.731E-03    -192.565E-03    -337.637E+06    -437.888E+06    -540.364E+06    -471.029E+06    -391.088E+06    -453.772E+06    -5.10011E+06         62.5338
             221    -15.5679E-06     193.885E-03         1.40562     298.636E-03        -2.62828     584.473E-03        -1.88757     379.071E-03        -2.22656     398.081E-03    -180.473E-03    -217.946E-03    -211.317E-03     396.682E-03    -185.704E-03     55.5752E-03    -287.618E+06    -302.019E+06    -389.503E+06    -353.705E+06    -322.525E+06    -302.910E+06     37.7895E+06         58.5210
             222     13.8351E-06     192.435E-03         1.22241    -203.080E-03    -809.487E-03     673.468E-03     345.864E-03    -809.487E-03        -1.23695     378.442E-03    -179.716E-03    -198.031E-03    -192.175E-03     377.817E-03    -184.947E-03     37.5812E-03    -240.528E+06    -256.743E+06    -311.768E+06    -249.290E+06    -306.984E+06    -252.764E+06     11.6323E+06         56.0424
             223     4.12073E-06     190.973E-03         1.95560    -288.064E-03    -806.518E-03    -216.496E-03         1.66230    -584.783E-03    -436.939E-03     388.633E-03    -183.667E-03    -205.238E-03    -204.723E-03     388.118E-03    -183.667E-03     33.7390E-03    -135.320E+06    -141.756E+06    -255.507E+06    -143.876E+06    -251.821E+06    -136.886E+06     11.0110E+06         54.6948
             224     9.73652E-06     189.494E-03         3.50198    -970.768E-03        -1.90521     259.509E-03         1.33726    -970.768E-03         3.84778     400.970E-03    -191.841E-03    -209.142E-03    -208.924E-03     400.753E-03    -191.841E-03     22.9155E-03    -109.160E+06    -111.968E+06    -243.994E+06    -110.516E+06    -243.880E+06    -110.726E+06    -1.40739E+06         54.2554
             225     1.78403E-06     188.007E-03         4.09411    -993.998E-03        -4.93903         1.50058        -2.34550    -993.998E-03         7.92878     415.197E-03    -202.179E-03    -212.994E-03    -212.867E-03     415.070E-03    -202.179E-03     17.5361E-03    -91.9082E+06    -94.6249E+06    -237.952E+06    -93.1705E+06    -237.931E+06    -93.3828E+06     440.794E+03         54.6463
             226     505.827E-09     186.465E-03         2.77689     416.482E-03        -6.13366     496.252E-03        -4.06304     626.505E-03         7.35880     428.943E-03    -211.605E-03    -217.515E-03    -217.436E-03     428.864E-03    -211.605E-03     14.2442E-03    -98.1429E+06    -100.741E+06    -246.010E+06    -99.3288E+06    -245.947E+06    -99.6176E+06    -2.67587E+06         55.7705
             227     4.06431E-06     184.921E-03         2.18585     778.479E-03        -4.89356    -699.530E-03        -3.41555         2.18585         4.95401     446.105E-03    -218.925E-03    -227.059E-03    -226.991E-03     446.038E-03    -218.925E-03     13.4494E-03    -101.934E+06    -106.079E+06    -254.216E+06    -103.117E+06    -254.157E+06    -104.956E+06    -1.68136E+06         57.4310
             228     2.11682E-06     183.338E-03         3.57624     923.031E-03        -4.73383    -561.650E-03        -3.24915         3.57624         4.95021     464.823E-03    -228.588E-03    -235.563E-03    -235.517E-03     464.777E-03    -228.588E-03     11.1990E-03    -106.077E+06    -114.698E+06    -260.806E+06    -106.095E+06    -260.788E+06    -114.698E+06    -735.294E+03         59.4919
             229     1.03565E-06     181.741E-03         3.23097         1.71173        -4.92362     42.9590E-03        -3.19147         3.16759         5.83826     482.451E-03    -238.454E-03    -243.386E-03    -243.345E-03     482.410E-03    -238.454E-03     10.8918E-03    -112.873E+06    -126.777E+06    -263.990E+06    -121.229E+06    -263.940E+06    -118.471E+06    -2.61106E+06         61.7602
             230     1.12417E-06     180.089E-03         2.23494     79.4081E-03        -3.28701     947.033E-03        -1.96539     45.6958E-03         4.64692     499.167E-03    -247.618E-03    -251.504E-03    -251.464E-03     499.127E-03    -247.618E-03     10.8988E-03    -118.265E+06    -135.496E+06    -264.236E+06    -126.836E+06    -263.971E+06    -127.191E+06     2.60539E+06         63.8572
             231     555.310E-09     178.411E-03         2.58057    -723.168E-03        -3.03307         2.02281        -2.44160    -756.880E-03         2.39038     518.827E-03    -257.409E-03    -261.312E-03    -261.287E-03     518.802E-03    -257.409E-03     8.71316E-03    -120.792E+06    -136.616E+06    -264.511E+06    -127.921E+06    -264.280E+06    -129.717E+06     3.90083E+06         65.1661
             232     722.184E-09     176.706E-03         2.48965         1.01197        -3.12749         2.43862        -3.07646         1.01197     80.3123E-03     539.345E-03    -266.827E-03    -271.436E-03    -271.424E-03     539.333E-03    -266.827E-03     5.98244E-03    -124.746E+06    -141.289E+06    -269.853E+06    -131.678E+06    -269.819E+06    -134.391E+06     1.38746E+06         65.1227
             233     785.935E-09     174.966E-03         2.93250         1.82050        -3.59518         1.82829        -3.33687         2.66640        -2.23443     553.316E-03    -273.970E-03    -278.396E-03    -276.374E-03     553.309E-03    -275.986E-03     4.78769E-03    -127.590E+06    -147.974E+06    -261.503E+06    -138.388E+06    -261.444E+06    -137.236E+06     467.141E+03         64.2058
             234    -5.37137E-06     173.216E-03         2.94249         1.74553        -4.83666         1.81071        -4.55077         2.59143    -889.861E-03     561.024E-03    -275.802E-03    -285.036E-03    -275.797E-03     561.020E-03    -285.036E-03     3.70709E-03    -128.237E+06    -145.673E+06    -248.489E+06    -139.067E+06    -248.398E+06    -134.935E+06    -3.11807E+06         63.7045
             235    -5.39796E-06     171.471E-03         2.26043     958.354E-03        -3.92849         1.03302        -3.65209         1.90936    -342.592E-03     566.187E-03    -276.764E-03    -288.708E-03    -276.762E-03     566.186E-03    -288.708E-03     2.11905E-03    -138.660E+06     -151.14E+06    -256.673E+06    -144.512E+06    -256.604E+06    -145.357E+06    -2.40650E+06         64.3155
             236    -2.20265E-06     169.701E-03         3.02160     245.340E-03        -4.55838    -37.4765E-03        -4.27556         3.02160        -2.04790     572.598E-03    -283.388E-03    -288.193E-03    -283.466E-03     572.597E-03    -288.115E-03     471.279E-06    -145.741E+06    -154.689E+06    -269.628E+06    -151.529E+06    -269.623E+06    -148.905E+06    -663.053E+03         65.6386
             237     2.39296E-06     167.917E-03         3.15824     416.577E-03        -5.03726         1.06858        -4.77284         2.24182        -2.46072     581.054E-03    -289.390E-03    -290.773E-03    -290.772E-03     581.053E-03    -289.390E-03     447.946E-06    -137.843E+06    -143.392E+06    -276.873E+06    -140.233E+06    -276.868E+06    -141.007E+06     279.986E+03         66.7549
             238    -168.866E-09     166.127E-03         2.77599     217.540E-03        -3.90201         1.99333        -3.11935     217.540E-03        -4.10631     585.409E-03    -291.772E-03    -293.594E-03    -293.076E-03     585.409E-03    -292.289E-03     506.733E-06    -133.589E+06    -138.443E+06    -276.888E+06    -136.044E+06    -276.818E+06    -136.058E+06     2.69656E+06         67.2787
             239    -1.01099E-06     164.335E-03         3.52551    -315.993E-03        -3.94398         2.02231        -2.44078    -315.993E-03        -5.97756     583.178E-03    -291.731E-03    -292.373E-03    -291.855E-03     583.177E-03    -292.248E-03    -1.59881E-03    -119.473E+06    -125.385E+06    -259.160E+06    -122.995E+06    -259.080E+06    -121.942E+06     3.09536E+06         67.5125
             240     1.25429E-06     162.540E-03         4.41863     543.478E-03        -6.27814         1.69013        -3.54964     543.478E-03        -9.29763     581.405E-03    -290.576E-03    -291.467E-03    -291.466E-03     581.405E-03    -290.576E-03    -1.05779E-03    -109.675E+06    -116.931E+06    -244.461E+06    -113.145E+06    -244.434E+06    -113.488E+06      9.2465E+03         67.6632
             241    -340.021E-09     160.734E-03         7.63748         1.85164        -10.8874         1.33335        -4.58329         1.85164        -17.4630     584.979E-03    -292.037E-03    -293.157E-03    -292.804E-03     584.979E-03    -292.390E-03     265.059E-06    -105.847E+06    -113.563E+06    -236.580E+06    -109.765E+06    -236.566E+06    -109.659E+06    -665.247E+03         67.7136
             242    -542.879E-09     158.929E-03         10.5519         2.36372        -13.2935     511.017E-03        -3.25261         2.36372        -23.4320     588.445E-03    -293.504E-03    -295.240E-03    -294.886E-03     588.445E-03    -293.857E-03    -747.820E-06    -97.8304E+06    -105.338E+06    -227.431E+06    -101.739E+06    -227.427E+06    -101.434E+06     711.151E+03         67.7802
             243     2.17766E-06     157.120E-03         11.8194         1.68730        -13.5773    -132.289E-03        -1.62563         1.68730        -25.3526     588.632E-03    -293.506E-03    -295.172E-03    -294.887E-03     588.631E-03    -293.790E-03    -9.92732E-06    -96.5111E+06    -102.510E+06    -223.942E+06    -99.0035E+06    -223.845E+06    -100.114E+06     2.82078E+06         67.9612
             244    -2.07343E-06     155.310E-03         13.6120     596.947E-03        -15.0547     771.101E-03        -2.21382     596.947E-03        -28.4818     588.536E-03    -293.394E-03    -294.965E-03    -293.394E-03     588.536E-03    -294.965E-03     227.423E-06    -99.5068E+06    -103.561E+06    -225.294E+06    -102.101E+06    -225.095E+06    -101.165E+06    -194.104E+03         68.1185
             245    -328.818E-09     153.494E-03         12.5461     130.540E-03        -13.8273         1.49543        -2.77656     130.540E-03        -26.0208     588.877E-03    -293.415E-03    -295.435E-03    -293.415E-03     588.877E-03    -295.435E-03    -690.345E-06    -112.101E+06    -114.069E+06    -226.980E+06    -112.393E+06    -226.688E+06    -114.069E+06     536.770E+03         68.1458
             246    -1.85933E-06     151.678E-03         8.77764     207.553E-03        -9.53904         1.04572        -1.80712     207.553E-03        -18.0822     590.224E-03    -294.429E-03    -295.956E-03    -294.429E-03     590.224E-03    -295.956E-03    -526.952E-06    -113.397E+06    -114.690E+06    -213.219E+06    -114.578E+06    -213.022E+06    -113.705E+06     3.80800E+06         68.0959
             247     240.934E-09     149.855E-03         6.09091    -876.862E-03        -5.54879    -189.963E-03     732.079E-03    -876.862E-03        -11.2664     592.304E-03    -295.214E-03    -296.807E-03    -296.012E-03     592.303E-03    -296.009E-03    -1.22650E-03    -103.387E+06    -106.381E+06    -198.502E+06    -104.434E+06    -198.439E+06    -105.397E+06     2.28324E+06         68.0155
             248     424.585E-09     148.044E-03         3.66161        -1.75957        -2.68176     75.1170E-03     904.729E-03        -1.75957        -5.77095     594.159E-03    -296.168E-03    -297.647E-03    -297.647E-03     594.158E-03    -296.168E-03    -1.32716E-03    -97.4387E+06    -101.295E+06    -187.689E+06    -99.3648E+06    -187.609E+06    -99.4486E+06     2.63056E+06         67.9056
             249     467.284E-09     146.220E-03         2.34356     411.385E-03        -3.62306         1.30145        -2.94420     774.643E-03     467.747E-03     595.161E-03    -297.092E-03    -298.775E-03    -298.775E-03     595.161E-03    -297.092E-03    -728.121E-06    -90.5527E+06    -94.6933E+06    -174.472E+06    -92.4382E+06    -174.433E+06    -92.8470E+06     1.76066E+06         67.7681
             250     1.05579E-06     144.396E-03         3.21034     495.928E-03        -3.92947     600.561E-03        -1.68295     859.185E-03         4.62651     595.793E-03    -297.307E-03    -299.119E-03    -299.119E-03     595.793E-03    -297.307E-03    -540.328E-06    -84.3613E+06    -88.3065E+06    -161.227E+06    -86.1071E+06    -161.132E+06    -86.6556E+06     2.39217E+06         67.6020
             251     783.619E-09     142.578E-03         5.50997        -1.31115        -4.57795        -1.39308         2.32510        -1.31115         9.37765     595.847E-03    -296.918E-03    -299.185E-03    -299.185E-03     595.847E-03    -296.918E-03    -790.647E-06    -82.7359E+06    -85.8849E+06    -147.136E+06    -84.4711E+06    -147.052E+06    -84.2340E+06     1.90672E+06         67.4253
             252     794.084E-09     140.749E-03         10.1141        -1.20631        -9.74469    -993.476E-03         1.36286        -1.20631         19.3544     594.771E-03    -296.767E-03    -298.313E-03    -298.224E-03     594.771E-03    -296.856E-03    -636.289E-06    -82.3383E+06     -84.404E+06    -135.040E+06    -83.0665E+06    -134.880E+06    -83.8365E+06     2.16067E+06         67.2397
             253    -855.533E-09     138.929E-03         13.9727    -904.208E-03        -13.3635     165.033E-03     444.134E-03    -904.208E-03         27.3223     594.166E-03    -297.047E-03    -297.252E-03    -297.162E-03     594.165E-03    -297.136E-03    -1.75199E-03    -79.8074E+06    -81.1648E+06    -120.485E+06    -80.5650E+06    -120.294E+06    -80.5973E+06     2.64910E+06         66.9923
             254     828.609E-09     137.105E-03         15.6324        -1.27297        -14.0623     204.181E-03         1.36590        -1.27297         29.6720     594.799E-03    -297.294E-03    -297.614E-03    -297.613E-03     594.797E-03    -297.294E-03    -1.91627E-03    -84.3193E+06    -85.8104E+06    -104.282E+06    -85.7262E+06    -102.875E+06    -85.8104E+06     2.45454E+06         66.6874
             255    -123.613E-09     135.279E-03         14.5738        -1.15650        -13.9341    -678.089E-03         1.31783        -1.15650         28.4235     594.030E-03    -296.424E-03    -297.821E-03    -296.628E-03     594.029E-03    -297.617E-03    -856.582E-06    -85.8993E+06    -86.8746E+06    -96.7078E+06    -87.5143E+06    -95.0928E+06    -86.8746E+06     446.667E+03         66.3759
             256    -1.49310E-06     133.454E-03         10.6623     970.749E-03        -12.8091    -951.144E-03        -1.19563     970.749E-03         23.2634     593.397E-03    -295.242E-03    -298.005E-03    -295.242E-03     593.397E-03    -298.005E-03    -851.121E-06    -78.8116E+06    -84.8704E+06    -93.3648E+06    -84.0298E+06    -88.1466E+06    -84.8704E+06     2.12175E+06         66.1004
             257    -647.447E-09     131.637E-03         6.79771         2.50596        -9.47349    -567.289E-03        -2.10849         2.50596         16.1348     594.310E-03    -295.727E-03    -298.129E-03    -295.726E-03     594.310E-03    -298.129E-03    -1.09853E-03    -65.4503E+06    -78.6035E+06    -81.5119E+06    -79.1662E+06    -67.7960E+06    -78.6035E+06     3.58009E+06         65.9501
             258    -744.062E-09     129.810E-03         6.36125     597.046E-03        -6.23699        -1.57434         1.69860     597.046E-03         11.7413     595.091E-03    -296.963E-03    -297.979E-03    -296.963E-03     595.091E-03    -297.979E-03    -941.130E-06    -54.4546E+06    -70.1172E+06    -72.1517E+06    -71.4555E+06    -54.4880E+06    -70.7800E+06    -335.433E+03         66.0018
             259     744.909E-09     127.987E-03         7.44759    -967.471E-03        -6.24825     214.956E-03     984.382E-03    -967.471E-03         12.4371     596.054E-03    -297.728E-03    -298.358E-03    -297.728E-03     596.054E-03    -298.358E-03    -282.145E-06    -51.4654E+06    -66.9332E+06    -67.6458E+06    -66.8658E+06    -51.5827E+06    -67.5959E+06     287.724E+03         66.1774
             260    -1.76760E-06     126.167E-03         8.08400    -641.830E-03        -8.08126         1.91991        -1.91718    -641.830E-03         15.6451     598.216E-03    -297.202E-03    -300.346E-03    -297.202E-03     598.216E-03    -300.346E-03    -281.572E-06    -45.2481E+06    -59.5040E+06    -59.7014E+06    -59.6024E+06    -45.3471E+06    -59.5040E+06     1.08180E+06         66.2863
             261    -876.893E-09     124.337E-03         7.12306    -912.723E-03        -6.64740     741.986E-03    -266.326E-03    -912.723E-03         13.6348     597.882E-03    -296.070E-03    -301.122E-03    -296.070E-03     597.882E-03    -301.122E-03    -549.588E-06    -41.0390E+06    -54.4302E+06    -54.9473E+06    -54.9353E+06    -41.0510E+06    -54.4302E+06     265.842E+03         66.2843
             262    -1.51969E-06     122.515E-03         5.87088     85.1887E-03        -5.87589     294.726E-03    -299.739E-03     85.1887E-03         11.6515     596.047E-03    -295.544E-03    -300.121E-03    -295.543E-03     596.046E-03    -300.121E-03    -1.06229E-03    -39.0260E+06    -50.1528E+06    -50.5901E+06    -50.5001E+06    -39.0484E+06    -50.2204E+06     299.127E+03         66.2723
             263    -1.30663E-06     120.695E-03         4.89804         1.96262        -6.79015    -215.686E-03        -1.67642         1.96262         11.5911     596.617E-03    -295.858E-03    -300.224E-03    -295.858E-03     596.617E-03    -300.224E-03    -918.883E-06    -36.0494E+06    -46.8766E+06    -47.0168E+06    -46.8529E+06    -36.0731E+06    -47.0168E+06     234.968E+03         66.2834
             264    -1.98948E-06     118.869E-03         4.41277         1.80099        -6.69077    -754.085E-03        -1.52391         1.80099         11.0750     597.841E-03    -297.273E-03    -299.782E-03    -297.636E-03     597.839E-03    -299.418E-03    -1.81019E-03    -33.5504E+06    -44.0027E+06    -44.3511E+06    -43.9793E+06    -33.5738E+06    -44.3511E+06     219.914E+03         66.2954
             265     2.36408E-06     117.042E-03         5.64634     559.926E-03        -6.25214     294.953E-03    -900.759E-03     559.926E-03         11.8236     597.235E-03    -297.456E-03    -298.868E-03    -298.866E-03     597.233E-03    -297.456E-03    -1.87168E-03    -33.3738E+06    -42.9713E+06    -43.6906E+06    -43.3847E+06    -33.4039E+06    -43.2471E+06     524.734E+03         66.2967
             266    -671.052E-09     115.220E-03         6.20437    -350.808E-03        -5.35457         1.29844    -448.639E-03    -350.808E-03         11.4262     596.674E-03    -296.764E-03    -298.797E-03    -297.811E-03     596.674E-03    -297.750E-03    -700.129E-06    -30.9112E+06    -40.9074E+06    -41.4223E+06    -41.3365E+06    -30.9256E+06    -40.9788E+06     387.232E+03         66.2944
             267    -831.239E-09     113.397E-03         5.57236    -942.538E-03        -4.68017         1.11759    -225.404E-03    -942.538E-03         10.1615     596.466E-03    -296.497E-03    -299.127E-03    -296.497E-03     596.466E-03    -299.127E-03    -609.367E-06    -27.0379E+06    -36.6254E+06    -36.7395E+06    -36.5694E+06    -27.0940E+06    -36.7395E+06     657.974E+03         66.3071
             268    -1.09212E-06     111.571E-03         4.80459     211.068E-03        -5.19484     730.291E-03        -1.12054     211.068E-03         9.79994     596.750E-03    -297.234E-03    -299.275E-03    -297.234E-03     596.750E-03    -299.275E-03    -582.387E-06    -25.2525E+06    -34.7614E+06    -35.1593E+06    -35.0562E+06    -25.3130E+06    -34.8041E+06     250.092E+03         66.3311
             269     945.763E-09     109.748E-03         5.51545         1.45078        -6.55967    -281.306E-03    -762.921E-03         1.45078         11.8367     598.112E-03    -298.165E-03    -299.425E-03    -299.028E-03     598.112E-03    -298.562E-03    -1.11501E-03    -22.9912E+06    -32.4752E+06    -33.3201E+06    -32.8042E+06    -23.0173E+06    -32.9649E+06     36.7115E+03         66.3557
             270     606.166E-09     107.921E-03         6.19281     686.318E-03        -6.47627    -800.961E-03     517.505E-03     686.318E-03         12.5918     597.662E-03    -297.525E-03    -299.983E-03    -298.387E-03     597.662E-03    -299.120E-03    -786.722E-06    -20.3917E+06    -29.8023E+06    -30.6123E+06    -30.0764E+06    -20.4380E+06    -30.2920E+06     661.521E+03         66.3782
             271    -1.88817E-06     106.096E-03         6.14884    -74.8113E-03        -6.19720     619.630E-03    -667.993E-03    -74.8113E-03         12.0932     597.002E-03    -296.339E-03    -300.661E-03    -296.339E-03     597.002E-03    -300.661E-03    -656.477E-06    -18.9591E+06    -28.7262E+06    -29.0874E+06    -29.0077E+06    -18.9979E+06    -28.7671E+06     190.314E+03         66.3958
             272    -1.48833E-06     104.271E-03         5.80611     24.2355E-03        -6.07902     942.903E-03        -1.21582     24.2355E-03         11.6277     597.641E-03    -296.840E-03    -300.511E-03    -296.839E-03     597.640E-03    -300.511E-03    -1.56725E-03    -16.5933E+06    -26.3846E+06    -26.8682E+06    -26.3759E+06    -16.6019E+06    -26.8682E+06    -144.374E+03         66.4160
             273     161.782E-09     102.443E-03         7.09577        -1.13119        -6.27136    -491.870E-03         1.31628        -1.13119         13.0056     597.911E-03    -298.248E-03    -299.379E-03    -298.247E-03     597.910E-03    -299.379E-03    -1.60877E-03    -17.5285E+06    -26.7630E+06    -28.1195E+06    -27.6732E+06    -17.5322E+06    -27.2056E+06    -70.9119E+03         66.4414
             274     12.6139E-03     99.5593E-03     510.975E-03    -181.696E-03    -366.612E-03    -84.9182E-03     229.281E-03    -181.696E-03     199.246E-03     603.285E-03    -296.696E-03    -302.922E-03    -299.344E-03     599.708E-03    -296.696E-03     113.300E-03     18.3952E+06     15.3456E+06    -1.00903E+06    -1.00342E+06     15.3399E+06     18.3952E+06     231.590E+03         88.4549
             275     11.8737E-03     99.3691E-03     498.320E-03    -186.326E-03    -340.340E-03    -34.7390E-03     200.064E-03    -193.672E-03    -75.6746E-03     601.380E-03    -296.874E-03    -302.016E-03    -298.901E-03     598.264E-03    -296.874E-03     104.470E-03     18.0268E+06     16.0398E+06    -1.98962E+06    -1.97182E+06     16.4925E+06     17.5564E+06     544.279E+03         84.7976
             276     11.1141E-03     99.2002E-03     495.123E-03    -183.667E-03    -263.471E-03    -134.350E-03     384.982E-03    -202.646E-03    -26.6775E-03     596.206E-03    -298.128E-03    -299.316E-03    -296.909E-03     594.336E-03    -298.664E-03     81.6128E-03     16.6936E+06     15.5278E+06    -3.27521E+06    -3.23156E+06     16.6499E+06     15.5278E+06     855.013E+03         80.6683
             277     10.3734E-03     99.0729E-03     661.156E-03    -195.660E-03    -361.448E-03    -168.017E-03     479.358E-03    -207.293E-03    -439.403E-03     592.694E-03    -297.036E-03    -298.158E-03    -296.272E-03     591.344E-03    -297.572E-03     68.8434E-03     15.0410E+06     13.4693E+06    -4.71371E+06    -4.65705E+06     14.9843E+06     13.4693E+06     1.00096E+06         76.8700
             278     9.63124E-03     98.9709E-03     742.367E-03    -215.266E-03    -406.540E-03    -79.8966E-03     415.724E-03    -215.266E-03    -567.385E-03     593.256E-03    -292.062E-03    -295.123E-03    -291.761E-03     592.369E-03    -294.537E-03     55.7893E-03     15.2891E+06     12.9159E+06    -5.87411E+06    -5.81735E+06     15.2324E+06     12.9159E+06     1.07465E+06         73.7409
             279     8.89030E-03     98.8816E-03     760.219E-03    -229.823E-03    -446.828E-03    -29.1378E-03     342.529E-03    -229.823E-03    -394.146E-03     594.398E-03    -292.137E-03    -296.380E-03    -291.555E-03     593.816E-03    -296.380E-03     45.0505E-03     14.5385E+06     12.0848E+06    -7.41249E+06    -7.34437E+06     14.4704E+06     12.0848E+06     1.20355E+06         71.4208
             280     8.14898E-03     98.8328E-03     615.247E-03    -207.724E-03    -397.920E-03     53.9591E-03     207.310E-03    -251.666E-03    -285.128E-03     594.050E-03    -296.284E-03    -300.561E-03    -295.951E-03     593.718E-03    -300.561E-03     33.9607E-03     12.2414E+06     9.83808E+06    -9.06601E+06    -8.98390E+06     12.1593E+06     9.83808E+06     1.30194E+06         69.8678
             281     7.40679E-03     98.7958E-03     467.678E-03    -139.236E-03    -332.999E-03     115.742E-03     163.225E-03    -283.524E-03    -235.816E-03     589.422E-03    -297.286E-03    -302.678E-03    -297.120E-03     589.256E-03    -302.678E-03     23.8718E-03     10.5796E+06     7.03369E+06    -10.6377E+06    -10.5406E+06     10.4825E+06     7.03369E+06     1.40048E+06         68.8529
             282     6.66611E-03     98.7500E-03     581.066E-03    -174.293E-03    -365.839E-03     96.8501E-03     268.451E-03    -324.366E-03    -603.910E-03     591.590E-03    -297.304E-03    -301.768E-03    -297.233E-03     591.520E-03    -301.768E-03     15.3047E-03     8.35483E+06     3.52433E+06    -12.6215E+06    -12.5043E+06     8.23771E+06     3.52433E+06     1.52773E+06         68.1985
             283     5.92545E-03     98.7232E-03     783.689E-03    -311.891E-03    -400.095E-03    -115.084E-03     548.405E-03    -361.618E-03    -610.632E-03     599.851E-03    -297.687E-03    -299.322E-03    -297.721E-03     599.830E-03    -299.267E-03     7.98872E-03     4.83287E+06    -635.343E+03    -14.8115E+06    -14.6762E+06     4.69758E+06    -635.343E+03     1.47127E+06         67.7469
             284     5.18442E-03     98.7127E-03         1.03636    -346.345E-03    -551.214E-03    -223.102E-03     750.385E-03    -388.487E-03    -123.706E-03     604.176E-03    -296.461E-03    -299.361E-03    -299.358E-03     604.173E-03    -296.461E-03     1.75840E-03     2.09235E+06    -4.23510E+06    -16.4080E+06    -16.2579E+06     1.94218E+06    -4.23510E+06     1.52307E+06         67.3279
             285     4.44373E-03     98.7241E-03         1.00161    -234.066E-03    -652.761E-03    -184.757E-03     720.250E-03    -420.712E-03    -207.607E-03     599.829E-03    -295.248E-03    -301.912E-03    -301.908E-03     599.825E-03    -295.248E-03    -3.26951E-03    -58.8919E+03    -7.97199E+06    -17.9721E+06    -17.7277E+06    -303.280E+03    -7.97199E+06     1.87471E+06         66.9446
             286     3.70300E-03     98.7386E-03     960.854E-03    -330.930E-03    -614.764E-03    -145.318E-03     635.914E-03    -475.435E-03    -281.142E-03     591.597E-03    -295.655E-03    -299.903E-03    -299.891E-03     591.586E-03    -295.655E-03    -6.38084E-03    -2.88330E+06    -12.0382E+06    -19.4597E+06    -19.2072E+06    -3.13585E+06    -12.0382E+06     1.84251E+06         66.6639
             287     2.96261E-03     98.7540E-03         1.23246    -454.983E-03    -766.643E-03    -322.997E-03     871.823E-03    -537.996E-03     91.7634E-03     589.624E-03    -295.103E-03    -296.452E-03    -295.515E-03     589.606E-03    -296.022E-03    -7.91998E-03    -5.24805E+06    -15.4012E+06    -20.5208E+06    -20.3575E+06    -5.41137E+06    -15.4012E+06     1.52604E+06         66.4641
             288     2.22206E-03     98.7707E-03         1.76971    -420.659E-03        -1.29300    -882.688E-03         1.44241    -503.672E-03     948.012E-03     590.988E-03    -295.056E-03    -296.733E-03    -295.039E-03     590.970E-03    -296.733E-03    -7.79661E-03    -7.59805E+06    -18.7155E+06    -21.7659E+06    -21.6318E+06    -7.73222E+06    -18.7155E+06     1.30012E+06         66.3631
             289     1.48136E-03     98.7837E-03         2.38107    -274.889E-03        -1.92017    -941.794E-03         1.40268    -274.889E-03        -1.27410     593.669E-03    -296.579E-03    -297.925E-03    -296.569E-03     593.658E-03    -297.925E-03    -5.98595E-03    -9.68478E+06    -21.5873E+06    -22.7294E+06    -22.6554E+06    -9.75879E+06    -21.5873E+06     893.858E+03         66.3833
             290     740.819E-06     98.7906E-03         4.04531     384.764E-03        -4.06216    -603.295E-03     586.441E-03     384.764E-03         3.44069     596.372E-03    -297.329E-03    -298.879E-03    -297.326E-03     596.369E-03    -298.879E-03    -2.75132E-03    -11.7822E+06    -22.3806E+06    -23.0925E+06    -22.7273E+06    -11.8201E+06    -22.7079E+06     364.816E+03         66.4462
             291     12.6145E-03     97.7249E-03     728.373E-03    -232.235E-03    -497.284E-03    -284.657E-03     515.746E-03    -232.235E-03     143.567E-03     603.291E-03    -296.619E-03    -302.875E-03    -299.282E-03     599.699E-03    -296.619E-03     113.507E-03     17.3483E+06     14.9185E+06    -922.972E+03    -921.346E+03     14.9168E+06     17.3483E+06     110.502E+03         88.4437
             292     11.8735E-03     97.5444E-03     605.258E-03    -224.454E-03    -473.599E-03    -363.221E-03     502.226E-03    -231.800E-03    -103.808E-03     601.076E-03    -296.786E-03    -301.843E-03    -298.704E-03     597.937E-03    -296.786E-03     104.820E-03     16.6768E+06     14.8687E+06    -2.24793E+06    -2.23485E+06     15.5477E+06     15.9847E+06     368.826E+03         84.8003
             293     11.1129E-03     97.3821E-03     434.309E-03    -169.379E-03    -294.284E-03    -108.831E-03     316.115E-03    -236.638E-03     415.568E-03     595.910E-03    -298.035E-03    -299.191E-03    -296.684E-03     594.029E-03    -298.661E-03     81.8125E-03     15.9397E+06     14.2658E+06    -3.32698E+06    -3.28564E+06     15.8983E+06     14.2658E+06     802.244E+03         80.6784
             294     10.3711E-03     97.2497E-03     395.197E-03    -117.674E-03    -271.726E-03    -21.9752E-03     281.698E-03    -253.925E-03    -40.9708E-03     592.629E-03    -296.996E-03    -298.120E-03    -296.148E-03     591.284E-03    -297.622E-03     68.6845E-03     14.8152E+06     12.8135E+06     -4.1643E+06    -4.11642E+06     14.7673E+06     12.8135E+06     883.125E+03         76.8838
             295     9.63140E-03     97.1368E-03     599.677E-03    -192.520E-03    -387.799E-03    -216.242E-03     504.458E-03    -268.857E-03     67.8375E-03     593.312E-03    -292.127E-03    -295.068E-03    -291.752E-03     592.439E-03    -294.571E-03     55.3549E-03     14.8796E+06     11.9756E+06    -5.57173E+06    -5.50649E+06     14.8144E+06     11.9756E+06     1.13394E+06         73.7523
             296     8.89060E-03     97.0472E-03     870.696E-03    -264.942E-03    -601.370E-03    -492.439E-03     761.765E-03    -264.942E-03    -66.0287E-03     594.262E-03    -292.201E-03    -296.314E-03    -291.625E-03     593.685E-03    -296.314E-03     44.8659E-03     14.8529E+06     11.0705E+06    -7.10339E+06    -7.01626E+06     14.7657E+06     11.0705E+06     1.37921E+06         71.4274
             297     8.14886E-03     96.9829E-03     805.391E-03    -244.149E-03    -604.328E-03    -536.980E-03     738.043E-03    -244.149E-03    -377.552E-03     593.890E-03    -296.352E-03    -300.501E-03    -296.018E-03     593.555E-03    -300.501E-03     34.0678E-03     12.6207E+06     8.88618E+06    -8.65232E+06    -8.57003E+06     12.5384E+06     8.88618E+06     1.30597E+06         69.8760
             298     7.40769E-03     96.9362E-03     678.819E-03    -224.867E-03    -546.361E-03    -358.996E-03     491.454E-03    -224.867E-03     27.5793E-03     589.379E-03    -297.304E-03    -302.663E-03    -297.133E-03     589.208E-03    -302.663E-03     24.2521E-03     10.4079E+06     6.48327E+06    -10.5328E+06    -10.4317E+06     10.3068E+06     6.48327E+06     1.42750E+06         68.8616
             299     6.66730E-03     96.9009E-03     708.341E-03    -166.192E-03    -597.601E-03    -248.850E-03     409.318E-03    -215.919E-03    -122.233E-03     591.555E-03    -297.424E-03    -301.781E-03    -297.350E-03     591.481E-03    -301.781E-03     15.6679E-03     8.61580E+06     3.41366E+06    -12.1760E+06    -12.0424E+06     8.48223E+06     3.41366E+06     1.64813E+06         68.2031
             300     5.92562E-03     96.8903E-03     646.299E-03    -163.675E-03    -454.811E-03    -206.282E-03     447.496E-03    -213.402E-03    -463.405E-03     599.799E-03    -297.761E-03    -299.332E-03    -297.834E-03     599.778E-03    -299.238E-03     7.99015E-03     5.74420E+06    -1.13178E+06    -13.5658E+06    -13.3831E+06     5.56156E+06    -1.13178E+06     1.66174E+06         67.7490
             301     5.18416E-03     96.8860E-03     768.999E-03    -206.534E-03    -466.832E-03    -300.858E-03     603.025E-03    -206.534E-03    -214.620E-03     604.089E-03    -296.445E-03    -299.258E-03    -299.255E-03     604.086E-03    -296.445E-03     1.59405E-03     2.51830E+06    -5.38723E+06    -15.4593E+06    -15.2729E+06     2.33195E+06    -5.38723E+06     1.62321E+06         67.3268
             302     4.44364E-03     96.8931E-03     925.919E-03    -184.661E-03    -607.787E-03    -375.396E-03     693.528E-03    -184.661E-03    -502.678E-03     599.802E-03    -295.306E-03    -301.919E-03    -301.915E-03     599.797E-03    -295.306E-03    -3.36433E-03     242.891E+03    -8.30017E+06    -17.1266E+06    -16.8943E+06     10.5516E+03    -8.30017E+06     1.60592E+06         66.9339
             303     3.70321E-03     96.9046E-03     899.051E-03    -154.838E-03    -684.414E-03    -311.732E-03     526.369E-03    -154.838E-03    -528.043E-03     591.755E-03    -295.649E-03    -300.047E-03    -300.036E-03     591.744E-03    -295.649E-03    -6.33832E-03    -1.61528E+06    -10.7760E+06    -18.0523E+06    -17.8163E+06    -1.85128E+06    -10.7760E+06     1.57659E+06         66.6440
             304     2.96309E-03     96.9192E-03     673.374E-03    -80.9608E-03    -603.496E-03    -189.176E-03     314.191E-03    -136.098E-03     178.392E-03     589.807E-03    -295.080E-03    -296.533E-03    -295.566E-03     589.790E-03    -296.030E-03    -7.65477E-03    -3.84579E+06    -13.9222E+06    -19.0329E+06    -18.8839E+06    -3.99487E+06    -13.9222E+06     1.46244E+06         66.4467
             305     2.22228E-03     96.9435E-03         1.28752    -101.935E-03        -1.20897    -24.5007E-03     158.195E-03    -157.073E-03     864.697E-03     591.063E-03    -295.050E-03    -296.703E-03    -295.034E-03     591.048E-03    -296.703E-03    -7.33407E-03    -5.93780E+06    -16.9335E+06    -20.0206E+06    -19.9034E+06    -6.05505E+06    -16.9335E+06     1.14567E+06         66.3538
             306     1.48184E-03     96.9549E-03         2.30751    -215.748E-03        -2.12220    -83.0718E-03     268.384E-03    -215.748E-03        -1.59999     593.628E-03    -296.618E-03    -297.769E-03    -296.608E-03     593.619E-03    -297.769E-03    -5.52098E-03    -7.43867E+06    -19.1388E+06    -20.4609E+06    -20.4070E+06    -7.49255E+06    -19.1388E+06     614.510E+03         66.3773
             307     741.225E-06     96.9648E-03         4.19293    -252.359E-03        -3.87977    -243.890E-03     557.049E-03    -252.359E-03         3.28481     596.080E-03    -297.140E-03    -298.773E-03    -297.137E-03     596.077E-03    -298.773E-03    -2.65807E-03    -9.91308E+06    -20.5207E+06    -21.0150E+06    -20.9350E+06    -9.95441E+06    -20.5594E+06     278.752E+03         66.4405
             308     12.6130E-03     95.9024E-03     644.938E-03    -241.118E-03    -473.431E-03     67.2514E-03     104.255E-03    -241.118E-03    -57.0126E-03     603.195E-03    -296.519E-03    -302.784E-03    -299.174E-03     599.585E-03    -296.519E-03     113.752E-03     16.2428E+06     14.3914E+06    -1.00797E+06    -998.130E+03     14.3816E+06     16.2428E+06     255.411E+03         88.4193
             309     11.8748E-03     95.6970E-03     697.913E-03    -255.037E-03    -485.790E-03    -21.3573E-03     233.480E-03    -255.037E-03    -394.970E-03     601.029E-03    -296.696E-03    -301.737E-03    -298.569E-03     597.861E-03    -296.696E-03     105.301E-03     15.9345E+06     14.3313E+06    -2.10614E+06    -2.09077E+06     15.0721E+06     15.1783E+06     408.785E+03         84.7766
             310     11.1128E-03     95.5556E-03     561.076E-03    -218.159E-03    -484.457E-03    -133.603E-03     258.502E-03    -266.439E-03    -362.143E-03     596.243E-03    -297.899E-03    -299.114E-03    -296.477E-03     594.351E-03    -298.644E-03     82.0535E-03     15.5059E+06     13.3450E+06    -3.12746E+06    -3.11015E+06     15.4886E+06     13.3450E+06     554.077E+03         80.6606
             311     10.3703E-03     95.4323E-03     434.170E-03    -150.648E-03    -417.600E-03    -124.799E-03     265.986E-03    -275.266E-03    -292.308E-03     592.816E-03    -296.895E-03    -298.077E-03    -295.986E-03     591.469E-03    -297.639E-03     68.7182E-03     14.3464E+06     11.8110E+06    -4.25830E+06    -4.22231E+06     14.3104E+06     11.8110E+06     781.039E+03         76.8743
             312     9.63126E-03     95.3073E-03     468.286E-03    -198.044E-03    -370.353E-03    -229.866E-03     409.705E-03    -279.950E-03    -95.4764E-03     593.314E-03    -292.188E-03    -295.050E-03    -291.755E-03     592.444E-03    -294.612E-03     55.2614E-03     14.4828E+06     11.2872E+06    -5.60081E+06    -5.54269E+06     14.4247E+06     11.2872E+06     1.05458E+06         73.7455
             313     8.89005E-03     95.2250E-03     603.638E-03    -219.728E-03    -454.754E-03    -287.415E-03     495.773E-03    -279.202E-03    -234.318E-03     594.449E-03    -292.350E-03    -296.382E-03    -291.780E-03     593.878E-03    -296.382E-03     44.6377E-03     14.5887E+06     10.4309E+06    -6.87846E+06    -6.77249E+06     14.4828E+06     10.4309E+06     1.42741E+06         71.4169
             314     8.14818E-03     95.1673E-03     765.888E-03    -215.062E-03    -603.897E-03    -469.248E-03     685.144E-03    -268.966E-03    -424.860E-03     593.724E-03    -296.349E-03    -300.484E-03    -296.017E-03     593.392E-03    -300.484E-03     33.9488E-03     12.9540E+06     8.37840E+06    -8.38830E+06    -8.24635E+06     12.8120E+06     8.37840E+06     1.70737E+06         69.8622
             315     7.40611E-03     95.1255E-03     970.521E-03    -235.691E-03    -805.476E-03    -722.223E-03     887.268E-03    -235.691E-03    -178.816E-03     589.087E-03    -297.218E-03    -302.605E-03    -297.047E-03     588.916E-03    -302.605E-03     24.2515E-03     10.9937E+06     5.67914E+06    -9.96115E+06    -9.84809E+06     10.8806E+06     5.67914E+06     1.52655E+06         68.8502
             316     6.66594E-03     95.0897E-03     883.643E-03    -178.564E-03    -836.065E-03    -774.033E-03     821.610E-03    -178.564E-03     53.7626E-03     591.985E-03    -297.755E-03    -301.987E-03    -297.679E-03     591.910E-03    -301.987E-03     15.8796E-03     8.68501E+06     2.17520E+06    -11.3021E+06    -11.1976E+06     8.58051E+06     2.17520E+06     1.43548E+06         68.1977
             317     5.92594E-03     95.0624E-03     615.029E-03    -114.520E-03    -619.005E-03    -612.024E-03     608.048E-03    -114.520E-03    -78.1664E-03     600.356E-03    -298.065E-03    -299.554E-03    -298.158E-03     600.333E-03    -299.438E-03     8.29543E-03     5.94572E+06    -1.38452E+06    -12.8564E+06    -12.6784E+06     5.76770E+06    -1.38452E+06     1.68797E+06         67.7475
             318     5.18470E-03     95.0542E-03     412.546E-03    -68.6141E-03    -432.054E-03    -276.920E-03     257.413E-03    -68.6141E-03     325.378E-03     604.168E-03    -296.457E-03    -299.256E-03    -299.252E-03     604.164E-03    -296.457E-03     1.83067E-03     3.78498E+06    -4.26229E+06    -13.8886E+06    -13.6964E+06     3.59283E+06    -4.26229E+06     1.71717E+06         67.3253
             319     4.44379E-03     95.0686E-03     359.845E-03    -49.4583E-03    -356.987E-03    -103.647E-03     106.505E-03    -49.4583E-03     39.8541E-03     599.568E-03    -295.314E-03    -301.724E-03    -301.721E-03     599.564E-03    -295.314E-03    -3.15055E-03     1.45081E+06    -7.68019E+06    -15.0783E+06    -14.9311E+06     1.30354E+06    -7.68019E+06     1.28484E+06         66.9279
             320     3.70303E-03     95.0874E-03     608.965E-03    -15.6631E-03    -549.633E-03    -310.856E-03     370.188E-03    -15.6631E-03     245.218E-03     591.562E-03    -295.667E-03    -299.994E-03    -299.983E-03     591.551E-03    -295.667E-03    -6.13559E-03    -1.07172E+06    -10.6575E+06    -16.7594E+06    -16.6326E+06    -1.19857E+06    -10.6575E+06     1.04018E+06         66.6314
             321     2.96227E-03     95.1024E-03     678.854E-03     29.1282E-03    -710.297E-03    -284.627E-03     225.307E-03     57.0044E-03     83.6623E-03     589.836E-03    -295.247E-03    -296.715E-03    -295.831E-03     589.820E-03    -296.115E-03    -7.42363E-03    -2.85374E+06    -12.8834E+06    -17.8345E+06    -17.7282E+06    -2.96002E+06    -12.8834E+06     1.01358E+06         66.4316
             322     2.22195E-03     95.1164E-03         1.15709     20.3608E-03        -1.26445     364.590E-03    -499.819E-03     48.2370E-03     842.195E-03     591.127E-03    -295.123E-03    -296.824E-03    -295.108E-03     591.113E-03    -296.824E-03    -7.18847E-03    -4.44950E+06    -15.2862E+06    -18.3715E+06    -18.2993E+06    -4.52175E+06    -15.2862E+06     784.964E+03         66.3394
             323     1.48129E-03     95.1308E-03         1.62224    -151.554E-03        -1.59553     424.459E-03    -402.528E-03    -146.779E-03     7.87821E-03     593.636E-03    -296.493E-03    -297.932E-03    -296.484E-03     593.627E-03    -297.932E-03    -5.40360E-03    -6.00224E+06    -17.6985E+06    -18.8530E+06    -18.8154E+06    -6.03769E+06    -17.7006E+06     558.940E+03         66.3627
             324     740.352E-06     95.1393E-03         2.98603    -599.063E-03        -2.61174     11.1178E-03     358.403E-03    -594.288E-03         2.77526     596.354E-03    -297.587E-03    -298.830E-03    -297.585E-03     596.351E-03    -298.830E-03    -2.74879E-03    -8.04791E+06    -18.8692E+06    -19.1214E+06    -18.9962E+06    -8.09599E+06    -18.9464E+06     563.626E+03         66.4275
             325     12.6131E-03     94.0860E-03     618.144E-03    -195.456E-03    -476.938E-03     388.089E-03    -246.882E-03    -195.456E-03    -29.4361E-03     603.168E-03    -296.590E-03    -302.603E-03    -298.986E-03     599.551E-03    -296.590E-03     113.881E-03     15.2883E+06     13.6297E+06    -787.178E+03    -776.608E+03     13.8215E+06     15.0859E+06     258.602E+03         88.3791
             326     11.8753E-03     93.8767E-03     567.369E-03    -146.002E-03    -456.239E-03     258.240E-03    -71.8084E-03    -221.304E-03    -27.6573E-03     601.254E-03    -296.779E-03    -301.674E-03    -298.514E-03     598.095E-03    -296.779E-03     105.177E-03     15.5794E+06     14.0295E+06    -1.60470E+06    -1.58785E+06     14.9161E+06     14.6760E+06     492.845E+03         84.7386
             327     11.1123E-03     93.7323E-03     571.282E-03    -161.189E-03    -451.906E-03    -83.5980E-03     278.276E-03    -236.491E-03    -450.216E-03     596.447E-03    -297.982E-03    -299.115E-03    -296.526E-03     594.553E-03    -298.677E-03     82.1082E-03     15.0078E+06     13.4874E+06    -2.72410E+06    -2.69655E+06     14.9803E+06     13.4874E+06     676.648E+03         80.6328
             328     10.3711E-03     93.5990E-03     622.934E-03    -234.616E-03    -468.107E-03    -326.705E-03     481.532E-03    -234.616E-03    -166.919E-03     593.127E-03    -296.998E-03    -298.232E-03    -296.179E-03     591.769E-03    -297.693E-03     69.0533E-03     13.9458E+06     11.6830E+06    -3.87403E+06    -3.82789E+06     13.8997E+06     11.6830E+06     898.186E+03         76.8624
             329     9.63067E-03     93.4848E-03     439.347E-03    -205.703E-03    -297.015E-03    -212.573E-03     378.276E-03    -229.074E-03    -185.244E-03     593.686E-03    -292.315E-03    -295.243E-03    -291.973E-03     592.804E-03    -294.704E-03     55.6317E-03     14.2651E+06     10.6211E+06    -5.10667E+06    -5.03539E+06     14.1939E+06     10.6211E+06     1.11758E+06         73.7440
             330     8.88934E-03     93.4132E-03     443.018E-03    -156.106E-03    -304.340E-03    -89.7189E-03     305.673E-03    -233.382E-03    -116.156E-03     594.655E-03    -292.651E-03    -296.458E-03    -292.075E-03     594.079E-03    -296.458E-03     44.8602E-03     13.8061E+06     9.85869E+06    -6.39178E+06    -6.28341E+06     13.6977E+06     9.85869E+06     1.37636E+06         71.4150
             331     8.14865E-03     93.3432E-03     582.261E-03    -153.721E-03    -422.154E-03    -236.499E-03     480.068E-03    -237.183E-03    -59.4561E-03     593.591E-03    -296.483E-03    -300.408E-03    -296.149E-03     593.257E-03    -300.408E-03     34.0624E-03     13.4187E+06     8.33787E+06    -7.43602E+06    -7.31879E+06     13.3015E+06     8.33787E+06     1.48969E+06         69.8565
             332     7.40766E-03     93.2864E-03     644.317E-03    -119.903E-03    -525.783E-03    -378.978E-03     605.627E-03    -228.017E-03    -285.288E-03     588.974E-03    -297.242E-03    -302.575E-03    -297.071E-03     588.803E-03    -302.575E-03     24.2151E-03     11.7932E+06     5.76365E+06    -8.58643E+06    -8.46254E+06     11.6693E+06     5.76365E+06     1.53564E+06         68.8454
             333     6.66625E-03     93.2588E-03     593.648E-03    -129.928E-03    -512.925E-03    -416.752E-03     576.128E-03    -208.582E-03    -145.261E-03     592.025E-03    -297.806E-03    -302.078E-03    -297.732E-03     591.951E-03    -302.078E-03     15.6198E-03     8.69196E+06     2.39185E+06    -10.1593E+06    -10.0066E+06     8.53931E+06     2.39185E+06     1.66003E+06         68.1953
             334     5.92468E-03     93.2456E-03     564.564E-03    -177.163E-03    -508.189E-03    -501.367E-03     557.838E-03    -177.259E-03     30.4402E-03     600.515E-03    -298.153E-03    -299.702E-03    -298.179E-03     600.494E-03    -299.654E-03     8.04332E-03     6.39907E+06    -1.17242E+06    -11.6562E+06    -11.5156E+06     6.25848E+06    -1.17242E+06     1.53852E+06         67.7466
             335     5.18354E-03     93.2432E-03     597.000E-03    -131.497E-03    -596.508E-03    -493.804E-03     494.296E-03    -131.497E-03    -46.9832E-03     604.381E-03    -296.602E-03    -299.441E-03    -299.382E-03     604.377E-03    -296.658E-03     1.82224E-03      4.4067E+06    -3.82065E+06    -12.8700E+06    -12.7556E+06     4.29233E+06    -3.82065E+06     1.36463E+06         67.3278
             336     4.44354E-03     93.2397E-03     613.483E-03    -84.9925E-03    -622.293E-03    -331.638E-03     322.829E-03    -84.9925E-03     400.737E-03     599.857E-03    -295.355E-03    -301.686E-03    -301.682E-03     599.853E-03    -295.355E-03    -3.00760E-03     2.51220E+06    -6.44534E+06    -14.1024E+06    -13.9539E+06     2.36374E+06    -6.44534E+06     1.50136E+06         66.9346
             337     3.70262E-03     93.2585E-03     592.148E-03    -61.7489E-03    -558.241E-03    -84.2808E-03     118.188E-03    -61.7489E-03     501.148E-03     591.926E-03    -295.723E-03    -299.952E-03    -299.941E-03     591.915E-03    -295.723E-03    -6.19218E-03     296.211E+03    -9.63035E+06    -15.0916E+06    -14.9617E+06     166.335E+03    -9.63035E+06     1.25874E+06         66.6400
             338     2.96210E-03     93.2728E-03     670.831E-03    -69.9426E-03    -577.506E-03     18.4125E-03     74.9125E-03    -69.9426E-03    -577.318E-03     589.969E-03    -295.267E-03    -296.791E-03    -295.884E-03     589.952E-03    -296.157E-03    -7.87278E-03    -1.62962E+06    -12.4599E+06    -15.7570E+06    -15.6969E+06    -1.68968E+06    -12.4599E+06     748.431E+03         66.4369
             339     2.22158E-03     93.2906E-03         1.03873    -30.0596E-03    -995.642E-03    -334.264E-03     377.352E-03    -30.0596E-03     185.526E-03     591.224E-03    -295.140E-03    -296.836E-03    -295.123E-03     591.207E-03    -296.836E-03    -7.81290E-03    -3.59868E+06    -15.0462E+06    -16.9116E+06    -16.8711E+06    -3.63922E+06    -15.0462E+06     521.061E+03         66.3370
             340     1.48116E-03     93.3050E-03     859.934E-03     156.603E-03        -1.07052    -404.902E-03     189.535E-03     161.379E-03     258.628E-03     593.733E-03    -296.504E-03    -297.992E-03    -296.493E-03     593.723E-03    -297.992E-03    -5.92805E-03    -5.01074E+06    -16.8776E+06    -17.7490E+06    -17.7048E+06    -5.05279E+06    -16.8798E+06     600.802E+03         66.3543
             341     740.642E-06     93.3147E-03         1.09501     475.604E-03        -1.73298     118.907E-03    -764.703E-03     483.425E-03         1.47662     596.415E-03    -297.699E-03    -298.787E-03    -297.696E-03     596.412E-03    -298.787E-03    -2.73301E-03    -6.70709E+06    -17.5729E+06    -17.9370E+06    -17.7408E+06    -6.73673E+06    -17.7394E+06     333.119E+03         66.4190
             342     12.6129E-03     92.2673E-03     844.497E-03    -174.095E-03    -596.360E-03    -126.745E-03     374.882E-03    -174.095E-03     358.520E-03     603.206E-03    -296.657E-03    -302.477E-03    -298.838E-03     599.566E-03    -296.657E-03     114.242E-03     14.0371E+06     13.2585E+06    -785.999E+03    -783.725E+03     13.4585E+06     13.8348E+06     96.0461E+03         88.3396
             343     11.8745E-03     92.0567E-03     612.867E-03    -103.764E-03    -481.276E-03    -65.2314E-03     272.124E-03    -179.066E-03     270.179E-03     601.424E-03    -296.891E-03    -301.671E-03    -298.508E-03     598.261E-03    -296.891E-03     105.210E-03     14.2120E+06     13.0913E+06    -1.67932E+06    -1.66871E+06     14.1086E+06     13.1841E+06     386.138E+03         84.7075
             344     11.1123E-03     91.9115E-03     540.803E-03    -114.762E-03    -357.555E-03     93.7733E-03     164.777E-03    -190.063E-03     187.215E-03     596.202E-03    -297.990E-03    -299.144E-03    -296.597E-03     594.319E-03    -298.654E-03     81.8652E-03     14.6691E+06     12.3575E+06    -2.63495E+06    -2.61129E+06     14.6454E+06     12.3575E+06     612.578E+03         80.6075
             345     10.3709E-03     91.7739E-03     544.548E-03    -127.278E-03    -350.728E-03    -5.08884E-03     276.607E-03    -204.975E-03     376.576E-03     592.775E-03    -296.946E-03    -298.142E-03    -296.136E-03     591.433E-03    -297.610E-03     68.6205E-03     13.9415E+06     11.2758E+06    -3.49762E+06    -3.46639E+06     13.9103E+06     11.2758E+06     711.534E+03         76.8454
             346     9.63001E-03     91.6624E-03     482.988E-03    -117.112E-03    -318.220E-03    -194.320E-03     454.589E-03    -212.613E-03    -20.1466E-03     593.781E-03    -292.326E-03    -295.271E-03    -291.986E-03     592.909E-03    -294.738E-03     55.3502E-03     13.5357E+06     10.3741E+06    -4.41303E+06    -4.35101E+06     13.4737E+06     10.3741E+06     993.270E+03         73.7380
             347     8.88827E-03     91.5870E-03     592.501E-03    -192.584E-03    -371.859E-03    -292.343E-03     530.789E-03    -210.387E-03     328.457E-03     594.629E-03    -292.537E-03    -296.460E-03    -291.962E-03     594.053E-03    -296.460E-03     44.8296E-03     13.9518E+06     9.70257E+06    -5.34731E+06    -5.28043E+06     13.8849E+06     9.70257E+06     1.07948E+06         71.4157
             348     8.14750E-03     91.5184E-03     530.028E-03    -184.288E-03    -316.509E-03    -75.8289E-03     318.904E-03    -213.844E-03     142.432E-03     594.061E-03    -296.699E-03    -300.559E-03    -296.363E-03     593.725E-03    -300.559E-03     34.1814E-03     13.3251E+06     7.74883E+06    -6.58023E+06    -6.51593E+06     13.2608E+06     7.74883E+06     1.09931E+06         69.8604
             349     7.40708E-03     91.4614E-03     584.994E-03    -128.121E-03    -408.329E-03     67.5583E-03     217.221E-03    -236.235E-03     379.717E-03     589.487E-03    -297.587E-03    -302.748E-03    -297.411E-03     589.311E-03    -302.748E-03     24.6335E-03     11.4922E+06     5.42230E+06    -8.00700E+06    -7.86948E+06     11.3547E+06     5.42230E+06     1.58274E+06         68.8480
             350     6.66574E-03     91.4349E-03     772.257E-03    -178.687E-03    -504.660E-03    -166.010E-03     512.261E-03    -257.340E-03     216.557E-03     592.075E-03    -297.942E-03    -302.098E-03    -297.864E-03     591.996E-03    -302.098E-03     16.1090E-03     9.17944E+06     2.75453E+06    -9.29317E+06    -9.12204E+06     9.00831E+06     2.75453E+06     1.75637E+06         68.1936
             351     5.92496E-03     91.4206E-03     730.898E-03    -246.199E-03    -409.316E-03    -338.488E-03     671.651E-03    -257.779E-03    -213.266E-03     600.638E-03    -298.337E-03    -299.768E-03    -298.314E-03     600.616E-03    -299.768E-03     8.24707E-03     7.15563E+06    -759.696E+03    -10.4547E+06    -10.2950E+06     6.99597E+06    -759.696E+03     1.65533E+06         67.7457
             352     5.18355E-03     91.4130E-03     779.753E-03    -227.933E-03    -479.818E-03    -427.852E-03     739.272E-03    -239.417E-03    -205.239E-03     604.451E-03    -296.747E-03    -299.523E-03    -299.432E-03     604.447E-03    -296.835E-03     1.62956E-03     5.13199E+06    -3.74448E+06    -11.7936E+06    -11.6413E+06     4.97972E+06    -3.74448E+06     1.58939E+06         67.3312
             353     4.44289E-03     91.4169E-03     978.350E-03    -208.069E-03    -700.386E-03    -418.624E-03     696.588E-03    -208.069E-03    -75.7563E-03     600.154E-03    -295.474E-03    -301.868E-03    -301.864E-03     600.149E-03    -295.474E-03    -3.35261E-03     3.34098E+06    -6.10455E+06    -12.9041E+06    -12.7733E+06     3.21020E+06    -6.10455E+06     1.42864E+06         66.9410
             354     3.70266E-03     91.4304E-03     941.108E-03    -178.981E-03    -739.820E-03    -283.790E-03     485.078E-03    -178.981E-03     204.183E-03     592.366E-03    -295.788E-03    -300.115E-03    -300.104E-03     592.354E-03    -295.788E-03    -6.38132E-03     1.75343E+06    -8.27700E+06    -13.6481E+06    -13.5248E+06     1.63013E+06    -8.27700E+06     1.35371E+06         66.6470
             355     2.96241E-03     91.4455E-03     828.540E-03    -141.533E-03    -614.494E-03    -349.839E-03     563.885E-03    -141.533E-03    -42.9607E-03     590.197E-03    -295.186E-03    -296.823E-03    -295.789E-03     590.179E-03    -296.202E-03    -7.97895E-03    -269.946E+03    -11.1420E+06    -14.6722E+06    -14.5609E+06    -381.222E+03    -11.1420E+06     1.25803E+06         66.4419
             356     2.22190E-03     91.4649E-03     897.055E-03    -60.4776E-03    -726.158E-03    -388.184E-03     559.081E-03    -60.4776E-03     346.054E-03     591.124E-03    -294.967E-03    -296.819E-03    -294.950E-03     591.107E-03    -296.819E-03    -7.69398E-03    -2.27712E+06    -13.8972E+06    -15.7561E+06    -15.6687E+06    -2.36452E+06    -13.8972E+06     914.719E+03         66.3384
             357     1.48116E-03     91.4790E-03         1.04035     53.3948E-03    -995.844E-03    -178.484E-03     222.991E-03     53.3948E-03    -715.488E-03     593.684E-03    -296.412E-03    -298.044E-03    -296.402E-03     593.674E-03    -298.044E-03    -5.53610E-03    -3.69987E+06    -15.6109E+06    -16.5837E+06    -16.3587E+06    -3.74764E+06    -15.7882E+06     563.244E+03         66.3526
             358     740.628E-06     91.4876E-03         1.29744     582.833E-03        -1.71635    -357.506E-03    -64.4538E-03     585.879E-03     336.630E-03     596.708E-03    -297.475E-03    -298.998E-03    -297.473E-03     596.706E-03    -298.998E-03    -2.47873E-03    -5.50782E+06    -16.3012E+06    -17.0301E+06    -16.7023E+06    -5.53031E+06    -16.6065E+06     280.423E+03         66.4172
             359     12.6134E-03     90.4416E-03     600.245E-03    -162.702E-03    -469.605E-03    -355.227E-03     485.868E-03    -162.702E-03     163.770E-03     603.234E-03    -296.709E-03    -302.634E-03    -298.990E-03     599.590E-03    -296.709E-03     114.326E-03     13.3450E+06     12.6508E+06    -785.768E+03    -783.676E+03     13.1154E+06     12.8783E+06     156.334E+03         88.3076
             360     11.8747E-03     90.2347E-03     642.743E-03    -149.183E-03    -463.180E-03    -274.299E-03     453.862E-03    -149.183E-03    -413.175E-03     601.510E-03    -296.934E-03    -301.812E-03    -298.636E-03     598.334E-03    -296.934E-03     105.492E-03     13.8501E+06     11.8012E+06    -1.63637E+06    -1.63039E+06     13.7513E+06     11.8940E+06     245.926E+03         84.6837
             361     11.1118E-03     90.0875E-03     571.121E-03    -144.076E-03    -395.620E-03    -57.2441E-03     232.745E-03    -144.076E-03    -216.119E-03     596.490E-03    -298.056E-03    -299.202E-03    -296.711E-03     594.596E-03    -298.653E-03     82.0952E-03     14.3561E+06     10.8192E+06    -2.46042E+06    -2.44834E+06     14.3441E+06     10.8192E+06     388.124E+03         80.5907
             362     10.3705E-03     89.9515E-03     451.092E-03    -76.4859E-03    -300.384E-03     195.574E-03     32.8318E-03    -154.184E-03     20.3156E-03     593.014E-03    -297.049E-03    -298.211E-03    -296.270E-03     591.671E-03    -297.645E-03     68.6868E-03     13.5909E+06     9.39887E+06    -3.39873E+06    -3.37593E+06     13.5681E+06     9.39887E+06     607.853E+03         76.8376
             363     9.63073E-03     89.8378E-03     483.604E-03    -94.4282E-03    -339.815E-03     112.919E-03     108.568E-03    -172.126E-03     64.5345E-03     593.797E-03    -292.289E-03    -295.333E-03    -291.979E-03     592.921E-03    -294.767E-03     55.4749E-03     13.2773E+06     8.79875E+06    -4.15007E+06    -4.12445E+06     13.2517E+06     8.79875E+06     641.143E+03         73.7351
             364     8.88808E-03     89.7620E-03     677.509E-03    -185.787E-03    -476.381E-03    -32.9583E-03     234.087E-03    -185.787E-03    -87.4400E-03     594.565E-03    -292.357E-03    -296.468E-03    -291.783E-03     593.990E-03    -296.468E-03     44.7708E-03     13.8236E+06     8.81094E+06    -5.10663E+06    -5.07352E+06     13.7905E+06     8.81094E+06     758.142E+03         71.4123
             365     8.14709E-03     89.6941E-03     657.633E-03    -199.794E-03    -442.442E-03     14.3591E-03     200.832E-03    -199.794E-03    -692.228E-03     594.621E-03    -296.932E-03    -300.792E-03    -296.598E-03     594.288E-03    -300.792E-03     34.0552E-03     12.7116E+06     6.85607E+06    -6.28274E+06    -6.21157E+06     12.6404E+06     6.85607E+06     1.13185E+06         69.8599
             366     7.40661E-03     89.6354E-03     760.904E-03    -216.878E-03    -499.643E-03    -33.9458E-03     295.207E-03    -216.878E-03     346.395E-03     589.999E-03    -297.911E-03    -302.960E-03    -297.739E-03     589.827E-03    -302.960E-03     24.3833E-03     10.9133E+06     4.81512E+06    -7.46818E+06    -7.34226E+06     10.7874E+06     4.81512E+06     1.50292E+06         68.8487
             367     6.66473E-03     89.6084E-03     911.817E-03    -232.864E-03    -568.577E-03    -83.1014E-03     426.342E-03    -232.864E-03     219.285E-03     592.107E-03    -298.004E-03    -302.144E-03    -297.928E-03     592.031E-03    -302.144E-03     15.8336E-03     9.64404E+06     2.52022E+06    -8.77497E+06    -8.62666E+06     9.49573E+06     2.52022E+06     1.63704E+06         68.1917
             368     5.92437E-03     89.5940E-03     736.675E-03    -130.998E-03    -374.691E-03    -26.7118E-03     512.397E-03    -254.699E-03    -463.241E-03     600.715E-03    -298.392E-03    -299.846E-03    -298.369E-03     600.693E-03    -299.846E-03     8.20831E-03     7.79903E+06    -690.478E+03    -9.87903E+06    -9.73446E+06     7.65446E+06    -690.478E+03     1.58484E+06         67.7446
             369     5.18306E-03     89.5869E-03     622.735E-03    -97.6549E-03    -299.600E-03    -101.440E-03     608.560E-03    -281.639E-03    -51.9478E-03     604.542E-03    -296.775E-03    -299.656E-03    -299.518E-03     604.538E-03    -296.910E-03     1.78611E-03     6.10576E+06    -2.99877E+06    -10.5481E+06    -10.4111E+06     5.96873E+06    -2.99877E+06     1.49288E+06         67.3315
             370     4.44340E-03     89.5900E-03     822.859E-03    -238.838E-03    -380.106E-03    -242.259E-03     745.296E-03    -299.122E-03    -457.745E-03     600.231E-03    -295.553E-03    -302.070E-03    -302.066E-03     600.228E-03    -295.553E-03    -3.13387E-03     4.51337E+06    -5.46322E+06    -11.2666E+06    -11.1443E+06     4.39111E+06    -5.46322E+06     1.35367E+06         66.9407
             371     3.70258E-03     89.6035E-03     994.500E-03    -290.834E-03    -523.593E-03    -416.987E-03     887.894E-03    -290.834E-03     985.272E-06     592.298E-03    -295.865E-03    -300.208E-03    -300.197E-03     592.287E-03    -295.865E-03    -6.18366E-03     2.39608E+06    -8.02681E+06    -12.6906E+06    -12.5858E+06     2.29120E+06    -8.02681E+06     1.23170E+06         66.6454
             372     2.96166E-03     89.6199E-03         1.03572    -262.141E-03    -654.730E-03    -380.942E-03     761.927E-03    -262.141E-03     62.0108E-03     590.234E-03    -295.408E-03    -296.899E-03    -295.963E-03     590.217E-03    -296.327E-03    -7.81046E-03     473.416E+03    -10.2084E+06    -14.2244E+06    -14.1256E+06     374.578E+03    -10.2084E+06     1.19910E+06         66.4409
             373     2.22124E-03     89.6389E-03     956.119E-03    -157.519E-03    -638.720E-03     18.0200E-03     439.128E-03    -297.268E-03     5.41830E-03     591.260E-03    -295.173E-03    -296.986E-03    -295.157E-03     591.243E-03    -296.986E-03    -7.55984E-03    -656.471E+03    -11.9086E+06    -14.6733E+06    -14.5761E+06    -753.628E+03    -11.9086E+06     1.12086E+06         66.3409
             374     1.48063E-03     89.6522E-03         1.26216    -270.505E-03    -752.113E-03    -8.34311E-03     707.232E-03    -459.344E-03     47.8377E-03     593.997E-03    -296.515E-03    -298.279E-03    -296.505E-03     593.988E-03    -298.279E-03    -5.53017E-03    -1.65573E+06    -13.4292E+06    -14.9407E+06    -14.6850E+06    -1.73418E+06    -13.6064E+06     903.901E+03         66.3587
             375     740.143E-06     89.6608E-03         1.85018    -162.927E-03        -1.37020    -926.670E-03         1.45574    -212.016E-03     525.865E-03     597.225E-03    -297.507E-03    -299.293E-03    -297.922E-03     597.222E-03    -298.876E-03    -2.83012E-03    -3.50467E+06    -14.4733E+06    -15.4501E+06    -15.0587E+06    -3.55047E+06    -14.8189E+06     644.223E+03         66.4250
             376     12.6134E-03     88.6155E-03     350.149E-03    -94.9634E-03    -309.119E-03     81.3472E-03    -40.3174E-03    -94.9634E-03    -41.4508E-03     603.289E-03    -296.717E-03    -302.595E-03    -298.963E-03     599.656E-03    -296.717E-03     114.164E-03     13.1459E+06     11.6214E+06    -505.508E+03    -502.142E+03     13.0661E+06     11.6978E+06     187.334E+03         88.2789
             377     11.8748E-03     88.3991E-03     413.642E-03    -92.6458E-03    -351.683E-03    -30.8896E-03     92.8478E-03    -92.6458E-03    -373.734E-03     601.512E-03    -296.921E-03    -301.855E-03    -298.688E-03     598.346E-03    -296.921E-03     105.357E-03     13.7533E+06     10.7647E+06    -1.27707E+06    -1.27090E+06     13.7472E+06     10.7647E+06     222.419E+03         84.6634
             378     11.1107E-03     88.2474E-03     499.032E-03    -81.6125E-03    -422.554E-03    -272.592E-03     349.069E-03    -81.6125E-03    -414.441E-03     596.399E-03    -297.994E-03    -299.233E-03    -296.687E-03     594.499E-03    -298.640E-03     82.2232E-03     13.6713E+06     9.79698E+06    -2.13546E+06    -2.11805E+06     13.6539E+06     9.79698E+06     450.473E+03         80.5817
             379     10.3698E-03     88.1066E-03     521.419E-03    -65.3087E-03    -455.874E-03    -186.432E-03     251.976E-03    -65.3087E-03    -633.771E-03     593.372E-03    -297.182E-03    -298.525E-03    -296.524E-03     592.017E-03    -297.829E-03     68.9817E-03     13.2035E+06     7.79408E+06    -2.86542E+06    -2.83194E+06     13.1700E+06     7.79408E+06     723.227E+03         76.8441
             380     9.62874E-03     87.9904E-03     453.429E-03    -64.1268E-03    -354.695E-03     172.767E-03    -74.0332E-03    -64.1268E-03    -60.2031E-03     594.120E-03    -292.435E-03    -295.626E-03    -292.248E-03     593.237E-03    -294.929E-03     55.7335E-03     13.2808E+06     7.23119E+06    -3.70711E+06    -3.66112E+06     13.2348E+06     7.23119E+06     815.859E+03         73.7510
             381     8.88702E-03     87.9186E-03     603.231E-03    -83.4965E-03    -476.507E-03     303.061E-03    -176.337E-03    -83.4965E-03    -407.817E-03     594.543E-03    -292.423E-03    -296.490E-03    -291.844E-03     593.965E-03    -296.490E-03     44.9213E-03     13.3130E+06     7.72294E+06    -4.84796E+06    -4.79750E+06     13.2625E+06     7.72294E+06     891.340E+03         71.4232
             382     8.14694E-03     87.8457E-03     690.261E-03    -101.858E-03    -553.927E-03     64.2096E-03     72.1248E-03    -101.858E-03    -571.445E-03     594.858E-03    -297.120E-03    -300.841E-03    -296.786E-03     594.523E-03    -300.841E-03     34.0915E-03     12.3689E+06     5.92321E+06    -5.80878E+06    -5.75191E+06     12.3120E+06     5.92321E+06     1.00748E+06         69.8621
             383     7.40671E-03     87.7899E-03     503.082E-03    -107.456E-03    -344.745E-03    -65.5678E-03     223.905E-03    -107.456E-03     260.644E-03     590.118E-03    -298.026E-03    -302.955E-03    -297.856E-03     589.947E-03    -302.955E-03     24.2199E-03     10.8714E+06     4.62254E+06    -6.71877E+06    -6.64442E+06     10.7971E+06     4.62254E+06     1.11195E+06         68.8477
             384     6.66557E-03     87.7617E-03     487.447E-03    -124.786E-03    -294.650E-03     189.151E-03     3.64673E-03    -124.786E-03    -179.100E-03     592.168E-03    -298.027E-03    -302.165E-03    -297.954E-03     592.095E-03    -302.165E-03     15.5595E-03     9.72841E+06     2.98619E+06    -7.66795E+06    -7.55113E+06     9.61158E+06     2.98619E+06     1.38520E+06         68.1917
             385     5.92429E-03     87.7502E-03     484.005E-03    -60.4916E-03    -335.846E-03     329.185E-03    -68.8090E-03    -172.708E-03    -274.223E-03     600.833E-03    -298.395E-03    -299.940E-03    -298.374E-03     600.812E-03    -299.940E-03     7.97035E-03     8.32044E+06    -174.623E+03    -8.70002E+06    -8.56644E+06     8.18686E+06    -174.623E+03     1.49365E+06         67.7458
             386     5.18276E-03     87.7441E-03     493.361E-03    -41.1853E-03    -283.366E-03     175.577E-03     226.282E-03    -233.049E-03     249.036E-03     604.561E-03    -296.836E-03    -299.638E-03    -299.448E-03     604.558E-03    -297.023E-03     1.67447E-03     6.76225E+06    -2.52177E+06    -9.78716E+06    -9.67899E+06     6.65408E+06    -2.52177E+06     1.32640E+06         67.3321
             387     4.44204E-03     87.7493E-03     744.311E-03    -199.507E-03    -380.486E-03    -79.3016E-03     522.774E-03    -279.154E-03    -277.531E-03     600.396E-03    -295.657E-03    -302.104E-03    -302.100E-03     600.392E-03    -295.657E-03    -3.14011E-03     5.35469E+06    -4.41085E+06    -10.6560E+06    -10.5444E+06     5.24313E+06    -4.41085E+06     1.30483E+06         66.9396
             388     3.70199E-03     87.7661E-03     869.529E-03    -264.073E-03    -432.194E-03    -133.791E-03     621.315E-03    -314.263E-03    -76.7114E-03     592.710E-03    -295.938E-03    -300.404E-03    -300.393E-03     592.699E-03    -295.938E-03    -6.25942E-03     3.45999E+06    -6.94306E+06    -11.7305E+06    -11.6213E+06     3.35074E+06    -6.94306E+06     1.25813E+06         66.6442
             389     2.96171E-03     87.7866E-03         1.08495    -310.971E-03    -586.746E-03    -131.705E-03     680.101E-03    -361.161E-03    -539.776E-03     590.549E-03    -295.718E-03    -297.056E-03    -296.334E-03     590.532E-03    -296.422E-03    -7.89288E-03     1.75454E+06    -9.45294E+06    -12.4621E+06    -12.3902E+06     1.68262E+06    -9.45294E+06     920.357E+03         66.4425
             390     2.22120E-03     87.8073E-03         1.22460    -264.960E-03    -811.747E-03    -319.352E-03     871.951E-03    -404.709E-03    -611.195E-03     591.501E-03    -295.561E-03    -297.164E-03    -295.545E-03     591.485E-03    -297.164E-03    -7.62379E-03     611.587E+03    -11.0595E+06    -12.9445E+06    -12.9100E+06     577.049E+03    -11.0595E+06     570.776E+03         66.3476
             391     1.48092E-03     87.8242E-03         1.23143    -202.535E-03    -798.085E-03    -511.558E-03         1.13374    -391.373E-03     626.096E-03     594.382E-03    -296.816E-03    -298.397E-03    -296.807E-03     594.372E-03    -298.397E-03    -5.57969E-03    -419.784E+03    -12.3644E+06    -13.6254E+06    -13.5046E+06    -470.185E+03    -12.4348E+06     382.866E+03         66.3691
             392     740.790E-06     87.8334E-03         1.86276    -181.723E-03        -1.44036    -499.591E-03     971.085E-03    -230.812E-03    -770.347E-03     597.339E-03    -297.843E-03    -299.119E-03    -298.257E-03     597.336E-03    -298.702E-03    -2.57866E-03    -1.74873E+06    -13.0209E+06    -13.6967E+06    -13.3730E+06    -1.80183E+06    -13.2915E+06     393.678E+03         66.4356
             393     12.6134E-03     86.7597E-03     351.127E-03    -23.0747E-03    -213.959E-03     105.570E-03     31.5984E-03    -23.0747E-03    -41.8344E-03     602.988E-03    -296.697E-03    -302.383E-03    -298.739E-03     599.345E-03    -296.697E-03     114.289E-03     12.9632E+06     10.0767E+06    -476.386E+03    -472.287E+03     12.9591E+06     10.0767E+06     109.735E+03         88.2533
             394     11.8746E-03     86.5428E-03     272.681E-03    -25.0453E-03    -260.561E-03     94.7538E-03    -82.6339E-03    -25.0453E-03     146.173E-03     601.439E-03    -296.971E-03    -301.729E-03    -298.559E-03     598.269E-03    -296.971E-03     105.368E-03     13.2561E+06     9.14557E+06    -1.08966E+06    -1.07931E+06     13.2458E+06     9.14557E+06     337.834E+03         84.6462
             395     11.1105E-03     86.3890E-03     487.098E-03    -26.7123E-03    -472.611E-03     47.6975E-03    -33.2104E-03    -26.7123E-03     176.538E-03     596.263E-03    -297.979E-03    -299.209E-03    -296.635E-03     594.368E-03    -298.657E-03     82.1327E-03     13.2693E+06     8.66411E+06    -1.83624E+06    -1.80618E+06     13.2393E+06     8.66411E+06     660.551E+03         80.5695
             396     10.3687E-03     86.2488E-03     555.517E-03    -22.9831E-03    -523.259E-03    -148.457E-03     180.715E-03    -22.9831E-03    -214.156E-03     593.177E-03    -297.151E-03    -298.510E-03    -296.479E-03     591.824E-03    -297.829E-03     68.9309E-03     13.0316E+06     7.21938E+06    -2.75755E+06    -2.71934E+06     12.9933E+06     7.21938E+06     763.677E+03         76.8404
             397     9.62859E-03     86.1387E-03     378.948E-03    -14.2103E-03    -319.632E-03    -139.979E-03     199.295E-03    -14.2103E-03    -13.0458E-03     594.740E-03    -292.850E-03    -295.832E-03    -292.653E-03     593.863E-03    -295.151E-03     55.5546E-03     13.0903E+06     6.28008E+06    -3.42877E+06    -3.38377E+06     13.0454E+06     6.28008E+06     815.284E+03         73.7690
             398     8.88719E-03     86.0645E-03     515.375E-03    -13.9006E-03    -431.708E-03     78.1771E-03     5.48964E-03    -13.9006E-03     253.209E-03     595.171E-03    -292.857E-03    -296.683E-03    -292.284E-03     594.598E-03    -296.683E-03     44.7441E-03     13.5565E+06     6.80784E+06    -4.07545E+06    -4.02268E+06     13.5037E+06     6.80784E+06     927.706E+03         71.4501
             399     8.14673E-03     85.9953E-03     608.045E-03    -24.6998E-03    -522.791E-03     131.254E-03    -45.9994E-03    -24.6998E-03     565.880E-03     595.013E-03    -297.208E-03    -300.904E-03    -296.875E-03     594.680E-03    -300.904E-03     34.0492E-03     12.3438E+06     5.27398E+06    -5.08000E+06    -5.01987E+06     12.2836E+06     5.27398E+06     1.00721E+06         69.8715
             400     7.40657E-03     85.9411E-03     405.396E-03    -43.1189E-03    -329.400E-03     188.635E-03    -112.639E-03    -43.1189E-03     467.969E-03     590.074E-03    -297.967E-03    -302.939E-03    -297.797E-03     589.903E-03    -302.939E-03     24.2210E-03     10.9153E+06     3.96241E+06    -6.19613E+06    -6.13253E+06     10.8517E+06     3.96241E+06     1.02474E+06         68.8436
             401     6.66484E-03     85.9143E-03     385.359E-03    -67.6714E-03    -318.276E-03     165.286E-03    -98.2036E-03    -67.6714E-03     116.156E-03     592.118E-03    -297.956E-03    -302.162E-03    -297.882E-03     592.043E-03    -302.162E-03     15.7429E-03     9.71271E+06     2.43721E+06    -7.22404E+06    -7.16035E+06     9.64901E+06     2.43721E+06     983.837E+03         68.1875
             402     5.92407E-03     85.9067E-03     462.529E-03    -87.2350E-03    -420.663E-03     18.6087E-03     23.2575E-03    -87.2350E-03     213.352E-03     601.012E-03    -298.482E-03    -300.082E-03    -298.460E-03     600.989E-03    -300.082E-03     8.20006E-03     8.63127E+06    -35.0224E+03    -7.91442E+06    -7.83541E+06     8.55226E+06    -35.0224E+03     1.09132E+06         67.7437
             403     5.18273E-03     85.9039E-03     457.285E-03    -90.6553E-03    -406.500E-03     115.562E-03    -45.4141E-03    -110.019E-03     421.880E-03     604.677E-03    -296.970E-03    -299.733E-03    -299.536E-03     604.674E-03    -297.163E-03     1.51123E-03     7.53518E+06    -1.75991E+06    -8.79564E+06    -8.70363E+06     7.44317E+06    -1.75991E+06     1.22035E+06         67.3317
             404     4.44232E-03     85.9110E-03     567.864E-03    -137.550E-03    -414.589E-03     204.695E-03    -32.0566E-03    -156.914E-03     5.90894E-03     600.471E-03    -295.735E-03    -301.963E-03    -301.958E-03     600.466E-03    -295.735E-03    -3.61225E-03     5.77510E+06    -4.18441E+06    -10.1867E+06    -10.0829E+06     5.67123E+06    -4.18441E+06     1.23669E+06         66.9391
             405     3.70164E-03     85.9288E-03     556.007E-03    -145.615E-03    -345.918E-03     112.471E-03     173.931E-03    -221.927E-03    -112.308E-03     593.039E-03    -296.019E-03    -300.270E-03    -300.258E-03     593.026E-03    -296.019E-03    -6.63203E-03     4.50733E+06    -5.98112E+06    -10.6599E+06    -10.5718E+06     4.41917E+06    -5.98112E+06     1.07269E+06         66.6431
             406     2.96128E-03     85.9530E-03     792.615E-03    -194.350E-03    -493.025E-03    -165.289E-03     541.191E-03    -270.663E-03     5.58843E-03     590.936E-03    -295.848E-03    -297.118E-03    -296.424E-03     590.919E-03    -296.525E-03    -7.83418E-03     3.45912E+06    -7.68450E+06    -10.8843E+06    -10.8244E+06     3.39923E+06    -7.68450E+06     814.691E+03         66.4445
             407     2.22102E-03     85.9788E-03         1.17730    -237.914E-03    -821.402E-03    -527.060E-03     882.962E-03    -237.914E-03    -188.013E-03     591.808E-03    -295.723E-03    -297.258E-03    -295.707E-03     591.793E-03    -297.258E-03    -7.32658E-03     1.72674E+06    -10.2477E+06    -11.7001E+06    -11.6641E+06     1.69068E+06    -10.2477E+06     577.431E+03         66.3540
             408     1.48063E-03     85.9960E-03         1.10904    -111.093E-03    -932.410E-03    -429.718E-03     606.348E-03    -111.093E-03     539.606E-03     594.624E-03    -297.003E-03    -298.460E-03    -296.994E-03     594.615E-03    -298.460E-03    -5.42449E-03     435.195E+03    -11.9945E+06    -12.3861E+06    -12.2180E+06     409.485E+03    -12.1369E+06     203.264E+03         66.3750
             409     740.062E-06     86.0066E-03         1.79565    -234.399E-03        -1.55199     172.525E-03     71.1391E-03    -234.399E-03        -1.75049     597.533E-03    -298.127E-03    -299.022E-03    -298.243E-03     597.530E-03    -298.903E-03    -2.37703E-03    -834.269E+03    -12.3268E+06    -12.6777E+06    -12.4528E+06    -884.996E+03    -12.5010E+06    -141.686E+03         66.4381
             410     12.6141E-03     84.9002E-03     159.093E-03    -19.1225E-03    -171.157E-03    -106.052E-03     67.4310E-03     7.43359E-03    -118.902E-03     602.921E-03    -296.716E-03    -302.488E-03    -298.835E-03     599.268E-03    -296.716E-03     114.445E-03     12.5307E+06     9.34233E+06    -666.587E+03    -650.346E+03     12.5145E+06     9.34233E+06     259.982E+03         88.2344
             411     11.8745E-03     84.6831E-03     247.564E-03     9.45168E-03    -271.271E-03     91.7587E-03    -115.466E-03     9.45168E-03     8.20006E-03     601.432E-03    -297.015E-03    -301.723E-03    -298.552E-03     598.261E-03    -297.015E-03     105.347E-03     12.6870E+06     8.34569E+06    -1.50614E+06    -1.48158E+06     12.6624E+06     8.34569E+06     531.811E+03         84.6353
             412     11.1092E-03     84.5338E-03     490.612E-03    -2.72886E-03    -528.122E-03     301.480E-03    -338.991E-03    -2.72886E-03     511.709E-03     596.466E-03    -298.128E-03    -299.177E-03    -296.685E-03     594.585E-03    -298.739E-03     81.8224E-03     12.6996E+06     7.78349E+06    -2.18378E+06    -2.15688E+06     12.6727E+06     7.78349E+06     612.950E+03         80.5579
             413     10.3686E-03     84.4001E-03     503.472E-03    -22.2942E-03    -527.263E-03     247.865E-03    -271.656E-03    -22.2942E-03     500.977E-03     592.758E-03    -297.044E-03    -298.210E-03    -296.255E-03     591.415E-03    -297.655E-03     68.6799E-03     13.4962E+06     7.20252E+06    -2.71488E+06    -2.68009E+06     13.4614E+06     7.20252E+06     728.595E+03         76.8260
             414     9.62860E-03     84.2895E-03     313.008E-03    -32.8688E-03    -350.201E-03    -12.0761E-03    -25.1173E-03    -32.8688E-03    -58.3306E-03     594.684E-03    -292.988E-03    -295.672E-03    -292.666E-03     593.807E-03    -295.117E-03     55.5365E-03     13.2175E+06     5.53888E+06    -3.43279E+06    -3.40297E+06     13.1877E+06     5.53888E+06     689.947E+03         73.7699
             415     8.88695E-03     84.2209E-03     354.524E-03    -28.6160E-03    -384.928E-03    -167.378E-03     136.973E-03    -28.6160E-03     266.443E-03     595.653E-03    -293.178E-03    -296.852E-03    -292.604E-03     595.079E-03    -296.852E-03     44.8428E-03     13.3933E+06     5.19393E+06    -4.18668E+06    -4.15235E+06     13.3590E+06     5.19393E+06     763.897E+03         71.4641
             416     8.14593E-03     84.1521E-03     497.427E-03    -25.0643E-03    -497.260E-03     8.39170E-03    -8.22519E-03    -25.0643E-03     232.586E-03     594.837E-03    -297.061E-03    -300.921E-03    -296.725E-03     594.501E-03    -300.921E-03     34.1869E-03     12.5488E+06     4.30423E+06    -5.06540E+06    -5.01243E+06     12.4958E+06     4.30423E+06     936.594E+03         69.8744
             417     7.40553E-03     84.1006E-03     527.011E-03    -39.0855E-03    -503.826E-03     206.813E-03    -183.628E-03    -39.0855E-03     264.237E-03     589.910E-03    -297.816E-03    -302.983E-03    -297.646E-03     589.740E-03    -302.983E-03     24.1871E-03     11.1261E+06     3.17960E+06    -5.91165E+06    -5.85511E+06     11.0695E+06     3.17960E+06     945.544E+03         68.8357
             418     6.66402E-03     84.0763E-03     424.853E-03    -58.1749E-03    -394.337E-03     66.2799E-03    -35.7636E-03    -58.1749E-03     584.164E-03     592.186E-03    -298.070E-03    -302.242E-03    -297.997E-03     592.113E-03    -302.242E-03     15.5687E-03     10.2473E+06     1.97957E+06    -6.60681E+06    -6.56331E+06     10.2038E+06     1.97957E+06     826.880E+03         68.1796
             419     5.92295E-03     84.0670E-03     424.630E-03    -60.8296E-03    -414.581E-03    -126.822E-03     136.872E-03    -60.8296E-03     535.469E-03     601.144E-03    -298.654E-03    -300.241E-03    -298.632E-03     601.122E-03    -300.241E-03     8.14806E-03     8.87248E+06    -381.250E+03    -7.29856E+06    -7.25744E+06     8.83136E+06    -381.250E+03     756.152E+03         67.7391
             420     5.18215E-03     84.0685E-03     495.253E-03    -49.6784E-03    -560.328E-03    -146.499E-03     81.4242E-03    -49.6784E-03     414.608E-03     604.734E-03    -296.997E-03    -299.882E-03    -299.611E-03     604.731E-03    -297.264E-03     1.76001E-03     7.74214E+06    -2.10787E+06    -8.15941E+06    -8.10660E+06     7.68932E+06    -2.10787E+06     863.459E+03         67.3315
             421     4.44208E-03     84.0794E-03     435.394E-03    -50.4504E-03    -490.571E-03     39.9595E-03    -95.1360E-03    -50.4504E-03     391.367E-03     600.462E-03    -295.801E-03    -302.001E-03    -301.997E-03     600.458E-03    -295.801E-03    -3.19139E-03     6.41088E+06    -3.98438E+06    -8.97166E+06    -8.92597E+06     6.36518E+06    -3.98438E+06     822.059E+03         66.9407
             422     3.70182E-03     84.0997E-03     293.359E-03    -48.1602E-03    -323.339E-03     78.3602E-03    -82.2171E-03    -74.2833E-03     412.398E-03     593.130E-03    -296.091E-03    -300.235E-03    -300.224E-03     593.118E-03    -296.091E-03    -6.34626E-03     5.05307E+06    -5.75494E+06    -9.66584E+06    -9.63867E+06     5.02589E+06    -5.75494E+06     628.357E+03         66.6451
             423     2.96083E-03     84.1237E-03     602.906E-03    -67.9465E-03    -576.190E-03    -73.9314E-03     126.770E-03    -94.0696E-03     991.303E-03     591.201E-03    -296.010E-03    -297.146E-03    -296.554E-03     591.184E-03    -296.585E-03    -7.85739E-03     3.93176E+06    -7.41394E+06    -10.3659E+06    -10.3218E+06     3.88769E+06    -7.41394E+06     736.794E+03         66.4482
             424     2.22056E-03     84.1497E-03         1.28835    -115.286E-03        -1.21075    -15.0107E-03     92.6090E-03    -115.286E-03    -465.505E-03     592.011E-03    -295.845E-03    -297.259E-03    -295.829E-03     591.994E-03    -297.259E-03    -7.63734E-03     3.01137E+06    -8.76747E+06    -10.7893E+06    -10.7320E+06     2.95400E+06    -8.76747E+06     851.601E+03         66.3575
             425     1.48043E-03     84.1678E-03         1.55434    -203.996E-03        -1.45638     81.4952E-03     16.4588E-03    -203.996E-03     71.0115E-03     594.607E-03    -296.933E-03    -298.385E-03    -296.923E-03     594.597E-03    -298.385E-03    -5.92259E-03     1.85173E+06    -10.2337E+06    -11.3847E+06    -11.2783E+06     1.81726E+06    -10.3056E+06     643.094E+03         66.3739
             426     740.360E-06     84.1794E-03         2.77983    -781.926E-03        -2.13496     232.006E-03     412.867E-03    -781.926E-03        -1.98254     597.371E-03    -297.720E-03    -299.228E-03    -297.835E-03     597.368E-03    -299.110E-03    -2.49813E-03    -65.2802E+03    -11.4968E+06    -12.1632E+06    -11.9356E+06    -111.252E+03    -11.6785E+06     146.160E+03         66.4333
             427     12.6146E-03     83.0554E-03     287.296E-03    -2.14163E-03    -520.413E-03     136.029E-03    -395.702E-03     24.4145E-03     90.1380E-03     603.380E-03    -296.778E-03    -302.851E-03    -299.211E-03     599.740E-03    -296.778E-03     114.300E-03     11.6828E+06     9.64026E+06    -666.602E+03    -652.001E+03     11.6682E+06     9.64026E+06     276.856E+03         88.2180
             428     11.8756E-03     82.8343E-03     226.130E-03     17.7420E-03    -367.380E-03     174.746E-03    -315.996E-03     17.7420E-03    -275.849E-03     601.676E-03    -297.090E-03    -301.874E-03    -298.711E-03     598.513E-03    -297.090E-03     105.291E-03     12.5681E+06     9.43568E+06    -938.989E+03    -912.834E+03     12.5419E+06     9.43568E+06     521.243E+03         84.6249
             429     11.1100E-03     82.6858E-03     319.952E-03     9.70783E-03    -451.728E-03     128.475E-03    -260.251E-03     9.70783E-03     369.209E-03     596.545E-03    -298.214E-03    -299.241E-03    -296.759E-03     594.655E-03    -298.807E-03     82.0181E-03     12.7331E+06     8.55725E+06    -1.47410E+06    -1.45590E+06     12.7149E+06     8.55725E+06     499.757E+03         80.5512
             430     10.3693E-03     82.5534E-03     405.394E-03     1.15363E-03    -589.068E-03     183.668E-03    -367.342E-03     1.15363E-03     252.608E-03     592.954E-03    -297.168E-03    -298.355E-03    -296.413E-03     591.604E-03    -297.760E-03     68.8550E-03     13.1910E+06     7.33317E+06    -2.06356E+06    -2.03707E+06     13.1645E+06     7.33317E+06     612.969E+03         76.8250
             431     9.62802E-03     82.4467E-03     438.736E-03    -13.4212E-03    -653.508E-03     264.928E-03    -479.701E-03    -13.4212E-03     40.4136E-03     594.693E-03    -292.983E-03    -295.777E-03    -292.698E-03     593.813E-03    -295.182E-03     55.6575E-03     13.3852E+06     5.71840E+06    -2.64510E+06    -2.59230E+06     13.3324E+06     5.71840E+06     891.994E+03         73.7726
             432     8.88648E-03     82.3742E-03     422.247E-03    -27.0416E-03    -616.923E-03     87.1102E-03    -281.787E-03    -27.0416E-03     562.322E-03     595.475E-03    -293.092E-03    -296.862E-03    -292.515E-03     594.897E-03    -296.862E-03     44.9727E-03     13.2915E+06     5.31125E+06    -3.50563E+06    -3.44922E+06     13.2350E+06     5.31125E+06     943.944E+03         71.4637
             433     8.14630E-03     82.3059E-03     432.722E-03    -27.4130E-03    -555.200E-03    -109.279E-03    -13.1994E-03    -27.4130E-03    -65.0702E-03     594.797E-03    -297.051E-03    -300.931E-03    -296.713E-03     594.459E-03    -300.931E-03     34.2679E-03     12.6757E+06     4.47689E+06    -4.29263E+06    -4.24811E+06     12.6311E+06     4.47689E+06     857.191E+03         69.8687
             434     7.40561E-03     82.2549E-03     580.620E-03    -15.5267E-03    -635.418E-03    -171.203E-03     116.404E-03    -15.5267E-03     255.028E-03     589.987E-03    -297.922E-03    -303.030E-03    -297.750E-03     589.815E-03    -303.030E-03     24.2801E-03     11.5890E+06     3.36922E+06    -4.96695E+06    -4.93453E+06     11.5566E+06     3.36922E+06     715.826E+03         68.8279
             435     6.66397E-03     82.2326E-03     568.963E-03    -8.63955E-03    -608.591E-03     17.7008E-03    -57.3281E-03    -8.63955E-03     217.940E-03     592.294E-03    -298.218E-03    -302.364E-03    -298.144E-03     592.220E-03    -302.364E-03     15.7077E-03     10.7358E+06     1.81745E+06    -5.76636E+06    -5.73160E+06     10.7010E+06     1.81745E+06     742.593E+03         68.1724
             436     5.92361E-03     82.2250E-03     637.577E-03    -24.8019E-03    -691.494E-03     216.103E-03    -270.020E-03    -24.8019E-03     366.111E-03     601.146E-03    -298.672E-03    -300.345E-03    -298.650E-03     601.124E-03    -300.345E-03     8.21972E-03     9.11790E+06    -971.985E+03    -6.87063E+06    -6.81456E+06     9.06183E+06    -971.985E+03     876.266E+03         67.7347
             437     5.18144E-03     82.2273E-03     555.426E-03    -36.1705E-03    -650.398E-03    -88.8183E-03    -6.15416E-03    -36.1705E-03     653.067E-03     604.654E-03    -297.039E-03    -299.820E-03    -299.490E-03     604.651E-03    -297.366E-03     1.79413E-03     7.94747E+06    -2.65791E+06    -7.79212E+06    -7.74067E+06     7.89602E+06    -2.65791E+06     825.887E+03         67.3307
             438     4.44115E-03     82.2404E-03     364.329E-03    -5.60714E-03    -544.167E-03    -331.234E-03     151.396E-03    -5.60714E-03    -115.435E-03     600.544E-03    -295.933E-03    -302.107E-03    -302.103E-03     600.540E-03    -295.933E-03    -3.16326E-03     6.99678E+06    -3.92081E+06    -8.07663E+06    -8.04635E+06     6.96650E+06    -3.92081E+06     670.484E+03         66.9430
             439     3.70097E-03     82.2638E-03     400.365E-03     38.7067E-03    -617.970E-03    -141.358E-03    -76.2473E-03     38.7067E-03     491.625E-03     593.701E-03    -296.143E-03    -300.579E-03    -300.568E-03     593.690E-03    -296.143E-03    -6.20949E-03     5.91010E+06    -5.35307E+06    -8.60894E+06    -8.58241E+06     5.88357E+06    -5.35307E+06     613.010E+03         66.6505
             440     2.96094E-03     82.2922E-03     769.911E-03     35.2187E-03    -989.746E-03     196.277E-03    -416.112E-03     35.2187E-03     752.461E-03     591.683E-03    -296.220E-03    -297.319E-03    -296.919E-03     591.666E-03    -296.603E-03    -7.77379E-03     4.43219E+06    -7.25264E+06    -9.64987E+06    -9.62877E+06     4.41109E+06    -7.25264E+06     506.105E+03         66.4540
             441     2.22080E-03     82.3184E-03         1.32488    -74.9166E-03        -1.41573     460.514E-03    -551.363E-03    -74.9166E-03    -390.438E-03     592.074E-03    -296.067E-03    -297.278E-03    -296.050E-03     592.057E-03    -297.278E-03    -7.71599E-03     3.29393E+06    -8.53743E+06    -10.4292E+06    -10.1754E+06     3.26972E+06    -8.76701E+06     428.188E+03         66.3589
             442     1.48066E-03     82.3407E-03         1.85827    -192.334E-03        -1.86231    -79.0672E-03     75.0224E-03    -192.334E-03         1.49072     594.613E-03    -296.925E-03    -298.358E-03    -296.915E-03     594.603E-03    -298.358E-03    -5.94447E-03     2.78966E+06    -9.21237E+06    -10.6690E+06    -10.1703E+06     2.74129E+06    -9.66269E+06     628.131E+03         66.3690
             443     740.253E-06     82.3519E-03         3.72560     41.7003E-03        -4.01134    -481.560E-03     195.824E-03     41.7003E-03        -3.31471     597.234E-03    -297.265E-03    -299.580E-03    -297.262E-03     597.231E-03    -299.580E-03    -2.60705E-03     1.76927E+06    -9.71872E+06    -10.5368E+06    -10.1621E+06     1.72501E+06    -10.0491E+06     451.584E+03         66.4258
             444     12.6143E-03     81.2088E-03     570.556E-03     55.0474E-03    -823.895E-03     445.376E-03    -698.716E-03     55.0474E-03     205.060E-03     603.398E-03    -296.813E-03    -302.892E-03    -299.252E-03     599.758E-03    -296.813E-03     114.296E-03     11.3685E+06     8.96773E+06    -645.256E+03    -644.763E+03     11.3680E+06     8.96773E+06     65.9415E+03         88.1962
             445     11.8749E-03     80.9855E-03     400.869E-03     39.5321E-03    -640.530E-03     314.291E-03    -553.953E-03     39.5321E-03    -24.1110E-03     601.699E-03    -297.132E-03    -301.843E-03    -298.671E-03     598.527E-03    -297.132E-03     105.442E-03     11.9803E+06     8.33832E+06    -1.12845E+06    -1.12168E+06     11.9736E+06     8.33832E+06     166.001E+03         84.6060
             446     11.1087E-03     80.8400E-03     315.469E-03     29.7054E-03    -520.797E-03     143.135E-03    -348.463E-03     29.7054E-03     615.447E-03     596.449E-03    -298.181E-03    -299.219E-03    -296.765E-03     594.548E-03    -298.734E-03     82.2614E-03     12.8653E+06     7.74965E+06    -1.65444E+06    -1.64509E+06     12.8559E+06     7.74965E+06     256.097E+03         80.5419
             447     10.3682E-03     80.7133E-03     282.571E-03     25.2542E-03    -516.322E-03     69.4220E-03    -303.174E-03     25.2542E-03     30.2943E-03     593.643E-03    -297.433E-03    -298.739E-03    -296.829E-03     592.287E-03    -297.986E-03     69.0392E-03     12.7976E+06     6.29820E+06    -2.22846E+06    -2.21743E+06     12.7865E+06     6.29820E+06     323.075E+03         76.8346
             448     9.62798E-03     80.5972E-03     405.607E-03     20.7690E-03    -651.201E-03     110.150E-03    -355.744E-03     20.7690E-03     232.068E-03     595.417E-03    -293.293E-03    -296.243E-03    -293.163E-03     594.535E-03    -295.491E-03     55.7818E-03     12.5938E+06     4.93340E+06    -2.70882E+06    -2.67292E+06     12.5579E+06     4.93340E+06     622.769E+03         73.7868
             449     8.88620E-03     80.5209E-03     446.758E-03     13.7101E-03    -671.462E-03     132.379E-03    -357.083E-03     13.7101E-03     934.619E-03     595.283E-03    -293.053E-03    -296.837E-03    -292.476E-03     594.705E-03    -296.837E-03     44.9364E-03     13.6061E+06     5.52078E+06    -3.21443E+06    -3.15936E+06     13.5510E+06     5.52078E+06     912.999E+03         71.4646
             450     8.14556E-03     80.4528E-03     300.267E-03     12.8815E-03    -491.343E-03    -30.6099E-03    -160.466E-03     12.8815E-03     343.652E-03     594.695E-03    -296.982E-03    -300.925E-03    -296.648E-03     594.360E-03    -300.925E-03     34.1129E-03     12.9314E+06     4.37554E+06    -3.90112E+06    -3.84404E+06     12.8743E+06     4.37554E+06     976.458E+03         69.8615
             451     7.40497E-03     80.4028E-03     307.591E-03     1.01477E-03    -462.875E-03    -224.973E-03     41.3668E-03     29.3379E-03     316.107E-03     590.030E-03    -297.888E-03    -303.035E-03    -297.715E-03     589.858E-03    -303.035E-03     24.3692E-03     12.0453E+06     2.91708E+06    -4.72456E+06    -4.66427E+06     11.9850E+06     2.91708E+06     970.207E+03         68.8212
             452     6.66362E-03     80.3794E-03     541.060E-03     32.0583E-03    -727.400E-03    -253.946E-03     39.2830E-03     60.3814E-03    -319.939E-03     592.293E-03    -298.101E-03    -302.437E-03    -298.025E-03     592.217E-03    -302.437E-03     15.9512E-03     10.9310E+06     1.26677E+06    -5.88270E+06    -5.82533E+06     10.8737E+06     1.26677E+06     942.639E+03         68.1671
             453     5.92228E-03     80.3698E-03     678.507E-03     98.7251E-03    -968.545E-03    -230.228E-03    -59.8104E-03     98.7251E-03    -93.5283E-03     601.201E-03    -298.605E-03    -300.492E-03    -298.582E-03     601.178E-03    -300.492E-03     8.33948E-03     9.40604E+06    -973.624E+03    -6.46260E+06    -6.40352E+06     9.34696E+06    -973.624E+03     885.894E+03         67.7309
             454     5.18088E-03     80.3742E-03     639.945E-03     124.784E-03    -988.897E-03     40.7666E-03    -389.718E-03     124.784E-03     43.0954E-03     604.789E-03    -297.205E-03    -299.992E-03    -299.648E-03     604.786E-03    -297.547E-03     1.72605E-03     8.73370E+06    -2.25330E+06    -6.82122E+06    -6.77614E+06     8.68862E+06    -2.25330E+06     735.130E+03         67.3285
             455     4.44083E-03     80.3868E-03     604.035E-03     131.673E-03    -965.934E-03     101.122E-03    -463.021E-03     131.673E-03    -402.139E-03     600.881E-03    -296.100E-03    -302.300E-03    -302.296E-03     600.877E-03    -296.100E-03    -3.37381E-03     7.32577E+06    -4.02684E+06    -7.73940E+06    -7.71499E+06     7.30137E+06    -4.02684E+06     598.096E+03         66.9430
             456     3.70043E-03     80.4106E-03     593.672E-03     157.718E-03    -980.241E-03    -98.3932E-03    -288.176E-03     157.718E-03     17.2980E-03     594.094E-03    -296.222E-03    -300.789E-03    -300.776E-03     594.081E-03    -296.222E-03    -6.51291E-03     6.34072E+06    -5.33992E+06    -8.18014E+06    -8.15137E+06     6.31195E+06    -5.33992E+06     640.494E+03         66.6525
             457     2.96058E-03     80.4406E-03     675.504E-03     177.969E-03        -1.06329     199.656E-03    -587.444E-03     177.969E-03    -697.710E-03     591.890E-03    -296.259E-03    -297.486E-03    -297.054E-03     591.872E-03    -296.673E-03    -7.93278E-03     5.39298E+06    -6.72228E+06    -8.52213E+06    -8.47865E+06     5.34951E+06    -6.72228E+06     683.791E+03         66.4554
             458     2.22059E-03     80.4753E-03     679.978E-03     56.6666E-03    -958.963E-03     312.921E-03    -676.820E-03     141.581E-03    -26.1362E-03     592.187E-03    -296.136E-03    -297.372E-03    -296.119E-03     592.170E-03    -297.372E-03    -7.67375E-03     4.02467E+06    -8.24083E+06    -9.54240E+06    -9.27734E+06     3.98920E+06    -8.47042E+06     503.810E+03         66.3567
             459     1.48036E-03     80.5022E-03         1.34108     29.1522E-03        -1.62616     78.1467E-03    -448.143E-03     114.067E-03         2.36193     594.711E-03    -297.047E-03    -298.468E-03    -297.037E-03     594.702E-03    -298.468E-03    -5.78552E-03     3.43741E+06    -8.86815E+06    -9.94042E+06    -9.44233E+06     3.38964E+06    -9.31848E+06     277.298E+03         66.3631
             460     740.307E-06     80.5189E-03         3.96388     601.322E-03        -4.89624    -368.344E-03    -564.014E-03     601.322E-03        -4.81271     597.451E-03    -297.693E-03    -299.616E-03    -297.690E-03     597.447E-03    -299.616E-03    -3.15527E-03     2.90031E+06    -8.70108E+06    -9.45312E+06    -9.00455E+06     2.85508E+06    -9.10441E+06    -81.2804E+03         66.4188
             461     12.6145E-03     79.3578E-03     372.439E-03     33.2551E-03    -672.627E-03     150.823E-03    -502.398E-03     84.6419E-03     356.163E-03     603.035E-03    -296.802E-03    -302.698E-03    -299.059E-03     599.396E-03    -296.802E-03     114.244E-03     11.3440E+06     7.60596E+06    -382.103E+03    -377.823E+03     11.3397E+06     7.60596E+06     197.449E+03         88.1693
             462     11.8746E-03     79.1307E-03     357.646E-03     29.2641E-03    -617.226E-03     244.071E-03    -555.038E-03     80.6509E-03     99.4238E-03     601.518E-03    -297.112E-03    -301.773E-03    -298.612E-03     598.356E-03    -297.112E-03     105.214E-03     11.7077E+06     6.84968E+06    -1.10461E+06    -1.10039E+06     11.7035E+06     6.84968E+06     161.545E+03         84.5851
             463     11.1080E-03     78.9826E-03     420.641E-03     71.6785E-03    -733.151E-03     317.510E-03    -630.020E-03     71.6785E-03     553.058E-03     596.363E-03    -298.141E-03    -299.179E-03    -296.744E-03     594.478E-03    -298.691E-03     81.9155E-03     12.7034E+06     6.56007E+06    -1.63092E+06    -1.62593E+06     12.6984E+06     6.56007E+06     188.958E+03         80.5315
             464     10.3675E-03     78.8498E-03     309.933E-03     63.5927E-03    -586.804E-03     188.036E-03    -464.907E-03     63.5927E-03     87.1809E-03     593.732E-03    -297.456E-03    -298.761E-03    -296.864E-03     592.384E-03    -298.005E-03     68.8241E-03     12.7501E+06     5.12732E+06    -2.14244E+06    -2.12926E+06     12.7369E+06     5.12732E+06     343.367E+03         76.8380
             465     9.62709E-03     78.7462E-03     270.643E-03     72.1971E-03    -522.375E-03    -152.316E-03    -99.4157E-03     72.1971E-03     228.171E-03     595.607E-03    -293.444E-03    -296.332E-03    -293.319E-03     594.727E-03    -295.577E-03     55.7175E-03     11.9473E+06     3.64186E+06    -2.91933E+06    -2.90017E+06     11.9281E+06     3.64186E+06     474.841E+03         73.7984
             466     8.88572E-03     78.6625E-03     277.265E-03     98.4992E-03    -532.839E-03    -219.661E-03    -35.9134E-03     98.4992E-03     362.289E-03     595.305E-03    -293.089E-03    -296.855E-03    -292.513E-03     594.729E-03    -296.855E-03     44.8742E-03     13.0930E+06     4.38815E+06    -3.59338E+06    -3.56363E+06     13.0633E+06     4.38815E+06     687.281E+03         71.4728
             467     8.14564E-03     78.5984E-03     210.582E-03     118.685E-03    -507.712E-03     63.3308E-03    -360.461E-03     118.685E-03    -4.98894E-03     594.000E-03    -296.536E-03    -300.686E-03    -296.206E-03     593.670E-03    -300.686E-03     33.8839E-03     13.0875E+06     4.04028E+06    -4.13763E+06    -4.09211E+06     13.0419E+06     4.04028E+06     873.902E+03         69.8599
             468     7.40389E-03     78.5487E-03     215.386E-03     96.4997E-03    -534.901E-03     123.993E-03    -471.831E-03     124.823E-03     315.307E-03     589.356E-03    -297.429E-03    -302.794E-03    -297.261E-03     589.188E-03    -302.794E-03     24.0403E-03     12.2497E+06     2.81859E+06    -4.68754E+06    -4.63486E+06     12.1970E+06     2.81859E+06     879.554E+03         68.8144
             469     6.66326E-03     78.5237E-03     299.468E-03     68.1050E-03    -637.075E-03    -205.825E-03    -210.169E-03     146.493E-03    -146.619E-03     592.287E-03    -298.101E-03    -302.449E-03    -298.028E-03     592.214E-03    -302.449E-03     15.5574E-03     11.3840E+06     1.32950E+06    -5.14216E+06    -5.08819E+06     11.3300E+06     1.32950E+06     880.010E+03         68.1611
             470     5.92235E-03     78.5136E-03     359.338E-03     154.559E-03    -802.872E-03    -399.783E-03    -93.8150E-03     204.624E-03    -27.5759E-03     601.334E-03    -298.737E-03    -300.568E-03    -298.716E-03     601.313E-03    -300.568E-03     8.04483E-03     9.90864E+06    -756.378E+03    -5.75674E+06    -5.71728E+06     9.86918E+06    -756.378E+03     741.498E+03         67.7271
             471     5.18031E-03     78.5130E-03     585.571E-03     273.441E-03        -1.11831    -159.798E-03    -372.944E-03     273.441E-03    -493.039E-03     604.937E-03    -297.348E-03    -300.153E-03    -299.820E-03     604.934E-03    -297.678E-03     1.63899E-03     9.05345E+06    -2.13822E+06    -6.38213E+06    -6.34521E+06     9.01654E+06    -2.13822E+06     688.301E+03         67.3272
             472     4.44043E-03     78.5290E-03     838.035E-03     308.427E-03        -1.36204     251.040E-03    -775.044E-03     308.427E-03    -40.9214E-03     600.973E-03    -296.228E-03    -302.483E-03    -302.479E-03     600.969E-03    -296.228E-03    -3.32144E-03     7.86011E+06    -3.75238E+06    -7.10077E+06    -7.05597E+06     7.81531E+06    -3.75238E+06     781.619E+03         66.9424
             473     3.70081E-03     78.5521E-03     879.998E-03     296.668E-03        -1.36059     446.022E-03    -926.611E-03     296.668E-03    -12.6940E-03     593.865E-03    -296.295E-03    -300.814E-03    -300.802E-03     593.853E-03    -296.295E-03    -6.45655E-03     6.73749E+06    -5.22797E+06    -7.71196E+06    -7.68169E+06     6.70721E+06    -5.22797E+06     625.228E+03         66.6503
             474     2.96048E-03     78.5801E-03     855.009E-03     304.194E-03        -1.32364     113.719E-03    -582.351E-03     304.194E-03    -319.310E-03     591.755E-03    -296.245E-03    -297.507E-03    -296.966E-03     591.738E-03    -296.768E-03    -7.94532E-03     6.03135E+06    -6.30636E+06    -7.97798E+06    -7.94301E+06     5.99639E+06    -6.30636E+06     537.172E+03         66.4517
             475     2.22044E-03     78.6155E-03     643.839E-03     323.650E-03        -1.20539    -210.649E-03    -461.635E-03     434.386E-03     204.221E-03     592.367E-03    -296.157E-03    -297.463E-03    -296.140E-03     592.350E-03    -297.463E-03    -7.72771E-03     5.12591E+06    -7.35973E+06    -8.58414E+06    -8.54868E+06     5.09044E+06    -7.35973E+06     433.262E+03         66.3516
             476     1.48061E-03     78.6475E-03         1.00337     462.152E-03        -1.77959     438.914E-03        -1.32587     572.887E-03     887.053E-03     594.814E-03    -297.141E-03    -298.453E-03    -297.131E-03     594.804E-03    -298.453E-03    -5.79176E-03     4.39458E+06    -8.21236E+06    -8.98379E+06    -8.95390E+06     4.36469E+06    -8.21236E+06     128.072E+03         66.3568
             477     740.198E-06     78.6723E-03         3.00124     612.735E-03        -3.96323     588.634E-03        -1.55063     612.735E-03        -3.69347     597.441E-03    -298.083E-03    -299.496E-03    -298.080E-03     597.438E-03    -299.496E-03    -2.99890E-03     2.94952E+06    -8.90133E+06    -9.54116E+06    -9.30543E+06     2.89639E+06    -9.08392E+06     202.521E+03         66.4132
             478     12.6131E-03     77.5043E-03     259.596E-03     78.7678E-03    -702.987E-03     30.0839E-03    -524.862E-03     130.155E-03     192.663E-03     603.152E-03    -296.811E-03    -302.685E-03    -299.044E-03     599.511E-03    -296.811E-03     114.261E-03     11.0648E+06     7.77042E+06    -353.219E+03    -348.973E+03     11.0606E+06     7.77042E+06     128.828E+03         88.1414
             479     11.8753E-03     77.2756E-03     175.851E-03     45.1336E-03    -590.528E-03    -58.6911E-03    -459.594E-03     148.741E-03    -383.410E-03     601.580E-03    -297.103E-03    -301.733E-03    -298.549E-03     598.397E-03    -297.103E-03     105.616E-03     11.9019E+06     6.85466E+06    -790.186E+03    -784.395E+03     11.8961E+06     6.85466E+06     244.374E+03         84.5661
             480     11.1079E-03     77.1290E-03     297.726E-03    -12.5695E-03    -651.195E-03    -12.2057E-03    -524.901E-03     171.069E-03    -47.9808E-03     596.334E-03    -298.072E-03    -299.155E-03    -296.648E-03     594.434E-03    -298.679E-03     82.2039E-03     12.5834E+06     6.01600E+06    -1.43726E+06    -1.41964E+06     12.5658E+06     6.01600E+06     464.618E+03         80.5214
             481     10.3676E-03     76.9930E-03     309.424E-03     33.5346E-03    -651.463E-03     70.8747E-03    -572.006E-03     192.628E-03    -69.8347E-03     593.788E-03    -297.440E-03    -298.838E-03    -296.882E-03     592.439E-03    -298.047E-03     68.8683E-03     12.3029E+06     4.20676E+06    -2.19576E+06    -2.16226E+06     12.2694E+06     4.20676E+06     680.803E+03         76.8356
             482     9.62606E-03     76.8888E-03     422.062E-03     183.509E-03    -850.562E-03     122.899E-03    -579.075E-03     211.185E-03     169.481E-03     595.638E-03    -293.496E-03    -296.385E-03    -293.408E-03     594.759E-03    -295.594E-03     55.6697E-03     12.2380E+06     2.97742E+06    -2.68852E+06    -2.66029E+06     12.2098E+06     2.97742E+06     625.315E+03         73.8101
             483     8.88555E-03     76.8039E-03     489.473E-03     227.251E-03    -937.280E-03     113.089E-03    -560.896E-03     227.251E-03     42.3990E-03     596.049E-03    -293.572E-03    -297.141E-03    -292.996E-03     595.473E-03    -297.141E-03     44.9180E-03     12.9535E+06     3.60129E+06    -3.00474E+06    -2.98823E+06     12.9369E+06     3.60129E+06     391.717E+03         71.4957
             484     8.14443E-03     76.7392E-03     349.579E-03     205.212E-03    -779.730E-03     103.631E-03    -571.585E-03     243.016E-03    -475.397E-03     594.295E-03    -296.700E-03    -300.717E-03    -296.368E-03     593.964E-03    -300.717E-03     33.9246E-03     12.8854E+06     4.11583E+06    -3.45873E+06    -3.44141E+06     12.8681E+06     4.11583E+06     384.089E+03         69.8742
             485     7.40445E-03     76.6923E-03     426.119E-03     217.239E-03    -891.591E-03     198.588E-03    -701.864E-03     255.042E-03     405.754E-03     589.548E-03    -297.527E-03    -302.784E-03    -297.362E-03     589.383E-03    -302.784E-03     23.8033E-03     12.1429E+06     2.84677E+06    -4.11198E+06    -4.09198E+06     12.1229E+06     2.84677E+06     518.558E+03         68.8150
             486     6.66297E-03     76.6651E-03     556.769E-03     205.904E-03        -1.03743     322.792E-03    -853.521E-03     255.969E-03     128.511E-03     591.935E-03    -297.916E-03    -302.316E-03    -297.847E-03     591.866E-03    -302.316E-03     15.1522E-03     11.4905E+06     828.694E+03    -4.79018E+06    -4.75622E+06     11.4565E+06     828.694E+03     710.491E+03         68.1564
             487     5.92174E-03     76.6534E-03     586.547E-03     193.281E-03        -1.03239     397.920E-03    -893.832E-03     243.346E-03    -83.6899E-03     600.375E-03    -298.169E-03    -300.210E-03    -298.150E-03     600.355E-03    -300.210E-03     7.74425E-03     10.5275E+06    -1.05596E+06    -5.43998E+06    -5.38997E+06     10.4775E+06    -1.05596E+06     888.266E+03         67.7215
             488     5.18013E-03     76.6553E-03     480.624E-03     246.371E-03    -936.882E-03     73.4727E-03    -529.730E-03     246.371E-03     72.4402E-03     604.977E-03    -297.426E-03    -300.169E-03    -299.813E-03     604.974E-03    -297.779E-03     1.58596E-03     8.95614E+06    -2.75426E+06    -6.15582E+06    -6.10224E+06     8.90257E+06    -2.75426E+06     884.405E+03         67.3237
             489     4.44056E-03     76.6673E-03     606.214E-03     294.829E-03        -1.06825    -126.942E-03    -335.097E-03     294.829E-03    -257.349E-03     601.093E-03    -296.325E-03    -302.462E-03    -302.458E-03     601.088E-03    -296.325E-03    -3.41150E-03     8.43142E+06    -3.44690E+06    -6.41677E+06    -6.37079E+06     8.38543E+06    -3.44690E+06     796.158E+03         66.9386
             490     3.70028E-03     76.6923E-03     808.421E-03     295.694E-03        -1.23867     259.728E-03    -733.302E-03     339.022E-03    -111.182E-03     594.292E-03    -296.366E-03    -300.923E-03    -300.911E-03     594.279E-03    -296.366E-03    -6.56735E-03     7.65611E+06    -4.33536E+06    -6.95403E+06    -6.92789E+06     7.62997E+06    -4.33536E+06     578.259E+03         66.6435
             491     2.96001E-03     76.7195E-03     937.753E-03     306.685E-03        -1.40739     324.880E-03    -837.841E-03     350.013E-03     857.966E-03     592.110E-03    -296.229E-03    -297.671E-03    -297.022E-03     592.092E-03    -296.860E-03    -7.99729E-03     6.52831E+06    -5.64927E+06    -7.82300E+06    -7.80114E+06     6.50645E+06    -5.64927E+06     452.933E+03         66.4442
             492     2.22020E-03     76.7587E-03         1.31781     332.141E-03        -1.85789     337.999E-03    -903.905E-03     357.962E-03    -572.361E-03     592.519E-03    -296.064E-03    -297.577E-03    -296.047E-03     592.502E-03    -297.577E-03    -7.57141E-03     5.70411E+06    -6.99784E+06    -8.02522E+06    -7.99099E+06     5.67634E+06     -7.0043E+06     393.846E+03         66.3460
             493     1.48009E-03     76.7938E-03         1.82542     314.157E-03        -2.41204     463.606E-03        -1.07605     339.977E-03     441.511E-03     595.136E-03    -297.162E-03    -298.644E-03    -297.153E-03     595.127E-03    -298.644E-03    -5.52297E-03     4.96048E+06    -8.06091E+06    -8.39057E+06    -8.18731E+06     4.93738E+06    -8.24107E+06     360.311E+03         66.3536
             494     739.881E-06     76.8284E-03         2.52049     344.941E-03        -3.17498     317.152E-03    -971.637E-03     344.941E-03        -1.10286     597.852E-03    -298.254E-03    -299.664E-03    -298.252E-03     597.850E-03    -299.664E-03    -2.59395E-03     4.07631E+06    -7.99049E+06    -8.58394E+06    -8.21688E+06     4.01455E+06    -8.29579E+06     248.239E+03         66.4134
             495     12.6125E-03     75.6460E-03     354.965E-03     209.165E-03    -873.274E-03     238.957E-03    -798.241E-03     250.139E-03    -125.359E-03     603.271E-03    -296.863E-03    -302.591E-03    -298.945E-03     599.624E-03    -296.863E-03     114.339E-03     10.7731E+06     7.46489E+06    -517.362E+03    -514.177E+03     10.7699E+06     7.46489E+06     42.3732E+03         88.1155
             496     11.8751E-03     75.4176E-03     286.657E-03     165.654E-03    -796.272E-03     35.2234E-03    -656.506E-03     277.322E-03    -522.223E-03     601.638E-03    -297.128E-03    -301.710E-03    -298.505E-03     598.433E-03    -297.128E-03     106.005E-03     11.4311E+06     7.28880E+06    -1.00561E+06    -997.858E+03     11.4234E+06     7.28880E+06     274.902E+03         84.5475
             497     11.1065E-03     75.2662E-03     315.130E-03    -25.0912E-03    -590.244E-03    -145.346E-03    -469.989E-03     315.130E-03    -170.493E-03     596.571E-03    -298.102E-03    -299.184E-03    -296.718E-03     594.661E-03    -298.658E-03     82.4294E-03     12.1104E+06     6.47692E+06    -1.61781E+06    -1.59965E+06     12.0923E+06     6.47692E+06     467.842E+03         80.5091
             498     10.3668E-03     75.1327E-03     354.858E-03     67.1944E-03    -716.115E-03    -32.2805E-03    -616.640E-03     354.858E-03    -296.681E-03     594.027E-03    -297.481E-03    -298.902E-03    -296.999E-03     592.680E-03    -298.036E-03     68.8448E-03     12.4679E+06     4.71234E+06    -1.94069E+06    -1.91812E+06     12.4453E+06     4.71234E+06     482.196E+03         76.8309
             499     9.62633E-03     75.0293E-03     512.107E-03     326.572E-03        -1.13256     390.479E-03        -1.06044     376.080E-03    -133.034E-03     595.589E-03    -293.477E-03    -296.441E-03    -293.466E-03     594.712E-03    -295.576E-03     55.5934E-03     12.7381E+06     3.49404E+06    -2.00577E+06    -1.99329E+06     12.7256E+06     3.49404E+06     275.637E+03         73.8206
             500     8.88554E-03     74.9464E-03     666.394E-03     371.684E-03        -1.30985     618.630E-03        -1.26209     371.684E-03     288.941E-03     596.806E-03    -294.095E-03    -297.449E-03    -293.522E-03     596.233E-03    -297.449E-03     44.8262E-03     12.9208E+06     2.64564E+06    -2.40361E+06    -2.37554E+06     12.8927E+06     2.64564E+06     344.808E+03         71.5189
             501     8.14382E-03     74.8796E-03     641.545E-03     322.955E-03        -1.21846     482.695E-03        -1.09741     360.759E-03    -311.681E-03     595.031E-03    -297.158E-03    -300.998E-03    -296.826E-03     594.698E-03    -300.998E-03     34.0092E-03     12.5646E+06     2.81482E+06    -3.13628E+06    -3.10095E+06     12.5293E+06     2.81482E+06     512.486E+03         69.8918
             502     7.40294E-03     74.8348E-03     691.974E-03     314.929E-03        -1.23710     457.368E-03        -1.04030     352.732E-03     224.046E-03     590.372E-03    -297.915E-03    -303.036E-03    -297.747E-03     590.203E-03    -303.036E-03     24.0872E-03     11.9234E+06     2.00142E+06    -3.89358E+06    -3.86535E+06     11.8952E+06     2.00142E+06     622.963E+03         68.8227
             503     6.66304E-03     74.8084E-03     779.400E-03     333.272E-03        -1.30295     608.040E-03        -1.13159     333.272E-03     155.043E-03     592.723E-03    -298.307E-03    -302.546E-03    -298.235E-03     592.651E-03    -302.546E-03     15.4229E-03     11.3205E+06     551.489E+03    -4.48552E+06    -4.44886E+06     11.2838E+06     551.489E+03     747.973E+03         68.1607
             504     5.92203E-03     74.7949E-03     782.544E-03     293.837E-03        -1.25957     684.917E-03        -1.16194     293.837E-03    -108.836E-03     600.350E-03    -298.105E-03    -300.202E-03    -298.085E-03     600.330E-03    -300.202E-03     7.72357E-03     10.8217E+06    -521.145E+03    -4.93074E+06    -4.89123E+06     10.7821E+06    -521.145E+03     764.295E+03         67.7229
             505     5.18013E-03     74.7956E-03     765.297E-03     238.065E-03        -1.17332     675.430E-03        -1.08345     238.065E-03     775.824E-03     604.937E-03    -297.475E-03    -300.157E-03    -299.760E-03     604.934E-03    -297.869E-03     1.37625E-03     9.60562E+06    -2.31878E+06    -5.37097E+06    -5.33488E+06     9.56953E+06    -2.31878E+06     721.654E+03         67.3214
             506     4.43988E-03     74.8110E-03     743.693E-03     193.707E-03        -1.11297     353.487E-03    -722.759E-03     193.707E-03    -240.575E-03     601.251E-03    -296.412E-03    -302.397E-03    -302.392E-03     601.246E-03    -296.412E-03    -3.58841E-03     8.70350E+06    -3.45462E+06    -5.96977E+06    -5.93915E+06     8.67288E+06    -3.45462E+06     661.790E+03         66.9326
             507     3.70020E-03     74.8340E-03     595.113E-03     165.380E-03    -944.634E-03    -55.6071E-03    -337.241E-03     208.708E-03    -135.463E-03     594.619E-03    -296.419E-03    -300.936E-03    -300.923E-03     594.605E-03    -296.419E-03    -6.76126E-03     8.04996E+06    -4.34503E+06    -6.27056E+06    -6.22363E+06     8.00303E+06    -4.34503E+06     766.086E+03         66.6353
             508     2.96009E-03     74.8656E-03     542.886E-03     203.408E-03    -920.673E-03     186.290E-03    -607.404E-03     246.736E-03     703.899E-03     592.198E-03    -296.373E-03    -297.720E-03    -297.173E-03     592.179E-03    -296.901E-03    -8.23034E-03     7.18224E+06    -5.54675E+06    -6.72922E+06    -6.68111E+06     7.13412E+06    -5.54675E+06     748.041E+03         66.4369
             509     2.21970E-03     74.9078E-03         1.11610     176.066E-03        -1.47120     667.489E-03        -1.02259     176.066E-03        -1.27924     592.472E-03    -296.112E-03    -297.711E-03    -296.094E-03     592.455E-03    -297.711E-03    -7.79162E-03     6.38036E+06    -6.44977E+06    -7.30973E+06    -7.27366E+06     6.35075E+06    -6.45623E+06     481.055E+03         66.3417
             510     1.47934E-03     74.9458E-03         2.14833     11.1848E-03        -2.30642     336.303E-03    -494.395E-03     11.1848E-03         1.26368     595.492E-03    -297.265E-03    -299.050E-03    -297.256E-03     595.482E-03    -299.050E-03    -5.56260E-03     6.08091E+06    -6.57317E+06    -7.40417E+06    -7.20359E+06     6.06049E+06    -6.75333E+06     345.874E+03         66.3533
             511     739.660E-06     74.9863E-03         4.08139    -306.140E-03        -3.93589     148.293E-03    -2.78750E-03    -306.140E-03        -2.54543     598.694E-03    -298.675E-03    -299.866E-03    -298.833E-03     598.691E-03    -299.705E-03    -2.61597E-03     5.10315E+06    -6.80760E+06    -7.36242E+06    -6.99669E+06      5.0562E+06    -7.12638E+06     147.762E+03         66.4173
             512     12.6135E-03     73.7904E-03     404.738E-03     214.031E-03    -723.412E-03     205.319E-03    -714.700E-03     404.738E-03    -47.7799E-03     603.194E-03    -296.912E-03    -302.550E-03    -298.905E-03     599.549E-03    -296.912E-03     114.333E-03     10.5410E+06     5.90487E+06    -399.307E+03    -392.524E+03     10.5342E+06     5.90487E+06     144.924E+03         88.0932
             513     11.8733E-03     73.5593E-03     430.757E-03     318.271E-03    -803.680E-03     308.557E-03    -793.965E-03     430.757E-03    -124.172E-03     601.535E-03    -297.190E-03    -301.728E-03    -298.549E-03     598.357E-03    -297.190E-03     105.518E-03     11.1000E+06     6.53898E+06    -726.170E+03    -717.975E+03     11.0919E+06     6.53898E+06     94.4055E+03         84.5319
             514     11.1065E-03     73.4110E-03     553.605E-03     282.592E-03    -943.040E-03     380.273E-03    -935.864E-03     448.749E-03     37.8066E-03     596.808E-03    -298.278E-03    -299.314E-03    -296.977E-03     594.917E-03    -298.723E-03     82.0762E-03     11.9715E+06     6.90899E+06    -833.374E+03    -819.351E+03     11.9575E+06     6.90899E+06    -49.5699E+03         80.4974
             515     10.3670E-03     73.2759E-03     604.093E-03     331.575E-03        -1.09089     400.861E-03        -1.01623     460.146E-03    -348.041E-03     594.290E-03    -297.618E-03    -298.890E-03    -297.102E-03     592.948E-03    -298.063E-03     68.7371E-03     12.4917E+06     5.07119E+06    -1.16471E+06    -1.15566E+06     12.4826E+06     5.07119E+06    -18.0682E+03         76.8236
             516     9.62673E-03     73.1749E-03     532.205E-03     327.996E-03        -1.05719     278.964E-03    -949.562E-03     473.612E-03    -191.188E-03     595.817E-03    -293.566E-03    -296.450E-03    -293.517E-03     594.942E-03    -295.623E-03     55.5606E-03     12.3024E+06     3.01422E+06    -1.67555E+06    -1.65412E+06     12.2809E+06     3.01422E+06     302.750E+03         73.8219
             517     8.88552E-03     73.0878E-03     615.585E-03     318.821E-03        -1.16468     342.871E-03        -1.06353     490.389E-03     222.605E-03     597.067E-03    -294.314E-03    -297.540E-03    -293.741E-03     596.494E-03    -297.540E-03     44.8204E-03     12.3322E+06     2.13315E+06    -2.23281E+06    -2.18121E+06     12.2806E+06     2.13315E+06     698.490E+03         71.5271
             518     8.14454E-03     73.0248E-03     821.977E-03     443.858E-03        -1.48161     679.572E-03        -1.38698     491.642E-03    -405.953E-03     595.023E-03    -297.230E-03    -301.048E-03    -296.899E-03     594.693E-03    -301.048E-03     33.9188E-03     12.6166E+06     2.55473E+06    -2.80528E+06    -2.75060E+06     12.5619E+06     2.55473E+06     884.319E+03         69.8999
             519     7.40337E-03     72.9821E-03     857.803E-03     470.439E-03        -1.51341     794.014E-03        -1.44962     470.439E-03    -43.2426E-03     590.416E-03    -297.923E-03    -303.059E-03    -297.754E-03     590.247E-03    -303.059E-03     24.1033E-03     12.3151E+06     2.21243E+06    -3.24386E+06    -3.20985E+06     12.2811E+06     2.21243E+06     668.282E+03         68.8301
             520     6.66284E-03     72.9515E-03     812.114E-03     442.764E-03        -1.41127     696.691E-03        -1.29585     442.764E-03    -210.330E-03     593.951E-03    -299.119E-03    -302.934E-03    -299.046E-03     593.878E-03    -302.934E-03     15.6166E-03     11.2803E+06     725.665E+03    -3.59205E+06    -3.57187E+06     11.2601E+06     725.665E+03     503.852E+03         68.1693
             521     5.92212E-03     72.9394E-03     736.360E-03     408.813E-03        -1.28849     610.115E-03        -1.17125     417.818E-03    -349.611E-03     601.269E-03    -298.761E-03    -300.527E-03    -298.740E-03     601.247E-03    -300.527E-03     7.97404E-03     10.6534E+06     161.421E+03    -4.22015E+06    -4.17896E+06     10.6122E+06     161.421E+03     724.279E+03         67.7291
             522     5.18021E-03     72.9442E-03     894.093E-03     372.001E-03        -1.45933     721.887E-03        -1.29613     381.006E-03     63.4725E-03     604.720E-03    -297.341E-03    -300.089E-03    -299.648E-03     604.717E-03    -297.779E-03     1.43348E-03     10.0250E+06    -1.16198E+06    -5.00580E+06    -4.94273E+06     9.96195E+06    -1.16198E+06     926.382E+03         67.3229
             523     4.43996E-03     72.9572E-03         1.11214     301.238E-03        -1.63130     941.108E-03        -1.46026     301.238E-03    -213.093E-03     601.067E-03    -296.380E-03    -302.310E-03    -302.305E-03     601.062E-03    -296.380E-03    -3.61873E-03     9.21892E+06    -2.93626E+06    -5.40171E+06    -5.35121E+06     9.16842E+06    -2.93626E+06     833.943E+03         66.9315
             524     3.69948E-03     72.9849E-03     927.621E-03     197.363E-03        -1.35450     672.378E-03        -1.09926     197.363E-03     100.627E-03     594.299E-03    -296.432E-03    -300.706E-03    -300.693E-03     594.286E-03    -296.432E-03    -6.76753E-03     8.42888E+06    -4.07086E+06    -5.61656E+06    -5.57042E+06     8.38274E+06    -4.07086E+06     575.499E+03         66.6339
             525     2.95978E-03     73.0151E-03     615.514E-03     135.327E-03    -970.905E-03     236.452E-03    -591.843E-03     135.327E-03    -304.082E-03     592.175E-03    -296.507E-03    -297.570E-03    -297.141E-03     592.155E-03    -296.916E-03    -8.33628E-03     7.91026E+06    -4.78731E+06    -5.85180E+06    -5.81734E+06     7.87581E+06    -4.78731E+06     426.719E+03         66.4357
             526     2.21976E-03     73.0589E-03     530.920E-03     165.790E-03    -820.310E-03    -96.8285E-03    -192.562E-03     165.790E-03    -802.518E-03     592.708E-03    -296.370E-03    -297.695E-03    -296.351E-03     592.690E-03    -297.695E-03    -8.12804E-03     7.30324E+06    -5.32515E+06    -6.44484E+06    -6.15050E+06     7.29397E+06    -5.61022E+06     260.669E+03         66.3397
             527     1.47975E-03     73.1013E-03         1.20647     324.061E-03        -1.62023    -148.442E-03    -265.319E-03     324.061E-03         1.69067     595.460E-03    -297.350E-03    -298.988E-03    -297.339E-03     595.448E-03    -298.988E-03    -6.11491E-03     6.64032E+06    -5.76341E+06    -6.91203E+06    -6.40443E+06     6.63049E+06    -6.26119E+06     185.226E+03         66.3504
             528     739.746E-06     73.1484E-03         4.12618    -36.8998E-03        -4.13089     898.305E-03    -903.010E-03    -36.8998E-03        -3.88761     598.537E-03    -298.481E-03    -299.680E-03    -298.638E-03     598.534E-03    -299.519E-03    -2.93899E-03     5.68041E+06    -6.06542E+06    -6.72071E+06    -6.46958E+06     5.65546E+06    -6.29160E+06     357.615E+03         66.4147
             529     12.6123E-03     71.9366E-03     482.334E-03     203.049E-03    -686.893E-03     97.6333E-03    -581.478E-03     482.334E-03     314.572E-03     603.170E-03    -296.931E-03    -302.689E-03    -299.064E-03     599.545E-03    -296.931E-03     114.017E-03     10.4190E+06     5.42954E+06    -192.445E+03    -187.541E+03     10.4141E+06     5.42954E+06     20.8395E+03         88.0741
             530     11.8736E-03     71.7062E-03     524.521E-03     348.579E-03    -940.052E-03     346.861E-03    -912.759E-03     498.948E-03     276.143E-03     601.304E-03    -297.207E-03    -301.737E-03    -298.575E-03     598.142E-03    -297.207E-03     105.228E-03     11.2902E+06     4.60005E+06    -639.752E+03    -636.864E+03     11.2873E+06     4.60005E+06    -69.6253E+03         84.5185
             531     11.1069E-03     71.5580E-03     633.619E-03     469.065E-03        -1.19836     508.990E-03        -1.10786     503.188E-03     518.773E-03     596.268E-03    -298.115E-03    -299.183E-03    -296.777E-03     594.385E-03    -298.638E-03     81.8550E-03     11.8809E+06     3.58991E+06    -1.23011E+06    -1.21805E+06     11.8688E+06     3.58991E+06    -90.4971E+03         80.4855
             532     10.3659E-03     71.4238E-03     648.489E-03     406.571E-03        -1.16790     466.798E-03        -1.08418     504.543E-03     143.796E-03     594.081E-03    -297.494E-03    -298.868E-03    -297.007E-03     592.743E-03    -298.016E-03     68.5964E-03     11.6170E+06     2.24822E+06    -1.81671E+06    -1.80588E+06     11.6062E+06     2.24822E+06     43.9371E+03         76.8123
             533     9.62600E-03     71.3250E-03     608.630E-03     317.457E-03        -1.06375     314.972E-03    -967.300E-03     514.663E-03     275.524E-03     596.058E-03    -293.669E-03    -296.515E-03    -293.647E-03     595.185E-03    -295.663E-03     55.5217E-03     11.5248E+06     1.69359E+06    -2.23245E+06    -2.20943E+06     11.5018E+06     1.69359E+06     425.349E+03         73.8119
             534     8.88512E-03     71.2375E-03     592.866E-03     248.373E-03        -1.00745     183.095E-03    -887.299E-03     537.989E-03     205.810E-03     597.174E-03    -294.401E-03    -297.579E-03    -293.826E-03     596.599E-03    -297.579E-03     44.9253E-03     12.1544E+06     2.26221E+06    -2.34226E+06    -2.31461E+06     12.1268E+06     2.26221E+06     494.898E+03         71.5188
             535     8.14440E-03     71.1742E-03     671.213E-03     200.049E-03        -1.04450     226.898E-03    -968.811E-03     568.674E-03    -521.332E-03     595.542E-03    -297.601E-03    -301.226E-03    -297.268E-03     595.209E-03    -301.226E-03     34.0341E-03     12.8454E+06     3.09891E+06    -2.30366E+06    -2.28262E+06     12.8244E+06     3.09891E+06     371.045E+03         69.8970
             536     7.40391E-03     71.1314E-03     749.288E-03     391.627E-03        -1.30096     408.998E-03        -1.16347     594.421E-03     238.781E-03     590.929E-03    -298.285E-03    -303.195E-03    -298.115E-03     590.759E-03    -303.195E-03     24.2216E-03     12.6287E+06     2.48410E+06    -2.57587E+06    -2.53969E+06     12.5926E+06     2.48410E+06     521.685E+03         68.8311
             537     6.66252E-03     71.1007E-03     816.418E-03     524.934E-03        -1.50084     535.449E-03        -1.30436     609.424E-03    -95.7903E-03     594.044E-03    -299.058E-03    -303.029E-03    -298.984E-03     593.969E-03    -303.029E-03     15.7818E-03     11.2271E+06     712.421E+03    -3.36465E+06    -3.31912E+06     11.1816E+06     712.421E+03     718.962E+03         68.1688
             538     5.92191E-03     71.0885E-03     816.999E-03     523.695E-03        -1.49428     575.618E-03        -1.34639     617.189E-03    -294.425E-03     601.332E-03    -298.689E-03    -300.633E-03    -298.667E-03     601.309E-03    -300.633E-03     8.23033E-03     10.5107E+06     73.3623E+03    -4.00716E+06    -3.95471E+06     10.4583E+06     73.3623E+03     808.358E+03         67.7275
             539     5.17951E-03     71.0931E-03     852.621E-03     611.972E-03        -1.64090     597.877E-03        -1.39516     620.977E-03    -641.206E-03     604.825E-03    -297.343E-03    -300.203E-03    -299.758E-03     604.821E-03    -297.783E-03     1.62271E-03     10.2018E+06    -508.262E+03    -4.27710E+06    -4.22471E+06     10.1494E+06    -508.262E+03     692.602E+03         67.3231
             540     4.43951E-03     71.1083E-03         1.04042     496.758E-03        -1.76734     669.691E-03        -1.51518     615.335E-03    -500.333E-03     601.220E-03    -296.383E-03    -302.399E-03    -302.395E-03     601.215E-03    -296.383E-03    -3.61672E-03     9.63702E+06    -1.32204E+06    -4.65777E+06    -4.61658E+06     9.59583E+06    -1.32204E+06     632.456E+03         66.9334
             541     3.69964E-03     71.1349E-03         1.03625     453.108E-03        -1.74244     811.838E-03        -1.64599     581.077E-03     40.3541E-03     594.556E-03    -296.424E-03    -300.749E-03    -300.735E-03     594.543E-03    -296.424E-03    -6.83689E-03     9.12826E+06    -2.41464E+06    -5.22343E+06    -5.17568E+06     9.08052E+06    -2.41464E+06     591.072E+03         66.6356
             542     2.95964E-03     71.1676E-03         1.02181     498.002E-03        -1.75620     816.517E-03        -1.56029     507.394E-03    -634.301E-03     592.536E-03    -296.513E-03    -297.630E-03    -297.221E-03     592.516E-03    -296.903E-03    -8.37005E-03     8.54204E+06    -3.73738E+06    -5.47600E+06    -5.44045E+06     8.50649E+06    -3.73738E+06     370.691E+03         66.4360
             543     2.21999E-03     71.2132E-03     962.220E-03     451.827E-03        -1.60231     465.493E-03        -1.10558     451.827E-03    -183.964E-03     592.907E-03    -296.487E-03    -297.583E-03    -296.469E-03     592.889E-03    -297.583E-03    -7.90475E-03     7.94991E+06    -4.53794E+06    -5.71959E+06    -5.42571E+06     7.94110E+06    -4.82301E+06     290.063E+03         66.3374
             544     1.48056E-03     71.2605E-03     957.410E-03     463.014E-03        -1.53980     378.617E-03    -961.004E-03     463.014E-03     458.622E-03     595.298E-03    -297.366E-03    -298.711E-03    -297.356E-03     595.288E-03    -298.711E-03    -5.71608E-03     6.96305E+06    -5.60175E+06    -6.52609E+06    -6.02416E+06     6.95890E+06    -6.09953E+06     146.262E+03         66.3445
             545     740.538E-06     71.3148E-03         2.38549     266.104E-03        -2.72004     715.256E-03        -1.04981     266.104E-03        -3.07603     597.997E-03    -297.876E-03    -299.643E-03    -297.873E-03     597.994E-03    -299.643E-03    -2.36482E-03     5.71156E+06    -5.98195E+06    -6.91780E+06    -6.24215E+06     5.71143E+06    -6.65746E+06    -8.89015E+03         66.4062
             546     12.6126E-03     70.0836E-03     465.236E-03     298.321E-03        -1.02087     181.259E-03    -903.808E-03     465.236E-03     235.722E-03     603.195E-03    -296.871E-03    -302.760E-03    -299.143E-03     599.578E-03    -296.871E-03     113.895E-03     10.5221E+06     4.73956E+06    -498.290E+03    -496.668E+03     10.5205E+06     4.73956E+06    -6.49280E+03         88.0551
             547     11.8740E-03     69.8527E-03     502.494E-03     218.011E-03    -999.958E-03     206.030E-03    -962.403E-03     476.920E-03     143.526E-03     600.983E-03    -297.167E-03    -301.615E-03    -298.457E-03     597.826E-03    -297.167E-03     105.139E-03     11.2460E+06     3.44552E+06    -932.492E+03    -930.440E+03     11.2439E+06     3.44552E+06     101.137E+03         84.5049
             548     11.1059E-03     69.7064E-03     518.306E-03     265.789E-03        -1.01220     195.966E-03    -916.803E-03     492.733E-03     565.987E-03     595.899E-03    -297.975E-03    -299.079E-03    -296.549E-03     594.021E-03    -298.627E-03     81.7105E-03     11.3914E+06     2.59564E+06    -1.42477E+06    -1.40651E+06     11.3731E+06     2.59564E+06     410.774E+03         80.4735
             549     10.3656E-03     69.5743E-03     512.258E-03     313.872E-03        -1.00547     228.735E-03    -920.329E-03     512.258E-03     231.371E-03     593.841E-03    -297.338E-03    -298.865E-03    -296.883E-03     592.511E-03    -297.991E-03     68.3640E-03     11.3361E+06     1.77505E+06    -1.80288E+06    -1.78176E+06     11.3150E+06     1.77505E+06     471.570E+03         76.7992
             550     9.62536E-03     69.4739E-03     581.811E-03     420.905E-03        -1.14954     407.122E-03        -1.08088     526.934E-03     292.076E-03     595.968E-03    -293.623E-03    -296.543E-03    -293.626E-03     595.096E-03    -295.668E-03     55.4678E-03     11.3454E+06     1.15726E+06    -2.03524E+06    -2.02934E+06     11.3395E+06     1.15726E+06     188.095E+03         73.7931
             551     8.88494E-03     69.3861E-03     627.519E-03     415.661E-03        -1.17254     440.161E-03        -1.10484     535.315E-03     583.824E-03     596.219E-03    -293.828E-03    -297.263E-03    -293.250E-03     595.641E-03    -297.263E-03     45.0178E-03     12.4092E+06     1.72076E+06    -2.25916E+06    -2.25778E+06     12.4078E+06     1.72076E+06     22.0481E+03         71.4962
             552     8.14410E-03     69.3274E-03     594.193E-03     194.826E-03    -935.503E-03     155.190E-03    -858.540E-03     556.865E-03    -157.641E-03     594.767E-03    -297.144E-03    -300.893E-03    -296.807E-03     594.430E-03    -300.893E-03     34.2105E-03     12.7026E+06     2.15806E+06    -2.65201E+06    -2.64855E+06     12.6992E+06     2.15806E+06     65.4632E+03         69.8813
             553     7.40309E-03     69.2830E-03     609.091E-03     272.252E-03        -1.04345     15.6389E-03    -781.114E-03     603.368E-03     394.972E-03     590.344E-03    -297.907E-03    -302.887E-03    -297.736E-03     590.173E-03    -302.887E-03     24.2664E-03     11.9631E+06     1.91060E+06    -3.05027E+06    -3.02587E+06     11.9387E+06     1.91060E+06     304.394E+03         68.8214
             554     6.66206E-03     69.2552E-03     667.084E-03     388.905E-03        -1.22332     128.908E-03    -957.601E-03     661.361E-03     297.795E-03     593.261E-03    -298.574E-03    -302.798E-03    -298.500E-03     593.186E-03    -302.798E-03     15.7899E-03     11.2368E+06     1.02925E+06    -3.22904E+06    -3.18920E+06     11.1970E+06     1.02925E+06     530.294E+03         68.1594
             555     5.92096E-03     69.2407E-03     758.768E-03     423.228E-03        -1.36610     344.552E-03        -1.24228     713.624E-03     16.0461E-03     601.519E-03    -298.782E-03    -300.866E-03    -298.760E-03     601.497E-03    -300.866E-03     8.16946E-03     10.8488E+06     41.9865E+03    -3.51925E+06    -3.49699E+06     10.8266E+06     41.9865E+03     439.891E+03         67.7217
             556     5.17894E-03     69.2457E-03     848.555E-03     500.315E-03        -1.51669     398.587E-03        -1.32895     762.548E-03     133.306E-03     605.132E-03    -297.547E-03    -300.436E-03    -299.951E-03     605.129E-03    -298.028E-03     1.60603E-03     10.5942E+06    -246.607E+03    -3.68622E+06    -3.67733E+06     10.5853E+06    -246.607E+03     266.480E+03         67.3213
             557     4.43992E-03     69.2620E-03     882.276E-03     344.574E-03        -1.42628     199.092E-03        -1.23994     841.413E-03    -80.2943E-03     601.619E-03    -296.516E-03    -302.687E-03    -302.683E-03     601.615E-03    -296.516E-03    -3.39082E-03     9.85265E+06    -1.00172E+06    -4.11580E+06    -4.10130E+06     9.83815E+06    -1.00172E+06     307.152E+03         66.9328
             558     3.69973E-03     69.2917E-03     952.274E-03     442.309E-03        -1.62210     360.101E-03        -1.53990     952.274E-03    -29.1531E-03     595.194E-03    -296.448E-03    -301.079E-03    -301.066E-03     595.181E-03    -296.448E-03    -6.60534E-03     9.26251E+06    -2.39416E+06    -4.92793E+06    -4.88563E+06     9.22021E+06    -2.39416E+06     390.911E+03         66.6347
             559     2.95967E-03     69.3230E-03         1.19808     725.688E-03        -2.16699     840.605E-03        -2.11432         1.03050    -325.991E-03     592.742E-03    -296.612E-03    -297.774E-03    -297.460E-03     592.723E-03    -296.907E-03    -8.21308E-03     8.93239E+06    -3.21507E+06    -5.14501E+06    -5.10446E+06     8.89184E+06    -3.21507E+06     364.462E+03         66.4346
             560     2.21985E-03     69.3695E-03         1.38233     882.474E-03        -2.54171         1.17519        -2.46908         1.01699     362.516E-03     592.785E-03    -296.562E-03    -297.596E-03    -296.544E-03     592.768E-03    -297.596E-03    -7.82966E-03     7.99481E+06    -4.31517E+06    -5.70378E+06    -5.68591E+06     7.97694E+06    -4.31517E+06     411.772E+03         66.3352
             561     1.47952E-03     69.4190E-03         1.35507     886.442E-03        -2.46556         1.21781        -2.32829     886.442E-03    -339.358E-03     595.393E-03    -297.357E-03    -298.755E-03    -297.348E-03     595.384E-03    -298.755E-03    -5.60465E-03     7.47622E+06    -5.12394E+06    -5.81829E+06    -5.80758E+06     7.46550E+06    -5.12394E+06     280.147E+03         66.3416
             562     739.758E-06     69.4779E-03         1.68051     627.432E-03        -2.50992     908.822E-03        -1.73823     627.432E-03        -1.68969     598.247E-03    -297.708E-03    -300.335E-03    -297.706E-03     598.245E-03    -300.335E-03    -2.14209E-03     6.55761E+06    -5.06499E+06    -5.89651E+06    -5.42450E+06     6.54841E+06    -5.52779E+06     198.883E+03         66.4037
             563     12.6125E-03     68.2342E-03     440.902E-03     311.961E-03        -1.10116     232.888E-03        -1.02208     440.902E-03     86.2210E-03     604.175E-03    -297.181E-03    -303.247E-03    -299.606E-03     600.534E-03    -297.181E-03     114.388E-03     10.2792E+06     4.34515E+06    -369.021E+03    -363.873E+03     10.2740E+06     4.34515E+06     173.120E+03         88.0357
             564     11.8749E-03     68.0088E-03     458.859E-03     190.605E-03    -923.639E-03     86.6526E-03    -819.686E-03     458.859E-03     71.4261E-03     601.815E-03    -297.522E-03    -302.076E-03    -298.896E-03     598.635E-03    -297.522E-03     105.651E-03     10.9285E+06     4.71850E+06    -521.736E+03    -508.633E+03     10.9154E+06     4.71850E+06     325.913E+03         84.4928
             565     11.1061E-03     67.8586E-03     484.612E-03     169.838E-03    -886.669E-03     82.5770E-03    -799.408E-03     484.612E-03     352.688E-03     596.174E-03    -298.108E-03    -299.260E-03    -296.719E-03     594.273E-03    -298.747E-03     82.2307E-03     10.9586E+06     5.06527E+06    -961.179E+03    -936.702E+03     10.9341E+06     5.06527E+06     495.946E+03         80.4647
             566     10.3669E-03     67.7279E-03     505.366E-03     316.579E-03    -991.954E-03     296.202E-03    -971.576E-03     505.366E-03    -37.6244E-03     593.899E-03    -297.408E-03    -298.821E-03    -296.837E-03     592.555E-03    -298.048E-03     68.7763E-03     11.5758E+06     3.68838E+06    -1.10998E+06    -1.08574E+06     11.5515E+06     3.68838E+06     523.434E+03         76.7910
             567     9.62566E-03     67.6267E-03     518.811E-03     438.944E-03        -1.07465     343.094E-03    -978.805E-03     518.811E-03     285.951E-03     595.865E-03    -293.604E-03    -296.464E-03    -293.498E-03     594.986E-03    -295.691E-03     55.6712E-03     11.7807E+06     1.77383E+06    -1.31339E+06    -1.29687E+06     11.7642E+06     1.77383E+06     361.222E+03         73.7848
             568     8.88374E-03     67.5417E-03     568.114E-03     465.510E-03        -1.14287     395.352E-03        -1.03539     530.787E-03     394.983E-03     596.107E-03    -293.797E-03    -297.268E-03    -293.221E-03     595.532E-03    -297.268E-03     44.9209E-03     12.4884E+06     1.49020E+06    -1.86301E+06    -1.84583E+06     12.4712E+06     1.49020E+06     287.123E+03         71.4904
             569     8.14314E-03     67.4797E-03     671.391E-03     478.085E-03        -1.28192     505.289E-03        -1.17568     537.951E-03     73.4980E-03     595.068E-03    -297.275E-03    -301.017E-03    -296.941E-03     594.735E-03    -301.017E-03     34.0314E-03     12.6979E+06     1.69162E+06    -2.43778E+06    -2.42306E+06     12.6831E+06     1.69162E+06     363.143E+03         69.8775
             570     7.40244E-03     67.4397E-03     649.079E-03     368.596E-03        -1.20279     278.718E-03        -1.01680     552.967E-03     445.514E-03     590.056E-03    -297.655E-03    -302.743E-03    -297.486E-03     589.887E-03    -302.743E-03     24.1161E-03     11.8940E+06     1.76582E+06    -3.03896E+06    -3.03269E+06     11.8877E+06     1.76582E+06     196.761E+03         68.8143
             571     6.66181E-03     67.4105E-03     595.167E-03     230.011E-03        -1.04180     70.8074E-03    -882.594E-03     595.167E-03     72.7049E-03     592.605E-03    -298.405E-03    -302.537E-03    -298.330E-03     592.531E-03    -302.537E-03     15.7395E-03     11.1550E+06     728.072E+03    -3.55597E+06    -3.55384E+06     11.1529E+06     728.072E+03    -24.7807E+03         68.1514
             572     5.92127E-03     67.3967E-03     657.268E-03     216.063E-03        -1.07456     122.107E-03    -980.602E-03     657.268E-03    -441.780E-03     601.548E-03    -298.993E-03    -300.951E-03    -298.971E-03     601.526E-03    -300.951E-03     8.11947E-03     11.0542E+06    -835.650E+03    -3.88424E+06    -3.88230E+06     11.0523E+06    -835.650E+03     31.5829E+03         67.7184
             573     5.17877E-03     67.3991E-03     782.816E-03     350.460E-03        -1.31756     223.989E-03        -1.13513     726.851E-03     570.284E-03     605.093E-03    -297.584E-03    -300.491E-03    -299.932E-03     605.089E-03    -298.140E-03     1.56493E-03     10.5985E+06    -1.49996E+06    -4.27881E+06    -4.26657E+06     10.5862E+06    -1.49996E+06     33.5310E+03         67.3197
             574     4.43853E-03     67.4143E-03     999.645E-03     418.727E-03        -1.55301     403.184E-03        -1.33481     796.989E-03     159.439E-03     601.715E-03    -296.627E-03    -302.855E-03    -302.851E-03     601.710E-03    -296.627E-03    -3.37475E-03     9.73471E+06    -2.18404E+06    -4.43720E+06    -4.42436E+06     9.72187E+06    -2.18404E+06    -68.0766E+03         66.9311
             575     3.69911E-03     67.4441E-03         1.13512     489.693E-03        -1.76005     489.999E-03        -1.49693     871.689E-03     161.718E-03     595.555E-03    -296.524E-03    -301.331E-03    -301.319E-03     595.542E-03    -296.524E-03    -6.58499E-03     9.37181E+06    -2.81752E+06    -4.60819E+06    -4.60105E+06     9.36467E+06    -2.81752E+06    -91.6756E+03         66.6356
             576     2.95969E-03     67.4755E-03         1.10827     636.102E-03        -1.93428     394.782E-03        -1.57622     991.532E-03    -36.8108E-03     592.988E-03    -296.697E-03    -297.901E-03    -297.607E-03     592.969E-03    -296.972E-03    -8.21232E-03     8.74205E+06    -3.59119E+06    -5.02478E+06    -5.00698E+06     8.72425E+06    -3.59119E+06     5.78015E+03         66.4368
             577     2.21967E-03     67.5257E-03         1.19890     951.414E-03        -2.38088     664.584E-03        -2.05301         1.15786     301.972E-03     592.911E-03    -296.638E-03    -297.715E-03    -296.620E-03     592.893E-03    -297.715E-03    -8.08888E-03      8.3479E+06    -4.18510E+06    -4.99766E+06    -4.96904E+06     8.32353E+06    -4.18935E+06     97.1076E+03         66.3371
             578     1.47986E-03     67.5758E-03         1.38782         1.27037        -2.96527         1.14880        -2.73816         1.28228     395.655E-03     595.561E-03    -297.453E-03    -298.820E-03    -297.442E-03     595.549E-03    -298.820E-03    -6.17808E-03     7.71391E+06    -4.76357E+06    -5.10618E+06    -5.01775E+06     7.70029E+06    -4.83839E+06     37.0254E+03         66.3451
             579     739.846E-06     67.6464E-03         1.68188         1.10746        -3.14847         1.36064        -2.99428         1.27452     134.351E-03     598.309E-03    -298.185E-03    -300.298E-03    -298.181E-03     598.306E-03    -300.298E-03    -3.14394E-03     6.72230E+06    -4.52476E+06    -5.00423E+06    -4.79550E+06     6.69159E+06    -4.70279E+06    -82.7201E+03         66.4105
             580     12.6122E-03     66.3917E-03     441.059E-03     186.800E-03    -797.377E-03     117.505E-03    -728.082E-03     441.059E-03     168.650E-03     604.719E-03    -297.576E-03    -303.401E-03    -299.749E-03     601.068E-03    -297.576E-03     114.615E-03     9.53849E+06     4.73017E+06    -71.8310E+03    -66.6708E+03     9.53333E+06     4.73017E+06     155.732E+03         88.0199
             581     11.8743E-03     66.1647E-03     461.865E-03     282.068E-03    -914.858E-03     188.769E-03    -818.759E-03     459.065E-03     180.412E-03     602.768E-03    -297.951E-03    -302.551E-03    -299.358E-03     599.575E-03    -297.951E-03     106.000E-03     10.2658E+06     5.09984E+06    -532.111E+03    -518.594E+03     10.2523E+06     5.09984E+06     347.697E+03         84.4843
             582     11.1050E-03     66.0167E-03     493.967E-03     360.255E-03        -1.01356     298.161E-03    -930.132E-03     472.635E-03     213.137E-03     596.452E-03    -298.207E-03    -299.297E-03    -296.847E-03     594.534E-03    -298.739E-03     82.5932E-03     11.1626E+06     5.74294E+06    -773.066E+03    -762.143E+03     11.1517E+06     5.74294E+06     246.847E+03         80.4599
             583     10.3660E-03     65.8854E-03     502.268E-03     277.861E-03    -927.425E-03     289.181E-03    -920.214E-03     483.737E-03    -51.8574E-03     594.298E-03    -297.565E-03    -298.871E-03    -296.988E-03     592.947E-03    -298.097E-03     68.9391E-03     11.7517E+06     4.26324E+06    -1.01171E+06    -1.00454E+06     11.7446E+06     4.26324E+06     187.095E+03         76.7906
             584     9.62484E-03     65.7829E-03     542.108E-03     332.970E-03        -1.00686     271.499E-03    -901.017E-03     497.733E-03     475.998E-03     596.247E-03    -293.870E-03    -296.579E-03    -293.765E-03     595.368E-03    -295.805E-03     55.6694E-03     11.9700E+06     2.80525E+06    -1.40206E+06    -1.38909E+06     11.9570E+06     2.80525E+06     342.458E+03         73.7912
             585     8.88439E-03     65.6984E-03     557.615E-03     420.437E-03        -1.10398     317.377E-03    -956.541E-03     513.240E-03     135.522E-03     596.993E-03    -294.378E-03    -297.623E-03    -293.808E-03     596.423E-03    -297.623E-03     44.6976E-03     12.3863E+06     2.63901E+06    -1.62826E+06    -1.60894E+06     12.3670E+06     2.63901E+06     467.014E+03         71.5021
             586     8.14342E-03     65.6368E-03     623.300E-03     369.495E-03        -1.15286     375.889E-03        -1.06314     527.187E-03     13.3158E-03     596.429E-03    -298.028E-03    -301.537E-03    -297.701E-03     596.102E-03    -301.537E-03     33.7643E-03     12.5756E+06     2.36717E+06    -1.89324E+06    -1.87516E+06     12.5575E+06     2.36717E+06     489.925E+03         69.8860
             587     7.40210E-03     65.5980E-03     698.285E-03     370.320E-03        -1.26948     484.047E-03        -1.22119     536.260E-03     519.227E-03     590.739E-03    -298.008E-03    -302.941E-03    -297.840E-03     590.572E-03    -302.941E-03     24.0771E-03     12.3814E+06     2.19356E+06    -2.45723E+06    -2.43669E+06     12.3608E+06     2.19356E+06     479.136E+03         68.8129
             588     6.66141E-03     65.5655E-03     705.332E-03     363.344E-03        -1.28378     508.949E-03        -1.26459     540.533E-03    -49.5087E-03     592.698E-03    -298.336E-03    -302.615E-03    -298.262E-03     592.623E-03    -302.615E-03     15.7671E-03     11.5041E+06     1.01435E+06    -3.18144E+06    -3.16530E+06     11.4880E+06     1.01435E+06     270.307E+03         68.1447
             589     5.92082E-03     65.5524E-03     670.960E-03     317.698E-03        -1.18385     379.474E-03        -1.12766     552.997E-03    -296.750E-03     601.630E-03    -298.943E-03    -301.052E-03    -298.920E-03     601.608E-03    -301.052E-03     8.23041E-03     11.1222E+06    -797.252E+03    -3.72014E+06    -3.71131E+06     11.1133E+06    -797.252E+03    -120.823E+03         67.7151
             590     5.17826E-03     65.5565E-03     688.192E-03     461.436E-03        -1.28720     417.776E-03        -1.13094     575.595E-03     390.541E-03     605.260E-03    -297.633E-03    -300.613E-03    -300.043E-03     605.257E-03    -298.199E-03     1.70683E-03     10.6713E+06    -1.88026E+06    -4.03494E+06    -4.02185E+06     10.6582E+06    -1.88026E+06    -255.690E+03         67.3210
             591     4.43862E-03     65.5694E-03     907.023E-03     579.436E-03        -1.56384     691.834E-03        -1.34865     579.436E-03    -224.881E-03     601.706E-03    -296.683E-03    -302.806E-03    -302.801E-03     601.701E-03    -296.683E-03    -3.43961E-03     9.58700E+06    -2.66816E+06    -4.42549E+06    -4.41636E+06     9.57786E+06    -2.66816E+06    -241.651E+03         66.9327
             592     3.69854E-03     65.5959E-03         1.09020     551.461E-03        -1.71203     776.538E-03        -1.39837     551.461E-03     213.711E-03     595.359E-03    -296.582E-03    -301.202E-03    -301.189E-03     595.346E-03    -296.582E-03    -6.69664E-03     9.09903E+06    -3.17444E+06    -4.69365E+06    -4.68385E+06     9.08923E+06    -3.17444E+06    -179.333E+03         66.6370
             593     2.95919E-03     65.6284E-03         1.07410     464.018E-03        -1.64767     631.611E-03        -1.26519     524.028E-03     206.448E-03     593.082E-03    -296.815E-03    -297.951E-03    -297.708E-03     593.064E-03    -297.040E-03    -8.07243E-03     8.62161E+06    -3.94947E+06    -4.76456E+06    -4.75245E+06     8.60950E+06    -3.94947E+06    -144.149E+03         66.4400
             594     2.21975E-03     65.6822E-03     832.507E-03     467.891E-03        -1.46125     477.263E-03        -1.17793     539.815E-03    -102.160E-03     593.206E-03    -296.853E-03    -297.807E-03    -296.836E-03     593.188E-03    -297.807E-03    -7.82266E-03     7.98129E+06    -4.77412E+06     -4.9875E+06    -4.97420E+06     7.97224E+06    -4.77837E+06    -236.845E+03         66.3427
             595     1.47978E-03     65.7378E-03     859.051E-03     582.493E-03        -1.72396     550.778E-03        -1.42760     594.406E-03     79.5588E-03     595.775E-03    -297.705E-03    -298.829E-03    -297.694E-03     595.764E-03    -298.829E-03    -6.07747E-03     7.49848E+06    -4.97746E+06    -5.20409E+06    -5.00462E+06     7.49106E+06    -5.16952E+06    -276.179E+03         66.3525
             596     740.156E-06     65.8098E-03         1.36544     948.740E-03        -2.67537     187.890E-03        -1.66488         1.11579         1.15407     598.046E-03    -298.562E-03    -299.711E-03    -298.923E-03     598.042E-03    -299.347E-03    -3.46182E-03     6.14254E+06    -4.98280E+06    -5.61240E+06    -5.26656E+06     6.09197E+06    -5.27808E+06    -77.7532E+03         66.4191
             597     12.6110E-03     64.5498E-03     448.848E-03     260.278E-03    -868.895E-03     245.368E-03    -853.986E-03     448.848E-03    -113.988E-03     604.426E-03    -297.640E-03    -303.152E-03    -299.541E-03     600.815E-03    -297.640E-03     113.954E-03     8.99864E+06     4.25033E+06    -276.506E+03    -275.498E+03     8.99764E+06     4.25033E+06     6.27606E+03         88.0102
             598     11.8734E-03     64.3237E-03     463.148E-03     330.933E-03    -991.816E-03     320.546E-03    -978.628E-03     460.348E-03    -119.200E-03     602.761E-03    -298.011E-03    -302.451E-03    -299.305E-03     599.615E-03    -298.011E-03     105.169E-03     10.0716E+06     3.63053E+06    -515.274E+03    -512.865E+03     10.0692E+06     3.63053E+06     48.4107E+03         84.4811
             599     11.1049E-03     64.1778E-03     490.590E-03     355.382E-03        -1.06286     363.500E-03        -1.04965     469.259E-03    -138.100E-03     596.590E-03    -298.201E-03    -299.184E-03    -296.809E-03     594.697E-03    -298.684E-03     82.0775E-03     11.4045E+06     4.85205E+06    -602.736E+03    -600.766E+03     11.4025E+06     4.85205E+06    -18.0703E+03         80.4602
             600     10.3652E-03     64.0453E-03     518.654E-03     297.945E-03        -1.02390     330.152E-03        -1.01692     479.472E-03    -59.9299E-03     594.720E-03    -297.621E-03    -299.010E-03    -297.178E-03     593.372E-03    -298.104E-03     68.9159E-03     11.5693E+06     4.19158E+06    -1.04759E+06    -1.04597E+06     11.5677E+06     4.19158E+06     44.5948E+03         76.7927
             601     9.62471E-03     63.9444E-03     556.680E-03     319.043E-03        -1.06723     342.103E-03        -1.02527     491.654E-03     23.4241E-03     596.501E-03    -293.990E-03    -296.768E-03    -294.012E-03     595.617E-03    -295.861E-03     55.8691E-03     11.6360E+06     3.09377E+06    -1.42800E+06    -1.42571E+06     11.6337E+06     3.09377E+06     159.952E+03         73.7899
             602     8.88420E-03     63.8587E-03     547.922E-03     399.766E-03        -1.13495     373.153E-03        -1.06397     503.547E-03    -85.2856E-03     596.256E-03    -294.070E-03    -297.365E-03    -293.493E-03     595.679E-03    -297.365E-03     44.9648E-03     12.3560E+06     3.24726E+06    -1.78744E+06    -1.78435E+06     12.3529E+06     3.24726E+06     181.517E+03         71.4931
             603     8.14344E-03     63.7979E-03     610.589E-03     357.381E-03        -1.14528     372.210E-03        -1.06547     515.945E-03    -410.380E-03     595.610E-03    -297.667E-03    -301.207E-03    -297.335E-03     595.278E-03    -301.207E-03     33.9910E-03     12.1680E+06     2.88161E+06    -2.24247E+06    -2.23572E+06     12.1612E+06     2.88161E+06     258.972E+03         69.8767
             604     7.40203E-03     63.7562E-03     746.369E-03     410.930E-03        -1.31643     550.794E-03        -1.23074     520.821E-03     127.281E-03     590.550E-03    -297.922E-03    -302.837E-03    -297.752E-03     590.380E-03    -302.837E-03     24.2221E-03     12.0514E+06     2.56766E+06    -2.55731E+06    -2.53832E+06     12.0324E+06     2.56766E+06     447.130E+03         68.8043
             605     6.66123E-03     63.7248E-03     865.284E-03     503.297E-03        -1.50768     781.820E-03        -1.42422     503.297E-03    -68.8096E-03     591.318E-03    -297.420E-03    -302.128E-03    -297.346E-03     591.244E-03    -302.128E-03     15.6702E-03     12.4737E+06     1.84286E+06    -2.71719E+06    -2.70110E+06     12.4576E+06     1.84286E+06     346.444E+03         68.1315
             606     5.92011E-03     63.7121E-03     920.925E-03     462.934E-03        -1.50662     854.982E-03        -1.44068     462.934E-03    -94.1963E-03     600.492E-03    -298.177E-03    -300.694E-03    -298.156E-03     600.471E-03    -300.694E-03     8.05939E-03     11.6376E+06    -102.861E+03    -3.07811E+06    -3.06541E+06     11.6249E+06    -102.861E+03     40.7453E+03         67.7058
             607     5.17761E-03     63.7134E-03     781.721E-03     414.656E-03        -1.30458     749.272E-03        -1.27213     414.656E-03     169.267E-03     605.438E-03    -297.762E-03    -300.708E-03    -300.099E-03     605.435E-03    -298.368E-03     1.83410E-03     10.3354E+06    -1.58808E+06    -3.66974E+06    -3.65708E+06     10.3227E+06    -1.58808E+06     84.8880E+03         67.3211
             608     4.43807E-03     63.7276E-03     626.040E-03     375.682E-03        -1.13798     569.148E-03        -1.08109     375.682E-03    -543.058E-03     601.925E-03    -296.791E-03    -302.838E-03    -302.834E-03     601.921E-03    -296.791E-03    -3.10869E-03     9.61039E+06    -2.64760E+06    -4.08923E+06    -4.08589E+06     9.60705E+06    -2.64760E+06     77.5153E+03         66.9349
             609     3.69878E-03     63.7541E-03     642.107E-03     338.315E-03        -1.15289     567.999E-03        -1.07878     338.315E-03    -187.522E-03     595.600E-03    -296.652E-03    -301.289E-03    -301.277E-03     595.588E-03    -296.652E-03    -6.46149E-03     8.84822E+06    -3.62662E+06    -4.56001E+06    -4.54879E+06       8.837E+06    -3.62662E+06    -49.2102E+03         66.6367
             610     2.95847E-03     63.7851E-03     801.718E-03     262.052E-03        -1.23277     695.170E-03        -1.12622     262.052E-03    -320.678E-03     593.265E-03    -296.971E-03    -298.061E-03    -297.882E-03     593.246E-03    -297.131E-03    -8.16190E-03     8.21044E+06    -4.27078E+06    -5.02955E+06    -5.01953E+06     8.20042E+06    -4.27078E+06     29.4380E+03         66.4405
             611     2.21922E-03     63.8353E-03     578.480E-03     150.037E-03    -922.261E-03     486.890E-03    -830.670E-03     150.037E-03    -579.790E-03     593.389E-03    -296.988E-03    -297.900E-03    -296.970E-03     593.371E-03    -297.900E-03    -7.94076E-03     7.68652E+06    -4.86917E+06    -5.29318E+06    -5.29202E+06     7.68536E+06    -4.86917E+06     56.1848E+03         66.3475
             612     1.47974E-03     63.8973E-03     641.279E-03     86.2349E-03    -920.359E-03     97.0185E-03    -376.099E-03     86.2349E-03        -1.19625     595.947E-03    -297.718E-03    -298.965E-03    -297.707E-03     595.936E-03    -298.965E-03    -6.04957E-03     7.24986E+06    -5.32932E+06    -5.63581E+06    -5.51492E+06     7.24621E+06    -5.44657E+06    -32.3289E+03         66.3604
             613     740.184E-06     63.9717E-03         1.34362     556.145E-03        -1.95334    -401.682E-03    -208.036E-03     556.145E-03     960.325E-03     598.264E-03    -298.613E-03    -299.760E-03    -298.974E-03     598.261E-03    -299.396E-03    -3.09178E-03     6.03297E+06    -5.44935E+06    -6.08689E+06    -5.84999E+06     5.99896E+06    -5.65224E+06     133.764E+03         66.4282
             614     12.6131E-03     62.7124E-03     437.968E-03     259.841E-03    -912.143E-03     174.551E-03    -826.853E-03     437.968E-03    -101.049E-03     603.775E-03    -297.362E-03    -302.881E-03    -299.285E-03     600.179E-03    -297.362E-03     113.618E-03     9.13524E+06     3.78530E+06    -160.773E+03    -159.654E+03     9.13412E+06     3.78530E+06    -71.0315E+03         88.0088
             615     11.8738E-03     62.4854E-03     449.774E-03     308.315E-03    -952.515E-03     204.994E-03    -849.195E-03     449.774E-03     7.86764E-03     601.869E-03    -297.693E-03    -302.039E-03    -298.881E-03     598.711E-03    -297.693E-03     105.286E-03     10.1614E+06      3.5893E+06    -310.121E+03    -308.590E+03     10.1598E+06      3.5893E+06    -112.346E+03         84.4840
             616     11.1050E-03     62.3371E-03     465.713E-03     257.999E-03    -896.575E-03     156.415E-03    -794.991E-03     465.713E-03     53.3042E-03     596.539E-03    -298.165E-03    -299.154E-03    -296.738E-03     594.640E-03    -298.682E-03     82.2093E-03     10.8320E+06     3.98260E+06    -789.769E+03    -788.878E+03     10.8311E+06     3.98260E+06    -81.9842E+03         80.4647
             617     10.3650E-03     62.2069E-03     502.680E-03     283.998E-03    -952.674E-03     278.405E-03    -926.431E-03     482.029E-03    -122.791E-03     594.725E-03    -297.602E-03    -299.013E-03    -297.144E-03     593.373E-03    -298.119E-03     69.0264E-03     11.0938E+06     3.33132E+06    -990.563E+03    -989.083E+03     11.0923E+06     3.33132E+06     19.7940E+03         76.7945
             618     9.62406E-03     62.1053E-03     536.736E-03     386.161E-03        -1.10132     385.851E-03        -1.05679     492.512E-03     93.1749E-03     596.499E-03    -293.931E-03    -296.785E-03    -293.939E-03     595.612E-03    -295.890E-03     55.9482E-03     11.3727E+06     2.39946E+06    -1.11872E+06    -1.11641E+06     11.3704E+06     2.39946E+06     128.376E+03         73.7805
             619     8.88409E-03     62.0213E-03     559.026E-03     424.198E-03        -1.16397     425.699E-03        -1.10529     498.846E-03    -18.0486E-03     595.459E-03    -293.635E-03    -297.104E-03    -293.053E-03     594.877E-03    -297.104E-03     45.1614E-03     12.3192E+06     3.40024E+06    -1.52196E+06    -1.52072E+06     12.3179E+06     3.40024E+06     119.292E+03         71.4725
             620     8.14291E-03     61.9574E-03     661.480E-03     477.095E-03        -1.30305     588.907E-03        -1.25002     496.634E-03    -430.843E-03     595.278E-03    -297.490E-03    -301.069E-03    -297.154E-03     594.941E-03    -301.069E-03     34.1910E-03     12.2049E+06     3.25344E+06    -1.94014E+06    -1.93852E+06     12.2033E+06     3.25344E+06     10.2445E+03         69.8606
             621     7.40191E-03     61.9152E-03     694.364E-03     485.044E-03        -1.29978     612.458E-03        -1.21787     485.044E-03     72.5633E-03     590.962E-03    -298.144E-03    -302.985E-03    -297.975E-03     590.793E-03    -302.985E-03     24.1862E-03     11.7672E+06     2.30111E+06    -2.32042E+06    -2.31234E+06     11.7591E+06     2.30111E+06    -101.289E+03         68.7955
             622     6.66096E-03     61.8848E-03     754.202E-03     472.137E-03        -1.31100     578.582E-03        -1.13538     472.137E-03    -331.008E-03     590.223E-03    -296.873E-03    -301.684E-03    -296.798E-03     590.148E-03    -301.684E-03     15.7094E-03     12.4246E+06     2.20442E+06    -2.66559E+06    -2.65102E+06     12.4100E+06     2.20442E+06     77.6316E+03         68.1201
             623     5.92029E-03     61.8692E-03     875.873E-03     448.954E-03        -1.41867     721.074E-03        -1.26387     448.954E-03    -569.343E-03     599.407E-03    -297.620E-03    -300.310E-03    -297.598E-03     599.384E-03    -300.310E-03     8.20388E-03     11.6588E+06     257.967E+03    -3.21031E+06    -3.19450E+06     11.6430E+06     257.967E+03     386.630E+03         67.6954
             624     5.17756E-03     61.8723E-03     855.352E-03     401.657E-03        -1.41455     821.190E-03        -1.38039     401.657E-03    -86.0966E-03     605.397E-03    -297.923E-03    -300.701E-03    -300.048E-03     605.393E-03    -298.573E-03     1.82566E-03     10.0646E+06    -1.85866E+06    -3.79259E+06    -3.77656E+06     10.0486E+06    -1.85866E+06     453.857E+03         67.3165
             625     4.43729E-03     61.8841E-03     765.485E-03     342.927E-03        -1.36526     680.476E-03        -1.28025     342.927E-03    -733.159E-03     602.049E-03    -296.990E-03    -302.957E-03    -302.952E-03     602.044E-03    -296.990E-03    -3.36093E-03     9.42075E+06    -2.65309E+06    -4.15183E+06    -4.13621E+06     9.40513E+06    -2.65309E+06     412.439E+03         66.9339
             626     3.69760E-03     61.9121E-03     559.189E-03     315.060E-03        -1.20524     303.707E-03    -949.761E-03     315.060E-03    -120.560E-03     596.102E-03    -296.765E-03    -301.510E-03    -301.497E-03     596.090E-03    -296.765E-03    -6.66806E-03     8.99137E+06    -3.20743E+06    -4.36102E+06    -4.34256E+06     8.97290E+06    -3.20743E+06     459.297E+03         66.6383
             627     2.95865E-03     61.9426E-03     658.465E-03     343.417E-03        -1.32445     108.010E-03    -773.997E-03     343.417E-03    -672.357E-03     593.620E-03    -297.103E-03    -298.139E-03    -297.991E-03     593.602E-03    -297.232E-03    -8.13007E-03     8.27548E+06    -4.07830E+06    -4.78532E+06    -4.77212E+06     8.26227E+06    -4.07830E+06     371.397E+03         66.4441
             628     2.21919E-03     61.9917E-03     996.027E-03     382.938E-03        -1.59960     283.566E-03    -887.143E-03     382.938E-03    -162.425E-03     593.482E-03    -296.974E-03    -298.083E-03    -296.957E-03     593.464E-03    -298.083E-03    -7.82500E-03     7.87835E+06    -4.54965E+06    -4.91526E+06    -4.90917E+06     7.87226E+06    -4.54965E+06     244.977E+03         66.3529
             629     1.47929E-03     62.0458E-03         1.43601     370.648E-03        -1.83302     439.148E-03    -836.153E-03     370.648E-03    -829.646E-03     596.299E-03    -297.694E-03    -299.269E-03    -297.683E-03     596.288E-03    -299.269E-03    -6.17312E-03     7.54860E+06    -4.80976E+06    -5.19561E+06    -5.03502E+06     7.54403E+06    -4.96578E+06     194.707E+03         66.3689
             630     739.473E-06     62.1167E-03         2.69524     112.492E-03        -2.72224     590.109E-03    -617.117E-03     112.492E-03         1.70787     599.029E-03    -298.583E-03    -300.384E-03    -298.579E-03     599.025E-03    -300.384E-03    -3.21259E-03     6.30202E+06    -5.00068E+06    -5.54458E+06    -5.29757E+06     6.29668E+06    -5.24234E+06    -82.9756E+03         66.4407
             631     12.6139E-03     60.8735E-03     391.146E-03     144.557E-03    -553.453E-03     58.1489E-03    -467.044E-03     391.146E-03    -87.7454E-03     602.923E-03    -297.082E-03    -302.506E-03    -298.859E-03     599.276E-03    -297.082E-03     114.340E-03     9.27683E+06     4.44671E+06    -273.978E+03    -272.655E+03     9.27551E+06     4.44671E+06    -67.0615E+03         88.0208
             632     11.8729E-03     60.6482E-03     404.046E-03     180.654E-03    -558.687E-03     83.6583E-03    -461.691E-03     404.046E-03     138.020E-03     601.170E-03    -297.410E-03    -301.664E-03    -298.475E-03     597.981E-03    -297.410E-03     105.720E-03     9.95867E+06     4.08334E+06    -704.343E+03    -701.999E+03     9.95633E+06     4.08334E+06    -148.594E+03         84.4991
             633     11.1045E-03     60.4953E-03     417.258E-03     247.269E-03    -642.633E-03     149.333E-03    -544.696E-03     417.258E-03     237.932E-03     596.676E-03    -298.161E-03    -299.222E-03    -296.789E-03     594.780E-03    -298.699E-03     82.1195E-03     10.6155E+06     3.88779E+06    -854.863E+03    -852.564E+03     10.6132E+06     3.88779E+06    -148.542E+03         80.4802
             634     10.3645E-03     60.3685E-03     429.421E-03     265.109E-03    -719.104E-03     187.854E-03    -641.850E-03     429.421E-03    -264.421E-03     594.663E-03    -297.573E-03    -298.931E-03    -297.056E-03     593.326E-03    -298.111E-03     68.6162E-03     10.8039E+06     2.45680E+06    -1.21948E+06    -1.21519E+06     10.7996E+06     2.45680E+06    -189.974E+03         76.8062
             635     9.62448E-03     60.2627E-03     496.086E-03     365.039E-03    -936.191E-03     320.595E-03    -832.881E-03     437.220E-03     211.382E-03     596.529E-03    -293.927E-03    -296.752E-03    -293.869E-03     595.650E-03    -295.932E-03     55.6973E-03     10.8028E+06     878.355E+03    -1.50706E+06    -1.50241E+06     10.7982E+06     878.355E+03    -123.327E+03         73.7827
             636     8.88260E-03     60.1768E-03     557.674E-03     436.351E-03        -1.11834     456.335E-03        -1.01700     436.351E-03     41.9447E-03     595.438E-03    -293.527E-03    -297.099E-03    -292.949E-03     594.859E-03    -297.099E-03     45.0186E-03     12.3113E+06     2.20849E+06    -1.51192E+06    -1.50977E+06     12.3092E+06     2.20849E+06    -31.6910E+03         71.4648
             637     8.14268E-03     60.1156E-03     528.785E-03     387.098E-03        -1.05449     421.326E-03    -992.668E-03     432.733E-03    -249.094E-03     595.352E-03    -297.467E-03    -301.140E-03    -297.130E-03     595.016E-03    -301.140E-03     34.1957E-03     12.4533E+06     2.10476E+06    -1.65848E+06    -1.65682E+06     12.4516E+06     2.10476E+06    -68.6783E+03         69.8508
             638     7.40137E-03     60.0700E-03     497.347E-03     385.748E-03        -1.01422     429.065E-03    -991.572E-03     431.383E-03     258.360E-03     591.380E-03    -298.357E-03    -303.154E-03    -298.186E-03     591.209E-03    -303.154E-03     24.2699E-03     11.5228E+06     1.30381E+06    -2.15138E+06    -2.14025E+06     11.5117E+06     1.30381E+06    -64.9795E+03         68.7893
             639     6.66046E-03     60.0421E-03     583.051E-03     427.824E-03        -1.14027     475.267E-03        -1.03248     427.824E-03    -155.216E-03     590.636E-03    -297.244E-03    -301.799E-03    -297.169E-03     590.561E-03    -301.799E-03     15.8625E-03     11.6144E+06     1.92878E+06    -2.80020E+06    -2.78212E+06     11.5963E+06     1.92878E+06     128.079E+03         68.1167
             640     5.91950E-03     60.0305E-03     566.788E-03     373.729E-03        -1.07832     407.865E-03    -971.489E-03     425.826E-03    -398.982E-03     599.649E-03    -297.879E-03    -300.388E-03    -297.856E-03     599.626E-03    -300.388E-03     8.29282E-03     10.9771E+06     429.450E+03    -3.31740E+06    -3.30125E+06     10.9610E+06     429.450E+03     376.150E+03         67.6933
             641     5.17715E-03     60.0313E-03     568.269E-03     347.874E-03        -1.09410     451.220E-03        -1.05418     425.007E-03    -2.33236E-03     605.492E-03    -297.974E-03    -300.797E-03    -300.148E-03     605.489E-03    -298.620E-03     1.65114E-03     10.1119E+06    -1.51128E+06    -3.64835E+06    -3.62588E+06     10.0894E+06    -1.51128E+06     547.813E+03         67.3161
             642     4.43758E-03     60.0425E-03     712.989E-03     293.518E-03        -1.24148     499.577E-03        -1.15040     415.858E-03    -296.468E-03     601.993E-03    -297.073E-03    -302.985E-03    -302.980E-03     601.988E-03    -297.073E-03    -3.45386E-03     9.67266E+06    -2.18119E+06    -3.83467E+06    -3.80946E+06     9.64744E+06    -2.18119E+06     578.988E+03         66.9355
             643     3.69792E-03     60.0657E-03     806.684E-03     307.747E-03        -1.38315     430.999E-03        -1.10477     405.050E-03     386.781E-03     595.882E-03    -296.862E-03    -301.356E-03    -301.344E-03     595.869E-03    -296.862E-03    -6.61015E-03     9.11760E+06    -2.81916E+06    -4.07785E+06    -4.05755E+06     9.09729E+06    -2.81916E+06     506.951E+03         66.6423
             644     2.95800E-03     60.0965E-03     981.895E-03     409.290E-03        -1.65614     349.859E-03        -1.02410     409.290E-03    -456.546E-03     593.548E-03    -297.150E-03    -298.113E-03    -297.892E-03     593.530E-03    -297.354E-03    -7.85107E-03     8.70028E+06    -3.36391E+06    -4.21691E+06    -4.19873E+06     8.68209E+06    -3.36391E+06     468.089E+03         66.4510
             645     2.21822E-03     60.1438E-03         1.25892     442.592E-03        -1.90722     306.019E-03    -954.318E-03     442.592E-03     356.452E-03     593.642E-03    -296.989E-03    -298.326E-03    -296.973E-03     593.626E-03    -298.326E-03    -7.53561E-03     8.09245E+06    -4.10310E+06    -4.52567E+06    -4.48106E+06     8.07741E+06    -4.13267E+06     424.836E+03         66.3623
             646     1.47892E-03     60.1998E-03         1.60072     482.666E-03        -2.16123     436.715E-03    -997.231E-03     482.666E-03    -250.995E-03     596.778E-03    -297.835E-03    -299.638E-03    -297.824E-03     596.767E-03    -299.638E-03    -5.99007E-03     7.70372E+06    -4.46737E+06    -4.77024E+06    -4.53618E+06     7.69737E+06    -4.69508E+06     203.524E+03         66.3806
             647     739.515E-06     60.2627E-03         3.41637    -228.018E-03        -3.17334         1.21533    -972.300E-03    -228.018E-03         2.45644     599.852E-03    -298.595E-03    -300.843E-03    -298.592E-03     599.849E-03    -300.843E-03    -3.03925E-03     6.80613E+06    -4.16088E+06    -4.79856E+06    -4.34665E+06     6.78998E+06    -4.59663E+06     171.077E+03         66.4553
             648     12.6114E-03     59.0314E-03     333.979E-03     167.878E-03    -372.195E-03    -45.6495E-03    -134.095E-03     309.406E-03     126.114E-03     603.088E-03    -297.100E-03    -302.530E-03    -298.887E-03     599.445E-03    -297.100E-03     114.297E-03     9.23163E+06     4.91593E+06    -288.199E+03    -287.625E+03     9.23106E+06     4.91593E+06    -25.0148E+03         88.0488
             649     11.8734E-03     58.8104E-03     334.144E-03     127.086E-03    -380.426E-03     69.3029E-03    -303.788E-03     315.289E-03     9.57854E-03     601.204E-03    -297.421E-03    -301.638E-03    -298.462E-03     598.028E-03    -297.421E-03     105.490E-03     10.3129E+06     4.82742E+06    -271.586E+03    -267.613E+03     10.3090E+06     4.82742E+06    -176.840E+03         84.5321
             650     11.1045E-03     58.6590E-03     414.883E-03     238.982E-03    -613.626E-03     233.453E-03    -508.348E-03     315.133E-03     300.654E-03     596.510E-03    -298.167E-03    -299.226E-03    -296.815E-03     594.618E-03    -298.685E-03     82.0450E-03     10.5898E+06     3.87161E+06    -839.052E+03    -834.265E+03     10.5850E+06     3.87161E+06    -159.375E+03         80.5121
             651     10.3645E-03     58.5271E-03     396.068E-03     281.670E-03    -678.685E-03     209.908E-03    -522.830E-03     311.976E-03     59.3410E-03     594.603E-03    -297.573E-03    -299.014E-03    -297.148E-03     593.255E-03    -298.091E-03     68.9211E-03     10.5086E+06     2.24618E+06    -1.36985E+06    -1.36448E+06     10.5032E+06     2.24618E+06    -65.2145E+03         76.8328
             652     9.62371E-03     58.4241E-03     349.798E-03     258.306E-03    -638.893E-03     199.905E-03    -542.001E-03     311.307E-03    -73.9327E-03     596.647E-03    -293.953E-03    -296.860E-03    -293.984E-03     595.755E-03    -295.937E-03     56.1260E-03     10.4193E+06     469.742E+03    -1.60114E+06    -1.59596E+06     10.4141E+06     469.742E+03    -110.068E+03         73.8011
             653     8.88349E-03     58.3366E-03     391.664E-03     279.128E-03    -716.035E-03     248.608E-03    -605.042E-03     311.190E-03     197.295E-03     595.449E-03    -293.586E-03    -297.100E-03    -293.005E-03     594.868E-03    -297.100E-03     45.0972E-03     11.9483E+06     668.621E+03    -1.88382E+06    -1.88115E+06     11.9456E+06     668.621E+03    -45.5415E+03         71.4709
             654     8.14207E-03     58.2784E-03     359.236E-03     258.443E-03    -695.473E-03     194.043E-03    -585.893E-03     314.056E-03     172.158E-03     594.096E-03    -296.903E-03    -300.721E-03    -296.568E-03     593.760E-03    -300.721E-03     34.1469E-03     12.3956E+06     587.860E+03    -2.39749E+06    -2.39431E+06     12.3924E+06     587.860E+03     113.367E+03         69.8454
             655     7.40074E-03     58.2313E-03     356.436E-03     263.084E-03    -736.510E-03     259.989E-03    -695.677E-03     318.698E-03     160.167E-03     590.187E-03    -297.746E-03    -302.693E-03    -297.575E-03     590.016E-03    -302.693E-03     24.2558E-03     11.4345E+06     505.830E+03    -2.67106E+06    -2.65969E+06     11.4232E+06     505.830E+03     79.1604E+03         68.7826
             656     6.66007E-03     58.2050E-03     419.875E-03     314.601E-03    -880.865E-03     396.042E-03    -857.031E-03     314.601E-03     124.491E-03     590.686E-03    -297.433E-03    -301.826E-03    -297.358E-03     590.611E-03    -301.826E-03     15.7980E-03     11.0655E+06     912.428E+03    -2.95165E+06    -2.94081E+06     11.0547E+06     912.428E+03     16.5090E+03         68.1163
             657     5.91949E-03     58.1897E-03     392.834E-03     256.251E-03    -792.829E-03     317.082E-03    -769.174E-03     308.348E-03     264.563E-03     599.780E-03    -298.082E-03    -300.474E-03    -298.059E-03     599.757E-03    -300.474E-03     8.24505E-03     10.4780E+06    -244.128E+03    -3.32020E+06    -3.31411E+06     10.4719E+06    -244.128E+03     161.705E+03         67.6973
             658     5.17704E-03     58.1924E-03     338.274E-03     189.349E-03    -639.870E-03     132.778E-03    -566.350E-03     321.324E-03     184.669E-03     605.556E-03    -297.989E-03    -300.736E-03    -300.076E-03     605.553E-03    -298.647E-03     1.77044E-03     9.95263E+06    -1.50843E+06    -3.47404E+06    -3.46124E+06     9.93983E+06    -1.50843E+06     322.979E+03         67.3215
             659     4.43700E-03     58.2060E-03     375.608E-03     178.972E-03    -634.978E-03     114.458E-03    -551.009E-03     356.153E-03     202.827E-03     602.098E-03    -297.118E-03    -302.755E-03    -302.752E-03     602.094E-03    -297.118E-03    -3.13115E-03     9.66593E+06    -1.95965E+06    -3.50809E+06    -3.49408E+06     9.65192E+06    -1.95965E+06     386.376E+03         66.9401
             660     3.69707E-03     58.2306E-03     580.081E-03     276.690E-03    -897.372E-03     418.938E-03    -833.533E-03     373.993E-03     443.807E-03     596.020E-03    -296.922E-03    -301.253E-03    -301.240E-03     596.008E-03    -296.922E-03    -6.46385E-03     9.20949E+06    -2.52557E+06    -3.68728E+06    -3.67768E+06     9.19988E+06    -2.52557E+06     343.198E+03         66.6454
             661     2.95763E-03     58.2606E-03     796.082E-03     334.454E-03        -1.20226     634.718E-03        -1.04090     334.454E-03     21.6445E-03     593.711E-03    -297.202E-03    -298.269E-03    -297.965E-03     593.692E-03    -297.487E-03    -8.19160E-03     8.87819E+06    -2.95565E+06    -3.76310E+06    -3.75303E+06     8.86812E+06    -2.95565E+06     296.897E+03         66.4556
             662     2.21797E-03     58.3019E-03     842.550E-03     282.904E-03        -1.28338     382.311E-03    -823.145E-03     282.904E-03     680.497E-03     593.899E-03    -297.052E-03    -298.530E-03    -297.033E-03     593.880E-03    -298.530E-03    -8.18251E-03     8.64003E+06    -3.24080E+06    -3.76178E+06    -3.72216E+06     8.62997E+06    -3.27037E+06     286.387E+03         66.3704
             663     1.47815E-03     58.3553E-03         1.04163     308.403E-03        -1.58097     157.159E-03    -696.491E-03     308.403E-03    -480.729E-03     597.118E-03    -297.987E-03    -299.863E-03    -297.975E-03     597.106E-03    -299.863E-03    -6.46958E-03     8.08938E+06    -3.84494E+06    -4.09261E+06    -4.01213E+06     8.08552E+06    -3.92158E+06     168.923E+03         66.3917
             664     738.714E-06     58.4231E-03         2.28973    -6.22697E-03        -2.60947     703.497E-03        -1.02324    -6.22697E-03         1.61767     600.281E-03    -298.934E-03    -300.877E-03    -298.929E-03     600.277E-03    -300.877E-03    -3.32659E-03     7.12378E+06    -3.73561E+06    -4.19851E+06    -3.71934E+06     7.10751E+06    -4.19851E+06     228.372E+03         66.4684
             665     12.6133E-03     57.1933E-03     223.480E-03     130.380E-03    -392.461E-03    -63.3372E-03    -154.514E-03     179.250E-03     327.518E-03     603.194E-03    -297.091E-03    -302.626E-03    -298.985E-03     599.553E-03    -297.091E-03     114.245E-03     9.29300E+06     3.58893E+06    -362.665E+03    -354.347E+03     9.28468E+06     3.58893E+06    -179.896E+03         88.0897
             666     11.8730E-03     56.9677E-03     193.406E-03     124.875E-03    -396.913E-03    -28.9061E-03    -224.277E-03     174.552E-03    -87.7037E-03     601.001E-03    -297.372E-03    -301.553E-03    -298.360E-03     597.807E-03    -297.372E-03     105.746E-03     10.2449E+06     3.57197E+06    -405.629E+03    -398.543E+03     10.2378E+06     3.57197E+06    -57.0228E+03         84.5762
             667     11.1040E-03     56.8165E-03     270.075E-03     151.693E-03    -522.333E-03     52.2308E-03    -323.121E-03     170.325E-03     148.460E-03     596.238E-03    -298.194E-03    -299.058E-03    -296.684E-03     594.334E-03    -298.665E-03     82.2969E-03     10.1787E+06     3.20458E+06    -910.587E+03    -903.356E+03     10.1715E+06     3.20458E+06     97.3105E+03         80.5517
             668     10.3641E-03     56.6847E-03     265.736E-03     146.423E-03    -472.076E-03     142.014E-03    -366.180E-03     164.249E-03     225.106E-03     594.619E-03    -297.665E-03    -299.110E-03    -297.277E-03     593.256E-03    -298.136E-03     69.3136E-03     10.2304E+06     1.87658E+06    -1.20981E+06    -1.20682E+06     10.2274E+06     1.87658E+06     177.076E+03         76.8654
             669     9.62305E-03     56.5837E-03     192.771E-03     126.640E-03    -333.310E-03     99.2735E-03    -271.876E-03     158.703E-03    -110.443E-03     596.779E-03    -293.997E-03    -296.997E-03    -294.072E-03     595.879E-03    -296.022E-03     56.3651E-03     10.4999E+06     440.274E+03    -1.35921E+06    -1.35658E+06     10.4973E+06     440.274E+03     133.525E+03         73.8265
             670     8.88224E-03     56.5005E-03     194.422E-03     125.622E-03    -305.154E-03     71.0096E-03    -213.804E-03     157.685E-03     151.555E-03     595.448E-03    -293.682E-03    -297.212E-03    -293.096E-03     594.862E-03    -297.212E-03     45.2734E-03     11.3604E+06     1.62289E+06    -1.55653E+06    -1.55116E+06     11.3550E+06     1.62289E+06     204.880E+03         71.4859
             671     8.14226E-03     56.4399E-03     246.882E-03     146.721E-03    -372.348E-03     138.577E-03    -274.022E-03     156.699E-03     132.277E-03     594.363E-03    -297.099E-03    -300.826E-03    -296.760E-03     594.024E-03    -300.826E-03     34.3380E-03     12.0248E+06     1.94023E+06    -1.67501E+06    -1.66729E+06     12.0171E+06     1.94023E+06     316.607E+03         69.8498
             672     7.40048E-03     56.3948E-03     267.158E-03     146.591E-03    -441.161E-03     94.5373E-03    -278.518E-03     156.569E-03    -36.2977E-03     590.334E-03    -297.799E-03    -302.696E-03    -297.626E-03     590.161E-03    -302.696E-03     24.3873E-03     11.7813E+06     1.00310E+06    -2.09828E+06    -2.07686E+06     11.7599E+06     1.00310E+06     230.151E+03         68.7837
             673     6.66009E-03     56.3654E-03     269.620E-03     164.956E-03    -496.194E-03     23.3219E-03    -249.897E-03     164.956E-03    -69.6460E-03     591.113E-03    -297.549E-03    -302.059E-03    -297.473E-03     591.037E-03    -302.059E-03     15.9409E-03     10.9617E+06     329.182E+03    -2.67308E+06    -2.65352E+06     10.9422E+06     329.182E+03     179.530E+03         68.1194
             674     5.91924E-03     56.3525E-03     287.702E-03     176.189E-03    -539.812E-03     104.664E-03    -356.773E-03     176.189E-03     192.230E-03     600.366E-03    -298.333E-03    -300.844E-03    -298.310E-03     600.342E-03    -300.844E-03     8.42136E-03     10.2910E+06    -909.106E+03    -2.94043E+06    -2.93742E+06     10.2880E+06    -909.106E+03     43.9545E+03         67.7012
             675     5.17600E-03     56.3534E-03     351.070E-03     123.627E-03    -540.202E-03     209.290E-03    -453.264E-03     178.469E-03     258.131E-03     605.672E-03    -298.099E-03    -300.844E-03    -300.164E-03     605.669E-03    -298.775E-03     1.69961E-03     9.86161E+06    -1.67932E+06    -3.17143E+06    -3.16954E+06     9.85972E+06    -1.67932E+06    -3.92345E+03         67.3244
             676     4.43622E-03     56.3645E-03     423.613E-03     110.969E-03    -525.997E-03     306.667E-03    -463.894E-03     165.811E-03     70.8708E-03     602.305E-03    -297.170E-03    -302.853E-03    -302.849E-03     602.301E-03    -297.170E-03    -3.51770E-03     9.42727E+06    -2.09522E+06    -3.40293E+06    -3.39886E+06     9.42320E+06    -2.09522E+06     84.4579E+03         66.9419
             677     3.69721E-03     56.3902E-03     400.404E-03     141.169E-03    -511.724E-03     301.718E-03    -413.038E-03     141.169E-03     279.624E-03     596.572E-03    -296.963E-03    -301.405E-03    -301.391E-03     596.558E-03    -296.963E-03    -6.90235E-03     9.24811E+06    -2.28781E+06    -3.34404E+06    -3.33948E+06     9.24356E+06    -2.28781E+06     73.4378E+03         66.6459
             678     2.95755E-03     56.4183E-03     426.424E-03     119.345E-03    -551.937E-03     205.517E-03    -331.030E-03     119.345E-03     445.994E-03     594.160E-03    -297.418E-03    -298.371E-03    -298.224E-03     594.140E-03    -297.545E-03    -8.53799E-03     8.90799E+06    -2.70931E+06    -3.46333E+06    -3.46216E+06     8.90682E+06    -2.70931E+06     75.7254E+03         66.4560
             679     2.21826E-03     56.4635E-03     745.451E-03     92.6315E-03    -887.777E-03     227.265E-03    -369.591E-03     92.6315E-03         1.26432     594.016E-03    -297.301E-03    -298.598E-03    -297.281E-03     593.997E-03    -298.598E-03    -8.29503E-03     8.45022E+06    -3.19969E+06    -3.68862E+06    -3.66713E+06     8.44928E+06    -3.22023E+06     43.8341E+03         66.3734
             680     1.47915E-03     56.5159E-03         1.26095     31.0557E-03        -1.46907     223.078E-03    -431.196E-03     31.0557E-03    -555.980E-03     597.236E-03    -298.117E-03    -299.902E-03    -298.104E-03     597.224E-03    -299.902E-03    -6.45419E-03     8.19796E+06     -3.4677E+06    -3.73694E+06    -3.63704E+06     8.19626E+06     -3.5659E+06     12.6772E+03         66.3973
             681     739.767E-06     56.5755E-03         2.06623    -29.5073E-03        -2.44397     31.3684E-03    -409.113E-03    -29.5073E-03         1.18596     600.238E-03    -299.200E-03    -300.674E-03    -299.454E-03     600.234E-03    -300.416E-03    -3.59958E-03     7.16881E+06    -3.48370E+06    -3.74538E+06    -3.48161E+06     7.16672E+06    -3.74538E+06     48.3629E+03         66.4752
             682     12.6112E-03     55.3540E-03     323.068E-03     58.6403E-03    -487.187E-03     233.880E-03    -399.690E-03     60.3324E-03    -234.505E-03     602.743E-03    -297.123E-03    -302.335E-03    -298.666E-03     599.073E-03    -297.123E-03     114.653E-03     9.11158E+06     3.41650E+06    -187.665E+03    -161.732E+03     9.08565E+06     3.41650E+06     93.3719E+03         88.1391
             683     11.8722E-03     55.1290E-03     211.507E-03     41.5007E-03    -354.812E-03     95.4767E-03    -241.279E-03     43.9989E-03    -210.251E-03     601.089E-03    -297.419E-03    -301.482E-03    -298.281E-03     597.889E-03    -297.419E-03     105.803E-03     9.40883E+06     2.50378E+06    -893.601E+03    -877.327E+03     9.39256E+06     2.50378E+06     262.318E+03         84.6305
             684     11.1036E-03     54.9834E-03     224.886E-03     20.8116E-03    -315.347E-03    -124.839E-03     15.7459E-03     39.4443E-03    -237.036E-03     596.320E-03    -298.178E-03    -298.953E-03    -296.653E-03     594.425E-03    -298.583E-03     82.1013E-03     10.2246E+06     2.42729E+06    -1.02863E+06    -1.02033E+06     10.2163E+06     2.42729E+06     291.807E+03         80.6007
             685     10.3637E-03     54.8522E-03     291.930E-03     24.4484E-03    -340.667E-03    -77.3214E-03     10.7577E-03     42.2750E-03    -293.630E-03     594.695E-03    -297.693E-03    -298.994E-03    -297.231E-03     593.337E-03    -298.099E-03     69.1815E-03     10.4119E+06     1.21735E+06    -1.18368E+06    -1.18113E+06     10.4093E+06     1.21735E+06     132.876E+03         76.9027
             686     9.62243E-03     54.7476E-03     215.628E-03     41.0762E-03    -238.465E-03     46.7998E-03    -69.6364E-03     41.0762E-03    -292.770E-03     596.775E-03    -294.018E-03    -296.981E-03    -294.020E-03     595.881E-03    -296.085E-03     56.1774E-03     10.2766E+06    -42.2697E+03    -1.40140E+06    -1.39940E+06     10.2746E+06    -42.2697E+03     116.638E+03         73.8526
             687     8.88164E-03     54.6627E-03     156.127E-03     36.4896E-03    -168.238E-03     48.2173E-03    -60.3281E-03     36.4896E-03    -221.991E-03     595.468E-03    -293.645E-03    -297.291E-03    -293.064E-03     594.887E-03    -297.291E-03     45.0954E-03     11.0954E+06     1.27464E+06    -1.50696E+06    -1.50178E+06     11.0902E+06     1.27464E+06     145.185E+03         71.5005
             688     8.14076E-03     54.6033E-03     230.920E-03     31.9676E-03    -250.566E-03     55.4122E-03    -75.0585E-03     31.9676E-03    -390.301E-03     594.344E-03    -296.991E-03    -300.865E-03    -296.653E-03     594.006E-03    -300.865E-03     34.3371E-03     11.8454E+06     1.90726E+06    -1.73137E+06    -1.72244E+06     11.8365E+06     1.90726E+06     243.008E+03         69.8551
             689     7.40022E-03     54.5575E-03     284.920E-03     30.2855E-03    -299.146E-03     17.0288E-06    -14.2433E-03     30.2855E-03    -58.9484E-03     591.024E-03    -298.088E-03    -303.039E-03    -297.911E-03     590.846E-03    -303.039E-03     24.7542E-03     11.5168E+06     995.157E+03    -2.13267E+06    -2.11419E+06     11.4984E+06     995.157E+03     442.978E+03         68.7868
             690     6.65974E-03     54.5295E-03     352.453E-03     38.4351E-03    -376.523E-03    -108.230E-03     84.1602E-03     38.4351E-03    -197.025E-03     591.828E-03    -297.883E-03    -302.339E-03    -297.804E-03     591.749E-03    -302.339E-03     16.2746E-03     10.9843E+06     657.113E+03    -2.34871E+06    -2.33290E+06     10.9685E+06     657.113E+03     380.261E+03         68.1225
             691     5.91838E-03     54.5117E-03     314.180E-03     62.8652E-03    -372.831E-03    -12.3023E-03    -33.0324E-03     49.5493E-03    -269.933E-03     600.524E-03    -298.388E-03    -300.872E-03    -298.364E-03     600.500E-03    -300.872E-03     8.45965E-03     10.4680E+06    -459.339E+03    -2.63165E+06    -2.62387E+06     10.4603E+06    -459.339E+03     173.253E+03         67.7031
             692     5.17571E-03     54.5151E-03     321.201E-03     63.0398E-03    -403.691E-03     100.254E-03    -169.428E-03     49.7239E-03     304.068E-03     605.950E-03    -298.140E-03    -301.185E-03    -300.497E-03     605.946E-03    -298.825E-03     1.59484E-03     9.87432E+06    -1.55958E+06    -2.91459E+06    -2.90785E+06     9.86758E+06    -1.55958E+06     13.4582E+03         67.3266
             693     4.43653E-03     54.5251E-03     530.408E-03     43.1870E-03    -611.457E-03     81.5733E-03    -162.623E-03     43.1870E-03    -291.563E-03     602.509E-03    -297.136E-03    -303.325E-03    -303.320E-03     602.504E-03    -297.136E-03    -3.59680E-03     9.49489E+06    -1.95692E+06    -3.05631E+06    -3.05346E+06     9.49204E+06    -1.95692E+06    -70.9175E+03         66.9449
             694     3.69711E-03     54.5500E-03     507.586E-03     50.6603E-03    -623.276E-03    -61.7207E-03    -53.9692E-03     50.6603E-03    -52.9426E-03     596.566E-03    -296.960E-03    -301.551E-03    -301.537E-03     596.552E-03    -296.960E-03    -6.87846E-03     9.09354E+06    -2.37949E+06    -3.21632E+06    -3.21498E+06     9.09220E+06    -2.37949E+06    -43.8678E+03         66.6483
             695     2.95740E-03     54.5789E-03     674.754E-03     93.3086E-03    -798.117E-03    -180.809E-03     57.4457E-03     93.3086E-03    -389.795E-03     594.089E-03    -297.498E-03    -298.325E-03    -298.240E-03     594.069E-03    -297.563E-03    -8.44306E-03     8.72720E+06    -2.80029E+06    -3.42380E+06    -3.42267E+06     8.72607E+06    -2.80029E+06    -32.7028E+03         66.4579
             696     2.21805E-03     54.6196E-03     962.016E-03     112.819E-03    -990.361E-03     164.600E-03    -192.945E-03     112.819E-03    -232.449E-03     594.055E-03    -297.470E-03    -298.589E-03    -297.451E-03     594.036E-03    -298.589E-03    -8.12406E-03     8.26024E+06    -3.32674E+06    -3.68323E+06    -3.66035E+06     8.25790E+06    -3.34729E+06        -400.598         66.3770
             697     1.47862E-03     54.6764E-03         1.08400     78.6130E-03        -1.07907     141.510E-03    -136.580E-03     78.6130E-03    -202.035E-03     597.086E-03    -298.028E-03    -299.866E-03    -298.017E-03     597.075E-03    -299.866E-03    -6.07289E-03     7.90959E+06    -3.66687E+06    -3.84911E+06    -3.74949E+06     7.90444E+06    -3.76134E+06    -108.741E+03         66.4022
             698     739.269E-06     54.7290E-03         2.36546     55.2457E-03        -2.18052    -875.637E-03     217.053E-03     898.765E-03     551.343E-06     600.116E-03    -299.266E-03    -300.537E-03    -299.521E-03     600.113E-03    -300.279E-03    -2.76735E-03     7.00754E+06    -3.38612E+06    -3.74841E+06    -3.65059E+06     6.98946E+06    -3.46585E+06    -266.259E+03         66.4800
             699     12.6113E-03     53.5186E-03     667.496E-03    -27.8874E-03    -624.426E-03    -133.282E-03     176.352E-03    -27.8874E-03    -394.821E-03     603.058E-03    -297.157E-03    -302.430E-03    -298.763E-03     599.391E-03    -297.157E-03     114.662E-03     8.76818E+06     4.21073E+06    -66.1945E+03    -39.6836E+03     8.74167E+06     4.21073E+06     414.846E+03         88.1859
             700     11.8723E-03     53.2932E-03     489.599E-03    -34.7284E-03    -411.046E-03    -19.0804E-03     97.6339E-03    -34.7284E-03    -228.565E-03     602.307E-03    -297.875E-03    -302.044E-03    -298.858E-03     599.121E-03    -297.875E-03     105.639E-03     9.37273E+06     3.58556E+06    -285.676E+03    -261.813E+03     9.34887E+06     3.58556E+06     463.592E+03         84.6882
             701     11.1028E-03     53.1442E-03     296.572E-03    -18.1217E-03    -198.696E-03    -5.22179E-03     127.316E-03    -42.3391E-03    -83.4355E-03     597.415E-03    -298.558E-03    -299.554E-03    -297.228E-03     595.531E-03    -299.000E-03     81.9585E-03     10.2227E+06     2.85731E+06    -583.187E+03    -568.870E+03     10.2084E+06     2.85731E+06     366.711E+03         80.6565
             702     10.3636E-03     53.0166E-03     477.165E-03    -22.7300E-03    -397.494E-03    -91.8826E-03     195.771E-03    -46.9474E-03    -680.036E-03     594.683E-03    -297.638E-03    -298.980E-03    -297.177E-03     593.322E-03    -298.080E-03     69.2915E-03     10.6145E+06     1.54338E+06    -835.037E+03    -801.966E+03     10.5814E+06     1.54338E+06     440.539E+03         76.9425
             703     9.62265E-03     52.9131E-03     469.269E-03    -50.1181E-03    -428.275E-03    -59.7170E-03     100.711E-03    -50.1181E-03    -386.415E-03     596.764E-03    -294.039E-03    -296.977E-03    -294.035E-03     595.860E-03    -296.077E-03     56.4938E-03     10.2151E+06    -65.5336E+03    -1.13552E+06    -1.10297E+06     10.1825E+06    -65.5336E+03     427.399E+03         73.8781
             704     8.88181E-03     52.8292E-03     303.640E-03    -52.6570E-03    -305.042E-03    -87.7890E-03     86.3869E-03    -52.6570E-03    -77.3087E-03     595.484E-03    -293.739E-03    -297.307E-03    -293.153E-03     594.898E-03    -297.307E-03     45.2867E-03     11.0873E+06     712.454E+03    -1.51773E+06    -1.50177E+06     11.0713E+06     712.454E+03     292.951E+03         71.5174
             705     8.14105E-03     52.7662E-03     306.900E-03    -50.0158E-03    -326.213E-03    -142.433E-03     123.120E-03    -50.0158E-03    -515.414E-03     594.279E-03    -297.063E-03    -300.937E-03    -296.725E-03     593.942E-03    -300.937E-03     34.2700E-03     11.7689E+06     1.19390E+06    -2.03789E+06    -2.02531E+06     11.7563E+06     1.19390E+06     188.046E+03         69.8641
             706     7.39963E-03     52.7198E-03     296.880E-03    -46.7740E-03    -293.190E-03    -65.0802E-03     68.7704E-03    -46.7740E-03    -40.0045E-03     591.022E-03    -298.042E-03    -303.111E-03    -297.870E-03     590.849E-03    -303.111E-03     24.3655E-03     11.3637E+06     906.051E+03    -2.11170E+06    -2.10640E+06     11.3584E+06     906.051E+03     63.5945E+03         68.7892
             707     6.65879E-03     52.6928E-03     444.322E-03    -52.9728E-03    -381.016E-03     54.9796E-03     8.32648E-03    -52.9728E-03    -350.088E-03     591.803E-03    -297.886E-03    -302.293E-03    -297.810E-03     591.727E-03    -302.293E-03     15.9830E-03     10.9122E+06     961.481E+03    -2.18258E+06    -2.17938E+06     10.9090E+06     961.481E+03     86.5792E+03         68.1216
             708     5.91859E-03     52.6777E-03     519.808E-03    -46.2487E-03    -434.711E-03    -59.2763E-03     157.688E-03    -59.5646E-03    -398.177E-03     600.604E-03    -298.463E-03    -300.863E-03    -298.440E-03     600.580E-03    -300.863E-03     8.48369E-03     10.4212E+06    -126.862E+03    -2.53710E+06    -2.53137E+06     10.4154E+06    -126.862E+03     210.151E+03         67.7028
             709     5.17493E-03     52.6774E-03     420.225E-03    -28.4457E-03    -358.685E-03    -292.208E-03     367.064E-03    -41.7616E-03     157.697E-03     606.102E-03    -298.189E-03    -301.321E-03    -300.600E-03     606.098E-03    -298.907E-03     1.86390E-03     9.93615E+06    -1.29762E+06    -2.71869E+06    -2.71117E+06     9.92864E+06    -1.29762E+06     141.580E+03         67.3287
             710     4.43595E-03     52.6888E-03     531.836E-03     11.9955E-03    -556.343E-03    -416.598E-03     392.090E-03     11.9955E-03    -359.098E-03     602.663E-03    -297.179E-03    -303.586E-03    -303.582E-03     602.659E-03    -297.179E-03    -3.19382E-03     9.50529E+06    -1.82220E+06    -2.94701E+06    -2.94237E+06     9.50065E+06    -1.82220E+06     95.6107E+03         66.9503
             711     3.69716E-03     52.7146E-03     555.935E-03     98.7754E-03    -699.547E-03    -410.685E-03     267.073E-03     98.7754E-03     152.330E-03     596.582E-03    -296.980E-03    -301.826E-03    -301.814E-03     596.570E-03    -296.980E-03    -6.41984E-03     8.89428E+06    -2.54321E+06    -3.33478E+06    -3.33376E+06     8.89326E+06    -2.54321E+06     91.3203E+03         66.6571
             712     2.95728E-03     52.7383E-03     690.857E-03     149.858E-03    -862.336E-03    -246.050E-03     17.9805E-03     206.449E-03    -289.543E-03     594.018E-03    -297.555E-03    -298.477E-03    -298.389E-03     593.999E-03    -297.624E-03    -8.03391E-03     8.55156E+06    -3.04984E+06    -3.47282E+06    -3.46913E+06     8.54787E+06    -3.04984E+06     59.7065E+03         66.4680
             713     2.21815E-03     52.7803E-03     738.564E-03     151.145E-03    -806.927E-03    -36.4547E-03    -202.295E-03     321.532E-03    -817.846E-03     594.257E-03    -297.538E-03    -298.653E-03    -297.521E-03     594.239E-03    -298.653E-03    -7.88226E-03     8.42245E+06    -3.19328E+06    -3.46364E+06    -3.42127E+06     8.41658E+06    -3.22978E+06     31.8293E+03         66.3865
             714     1.47902E-03     52.8305E-03     780.720E-03     354.475E-03    -892.133E-03     96.6125E-03    -321.820E-03     468.270E-03     779.380E-03     597.326E-03    -298.082E-03    -299.883E-03    -298.072E-03     597.316E-03    -299.883E-03    -5.96639E-03     8.10966E+06    -3.42596E+06    -3.69316E+06    -3.50694E+06     8.10286E+06    -3.60539E+06    -49.1250E+03         66.4117
             715     739.195E-06     52.8861E-03         2.30188     635.939E-03        -2.46193    -328.425E-03    -675.136E-03         1.47946        -1.65943     600.226E-03    -299.152E-03    -300.674E-03    -299.149E-03     600.223E-03    -300.674E-03    -2.49329E-03     6.86406E+06    -3.26687E+06    -4.05061E+06    -3.53177E+06     6.84641E+06    -3.76805E+06    -235.904E+03         66.4914
             716     12.6112E-03     51.6821E-03     620.670E-03    -70.2277E-03    -427.090E-03    -252.580E-03     499.178E-03    -123.245E-03    -181.596E-03     603.543E-03    -297.141E-03    -302.580E-03    -298.931E-03     599.894E-03    -297.141E-03     114.388E-03     8.18287E+06     3.42382E+06    -750.571E+03    -739.090E+03     8.17139E+06     3.42382E+06     128.677E+03         88.2145
             717     11.8737E-03     51.4570E-03     662.269E-03    -121.805E-03    -402.565E-03    -294.108E-03     557.987E-03    -125.979E-03    -347.729E-03     603.503E-03    -298.253E-03    -302.587E-03    -299.394E-03     600.309E-03    -298.253E-03     105.875E-03     9.47131E+06     2.56805E+06    -171.923E+03    -139.514E+03     9.45815E+06     2.54879E+06     289.063E+03         84.7249
             718     11.1027E-03     51.3125E-03     372.569E-03    -64.5660E-03    -226.904E-03    -89.5658E-03     303.108E-03    -132.443E-03     49.5603E-03     598.334E-03    -298.925E-03    -300.225E-03    -297.788E-03     596.448E-03    -299.476E-03     82.0542E-03     9.97259E+06     2.59704E+06    -243.762E+03    -211.882E+03     9.95996E+06     2.57779E+06     307.410E+03         80.6936
             719     10.3634E-03     51.1821E-03     396.470E-03    -78.1664E-03    -319.042E-03    -32.4335E-03     177.739E-03    -146.044E-03    -438.503E-03     594.574E-03    -297.621E-03    -299.071E-03    -297.163E-03     593.217E-03    -298.173E-03     69.1906E-03     10.1133E+06     2.70757E+06    -371.926E+03    -334.136E+03     10.0756E+06     2.70757E+06     566.345E+03         76.9694
             720     9.62184E-03     51.0743E-03     543.232E-03    -155.886E-03    -441.441E-03    -177.858E-03     279.649E-03    -155.886E-03    -370.610E-03     596.777E-03    -294.069E-03    -297.035E-03    -294.066E-03     595.875E-03    -296.136E-03     56.4226E-03     10.3731E+06     1.52789E+06    -570.443E+03    -527.795E+03     10.3305E+06     1.52789E+06     639.560E+03         73.8968
             721     8.88097E-03     50.9922E-03     408.272E-03    -138.950E-03    -344.339E-03    -187.833E-03     271.992E-03    -159.177E-03     35.4405E-03     595.781E-03    -294.026E-03    -297.573E-03    -293.441E-03     595.197E-03    -297.573E-03     45.2594E-03     11.5446E+06     2.47170E+06    -674.192E+03    -652.072E+03     11.5225E+06     2.47170E+06     460.204E+03         71.5351
             722     8.14074E-03     50.9303E-03     337.411E-03    -88.9386E-03    -303.445E-03    -153.984E-03     261.932E-03    -162.920E-03    -152.043E-03     595.933E-03    -298.132E-03    -301.679E-03    -297.790E-03     595.591E-03    -301.679E-03     34.5468E-03     11.7054E+06     2.32604E+06    -698.827E+03    -679.535E+03     11.6861E+06     2.32604E+06     308.602E+03         69.8779
             723     7.39971E-03     50.8845E-03     368.969E-03    -115.513E-03    -282.597E-03    -128.629E-03     268.756E-03    -169.268E-03     194.271E-03     591.686E-03    -298.471E-03    -303.306E-03    -298.294E-03     591.509E-03    -303.306E-03     24.6588E-03     11.3864E+06     1.71078E+06    -1.29019E+06    -1.26878E+06     11.3650E+06     1.71078E+06     261.266E+03         68.7946
             724     6.65869E-03     50.8562E-03     603.640E-03    -174.164E-03    -461.378E-03    -173.877E-03     316.140E-03    -174.164E-03     185.617E-03     591.727E-03    -297.877E-03    -302.214E-03    -297.800E-03     591.650E-03    -302.214E-03     16.0208E-03     10.8916E+06     1.10712E+06    -2.04032E+06    -2.02801E+06     10.8793E+06     1.10712E+06     221.452E+03         68.1237
             725     5.91782E-03     50.8394E-03     747.417E-03    -167.433E-03    -599.003E-03    -297.163E-03     445.577E-03    -167.433E-03     342.676E-03     601.122E-03    -298.776E-03    -301.106E-03    -298.753E-03     601.099E-03    -301.106E-03     8.28071E-03     10.3003E+06    -436.966E+03    -2.33572E+06    -2.32743E+06     10.2920E+06    -436.966E+03     240.332E+03         67.7050
             726     5.17472E-03     50.8419E-03     549.531E-03    -86.4950E-03    -436.911E-03    -242.044E-03     421.071E-03    -152.901E-03     409.357E-03     606.052E-03    -298.175E-03    -301.206E-03    -300.441E-03     606.049E-03    -298.936E-03     1.68921E-03     10.0114E+06    -1.19004E+06    -2.64792E+06    -2.63858E+06     10.0020E+06    -1.19004E+06     282.147E+03         67.3302
             727     4.43485E-03     50.8531E-03     567.603E-03    -73.1634E-03    -433.272E-03    -202.767E-03     403.504E-03    -139.570E-03     361.799E-03     602.713E-03    -297.243E-03    -303.537E-03    -303.533E-03     602.709E-03    -297.243E-03    -3.25271E-03     9.44652E+06    -1.91970E+06    -3.02728E+06    -3.02322E+06     9.44246E+06    -1.91970E+06     197.949E+03         66.9546
             728     3.69611E-03     50.8763E-03     750.924E-03    -112.960E-03    -545.734E-03    -94.5247E-03     320.597E-03    -133.843E-03     363.275E-03     596.771E-03    -297.100E-03    -302.130E-03    -302.118E-03     596.759E-03    -297.100E-03    -6.30196E-03     8.98099E+06    -2.46582E+06    -3.22723E+06    -3.22239E+06     8.97614E+06    -2.46582E+06     185.781E+03         66.6667
             729     2.95709E-03     50.9046E-03     827.807E-03    -182.201E-03    -556.762E-03    -4.30932E-03     239.644E-03    -146.491E-03     615.211E-03     594.207E-03    -297.482E-03    -298.783E-03    -298.470E-03     594.190E-03    -297.779E-03    -7.74070E-03     8.58724E+06    -2.95010E+06    -3.44406E+06    -3.43648E+06     8.57967E+06    -2.95010E+06     165.051E+03         66.4813
             730     2.21761E-03     50.9417E-03     843.801E-03    -280.338E-03    -615.327E-03    -328.745E-03     386.832E-03    -109.951E-03     367.241E-03     594.627E-03    -297.476E-03    -298.813E-03    -297.459E-03     594.611E-03    -298.813E-03    -7.60190E-03     8.27254E+06    -3.31318E+06    -3.57423E+06    -3.47486E+06     8.26644E+06    -3.40645E+06     39.3882E+03         66.4011
             731     1.47803E-03     50.9983E-03         1.07987    -146.734E-03        -1.00727    -73.1287E-03     31.9396E-03    -32.9382E-03     923.520E-03     597.917E-03    -298.475E-03    -299.957E-03    -298.465E-03     597.907E-03    -299.957E-03    -5.71106E-03     8.30422E+06    -3.15915E+06    -3.47795E+06    -3.15534E+06     8.30040E+06    -3.47795E+06     76.9979E+03         66.4268
             732     739.361E-06     51.0486E-03         2.03897    -75.7327E-03        -2.09397     279.080E-03    -225.011E-03    -184.800E-03        -1.11078     600.490E-03    -299.151E-03    -300.909E-03    -299.148E-03     600.487E-03    -300.909E-03    -2.53371E-03      7.3276E+06    -2.74269E+06    -3.33212E+06    -2.72806E+06     7.31297E+06    -3.33212E+06    -107.611E+03         66.5083
             733     12.6114E-03     49.8462E-03     407.240E-03    -96.5806E-03    -212.783E-03     79.7229E-03     230.936E-03    -212.783E-03     102.610E-03     604.586E-03    -297.708E-03    -303.042E-03    -299.417E-03     600.961E-03    -297.708E-03     114.060E-03     7.76765E+06     2.38196E+06    -433.836E+03    -430.033E+03     7.76385E+06     2.38196E+06     24.4386E+03         88.2214
             734     11.8726E-03     49.6219E-03     555.202E-03    -194.490E-03    -329.265E-03    -45.6882E-03     314.585E-03    -237.449E-03    -295.559E-03     604.522E-03    -298.695E-03    -303.041E-03    -299.857E-03     601.339E-03    -298.695E-03     105.749E-03     8.82367E+06     1.91929E+06    -129.185E+03    -98.3040E+03     8.81204E+06     1.90004E+06     193.097E+03         84.7337
             735     11.1026E-03     49.4775E-03     547.118E-03    -197.137E-03    -392.546E-03    -194.966E-03     407.788E-03    -255.388E-03    -383.085E-03     598.135E-03    -298.917E-03    -300.150E-03    -297.684E-03     596.256E-03    -299.504E-03     81.9199E-03     9.66629E+06     2.54071E+06    -395.951E+03    -358.589E+03     9.64818E+06     2.52145E+06     351.494E+03         80.7015
             736     10.3636E-03     49.3457E-03     508.387E-03    -223.046E-03    -355.756E-03    -255.823E-03     452.114E-03    -266.706E-03    -134.610E-03     594.346E-03    -297.673E-03    -299.076E-03    -297.119E-03     592.976E-03    -298.260E-03     69.5247E-03     9.95050E+06     3.13558E+06    -541.345E+03    -529.967E+03     9.93912E+06     3.13558E+06     254.960E+03         76.9765
             737     9.62250E-03     49.2417E-03     566.502E-03    -264.253E-03    -331.723E-03    -210.171E-03     457.784E-03    -277.087E-03    -326.748E-03     596.751E-03    -294.237E-03    -297.067E-03    -294.145E-03     595.843E-03    -296.250E-03     56.6038E-03     10.2840E+06     2.29554E+06    -483.454E+03    -470.974E+03     10.2715E+06     2.29554E+06     141.666E+03         73.9030
             738     8.88098E-03     49.1577E-03     606.561E-03    -259.753E-03    -305.431E-03    -89.1188E-03     424.999E-03    -294.503E-03     68.4539E-03     595.680E-03    -294.093E-03    -297.631E-03    -293.511E-03     595.099E-03    -297.631E-03     45.1420E-03     11.4967E+06     2.35423E+06    -560.847E+03    -537.064E+03     11.4729E+06     2.35423E+06     316.789E+03         71.5375
             739     8.14001E-03     49.0938E-03     660.098E-03    -243.654E-03    -350.121E-03    -81.9050E-03     467.552E-03    -319.325E-03     89.1625E-03     594.918E-03    -297.481E-03    -301.217E-03    -297.142E-03     594.579E-03    -301.217E-03     34.3980E-03     11.6105E+06     2.20773E+06    -1.10750E+06    -1.07814E+06     11.5811E+06     2.20773E+06     521.984E+03         69.8742
             740     7.39931E-03     49.0482E-03     705.390E-03    -265.378E-03    -391.929E-03    -121.701E-03     515.377E-03    -345.593E-03     136.212E-03     590.825E-03    -297.905E-03    -302.823E-03    -297.726E-03     590.646E-03    -302.823E-03     24.8704E-03     11.4604E+06     2.45559E+06    -1.38346E+06    -1.35333E+06     11.4303E+06     2.45559E+06     608.264E+03         68.7920
             741     6.65868E-03     49.0199E-03     814.130E-03    -322.293E-03    -518.693E-03    -323.364E-03     658.401E-03    -361.892E-03     802.337E-03     592.609E-03    -298.573E-03    -302.439E-03    -298.491E-03     592.527E-03    -302.439E-03     16.5775E-03     10.9325E+06     1.51574E+06    -1.74999E+06    -1.71968E+06     10.9022E+06     1.51574E+06     595.390E+03         68.1304
             742     5.91842E-03     49.0060E-03     797.643E-03    -322.626E-03    -566.883E-03    -381.733E-03     654.472E-03    -364.605E-03     467.135E-03     601.861E-03    -299.362E-03    -301.327E-03    -299.337E-03     601.835E-03    -301.327E-03     8.63026E-03     10.2854E+06    -436.129E+03    -2.23514E+06    -2.21410E+06     10.2643E+06    -436.129E+03     457.191E+03         67.7154
             743     5.17400E-03     49.0063E-03     625.851E-03    -241.613E-03    -443.034E-03    -124.737E-03     447.957E-03    -382.016E-03     388.323E-03     606.028E-03    -298.102E-03    -301.162E-03    -300.354E-03     606.025E-03    -298.907E-03     1.60466E-03     10.0263E+06    -1.24495E+06    -2.43307E+06    -2.41591E+06     10.0091E+06    -1.24495E+06     401.452E+03         67.3379
             744     4.43463E-03     49.0154E-03     607.952E-03    -111.879E-03    -486.624E-03     56.7604E-03     392.704E-03    -440.016E-03     640.028E-03     602.802E-03    -297.315E-03    -303.348E-03    -303.344E-03     602.798E-03    -297.315E-03    -3.50874E-03     9.64864E+06    -1.69555E+06    -2.62979E+06    -2.61209E+06     9.63095E+06    -1.69555E+06     379.186E+03         66.9608
             745     3.69570E-03     49.0391E-03     949.040E-03    -249.180E-03    -583.410E-03     55.1889E-03     598.063E-03    -536.801E-03     319.423E-03     596.789E-03    -297.277E-03    -301.943E-03    -301.930E-03     596.777E-03    -297.277E-03    -6.53772E-03     9.27827E+06    -2.01363E+06    -2.83439E+06    -2.82273E+06     9.26661E+06    -2.01363E+06     227.341E+03         66.6738
             746     2.95611E-03     49.0660E-03         1.26840    -385.070E-03    -741.105E-03    -36.3002E-03     848.090E-03    -669.562E-03     471.065E-03     594.428E-03    -297.500E-03    -298.829E-03    -298.369E-03     594.411E-03    -297.943E-03    -7.91878E-03     8.88570E+06    -2.51036E+06    -2.97766E+06    -2.97038E+06     8.87842E+06    -2.51036E+06     93.2304E+03         66.4923
             747     2.21713E-03     49.1059E-03         1.25247    -321.677E-03    -970.032E-03    -182.132E-03     993.600E-03    -850.709E-03     294.238E-03     595.145E-03    -297.537E-03    -298.968E-03    -297.520E-03     595.127E-03    -298.968E-03    -7.82087E-03     8.62867E+06    -2.79043E+06    -3.06958E+06    -3.00871E+06     8.62456E+06    -2.84719E+06     73.2432E+03         66.4170
             748     1.47827E-03     49.1560E-03         1.69787    -760.432E-03        -1.16382    -551.909E-03         1.40155        -1.07602     197.446E-03     598.157E-03    -298.515E-03    -300.176E-03    -298.505E-03     598.147E-03    -300.176E-03    -5.81715E-03     8.17249E+06    -3.14213E+06    -3.46652E+06    -3.24323E+06     8.16955E+06    -3.36247E+06     133.713E+03         66.4453
             749     739.176E-06     49.2106E-03         2.20111        -1.00114        -1.74620    -639.329E-03         1.79928        -1.70618     178.935E-03     600.904E-03    -299.200E-03    -301.460E-03    -299.197E-03     600.901E-03    -301.460E-03    -2.64894E-03     6.74515E+06    -3.15867E+06    -3.70069E+06    -3.48703E+06     6.70071E+06    -3.32789E+06     175.437E+03         66.5277
             750     12.6105E-03     48.0181E-03     312.756E-03    -81.7088E-03    -306.617E-03     21.8328E-03     209.214E-03    -306.617E-03     147.009E-03     605.618E-03    -298.328E-03    -303.642E-03    -300.014E-03     601.990E-03    -298.328E-03     114.170E-03     7.43356E+06     1.79168E+06    -68.7158E+03    -57.6127E+03     7.42245E+06     1.79168E+06     63.2920E+03         88.2128
             751     11.8714E-03     47.7921E-03     385.468E-03    -133.067E-03    -340.310E-03     54.5333E-03     197.868E-03    -340.310E-03     1.63625E-03     604.381E-03    -298.720E-03    -302.841E-03    -299.626E-03     601.166E-03    -298.720E-03     106.285E-03     8.29918E+06     2.61376E+06    -300.906E+03    -283.681E+03     8.28196E+06     2.61376E+06     208.111E+03         84.7227
             752     11.1024E-03     47.6454E-03     541.345E-03    -193.399E-03    -417.874E-03    -68.3514E-03     370.955E-03    -372.532E-03    -135.925E-03     596.939E-03    -298.477E-03    -299.365E-03    -296.839E-03     595.026E-03    -299.089E-03     82.5804E-03     9.37666E+06     3.83017E+06    -522.036E+03    -501.404E+03     9.35603E+06     3.83017E+06     330.152E+03         80.6887
             753     10.3629E-03     47.5165E-03     617.935E-03    -183.183E-03    -457.891E-03    -177.537E-03     553.663E-03    -399.264E-03     105.039E-03     594.224E-03    -297.671E-03    -299.127E-03    -297.104E-03     592.813E-03    -298.284E-03     70.5507E-03     10.2056E+06     2.47543E+06    -815.738E+03    -742.803E+03     10.1943E+06     2.41382E+06     259.269E+03         76.9723
             754     9.62123E-03     47.4139E-03     698.937E-03    -237.063E-03    -438.663E-03    -177.232E-03     625.820E-03    -425.378E-03    -150.871E-03     596.808E-03    -294.486E-03    -297.212E-03    -294.389E-03     595.868E-03    -296.369E-03     57.5916E-03     10.1760E+06     374.309E+03    -1.08253E+06    -1.00838E+06     10.1634E+06     312.693E+03     135.506E+03         73.9064
             755     8.88019E-03     47.3292E-03     898.523E-03    -390.804E-03    -458.149E-03    -202.882E-03     705.599E-03    -453.148E-03     267.217E-03     595.469E-03    -294.201E-03    -297.572E-03    -293.603E-03     594.871E-03    -297.572E-03     45.7555E-03     10.6523E+06     1.23296E+06    -1.29036E+06    -1.26470E+06     10.6267E+06     1.23296E+06     315.770E+03         71.5359
             756     8.13944E-03     47.2644E-03         1.04135    -460.353E-03    -514.182E-03    -281.218E-03     826.414E-03    -478.384E-03     287.562E-03     593.728E-03    -296.781E-03    -300.595E-03    -296.438E-03     593.385E-03    -300.595E-03     34.5323E-03     11.4541E+06     2.42749E+06    -1.48419E+06    -1.46260E+06     11.4325E+06     2.42749E+06     422.883E+03         69.8672
             757     7.39856E-03     47.2174E-03         1.02190    -457.176E-03    -532.439E-03    -323.819E-03     856.086E-03    -499.978E-03    -133.153E-03     589.974E-03    -297.274E-03    -302.297E-03    -297.095E-03     589.796E-03    -302.297E-03     24.7930E-03     11.6533E+06     2.14614E+06    -1.80911E+06    -1.79408E+06     11.6383E+06     2.14614E+06     437.103E+03         68.7913
             758     6.65762E-03     47.1870E-03     937.112E-03    -418.421E-03    -532.289E-03    -178.932E-03     695.959E-03    -530.625E-03     602.586E-03     592.373E-03    -298.358E-03    -302.229E-03    -298.277E-03     592.291E-03    -302.229E-03     16.5483E-03     11.1026E+06     976.675E+03    -1.95473E+06    -1.93368E+06     11.0816E+06     976.675E+03     401.552E+03         68.1388
             759     5.91683E-03     47.1742E-03     910.409E-03    -386.992E-03    -576.569E-03    -173.102E-03     696.519E-03    -576.569E-03     138.772E-03     601.836E-03    -299.339E-03    -301.176E-03    -299.313E-03     601.810E-03    -301.176E-03     8.83967E-03     10.3724E+06    -341.972E+03    -1.94448E+06    -1.91805E+06     10.3460E+06    -341.972E+03     412.808E+03         67.7275
             760     5.17426E-03     47.1738E-03     953.891E-03    -413.452E-03    -626.285E-03    -285.636E-03     826.074E-03    -626.285E-03     40.7368E-03     606.342E-03    -298.280E-03    -301.331E-03    -300.665E-03     606.338E-03    -298.942E-03     1.71723E-03     10.0189E+06    -897.533E+03    -2.24947E+06    -2.22529E+06     9.99470E+06    -897.533E+03     453.201E+03         67.3517
             761     4.43457E-03     47.1843E-03     998.334E-03    -355.609E-03    -711.204E-03    -304.606E-03     917.309E-03    -681.181E-03     518.991E-03     602.998E-03    -297.417E-03    -303.501E-03    -303.497E-03     602.993E-03    -297.417E-03    -3.58171E-03     9.79294E+06    -1.17407E+06    -2.32817E+06    -2.31050E+06     9.77527E+06    -1.17407E+06     387.379E+03         66.9748
             762     3.69509E-03     47.2051E-03         1.22594    -476.263E-03    -774.062E-03    -428.087E-03         1.14670    -743.003E-03     646.868E-03     596.928E-03    -297.419E-03    -301.908E-03    -301.895E-03     596.915E-03    -297.419E-03    -6.75316E-03     9.53012E+06    -1.56121E+06    -2.29890E+06    -2.28154E+06     9.51277E+06    -1.56121E+06     300.545E+03         66.6881
             763     2.95599E-03     47.2318E-03         1.50681    -542.339E-03    -946.328E-03    -556.749E-03         1.38085    -805.949E-03     68.7559E-03     594.647E-03    -297.643E-03    -298.906E-03    -298.418E-03     594.629E-03    -298.113E-03    -8.11223E-03     9.14057E+06    -2.04300E+06    -2.52166E+06    -2.50673E+06     9.12564E+06    -2.04300E+06     293.562E+03         66.5096
             764     2.21709E-03     47.2680E-03         1.57972    -363.074E-03        -1.18760    -595.347E-03         1.51650    -892.106E-03    -279.156E-03     595.576E-03    -297.693E-03    -299.188E-03    -297.676E-03     595.560E-03    -299.188E-03    -7.71289E-03     8.81953E+06    -2.36440E+06    -2.74791E+06    -2.65702E+06     8.81039E+06    -2.44614E+06     264.023E+03         66.4375
             765     1.47797E-03     47.3200E-03         1.88896    -671.549E-03        -1.19483    -772.262E-03         1.81402        -1.01918     336.759E-03     598.604E-03    -298.651E-03    -300.466E-03    -298.641E-03     598.594E-03    -300.466E-03    -5.75153E-03     8.25619E+06    -2.90407E+06    -3.17104E+06    -2.99363E+06     8.24171E+06    -3.06700E+06     315.635E+03         66.4675
             766     738.525E-06     47.3670E-03         2.40555    -626.356E-03        -1.80937    -440.206E-03         2.19990        -1.78987     33.5756E-03     601.444E-03    -299.663E-03    -301.683E-03    -300.083E-03     601.441E-03    -301.260E-03    -2.91408E-03     6.51531E+06    -3.22761E+06    -3.71567E+06    -3.54514E+06     6.46003E+06    -3.34287E+06     302.685E+03         66.5507
             767     12.6107E-03     46.1926E-03     235.953E-03     23.8568E-03    -392.951E-03     80.2126E-03     179.597E-03    -392.951E-03    -39.0420E-03     605.588E-03    -298.476E-03    -303.440E-03    -299.743E-03     601.891E-03    -298.476E-03     115.238E-03     6.96527E+06     1.54785E+06    -294.911E+03    -279.500E+03     6.94986E+06     1.54785E+06     166.903E+03         88.2010
             768     11.8695E-03     45.9707E-03     300.396E-03     38.8854E-03    -430.082E-03     53.0021E-03     286.280E-03    -430.082E-03    -375.594E-06     603.346E-03    -298.439E-03    -302.088E-03    -298.781E-03     600.039E-03    -298.439E-03     107.841E-03     8.17843E+06     2.06806E+06    -525.090E+03    -500.054E+03     8.15339E+06     2.06806E+06     335.023E+03         84.7098
             769     11.1011E-03     45.8235E-03     418.453E-03     18.4295E-03    -471.186E-03     70.5492E-03     366.334E-03    -471.186E-03     202.090E-03     595.972E-03    -298.097E-03    -298.772E-03    -296.192E-03     593.983E-03    -298.688E-03     84.0751E-03     9.38086E+06     2.57929E+06    -808.578E+03    -788.208E+03     9.36049E+06     2.57929E+06     211.440E+03         80.6806
             770     10.3610E-03     45.6895E-03     511.336E-03    -6.45216E-03    -516.075E-03     43.6923E-03     461.192E-03    -516.075E-03     113.387E-03     594.441E-03    -297.713E-03    -299.175E-03    -297.137E-03     592.993E-03    -298.304E-03     71.4884E-03     10.0133E+06     1.25463E+06    -992.965E+03    -915.230E+03     9.99718E+06     1.19302E+06     296.483E+03         76.9789
             771     9.62028E-03     45.5853E-03     725.334E-03    -202.573E-03    -556.069E-03    -180.399E-03     703.160E-03    -556.069E-03     3.16326E-03     597.268E-03    -294.654E-03    -297.410E-03    -294.559E-03     596.301E-03    -296.538E-03     58.4350E-03     9.98232E+06     231.801E+03    -1.12600E+06    -1.04302E+06     9.96095E+06     170.186E+03     437.300E+03         73.9271
             772     8.87917E-03     45.5003E-03         1.00781    -487.278E-03    -597.565E-03    -420.017E-03     924.526E-03    -581.540E-03     46.2314E-03     595.948E-03    -294.472E-03    -297.807E-03    -293.856E-03     595.332E-03    -297.807E-03     46.4346E-03     10.4271E+06     1.27544E+06    -1.24329E+06    -1.23308E+06     10.4169E+06     1.27544E+06     237.770E+03         71.5628
             773     8.13903E-03     45.4364E-03         1.04189    -540.550E-03    -613.025E-03    -474.010E-03     959.328E-03    -597.000E-03     169.775E-03     594.194E-03    -297.140E-03    -300.697E-03    -296.785E-03     593.839E-03    -300.697E-03     35.1686E-03     11.3597E+06     2.34520E+06    -1.29162E+06    -1.28828E+06     11.3564E+06     2.34520E+06     130.103E+03         69.8967
             774     7.39771E-03     45.3915E-03         1.12537    -550.734E-03    -672.069E-03    -558.837E-03         1.06859    -607.183E-03    -216.662E-03     591.584E-03    -298.259E-03    -302.793E-03    -298.076E-03     591.401E-03    -302.793E-03     25.1193E-03     11.4370E+06     1.44842E+06    -1.41321E+06    -1.40815E+06     11.4320E+06     1.44842E+06     203.134E+03         68.8197
             775     6.65763E-03     45.3584E-03         1.28989    -543.364E-03    -781.572E-03    -523.285E-03         1.10421    -615.968E-03    -207.553E-03     592.354E-03    -298.298E-03    -302.064E-03    -298.218E-03     592.274E-03    -302.064E-03     16.3792E-03     11.1610E+06     740.167E+03    -1.52552E+06    -1.51847E+06     11.1540E+06     740.167E+03     203.589E+03         68.1582
             776     5.91773E-03     45.3400E-03         1.24425    -477.254E-03    -738.713E-03    -373.881E-03         1.04016    -637.996E-03    -238.049E-03     600.648E-03    -298.618E-03    -300.561E-03    -298.593E-03     600.623E-03    -300.561E-03     8.74070E-03     10.5568E+06     72.8406E+03    -1.90812E+06    -1.88946E+06     10.5382E+06     72.8406E+03     264.736E+03         67.7405
             777     5.17292E-03     45.3425E-03         1.29460    -512.077E-03    -781.954E-03    -533.844E-03         1.19847    -664.057E-03    -489.046E-03     606.608E-03    -298.380E-03    -301.532E-03    -300.923E-03     606.604E-03    -298.985E-03     2.00473E-03     10.0665E+06    -754.749E+03    -2.12209E+06    -1.99122E+06     10.0522E+06    -871.325E+03     214.233E+03         67.3688
             778     4.43420E-03     45.3505E-03         1.44650    -598.999E-03    -909.673E-03    -802.978E-03         1.40364    -662.842E-03    -16.1396E-03     602.937E-03    -297.295E-03    -303.765E-03    -303.761E-03     602.932E-03    -297.295E-03    -3.25348E-03     9.91900E+06    -859.056E+03    -2.12014E+06    -1.99254E+06     9.90797E+06    -975.633E+03     253.267E+03         66.9983
             779     3.69511E-03     45.3734E-03         1.38637    -635.040E-03    -906.795E-03    -824.135E-03         1.30371    -635.040E-03    -65.8218E-03     596.694E-03    -297.327E-03    -302.018E-03    -302.005E-03     596.681E-03    -297.327E-03    -6.63611E-03     9.48913E+06    -1.34408E+06    -2.29688E+06    -2.27700E+06     9.46925E+06    -1.34408E+06     373.698E+03         66.7159
             780     2.95620E-03     45.3980E-03         1.46638    -585.507E-03        -1.12517    -868.310E-03         1.20952    -585.507E-03     39.4335E-03     594.588E-03    -297.556E-03    -299.032E-03    -298.305E-03     594.569E-03    -298.264E-03    -8.12026E-03     9.06203E+06    -1.96358E+06    -2.41928E+06    -2.38928E+06     9.04490E+06    -1.97645E+06     376.395E+03         66.5394
             781     2.21656E-03     45.4354E-03         1.57769    -471.942E-03        -1.20151    -986.881E-03         1.36306    -471.942E-03    -24.0602E-03     595.672E-03    -297.509E-03    -299.517E-03    -297.492E-03     595.656E-03    -299.517E-03    -7.67422E-03     8.68411E+06    -2.35832E+06    -2.67885E+06    -2.57072E+06     8.67059E+06    -2.45294E+06     383.383E+03         66.4681
             782     1.47757E-03     45.4841E-03         1.19686    -239.842E-03    -913.885E-03    -777.093E-03         1.09210    -271.880E-03     263.185E-03     599.324E-03    -299.002E-03    -300.810E-03    -298.993E-03     599.315E-03    -300.810E-03    -5.66030E-03     8.72442E+06    -2.19198E+06    -2.51685E+06    -2.27579E+06     8.70775E+06    -2.41637E+06     404.977E+03         66.4988
             783     739.340E-06     45.5262E-03         1.60217     66.0992E-03        -1.49845    -211.891E-03     585.977E-03    -204.266E-03    -597.480E-03     602.130E-03    -300.387E-03    -301.593E-03    -301.083E-03     602.128E-03    -300.894E-03    -2.30176E-03     7.56245E+06    -2.10776E+06    -2.29492E+06    -2.07907E+06     7.53376E+06    -2.29492E+06    -22.7442E+03         66.5808
             784     12.6086E-03     44.3676E-03     427.755E-03    -116.686E-03    -452.374E-03     21.4090E-03     289.661E-03    -452.374E-03    -23.0432E-03     605.047E-03    -298.636E-03    -303.159E-03    -299.427E-03     601.316E-03    -298.636E-03     115.727E-03     6.76384E+06     1.21991E+06    -201.592E+03    -170.469E+03     6.73272E+06     1.21991E+06     366.470E+03         88.2000
             785     11.8680E-03     44.1450E-03     428.091E-03    -62.5504E-03    -488.369E-03     49.3211E-03     316.219E-03    -488.369E-03    -107.397E-03     603.708E-03    -298.840E-03    -302.370E-03    -299.043E-03     600.391E-03    -298.850E-03     107.950E-03     8.06165E+06     1.14560E+06    -24.7695E+03     19.3074E+03     8.01757E+06     1.14560E+06     481.162E+03         84.7161
             786     11.0989E-03     43.9985E-03     485.507E-03    -61.0774E-03    -526.079E-03    -4.04667E-03     428.476E-03    -526.079E-03     64.9842E-03     596.951E-03    -298.496E-03    -299.200E-03    -296.551E-03     594.971E-03    -299.166E-03     83.9529E-03     9.33141E+06     1.68378E+06    -101.931E+03    -69.3718E+03     9.29885E+06     1.68378E+06     344.021E+03         80.6992
             787     10.3600E-03     43.8615E-03     597.140E-03    -121.619E-03    -561.235E-03    -94.3820E-03     569.903E-03    -561.235E-03    -192.675E-03     595.137E-03    -297.922E-03    -299.327E-03    -297.197E-03     593.666E-03    -298.581E-03     72.1489E-03     9.68471E+06     1.30490E+06    -356.849E+03    -329.401E+03     9.65727E+06     1.30490E+06     333.463E+03         77.0094
             788     9.61900E-03     43.7551E-03     745.597E-03    -256.023E-03    -591.263E-03    -226.319E-03     715.893E-03    -591.263E-03     70.3416E-03     597.805E-03    -294.848E-03    -297.515E-03    -294.597E-03     596.807E-03    -296.769E-03     59.3372E-03     9.79677E+06     676.064E+03    -398.420E+03    -379.738E+03     9.78144E+06     672.716E+03     326.181E+03         73.9689
             789     8.87809E-03     43.6685E-03     997.012E-03    -493.226E-03    -641.445E-03    -468.265E-03     940.592E-03    -609.987E-03    -125.715E-03     597.396E-03    -295.291E-03    -298.442E-03    -294.658E-03     596.763E-03    -298.442E-03     47.1354E-03     10.8316E+06     1.38879E+06    -335.669E+03    -325.122E+03     10.8244E+06     1.38544E+06     254.565E+03         71.6184
             790     8.13797E-03     43.6044E-03         1.12600    -576.094E-03    -717.047E-03    -580.434E-03         1.02949    -616.201E-03    -533.643E-03     596.715E-03    -298.711E-03    -301.739E-03    -298.344E-03     596.348E-03    -301.739E-03     35.8035E-03     11.4089E+06     1.88807E+06    -518.116E+03    -515.354E+03     11.4062E+06     1.88807E+06     151.097E+03         69.9571
             791     7.39806E-03     43.5578E-03         1.15950    -576.572E-03    -755.722E-03    -612.863E-03         1.05674    -616.680E-03    -325.552E-03     593.182E-03    -299.263E-03    -303.416E-03    -299.071E-03     592.991E-03    -303.416E-03     25.7398E-03     11.1487E+06     1.49368E+06    -749.378E+03    -747.271E+03     11.1466E+06     1.49368E+06     128.168E+03         68.8695
             792     6.65754E-03     43.5270E-03         1.35023    -605.179E-03    -854.925E-03    -795.943E-03         1.29125    -605.179E-03    -376.965E-03     592.361E-03    -298.342E-03    -301.886E-03    -298.256E-03     592.274E-03    -301.886E-03     17.0880E-03     10.8906E+06     1.36200E+06    -1.26206E+06    -1.25417E+06     10.8827E+06     1.36200E+06     278.481E+03         68.1937
             793     5.91623E-03     43.5108E-03         1.43882    -563.448E-03    -915.010E-03    -854.862E-03         1.39181    -576.592E-03    -446.230E-03     600.527E-03    -298.545E-03    -300.304E-03    -298.518E-03     600.500E-03    -300.304E-03     9.16236E-03     10.6228E+06     402.080E+03    -1.67846E+06    -1.47512E+06     10.6042E+06     217.276E+03     343.166E+03         67.7693
             794     5.17254E-03     43.5078E-03         1.40115    -527.972E-03    -894.798E-03    -793.892E-03         1.31339    -541.116E-03    -146.536E-03     606.698E-03    -298.399E-03    -301.546E-03    -300.972E-03     606.694E-03    -298.969E-03     2.09823E-03     10.1218E+06    -871.631E+03    -1.88318E+06    -1.56510E+06     10.1051E+06    -1.17301E+06     271.315E+03         67.3989
             795     4.43351E-03     43.5169E-03         1.24871    -501.595E-03    -798.802E-03    -734.163E-03         1.18701    -504.535E-03     29.4496E-03     602.999E-03    -297.387E-03    -303.798E-03    -303.794E-03     602.996E-03    -297.387E-03    -2.97857E-03     9.86116E+06    -975.018E+03    -2.06881E+06    -1.93690E+06     9.84583E+06    -1.09159E+06     335.351E+03         67.0325
             796     3.69460E-03     43.5431E-03         1.00474    -462.208E-03    -743.554E-03    -676.898E-03     941.029E-03    -465.148E-03    -413.554E-03     596.766E-03    -297.528E-03    -302.064E-03    -302.054E-03     596.756E-03    -297.528E-03    -5.88883E-03     9.57261E+06    -1.19978E+06    -2.12802E+06    -2.11368E+06     9.55827E+06    -1.19978E+06     314.339E+03         66.7543
             797     2.95586E-03     43.5673E-03         1.02558    -418.433E-03    -945.638E-03    -625.170E-03     705.115E-03    -418.433E-03     536.592E-03     594.786E-03    -297.790E-03    -299.180E-03    -298.477E-03     594.770E-03    -298.478E-03    -7.41081E-03     9.10453E+06    -1.73718E+06    -2.29851E+06    -2.27701E+06     9.09589E+06    -1.75005E+06     242.489E+03         66.5817
             798     2.21666E-03     43.6029E-03     930.347E-03    -310.377E-03    -889.623E-03    -515.845E-03     611.526E-03    -365.334E-03     817.069E-03     596.080E-03    -297.743E-03    -299.740E-03    -297.728E-03     596.065E-03    -299.740E-03    -7.43704E-03     9.01928E+06    -1.81874E+06    -2.20438E+06    -2.18398E+06     9.01175E+06    -1.83161E+06     150.258E+03         66.5119
             799     1.47748E-03     43.6491E-03     635.436E-03    -183.580E-03    -736.268E-03    -613.611E-03     567.737E-03    -238.537E-03     863.003E-06     599.552E-03    -299.028E-03    -301.123E-03    -299.018E-03     599.543E-03    -301.123E-03    -5.70500E-03     8.85156E+06    -1.91321E+06    -2.20334E+06    -2.01453E+06     8.84586E+06    -2.09632E+06     37.4516E+03         66.5399
             800     738.324E-06     43.6918E-03         1.17511     331.466E-03        -1.65852    -860.376E-03     79.7855E-03     628.637E-03        -1.35639     602.607E-03    -300.539E-03    -301.825E-03    -301.036E-03     602.603E-03    -301.325E-03    -2.75481E-03     7.77052E+06    -1.66302E+06    -2.01942E+06    -1.65674E+06     7.76424E+06    -2.01942E+06    -5.91984E+03         66.6182
             801     12.6069E-03     42.5434E-03     509.709E-03    -163.963E-03    -485.068E-03     44.5101E-03     301.236E-03    -485.068E-03    -63.7517E-03     604.310E-03    -298.550E-03    -302.693E-03    -298.963E-03     600.580E-03    -298.550E-03     115.588E-03     6.26478E+06     710.846E+03    -492.758E+03    -464.028E+03     6.23605E+06     710.846E+03     136.891E+03         88.2203
             802     11.8657E-03     42.3177E-03     645.782E-03    -260.373E-03    -540.279E-03    -174.897E-03     532.697E-03    -512.671E-03     77.0894E-03     603.330E-03    -298.668E-03    -302.265E-03    -298.819E-03     600.049E-03    -298.833E-03     107.107E-03     7.95020E+06     1.63403E+06    -44.6915E+03    -10.1930E+03     7.91570E+06     1.63403E+06     320.856E+03         84.7442
             803     11.0979E-03     42.1679E-03     785.867E-03    -384.698E-03    -557.038E-03    -355.737E-03     729.298E-03    -529.430E-03     138.936E-03     596.934E-03    -298.442E-03    -299.288E-03    -296.525E-03     595.017E-03    -299.288E-03     82.6679E-03     8.80323E+06     2.21873E+06    -108.332E+03    -83.1051E+03     8.77800E+06     2.21873E+06     323.076E+03         80.7357
             804     10.3574E-03     42.0336E-03     839.129E-03    -386.854E-03    -586.352E-03    -420.796E-03     824.450E-03    -537.732E-03    -203.053E-03     595.172E-03    -297.968E-03    -299.236E-03    -297.105E-03     593.721E-03    -298.648E-03     71.6795E-03      9.5934E+06     1.07967E+06    -288.783E+03    -262.132E+03     9.56675E+06     1.07967E+06     369.493E+03         77.0514
             805     9.61733E-03     41.9261E-03     834.933E-03    -330.194E-03    -594.557E-03    -362.278E-03     818.397E-03    -545.937E-03    -69.0780E-03     597.978E-03    -294.940E-03    -297.554E-03    -294.536E-03     596.986E-03    -296.965E-03     59.2078E-03     10.0855E+06    -209.051E+03    -391.374E+03    -358.929E+03     10.0712E+06    -227.146E+03     294.027E+03         74.0115
             806     8.87655E-03     41.8420E-03     829.015E-03    -297.968E-03    -583.138E-03    -255.891E-03     766.503E-03    -562.704E-03     58.4719E-03     597.552E-03    -295.352E-03    -298.682E-03    -294.715E-03     596.914E-03    -298.682E-03     47.3349E-03     10.9724E+06     490.409E+03    -380.903E+03    -356.530E+03     10.9661E+06     472.314E+03     207.070E+03         71.6625
             807     8.13718E-03     41.7742E-03     987.600E-03    -390.707E-03    -672.730E-03    -380.822E-03     887.893E-03    -582.908E-03    -223.029E-03     598.008E-03    -299.394E-03    -302.454E-03    -299.018E-03     597.632E-03    -302.454E-03     36.3472E-03     11.3646E+06     730.602E+03    -340.277E+03    -331.983E+03     11.3563E+06     730.602E+03     267.700E+03         70.0033
             808     7.39624E-03     41.7264E-03         1.05274    -512.225E-03    -672.803E-03    -495.614E-03     960.311E-03    -596.982E-03     67.1446E-03     593.566E-03    -299.351E-03    -303.615E-03    -299.147E-03     593.362E-03    -303.615E-03     26.6476E-03     10.8802E+06     852.971E+03    -804.794E+03    -790.715E+03     10.8661E+06     852.971E+03     371.041E+03         68.9134
             809     6.65537E-03     41.6926E-03         1.07774    -570.869E-03    -693.565E-03    -515.860E-03     936.921E-03    -607.758E-03     551.045E-03     592.970E-03    -298.675E-03    -302.054E-03    -298.578E-03     592.874E-03    -302.054E-03     18.0538E-03     10.8732E+06     1.27016E+06    -1.08957E+06    -1.07353E+06     10.8571E+06     1.27016E+06     409.560E+03         68.2383
             810     5.91598E-03     41.6789E-03         1.15757    -533.953E-03    -847.363E-03    -671.069E-03         1.05698    -609.662E-03     296.917E-03     602.466E-03    -299.658E-03    -300.942E-03    -299.625E-03     602.433E-03    -300.942E-03     10.0994E-03     10.4499E+06     250.200E+03    -1.42615E+06    -1.21447E+06     10.4230E+06     65.3950E+03     536.321E+03         67.8183
             811     5.17197E-03     41.6746E-03         1.10624    -454.599E-03    -840.564E-03    -620.181E-03         1.03604    -604.779E-03     544.883E-03     607.041E-03    -298.623E-03    -301.630E-03    -301.211E-03     607.036E-03    -299.036E-03     2.97753E-03     10.1031E+06    -571.844E+03    -1.71645E+06    -1.44810E+06     10.0757E+06    -812.827E+03     549.934E+03         67.4501
             812     4.43272E-03     41.6815E-03         1.05438    -523.411E-03    -691.142E-03    -474.191E-03     927.705E-03    -613.684E-03     845.580E-03     602.991E-03    -297.548E-03    -303.804E-03    -303.801E-03     602.988E-03    -297.548E-03    -2.47155E-03     9.92509E+06    -860.325E+03    -1.70373E+06    -1.63501E+06     9.91255E+06    -916.503E+03     354.565E+03         67.0871
             813     3.69283E-03     41.7039E-03         1.12239    -615.686E-03    -686.070E-03    -606.169E-03         1.04986    -623.053E-03     459.096E-03     597.053E-03    -297.839E-03    -302.130E-03    -302.120E-03     597.044E-03    -297.839E-03    -5.77952E-03     9.68856E+06    -1.08546E+06    -1.72217E+06    -1.71484E+06     9.68122E+06    -1.08546E+06     240.406E+03         66.8146
             814     2.95440E-03     41.7320E-03         1.25599    -617.201E-03    -797.257E-03    -632.261E-03         1.09100    -617.201E-03     699.641E-03     595.379E-03    -298.240E-03    -299.428E-03    -298.854E-03     595.365E-03    -298.799E-03    -7.24197E-03     9.43138E+06    -1.29224E+06    -1.86802E+06    -1.73486E+06     9.42708E+06    -1.42109E+06     163.871E+03         66.6457
             815     2.21604E-03     41.7669E-03         1.01073    -511.210E-03    -757.645E-03    -446.454E-03     828.933E-03    -640.607E-03     659.687E-03     596.900E-03    -298.313E-03    -299.965E-03    -298.299E-03     596.887E-03    -299.965E-03    -6.97212E-03     9.28964E+06    -1.44390E+06    -1.86164E+06    -1.73046E+06     9.28732E+06    -1.57276E+06     43.5931E+03         66.5741
             816     1.47809E-03     41.8141E-03     805.371E-03    -346.988E-03    -791.884E-03    -313.621E-03     760.129E-03    -780.008E-03     146.495E-03     600.083E-03    -299.375E-03    -301.246E-03    -299.366E-03     600.075E-03    -301.246E-03    -5.45753E-03     8.95691E+06    -1.84187E+06    -1.90849E+06    -1.85993E+06     8.95184E+06    -1.88536E+06    -133.674E+03         66.5971
             817     739.226E-06     41.8548E-03         1.83846    -142.077E-03        -1.87967        -1.26250         1.52492    -445.701E-03    -158.167E-03     602.611E-03    -300.460E-03    -301.830E-03    -301.049E-03     602.607E-03    -301.238E-03    -3.20686E-03     7.80129E+06    -1.46632E+06    -1.98362E+06    -1.76138E+06     7.78538E+06    -1.67265E+06    -246.757E+03         66.6719
             818     12.6076E-03     40.7209E-03     610.533E-03    -164.002E-03    -464.470E-03     38.3736E-03     408.157E-03    -464.470E-03    -151.237E-03     604.533E-03    -298.593E-03    -302.765E-03    -298.979E-03     600.746E-03    -298.593E-03     116.450E-03     5.91891E+06     799.380E+03    -665.708E+03    -646.744E+03     5.89994E+06     799.380E+03     93.6480E+03         88.2674
             819     11.8666E-03     40.4933E-03     670.290E-03    -241.247E-03    -507.946E-03    -210.762E-03     612.197E-03    -480.337E-03     148.508E-03     602.774E-03    -298.422E-03    -302.178E-03    -298.608E-03     599.472E-03    -298.691E-03     107.219E-03     7.25344E+06     1.62915E+06    -772.436E+03    -759.750E+03     7.24075E+06     1.62915E+06     72.6142E+03         84.7937
             820     11.0968E-03     40.3393E-03     757.729E-03    -372.699E-03    -514.375E-03    -346.234E-03     703.655E-03    -486.767E-03    -164.161E-03     596.611E-03    -298.220E-03    -299.158E-03    -296.339E-03     594.730E-03    -299.158E-03     81.8513E-03     8.62082E+06     2.03248E+06    -290.190E+03    -278.973E+03     8.60960E+06     2.03248E+06     46.2470E+03         80.7840
             821     10.3574E-03     40.2031E-03     795.228E-03    -380.952E-03    -539.905E-03    -367.218E-03     732.873E-03    -491.285E-03     9.72174E-03     595.470E-03    -298.052E-03    -299.082E-03    -296.986E-03     594.043E-03    -298.722E-03     71.0680E-03     9.56596E+06     881.736E+03    -170.786E+03    -150.893E+03     9.54607E+06     881.736E+03     7.57986E+03         77.0965
             822     9.61707E-03     40.0981E-03     820.633E-03    -360.942E-03    -548.715E-03    -322.504E-03     733.575E-03    -500.094E-03    -114.595E-03     598.065E-03    -294.761E-03    -297.469E-03    -294.138E-03     597.082E-03    -297.108E-03     58.9737E-03     10.0936E+06     205.331E+03    -35.2367E+03     47.7635E+03     10.0579E+06     158.058E+03     221.325E+03         74.0431
             823     8.87558E-03     40.0106E-03     719.463E-03    -253.087E-03    -523.169E-03    -110.094E-03     576.470E-03    -523.169E-03     71.7098E-03     596.577E-03    -294.295E-03    -298.544E-03    -293.651E-03     595.933E-03    -298.544E-03     47.5329E-03     10.9653E+06     843.060E+03    -157.384E+03     -81.026E+03     10.9362E+06     795.787E+03     418.647E+03         71.6777
             824     8.13481E-03     39.9442E-03     676.525E-03    -165.454E-03    -562.381E-03    -65.1411E-03     576.212E-03    -562.381E-03     352.219E-03     596.989E-03    -298.507E-03    -302.382E-03    -298.122E-03     596.604E-03    -302.382E-03     36.7455E-03     11.0089E+06     470.763E+03    -740.032E+03    -458.486E+03     10.9796E+06     218.492E+03     508.840E+03         70.0176
             825     7.39427E-03     39.8982E-03     820.836E-03    -292.794E-03    -605.355E-03    -190.340E-03     718.383E-03    -605.355E-03    -57.2374E-03     593.748E-03    -299.299E-03    -303.911E-03    -299.085E-03     593.533E-03    -303.911E-03     27.3819E-03     10.7257E+06     518.895E+03    -702.935E+03    -406.742E+03     10.6817E+06     266.624E+03     674.001E+03         68.9415
             826     6.65301E-03     39.8645E-03     907.192E-03    -397.686E-03    -651.259E-03    -199.528E-03     709.034E-03    -651.259E-03     361.539E-03     593.395E-03    -298.733E-03    -302.356E-03    -298.626E-03     593.287E-03    -302.356E-03     19.0897E-03     10.9818E+06     1.24331E+06    -699.800E+03    -660.913E+03     10.9429E+06     1.24331E+06      637.72E+03         68.2833
             827     5.91345E-03     39.8483E-03     829.610E-03    -319.354E-03    -707.335E-03    -217.136E-03     727.392E-03    -707.335E-03     431.430E-03     603.099E-03    -299.934E-03    -301.256E-03    -299.895E-03     603.060E-03    -301.256E-03     11.2594E-03     10.4247E+06     344.415E+03    -1.35312E+06    -1.18760E+06     10.4059E+06     197.709E+03     448.474E+03         67.8735
             828     5.16973E-03     39.8436E-03         1.01110    -445.618E-03    -776.955E-03    -426.196E-03     977.050E-03    -762.328E-03     226.482E-03     607.840E-03    -298.921E-03    -302.155E-03    -301.809E-03     607.832E-03    -299.260E-03     4.19662E-03     10.2103E+06    -357.812E+03    -1.35622E+06    -1.13750E+06     10.1945E+06    -560.696E+03     407.682E+03         67.5110
             829     4.43101E-03     39.8512E-03         1.34752    -709.918E-03    -847.037E-03    -666.956E-03         1.25477    -797.249E-03     406.746E-03     603.746E-03    -297.787E-03    -304.701E-03    -304.698E-03     603.743E-03    -297.787E-03    -1.55452E-03     10.3018E+06    -375.086E+03    -1.05215E+06    -980.674E+03     10.2865E+06    -431.265E+03     414.513E+03         67.1596
             830     3.69300E-03     39.8746E-03         1.50403    -767.803E-03    -875.677E-03    -742.624E-03         1.41838    -815.207E-03     163.573E-03     597.540E-03    -298.149E-03    -302.749E-03    -302.740E-03     597.531E-03    -298.149E-03    -5.52879E-03     9.86040E+06    -813.602E+03    -1.31677E+06    -1.26043E+06     9.84713E+06    -856.664E+03     339.273E+03         66.9009
             831     2.95425E-03     39.8969E-03         1.58330    -762.527E-03    -882.863E-03    -760.870E-03         1.52950    -830.729E-03     61.8135E-03     595.814E-03    -298.292E-03    -299.703E-03    -298.857E-03     595.799E-03    -299.122E-03    -7.39038E-03     9.52538E+06    -1.23726E+06    -1.48056E+06    -1.30077E+06      9.5175E+06    -1.40917E+06     229.936E+03         66.7353
             832     2.21531E-03     39.9325E-03         1.65789    -729.750E-03        -1.02057    -885.430E-03         1.62242    -829.414E-03    -28.0220E-03     597.398E-03    -298.255E-03    -300.309E-03    -298.241E-03     597.384E-03    -300.309E-03    -6.96770E-03     9.29161E+06    -1.35009E+06    -1.74956E+06    -1.37233E+06      9.2887E+06    -1.72440E+06     164.864E+03         66.6595
             833     1.47707E-03     39.9764E-03         1.64105    -454.775E-03        -1.23108    -793.996E-03         1.58204    -832.839E-03    -332.609E-03     600.702E-03    -299.652E-03    -301.514E-03    -299.645E-03     600.695E-03    -301.514E-03    -4.97056E-03     9.22238E+06    -1.20730E+06    -1.77446E+06    -1.21668E+06     9.21518E+06    -1.75787E+06     93.2175E+03         66.6823
             834     739.014E-06     40.0224E-03         2.73347    -911.688E-03        -1.91778    -475.649E-03         1.62254        -1.24288         1.93065     603.114E-03    -300.652E-03    -302.024E-03    -301.018E-03     603.112E-03    -301.656E-03    -2.06116E-03     8.13729E+06    -785.916E+03    -1.72415E+06    -1.07883E+06     8.11923E+06    -1.41317E+06    -154.748E+03         66.7610
             835     12.6060E-03     38.8983E-03     740.331E-03    -329.039E-03    -444.835E-03    -246.324E-03     601.787E-03    -389.006E-03    -358.204E-03     604.135E-03    -298.234E-03    -302.468E-03    -298.689E-03     600.356E-03    -298.234E-03     116.188E-03     5.90715E+06     699.259E+03    -315.357E+03    -288.275E+03     5.88006E+06     699.259E+03     311.396E+03         88.3349
             836     11.8656E-03     38.6681E-03     518.704E-03    -177.181E-03    -394.364E-03    -100.428E-03     438.903E-03    -391.317E-03    -23.2637E-03     602.098E-03    -298.011E-03    -301.844E-03    -298.245E-03     598.761E-03    -298.273E-03     107.739E-03     7.48278E+06     1.49200E+06    -54.7848E+03    -33.2130E+03     7.46121E+06     1.49200E+06    -15.6164E+03         84.8643
             837     11.0972E-03     38.5134E-03     414.626E-03    -71.8386E-03    -406.409E-03     29.9448E-03     312.843E-03    -406.409E-03    -247.010E-03     596.472E-03    -297.748E-03    -299.163E-03    -295.839E-03     594.564E-03    -299.163E-03     82.4247E-03     8.55491E+06     1.71582E+06     291.289E+03     327.798E+03     8.51840E+06     1.71582E+06    -423.584E+03         80.8479
             838     10.3570E-03     38.3760E-03     427.628E-03    -84.5110E-03    -431.418E-03     19.9162E-03     323.201E-03    -431.418E-03     137.202E-03     595.423E-03    -297.551E-03    -298.978E-03    -296.188E-03     593.972E-03    -298.889E-03     71.6447E-03     8.69631E+06     668.887E+03    -278.494E+03     176.184E+03     8.64202E+06     268.496E+03    -186.177E+03         77.1456
             839     9.61597E-03     38.2684E-03     571.920E-03    -227.035E-03    -458.636E-03    -69.4782E-03     414.363E-03    -458.636E-03    -185.738E-03     597.687E-03    -294.282E-03    -297.209E-03    -293.361E-03     596.677E-03    -297.121E-03     59.7612E-03     9.56222E+06     32.8257E+03    -532.557E+03    -56.1341E+03     9.51872E+06    -400.092E+03     273.836E+03         74.0752
             840     8.87367E-03     38.1811E-03     759.149E-03    -371.128E-03    -523.323E-03    -263.721E-03     608.073E-03    -479.654E-03    -164.277E-03     595.845E-03    -293.807E-03    -298.630E-03    -293.135E-03     595.173E-03    -298.630E-03     48.5173E-03     10.6025E+06     771.893E+03    -225.985E+03    -144.918E+03     10.5540E+06     739.366E+03     644.534E+03         71.6941
             841     8.13303E-03     38.1166E-03     748.838E-03    -289.864E-03    -562.169E-03    -295.470E-03     686.865E-03    -494.590E-03     102.647E-03     595.320E-03    -297.850E-03    -302.154E-03    -297.445E-03     594.914E-03    -302.154E-03     37.6855E-03     10.6827E+06     1.39880E+06    -567.361E+03    -260.872E+03     10.6285E+06     1.14653E+06     763.578E+03         70.0251
             842     7.39184E-03     38.0668E-03     785.706E-03    -259.158E-03    -540.552E-03    -185.209E-03     687.847E-03    -516.642E-03    -537.942E-03     592.345E-03    -298.461E-03    -303.665E-03    -298.231E-03     592.115E-03    -303.665E-03     28.3590E-03     10.8661E+06     1.50175E+06    -713.463E+03    -416.295E+03     10.8212E+06     1.24948E+06     661.434E+03         68.9593
             843     6.65092E-03     38.0319E-03     914.425E-03    -302.514E-03    -558.492E-03    -204.002E-03     806.301E-03    -548.879E-03    -452.707E-03     593.751E-03    -298.501E-03    -302.856E-03    -298.384E-03     593.634E-03    -302.856E-03     20.0084E-03     10.9971E+06     1.41818E+06    -610.591E+03    -368.495E+03     10.9633E+06     1.20990E+06     558.346E+03         68.3235
             844     5.91041E-03     38.0112E-03         1.03046    -269.187E-03    -687.250E-03    -327.553E-03     983.036E-03    -581.459E-03    -320.823E-03     603.863E-03    -300.029E-03    -301.773E-03    -299.986E-03     603.821E-03    -301.773E-03     11.7082E-03     10.6744E+06     395.607E+03    -715.035E+03    -341.533E+03     10.6559E+06     40.6167E+03     430.882E+03         67.9263
             845     5.16667E-03     38.0099E-03         1.19902    -433.288E-03    -715.376E-03    -495.749E-03         1.15068    -604.571E-03    -416.787E-03     608.823E-03    -299.204E-03    -302.744E-03    -302.277E-03     608.815E-03    -299.663E-03     4.67525E-03     10.4003E+06    -268.822E+03    -896.762E+03    -564.668E+03     10.3855E+06    -586.109E+03     385.670E+03         67.5718
             846     4.42909E-03     38.0178E-03         1.27132    -607.290E-03    -689.515E-03    -637.702E-03         1.22426    -612.044E-03    -439.800E-03     604.855E-03    -298.297E-03    -305.451E-03    -305.450E-03     604.853E-03    -298.297E-03    -458.887E-06     10.3404E+06    -198.860E+03    -935.105E+03    -740.426E+03     10.3163E+06    -369.441E+03     494.382E+03         67.2374
             847     3.69150E-03     38.0389E-03         1.22511    -571.928E-03    -711.265E-03    -605.704E-03         1.16252    -614.906E-03    -643.956E-03     598.411E-03    -298.722E-03    -303.399E-03    -303.394E-03     598.406E-03    -298.722E-03    -4.03380E-03     10.0982E+06    -469.044E+03    -897.278E+03    -824.513E+03     10.0685E+06    -512.106E+03     557.109E+03         66.9983
             848     2.95354E-03     38.0645E-03         1.21524    -563.417E-03    -669.723E-03    -553.979E-03         1.16770    -631.619E-03    -444.912E-03     596.605E-03    -298.612E-03    -300.203E-03    -299.205E-03     596.594E-03    -299.599E-03    -6.00606E-03     9.98882E+06    -660.712E+03    -824.632E+03    -686.541E+03     9.96297E+06    -772.955E+03     499.863E+03         66.8440
             849     2.21505E-03     38.1010E-03         1.43833    -601.430E-03    -807.993E-03    -763.612E-03         1.41917    -626.654E-03    -10.1563E-03     598.101E-03    -298.405E-03    -300.746E-03    -298.394E-03     598.089E-03    -300.746E-03    -6.37377E-03     9.80646E+06    -682.678E+03    -1.09949E+06    -762.013E+03     9.78362E+06    -997.319E+03     422.937E+03         66.7730
             850     1.47622E-03     38.1439E-03         1.71990    -509.464E-03        -1.05799    -919.213E-03         1.58113    -509.464E-03    -720.830E-03     601.296E-03    -299.786E-03    -301.981E-03    -299.778E-03     601.289E-03    -301.981E-03    -5.07151E-03     9.16494E+06    -1.05608E+06    -1.71815E+06    -1.15446E+06     9.15023E+06    -1.60506E+06     335.185E+03         66.7984
             851     737.212E-06     38.1858E-03         2.10684    -687.024E-03        -1.28982     70.3899E-03     977.660E-03    -918.048E-03     760.429E-03     604.167E-03    -300.953E-03    -302.688E-03    -300.951E-03     604.165E-03    -302.688E-03    -2.39896E-03     8.38042E+06    -511.275E+03    -1.19057E+06    -523.708E+03     8.37336E+06    -1.17107E+06     198.756E+03         66.8785
             852     12.6075E-03     37.0732E-03     608.356E-03    -297.053E-03    -486.511E-03     64.7864E-03     57.0588E-03    -297.053E-03    -14.9397E-03     604.434E-03    -297.883E-03    -302.398E-03    -298.629E-03     600.665E-03    -297.883E-03     115.844E-03     6.45901E+06     1.27949E+06     105.241E+03     216.539E+03     6.34771E+06     1.27949E+06    -269.446E+03         88.4063
             853     11.8669E-03     36.8428E-03     379.307E-03    -117.818E-03    -330.652E-03     75.7921E-03     166.657E-03    -311.613E-03     82.3211E-03     602.238E-03    -297.714E-03    -301.553E-03    -297.632E-03     598.821E-03    -298.219E-03     109.009E-03     7.54378E+06     1.86872E+06    -140.602E+03     729.137E+03     7.42764E+06     1.11513E+06    -418.182E+03         84.9406
             854     11.0975E-03     36.6869E-03     379.556E-03    -15.1967E-03    -342.579E-03     71.0473E-03     282.997E-03    -332.265E-03     198.853E-03     596.877E-03    -297.382E-03    -299.701E-03    -295.397E-03     594.893E-03    -299.701E-03     84.0648E-03     7.66690E+06     1.08565E+06    -428.183E+03     429.227E+03     7.56309E+06     332.052E+03     53.0320E+03         80.9140
             855     10.3566E-03     36.5493E-03     518.867E-03    -111.455E-03    -370.144E-03    -15.8172E-03     405.919E-03    -352.834E-03     91.1452E-03     594.676E-03    -296.711E-03    -299.065E-03    -295.207E-03     593.171E-03    -299.065E-03     72.8237E-03     8.05007E+06     35.7220E+03    -669.833E+03    -154.614E+03     7.93524E+06    -364.669E+03     387.419E+03         77.1921
             856     9.61365E-03     36.4409E-03     670.099E-03    -215.681E-03    -459.870E-03    -161.067E-03     522.263E-03    -366.648E-03    -101.954E-03     597.232E-03    -293.811E-03    -297.371E-03    -292.775E-03     596.196E-03    -297.371E-03     60.5149E-03     9.05993E+06    -191.427E+03    -719.936E+03    -281.561E+03     9.02195E+06    -591.818E+03     471.190E+03         74.1137
             857     8.87168E-03     36.3544E-03     831.090E-03    -334.467E-03    -533.627E-03    -384.828E-03     715.152E-03    -367.329E-03    -70.0157E-03     596.335E-03    -294.325E-03    -299.411E-03    -293.620E-03     595.631E-03    -299.411E-03     49.7766E-03     10.0833E+06     284.169E+03    -386.358E+03    -346.130E+03     10.0430E+06     284.169E+03     509.111E+03         71.7283
             858     8.13047E-03     36.2862E-03     849.900E-03    -355.300E-03    -498.774E-03    -473.662E-03     824.788E-03    -355.300E-03    -185.427E-03     594.997E-03    -297.984E-03    -302.454E-03    -297.544E-03     594.558E-03    -302.454E-03     39.2642E-03     10.6276E+06     1.31297E+06    -358.761E+03    -326.298E+03     10.5952E+06     1.31297E+06     399.212E+03         70.0418
             859     7.38976E-03     36.2372E-03     994.678E-03    -304.452E-03    -607.192E-03    -551.543E-03     968.710E-03    -334.132E-03    -216.543E-03     592.566E-03    -298.276E-03    -304.033E-03    -298.023E-03     592.313E-03    -304.033E-03     29.7082E-03     10.9715E+06     1.69645E+06    -309.080E+03    -57.4372E+03     10.9500E+06     1.46627E+06     334.881E+03         68.9710
             860     6.64843E-03     36.2014E-03         1.14364    -271.741E-03    -684.091E-03    -618.461E-03         1.10769    -301.422E-03    -387.027E-03     595.646E-03    -299.017E-03    -303.678E-03    -298.889E-03     595.518E-03    -303.678E-03     20.9101E-03     10.8518E+06     1.32276E+06    -482.266E+03    -22.9350E+03     10.8309E+06     884.292E+03     456.586E+03         68.3522
             861     5.90813E-03     36.1813E-03         1.14207    -264.394E-03    -604.482E-03    -524.818E-03         1.06240    -264.394E-03    -291.112E-03     605.002E-03    -300.041E-03    -302.123E-03    -299.992E-03     604.953E-03    -302.123E-03     12.6136E-03     10.8065E+06     663.691E+03    -430.175E+03    -89.1509E+03     10.7792E+06     350.018E+03     543.148E+03         67.9703
             862     5.16414E-03     36.1769E-03         1.05038    -235.960E-03    -547.448E-03    -329.861E-03     837.549E-03    -240.714E-03    -570.863E-03     609.765E-03    -299.491E-03    -303.243E-03    -302.458E-03     609.753E-03    -300.264E-03     5.78816E-03     10.4544E+06    -181.763E+03    -568.792E+03    -260.424E+03     10.4220E+06    -457.734E+03     572.760E+03         67.6295
             863     4.42601E-03     36.1840E-03     895.235E-03    -240.210E-03    -447.536E-03    -133.418E-03     585.871E-03    -244.965E-03    -450.968E-03     605.612E-03    -299.059E-03    -305.594E-03    -305.592E-03     605.610E-03    -299.059E-03     563.713E-06     10.3559E+06    -120.229E+03    -618.899E+03    -415.004E+03     10.3226E+06    -290.811E+03     570.604E+03         67.3164
             864     3.68811E-03     36.2056E-03     868.238E-03    -259.966E-03    -421.677E-03    -234.209E-03     680.770E-03    -259.966E-03    -196.963E-03     599.595E-03    -299.572E-03    -303.548E-03    -303.545E-03     599.592E-03    -299.572E-03    -3.03196E-03     10.4379E+06     55.2954E+03    -353.471E+03    -328.810E+03     10.4133E+06     55.2954E+03     484.372E+03         67.1022
             865     2.95055E-03     36.2301E-03     805.771E-03    -250.417E-03    -427.625E-03    -383.490E-03     761.636E-03    -250.417E-03    -328.595E-03     598.140E-03    -299.584E-03    -300.887E-03    -299.999E-03     598.133E-03    -300.466E-03    -4.86007E-03     10.1526E+06    -208.268E+03    -570.565E+03    -476.090E+03     10.1273E+06    -277.449E+03     493.716E+03         66.9709
             866     2.21335E-03     36.2639E-03     815.504E-03    -268.368E-03    -372.307E-03    -95.1822E-03     538.379E-03    -268.368E-03     248.990E-03     599.937E-03    -299.554E-03    -301.600E-03    -299.545E-03     599.929E-03    -301.600E-03    -5.43857E-03     10.1470E+06    -170.891E+03    -524.750E+03    -429.118E+03     10.1205E+06    -240.071E+03     452.276E+03         66.9163
             867     1.47578E-03     36.3074E-03         1.23525    -365.337E-03    -578.504E-03    -110.629E-03     767.376E-03    -365.337E-03     278.279E-03     603.209E-03    -301.001E-03    -302.614E-03    -300.994E-03     603.203E-03    -302.614E-03    -4.77993E-03     9.90526E+06    -357.277E+03    -534.640E+03    -451.965E+03     9.88421E+06    -418.902E+03     372.000E+03         66.9424
             868     738.269E-06     36.3466E-03         1.98768    -451.773E-03        -1.26220    -189.962E-03         1.11889    -655.224E-03        -1.63099     605.192E-03    -301.620E-03    -303.127E-03    -301.618E-03     605.189E-03    -303.127E-03    -2.55621E-03     8.64038E+06    -310.721E+03    -478.968E+03    -316.045E+03     8.62621E+06    -459.474E+03     311.588E+03         67.0129
             869     12.6081E-03     35.2458E-03     432.603E-03    -178.771E-03    -368.509E-03     303.117E-03    -213.981E-03    -203.813E-03     368.674E-03     604.680E-03    -298.011E-03    -302.145E-03    -298.313E-03     600.849E-03    -298.011E-03     116.678E-03     6.26979E+06     1.39376E+06    -941.538E+03     746.303E+03     5.90647E+06     69.2373E+03    -1.05817E+06         88.4533
             870     11.8650E-03     35.0174E-03     280.278E-03    -49.7833E-03    -235.683E-03     204.568E-03     9.93432E-03    -219.691E-03     135.914E-03     601.673E-03    -297.342E-03    -301.290E-03    -297.023E-03     598.151E-03    -298.086E-03     110.642E-03     6.87987E+06     843.561E+03    -1.46087E+06     37.5051E+03     6.40083E+06    -175.777E+03    -532.088E+03         84.9873
             871     11.0972E-03     34.8600E-03     357.920E-03    -34.2933E-03    -239.479E-03     21.3546E-03     291.958E-03    -229.165E-03     162.348E-03     596.499E-03    -296.515E-03    -299.684E-03    -294.454E-03     594.438E-03    -299.684E-03     85.6258E-03     7.40280E+06     803.456E+03    -931.751E+03     16.1104E+03     7.20854E+06     49.8575E+03     831.445E+03         80.9449
             872     10.3540E-03     34.7232E-03     563.511E-03    -163.260E-03    -248.755E-03    -94.7246E-03     477.665E-03    -231.445E-03    -52.4293E-03     594.476E-03    -296.296E-03    -299.275E-03    -294.730E-03     592.911E-03    -299.275E-03     74.2362E-03     8.14009E+06     562.073E+03     47.2526E+03     134.031E+03     8.05331E+06     562.073E+03     504.813E+03         77.2058
             873     9.61187E-03     34.6135E-03     749.474E-03    -208.336E-03    -349.650E-03    -236.644E-03     654.648E-03    -226.516E-03     200.716E-03     597.023E-03    -293.829E-03    -297.873E-03    -292.755E-03     595.950E-03    -297.873E-03     61.5900E-03     8.90482E+06     512.319E+03     221.945E+03     259.474E+03     8.86729E+06     512.319E+03     306.691E+03         74.1261
             874     8.86863E-03     34.5260E-03     829.674E-03    -214.591E-03    -416.792E-03    -311.577E-03     724.459E-03    -214.591E-03     95.2322E-03     597.149E-03    -294.573E-03    -300.337E-03    -293.827E-03     596.403E-03    -300.337E-03     51.3028E-03     10.0575E+06     1.01978E+06     167.894E+03     499.321E+03     10.0279E+06     717.936E+03     258.096E+03         71.7415
             875     8.12705E-03     34.4569E-03     872.001E-03    -197.155E-03    -477.824E-03    -362.738E-03     756.915E-03    -197.155E-03     63.6196E-03     595.750E-03    -298.189E-03    -303.156E-03    -297.706E-03     595.267E-03    -303.156E-03     41.2077E-03     10.8427E+06     1.42401E+06     183.453E+03     511.424E+03     10.8166E+06     1.12217E+06     324.661E+03         70.0432
             876     7.38658E-03     34.4013E-03     958.216E-03    -168.002E-03    -598.685E-03    -513.404E-03     872.934E-03    -168.002E-03     450.776E-03     592.836E-03    -298.099E-03    -304.378E-03    -297.811E-03     592.548E-03    -304.378E-03     31.7281E-03     10.7394E+06     1.25949E+06    -105.660E+03     152.681E+03     10.7112E+06     1.02931E+06     334.362E+03         68.9668
             877     6.64558E-03     34.3682E-03     849.460E-03    -126.646E-03    -537.388E-03    -513.721E-03     825.794E-03    -126.646E-03     24.8761E-03     596.579E-03    -298.862E-03    -304.002E-03    -298.707E-03     596.424E-03    -304.002E-03     23.0793E-03     10.5467E+06     1.20357E+06    -500.333E+03    -15.8226E+03     10.5289E+06     736.895E+03     390.400E+03         68.3620
             878     5.90423E-03     34.3473E-03     694.843E-03    -91.9577E-03    -381.227E-03    -287.630E-03     601.246E-03    -91.9577E-03     283.587E-03     606.588E-03    -300.034E-03    -302.506E-03    -299.968E-03     606.522E-03    -302.506E-03     14.8711E-03     10.5879E+06     717.971E+03    -475.778E+03    -101.462E+03     10.5554E+06     376.087E+03     576.235E+03         68.0009
             879     5.16032E-03     34.3419E-03     774.947E-03    -68.8255E-03    -446.154E-03    -219.253E-03     548.045E-03    -68.8255E-03     133.137E-03     611.088E-03    -300.034E-03    -303.696E-03    -302.758E-03     611.068E-03    -300.952E-03     7.71754E-03     10.6066E+06     161.507E+03    -214.423E+03    -70.8241E+03     10.5684E+06     56.1176E+03     612.814E+03         67.6827
             880     4.42300E-03     34.3504E-03     881.757E-03    -42.5477E-03    -520.673E-03    -232.946E-03     594.030E-03    -42.5477E-03    -57.5848E-03     606.588E-03    -299.916E-03    -305.857E-03    -305.854E-03     606.585E-03    -299.916E-03     1.99932E-03     10.7456E+06     525.912E+03     6.04448E+03     27.3922E+03     10.7243E+06     525.912E+03     438.259E+03         67.3989
             881     3.68536E-03     34.3679E-03     790.920E-03    -21.5711E-03    -403.277E-03    -86.3237E-03     473.967E-03    -21.5711E-03     283.763E-03     600.877E-03    -300.587E-03    -303.912E-03    -303.910E-03     600.875E-03    -300.587E-03    -1.92974E-03     10.6022E+06     548.041E+03     40.0618E+03     47.0179E+03     10.5952E+06     548.041E+03     239.215E+03         67.2186
             882     2.94791E-03     34.3958E-03     738.284E-03    -14.0490E-03    -395.765E-03    -40.2464E-03     382.765E-03    -14.0490E-03    -350.655E-03     600.062E-03    -300.579E-03    -301.716E-03    -300.702E-03     600.056E-03    -301.589E-03    -4.30569E-03     10.4469E+06     363.258E+03    -37.5854E+03     81.9271E+03     10.4398E+06     250.774E+03     198.916E+03         67.1192
             883     2.21080E-03     34.4250E-03     768.441E-03    -26.6230E-03    -414.990E-03     50.8468E-03     302.604E-03    -26.6230E-03    -103.082E-03     602.300E-03    -300.653E-03    -302.648E-03    -300.646E-03     602.293E-03    -302.648E-03    -5.08912E-03     10.1858E+06     188.799E+03    -273.903E+03       5.305E+03     10.1782E+06    -82.8221E+03     197.707E+03         67.0845
             884     1.47444E-03     34.4683E-03     939.690E-03    -112.327E-03    -535.585E-03     153.801E-03     250.303E-03    -112.327E-03         1.10110     605.440E-03    -302.349E-03    -303.529E-03    -302.344E-03     605.435E-03    -303.529E-03    -4.17072E-03     10.3617E+06     539.096E+03     85.9346E+03     552.657E+03     10.3455E+06     88.5803E+03     322.765E+03         67.1099
             885     737.707E-06     34.5072E-03         1.85195    -138.464E-03        -1.51708    -282.541E-03     617.404E-03    -138.464E-03        -1.58827     606.932E-03    -302.672E-03    -303.988E-03    -302.670E-03     606.931E-03    -303.988E-03    -1.75571E-03     9.37751E+06     800.639E+03     450.171E+03     815.823E+03     9.36232E+06     450.171E+03     317.751E+03         67.1698
             886     12.6056E-03     33.4213E-03     576.888E-03    -68.8439E-03    -464.666E-03    -241.517E-03     378.781E-03    -93.8861E-03     67.2499E-03     604.290E-03    -298.214E-03    -301.826E-03    -297.967E-03     600.432E-03    -298.214E-03     117.202E-03     5.47615E+06     666.462E+03    -1.24091E+06     1.00817E+06     5.13444E+06    -1.24091E+06    -538.371E+03         88.4328
             887     11.8638E-03     33.1945E-03     393.569E-03     4.47474E-03    -359.309E-03    -87.9809E-03     200.387E-03    -73.6713E-03    -93.3470E-03     600.699E-03    -296.562E-03    -300.838E-03    -296.063E-03     597.163E-03    -297.802E-03     110.957E-03     6.16768E+06    -83.6235E+03    -1.24515E+06    -517.350E+03     5.75978E+06    -403.513E+03    -374.437E+03         84.9578
             888     11.0959E-03     33.0382E-03     237.367E-03     41.2528E-03    -201.209E-03     77.2768E-03     61.9907E-03    -61.8570E-03     213.195E-03     595.305E-03    -295.442E-03    -299.278E-03    -293.291E-03     593.154E-03    -299.278E-03     87.3666E-03     7.40603E+06     659.692E+03    -521.966E+03    -375.218E+03     7.25928E+06     659.692E+03     195.772E+03         80.8986
             889     10.3520E-03     32.8957E-03     365.336E-03     13.6431E-03    -224.123E-03     14.3347E-03     195.064E-03    -54.5424E-03     252.161E-03     593.767E-03    -296.000E-03    -299.325E-03    -294.335E-03     592.102E-03    -299.325E-03     76.5308E-03     8.67015E+06     437.141E+03    -29.8955E+03     66.3955E+03     8.64009E+06     370.909E+03    -153.356E+03         77.1503
             890     9.60840E-03     32.7882E-03     558.159E-03    -27.2735E-03    -299.510E-03    -19.6324E-03     296.460E-03    -45.4531E-03     132.019E-03     596.633E-03    -293.461E-03    -298.069E-03    -292.292E-03     595.465E-03    -298.069E-03     64.2213E-03     9.23459E+06     436.017E+03    -680.187E+03     242.283E+03     9.20356E+06    -455.419E+03    -49.6265E+03         74.0720
             891     8.86557E-03     32.6987E-03     621.057E-03    -39.7754E-03    -292.294E-03     44.4712E-03     284.291E-03    -39.7754E-03    -111.583E-03     597.094E-03    -293.717E-03    -300.731E-03    -292.891E-03     596.268E-03    -300.731E-03     53.9499E-03     9.65809E+06     969.467E+03    -853.516E+03     284.734E+03     9.64689E+06    -157.576E+03     41.5796E+03         71.6928
             892     8.12316E-03     32.6286E-03     631.372E-03    -36.3222E-03    -301.996E-03    -26.1389E-03     355.515E-03    -36.3222E-03     301.517E-03     596.135E-03    -297.962E-03    -303.977E-03    -297.415E-03     595.589E-03    -303.977E-03     43.8823E-03     10.4675E+06     1.62120E+06    -40.4303E+03     286.586E+03     10.4423E+06     1.31936E+06     278.720E+03         70.0057
             893     7.38208E-03     32.5768E-03     582.518E-03    -34.2937E-03    -306.634E-03     9.09188E-03     266.792E-03    -34.2937E-03     300.884E-03     593.109E-03    -298.050E-03    -304.943E-03    -297.707E-03     592.767E-03    -304.943E-03     34.6273E-03     10.6982E+06     1.74366E+06     168.277E+03     201.088E+03     10.6654E+06     1.74366E+06     399.262E+03         68.9474
             894     6.64022E-03     32.5372E-03     428.180E-03    -41.1049E-03    -173.569E-03     86.9040E-03     167.707E-03    -41.1049E-03    -105.122E-03     598.320E-03    -299.133E-03    -304.803E-03    -298.940E-03     598.126E-03    -304.803E-03     25.9154E-03     10.4787E+06     1.18954E+06    -110.546E+03     145.686E+03     10.4589E+06     953.040E+03     381.518E+03         68.3659
             895     5.89988E-03     32.5160E-03     420.979E-03    -47.6137E-03    -183.092E-03    -39.5636E-03     277.451E-03    -47.6137E-03    -22.7520E-03     609.900E-03    -301.001E-03    -303.809E-03    -300.912E-03     609.811E-03    -303.809E-03     17.5001E-03     10.4789E+06     600.254E+03    -113.170E+03     145.565E+03     10.4567E+06     363.759E+03     303.636E+03         68.0308
             896     5.15543E-03     32.5091E-03     635.840E-03    -34.9275E-03    -387.289E-03    -213.083E-03     461.634E-03    -34.9275E-03     439.998E-03     612.858E-03    -300.778E-03    -304.516E-03    -303.336E-03     612.827E-03    -301.928E-03     9.76235E-03     10.8217E+06     665.023E+03     365.839E+03     435.369E+03     10.8026E+06     614.536E+03     144.140E+03         67.7411
             897     4.41771E-03     32.5140E-03     891.199E-03     154.013E-06    -596.621E-03    -265.210E-03     559.788E-03     154.013E-06    -98.2307E-03     608.151E-03    -300.958E-03    -306.510E-03    -306.505E-03     608.145E-03    -300.958E-03     3.60710E-03     10.9438E+06     980.049E+03     499.945E+03     556.531E+03     10.9377E+06     929.563E+03     58.5741E+03         67.4921
             898     3.68107E-03     32.5359E-03     905.749E-03     34.0126E-03    -610.980E-03    -79.2729E-03     374.042E-03     34.0126E-03     125.763E-03     602.636E-03    -301.703E-03    -304.832E-03    -304.676E-03     602.635E-03    -301.858E-03    -483.064E-06     10.6244E+06     775.017E+03     306.542E+03     398.570E+03     10.6207E+06     686.698E+03     97.3299E+03         67.3499
             899     2.94482E-03     32.5545E-03     779.825E-03     50.2290E-03    -472.871E-03     14.7111E-03     292.242E-03     50.2290E-03     159.678E-03     602.412E-03    -301.518E-03    -302.937E-03    -301.524E-03     602.409E-03    -302.928E-03    -3.23735E-03     10.4476E+06     547.447E+03     245.613E+03     511.073E+03     10.4456E+06     283.961E+03     110.066E+03         67.2836
             900     2.20899E-03     32.5869E-03     703.871E-03     103.649E-03    -471.003E-03    -193.316E-03     426.185E-03     103.649E-03    -41.1939E-03     604.748E-03    -301.540E-03    -303.876E-03    -301.535E-03     604.743E-03    -303.876E-03    -4.31029E-03     10.4432E+06     669.102E+03     249.962E+03     587.179E+03     10.4403E+06     334.799E+03     129.341E+03         67.2689
             901     1.47247E-03     32.6251E-03     734.936E-03     239.626E-03    -799.693E-03    -118.371E-03     53.6134E-03     239.626E-03     160.916E-03     607.564E-03    -303.176E-03    -305.005E-03    -303.172E-03     607.560E-03    -305.005E-03    -3.63082E-03     10.3626E+06     840.095E+03     254.942E+03     650.857E+03     10.3556E+06     451.204E+03     116.163E+03         67.2935
             902     735.909E-06     32.6698E-03         1.27142     582.313E-03        -1.69460    -394.278E-03    -445.583E-03     998.993E-03    -55.8224E-03     610.084E-03    -304.156E-03    -305.612E-03    -304.155E-03     610.083E-03    -305.612E-03    -1.59750E-03     9.52870E+06     1.28062E+06     785.826E+03     1.03092E+06     9.51946E+06     1.04476E+06     150.302E+03         67.3437
             903     12.6042E-03     31.5973E-03     587.826E-03     55.1950E-03    -519.771E-03    -137.929E-03     205.984E-03     55.1950E-03    -215.441E-03     603.511E-03    -298.443E-03    -301.778E-03    -297.898E-03     599.631E-03    -298.443E-03     117.569E-03     5.03902E+06     691.614E+03    -598.177E+03     213.409E+03     4.94693E+06    -27.8812E+03    -37.2595E+03         88.3192
             904     11.8614E-03     31.3831E-03     553.808E-03     89.5461E-03    -515.393E-03    -235.600E-03     274.015E-03     89.5461E-03    -413.935E-03     600.627E-03    -296.626E-03    -300.807E-03    -295.720E-03     597.070E-03    -298.156E-03     111.406E-03     6.50324E+06     1.14921E+06    -26.4333E+03     56.0659E+03     6.47489E+06     1.09506E+06    -310.897E+03         84.8314
             905     11.0960E-03     31.2248E-03     384.266E-03     103.670E-03    -364.392E-03    -136.436E-03     135.315E-03     124.666E-03    -107.940E-03     594.811E-03    -295.233E-03    -299.497E-03    -292.979E-03     592.557E-03    -299.497E-03     89.4208E-03     7.71829E+06     795.784E+03    -50.3446E+03     167.210E+03     7.69551E+06     601.003E+03    -224.831E+03         80.7709
             906     10.3478E-03     31.0853E-03     362.366E-03     130.575E-03    -360.026E-03     66.4117E-03    -85.0667E-03     151.570E-03     351.078E-03     592.875E-03    -295.413E-03    -299.421E-03    -293.607E-03     591.069E-03    -299.421E-03     79.7021E-03     8.40829E+06     139.494E+03    -378.704E+03     53.4167E+03     8.39423E+06    -278.558E+03    -225.860E+03         77.0314
             907     9.60360E-03     30.9733E-03     514.944E-03     165.357E-03    -519.422E-03     237.553E-03    -242.031E-03     165.357E-03    -112.966E-03     596.657E-03    -292.776E-03    -298.416E-03    -291.468E-03     595.349E-03    -298.416E-03     67.9618E-03     8.71865E+06     169.596E+03    -1.16610E+06    -96.2057E+03     8.69723E+06    -878.878E+03    -245.045E+03         73.9601
             908     8.86091E-03     30.8755E-03     560.179E-03     166.296E-03    -518.883E-03     341.451E-03    -300.155E-03     166.296E-03    -8.73255E-03     596.493E-03    -292.768E-03    -300.998E-03    -291.840E-03     595.566E-03    -300.998E-03     57.0717E-03     9.29803E+06     824.687E+03    -995.945E+03    -158.170E+03     9.28546E+06        -515.520    -182.219E+03         71.5933
             909     8.11809E-03     30.8018E-03     591.159E-03     155.071E-03    -495.462E-03     432.405E-03    -336.708E-03     155.071E-03     134.587E-03     596.570E-03    -297.599E-03    -304.719E-03    -296.987E-03     595.957E-03    -304.719E-03     46.5257E-03     10.0344E+06     1.32770E+06    -142.959E+03    -137.820E+03     10.0293E+06     1.32770E+06    -202.851E+03         69.9424
             910     7.37583E-03     30.7452E-03     617.537E-03     133.245E-03    -487.680E-03     446.803E-03    -316.946E-03     133.245E-03    -119.513E-03     595.112E-03    -298.874E-03    -306.417E-03    -298.479E-03     594.717E-03    -306.417E-03     37.3041E-03     10.2796E+06     1.43868E+06     38.1528E+03      74.009E+03     10.2437E+06     1.43868E+06    -145.871E+03         68.9315
             911     6.63454E-03     30.7053E-03     507.639E-03     113.670E-03    -343.530E-03     266.050E-03    -101.942E-03     113.670E-03    -124.849E-03     599.808E-03    -299.567E-03    -305.804E-03    -299.341E-03     599.583E-03    -305.804E-03     28.0491E-03     10.4889E+06     1.31805E+06     306.649E+03     346.045E+03     10.4495E+06     1.31805E+06    -68.0760E+03         68.3841
             912     5.89372E-03     30.6825E-03     419.851E-03     107.642E-03    -251.847E-03     115.970E-03     52.0336E-03     107.642E-03    -349.084E-03     611.805E-03    -301.227E-03    -304.753E-03    -301.119E-03     611.697E-03    -304.753E-03     19.3798E-03     10.7756E+06     1.05606E+06     530.848E+03     538.171E+03     10.7683E+06     1.05606E+06    -85.8782E+03         68.0752
             913     5.14957E-03     30.6740E-03     587.257E-03     101.729E-03    -440.968E-03     196.219E-03    -49.9305E-03     101.729E-03     28.8629E-03     614.562E-03    -301.406E-03    -305.714E-03    -304.096E-03     614.522E-03    -302.983E-03     11.6537E-03     10.7446E+06     766.153E+03     514.082E+03     567.795E+03     10.7414E+06     715.666E+03    -118.777E+03         67.8154
             914     4.41270E-03     30.6748E-03     736.355E-03     74.8925E-03    -567.213E-03     316.167E-03    -147.025E-03     74.8925E-03    -408.909E-03     610.046E-03    -302.294E-03    -307.462E-03    -307.452E-03     610.036E-03    -302.294E-03     5.36533E-03     10.7121E+06     792.041E+03     611.448E+03     734.896E+03     10.7088E+06     671.947E+03    -143.533E+03         67.6036
             915     3.67662E-03     30.6914E-03     681.934E-03     56.3455E-03    -547.690E-03     33.0739E-03     101.170E-03     56.3455E-03    -41.3528E-03     604.824E-03    -303.039E-03    -306.064E-03    -305.475E-03     604.823E-03    -303.626E-03     1.17290E-03     10.4892E+06     795.779E+03     488.121E+03     650.184E+03     10.4850E+06     637.853E+03    -87.5757E+03         67.4987
             916     2.94081E-03     30.7147E-03     749.549E-03     73.6917E-03    -615.155E-03    -54.7884E-03     189.182E-03     73.6917E-03    -179.729E-03     604.806E-03    -302.366E-03    -304.693E-03    -302.364E-03     604.804E-03    -304.693E-03    -1.60966E-03     10.1979E+06     670.464E+03     38.3925E+03     199.959E+03     10.1874E+06     519.462E+03    -92.5882E+03         67.4611
             917     2.20515E-03     30.7462E-03     958.846E-03     75.3678E-03    -770.588E-03     164.060E-03     24.1984E-03     75.3678E-03     212.801E-03     608.052E-03    -302.818E-03    -305.710E-03    -302.815E-03     608.049E-03    -305.710E-03    -3.11681E-03     10.4252E+06     799.722E+03     274.101E+03     356.997E+03     10.4049E+06     737.040E+03    -263.764E+03         67.4605
             918     1.46998E-03     30.7857E-03         1.07159     90.4703E-03    -950.599E-03    -7.88245E-03     128.872E-03     90.4703E-03    -167.641E-03     611.181E-03    -304.950E-03    -306.883E-03    -304.947E-03     611.178E-03    -306.883E-03    -3.02939E-03     10.3612E+06     821.654E+03     475.426E+03     610.297E+03     10.3403E+06     707.657E+03    -352.117E+03         67.4799
             919     734.858E-06     30.8153E-03         1.68034     196.551E-03        -1.48362    -298.056E-03     78.1042E-03     613.231E-03     554.041E-03     613.802E-03    -305.688E-03    -307.558E-03    -306.658E-03     613.801E-03    -306.587E-03    -1.65699E-03     9.57343E+06     1.38927E+06      742.15E+03     1.21953E+06     9.48424E+06     1.00109E+06    -468.383E+03         67.5165
             920     12.6007E-03     29.7765E-03     428.911E-03     229.846E-03    -358.515E-03     210.770E-03    -140.374E-03     229.846E-03     11.6325E-03     601.629E-03    -298.065E-03    -300.273E-03    -295.693E-03     597.732E-03    -298.748E-03     117.601E-03     5.17989E+06     392.954E+03    -1.74717E+06    -157.982E+03     5.16053E+06    -1.17687E+06    -261.304E+03         88.1375
             921     11.8586E-03     29.5562E-03     504.581E-03     224.424E-03    -442.418E-03     54.0678E-03    -23.1378E-03     255.658E-03    -41.4724E-03     599.746E-03    -296.704E-03    -299.689E-03    -294.428E-03     596.145E-03    -298.364E-03     112.085E-03     7.48703E+06     1.45757E+06    -280.091E+03     652.040E+03     7.45773E+06     554.736E+03    -331.804E+03         84.6419
             922     11.0946E-03     29.4042E-03     434.129E-03     145.681E-03    -348.186E-03    -129.239E-03     69.3512E-03     291.512E-03    -340.795E-03     594.053E-03    -294.643E-03    -299.502E-03    -292.294E-03     591.705E-03    -299.502E-03     91.2213E-03     7.76465E+06     678.812E+03    -96.1772E+03     212.313E+03     7.73850E+06     396.470E+03    -99.5562E+03         80.5997
             923     10.3433E-03     29.2616E-03     366.749E-03     121.827E-03    -311.812E-03     47.8378E-03    -197.987E-03     326.913E-03     71.9226E-03     592.581E-03    -294.742E-03    -299.718E-03    -292.815E-03     590.654E-03    -299.718E-03     82.3471E-03     7.74836E+06     743.358E+03    -278.033E+03     78.0911E+03     7.74405E+06     391.539E+03     61.3492E+03         76.8888
             924     9.59757E-03     29.1481E-03     465.601E-03     215.692E-03    -521.223E-03     270.411E-03    -459.622E-03     349.281E-03    -51.4207E-03     596.871E-03    -292.454E-03    -299.056E-03    -291.051E-03     595.468E-03    -299.056E-03     70.3750E-03     8.25246E+06     754.812E+03    -173.040E+03     34.5900E+03     8.24400E+06     555.642E+03    -196.650E+03         73.8414
             925     8.85443E-03     29.0525E-03     548.049E-03     273.779E-03    -644.143E-03     315.969E-03    -501.180E-03     362.896E-03     254.157E-03     595.721E-03    -292.161E-03    -301.411E-03    -291.182E-03     594.742E-03    -301.411E-03     58.6227E-03     9.34601E+06     1.34817E+06     9.67059E+03     65.8189E+03     9.33200E+06     1.30604E+06    -337.073E+03         71.5039
             926     8.11163E-03     28.9763E-03     691.736E-03     326.032E-03    -835.663E-03     395.247E-03    -585.192E-03     372.049E-03    -234.264E-03     596.971E-03    -297.143E-03    -305.353E-03    -296.495E-03     596.323E-03    -305.353E-03     47.8379E-03     10.1559E+06     1.58477E+06     86.1651E+03     138.477E+03     10.1036E+06     1.58477E+06    -569.208E+03         69.8992
             927     7.36981E-03     28.9167E-03     807.200E-03     370.498E-03    -946.001E-03     534.342E-03    -673.142E-03     370.498E-03    -121.417E-03     597.850E-03    -299.452E-03    -307.874E-03    -299.030E-03     597.428E-03    -307.874E-03     38.6990E-03     9.98106E+06     966.702E+03    -103.667E+03     122.241E+03     9.90144E+06     820.407E+03    -794.039E+03         68.9391
             928     6.62776E-03     28.8730E-03     752.523E-03     358.979E-03    -849.190E-03     532.280E-03    -628.947E-03     358.979E-03     145.533E-03     601.639E-03    -299.819E-03    -306.900E-03    -299.566E-03     601.386E-03    -306.900E-03     29.8259E-03     10.0332E+06     797.546E+03    -139.074E+03     50.9383E+03     9.98951E+06     651.250E+03    -626.851E+03         68.4240
             929     5.88724E-03     28.8453E-03     630.994E-03     342.147E-03    -733.321E-03     519.178E-03    -621.504E-03     342.147E-03    -359.247E-03     613.217E-03    -301.164E-03    -305.532E-03    -301.038E-03     613.091E-03    -305.532E-03     21.0109E-03     10.4939E+06     757.082E+03     194.930E+03     224.384E+03     10.4644E+06     757.082E+03    -450.151E+03         68.1339
             930     5.14336E-03     28.8327E-03     648.665E-03     311.559E-03    -704.466E-03     605.611E-03    -661.413E-03     311.559E-03    -281.925E-03     615.730E-03    -302.061E-03    -306.576E-03    -304.599E-03     615.678E-03    -303.986E-03     13.3305E-03     10.4134E+06     721.121E+03     154.901E+03     178.240E+03     10.3900E+06     721.121E+03    -316.017E+03         67.9001
             931     4.40668E-03     28.8316E-03     588.695E-03     192.865E-03    -592.039E-03     429.140E-03    -517.298E-03     277.679E-03    -250.692E-03     611.071E-03    -303.825E-03    -307.910E-03    -307.893E-03     611.054E-03    -303.825E-03     7.34599E-03     10.1045E+06     827.775E+03    -99.4907E+03    -17.7605E+03     10.0923E+06     758.167E+03    -282.561E+03         67.7261
             932     3.67109E-03     28.8448E-03     494.093E-03     182.478E-03    -541.825E-03     225.675E-03    -358.221E-03     267.292E-03     100.698E-03     606.775E-03    -304.631E-03    -306.991E-03    -306.123E-03     606.771E-03    -305.496E-03     2.98448E-03     10.2313E+06     1.05298E+06     115.397E+03     195.587E+03     10.2207E+06     983.376E+03    -303.021E+03         67.6595
             933     2.93573E-03     28.8660E-03     856.461E-03     259.452E-03    -930.084E-03     327.894E-03    -401.518E-03     259.452E-03        -1.07823     607.552E-03    -303.531E-03    -306.537E-03    -303.530E-03     607.551E-03    -306.537E-03    -334.907E-06     10.4133E+06     1.13609E+06     202.905E+03     435.650E+03     10.4015E+06     915.138E+03    -313.385E+03         67.6463
             934     2.20119E-03     28.8965E-03         1.04737     178.766E-03        -1.06546     403.465E-03    -457.079E-03     214.286E-03    -376.724E-03     611.894E-03    -304.352E-03    -307.914E-03    -304.350E-03     611.892E-03    -307.914E-03    -2.27896E-03     10.0765E+06     569.209E+03    -46.5047E+03     213.647E+03     10.0540E+06     331.597E+03    -434.085E+03         67.6490
             935     1.46748E-03     28.9278E-03         1.08789     61.2861E-03    -843.496E-03     410.013E-03    -201.142E-03     96.8068E-03     14.8610E-03     615.611E-03    -307.120E-03    -309.150E-03    -307.118E-03     615.610E-03    -309.150E-03    -2.11947E-03     9.85874E+06     281.887E+03     41.2522E+03     270.178E+03     9.83448E+06     77.2211E+03    -453.257E+03         67.6579
             936     733.986E-06     28.9604E-03         1.87457    -9.00738E-03        -1.37555     803.796E-03     434.133E-03    -747.918E-03     410.565E-03     618.104E-03    -307.735E-03    -309.595E-03    -308.985E-03     618.103E-03    -308.345E-03    -302.988E-06     8.74525E+06     435.212E+03    -238.725E+03     310.974E+03     8.65775E+06    -26.9858E+03    -612.991E+03         67.6839
             937     12.5986E-03     27.9593E-03     520.748E-03     267.929E-03    -508.167E-03    -242.197E-03     171.484E-03     351.224E-03     57.4022E-03     598.591E-03    -296.217E-03    -298.688E-03    -292.490E-03     594.672E-03    -298.497E-03     117.429E-03     5.46674E+06     353.818E+03    -1.62670E+06     145.366E+03     5.43010E+06    -1.38161E+06    -295.545E+03         87.9462
             938     11.8509E-03     27.7369E-03     462.851E-03     231.585E-03    -484.500E-03     73.4711E-03    -250.842E-03     387.306E-03     350.989E-03     598.697E-03    -295.968E-03    -298.388E-03    -292.549E-03     595.087E-03    -298.196E-03     111.866E-03     6.43106E+06     159.744E+03    -1.23986E+06    -267.458E+03     6.36149E+06    -743.093E+03     1.26341E+03         84.4541
             939     11.0939E-03     27.5802E-03     414.862E-03     189.923E-03    -412.899E-03     155.157E-03    -378.133E-03     414.862E-03     124.465E-03     594.039E-03    -293.688E-03    -299.852E-03    -291.390E-03     591.740E-03    -299.852E-03     90.1870E-03     7.37152E+06     102.949E+03    -506.687E+03    -287.310E+03     7.28199E+06    -26.8954E+03    -29.3447E+03         80.4408
             940     10.3370E-03     27.4361E-03     447.251E-03     169.025E-03    -421.437E-03     9.70876E-03    -262.121E-03     447.251E-03    -162.148E-03     592.186E-03    -294.082E-03    -300.391E-03    -292.184E-03     590.287E-03    -300.391E-03     81.7108E-03     7.82612E+06     682.980E+03    -205.119E+03    -133.227E+03     7.79651E+06     640.696E+03    -235.571E+03         76.7679
             941     9.59248E-03     27.3227E-03     489.047E-03     138.845E-03    -430.883E-03     6.90512E-03    -298.943E-03     489.047E-03    -209.612E-03     595.978E-03    -292.126E-03    -299.802E-03    -290.734E-03     594.586E-03    -299.802E-03     70.0160E-03     8.62506E+06     978.260E+03     96.7356E+03     159.981E+03     8.60394E+06     936.129E+03    -347.176E+03         73.7613
             942     8.84882E-03     27.2261E-03     530.605E-03     199.220E-03    -549.708E-03     161.886E-03    -512.374E-03     530.605E-03     25.1065E-03     596.630E-03    -292.696E-03    -302.698E-03    -291.720E-03     595.654E-03    -302.698E-03     58.6159E-03     9.74570E+06     1.87899E+06     234.469E+03     363.386E+03     9.65891E+06     1.83686E+06    -722.345E+03         71.4673
             943     8.10536E-03     27.1463E-03     593.219E-03     403.695E-03    -832.788E-03     289.087E-03    -690.744E-03     565.783E-03    -301.734E-03     598.484E-03    -297.034E-03    -306.354E-03    -296.375E-03     597.824E-03    -306.354E-03     48.3205E-03     10.1947E+06     2.04920E+06     152.800E+03     267.760E+03     10.0798E+06     2.04920E+06    -868.802E+03         69.8932
             944     7.36391E-03     27.0850E-03     715.630E-03     396.401E-03    -967.765E-03     380.944E-03    -831.767E-03     595.090E-03    -16.6603E-03     599.286E-03    -298.917E-03    -308.862E-03    -298.472E-03     598.841E-03    -308.862E-03     39.7915E-03     9.65914E+06     783.756E+03    -176.289E+03     32.9424E+03     9.59620E+06     637.461E+03    -658.662E+03         68.9605
             945     6.62213E-03     27.0401E-03     823.272E-03     464.766E-03        -1.18076     628.567E-03        -1.13104     609.758E-03    -57.5334E-03     603.596E-03    -300.025E-03    -308.148E-03    -299.745E-03     603.316E-03    -308.148E-03     31.4245E-03     9.60860E+06     634.002E+03    -418.234E+03    -226.756E+03     9.56342E+06     487.706E+03    -640.624E+03         68.4738
             946     5.88130E-03     27.0088E-03     817.057E-03     599.908E-03        -1.31121     782.903E-03        -1.27855     601.402E-03    -483.799E-03     614.277E-03    -301.446E-03    -305.849E-03    -301.302E-03     614.133E-03    -305.849E-03     22.5201E-03     9.78952E+06     880.297E+03    -445.382E+03    -393.281E+03     9.73742E+06     880.297E+03    -695.564E+03         68.1959
             947     5.13724E-03     26.9934E-03     745.666E-03     504.444E-03        -1.12556     639.439E-03        -1.10383     588.938E-03    -312.685E-03     615.908E-03    -303.259E-03    -306.781E-03    -305.115E-03     615.846E-03    -304.863E-03     14.6406E-03     9.98478E+06     965.092E+03    -277.056E+03    -212.989E+03     9.92071E+06     965.092E+03    -739.378E+03         67.9754
             948     4.40082E-03     26.9924E-03     768.472E-03     420.385E-03        -1.04622     544.414E-03    -991.474E-03     589.692E-03    -158.450E-03     611.346E-03    -305.662E-03    -308.254E-03    -308.232E-03     611.324E-03    -305.662E-03     8.59282E-03     9.89160E+06     688.250E+03    -515.079E+03    -272.827E+03     9.83044E+06     507.159E+03    -725.521E+03         67.8314
             949     3.66527E-03     27.0013E-03     958.734E-03     482.014E-03        -1.19871     821.884E-03        -1.14667     566.828E-03    -195.489E-03     609.063E-03    -305.858E-03    -307.855E-03    -306.527E-03     609.058E-03    -307.180E-03     3.90742E-03     9.72100E+06     430.978E+03    -592.795E+03    -262.786E+03     9.68572E+06     136.248E+03    -557.569E+03         67.7965
             950     2.93146E-03     27.0149E-03         1.07900     499.667E-03        -1.32609     816.194E-03        -1.06328     499.667E-03    -445.872E-03     611.233E-03    -304.890E-03    -308.299E-03    -304.890E-03     611.232E-03    -308.299E-03     192.353E-06     9.48801E+06     148.890E+03    -602.034E+03    -250.240E+03     9.47081E+06    -185.702E+03    -362.509E+03         67.8035
             951     2.19744E-03     27.0420E-03     872.047E-03     452.212E-03        -1.14637     307.467E-03    -617.310E-03     487.732E-03     420.537E-03     615.737E-03    -306.328E-03    -309.748E-03    -306.327E-03     615.736E-03    -309.748E-03    -1.83421E-03     9.59427E+06     135.134E+03    -400.336E+03    -42.8766E+03     9.58711E+06    -215.167E+03    -261.934E+03         67.8102
             952     1.46413E-03     27.0729E-03     842.094E-03     477.080E-03        -1.11321     367.670E-03    -724.229E-03     562.521E-03     33.5272E-03     619.445E-03    -309.037E-03    -310.896E-03    -309.035E-03     619.444E-03    -310.896E-03    -2.13902E-03     9.50804E+06     2.46845E+03    -369.176E+03     23.4565E+03     9.48705E+06    -369.176E+03    -399.933E+03         67.8167
             953     731.776E-06     27.1015E-03         1.74009     438.091E-03        -2.24956         1.39140        -1.21189    -250.900E-03     528.566E-03     621.747E-03    -309.676E-03    -311.548E-03    -309.954E-03     621.745E-03    -311.269E-03    -738.085E-06     7.97418E+06    -393.121E+03    -1.10700E+06    -746.741E+03     7.85622E+06    -635.418E+03     156.805E+03         67.8427
             954     12.5944E-03     26.1455E-03     480.476E-03     195.015E-03    -722.648E-03    -239.792E-03    -217.593E-03     410.229E-03    -118.474E-03     597.471E-03    -295.160E-03    -297.610E-03    -291.424E-03     593.658E-03    -297.534E-03     115.663E-03     5.81337E+06     2.05334E+06    -1.04920E+06    -643.788E+03     5.71021E+06     1.75109E+06     115.066E+03         87.8028
             955     11.8497E-03     25.9179E-03     455.410E-03     81.7011E-03    -541.491E-03    -211.840E-03    -247.950E-03     455.410E-03    -549.944E-06     597.779E-03    -294.633E-03    -298.167E-03    -291.263E-03     594.333E-03    -298.091E-03     108.873E-03     6.50706E+06     1.73828E+06    -1.10078E+06    -906.325E+03     6.31260E+06     1.73828E+06    -260.810E+03         84.3299
             956     11.0931E-03     25.7631E-03     498.856E-03     150.774E-03    -597.805E-03    -7.27443E-03    -439.757E-03     498.856E-03     218.707E-03     593.345E-03    -292.554E-03    -300.539E-03    -290.422E-03     591.213E-03    -300.539E-03     86.7884E-03     7.53496E+06     622.235E+03    -786.266E+03    -527.133E+03     7.31811E+06     579.951E+03    -410.447E+03         80.3398
             957     10.3339E-03     25.6176E-03     536.270E-03     306.372E-03    -750.207E-03     137.060E-03    -580.895E-03     536.270E-03     76.0662E-03     590.466E-03    -293.046E-03    -301.000E-03    -291.245E-03     588.665E-03    -301.000E-03     79.5247E-03     8.51028E+06     487.780E+03    -550.306E+03    -448.091E+03     8.45035E+06     445.496E+03    -554.926E+03         76.6855
             958     9.58925E-03     25.5016E-03     575.579E-03     313.855E-03    -779.906E-03     44.8471E-03    -510.898E-03     575.579E-03     277.168E-03     594.054E-03    -291.210E-03    -300.169E-03    -289.864E-03     592.708E-03    -300.169E-03     68.7597E-03     9.27600E+06     497.051E+03    -655.084E+03    -523.927E+03     9.14484E+06     497.051E+03    -1.03396E+06         73.7084
             959     8.84435E-03     25.4024E-03     622.887E-03     278.819E-03    -817.114E-03     37.2832E-03    -575.578E-03     622.887E-03    -91.9557E-03     597.199E-03    -292.942E-03    -303.428E-03    -291.989E-03     596.246E-03    -303.428E-03     57.9500E-03      9.5465E+06     84.3957E+03    -879.188E+03    -582.002E+03     9.38590E+06    -52.1891E+03    -1.07601E+06         71.4529
             960     8.10122E-03     25.3170E-03     667.606E-03     447.320E-03        -1.03505     258.233E-03    -845.960E-03     667.606E-03    -61.8924E-03     598.353E-03    -296.310E-03    -306.569E-03    -295.654E-03     597.697E-03    -306.569E-03     48.2097E-03     9.71984E+06     607.451E+03    -966.032E+03    -701.515E+03     9.59191E+06     470.866E+03    -892.670E+03         69.8975
             961     7.35815E-03     25.2499E-03     707.872E-03     392.578E-03        -1.04141     308.472E-03    -957.301E-03     707.872E-03     280.778E-03     597.326E-03    -297.191E-03    -308.944E-03    -296.745E-03     596.880E-03    -308.944E-03     39.7073E-03     9.40825E+06     1.02971E+06    -800.525E+03    -686.979E+03     9.29470E+06     1.02971E+06    -909.557E+03         68.9738
             962     6.61589E-03     25.2030E-03     755.801E-03     320.935E-03        -1.07176     282.719E-03        -1.03354     755.801E-03    -118.525E-03     604.133E-03    -299.699E-03    -309.009E-03    -299.426E-03     603.860E-03    -309.009E-03     30.9455E-03     8.99216E+06     999.447E+03    -561.999E+03    -479.050E+03     8.90921E+06     999.447E+03    -819.178E+03         68.5055
             963     5.87614E-03     25.1684E-03     820.653E-03     488.144E-03        -1.28981     471.189E-03        -1.25680     804.593E-03    -174.697E-03     615.127E-03    -301.689E-03    -306.062E-03    -301.548E-03     614.987E-03    -306.062E-03     22.3444E-03     9.54701E+06     1.14000E+06    -564.482E+03    -490.021E+03     9.47255E+06     1.14000E+06    -817.459E+03         68.2402
             964     5.13177E-03     25.1514E-03     968.924E-03     642.760E-03        -1.58378     710.234E-03        -1.51808     835.748E-03     253.967E-03     616.144E-03    -304.344E-03    -306.936E-03    -305.601E-03     616.081E-03    -305.616E-03     14.7456E-03     9.75727E+06     475.912E+03    -934.341E+03    -731.828E+03     9.66654E+06     364.124E+03    -916.426E+03         68.0272
             965     4.39558E-03     25.1432E-03         1.07374     738.814E-03        -1.69692     908.894E-03        -1.63258     839.324E-03     308.217E-03     611.512E-03    -307.026E-03    -308.686E-03    -308.535E-03     611.490E-03    -307.156E-03     8.46819E-03     9.22229E+06    -465.172E+03    -1.05072E+06    -682.988E+03     9.14743E+06    -758.052E+03    -837.405E+03         67.8957
             966     3.66120E-03     25.1480E-03         1.10508     745.682E-03        -1.58299         1.01438        -1.55920     812.593E-03    -183.910E-03     610.820E-03    -306.159E-03    -308.764E-03    -306.364E-03     610.815E-03    -308.554E-03     3.56995E-03     8.70894E+06    -706.996E+03    -1.18802E+06    -850.712E+03     8.66636E+06    -1.00173E+06    -613.696E+03         67.8775
             967     2.92727E-03     25.1644E-03         1.09246     716.729E-03        -1.55332     948.309E-03        -1.46006     767.623E-03    -48.6386E-03     614.671E-03    -305.687E-03    -309.802E-03    -305.686E-03     614.671E-03    -309.802E-03    -225.785E-06     8.70225E+06    -656.317E+03    -1.22983E+06    -897.711E+03     8.65057E+06    -936.752E+03    -603.745E+03         67.9037
             968     2.19414E-03     25.1835E-03         1.27560     701.524E-03        -1.76129     943.973E-03        -1.42966     701.524E-03     731.754E-03     619.025E-03    -308.280E-03    -310.752E-03    -308.278E-03     619.024E-03    -310.752E-03    -2.18366E-03     8.74325E+06    -656.303E+03    -1.13661E+06    -801.862E+03     8.70364E+06    -951.443E+03    -461.205E+03         67.9205
             969     1.46303E-03     25.2135E-03         1.28031     594.190E-03        -1.84364     710.452E-03        -1.32370     644.110E-03    -326.857E-03     622.016E-03    -310.620E-03    -311.536E-03    -310.618E-03     622.014E-03    -311.536E-03    -2.60239E-03     8.73421E+06    -554.061E+03    -927.993E+03    -611.844E+03     8.71469E+06    -850.691E+03    -205.330E+03         67.9289
             970     731.629E-06     25.2409E-03         1.55958     274.171E-03        -2.12795     268.451E-03        -1.54551     982.857E-03    -335.818E-03     623.740E-03    -310.855E-03    -312.835E-03    -310.854E-03     623.739E-03    -312.835E-03    -1.32460E-03     8.13589E+06     92.2461E+03    -853.166E+03    -80.8456E+03     7.97184E+06    -516.023E+03     83.3135E+03         67.9586
             971     12.5979E-03     24.3290E-03     482.798E-03     282.532E-03    -841.340E-03     239.390E-03    -798.198E-03     482.798E-03     108.496E-03     598.864E-03    -295.728E-03    -297.694E-03    -292.022E-03     595.039E-03    -297.575E-03     115.873E-03     6.07182E+06     1.84325E+06    -2.00302E+06    -504.260E+03     5.44635E+06     969.955E+03     562.062E+03         87.7303
             972     11.8510E-03     24.1064E-03     513.556E-03     238.593E-03    -734.004E-03     74.1074E-03    -569.519E-03     513.556E-03    -24.8353E-03     597.513E-03    -294.690E-03    -298.571E-03    -291.296E-03     594.001E-03    -298.452E-03     109.950E-03     8.20384E+06     2.83442E+06    -403.343E+03     60.3149E+03     7.74018E+06     2.83442E+06     105.813E+03         84.2772
             973     11.0940E-03     23.9480E-03     550.808E-03     208.535E-03    -710.898E-03     33.3923E-03    -535.756E-03     550.808E-03    -21.5679E-03     591.547E-03    -292.216E-03    -300.883E-03    -290.035E-03     589.365E-03    -300.883E-03     87.6515E-03     8.58448E+06     2.41038E+06    -515.763E+03    -284.163E+03     8.35288E+06     2.41038E+06    -998.205E+03         80.3000
             974     10.3329E-03     23.7989E-03     585.869E-03     238.457E-03    -795.485E-03     174.089E-03    -731.117E-03     585.869E-03     64.8743E-03     586.735E-03    -291.608E-03    -300.582E-03    -289.789E-03     584.916E-03    -300.582E-03     79.6667E-03     9.33515E+06     2.26139E+06    -246.762E+03    -130.641E+03     9.21903E+06     2.26139E+06    -806.837E+03         76.6507
             975     9.58878E-03     23.6827E-03     616.515E-03     437.527E-03        -1.08164     292.692E-03    -935.571E-03     615.282E-03     434.977E-03     591.935E-03    -290.229E-03    -299.761E-03    -288.907E-03     590.613E-03    -299.761E-03     67.9222E-03     9.24048E+06     701.126E+03    -513.813E+03    -369.649E+03     9.09631E+06     701.126E+03    -595.230E+03         73.6921
             976     8.84237E-03     23.5797E-03     648.760E-03     456.219E-03        -1.15327     218.471E-03    -914.287E-03     647.527E-03    -142.506E-03     596.849E-03    -291.994E-03    -303.065E-03    -291.091E-03     595.946E-03    -303.065E-03     56.3572E-03     9.38254E+06     274.018E+03    -1.16381E+06    -833.789E+03     9.18911E+06     137.433E+03    -694.097E+03         71.4673
             977     8.09866E-03     23.4876E-03     693.499E-03     314.304E-03        -1.02519     106.143E-03    -817.031E-03     693.499E-03    -269.067E-03     598.891E-03    -295.317E-03    -306.878E-03    -294.710E-03     598.284E-03    -306.878E-03     46.2978E-03     9.19872E+06     719.066E+03    -1.27373E+06    -896.189E+03     9.04806E+06     492.182E+03    -863.774E+03         69.9307
             978     7.35627E-03     23.4198E-03     744.696E-03     398.104E-03        -1.12862     279.943E-03        -1.01046     744.696E-03    -112.000E-03     597.378E-03    -296.462E-03    -309.190E-03    -296.064E-03     596.979E-03    -309.190E-03     37.4918E-03     8.91928E+06     457.030E+03    -1.39058E+06    -1.18965E+06     8.80866E+06     366.731E+03    -756.307E+03         69.0013
             979     6.61374E-03     23.3673E-03     817.895E-03     454.846E-03        -1.20837     424.441E-03        -1.14930     789.235E-03    -4.48328E-03     601.600E-03    -297.646E-03    -307.850E-03    -297.410E-03     601.364E-03    -307.850E-03     28.6792E-03     9.20827E+06     284.639E+03    -1.82164E+06    -1.66677E+06     9.05340E+06     284.639E+03    -1.11175E+06         68.5220
             980     5.87258E-03     23.3281E-03     866.341E-03     500.510E-03        -1.30269     392.245E-03        -1.16577     837.681E-03    -179.886E-03     614.280E-03    -300.752E-03    -305.639E-03    -300.638E-03     614.166E-03    -305.639E-03     19.9198E-03     9.32378E+06    -421.588E+03    -2.01842E+06    -1.64906E+06     9.15093E+06    -618.103E+03    -1.31191E+06         68.2553
             981     5.12823E-03     23.3058E-03         1.01102     585.093E-03        -1.56521     497.885E-03        -1.36089     893.898E-03     186.227E-03     616.383E-03    -304.765E-03    -307.443E-03    -306.179E-03     616.337E-03    -305.983E-03     12.4394E-03     8.91200E+06    -655.035E+03    -1.91185E+06    -1.49377E+06     8.80222E+06    -963.339E+03    -1.04806E+06         68.0437
             982     4.39346E-03     23.2953E-03         1.06110     722.492E-03        -1.72224     684.797E-03        -1.56743     943.987E-03     310.199E-03     610.907E-03    -306.900E-03    -309.100E-03    -308.348E-03     610.893E-03    -307.639E-03     6.36113E-03     8.21680E+06    -877.017E+03    -1.79375E+06    -1.60375E+06     8.13858E+06    -988.806E+03    -857.109E+03         67.9155
             983     3.65889E-03     23.2988E-03     992.919E-03     828.675E-03        -1.75033     718.987E-03        -1.64064     992.919E-03     125.522E-03     611.436E-03    -306.034E-03    -309.501E-03    -306.031E-03     611.434E-03    -309.501E-03     1.48113E-03     8.00778E+06    -1.23539E+06    -1.76239E+06    -1.55374E+06     7.93866E+06    -1.37493E+06    -758.055E+03         67.9089
             984     2.92545E-03     23.3068E-03         1.08407     803.791E-03        -1.80716     726.841E-03        -1.70721         1.06107    -2.12865E-03     616.218E-03    -306.130E-03    -310.510E-03    -306.128E-03     616.216E-03    -310.510E-03    -2.13517E-03     8.12147E+06    -1.08474E+06    -1.58758E+06    -1.21191E+06     8.05213E+06    -1.39107E+06    -649.019E+03         67.9481
             985     2.19349E-03     23.3253E-03         1.43977     932.814E-03        -2.21697         1.24928        -2.16291         1.06925    -389.629E-03     620.266E-03    -308.999E-03    -311.059E-03    -308.995E-03     620.262E-03    -311.059E-03    -3.55249E-03     8.01264E+06    -1.11504E+06    -1.41767E+06    -1.19168E+06     7.96910E+06    -1.29750E+06    -467.440E+03         67.9630
             986     1.46157E-03     23.3491E-03         1.70182     934.148E-03        -2.58556         1.32324        -2.20698     934.148E-03     328.888E-03     622.733E-03    -311.108E-03    -311.856E-03    -311.105E-03     622.731E-03    -311.856E-03    -3.09753E-03     7.55664E+06    -1.36689E+06    -1.65019E+06    -1.45489E+06     7.53577E+06    -1.54131E+06    -229.833E+03         67.9645
             987     730.247E-06     23.3722E-03         2.25793     894.659E-03        -3.01180    -206.568E-03        -1.49043         1.83778        -1.79947     624.944E-03    -311.789E-03    -313.466E-03    -311.788E-03     624.943E-03    -313.466E-03    -1.03321E-03     6.78492E+06    -833.572E+03    -1.71115E+06    -1.04832E+06     6.72084E+06    -1.43232E+06    -235.375E+03         67.9980
             988     12.5952E-03     22.5175E-03     563.140E-03     291.065E-03    -665.658E-03     104.644E-03    -479.237E-03     563.140E-03     63.4544E-03     597.801E-03    -296.158E-03    -298.135E-03    -292.398E-03     593.883E-03    -297.977E-03     117.236E-03     7.91370E+06     3.14459E+06    -486.258E+03     1.16803E+06     7.13270E+06     2.27130E+06     1.05324E+06         87.7254
             989     11.8501E-03     22.2942E-03     589.380E-03     454.943E-03    -844.085E-03     430.846E-03    -819.989E-03     589.380E-03    -80.0068E-03     597.059E-03    -295.895E-03    -298.937E-03    -292.409E-03     593.417E-03    -298.779E-03     112.196E-03     7.48761E+06     565.218E+03    -845.235E+03    -62.0888E+03     6.79230E+06     477.384E+03     821.661E+03         84.2863
             990     11.0926E-03     22.1322E-03     606.939E-03     493.283E-03    -937.556E-03     460.878E-03    -905.151E-03     606.939E-03    -261.444E-03     590.867E-03    -293.141E-03    -300.935E-03    -290.848E-03     588.575E-03    -300.935E-03     89.8933E-03     7.60885E+06     1.14542E+06    -1.35057E+06    -402.946E+03     7.34561E+06     461.028E+03    -1.18934E+06         80.3325
             991     10.3333E-03     21.9811E-03     631.625E-03     292.160E-03    -850.067E-03     253.560E-03    -811.466E-03     631.625E-03    -366.795E-03     586.827E-03    -292.629E-03    -300.716E-03    -290.779E-03     584.978E-03    -300.716E-03     80.2840E-03     7.71857E+06     1.21359E+06    -1.72602E+06    -1.02836E+06     7.61747E+06     617.027E+03    -761.551E+03         76.7138
             992     9.58856E-03     21.8586E-03     665.448E-03     344.293E-03        -1.00430     295.705E-03    -954.482E-03     664.215E-03    -394.236E-03     593.218E-03    -291.355E-03    -299.806E-03    -290.087E-03     591.950E-03    -299.806E-03     66.5227E-03     8.79980E+06     774.882E+03    -1.26058E+06    -1.12514E+06     8.66435E+06     774.882E+03    -445.739E+03         73.7755
             993     8.84425E-03     21.7532E-03     750.532E-03     524.604E-03        -1.27247     505.126E-03        -1.19249     690.031E-03    -178.098E-03     598.057E-03    -292.374E-03    -303.303E-03    -291.543E-03     597.226E-03    -303.303E-03     54.0958E-03     9.63486E+06     903.572E+03    -1.29685E+06    -983.285E+03     9.35770E+06     867.156E+03    -377.976E+03         71.5551
             994     8.10052E-03     21.6610E-03     863.219E-03     433.837E-03        -1.26985     517.981E-03        -1.19959     708.816E-03    -153.745E-03     600.166E-03    -296.188E-03    -307.463E-03    -295.653E-03     599.630E-03    -307.463E-03     43.4402E-03     8.89834E+06     616.492E+03    -1.83429E+06    -1.53959E+06     8.73036E+06     489.778E+03    -266.532E+03         70.0097
             995     7.35778E-03     21.5865E-03     824.971E-03     479.359E-03        -1.22017     477.463E-03        -1.12314     729.836E-03    -130.724E-03     597.926E-03    -296.906E-03    -308.803E-03    -296.577E-03     597.596E-03    -308.803E-03     34.0431E-03     9.47361E+06     252.413E+03    -1.95498E+06    -1.76272E+06     9.37165E+06     162.115E+03    -749.642E+03         69.0571
             996     6.61542E-03     21.5316E-03     776.504E-03     672.869E-03        -1.30074     613.067E-03        -1.21228     747.844E-03     167.714E-03     600.521E-03    -297.256E-03    -306.680E-03    -297.075E-03     600.340E-03    -306.680E-03     24.7702E-03     9.70698E+06    -116.169E+03    -1.88955E+06    -1.71083E+06     9.52826E+06    -116.169E+03    -1.15817E+06         68.5515
             997     5.87481E-03     21.4857E-03     858.600E-03     729.122E-03        -1.45903     631.057E-03        -1.26367     761.308E-03     4.52034E-03     613.938E-03    -301.106E-03    -304.986E-03    -301.034E-03     613.866E-03    -304.986E-03     15.2380E-03     8.63517E+06    -766.255E+03    -2.35396E+06    -1.97064E+06     8.44836E+06    -962.770E+03    -1.26799E+06         68.2652
             998     5.13042E-03     21.4548E-03     863.724E-03     571.114E-03        -1.35415     412.737E-03        -1.12715     795.093E-03     334.559E-03     615.607E-03    -304.939E-03    -307.287E-03    -306.534E-03     615.587E-03    -305.671E-03     7.50102E-03     8.09027E+06    -1.19386E+06    -2.57232E+06    -2.23382E+06     7.94829E+06    -1.39037E+06    -1.18277E+06         68.0390
             999     4.39437E-03     21.4422E-03     860.146E-03     582.580E-03        -1.42872     390.576E-03        -1.23671     860.146E-03     372.948E-03     608.874E-03    -306.097E-03    -309.114E-03    -307.708E-03     608.869E-03    -307.499E-03     1.90772E-03     7.84458E+06    -1.42428E+06    -2.29289E+06    -2.14708E+06     7.73280E+06    -1.45830E+06    -1.04504E+06         67.9018
            1000     3.66046E-03     21.4417E-03     932.185E-03     779.537E-03        -1.82692     595.050E-03        -1.64243     932.185E-03     368.105E-03     610.348E-03    -304.974E-03    -309.348E-03    -304.970E-03     610.345E-03    -309.348E-03    -2.18738E-03     7.53647E+06    -1.53397E+06    -2.30806E+06    -2.03137E+06     7.43334E+06    -1.70753E+06    -972.194E+03         67.8895
            1001     2.92767E-03     21.4440E-03         1.20500     774.907E-03        -2.02870     816.297E-03        -1.85327     988.186E-03     823.961E-03     616.015E-03    -305.877E-03    -310.241E-03    -305.870E-03     616.008E-03    -310.241E-03    -4.85918E-03     7.05723E+06    -1.66655E+06    -2.49716E+06    -2.28265E+06     6.98225E+06    -1.80608E+06    -724.893E+03         67.9175
            1002     2.19460E-03     21.4600E-03         1.29549     834.989E-03        -2.08894     696.016E-03        -1.73047         1.07598    -161.105E-03     619.779E-03    -309.025E-03    -310.746E-03    -309.016E-03     619.770E-03    -310.746E-03    -5.73102E-03     6.88291E+06    -1.87906E+06    -2.25105E+06    -2.15113E+06     6.83169E+06    -1.92776E+06    -578.449E+03         67.9151
            1003     1.46232E-03     21.4821E-03         1.67591         1.14356        -2.66739     825.854E-03        -1.92189         1.24812         1.47451     622.095E-03    -310.928E-03    -311.448E-03    -310.921E-03     622.088E-03    -311.448E-03    -4.96752E-03     6.42781E+06    -2.07312E+06    -2.33765E+06    -2.07340E+06     6.39652E+06    -2.30607E+06    -372.035E+03         67.9083
            1004     731.074E-06     21.5017E-03         2.91434         1.64938        -4.19049     792.482E-03        -2.35298         1.93374        -1.50422     624.040E-03    -311.494E-03    -312.850E-03    -311.491E-03     624.037E-03    -312.850E-03    -2.73463E-03     4.85196E+06    -2.40321E+06    -2.96932E+06    -2.72036E+06     4.78725E+06    -2.58747E+06    -261.206E+03         67.9494
            1005     12.5944E-03     20.7070E-03     566.386E-03     237.322E-03    -479.012E-03    -186.453E-03    -55.2370E-03     566.386E-03     80.2145E-03     596.336E-03    -296.210E-03    -298.318E-03    -292.698E-03     592.350E-03    -297.844E-03     118.125E-03     8.97459E+06     5.19289E+06    -603.071E+03     198.941E+03     8.17258E+06     5.19289E+06    -141.351E+03         87.7947
            1006     11.8474E-03     20.4766E-03     601.864E-03     234.958E-03    -599.528E-03    -25.9375E-03    -338.632E-03     601.864E-03    -160.192E-03     595.891E-03    -296.409E-03    -299.509E-03    -293.197E-03     592.204E-03    -299.034E-03     112.685E-03     8.55604E+06     1.86023E+06    -1.31015E+06     153.801E+03     7.17992E+06     1.77239E+06    -90.9083E+03         84.3754
            1007     11.0928E-03     20.3140E-03     629.950E-03     384.781E-03    -835.333E-03     254.405E-03    -704.957E-03     629.950E-03     106.173E-03     590.325E-03    -294.635E-03    -301.318E-03    -292.341E-03     588.031E-03    -301.318E-03     89.9821E-03     6.97766E+06     146.868E+03    -1.99468E+06    -621.098E+03     6.28848E+06    -537.526E+03     612.455E+03         80.4516
            1008     10.3339E-03     20.1594E-03     713.672E-03     454.474E-03    -999.166E-03     472.254E-03    -949.529E-03     646.256E-03     156.409E-03     590.571E-03    -295.564E-03    -301.309E-03    -293.755E-03     588.762E-03    -301.309E-03     79.4897E-03     7.10170E+06     506.973E+03    -2.22234E+06    -1.25524E+06     7.03059E+06    -389.017E+03     37.1182E+03         76.8658
            1009     9.59111E-03     20.0389E-03     784.933E-03     465.939E-03        -1.07883     532.070E-03        -1.01325     653.218E-03     1.92190E-03     597.964E-03    -294.256E-03    -300.008E-03    -293.068E-03     596.776E-03    -300.008E-03     64.7151E-03     8.72220E+06     401.841E+03    -2.26267E+06    -1.76131E+06     8.52027E+06     102.411E+03    -124.973E+03         73.9353
            1010     8.84745E-03     19.9277E-03     806.949E-03     577.260E-03        -1.20610     608.755E-03        -1.08383     653.179E-03     432.840E-03     600.452E-03    -294.587E-03    -303.273E-03    -293.821E-03     599.685E-03    -303.273E-03     51.9707E-03     9.67293E+06     212.454E+03    -2.91866E+06    -2.46245E+06     9.25313E+06     176.038E+03    -352.689E+03         71.6911
            1011     8.10565E-03     19.8309E-03     856.094E-03     641.577E-03        -1.33812     770.871E-03        -1.25289     641.577E-03     516.541E-03     599.692E-03    -298.068E-03    -306.727E-03    -297.610E-03     599.235E-03    -306.727E-03     40.0439E-03     9.96931E+06     183.164E+03    -2.46056E+06    -2.13440E+06     9.67957E+06     146.748E+03    -960.904E+03         70.1126
            1012     7.36451E-03     19.7536E-03     879.554E-03     602.875E-03        -1.33047     738.787E-03        -1.21019     623.364E-03     641.769E-03     598.561E-03    -298.354E-03    -307.578E-03    -298.107E-03     598.314E-03    -307.578E-03     29.2391E-03     9.81355E+06     21.8146E+03    -2.05912E+06    -1.91007E+06     9.66449E+06     21.8146E+03    -1.14510E+06         69.1404
            1013     6.62361E-03     19.6936E-03     745.832E-03     577.206E-03        -1.17081     569.800E-03        -1.03226     614.689E-03     307.761E-03     603.780E-03    -299.591E-03    -306.350E-03    -299.479E-03     603.668E-03    -306.350E-03     19.1429E-03     8.97311E+06    -297.970E+03    -2.29580E+06    -2.16616E+06     8.84347E+06    -297.970E+03    -964.293E+03         68.6180
            1014     5.88347E-03     19.6451E-03     717.000E-03     600.538E-03        -1.17015     539.481E-03        -1.00963     617.531E-03     361.834E-03     613.651E-03    -302.049E-03    -304.330E-03    -302.505E-03     613.619E-03    -303.841E-03     9.43013E-03     8.43306E+06     -798.51E+03    -2.68384E+06    -2.37176E+06     8.31766E+06    -995.182E+03    -949.864E+03         68.2962
            1015     5.13865E-03     19.6154E-03     972.564E-03     588.164E-03        -1.40330     714.716E-03        -1.16912     611.831E-03     291.118E-03     613.072E-03    -304.301E-03    -306.340E-03    -306.113E-03     613.066E-03    -304.522E-03     1.44822E-03     7.81799E+06    -2.10649E+06    -3.03951E+06    -2.63913E+06     7.69408E+06    -2.38296E+06    -1.04690E+06         68.0268
            1016     4.40277E-03     19.5969E-03         1.01030     524.927E-03        -1.44493     664.248E-03        -1.17097     597.016E-03     390.431E-03     605.208E-03    -304.728E-03    -308.034E-03    -306.049E-03     605.199E-03    -306.705E-03    -4.11134E-03     7.27590E+06    -2.06691E+06    -2.96884E+06    -2.75216E+06     7.17305E+06    -2.18074E+06    -973.528E+03         67.8511
            1017     3.66686E-03     19.5884E-03     982.721E-03     555.131E-03        -1.50642     413.514E-03    -992.527E-03     610.446E-03     76.1479E-03     607.611E-03    -302.903E-03    -307.800E-03    -302.881E-03     607.589E-03    -307.800E-03    -7.89157E-03     6.78874E+06    -1.91437E+06    -3.05370E+06    -2.88771E+06     6.68263E+06    -1.97425E+06    -949.476E+03         67.7962
            1018     2.93190E-03     19.5921E-03         1.14025     643.229E-03        -1.74617     494.064E-03        -1.10688     650.122E-03     436.625E-03     614.406E-03    -304.842E-03    -308.670E-03    -304.813E-03     614.376E-03    -308.670E-03    -9.81865E-03     6.36925E+06    -2.38034E+06    -3.10595E+06    -2.88842E+06     6.27485E+06    -2.50346E+06    -852.978E+03         67.7743
            1019     2.19838E-03     19.6011E-03         1.13905     612.190E-03        -1.73900     443.852E-03        -1.14836     716.748E-03     183.568E-03     617.339E-03    -308.046E-03    -309.562E-03    -308.020E-03     617.313E-03    -309.562E-03    -9.26828E-03      5.7365E+06    -2.79804E+06    -3.26535E+06    -3.07151E+06     5.68863E+06    -2.94401E+06    -572.963E+03         67.7366
            1020     1.46586E-03     19.6156E-03         1.29702     744.150E-03        -1.86147     519.526E-03        -1.18853     848.708E-03     455.617E-03     619.547E-03    -309.539E-03    -310.353E-03    -309.525E-03     619.533E-03    -310.353E-03    -6.91959E-03     5.11318E+06    -3.21907E+06    -3.47883E+06    -3.30835E+06     5.08423E+06    -3.36061E+06    -331.393E+03         67.7201
            1021     733.188E-06     19.6384E-03         2.69214     507.821E-03        -2.87986         1.41127        -1.59900     507.821E-03        -1.74636     621.030E-03    -309.418E-03    -311.547E-03    -309.414E-03     621.026E-03    -311.547E-03    -3.31521E-03     3.56105E+06    -3.41260E+06    -3.93936E+06    -3.42845E+06     3.39658E+06    -3.75904E+06    -9.60960E+03         67.7620
            1022     12.5925E-03     18.8931E-03     466.472E-03     197.625E-03    -473.517E-03    -117.857E-03    -158.036E-03     466.472E-03     310.240E-03     596.757E-03    -297.268E-03    -300.271E-03    -294.492E-03     592.664E-03    -298.955E-03     119.628E-03     6.57973E+06     2.01415E+06    -2.52494E+06    -819.467E+03     5.95716E+06     931.251E+03    -1.00670E+06         87.9387
            1023     11.8476E-03     18.6590E-03     486.578E-03     107.398E-03    -485.015E-03    -169.709E-03    -207.908E-03     486.578E-03     186.098E-03     597.545E-03    -297.784E-03    -301.278E-03    -295.283E-03     593.727E-03    -299.962E-03     114.710E-03     8.84854E+06     3.31241E+06    -2.07619E+06    -27.7002E+03     7.82955E+06     2.28292E+06    -453.801E+03         84.5346
            1024     11.0928E-03     18.4937E-03     508.468E-03     94.8151E-03    -480.931E-03    -74.7374E-03    -311.379E-03     508.468E-03     394.083E-03     592.327E-03    -296.372E-03    -301.217E-03    -294.123E-03     590.078E-03    -301.217E-03     89.2382E-03     8.54503E+06     3.03991E+06    -952.337E+03    -371.986E+03     7.96468E+06     3.03991E+06     1.71299E+06         80.6242
            1025     10.3371E-03     18.3420E-03     587.853E-03     324.734E-03    -712.572E-03     253.716E-03    -574.137E-03     520.437E-03     574.721E-03     594.289E-03    -297.643E-03    -301.441E-03    -296.569E-03     592.579E-03    -300.804E-03     77.5210E-03     8.78273E+06     2.67794E+06    -1.15358E+06    -651.154E+03     8.57973E+06     2.37851E+06     1.16320E+06         77.0509
            1026     9.59541E-03     18.2148E-03     654.298E-03     494.941E-03    -876.178E-03     523.575E-03    -765.729E-03     515.215E-03     399.976E-03     601.035E-03    -297.246E-03    -300.385E-03    -296.769E-03     599.921E-03    -299.748E-03     62.9360E-03     10.4097E+06     2.15147E+06    -1.38880E+06    -665.265E+03     9.98561E+06     1.85204E+06     103.757E+03         74.1228
            1027     8.85531E-03     18.1035E-03     615.112E-03     502.617E-03    -846.109E-03     532.225E-03    -763.222E-03     502.617E-03     450.878E-03     601.876E-03    -298.308E-03    -302.871E-03    -297.605E-03     601.173E-03    -302.871E-03     49.7520E-03     10.5614E+06     2.34766E+06    -1.44298E+06    -154.715E+03     9.96074E+06     1.66008E+06    -716.705E+03         71.8597
            1028     8.11577E-03     18.0031E-03     570.881E-03     441.949E-03    -796.809E-03     349.442E-03    -633.563E-03     500.142E-03     349.302E-03     600.834E-03    -300.354E-03    -305.184E-03    -299.982E-03     600.462E-03    -305.184E-03     35.8807E-03     9.75287E+06     1.73161E+06    -1.95070E+06    -919.001E+03     9.40874E+06     1.04404E+06    -410.209E+03         70.2489
            1029     7.37633E-03     17.9258E-03     668.306E-03     431.798E-03    -950.389E-03     402.728E-03    -760.265E-03     507.252E-03     115.515E-03     600.343E-03    -300.393E-03    -305.567E-03    -300.230E-03     600.180E-03    -305.567E-03     23.3702E-03     9.63156E+06     404.756E+03    -2.09758E+06    -1.97149E+06     9.50547E+06     404.756E+03    -372.724E+03         69.2551
            1030     6.63680E-03     17.8609E-03     651.982E-03     486.415E-03        -1.01103     503.106E-03    -886.435E-03     510.699E-03     104.874E-03     605.313E-03    -300.796E-03    -304.855E-03    -301.437E-03     605.258E-03    -304.160E-03     12.5250E-03     8.82123E+06    -522.577E+03    -2.64283E+06    -2.29219E+06     8.73534E+06    -787.332E+03    -716.565E+03         68.7059
            1031     5.89793E-03     17.8130E-03     600.992E-03     510.518E-03    -923.836E-03     404.199E-03    -734.065E-03     517.541E-03    -103.342E-03     612.930E-03    -300.523E-03    -304.171E-03    -303.694E-03     612.917E-03    -300.987E-03     2.29648E-03     8.11491E+06    -1.04074E+06    -3.13388E+06    -2.60755E+06     8.05001E+06    -1.50217E+06    -632.776E+03         68.3119
            1032     5.15320E-03     17.7792E-03     863.435E-03     514.126E-03        -1.12496     470.897E-03    -747.158E-03     528.860E-03    -905.786E-03     609.975E-03    -301.279E-03    -306.489E-03    -306.472E-03     609.958E-03    -301.279E-03    -5.86608E-03     7.38996E+06    -2.01909E+06    -3.25592E+06    -2.92616E+06     7.33667E+06    -2.29555E+06    -540.011E+03         67.9531
            1033     4.41673E-03     17.7592E-03     941.274E-03     511.317E-03        -1.18745     617.213E-03    -878.128E-03     526.051E-03    -446.616E-03     600.888E-03    -302.076E-03    -306.245E-03    -304.755E-03     600.845E-03    -303.524E-03    -11.3847E-03     7.02536E+06    -2.15462E+06    -3.57212E+06    -3.07550E+06     6.97368E+06    -2.59955E+06    -527.244E+03         67.6979
            1034     3.68005E-03     17.7496E-03         1.03533     514.365E-03        -1.29077     563.580E-03    -819.028E-03     514.365E-03    -615.024E-03     602.408E-03    -300.980E-03    -304.734E-03    -300.912E-03     602.339E-03    -304.734E-03    -15.1993E-03     6.18529E+06    -2.77739E+06    -3.95711E+06    -3.39191E+06     6.11972E+06    -3.27703E+06    -526.160E+03         67.5529
            1035     2.94361E-03     17.7467E-03     954.134E-03     504.783E-03        -1.30116     341.487E-03    -717.810E-03     534.075E-03    -663.893E-03     608.432E-03    -302.184E-03    -305.157E-03    -302.106E-03     608.353E-03    -305.157E-03    -16.5786E-03     5.63006E+06    -3.55357E+06    -3.82563E+06    -3.53983E+06     5.57603E+06    -3.78534E+06    -345.082E+03         67.4423
            1036     2.20699E-03     17.7568E-03     847.027E-03     536.969E-03        -1.25712     519.059E-03    -958.447E-03     566.261E-03    -321.061E-03     610.585E-03    -304.445E-03    -305.675E-03    -304.382E-03     610.522E-03    -305.675E-03    -14.6759E-03     5.45179E+06    -3.33841E+06    -3.79086E+06    -3.48964E+06     5.44450E+06    -3.63234E+06    -81.4196E+03         67.3442
            1037     1.47046E-03     17.7722E-03     951.169E-03     499.589E-03        -1.26462     799.100E-03        -1.11255     499.589E-03    -258.170E-03     611.665E-03    -305.552E-03    -306.502E-03    -305.519E-03     611.631E-03    -306.502E-03    -10.4752E-03     4.27149E+06    -4.21317E+06    -4.63937E+06    -4.31319E+06     4.25329E+06    -4.52114E+06    -134.822E+03         67.2917
            1038     734.923E-06     17.7888E-03         1.96477    -212.041E-03        -1.59992         1.36450    -698.830E-03    -512.870E-03        -1.33588     613.663E-03    -305.580E-03    -308.075E-03    -305.568E-03     613.651E-03    -308.075E-03    -5.63743E-03     3.01008E+06    -4.39819E+06    -4.84809E+06    -4.32839E+06     2.85531E+06    -4.76312E+06    -36.5022E+03         67.3122
            1039     12.5935E-03     17.0802E-03     346.584E-03     168.305E-03    -485.514E-03     72.1043E-03    -371.617E-03     328.889E-03    -100.121E-03     597.355E-03    -297.482E-03    -301.022E-03    -295.231E-03     593.321E-03    -299.239E-03     118.706E-03     5.20584E+06     950.827E+03    -3.30033E+06    -629.126E+03     5.06996E+06    -1.58450E+06     363.097E+03         88.1521
            1040     11.8486E-03     16.8423E-03     340.882E-03     187.904E-03    -461.453E-03     154.319E-03    -412.932E-03     325.946E-03     212.771E-03     600.678E-03    -298.501E-03    -301.260E-03    -296.581E-03     596.885E-03    -299.387E-03     114.522E-03     7.05325E+06     1.93890E+06    -2.71724E+06    -1.34768E+06     6.92028E+06     702.310E+03     428.193E+03         84.7560
            1041     11.0937E-03     16.6749E-03     421.463E-03     136.467E-03    -428.793E-03     88.7666E-03    -283.941E-03     324.311E-03    -52.0709E-03     597.429E-03    -298.426E-03    -300.689E-03    -296.719E-03     595.227E-03    -300.194E-03     88.6931E-03     8.33307E+06     2.78638E+06    -1.60841E+06    -1.29533E+06     8.22708E+06     2.57928E+06     423.374E+03         80.8502
            1042     10.3406E-03     16.5140E-03     412.741E-03     174.862E-03    -389.123E-03     3.78293E-03    -135.829E-03     330.526E-03     67.1114E-03     597.750E-03    -299.234E-03    -302.378E-03    -299.834E-03     596.090E-03    -300.116E-03     76.6691E-03     10.6360E+06     3.13734E+06    -977.660E+03    -114.045E+03     9.88160E+06     3.02817E+06    -488.800E+03         77.2852
            1043     9.60380E-03     16.3829E-03     435.169E-03     302.105E-03    -477.650E-03    -61.3052E-03    -25.3784E-03     346.308E-03     41.0056E-03     603.468E-03    -299.103E-03    -302.313E-03    -300.803E-03     602.430E-03    -299.574E-03     60.8041E-03     11.4779E+06     1.86330E+06    -1.17859E+06     804.306E+03     10.0864E+06     1.27189E+06    -605.014E+03         74.3632
            1044     8.86679E-03     16.2672E-03     467.084E-03     296.251E-03    -497.178E-03     32.8514E-03    -134.292E-03     367.598E-03    -163.636E-03     606.428E-03    -301.092E-03    -303.350E-03    -301.629E-03     605.831E-03    -302.215E-03     45.8047E-03     9.83405E+06     1.43787E+06    -2.19640E+06    -181.176E+03     8.98863E+06     268.068E+03     772.729E+03         72.0840
            1045     8.12984E-03     16.1717E-03     513.017E-03     258.608E-03    -548.833E-03     123.702E-03    -289.059E-03     388.149E-03     284.408E-03     604.707E-03    -302.116E-03    -304.498E-03    -302.966E-03     604.429E-03    -303.371E-03     30.7506E-03     10.1367E+06     2.12288E+06    -1.97898E+06    -773.615E+03     9.92355E+06     1.13068E+06     649.653E+03         70.4295
            1046     7.39360E-03     16.0918E-03     569.881E-03     338.362E-03    -717.067E-03     56.1577E-03    -278.798E-03     413.815E-03    -280.006E-03     600.261E-03    -301.148E-03    -304.223E-03    -302.725E-03     600.164E-03    -302.550E-03     17.4591E-03     10.3485E+06     1.32790E+06    -1.34735E+06    -820.503E+03     10.1263E+06     1.02327E+06     118.074E+03         69.3795
            1047     6.65587E-03     16.0280E-03     595.558E-03     424.853E-03    -831.172E-03     189.868E-03    -442.742E-03     442.114E-03     63.6347E-03     605.579E-03    -299.701E-03    -304.232E-03    -303.411E-03     605.556E-03    -300.500E-03     5.08996E-03     8.73780E+06     8.23023E+03    -1.64195E+06    -1.24256E+06     8.60316E+06    -256.525E+03     283.078E+03         68.7524
            1048     5.91973E-03     15.9836E-03     687.493E-03     457.786E-03    -897.343E-03     390.978E-03    -600.828E-03     457.786E-03     449.277E-03     613.215E-03    -297.265E-03    -304.875E-03    -304.852E-03     613.192E-03    -297.265E-03    -6.31636E-03     7.89650E+06    -688.032E+03    -2.39677E+06    -1.85835E+06     7.81031E+06    -1.14026E+06     408.434E+03         68.2385
            1049     5.17479E-03     15.9511E-03     612.430E-03     456.616E-03    -742.757E-03     313.985E-03    -459.045E-03     471.350E-03    -290.703E-03     605.769E-03    -296.729E-03    -306.975E-03    -306.907E-03     605.701E-03    -296.729E-03    -14.6888E-03     7.59482E+06    -1.59185E+06    -3.03761E+06    -2.45610E+06     7.49870E+06    -2.07724E+06     480.640E+03         67.7380
            1050     4.43722E-03     15.9326E-03     522.906E-03     453.626E-03    -633.620E-03     295.928E-03    -450.984E-03     497.967E-03    -52.2014E-03     594.783E-03    -297.856E-03    -304.352E-03    -303.963E-03     594.660E-03    -298.122E-03    -20.3690E-03     6.89271E+06    -2.58206E+06    -3.72913E+06    -2.94222E+06     6.76886E+06    -3.24512E+06     592.367E+03         67.3339
            1051     3.69940E-03     15.9225E-03     693.589E-03     477.632E-03    -870.230E-03     576.216E-03    -782.464E-03     507.239E-03    -56.0070E-03     594.471E-03    -297.709E-03    -299.753E-03    -298.208E-03     594.311E-03    -299.094E-03    -23.4455E-03     6.47813E+06    -3.22608E+06    -3.96290E+06    -3.34702E+06     6.33603E+06    -3.69987E+06     742.021E+03         67.0440
            1052     2.96029E-03     15.9197E-03     810.043E-03     445.367E-03        -1.02819     682.002E-03    -929.445E-03     474.659E-03    -110.057E-03     597.625E-03    -297.975E-03    -299.745E-03    -297.815E-03     597.465E-03    -299.745E-03    -23.5956E-03     5.93054E+06    -4.02091E+06    -4.43260E+06    -4.06242E+06     5.86025E+06    -4.32081E+06     664.031E+03         66.8333
            1053     2.22063E-03     15.9275E-03     667.431E-03     407.579E-03    -880.176E-03     492.934E-03    -739.277E-03     441.177E-03    -330.304E-03     599.745E-03    -299.226E-03    -300.368E-03    -299.098E-03     599.617E-03    -300.368E-03    -21.0141E-03     5.27907E+06    -4.60411E+06    -5.09157E+06    -4.59399E+06     5.22866E+06    -5.05128E+06     539.367E+03         66.6759
            1054     1.48049E-03     15.9402E-03     657.480E-03     320.136E-03    -807.449E-03     422.257E-03    -689.562E-03     437.472E-03    -168.504E-03     600.932E-03    -300.031E-03    -300.752E-03    -299.984E-03     600.858E-03    -300.725E-03    -15.7656E-03     5.07935E+06    -4.61235E+06    -5.09002E+06    -4.57867E+06     5.04567E+06    -5.09002E+06     500.923E+03         66.5755
            1055     740.020E-06     15.9552E-03         1.17250     47.2566E-03        -1.05826         1.00713    -705.089E-03    -140.542E-03    -97.8957E-03     601.610E-03    -300.091E-03    -301.431E-03    -300.092E-03     601.585E-03    -301.404E-03    -8.68120E-03     3.81044E+06    -4.49718E+06    -5.38483E+06    -5.10205E+06     3.74939E+06    -4.71892E+06     24.8684E+03         66.5640
            1056     12.5950E-03     15.2691E-03     310.523E-03     177.652E-03    -344.492E-03     42.2370E-03    -93.2778E-03     194.724E-03    -109.119E-03     598.588E-03    -296.464E-03    -300.446E-03    -295.262E-03     594.545E-03    -297.604E-03     118.480E-03     6.43370E+06     1.84710E+06    -3.60193E+06    -1.00254E+06     5.54410E+06     137.311E+03     1.30295E+06         88.4642
            1057     11.8507E-03     15.0181E-03     393.764E-03     172.318E-03    -361.354E-03     1.46179E-03     13.8755E-03     189.390E-03     91.5604E-03     602.132E-03    -297.329E-03    -301.698E-03    -297.819E-03     598.253E-03    -297.329E-03     115.687E-03     8.19450E+06     1.45340E+06    -1.95757E+06     -562.14E+03     7.39918E+06     853.294E+03     1.42574E+06         85.0774
            1058     11.0926E-03     14.8450E-03     425.824E-03     187.170E-03    -384.494E-03     41.5423E-03    -212.476E-06     187.170E-03    -185.087E-03     599.036E-03    -299.283E-03    -302.022E-03    -299.812E-03     596.826E-03    -299.283E-03     89.1018E-03     9.39663E+06     3.14449E+06    -1.55224E+06     929.111E+03     8.86438E+06     1.19539E+06    -1.15167E+06         81.1691
            1059     10.3487E-03     14.6820E-03     434.160E-03     165.588E-03    -341.115E-03    -23.5095E-03     92.6258E-03     189.517E-03     136.235E-03     600.659E-03    -300.210E-03    -305.127E-03    -303.488E-03     599.020E-03    -300.210E-03     76.2101E-03     10.4389E+06     705.030E+03    -2.95144E+06      737.22E+03     8.60142E+06    -1.14616E+06    -592.367E+03         77.6012
            1060     9.61484E-03     14.5452E-03     411.721E-03     177.464E-03    -314.583E-03    -157.301E-03     230.510E-03     201.393E-03     151.193E-03     609.078E-03    -299.305E-03    -306.495E-03    -305.567E-03     608.150E-03    -299.305E-03     57.5698E-03     9.47464E+06    -1.71500E+06    -3.40037E+06    -920.434E+03     7.58610E+06    -2.30641E+06     1.13863E+06         74.6688
            1061     8.88186E-03     14.4331E-03     411.748E-03     151.096E-03    -287.844E-03    -193.974E-03     246.531E-03     222.443E-03    -298.478E-03     612.244E-03    -300.678E-03    -306.692E-03    -306.211E-03     611.763E-03    -300.678E-03     41.2188E-03     9.75058E+06     1.08967E+06    -3.64795E+06    -794.007E+03     9.15714E+06    -1.17083E+06     727.589E+03         72.3521
            1062     8.14866E-03     14.3336E-03     517.141E-03     170.572E-03    -396.439E-03    -30.5938E-03     79.9488E-03     241.919E-03     341.584E-03     606.349E-03    -300.965E-03    -307.260E-03    -307.065E-03     606.154E-03    -300.965E-03     25.4114E-03     10.7268E+06     1.15909E+06    -2.64974E+06    -155.859E+03     10.3158E+06    -923.803E+03     382.146E+03         70.6240
            1063     7.41619E-03     14.2564E-03     513.786E-03     256.313E-03    -485.307E-03     40.0970E-03    -11.6186E-03     256.313E-03     307.869E-03     598.957E-03    -298.918E-03    -306.055E-03    -306.007E-03     598.908E-03    -298.918E-03     10.8801E-03     9.86395E+06    -365.656E+03    -1.35847E+06    -433.499E+03     9.42359E+06    -850.262E+03     1.24077E+06         69.4669
            1064     6.68131E-03     14.1992E-03     617.523E-03     275.134E-03    -606.773E-03     4.94644E-03     5.80411E-03     275.134E-03    -114.958E-03     603.317E-03    -295.677E-03    -305.544E-03    -305.525E-03     603.298E-03    -295.677E-03    -2.62429E-03     8.88689E+06    -689.811E+03    -2.26675E+06    -1.22600E+06     8.51635E+06    -1.36002E+06     1.67202E+06         68.7114
            1065     5.94593E-03     14.1602E-03     726.503E-03     283.830E-03    -695.006E-03     296.741E-03    -265.244E-03     283.830E-03     371.439E-03     609.628E-03    -292.399E-03    -306.607E-03    -306.535E-03     609.556E-03    -292.399E-03    -14.7783E-03     8.59040E+06    -1.56287E+06    -3.34269E+06    -1.74760E+06     8.18651E+06    -2.75407E+06     1.80892E+06         68.0503
            1066     5.20279E-03     14.1305E-03     588.007E-03     260.317E-03    -539.504E-03     524.115E-03    -475.612E-03     260.317E-03     425.895E-03     600.600E-03    -291.464E-03    -307.136E-03    -306.974E-03     600.439E-03    -291.464E-03    -23.5388E-03     8.24465E+06    -2.41775E+06    -3.49680E+06    -2.06093E+06     7.80767E+06    -3.41664E+06     1.95552E+06         67.3767
            1067     4.46550E-03     14.1153E-03     517.668E-03     192.034E-03    -383.341E-03     433.481E-03    -328.760E-03     221.640E-03     291.103E-03     586.992E-03    -291.619E-03    -302.487E-03    -302.246E-03     586.751E-03    -291.619E-03    -28.9607E-03     7.64361E+06    -2.81753E+06    -3.39480E+06    -2.62570E+06     7.17243E+06    -3.11545E+06     2.04444E+06         66.7888
            1068     3.72487E-03     14.1137E-03     598.105E-03     161.984E-03    -452.706E-03     307.217E-03    -191.424E-03     191.590E-03    -53.3571E-03     583.813E-03    -291.524E-03    -295.156E-03    -294.757E-03     583.530E-03    -291.640E-03    -31.2998E-03     7.62010E+06    -3.25273E+06    -3.59027E+06    -3.14021E+06     7.23688E+06    -3.31956E+06     1.96150E+06         66.3418
            1069     2.98251E-03     14.1162E-03     820.879E-03     161.866E-03    -735.647E-03     311.700E-03    -226.468E-03     161.866E-03     376.056E-03     584.068E-03    -291.888E-03    -293.039E-03    -292.378E-03     583.803E-03    -292.284E-03    -30.2710E-03     7.40804E+06    -3.57349E+06    -4.15925E+06    -3.59817E+06     7.10503E+06    -3.83156E+06     1.74104E+06         66.0089
            1070     2.23904E-03     14.1257E-03     685.418E-03     122.266E-03    -552.029E-03     264.204E-03    -130.239E-03     121.689E-03     588.836E-03     584.840E-03    -291.943E-03    -293.193E-03    -292.230E-03     584.642E-03    -292.708E-03    -26.0651E-03     7.02495E+06    -3.78456E+06    -4.35198E+06    -3.94061E+06     6.86411E+06    -4.03509E+06     1.25411E+06         65.7560
            1071     1.49405E-03     14.1426E-03     583.031E-03     34.2099E-03    -362.729E-03    -33.2459E-03     141.094E-03     146.664E-03     211.031E-03     585.356E-03    -291.798E-03    -292.984E-03    -292.391E-03     585.248E-03    -292.284E-03    -18.9004E-03     7.19000E+06    -3.60867E+06    -3.96032E+06    -3.57646E+06     7.09708E+06    -3.89961E+06     979.506E+03         65.6014
            1072     747.634E-06     14.1561E-03         1.18142     231.246E-03        -1.10084    -280.451E-03    -69.6735E-03     661.953E-03    -583.626E-03     583.853E-03    -291.257E-03    -292.406E-03    -291.587E-03     583.818E-03    -292.042E-03    -9.91257E-03     5.89655E+06    -2.90085E+06    -4.45122E+06    -3.42456E+06     5.83931E+06    -3.87027E+06     627.246E+03         65.5742
            1073     12.5958E-03     13.4592E-03     651.857E-03     51.7931E-03    -375.143E-03    -233.508E-03     510.221E-03     51.7931E-03     88.6837E-03     601.657E-03    -297.085E-03    -303.691E-03    -299.470E-03     597.622E-03    -297.270E-03     118.463E-03     7.25478E+06     1.73489E+06    -1.99369E+06    -798.546E+03     6.31700E+06     1.47753E+06     572.225E+03         88.9484
            1074     11.8570E-03     13.1928E-03     662.493E-03     50.8813E-03    -382.726E-03    -230.858E-03     510.625E-03     50.8813E-03     72.8164E-03     605.575E-03    -298.009E-03    -306.295E-03    -302.366E-03     601.646E-03    -298.009E-03     116.760E-03     8.15311E+06     2.86391E+06    -3.41380E+06     1.44864E+06     7.22116E+06    -1.06658E+06     83.2992E+03         85.5725
            1075     11.0953E-03     13.0118E-03     598.699E-03     53.1783E-03    -333.849E-03    -232.309E-03     497.159E-03     53.1783E-03    -139.336E-03     601.908E-03    -299.587E-03    -305.932E-03    -303.758E-03     599.734E-03    -299.587E-03     88.7015E-03     8.30681E+06     2.28004E+06    -6.04882E+06     835.123E+03     6.70234E+06    -2.99944E+06     475.145E+03         81.6335
            1076     10.3601E-03     12.8425E-03     556.806E-03     59.2535E-03    -319.205E-03    -217.149E-03     454.750E-03     59.2535E-03     395.970E-03     605.225E-03    -299.499E-03    -308.923E-03    -307.358E-03     603.660E-03    -299.499E-03     74.6259E-03     9.68843E+06    -614.348E+03    -4.97942E+06    -729.377E+03     7.18040E+06    -2.35636E+06     1.81669E+06         78.0135
            1077     9.62929E-03     12.7055E-03     514.785E-03     63.8101E-03    -283.483E-03    -83.4893E-03     314.791E-03     63.8101E-03    -61.4015E-03     613.491E-03    -297.726E-03    -311.069E-03    -310.236E-03     612.658E-03    -297.726E-03     54.7821E-03     9.43403E+06     952.251E+03    -3.90354E+06     477.411E+03     8.29888E+06    -2.29355E+06     623.211E+03         75.0111
            1078     8.90037E-03     12.5883E-03     508.865E-03     67.7464E-03    -258.000E-03    -95.2489E-03     346.113E-03     67.7464E-03    -274.662E-03     613.097E-03    -298.496E-03    -312.455E-03    -312.043E-03     612.686E-03    -298.496E-03     38.1579E-03     9.11273E+06     1.00796E+06    -5.24614E+06     1.01910E+06     8.16031E+06    -4.30486E+06     1.06386E+06         72.6017
            1079     8.17140E-03     12.4936E-03     732.421E-03     81.3316E-03    -475.374E-03    -217.697E-03     474.744E-03     81.3316E-03    -488.285E-03     608.842E-03    -298.405E-03    -313.671E-03    -313.528E-03     608.700E-03    -298.405E-03     20.8536E-03     9.95537E+06    -807.139E+03    -4.05072E+06     272.030E+03     8.68610E+06    -3.86062E+06     2.44798E+06         70.7612
            1080     7.44254E-03     12.4204E-03     608.118E-03     97.7060E-03    -361.862E-03    -51.9775E-03     298.724E-03     97.2157E-03    -358.587E-03     601.121E-03    -294.967E-03    -310.271E-03    -310.250E-03     601.100E-03    -294.967E-03     4.67818E-03     10.0388E+06    -1.01744E+06    -2.79968E+06    -329.669E+03     9.16089E+06    -2.60958E+06     2.75953E+06         69.4589
            1081     6.71067E-03     12.3691E-03     570.324E-03     102.776E-03    -343.296E-03     83.6494E-03     143.869E-03     102.285E-03    -586.232E-03     600.141E-03    -291.120E-03    -307.530E-03    -307.497E-03     600.108E-03    -291.120E-03    -8.68640E-03     10.0369E+06    -1.59333E+06    -3.40597E+06    -506.517E+03     8.95008E+06    -3.40597E+06     3.16372E+06         68.5480
            1082     5.97729E-03     12.3397E-03     698.604E-03     97.5784E-03    -494.825E-03     155.220E-03     48.5581E-03     97.5784E-03    -859.979E-03     604.062E-03    -287.691E-03    -307.930E-03    -307.812E-03     603.944E-03    -287.691E-03    -20.0618E-03     9.93834E+06    -2.02222E+06    -3.76792E+06    -973.419E+03     8.86432E+06    -3.74270E+06     3.33828E+06         67.7559
            1083     5.23502E-03     12.3220E-03     496.497E-03     79.7115E-03    -291.658E-03     303.533E-03    -95.6174E-03     76.6348E-03    -86.5586E-03     595.221E-03    -285.471E-03    -306.555E-03    -306.331E-03     594.996E-03    -285.471E-03    -28.2408E-03     9.70133E+06    -2.34603E+06    -3.27227E+06    -1.49073E+06     8.74065E+06    -3.16689E+06     3.19573E+06         66.9552
            1084     4.49643E-03     12.3216E-03     470.617E-03     36.3521E-03    -222.741E-03     356.913E-03    -105.960E-03     33.2754E-03    -80.6750E-03     580.554E-03    -284.926E-03    -301.036E-03    -300.724E-03     580.243E-03    -284.926E-03    -33.0633E-03     9.42542E+06    -2.25746E+06    -3.02183E+06    -1.57678E+06     8.65689E+06    -2.93399E+06     2.86543E+06         66.2296
            1085     3.75430E-03     12.3240E-03     571.230E-03    -10.7894E-03    -268.860E-03     158.844E-03     143.527E-03    -10.7894E-03    -432.431E-03     572.906E-03    -284.283E-03    -292.428E-03    -292.078E-03     572.556E-03    -284.283E-03    -34.8003E-03     9.66921E+06    -1.91616E+06    -2.52627E+06    -1.49633E+06     9.07527E+06    -2.35216E+06     2.53928E+06         65.6481
            1086     3.00835E-03     12.3329E-03     882.993E-03    -8.29691E-03    -583.417E-03    -174.673E-03     474.248E-03    -8.29691E-03    -450.531E-03     570.057E-03    -283.701E-03    -287.178E-03    -286.849E-03     569.728E-03    -283.701E-03    -33.5230E-03     9.91903E+06    -1.50757E+06    -2.07873E+06    -1.50831E+06     9.49717E+06    -1.65612E+06     2.16776E+06         65.1912
            1087     2.25874E-03     12.3538E-03     842.858E-03     35.7368E-03    -533.395E-03    -97.5093E-03     411.855E-03     30.8545E-03    -207.642E-03     568.087E-03    -282.904E-03    -284.994E-03    -284.746E-03     567.838E-03    -282.904E-03    -28.8896E-03     9.62643E+06    -1.55059E+06    -2.01027E+06    -1.70446E+06     9.40234E+06    -1.63232E+06     1.56341E+06         64.8504
            1088     1.50669E-03     12.3702E-03     734.322E-03     38.4747E-03    -399.882E-03     90.7033E-03     248.619E-03     33.5923E-03    -167.683E-03     565.745E-03    -281.822E-03    -283.540E-03    -283.402E-03     565.607E-03    -281.822E-03    -21.0805E-03     9.25634E+06    -1.71307E+06    -1.90576E+06    -1.74190E+06     9.14639E+06    -1.76697E+06     1.01608E+06         64.6613
            1089     754.064E-06     12.3901E-03         1.35820     238.590E-03        -1.15519    -507.957E-03     393.291E-03     556.267E-03        -1.32081     562.851E-03    -280.709E-03    -282.133E-03    -281.785E-03     562.803E-03    -281.009E-03    -11.8197E-03     8.64478E+06    -578.223E+03    -1.41156E+06    -531.318E+03     8.58086E+06    -1.39454E+06     664.376E+03         64.6287
            1090     12.5986E-03     11.6403E-03     954.747E-03    -102.339E-03    -478.939E-03    -381.066E-03     856.874E-03    -102.339E-03     28.5917E-03     606.936E-03    -299.252E-03    -308.520E-03    -304.435E-03     602.851E-03    -299.252E-03     119.139E-03     7.15086E+06    -1.00918E+06    -5.01255E+06     256.958E+03     4.43691E+06    -3.56474E+06    -893.553E+03         89.6587
            1091     11.8643E-03     11.3627E-03     957.360E-03    -105.599E-03    -494.609E-03    -388.885E-03     851.636E-03    -105.599E-03     58.8392E-03     610.312E-03    -298.557E-03    -312.307E-03    -308.285E-03     606.290E-03    -298.557E-03     118.225E-03     6.64978E+06     920.840E+03    -9.05542E+06    -894.983E+03     4.25893E+06    -4.84876E+06    -933.588E+03         86.3064
            1092     11.1033E-03     11.1810E-03     961.276E-03    -102.450E-03    -538.180E-03    -475.899E-03     898.995E-03    -102.450E-03    -97.2120E-03     606.748E-03    -298.236E-03    -311.566E-03    -309.483E-03     604.665E-03    -298.236E-03     87.3263E-03     9.74409E+06     2.49230E+06    -6.04841E+06     119.640E+03     7.11352E+06    -1.04517E+06     1.71022E+06         82.2888
            1093     10.3765E-03     11.0038E-03     857.181E-03    -91.3914E-03    -481.800E-03    -470.446E-03     845.827E-03    -91.3914E-03     21.5670E-03     609.785E-03    -296.368E-03    -314.213E-03    -312.742E-03     608.314E-03    -296.368E-03     72.5369E-03     11.8942E+06     1.24591E+06    -4.81866E+06     2.18112E+06     8.39419E+06    -2.25388E+06     948.641E+03         78.5194
            1094     9.65023E-03     10.8592E-03     795.800E-03    -79.5255E-03    -456.401E-03    -365.682E-03     705.081E-03    -79.5255E-03    -386.045E-03     616.073E-03    -294.816E-03    -315.704E-03    -314.976E-03     615.346E-03    -294.816E-03     51.0812E-03     9.17992E+06     200.546E+03    -8.16197E+06     1.44405E+06     6.31949E+06    -6.54505E+06     2.59633E+06         75.3500
            1095     8.92478E-03     10.7398E-03     703.839E-03    -71.4957E-03    -358.456E-03    -239.507E-03     584.889E-03    -71.4957E-03    -70.5511E-03     613.340E-03    -295.848E-03    -316.995E-03    -316.670E-03     613.015E-03    -295.848E-03     33.6431E-03     9.24892E+06    -537.234E+03    -6.68452E+06     405.980E+03     7.20481E+06    -5.58362E+06     3.78101E+06         72.7735
            1096     8.19921E-03     10.6496E-03     747.506E-03    -18.0392E-03    -434.301E-03    -92.0200E-03     458.599E-03    -71.4125E-03    -281.142E-03     609.327E-03    -294.800E-03    -318.413E-03    -318.312E-03     609.226E-03    -294.800E-03     17.4453E-03     10.7231E+06    -1.09130E+06    -4.81982E+06     849.343E+03     8.78241E+06    -4.81982E+06     3.74896E+06         70.7752
            1097     7.47221E-03     10.5888E-03     674.198E-03     1.58387E-03    -375.315E-03    -10.1430E-03     390.893E-03    -80.2833E-03    -355.594E-03     601.623E-03    -291.193E-03    -314.191E-03    -314.178E-03     601.610E-03    -291.193E-03     3.80164E-03     11.3132E+06    -1.10229E+06    -4.06012E+06     1.00736E+06     9.20350E+06    -4.06012E+06     4.40758E+06         69.3083
            1098     6.74182E-03     10.5491E-03     683.648E-03    -67.9468E-03    -306.705E-03     50.2919E-03     355.145E-03    -96.4406E-03     77.0087E-03     596.637E-03    -287.675E-03    -307.487E-03    -307.457E-03     596.607E-03    -287.675E-03    -7.82986E-03     11.7154E+06    -633.064E+03    -2.99023E+06     556.470E+03     9.91530E+06    -2.37971E+06     4.46211E+06         68.2416
            1099     6.00818E-03     10.5291E-03     885.377E-03    -104.519E-03    -511.923E-03    -140.961E-03     514.416E-03    -104.519E-03    -263.456E-03     595.344E-03    -284.275E-03    -305.435E-03    -305.340E-03     595.249E-03    -284.275E-03    -17.7214E-03     12.0639E+06    -471.199E+03    -2.09938E+06     420.922E+03     10.5360E+06    -1.46364E+06     4.21405E+06         67.3564
            1100     5.26433E-03     10.5262E-03     802.690E-03    -80.8071E-03    -475.200E-03    -344.562E-03     675.129E-03    -83.8838E-03     141.222E-03     587.590E-03    -281.596E-03    -304.428E-03    -304.252E-03     587.413E-03    -281.596E-03    -24.5507E-03     12.1030E+06    -578.327E+03    -1.46215E+06     672.332E+03     10.8271E+06    -1.43693E+06     3.79021E+06         66.5126
            1101     4.52470E-03     10.5404E-03     739.449E-03    -41.3220E-03    -457.356E-03    -284.704E-03     569.873E-03    -44.3988E-03     19.4684E-03     576.497E-03    -279.750E-03    -298.693E-03    -298.443E-03     576.247E-03    -279.750E-03    -29.2113E-03     12.0494E+06    -28.7354E+03    -1.18580E+06     662.272E+03     11.1534E+06    -980.824E+03     3.14854E+06         65.7342
            1102     3.77991E-03     10.5555E-03     674.158E-03    -7.69001E-03    -429.639E-03    -164.613E-03     409.133E-03    -7.69001E-03     104.719E-03     566.420E-03    -278.041E-03    -290.536E-03    -290.250E-03     566.135E-03    -278.041E-03    -31.0387E-03     12.2066E+06     527.224E+03    -740.164E+03     738.147E+03     11.6242E+06    -368.759E+03     2.54504E+06         65.0855
            1103     3.03068E-03     10.5854E-03     835.728E-03     11.3478E-03    -513.642E-03    -1.87633E-03     323.962E-03     11.3478E-03    -25.3959E-03     559.089E-03    -276.406E-03    -283.981E-03    -283.708E-03     558.816E-03    -276.406E-03    -30.1190E-03     12.2917E+06     792.245E+03    -262.727E+03     999.465E+03     11.9181E+06    -96.2957E+03     2.04355E+06         64.6069
            1104     2.27753E-03     10.6078E-03         1.05257     16.2820E-03    -705.045E-03     23.7043E-03     323.817E-03     16.2820E-03     40.5707E-03     554.017E-03    -274.991E-03    -279.218E-03    -279.008E-03     553.806E-03    -274.991E-03    -26.1044E-03     12.0168E+06     727.729E+03    -31.9334E+03     911.572E+03     11.7719E+06     29.1241E+03     1.62571E+06         64.3120
            1105     1.52117E-03     10.6366E-03     915.904E-03     117.365E-03    -630.164E-03     200.876E-03     238.477E-03    -36.2475E-03     224.370E-03     549.920E-03    -273.839E-03    -276.101E-03    -275.980E-03     549.799E-03    -273.839E-03    -19.4384E-03     12.1216E+06     1.25090E+06     511.469E+03     1.30200E+06     11.9925E+06     589.546E+03     1.09012E+06         64.1677
            1106     761.308E-06     10.6606E-03         1.90312     134.193E-03        -1.56689    -150.705E-03     640.546E-03    -19.4198E-03         1.33748     546.604E-03    -272.342E-03    -274.173E-03    -274.127E-03     546.559E-03    -272.342E-03    -11.3651E-03     11.5828E+06     2.67378E+06     1.13138E+06     1.56602E+06     11.4973E+06     2.32465E+06     840.329E+03         64.1314
            1107     12.6035E-03     9.80667E-03     949.912E-03    -189.515E-03    -355.775E-03    -279.964E-03     940.040E-03    -255.453E-03     10.5736E-03     613.969E-03    -299.520E-03    -313.890E-03    -309.711E-03     609.790E-03    -299.520E-03     121.202E-03     7.98355E+06    -2.49414E+06    -10.8647E+06     651.706E+03     2.16455E+06    -8.19150E+06     958.054E+03         90.5246
            1108     11.8721E-03     9.52337E-03         1.04155    -224.979E-03    -467.316E-03    -418.888E-03         1.03776    -269.618E-03     139.772E-03     617.154E-03    -296.967E-03    -318.974E-03    -314.952E-03     613.133E-03    -296.967E-03     118.366E-03     12.1482E+06     470.591E+03    -8.80158E+06     1.40097E+06     5.59022E+06    -3.17395E+06      79.369E+03         87.1985
            1109     11.1209E-03     9.34090E-03         1.06619    -244.345E-03    -529.464E-03    -489.277E-03         1.05909    -277.427E-03     40.7214E-03     613.918E-03    -295.902E-03    -319.194E-03    -317.284E-03     612.007E-03    -295.902E-03     84.2527E-03     11.8962E+06    -1.29469E+06    -7.88832E+06     1.82655E+06     5.72606E+06    -4.83944E+06     44.7189E+03         83.0594
            1110     10.3982E-03     9.15410E-03     994.288E-03    -250.585E-03    -510.890E-03    -454.183E-03     970.662E-03    -283.666E-03     13.3754E-03     613.124E-03    -293.150E-03    -320.819E-03    -319.516E-03     611.821E-03    -293.150E-03     68.3703E-03     10.1835E+06    -2.40066E+06    -10.8678E+06     272.871E+03     4.67495E+06    -8.03279E+06     4.17853E+06         79.0493
            1111     9.67594E-03     9.01100E-03     919.253E-03    -231.091E-03    -492.098E-03    -410.949E-03     899.275E-03    -292.262E-03     65.1899E-03     613.746E-03    -291.406E-03    -318.712E-03    -318.117E-03     613.151E-03    -291.406E-03     46.1814E-03     11.1056E+06     9.95487E+03    -8.92703E+06    -282.329E+03     7.55635E+06    -5.08550E+06     5.07991E+06         75.6312
            1112     8.95291E-03     8.89925E-03     776.790E-03    -156.229E-03    -419.981E-03    -246.811E-03     755.002E-03    -307.611E-03     171.570E-03     608.855E-03    -292.279E-03    -318.033E-03    -317.769E-03     608.591E-03    -292.279E-03     30.5082E-03     11.6868E+06    -825.955E+03    -5.33621E+06     779.693E+03     8.98026E+06    -4.23532E+06     3.92319E+06         72.8450
            1113     8.22564E-03     8.81626E-03     736.237E-03    -176.689E-03    -341.895E-03    -98.3257E-03     650.922E-03    -334.943E-03     393.905E-03     602.719E-03    -290.393E-03    -318.043E-03    -317.950E-03     602.626E-03    -290.393E-03     17.4195E-03     11.1043E+06    -1.89314E+06    -4.88402E+06     654.420E+03     8.32099E+06    -4.64829E+06     4.68378E+06         70.6575
            1114     7.49696E-03     8.76718E-03     886.561E-03    -256.934E-03    -366.323E-03    -141.162E-03     770.789E-03    -366.323E-03     157.934E-03     597.188E-03    -287.323E-03    -313.513E-03    -313.495E-03     597.170E-03    -287.323E-03     6.89817E-03     12.4900E+06    -706.195E+03    -2.85262E+06     871.872E+03     10.3112E+06    -2.25186E+06     4.82983E+06         68.9936
            1115     6.76479E-03     8.73988E-03         1.10934    -346.229E-03    -483.143E-03    -298.250E-03     965.789E-03    -387.574E-03     367.273E-03     589.087E-03    -284.182E-03    -305.572E-03    -305.562E-03     589.077E-03    -284.182E-03    -1.46719E-03     13.6089E+06     909.955E+03    -1.37166E+06     1.61252E+06     11.9308E+06    -396.109E+03     4.45918E+06         67.7739
            1116     6.02937E-03     8.73908E-03         1.27504    -384.612E-03    -630.827E-03    -537.368E-03         1.18158    -384.612E-03     493.021E-03     582.403E-03    -281.418E-03    -301.905E-03    -301.874E-03     582.373E-03    -281.418E-03    -8.14929E-03     14.1832E+06     2.09741E+06    -142.067E+03     2.19347E+06     12.8252E+06     1.11987E+06     4.01214E+06         66.8458
            1117     5.28306E-03     8.74915E-03         1.34597    -348.064E-03    -749.416E-03    -709.796E-03         1.30635    -348.064E-03     325.006E-03     576.905E-03    -280.111E-03    -299.347E-03    -299.284E-03     576.842E-03    -280.111E-03    -12.4378E-03     14.6334E+06     2.49498E+06     770.790E+03     2.38621E+06     13.5693E+06     1.94372E+06     3.53905E+06         66.0336
            1118     4.54140E-03     8.77833E-03         1.27888    -282.587E-03    -767.410E-03    -711.765E-03         1.22323    -282.587E-03     194.351E-03     570.982E-03    -278.670E-03    -293.142E-03    -293.047E-03     570.887E-03    -278.670E-03    -15.4119E-03     14.7295E+06     2.48114E+06     639.514E+03     2.51481E+06     13.9693E+06     1.36601E+06     2.96980E+06         65.3017
            1119     3.79461E-03     8.81214E-03         1.11233    -214.317E-03    -638.644E-03    -473.049E-03     946.738E-03    -214.317E-03     254.751E-03     563.948E-03    -276.603E-03    -287.427E-03    -287.312E-03     563.832E-03    -276.603E-03    -17.0598E-03     14.4214E+06     2.32162E+06     711.909E+03     2.57386E+06     13.9258E+06      955.24E+03     2.41716E+06         64.7116
            1120     3.04283E-03     8.85098E-03     986.951E-03    -200.392E-03    -448.916E-03    -41.8234E-03     579.859E-03    -200.392E-03     165.387E-03     556.680E-03    -274.225E-03    -282.466E-03    -282.353E-03     556.567E-03    -274.225E-03    -17.0869E-03     14.2304E+06     2.36129E+06     1.36144E+06     2.65040E+06     13.9029E+06     1.39979E+06     1.87146E+06         64.3168
            1121     2.28673E-03     8.89143E-03         1.22045    -248.355E-03    -622.386E-03    -44.8890E-03     642.950E-03    -248.355E-03     720.360E-03     550.049E-03    -272.180E-03    -277.572E-03    -277.485E-03     549.962E-03    -272.180E-03    -15.2651E-03     14.1704E+06     2.76115E+06     1.84985E+06     2.94507E+06     13.9864E+06     1.84985E+06     1.37137E+06         64.1135
            1122     1.52649E-03     8.92268E-03         1.60564    -106.072E-03        -1.12645    -344.887E-03     977.695E-03    -259.684E-03    -177.536E-03     544.067E-03    -270.853E-03    -273.316E-03    -273.267E-03     544.018E-03    -270.853E-03    -11.5232E-03     14.4087E+06     3.43596E+06     2.56893E+06     3.48572E+06      14.293E+06     2.63486E+06     1.05566E+06         64.0248
            1123     764.377E-06     8.95203E-03         2.36577     280.778E-03        -2.36489    -616.732E-03     771.233E-03     127.165E-03         2.03949     540.785E-03    -269.606E-03    -271.112E-03    -271.094E-03     540.766E-03    -269.606E-03    -6.08533E-03     14.5532E+06     6.42477E+06     3.57863E+06     5.25286E+06     14.4829E+06     4.82081E+06     554.338E+03         63.9884
            1124     12.6098E-03     7.95478E-03     983.524E-03    -228.210E-03    -413.975E-03    -178.985E-03     913.519E-03    -393.196E-03    -284.659E-03     623.054E-03    -297.727E-03    -323.472E-03    -319.264E-03     618.846E-03    -297.727E-03     123.476E-03     10.2026E+06    -4.35322E+06    -13.3826E+06    -634.380E+03     901.691E+03    -7.80051E+06    -1.58562E+06         91.3703
            1125     11.8879E-03     7.66781E-03     857.033E-03    -131.839E-03    -445.558E-03    -112.427E-03     818.643E-03    -426.581E-03     270.122E-03     626.267E-03    -294.619E-03    -327.313E-03    -323.481E-03     622.434E-03    -294.619E-03     115.965E-03     14.5046E+06    -11.3417E+06    -16.1841E+06     869.639E+03    -831.293E+03    -13.0596E+06     524.720E+03         88.0306
            1126     11.1393E-03     7.48227E-03     867.065E-03    -157.552E-03    -486.430E-03    -85.8649E-03     776.400E-03    -467.453E-03    -91.9869E-03     622.447E-03    -292.801E-03    -326.120E-03    -324.481E-03     620.808E-03    -292.801E-03     78.5796E-03     11.4413E+06    -8.10413E+06    -14.8612E+06    -633.614E+03     758.419E+03    -11.6489E+06     5.88298E+06         83.7273
            1127     10.4242E-03     7.29371E-03     894.597E-03    -184.593E-03    -516.664E-03    -61.7651E-03     769.900E-03    -514.795E-03     60.0742E-03     616.869E-03    -290.816E-03    -324.868E-03    -323.832E-03     615.834E-03    -290.816E-03     60.7396E-03     10.3047E+06     527.565E+03    -9.59760E+06    -539.851E+03     5.87050E+06    -4.09594E+06     4.40819E+06         79.4666
            1128     9.70348E-03     7.16080E-03     976.326E-03    -226.419E-03    -565.912E-03    -154.991E-03     903.029E-03    -564.043E-03     265.764E-03     610.723E-03    -289.709E-03    -320.430E-03    -319.999E-03     610.292E-03    -289.709E-03     38.9232E-03     12.5024E+06     1.20516E+06    -7.12308E+06     1.33153E+06     8.13461E+06    -2.88167E+06     3.77370E+06         75.7997
            1129     8.97741E-03     7.06028E-03         1.14948    -347.564E-03    -631.318E-03    -365.660E-03         1.14030    -604.042E-03    -33.5459E-03     602.738E-03    -289.331E-03    -315.636E-03    -315.451E-03     602.552E-03    -289.331E-03     24.6561E-03     13.4191E+06    -457.541E+03    -5.49465E+06     707.164E+03     9.11482E+06    -2.35506E+06     5.68998E+06         72.7784
            1130     8.24773E-03     6.99063E-03         1.42801    -521.052E-03    -705.028E-03    -582.754E-03         1.41062    -625.933E-03     245.602E-03     596.680E-03    -288.033E-03    -311.177E-03    -311.111E-03     596.613E-03    -288.033E-03     14.2585E-03     13.3694E+06     377.900E+03    -1.83810E+06     875.519E+03     10.9577E+06     76.0404E+03     4.95765E+06         70.3828
            1131     7.51484E-03     6.95399E-03         1.65593    -599.187E-03    -813.253E-03    -744.508E-03         1.61520    -627.199E-03     27.9644E-03     589.357E-03    -285.283E-03    -304.921E-03    -304.899E-03     589.334E-03    -285.283E-03     8.44800E-03     14.0210E+06     1.62438E+06     436.762E+03     1.59887E+06     12.8589E+06     1.62438E+06     3.68955E+06         68.5332
            1132     6.77783E-03     6.94289E-03         1.70727    -598.958E-03    -853.576E-03    -804.270E-03         1.67131    -612.300E-03    -63.5728E-03     578.340E-03    -280.838E-03    -297.751E-03    -297.734E-03     578.324E-03    -280.838E-03     5.99549E-03     15.3856E+06     3.13443E+06     599.072E+03     2.17950E+06      14.507E+06     2.43258E+06     3.19694E+06         67.1771
            1133     6.03541E-03     6.95182E-03         1.56540    -558.044E-03    -745.725E-03    -689.711E-03         1.54671    -595.367E-03     46.0917E-03     571.915E-03    -278.299E-03    -293.998E-03    -293.971E-03     571.889E-03    -278.299E-03     5.45036E-03     16.0614E+06     3.56471E+06     1.17650E+06     2.58655E+06     15.3531E+06     2.86286E+06     2.85050E+06         66.2462
            1134     5.28364E-03     6.98269E-03         1.44127    -514.861E-03    -685.790E-03    -607.019E-03         1.43358    -585.946E-03    -103.888E-03     568.698E-03    -278.587E-03    -291.323E-03    -291.282E-03     568.657E-03    -278.587E-03     5.83937E-03     16.5649E+06     3.77755E+06     2.33338E+06     2.97753E+06     16.0783E+06     3.62004E+06     2.38579E+06         65.5589
            1135     4.53705E-03     7.02547E-03         1.48043    -505.190E-03    -717.603E-03    -596.305E-03         1.43273    -578.788E-03    -268.070E-03     564.162E-03    -279.063E-03    -287.478E-03    -287.431E-03     564.116E-03    -279.063E-03     5.53386E-03     16.2121E+06     4.13537E+06     1.83171E+06     3.18925E+06     15.8517E+06     3.13828E+06     2.06067E+06         64.9799
            1136     3.78744E-03     7.07778E-03         1.61245    -522.809E-03    -745.469E-03    -642.937E-03         1.54976    -562.646E-03    -63.7574E-03     560.538E-03    -278.695E-03    -283.772E-03    -283.727E-03     560.493E-03    -278.695E-03     4.41553E-03     15.9350E+06     4.06391E+06     2.28268E+06     3.55956E+06     15.6160E+06     3.10609E+06     1.84389E+06         64.5243
            1137     3.03508E-03     7.12890E-03         1.81070    -499.481E-03    -941.718E-03    -880.666E-03         1.74965    -499.481E-03    -168.647E-03     558.296E-03    -277.326E-03    -281.054E-03    -280.764E-03     558.259E-03    -277.578E-03     2.97517E-03     16.3642E+06     4.28552E+06     3.74647E+06     4.19714E+06     16.1865E+06     4.01259E+06     1.32853E+06         64.2370
            1138     2.28005E-03     7.17521E-03         1.63923    -385.649E-03    -893.427E-03    -755.956E-03         1.50176    -385.649E-03     196.295E-03     555.694E-03    -276.024E-03    -279.180E-03    -278.898E-03     555.664E-03    -276.276E-03     1.53257E-03     16.1165E+06     4.75792E+06     3.72084E+06     4.10437E+06     16.0274E+06     4.46350E+06     1.02406E+06         64.0959
            1139     1.52223E-03     7.22063E-03         1.44877    -198.691E-03    -987.528E-03    -477.588E-03         1.01054    -270.406E-03    -452.578E-03     552.107E-03    -275.124E-03    -276.992E-03    -276.977E-03     552.092E-03    -275.124E-03    -329.550E-06     15.0872E+06     3.89159E+06     3.13475E+06     3.37855E+06     15.0194E+06     3.71558E+06     388.892E+03         64.0343
            1140     760.631E-06     7.24822E-03         1.44407     92.7632E-03        -1.42205    -407.131E-03     534.044E-03    -12.1261E-03     305.428E-03     548.825E-03    -272.522E-03    -276.262E-03    -273.470E-03     548.822E-03    -275.311E-03    -383.751E-06     15.4493E+06     6.77345E+06     4.64451E+06     6.75162E+06     15.4052E+06     4.71044E+06    -367.632E+03         64.0133
            1141     12.6148E-03     6.08637E-03     739.145E-03    -145.111E-03    -555.754E-03    -92.7389E-03     665.994E-03    -534.974E-03    -316.185E-03     638.997E-03    -297.421E-03    -339.314E-03    -334.791E-03     634.474E-03    -297.421E-03     131.448E-03     19.8350E+06    -7.96665E+06    -29.6634E+06     2.03885E+06    -4.07213E+06    -15.7618E+06     3.36222E+06         92.0639
            1142     11.9009E-03     5.79877E-03     723.747E-03    -57.1728E-03    -587.888E-03     46.5154E-03     620.058E-03    -587.888E-03     381.443E-03     638.946E-03    -292.094E-03    -341.824E-03    -338.277E-03     635.400E-03    -292.094E-03     112.122E-03     23.2232E+06    -5.60244E+06    -24.7434E+06    -1.44556E+06    -885.345E+03    -4.79166E+06     7.35516E+06         88.7024
            1143     11.1639E-03     5.60749E-03     876.445E-03    -69.5457E-03    -650.225E-03     81.6678E-03     725.232E-03    -650.225E-03     123.790E-03     629.400E-03    -288.389E-03    -334.639E-03    -333.464E-03     628.225E-03    -288.389E-03     65.5768E-03     12.9942E+06    -678.145E+03    -14.8578E+06    -1.88128E+06     2.47739E+06    -3.13780E+06     2.46773E+06         84.2566
            1144     10.4510E-03     5.43461E-03         1.05272    -119.764E-03    -712.989E-03    -9.43436E-03     942.393E-03    -712.989E-03    -85.5278E-03     616.590E-03    -288.112E-03    -327.198E-03    -326.648E-03     616.040E-03    -288.112E-03     40.2246E-03     11.3865E+06     1.26150E+06    -11.7417E+06     1.01207E+06     4.69989E+06    -4.80559E+06     4.08825E+06         79.7894
            1145     9.72942E-03     5.31902E-03         1.27315    -274.636E-03    -768.981E-03    -194.612E-03         1.19313    -768.981E-03     240.973E-03     604.696E-03    -287.731E-03    -317.621E-03    -317.455E-03     604.530E-03    -287.731E-03     19.2326E-03     14.5919E+06     1.18063E+06    -9.70432E+06    -279.916E+03     7.65868E+06    -1.31053E+06     6.49336E+06         75.9008
            1146     9.00175E-03     5.23294E-03         1.58015    -545.181E-03    -834.804E-03    -546.680E-03         1.55438    -807.529E-03     71.8429E-03     591.949E-03    -286.218E-03    -306.552E-03    -306.499E-03     591.896E-03    -286.218E-03     9.96064E-03     15.3443E+06     3.77318E+06    -2.72234E+06     718.374E+03     12.5416E+06     3.13521E+06     4.13275E+06         72.6368
            1147     8.26534E-03     5.18590E-03         1.83307    -729.492E-03    -903.060E-03    -783.509E-03         1.80799    -823.965E-03     286.585E-03     581.770E-03    -285.443E-03    -297.593E-03    -297.310E-03     581.750E-03    -285.705E-03     7.56246E-03     15.5688E+06     4.45028E+06     1.27686E+06     2.57939E+06     14.9042E+06     3.81230E+06     2.45717E+06         70.0188
            1148     7.52273E-03     5.16388E-03         2.01316    -792.941E-03        -1.00997    -949.343E-03         1.98109    -821.495E-03     479.320E-03     574.372E-03    -282.334E-03    -291.789E-03    -288.906E-03     574.337E-03    -285.182E-03     10.4267E-03     16.4309E+06     4.62729E+06     2.34312E+06     2.87978E+06     15.8942E+06     4.62729E+06     2.11275E+06         68.0310
            1149     6.77403E-03     5.16819E-03         2.05555    -801.731E-03        -1.05000        -1.04188         2.04743    -801.731E-03     90.8396E-03     567.334E-03    -277.575E-03    -288.521E-03    -283.253E-03     567.258E-03    -282.767E-03     14.9639E-03     16.7040E+06     5.14146E+06     2.53776E+06     2.74974E+06     16.4920E+06     5.14146E+06     1.55676E+06         66.6295
            1150     6.02146E-03     5.19037E-03         1.87768    -741.431E-03    -939.528E-03    -893.758E-03         1.86923    -778.754E-03    -146.025E-03     564.177E-03    -276.069E-03    -286.514E-03    -281.368E-03     564.050E-03    -281.089E-03     19.4845E-03     17.1372E+06     5.24036E+06     2.88196E+06     3.02629E+06     16.9929E+06     5.24036E+06     1.23847E+06         65.7427
            1151     5.26181E-03     5.22464E-03         1.72007    -696.390E-03    -847.485E-03    -768.042E-03         1.71171    -767.475E-03    -57.7529E-03     565.730E-03    -277.134E-03    -286.558E-03    -281.745E-03     565.559E-03    -281.775E-03     22.9983E-03     17.4937E+06     5.40040E+06     2.93873E+06     3.21299E+06     17.3769E+06     5.24289E+06     1.17031E+06         65.2180
            1152     4.51012E-03     5.27551E-03         1.81803    -688.444E-03    -897.333E-03    -776.760E-03         1.77106    -762.043E-03    -322.138E-03     565.712E-03    -279.363E-03    -286.965E-03    -282.688E-03     565.515E-03    -283.443E-03     24.6472E-03     17.0616E+06     5.06704E+06     2.90437E+06     3.16946E+06     16.9540E+06     4.90953E+06     1.09768E+06         64.8767
            1153     3.75844E-03     5.33009E-03         1.97193    -696.550E-03    -946.220E-03    -832.311E-03         1.91099    -749.522E-03    -132.003E-03     565.284E-03    -281.699E-03    -286.350E-03    -282.966E-03     565.093E-03    -284.893E-03     24.0750E-03     16.6248E+06     4.79300E+06     3.11099E+06     3.29633E+06     16.5577E+06     4.67475E+06     782.309E+03         64.6480
            1154     3.00688E-03     5.38436E-03         2.03877    -548.901E-03        -1.12409    -848.476E-03         1.93614    -721.880E-03    -236.116E-03     567.783E-03    -283.221E-03    -285.466E-03    -283.160E-03     567.635E-03    -285.379E-03     21.1564E-03     16.6273E+06     4.72877E+06     3.48842E+06     3.65078E+06     16.5832E+06     4.61052E+06     516.708E+03         64.5299
            1155     2.25504E-03     5.44047E-03         1.87515    -390.483E-03        -1.13566    -626.108E-03         1.68552    -710.413E-03    -378.935E-03     570.045E-03    -284.389E-03    -285.551E-03    -284.430E-03     569.952E-03    -285.418E-03     16.8179E-03     16.7215E+06     5.14326E+06     3.65914E+06     4.26973E+06     16.6785E+06     4.57559E+06     335.966E+03         64.4927
            1156     1.50418E-03     5.47851E-03         1.62223    -530.295E-03    -916.202E-03    -537.304E-03         1.47514    -762.096E-03     323.553E-03     570.623E-03    -284.721E-03    -286.072E-03    -285.292E-03     570.572E-03    -285.449E-03     11.7537E-03     16.8357E+06     5.45434E+06     4.10207E+06     4.99277E+06     16.7823E+06     4.61696E+06     145.438E+03         64.4979
            1157     755.628E-06     5.52196E-03         1.97461    -784.126E-03        -1.10109    -523.423E-03         1.67510        -1.06228    -267.811E-03     570.617E-03    -282.984E-03    -287.657E-03    -283.454E-03     570.598E-03    -287.168E-03     5.48700E-03     14.4854E+06     4.59154E+06     3.36818E+06     4.43705E+06     14.4335E+06     3.57458E+06    -219.709E+03         64.5357
            1158     12.6130E-03     4.17442E-03     727.467E-03    -142.313E-03    -680.313E-03    -45.3433E-03     630.497E-03    -680.313E-03    -31.7093E-03     666.885E-03    -297.051E-03    -367.500E-03    -363.505E-03     662.891E-03    -297.051E-03     126.146E-03     21.7891E+06    -5.17000E+06    -49.4007E+06    -8.73059E+06    -11.5547E+06    -12.4963E+06     1.02253E+06         92.6862
            1159     11.9195E-03     3.90386E-03     987.888E-03    -211.073E-03    -732.074E-03    -120.041E-03     896.856E-03    -732.074E-03     92.4657E-03     658.298E-03    -291.268E-03    -365.371E-03    -363.221E-03     656.148E-03    -291.268E-03     78.5647E-03     29.2108E+06    -4.09141E+06    -41.2800E+06    -465.149E+03    -7.50860E+06    -8.18684E+06     1.00566E+06         89.4216
            1160     11.1978E-03     3.71590E-03         1.18398    -225.219E-03    -781.628E-03    -155.504E-03         1.11427    -781.628E-03     228.196E-03     636.929E-03    -286.989E-03    -346.039E-03    -345.576E-03     636.466E-03    -286.989E-03     24.1757E-03     19.4962E+06     959.152E+03    -24.5368E+06     2.44501E+06     185.829E+03    -6.71220E+06     6.10459E+06         84.9957
            1161     10.4961E-03     3.58246E-03         1.40267    -333.602E-03    -824.845E-03    -330.284E-03         1.39935    -824.845E-03    -126.869E-03     610.667E-03    -284.412E-03    -325.811E-03    -325.649E-03     610.505E-03    -284.412E-03     2.50200E-03     18.6463E+06     10.0909E+06    -12.9129E+06    -757.026E+03     10.0664E+06     6.51503E+06     6.84089E+06         80.3859
            1162     9.77330E-03     3.49434E-03         1.63448    -526.393E-03    -858.189E-03    -504.661E-03         1.61275    -858.189E-03     177.826E-03     587.953E-03    -282.587E-03    -305.937E-03    -305.903E-03     587.919E-03    -282.587E-03    -4.21741E-03     20.5786E+06     10.1403E+06    -3.14908E+06     1.70974E+06     16.1803E+06     9.67986E+06     1.84677E+06         76.2757
            1163     9.03266E-03     3.44320E-03         1.68860    -553.076E-03    -888.750E-03    -508.007E-03         1.64353    -888.750E-03     414.880E-06     571.642E-03    -280.029E-03    -291.569E-03    -289.493E-03     571.637E-03    -282.099E-03    -601.486E-06     17.3248E+06     7.25498E+06     1.79405E+06     3.33787E+06     16.8794E+06     6.15657E+06    -580.898E+03         72.7975
            1164     8.27959E-03     3.41824E-03         1.68974    -553.988E-03    -924.726E-03    -504.992E-03         1.64075    -924.726E-03    -38.9098E-03     560.077E-03    -275.781E-03    -284.684E-03    -278.641E-03     560.059E-03    -281.806E-03     6.40155E-03     16.6427E+06     5.59404E+06     2.05500E+06     2.74195E+06     16.5937E+06     4.95606E+06     603.739E+03         69.9761
            1165     7.52143E-03     3.41329E-03         1.73773    -576.726E-03    -968.327E-03    -544.495E-03         1.70308    -965.904E-03     422.314E-03     554.533E-03    -271.175E-03    -282.859E-03    -271.109E-03     554.468E-03    -282.859E-03     14.1068E-03     17.3850E+06     5.07881E+06     2.69944E+06     2.72996E+06     17.3545E+06     5.07881E+06     443.938E+03         67.8503
            1166     6.75651E-03     3.42235E-03         1.92021    -689.753E-03        -1.06136    -731.823E-03         1.90303        -1.00211     49.7533E-03     555.106E-03    -269.495E-03    -286.011E-03    -269.362E-03     554.973E-03    -286.011E-03     20.6909E-03     17.4652E+06     5.31420E+06     3.01139E+06     3.03915E+06     17.4374E+06     5.31420E+06     411.609E+03         66.4378
            1167     5.99326E-03     3.44531E-03         2.21208    -906.192E-03        -1.18201        -1.06951         2.20478        -1.01139    -96.3690E-03     556.600E-03    -269.984E-03    -287.511E-03    -269.778E-03     556.394E-03    -287.511E-03     25.9898E-03     17.1837E+06     6.47668E+06     3.12218E+06     3.13518E+06     17.1707E+06     6.47668E+06     238.406E+03         65.6426
            1168     5.22696E-03     3.47842E-03         2.39438    -983.367E-03        -1.26217        -1.26044         2.39265    -983.367E-03     156.031E-03     562.167E-03    -272.880E-03    -289.303E-03    -272.616E-03     561.902E-03    -289.303E-03     29.6913E-03     17.3542E+06     7.05457E+06     2.97846E+06     3.01006E+06     17.3226E+06     7.05457E+06     332.146E+03         65.3026
            1169     4.46880E-03     3.51799E-03         2.33026    -934.538E-03        -1.22708        -1.21437         2.31756    -934.538E-03    -147.689E-03     571.532E-03    -278.011E-03    -292.531E-03    -277.713E-03     571.234E-03    -292.531E-03     31.8015E-03     17.3945E+06     5.59632E+06     3.11836E+06     3.15103E+06     17.3618E+06     5.59632E+06     347.850E+03         65.2578
            1170     3.71545E-03     3.56635E-03         1.94709    -710.826E-03        -1.04194    -826.111E-03         1.93485    -914.414E-03    -209.991E-03     578.902E-03    -283.867E-03    -294.979E-03    -283.572E-03     578.607E-03    -294.979E-03     31.8758E-03     17.0281E+06     4.56851E+06     2.82559E+06     3.28095E+06     17.0187E+06     4.12255E+06     342.551E+03         65.3611
            1171     2.96678E-03     3.61568E-03         1.79739    -562.687E-03    -983.166E-03    -458.449E-03         1.69315    -983.166E-03    -76.3684E-03     586.023E-03    -289.641E-03    -296.615E-03    -289.390E-03     585.773E-03    -296.615E-03     29.5212E-03     16.6345E+06     4.05787E+06     2.49058E+06     3.22301E+06     16.5750E+06     3.38491E+06     516.981E+03         65.4993
            1172     2.22278E-03     3.66127E-03         2.20207    -729.031E-03        -1.25923    -731.971E-03         2.05179        -1.10601    -631.784E-03     592.070E-03    -293.820E-03    -298.344E-03    -293.643E-03     591.893E-03    -298.344E-03     24.7708E-03     16.4191E+06     3.82503E+06     2.40151E+06     3.27748E+06     16.3378E+06     3.03035E+06     564.458E+03         65.6279
            1173     1.47978E-03     3.70588E-03         2.63169    -987.510E-03        -1.46719        -1.22527         2.54985        -1.14760    -25.5985E-03     596.797E-03    -296.860E-03    -300.215E-03    -296.764E-03     596.700E-03    -300.215E-03     18.0250E-03     16.7681E+06     4.38745E+06     3.01192E+06     3.91954E+06     16.6616E+06     3.58634E+06     9.20839E+03         65.7523
            1174     734.785E-06     3.73443E-03         3.27206        -1.07122        -2.09476        -1.03909         2.38965        -1.24449        -2.12126     602.580E-03    -299.766E-03    -302.981E-03    -300.538E-03     602.548E-03    -302.176E-03     9.62063E-03     11.8099E+06     1.56248E+06    -687.953E+03    -360.699E+03     11.7160E+06     1.32905E+06    -498.408E+03         65.8847
            1175     12.6329E-03     2.19564E-03         1.29348    -295.455E-03    -765.185E-03    -196.972E-03         1.19499    -765.185E-03    -16.2714E-03     740.900E-03    -295.748E-03    -444.078E-03    -441.298E-03     738.120E-03    -295.748E-03     101.364E-03     44.7850E+06     5.79349E+06    -65.6612E+06    -2.28065E+06    -18.7589E+06     5.95686E+06    -3.50035E+06         93.7198
            1176     11.9737E-03     1.94856E-03         1.45933    -377.759E-03    -796.546E-03    -344.007E-03         1.42557    -796.546E-03    -226.839E-03     680.516E-03    -288.553E-03    -394.991E-03    -394.381E-03     679.906E-03    -288.553E-03     16.9708E-03     38.1270E+06     365.520E+03    -52.4371E+06     358.289E+03    -10.9392E+06    -3.36368E+06    -17.7972E+06         90.7106
            1177     11.2657E-03     1.83045E-03         1.53332    -450.066E-03    -822.929E-03    -442.058E-03         1.52531    -822.929E-03    -55.7105E-03     631.106E-03    -283.158E-03    -348.236E-03    -348.056E-03     630.926E-03    -283.158E-03    -20.7626E-03     26.4298E+06     5.73199E+06    -22.3153E+06     2.71726E+06     5.12643E+06     2.00279E+06     17.4242E+06         86.4089
            1178     10.5538E-03     1.76331E-03         1.60420    -515.675E-03    -846.865E-03    -504.407E-03         1.59293    -846.865E-03    -32.7799E-03     595.002E-03    -279.818E-03    -314.554E-03    -314.455E-03     594.903E-03    -279.818E-03    -17.9903E-03     26.6739E+06     13.2417E+06    -7.79976E+06     3.04508E+06     15.8291E+06     13.2417E+06    -1.04735E+06         81.7615
            1179     9.81361E-03     1.72510E-03         1.67845    -558.919E-03    -871.335E-03    -536.285E-03         1.65582    -871.335E-03    -32.9265E-03     569.052E-03    -276.409E-03    -291.732E-03    -289.200E-03     569.019E-03    -278.908E-03    -8.64784E-03     23.3459E+06     9.32049E+06    -4.59972E+06     3.74060E+06     15.4660E+06     8.86006E+06    -7.00948E+06         77.5186
            1180     9.05182E-03     1.70430E-03         1.68363    -524.104E-03    -902.109E-03    -473.932E-03         1.63346    -902.109E-03    -215.511E-03     552.111E-03    -270.102E-03    -281.365E-03    -271.853E-03     552.105E-03    -279.609E-03    -437.329E-06     17.7440E+06     7.29915E+06     1.39602E+06     3.11366E+06     16.4868E+06     6.83872E+06     691.369E+03         73.8804
            1181     8.28325E-03     1.69566E-03         1.68629    -486.202E-03    -942.840E-03    -449.852E-03         1.64994    -942.840E-03    -187.674E-03     544.064E-03    -262.901E-03    -280.570E-03    -262.885E-03     544.048E-03    -280.570E-03     6.17443E-03     16.8512E+06     6.50931E+06     2.26926E+06     2.35117E+06     16.7692E+06     6.50931E+06    -85.6312E+03         70.9071
            1182     7.50970E-03     1.69785E-03         1.64957    -443.208E-03    -994.291E-03    -434.311E-03         1.64067    -994.291E-03    -111.498E-03     540.691E-03    -258.929E-03    -283.042E-03    -258.881E-03     540.643E-03    -283.042E-03     11.3895E-03     17.0229E+06     5.77427E+06     2.44940E+06     2.46576E+06     17.0065E+06     5.77427E+06     58.1917E+03         68.6509
            1183     6.73743E-03     1.70536E-03         1.72777    -479.594E-03        -1.05711    -460.916E-03         1.70910        -1.05711    -244.740E-03     544.850E-03    -259.532E-03    -287.720E-03    -259.445E-03     544.764E-03    -287.720E-03     15.4383E-03     17.4693E+06     5.57670E+06     2.47851E+06     2.48909E+06     17.4588E+06     5.57670E+06         867.055         67.1570
            1184     5.96574E-03     1.71833E-03         1.97562    -598.740E-03        -1.18667    -642.297E-03         1.95455        -1.12204    -324.799E-03     551.445E-03    -262.335E-03    -291.043E-03    -262.211E-03     551.322E-03    -291.043E-03     18.6075E-03     17.2783E+06     5.27486E+06     2.33532E+06     2.34606E+06     17.2675E+06     5.27486E+06    -6.53947E+03         66.4047
            1185     5.19395E-03     1.73666E-03         2.20937    -643.314E-03        -1.37780    -812.334E-03         2.17959        -1.17900     152.850E-03     562.582E-03    -267.834E-03    -294.376E-03    -267.681E-03     562.428E-03    -294.376E-03     20.7814E-03     16.8855E+06     4.59055E+06     2.39921E+06     2.48319E+06     16.8763E+06     4.51570E+06    -188.661E+03         66.2649
            1186     4.43291E-03     1.76423E-03         2.33172    -770.031E-03        -1.38954    -891.923E-03         2.29636        -1.23229    -50.6504E-03     576.534E-03    -275.529E-03    -299.079E-03    -275.362E-03     576.367E-03    -299.079E-03     21.9234E-03     16.7279E+06     3.90979E+06     2.52625E+06     2.60875E+06     16.7202E+06     3.83494E+06    -73.6456E+03         66.4931
            1187     3.67786E-03     1.78789E-03         2.38702    -918.620E-03        -1.36713    -984.276E-03         2.37233        -1.28680    -228.051E-03     587.412E-03    -284.303E-03    -303.608E-03    -284.137E-03     587.246E-03    -303.608E-03     22.1998E-03     16.7145E+06     3.74303E+06     2.24457E+06     2.69649E+06     16.7086E+06     3.29707E+06     59.9654E+03         66.8420
            1188     2.92998E-03     1.81893E-03         2.60279        -1.08255        -1.45481        -1.17367         2.56915        -1.33005     571.964E-03     599.671E-03    -293.122E-03    -307.935E-03    -292.971E-03     599.520E-03    -307.935E-03     21.2874E-03     16.6626E+06     3.50085E+06     2.04264E+06     2.77112E+06     16.6071E+06     2.82789E+06     343.959E+03         67.1780
            1189     2.18846E-03     1.84827E-03         2.84266        -1.24121        -1.55376        -1.40177         2.78249        -1.33303     487.187E-03     613.249E-03    -301.669E-03    -311.821E-03    -301.553E-03     613.134E-03    -311.821E-03     18.1714E-03     16.5700E+06     3.22131E+06     2.07870E+06     2.54348E+06     16.4910E+06     2.83560E+06     630.668E+03         67.4664
            1190     1.45432E-03     1.87806E-03         2.87292        -1.17999        -1.58509        -1.36695         2.77909        -1.30429     708.774E-03     624.391E-03    -309.598E-03    -314.756E-03    -309.538E-03     624.331E-03    -314.756E-03     12.9936E-03     15.9171E+06     2.55392E+06     1.75923E+06     2.07027E+06     15.8263E+06     2.33366E+06    -279.231E+03         67.7091
            1191     728.577E-06     1.89508E-03         3.83090        -1.20445        -2.47851        -1.27538         2.71730        -1.29397        -2.72784     632.059E-03    -314.481E-03    -317.639E-03    -316.126E-03     632.039E-03    -315.974E-03     8.05677E-03     14.4388E+06     2.83987E+06     407.898E+03     900.045E+03     14.0082E+06     2.77832E+06     319.367E+03         67.9149
            1192     740.481E-06     102.440E-03         5.60283    -910.455E-03        -4.99887    -462.848E-03         1.06681    -910.455E-03         2.64806     597.207E-03    -297.969E-03    -299.173E-03    -297.966E-03     597.204E-03    -299.173E-03    -3.10595E-03    -15.5856E+06    -26.2949E+06    -27.3402E+06    -27.0146E+06    -15.6204E+06    -26.5859E+06    -60.3839E+03         66.4153
            1193     1.48094E-03     102.427E-03         3.33115    -574.932E-03        -2.88935    -106.197E-03     547.996E-03    -574.932E-03        -1.55562     594.079E-03    -296.707E-03    -298.416E-03    -296.698E-03     594.070E-03    -298.416E-03    -5.59422E-03    -12.5876E+06    -24.3955E+06    -25.9764E+06    -25.8562E+06    -12.6382E+06    -24.4651E+06     316.987E+03         66.3495
            1194     2.22189E-03     102.403E-03         1.94539    -359.227E-03        -1.53179     256.776E-03     156.822E-03    -359.227E-03         1.19815     591.034E-03    -294.831E-03    -297.088E-03    -294.816E-03     591.020E-03    -297.088E-03    -7.15236E-03    -10.7236E+06    -21.6222E+06    -25.1711E+06    -25.1417E+06    -10.7530E+06    -21.6222E+06     634.980E+03         66.3089
            1195     2.96262E-03     102.381E-03         1.23106    -217.738E-03    -964.418E-03     118.322E-03     148.317E-03    -217.738E-03    -139.284E-03     589.380E-03    -294.970E-03    -296.547E-03    -295.345E-03     589.365E-03    -296.157E-03    -7.41840E-03    -8.13568E+06    -17.9583E+06    -23.7682E+06    -23.7193E+06    -8.18456E+06    -17.9583E+06     839.912E+03         66.3883
            1196     3.70337E-03     102.365E-03     920.560E-03    -173.625E-03    -723.530E-03    -123.391E-03     320.421E-03    -173.625E-03     601.735E-03     591.286E-03    -295.700E-03    -299.800E-03    -299.788E-03     591.275E-03    -295.700E-03    -6.26557E-03    -4.76709E+06    -13.3588E+06    -21.7213E+06    -21.6252E+06    -4.86320E+06    -13.3588E+06     1.18736E+06         66.5927
            1197     4.44421E-03     102.348E-03     694.403E-03    -179.386E-03    -591.458E-03    -276.008E-03     378.953E-03    -179.386E-03     185.318E-03     599.657E-03    -295.214E-03    -301.701E-03    -301.696E-03     599.653E-03    -295.214E-03    -3.47015E-03    -2.03022E+06    -9.50135E+06    -20.2452E+06    -20.1333E+06    -2.14204E+06    -9.50135E+06     1.34079E+06         66.8968
            1198     5.18485E-03     102.337E-03     670.919E-03    -187.336E-03    -614.903E-03    -162.487E-03     218.504E-03    -187.336E-03         1.15905     603.966E-03    -296.222E-03    -299.140E-03    -299.136E-03     603.963E-03    -296.222E-03     1.59162E-03     740.628E+03    -5.91981E+06    -18.4146E+06    -18.2847E+06     610.756E+03    -5.91981E+06     1.55440E+06         67.3035
            1199     5.92643E-03     102.335E-03     736.950E-03    -173.493E-03    -610.119E-03     18.1820E-03     108.649E-03    -173.493E-03     694.271E-03     599.377E-03    -297.241E-03    -298.994E-03    -297.360E-03     599.356E-03    -298.854E-03     8.10154E-03     4.77055E+06    -1.32430E+06    -16.4374E+06    -16.3021E+06     4.63520E+06    -1.32430E+06     1.66673E+06         67.7414
            1200     6.66782E-03     102.349E-03     646.474E-03    -157.745E-03    -498.875E-03    -130.579E-03     278.177E-03    -157.745E-03     270.139E-03     591.213E-03    -297.050E-03    -301.588E-03    -296.972E-03     591.134E-03    -301.588E-03     16.0088E-03     7.72199E+06     3.73682E+06    -14.5478E+06    -14.4386E+06     7.61279E+06     3.73682E+06     1.51423E+06         68.2044
            1201     7.40883E-03     102.379E-03     636.746E-03    -130.262E-03    -488.494E-03    -252.743E-03     427.669E-03    -156.935E-03     608.538E-03     588.881E-03    -297.201E-03    -302.611E-03    -297.024E-03     588.705E-03    -302.611E-03     24.6528E-03     9.73535E+06     8.11666E+06    -12.3450E+06    -12.2553E+06      9.6457E+06     8.11666E+06     1.33575E+06         68.8620
            1202     8.15064E-03     102.412E-03     628.353E-03    -80.9456E-03    -543.897E-03    -264.078E-03     429.067E-03    -161.477E-03     342.405E-03     593.552E-03    -296.369E-03    -300.476E-03    -296.034E-03     593.218E-03    -300.476E-03     34.0925E-03     12.7925E+06     11.1110E+06    -10.3094E+06    -10.2133E+06     12.6963E+06     11.1110E+06     1.41207E+06         69.8766
            1203     8.89264E-03     102.470E-03     574.693E-03    -107.491E-03    -543.650E-03    -179.242E-03     264.144E-03    -161.350E-03     457.274E-03     594.665E-03    -292.562E-03    -296.485E-03    -291.993E-03     594.096E-03    -296.485E-03     44.6120E-03     14.6171E+06     13.3262E+06    -8.46644E+06    -8.37705E+06     14.4739E+06     13.3801E+06     1.36379E+06         71.4192
            1204     9.63198E-03     102.567E-03     511.877E-03    -154.655E-03    -471.657E-03    -108.851E-03     149.071E-03    -154.655E-03     738.050E-03     593.434E-03    -292.280E-03    -295.121E-03    -291.949E-03     592.563E-03    -294.581E-03     55.3129E-03     15.6537E+06     15.1728E+06    -6.57761E+06    -6.51775E+06     15.3990E+06     15.3676E+06     1.13440E+06         73.7133
            1205     10.3738E-03     102.656E-03     373.742E-03    -114.043E-03    -305.144E-03    -96.0907E-03     196.533E-03    -145.887E-03     53.7653E-03     592.582E-03    -297.011E-03    -298.105E-03    -296.196E-03     591.227E-03    -297.564E-03     68.9321E-03     16.6365E+06     15.8135E+06    -4.99361E+06    -4.94544E+06     16.2463E+06     16.1556E+06     979.838E+03         76.8350
            1206     11.1149E-03     102.785E-03     465.145E-03    -87.7163E-03    -327.177E-03    -152.751E-03     342.860E-03    -139.857E-03    -16.7810E-03     595.991E-03    -298.162E-03    -299.319E-03    -296.883E-03     594.107E-03    -298.715E-03     81.8873E-03     17.4525E+06     16.1614E+06    -3.65074E+06    -3.61613E+06     16.6786E+06     16.9008E+06     806.088E+03         80.6547
            1207     11.8736E-03     102.955E-03     582.597E-03    -119.670E-03    -391.332E-03    -241.867E-03     453.428E-03    -139.966E-03    -243.555E-03     601.040E-03    -296.841E-03    -301.881E-03    -298.740E-03     597.900E-03    -296.841E-03     104.831E-03     19.1848E+06     17.3835E+06    -2.16799E+06    -2.14194E+06     17.5716E+06     18.9707E+06     701.726E+03         84.8088
            1208     12.6147E-03     103.145E-03     447.180E-03    -53.3555E-03    -274.942E-03    -17.5714E-03     273.354E-03    -136.901E-03    -336.104E-03     603.105E-03    -296.626E-03    -302.790E-03    -299.180E-03     599.495E-03    -296.626E-03     113.788E-03     20.4341E+06     17.1897E+06    -1.15992E+06    -1.14749E+06     17.1772E+06     20.4341E+06     332.236E+03         88.4962
            1209     740.537E-06     104.265E-03         4.27037     89.3636E-03        -4.68323     225.405E-03    -638.273E-03     89.3636E-03         2.90204     597.153E-03    -297.369E-03    -299.732E-03    -297.366E-03     597.150E-03    -299.732E-03    -3.17721E-03    -15.4412E+06    -26.3720E+06    -27.0646E+06    -26.7115E+06    -15.4829E+06    -26.6834E+06    -64.6905E+03         66.3905
            1210     1.48126E-03     104.245E-03         2.04005     46.1937E-03        -2.37748    -369.454E-03     32.0246E-03     46.1937E-03        -1.62075     594.210E-03    -296.769E-03    -298.406E-03    -296.760E-03     594.200E-03    -298.406E-03    -5.73645E-03    -13.4963E+06    -25.3554E+06    -26.8588E+06    -26.7452E+06    -13.5403E+06    -25.4250E+06     212.590E+03         66.3222
            1211     2.22211E-03     104.217E-03         1.04967    -55.8293E-03        -1.03294    -3.76866E-03     20.5007E-03    -55.8293E-03     692.034E-03     591.125E-03    -294.824E-03    -297.108E-03    -294.809E-03     591.110E-03    -297.108E-03    -7.25348E-03    -11.6201E+06    -22.7325E+06    -26.0220E+06    -25.9932E+06    -11.6488E+06    -22.7325E+06     588.533E+03         66.2652
            1212     2.96298E-03     104.189E-03     642.300E-03    -22.2510E-03    -531.423E-03     201.813E-03    -90.9356E-03    -22.2510E-03    -120.740E-03     589.430E-03    -295.032E-03    -296.588E-03    -295.398E-03     589.413E-03    -296.206E-03    -7.55005E-03    -9.00968E+06    -18.9117E+06    -24.6911E+06    -24.6524E+06    -9.04840E+06    -18.9117E+06     582.915E+03         66.3175
            1213     3.70330E-03     104.168E-03     478.574E-03     14.7108E-03    -505.445E-03     113.691E-03    -140.562E-03     14.7108E-03     15.2882E-03     591.580E-03    -295.794E-03    -299.934E-03    -299.923E-03     591.568E-03    -295.794E-03    -6.25453E-03    -6.14973E+06    -14.9778E+06    -23.0406E+06    -22.9942E+06    -6.19618E+06    -14.9778E+06     679.482E+03         66.5106
            1214     4.44370E-03     104.152E-03     526.133E-03     17.2845E-03    -577.924E-03    -65.4220E-03     13.6303E-03     17.2845E-03     26.2607E-03     599.935E-03    -295.298E-03    -301.730E-03    -301.726E-03     599.931E-03    -295.298E-03    -3.26647E-03    -3.11917E+06    -10.7828E+06    -21.3802E+06    -21.2953E+06    -3.20404E+06    -10.7828E+06     1.20069E+06         66.8252
            1215     5.18497E-03     104.141E-03     693.081E-03    -2.37505E-03    -741.941E-03    -176.379E-03     127.519E-03    -2.37505E-03     205.376E-03     603.931E-03    -296.257E-03    -299.070E-03    -298.994E-03     603.927E-03    -296.330E-03     1.73566E-03    -23.5644E+03    -6.02992E+06    -19.6425E+06    -19.5317E+06    -134.339E+03    -6.02992E+06     1.37424E+06         67.2448
            1216     5.92672E-03     104.144E-03     652.414E-03    -12.1557E-03    -706.807E-03     29.8059E-03    -84.1989E-03    -12.1557E-03     133.568E-03     598.928E-03    -296.949E-03    -298.988E-03    -296.996E-03     598.907E-03    -298.921E-03     8.01739E-03     3.88002E+06    -853.453E+03    -17.5885E+06    -17.4657E+06     3.75724E+06    -853.453E+03     1.52412E+06         67.6911
            1217     6.66761E-03     104.162E-03     398.184E-03    -2.26358E-03    -350.911E-03     118.856E-03    -71.5835E-03    -2.26358E-03     277.359E-03     590.437E-03    -296.648E-03    -301.482E-03    -296.574E-03     590.364E-03    -301.482E-03     15.5656E-03     7.78230E+06     4.11932E+06    -15.4003E+06    -15.2642E+06     7.64627E+06     4.11932E+06     1.71428E+06         68.1691
            1218     7.40868E-03     104.192E-03     539.479E-03     2.37586E-03    -494.484E-03    -56.3026E-03     101.298E-03     2.37586E-03    -24.1999E-03     588.610E-03    -297.151E-03    -302.526E-03    -296.982E-03     588.441E-03    -302.526E-03     24.1381E-03     10.4733E+06     8.33136E+06    -13.3995E+06    -13.3065E+06     10.3802E+06     8.33136E+06     1.38037E+06         68.8536
            1219     8.15033E-03     104.221E-03     672.176E-03    -12.0412E-03    -644.396E-03    -296.993E-03     324.774E-03    -12.0412E-03     112.913E-03     593.752E-03    -296.524E-03    -300.476E-03    -296.192E-03     593.420E-03    -300.476E-03     33.9475E-03     12.4884E+06     11.6012E+06    -11.2833E+06    -11.2133E+06     12.3986E+06     11.6210E+06     1.05634E+06         69.8895
            1220     8.89249E-03     104.268E-03     725.936E-03    -41.3888E-03    -690.351E-03    -499.785E-03     535.370E-03    -41.3888E-03    -196.874E-03     594.781E-03    -292.685E-03    -296.498E-03    -292.108E-03     594.204E-03    -296.498E-03     44.8842E-03     14.3721E+06     13.5466E+06    -9.16067E+06    -9.07364E+06     14.2653E+06     13.5664E+06     1.19528E+06         71.4393
            1221     9.63299E-03     104.352E-03     576.660E-03    -65.0212E-03    -559.723E-03    -272.369E-03     289.305E-03    -65.0212E-03    -76.8064E-03     593.480E-03    -292.282E-03    -295.071E-03    -291.895E-03     592.607E-03    -294.584E-03     55.3941E-03     15.8128E+06     14.7367E+06    -7.39418E+06    -7.32747E+06     15.6052E+06     14.8776E+06     1.21144E+06         73.7385
            1222     10.3748E-03     104.431E-03     364.129E-03    -73.0068E-03    -367.467E-03    -170.321E-03     166.984E-03    -73.0068E-03     303.513E-03     592.351E-03    -296.903E-03    -297.967E-03    -296.039E-03     591.001E-03    -297.480E-03     68.7746E-03     16.8214E+06     15.8731E+06    -5.85498E+06    -5.80914E+06     16.6347E+06     16.0141E+06     975.713E+03         76.8699
            1223     11.1161E-03     104.554E-03     498.917E-03    -77.2927E-03    -464.573E-03    -241.283E-03     275.626E-03    -77.2927E-03     294.563E-03     595.756E-03    -298.094E-03    -299.303E-03    -296.856E-03     593.887E-03    -298.671E-03     81.5886E-03     17.7937E+06     16.2687E+06    -4.28827E+06    -4.25853E+06     16.7049E+06     17.3278E+06     742.927E+03         80.6947
            1224     11.8739E-03     104.727E-03     504.620E-03    -74.3426E-03    -493.865E-03    -72.9035E-03     83.6586E-03    -74.3426E-03    -40.8545E-03     600.898E-03    -296.865E-03    -301.745E-03    -298.615E-03     597.768E-03    -296.865E-03     104.558E-03     19.9561E+06     17.5333E+06    -2.85456E+06    -2.83311E+06     17.5118E+06     19.9561E+06     643.280E+03         84.8434
            1225     12.6151E-03     104.923E-03     426.920E-03    -29.9977E-03    -515.209E-03    -2.49108E-03    -56.9527E-03    -58.8432E-03     158.891E-03     602.906E-03    -296.615E-03    -302.712E-03    -299.099E-03     599.294E-03    -296.615E-03     113.803E-03     22.4134E+06     18.2370E+06    -1.46947E+06    -1.45488E+06     18.2224E+06     22.4134E+06     410.507E+03         88.5259
            1226     741.018E-06     106.089E-03         4.01265     94.1940E-03        -4.09723     422.802E-03    -507.377E-03     94.1940E-03         4.15070     596.898E-03    -297.108E-03    -299.738E-03    -297.104E-03     596.894E-03    -299.738E-03    -2.90641E-03    -17.0795E+06    -28.0234E+06    -28.6519E+06    -28.5923E+06    -17.1186E+06    -28.0439E+06     400.350E+03         66.3692
            1227     1.48145E-03     106.065E-03         1.21481     206.782E-03        -1.34046    -31.4365E-03    -94.2221E-03     206.782E-03        -1.39207     594.411E-03    -296.854E-03    -298.366E-03    -296.843E-03     594.400E-03    -298.366E-03    -6.16815E-03    -14.3594E+06    -26.0890E+06    -28.0319E+06    -27.9705E+06    -14.4208E+06    -26.0890E+06     760.836E+03         66.2974
            1228     2.22191E-03     106.024E-03     561.617E-03     82.4165E-03    -689.182E-03    -332.313E-03     204.748E-03     82.4165E-03    -33.4668E-03     591.422E-03    -294.998E-03    -297.188E-03    -294.981E-03     591.405E-03    -297.188E-03    -7.68138E-03    -12.2840E+06    -23.1511E+06    -27.0821E+06    -27.0164E+06    -12.3497E+06    -23.1511E+06     867.861E+03         66.2255
            1229     2.96235E-03     105.988E-03     477.066E-03    -11.4896E-03    -553.561E-03    -226.916E-03     150.421E-03    -11.4896E-03    -703.384E-03     589.461E-03    -295.134E-03    -296.739E-03    -295.573E-03     589.444E-03    -296.281E-03    -7.93773E-03    -9.73234E+06    -19.5665E+06    -25.7623E+06    -25.6301E+06    -9.86453E+06    -19.5665E+06     1.02494E+06         66.2513
            1230     3.70347E-03     105.963E-03     403.691E-03    -41.5157E-03    -414.855E-03    -93.4013E-03     82.2380E-03    -41.5157E-03    -449.836E-03     591.491E-03    -295.883E-03    -299.981E-03    -299.969E-03     591.478E-03    -295.883E-03    -6.51694E-03    -7.26456E+06    -15.8141E+06    -24.7301E+06    -24.5693E+06    -7.42542E+06    -15.8141E+06     1.30209E+06         66.4275
            1231     4.44429E-03     105.940E-03     411.105E-03    -40.7463E-03    -425.987E-03     7.31776E-03    -22.1998E-03    -40.7463E-03    -429.788E-03     599.990E-03    -295.384E-03    -301.708E-03    -301.704E-03     599.986E-03    -295.384E-03    -3.37289E-03    -4.12902E+06    -11.5824E+06    -22.8629E+06    -22.7690E+06    -4.22287E+06    -11.5824E+06     1.31513E+06         66.7393
            1232     5.18502E-03     105.927E-03     547.355E-03    -26.1647E-03    -526.856E-03     106.630E-03    -86.1321E-03    -26.1647E-03    -638.322E-03     603.796E-03    -296.218E-03    -299.043E-03    -298.898E-03     603.793E-03    -296.361E-03     1.65913E-03    -246.222E+03    -6.77181E+06    -20.5406E+06    -20.4567E+06    -330.045E+03    -6.77181E+06     1.23347E+06         67.1561
            1233     5.92673E-03     105.932E-03     644.334E-03    -19.3967E-03    -607.648E-03    -60.8691E-03     97.5556E-03    -19.3967E-03    -674.474E-03     598.828E-03    -296.923E-03    -298.883E-03    -296.902E-03     598.807E-03    -298.883E-03     8.03181E-03     3.10312E+06    -997.539E+03    -18.7830E+06    -18.7001E+06     3.02018E+06    -997.539E+03     1.23414E+06         67.5956
            1234     6.66720E-03     105.950E-03     400.957E-03    -10.8473E-03    -368.245E-03    -73.1931E-03     121.009E-03    -25.9519E-03    -286.152E-03     590.423E-03    -296.726E-03    -301.396E-03    -296.652E-03     590.349E-03    -301.396E-03     15.6653E-03     6.82294E+06     4.63746E+06    -16.7375E+06    -16.6330E+06     6.71846E+06     4.63746E+06     1.41431E+06         68.0727
            1235     7.40777E-03     105.990E-03     406.531E-03    -11.1821E-03    -309.076E-03     61.4172E-03     51.1425E-03    -26.2867E-03    -640.370E-03     588.583E-03    -297.140E-03    -302.443E-03    -296.968E-03     588.411E-03    -302.443E-03     24.2855E-03     11.0990E+06     8.78904E+06    -14.1860E+06    -14.0693E+06     10.9823E+06     8.78904E+06     1.59096E+06         68.7736
            1236     8.14950E-03     106.025E-03     570.036E-03    -19.8854E-03    -463.722E-03     71.2995E-03     35.0142E-03    -19.8854E-03    -276.635E-03     593.832E-03    -296.396E-03    -300.433E-03    -296.064E-03     593.501E-03    -300.433E-03     33.9217E-03     12.9027E+06     11.6236E+06    -12.0751E+06    -11.9636E+06     12.7516E+06     11.6631E+06     1.40515E+06         69.8326
            1237     8.89145E-03     106.073E-03     772.118E-03    -14.6724E-03    -669.480E-03     41.5804E-03     61.0581E-03    -14.6724E-03    -499.329E-03     594.744E-03    -292.655E-03    -296.477E-03    -292.080E-03     594.169E-03    -296.477E-03     44.7985E-03     14.2370E+06     13.3692E+06    -10.3691E+06    -10.2698E+06     13.7208E+06     13.7861E+06     1.27358E+06         71.4006
            1238     9.63148E-03     106.157E-03     602.444E-03    -12.4881E-03    -501.587E-03    -29.4745E-03     130.332E-03    -12.4881E-03    -878.397E-03     593.254E-03    -292.364E-03    -294.988E-03    -291.875E-03     592.376E-03    -294.600E-03     55.5052E-03     16.6205E+06     15.3498E+06    -8.37021E+06    -8.31323E+06     16.0852E+06     15.8282E+06     1.09755E+06         73.7216
            1239     10.3740E-03     106.232E-03     413.806E-03    -7.52258E-03    -396.831E-03     69.1800E-03    -52.2047E-03    -7.52258E-03     266.970E-03     592.665E-03    -297.031E-03    -297.931E-03    -296.065E-03     591.311E-03    -297.543E-03     68.8977E-03     17.7000E+06     16.5749E+06    -6.37684E+06    -6.34570E+06     17.0135E+06     17.2302E+06     803.426E+03         76.8777
            1240     11.1155E-03     106.352E-03     522.836E-03     11.1952E-03    -643.546E-03     285.375E-03    -406.085E-03     11.1952E-03     218.094E-03     596.029E-03    -298.109E-03    -299.239E-03    -296.852E-03     594.154E-03    -298.621E-03     81.7179E-03     18.7902E+06     16.5051E+06    -4.84747E+06    -4.82486E+06     16.6107E+06      18.662E+06     671.001E+03         80.7165
            1241     11.8738E-03     106.525E-03     402.023E-03     41.7769E-03    -575.699E-03     361.348E-03    -535.024E-03     41.7769E-03    -32.1071E-03     600.724E-03    -296.817E-03    -301.749E-03    -298.623E-03     597.598E-03    -296.817E-03     104.537E-03     21.0003E+06     17.9118E+06    -3.38971E+06    -3.37867E+06     17.9008E+06     21.0003E+06     420.092E+03         84.8649
            1242     12.6135E-03     106.725E-03     364.063E-03     69.3078E-03    -607.706E-03     176.398E-03    -420.041E-03     69.3078E-03     439.874E-03     602.911E-03    -296.659E-03    -302.935E-03    -299.322E-03     599.299E-03    -296.659E-03     113.833E-03     23.4703E+06     18.8434E+06    -1.42327E+06    -1.41783E+06     18.8379E+06     23.4703E+06     272.791E+03         88.5412
            1243     740.438E-06     107.914E-03         4.05984     347.244E-03        -4.04487    -327.554E-03     342.529E-03     347.244E-03         4.52621     597.485E-03    -297.756E-03    -299.538E-03    -298.183E-03     597.481E-03    -299.107E-03    -2.93867E-03    -19.0572E+06    -29.9667E+06    -30.6641E+06    -30.3789E+06    -19.0976E+06    -30.2116E+06     618.543E+03         66.3508
            1244     1.48101E-03     107.884E-03         1.43956     42.4111E-03        -1.23743     184.090E-03     18.0395E-03     42.4111E-03    -888.259E-03     594.672E-03    -296.906E-03    -298.643E-03    -296.895E-03     594.661E-03    -298.643E-03    -6.23612E-03    -16.1991E+06    -28.1807E+06    -29.8363E+06    -29.7790E+06    -16.2564E+06    -28.1807E+06     662.353E+03         66.2784
            1245     2.22144E-03     107.834E-03     663.849E-03     45.5212E-03    -709.352E-03    -33.7881E-03    -26.0251E-03     59.8314E-03     562.316E-03     591.433E-03    -294.913E-03    -297.380E-03    -294.896E-03     591.416E-03    -297.380E-03    -7.72411E-03    -13.5511E+06    -24.5168E+06    -28.7055E+06    -28.5519E+06    -13.7048E+06    -24.5168E+06     1.18455E+06         66.1995
            1246     2.96272E-03     107.791E-03     443.208E-03    -9.36749E-03    -566.930E-03    -286.336E-03     148.304E-03     4.94271E-03    -372.611E-03     589.443E-03    -295.075E-03    -296.910E-03    -295.608E-03     589.426E-03    -296.360E-03    -7.72333E-03    -11.1351E+06    -20.7319E+06    -27.8790E+06    -27.6492E+06    -11.3649E+06    -20.7319E+06     1.67309E+06         66.2075
            1247     3.70336E-03     107.756E-03     553.573E-03    -49.3616E-03    -562.821E-03    -197.735E-03     188.487E-03    -49.3616E-03     169.222E-03     591.327E-03    -295.950E-03    -300.045E-03    -300.033E-03     591.315E-03    -295.950E-03    -6.39869E-03    -7.73465E+06    -15.9156E+06    -25.7593E+06    -25.5820E+06    -7.91198E+06    -15.9156E+06     1.61351E+06         66.3647
            1248     4.44412E-03     107.738E-03     498.660E-03    -66.9821E-03    -454.872E-03    -73.1644E-03     116.953E-03    -66.9821E-03    -68.8968E-03     599.726E-03    -295.384E-03    -301.712E-03    -301.708E-03     599.722E-03    -295.384E-03    -3.43777E-03    -4.36547E+06    -11.3598E+06    -23.6594E+06    -23.5467E+06    -4.47820E+06    -11.3598E+06     1.45657E+06         66.6584
            1249     5.18542E-03     107.721E-03     447.578E-03    -61.6919E-03    -391.446E-03     34.7990E-03     21.3334E-03    -61.6919E-03     110.572E-03     603.649E-03    -296.174E-03    -299.026E-03    -298.953E-03     603.646E-03    -296.244E-03     1.61925E-03    -1.06562E+06    -7.10001E+06    -22.0879E+06    -21.9604E+06    -1.19311E+06    -7.10001E+06     1.61740E+06         67.0598
            1250     5.92669E-03     107.722E-03     615.328E-03    -46.1363E-03    -557.928E-03     91.0049E-03    -33.6045E-03    -46.1363E-03     255.351E-03     598.671E-03    -296.716E-03    -298.563E-03    -296.695E-03     598.650E-03    -298.563E-03     8.03617E-03     3.15263E+06    -1.08228E+06    -19.7660E+06    -19.6365E+06     3.02312E+06    -1.08228E+06     1.64475E+06         67.4879
            1251     6.66757E-03     107.743E-03     540.271E-03    -13.5057E-03    -580.742E-03     109.063E-03    -134.429E-03    -28.6103E-03     124.879E-03     590.491E-03    -296.656E-03    -301.201E-03    -296.580E-03     590.415E-03    -301.201E-03     15.7808E-03     6.47383E+06     4.71168E+06    -17.3209E+06    -17.2360E+06     6.38895E+06     4.71168E+06     1.30413E+06         67.9563
            1252     7.40812E-03     107.780E-03     524.624E-03     5.41991E-03    -606.753E-03     161.451E-03    -228.475E-03    -9.68466E-03     545.148E-03     588.861E-03    -297.359E-03    -302.485E-03    -297.185E-03     588.687E-03    -302.485E-03     24.4536E-03     10.1007E+06     8.93916E+06    -15.1952E+06    -15.0989E+06     10.0044E+06     8.93916E+06     1.49859E+06         68.6571
            1253     8.14964E-03     107.822E-03     612.385E-03     14.4420E-03    -646.327E-03     270.101E-03    -304.043E-03     14.4420E-03     643.203E-03     593.931E-03    -296.424E-03    -300.439E-03    -296.091E-03     593.598E-03    -300.439E-03     34.0181E-03     13.5122E+06     12.1624E+06    -12.8156E+06    -12.6842E+06     12.8528E+06     12.6905E+06     1.73697E+06         69.7238
            1254     8.89111E-03     107.877E-03     652.561E-03     46.2814E-03    -684.312E-03     404.789E-03    -436.540E-03     46.2814E-03     440.065E-03     594.962E-03    -292.701E-03    -296.541E-03    -292.122E-03     594.384E-03    -296.541E-03     44.9217E-03     15.6419E+06     14.1802E+06    -10.2098E+06    -10.1202E+06     14.0905E+06     15.6419E+06     1.33489E+06         71.3032
            1255     9.63181E-03     107.967E-03     574.818E-03     76.5075E-03    -623.809E-03     301.473E-03    -350.463E-03     76.5075E-03     136.606E-03     593.255E-03    -292.552E-03    -295.045E-03    -291.977E-03     592.370E-03    -294.735E-03     55.7563E-03     18.4062E+06     16.3663E+06    -7.96559E+06    -7.92464E+06     16.3253E+06     18.4062E+06     960.014E+03         73.6437
            1256     10.3742E-03     108.057E-03     477.909E-03     99.0099E-03    -550.689E-03     270.932E-03    -343.713E-03     99.0099E-03    -83.9837E-03     593.255E-03    -297.205E-03    -297.981E-03    -296.156E-03     591.896E-03    -297.670E-03     69.0970E-03     19.7812E+06     17.1859E+06    -6.14291E+06    -6.10156E+06     17.1446E+06     19.7812E+06     945.182E+03         76.8226
            1257     11.1157E-03     108.178E-03     491.752E-03     93.7287E-03    -645.359E-03     347.355E-03    -528.445E-03     121.212E-03    -298.422E-03     596.745E-03    -298.240E-03    -299.374E-03    -297.029E-03     594.865E-03    -298.705E-03     81.8616E-03     21.0975E+06     17.1356E+06    -4.49908E+06    -4.45480E+06     17.0913E+06     21.0975E+06     954.042E+03         80.6790
            1258     11.8735E-03     108.348E-03     331.049E-03     51.2983E-03    -540.363E-03     211.605E-03    -508.263E-03     138.642E-03    -206.662E-03     600.716E-03    -296.973E-03    -301.841E-03    -298.700E-03     597.574E-03    -296.973E-03     104.787E-03     23.8001E+06     18.7657E+06    -2.83435E+06    -2.80856E+06     18.7399E+06     23.8001E+06     618.909E+03         84.8388
            1259     12.6134E-03     108.545E-03     263.816E-03     87.2384E-03    -454.060E-03     184.751E-03    -434.856E-03     147.099E-03     12.5699E-03     602.703E-03    -296.740E-03    -302.967E-03    -299.339E-03     599.075E-03    -296.740E-03     114.063E-03     25.4728E+06     19.3432E+06    -1.29435E+06    -1.28682E+06     19.3356E+06     25.4728E+06     312.782E+03         88.5173
            1260     740.341E-06     109.739E-03         3.45881     942.034E-03        -4.18242    -66.0576E-03    -657.547E-03     942.034E-03         4.40353     597.603E-03    -298.011E-03    -299.342E-03    -298.440E-03     597.600E-03    -298.911E-03    -2.72862E-03    -20.8518E+06    -31.8497E+06    -32.6902E+06    -32.4053E+06    -20.8919E+06    -32.0945E+06     439.758E+03         66.3277
            1261     1.48079E-03     109.706E-03         1.11543     279.484E-03        -1.41608     118.408E-03    -504.537E-03     364.963E-03    -718.719E-03     594.392E-03    -296.671E-03    -298.718E-03    -296.662E-03     594.383E-03    -298.718E-03    -5.58487E-03    -18.0410E+06    -30.1457E+06    -32.0410E+06    -31.9700E+06    -18.1121E+06    -30.1457E+06     823.988E+03         66.2593
            1262     2.22200E-03     109.644E-03     657.256E-03     184.721E-03    -814.648E-03     244.561E-03    -501.742E-03     284.510E-03         1.00428     591.215E-03    -294.780E-03    -297.387E-03    -294.765E-03     591.199E-03    -297.387E-03    -7.37922E-03    -15.7256E+06    -26.8632E+06    -31.1540E+06    -31.0022E+06    -15.8774E+06    -26.8632E+06     1.02515E+06         66.1845
            1263     2.96321E-03     109.600E-03     466.028E-03     212.712E-03    -631.814E-03     148.819E-03    -356.889E-03     254.996E-03     628.975E-03     589.268E-03    -295.117E-03    -296.785E-03    -295.509E-03     589.252E-03    -296.378E-03    -7.48861E-03    -12.3849E+06    -22.2801E+06    -29.2699E+06    -29.0587E+06    -12.5961E+06    -22.2801E+06     1.44980E+06         66.1850
            1264     3.70368E-03     109.563E-03     484.284E-03     170.007E-03    -645.930E-03    -17.3751E-03    -185.756E-03     211.491E-03     550.586E-03     591.229E-03    -295.972E-03    -299.803E-03    -299.792E-03     591.218E-03    -295.972E-03    -6.15863E-03     -8.9485E+06    -17.3130E+06    -27.3031E+06    -27.1048E+06    -9.14677E+06    -17.3130E+06     1.76636E+06         66.3254
            1265     4.44471E-03     109.532E-03     510.488E-03     161.218E-03    -585.648E-03     73.5484E-03    -162.218E-03     174.728E-03     454.828E-03     599.357E-03    -295.222E-03    -301.678E-03    -301.674E-03     599.352E-03    -295.222E-03    -3.28337E-03    -4.83811E+06    -12.0477E+06    -25.4111E+06    -25.2374E+06    -5.01180E+06    -12.0477E+06     1.86696E+06         66.5970
            1266     5.18586E-03     109.513E-03     495.688E-03     116.184E-03    -548.681E-03     56.8854E-03    -150.140E-03     156.446E-03     667.837E-03     603.448E-03    -296.062E-03    -299.123E-03    -299.119E-03     603.445E-03    -296.062E-03     1.64729E-03    -1.45426E+06    -7.03402E+06    -23.3281E+06    -23.1899E+06    -1.59248E+06    -7.03402E+06     1.72179E+06         66.9810
            1267     5.92706E-03     109.523E-03     487.315E-03     101.305E-03    -604.015E-03     196.618E-03    -364.698E-03     152.685E-03     633.857E-03     598.857E-03    -296.574E-03    -298.360E-03    -296.580E-03     598.835E-03    -298.331E-03     8.07393E-03     2.48085E+06    -1.31237E+06    -20.9072E+06    -20.7760E+06     2.34960E+06    -1.31237E+06     1.72797E+06         67.4017
            1268     6.66775E-03     109.541E-03     455.220E-03     109.070E-03    -652.513E-03     283.954E-03    -537.470E-03     165.292E-03     534.054E-03     590.569E-03    -296.446E-03    -300.988E-03    -296.369E-03     590.492E-03    -300.988E-03     15.9184E-03     6.78504E+06     4.72118E+06    -18.4139E+06    -18.2517E+06     6.37476E+06     4.96924E+06     1.96900E+06         67.8623
            1269     7.40797E-03     109.581E-03     502.623E-03     50.7156E-03    -763.083E-03     160.581E-03    -546.007E-03     175.681E-03     776.228E-03     588.954E-03    -297.464E-03    -302.536E-03    -297.291E-03     588.780E-03    -302.536E-03     24.4472E-03     10.4800E+06     9.30058E+06    -15.9765E+06    -15.8293E+06     9.43879E+06     10.1946E+06     1.89626E+06         68.5537
            1270     8.15009E-03     109.622E-03     515.385E-03     101.234E-03    -856.849E-03     213.907E-03    -635.231E-03     181.094E-03     340.625E-03     593.726E-03    -296.305E-03    -300.456E-03    -295.968E-03     593.390E-03    -300.456E-03     34.1668E-03     14.8661E+06     13.0221E+06    -13.4785E+06    -13.3910E+06     13.0690E+06     14.7316E+06     1.48447E+06         69.6115
            1271     8.89185E-03     109.678E-03     478.326E-03     191.960E-03    -875.932E-03     295.257E-03    -692.863E-03     191.960E-03     288.718E-03     594.830E-03    -292.405E-03    -296.554E-03    -291.823E-03     594.248E-03    -296.554E-03     45.0920E-03     17.3084E+06     14.8697E+06    -11.0278E+06    -10.9708E+06     14.8126E+06     17.3084E+06     1.19218E+06         71.1862
            1272     9.63246E-03     109.771E-03     459.222E-03     204.479E-03    -844.777E-03     272.781E-03    -658.335E-03     204.479E-03     392.796E-03     593.244E-03    -292.450E-03    -295.121E-03    -291.951E-03     592.358E-03    -294.733E-03     55.7735E-03     19.0522E+06     16.1651E+06    -8.93829E+06    -8.88048E+06     16.1073E+06     19.0522E+06     1.20106E+06         73.5338
            1273     10.3745E-03     109.860E-03     382.999E-03     197.006E-03    -721.385E-03     181.934E-03    -534.562E-03     211.248E-03    -484.354E-03     593.220E-03    -297.185E-03    -298.010E-03    -296.213E-03     591.861E-03    -297.623E-03     69.1047E-03     20.6353E+06     17.1723E+06    -6.98790E+06    -6.93556E+06     17.1200E+06     20.6353E+06     1.11659E+06         76.7254
            1274     11.1156E-03     109.992E-03     277.145E-03     99.9401E-03    -444.398E-03     6.83381E-03    -282.530E-03     208.382E-03    -412.579E-03     596.978E-03    -298.220E-03    -299.313E-03    -296.987E-03     595.090E-03    -298.658E-03     82.0339E-03     22.4657E+06     17.4339E+06    -5.09496E+06    -5.05076E+06     17.3897E+06     22.4657E+06     980.484E+03         80.5946
            1275     11.8722E-03     110.167E-03     208.222E-03     42.8190E-03    -332.446E-03    -116.152E-03    -162.133E-03     196.880E-03    -265.974E-03     600.665E-03    -297.065E-03    -301.685E-03    -298.525E-03     597.505E-03    -297.065E-03     105.104E-03     25.5992E+06     19.1971E+06    -3.34258E+06    -3.31053E+06     19.1650E+06     25.5992E+06     807.959E+03         84.7660
            1276     12.6151E-03     110.351E-03     199.672E-03     77.0257E-03    -436.343E-03    -35.0122E-03    -310.399E-03     185.767E-03    -216.906E-03     602.383E-03    -296.816E-03    -303.024E-03    -299.403E-03     598.763E-03    -296.816E-03     113.891E-03     27.6377E+06     20.2187E+06    -1.62067E+06    -1.60949E+06     20.2075E+06     27.6377E+06     467.940E+03         88.4504
            1277     740.939E-06     111.566E-03         3.12029     374.420E-03        -3.61881     687.881E-03        -1.18641     374.420E-03         3.45550     596.239E-03    -297.200E-03    -298.912E-03    -297.197E-03     596.236E-03    -298.912E-03    -2.51638E-03    -23.1426E+06    -34.3624E+06    -34.7937E+06    -34.7303E+06    -23.1846E+06    -34.3837E+06     257.583E+03         66.3031
            1278     1.48202E-03     111.522E-03         1.15472     453.332E-03        -1.64271     536.563E-03        -1.11003     538.811E-03    -815.601E-03     593.712E-03    -296.363E-03    -298.136E-03    -296.354E-03     593.703E-03    -298.136E-03    -5.49962E-03    -19.6439E+06    -32.0747E+06    -33.7640E+06    -33.7034E+06    -19.7045E+06    -32.0747E+06     672.384E+03         66.2408
            1279     2.22275E-03     111.452E-03     798.476E-03     362.667E-03        -1.10365     443.646E-03    -911.107E-03     524.949E-03     675.412E-03     591.288E-03    -294.948E-03    -297.119E-03    -294.933E-03     591.273E-03    -297.119E-03    -7.25813E-03    -17.0168E+06    -28.3981E+06    -32.6177E+06    -32.4698E+06    -17.1647E+06    -28.3981E+06     1.14211E+06         66.1746
            1280     2.96315E-03     111.404E-03     736.373E-03     398.919E-03        -1.02976     465.731E-03    -863.898E-03     503.696E-03     627.710E-03     589.407E-03    -295.225E-03    -296.799E-03    -295.693E-03     589.391E-03    -296.314E-03    -7.60627E-03    -14.1678E+06    -24.2017E+06    -31.2336E+06    -31.0312E+06    -14.3701E+06    -24.2017E+06     1.42905E+06         66.1731
            1281     3.70401E-03     111.358E-03     606.102E-03     381.900E-03    -930.946E-03     323.731E-03    -746.821E-03     480.146E-03     355.937E-03     591.388E-03    -295.992E-03    -299.667E-03    -299.656E-03     591.377E-03    -295.992E-03    -6.26416E-03    -10.6928E+06    -19.1634E+06    -29.3266E+06    -29.1353E+06    -10.8841E+06    -19.1634E+06     1.73099E+06         66.3032
            1282     4.44488E-03     111.331E-03     537.941E-03     277.563E-03    -753.171E-03     171.591E-03    -548.684E-03     439.427E-03     259.864E-03     599.084E-03    -295.125E-03    -301.519E-03    -301.515E-03     599.079E-03    -295.125E-03    -3.35678E-03    -5.75136E+06    -13.4855E+06    -27.1577E+06    -26.9683E+06    -5.94075E+06    -13.4855E+06     1.98333E+06         66.5616
            1283     5.18602E-03     111.307E-03     540.026E-03     264.938E-03    -713.933E-03     133.045E-03    -438.806E-03     396.791E-03     94.4369E-03     603.165E-03    -295.948E-03    -299.214E-03    -299.211E-03     603.162E-03    -295.948E-03     1.51126E-03    -1.65396E+06    -7.57673E+06    -24.5024E+06    -24.2792E+06    -1.87725E+06    -7.57673E+06     2.17480E+06         66.9333
            1284     5.92695E-03     111.313E-03     454.131E-03     310.655E-03    -727.426E-03     106.804E-03    -431.479E-03     362.035E-03    -665.980E-03     598.940E-03    -296.384E-03    -298.225E-03    -296.425E-03     598.918E-03    -298.163E-03     8.08821E-03     1.96173E+06    -689.789E+03    -22.2494E+06    -22.0586E+06     1.73252E+06    -651.413E+03     2.03113E+06         67.3455
            1285     6.66846E-03     111.326E-03     380.280E-03     228.001E-03    -617.667E-03     82.7718E-03    -425.062E-03     332.905E-03    -165.917E-03     590.803E-03    -296.234E-03    -300.830E-03    -296.156E-03     590.726E-03    -300.830E-03     16.0323E-03     6.71607E+06     5.24329E+06    -19.7664E+06    -19.6146E+06     5.66375E+06     6.14383E+06     1.91481E+06         67.7954
            1286     7.40888E-03     111.367E-03     344.782E-03     133.544E-03    -551.533E-03     52.3772E-03    -432.774E-03     307.190E-03    -80.7268E-03     589.131E-03    -297.430E-03    -302.506E-03    -297.255E-03     588.956E-03    -302.506E-03     24.5701E-03     10.9447E+06     9.20932E+06    -16.8415E+06    -16.6710E+06     9.03886E+06     10.9447E+06     2.05079E+06         68.4739
            1287     8.15038E-03     111.410E-03     400.353E-03     181.269E-03    -794.237E-03     93.2220E-03    -592.576E-03     286.739E-03    -686.400E-03     593.536E-03    -296.123E-03    -300.455E-03    -295.785E-03     593.198E-03    -300.455E-03     34.2553E-03     15.6404E+06     13.6372E+06    -14.3969E+06    -14.2251E+06     13.4655E+06     15.6404E+06     2.14937E+06         69.5202
            1288     8.89241E-03     111.468E-03     359.642E-03     216.875E-03    -863.435E-03     145.078E-03    -705.602E-03     273.605E-03    -248.198E-03     594.722E-03    -292.234E-03    -296.693E-03    -291.658E-03     594.145E-03    -296.693E-03     44.8984E-03     18.8202E+06     15.1756E+06    -12.0609E+06    -11.9152E+06     15.0299E+06     18.8202E+06     1.90826E+06         71.0869
            1289     9.63290E-03     111.562E-03     305.736E-03     234.324E-03    -816.548E-03     173.813E-03    -715.745E-03     265.445E-03    -105.583E-03     593.251E-03    -292.306E-03    -295.186E-03    -291.928E-03     592.378E-03    -294.691E-03     55.3357E-03     20.6680E+06     16.5281E+06    -9.89857E+06    -9.80746E+06     16.4370E+06     20.6680E+06     1.46569E+06         73.4332
            1290     10.3751E-03     111.653E-03     297.905E-03     246.092E-03    -782.195E-03     192.923E-03    -691.455E-03     260.334E-03    -508.772E-03     592.901E-03    -297.154E-03    -297.997E-03    -296.303E-03     591.557E-03    -297.503E-03     68.6902E-03     21.6911E+06     17.7323E+06    -7.85477E+06    -7.80308E+06     17.6807E+06     21.6911E+06     1.14157E+06         76.6274
            1291     11.1161E-03     111.786E-03     277.959E-03     173.587E-03    -636.167E-03     98.8368E-03    -538.003E-03     254.545E-03     87.2568E-03     596.889E-03    -298.231E-03    -299.157E-03    -296.930E-03     595.011E-03    -298.580E-03     81.7982E-03     23.2248E+06     17.4225E+06    -5.81559E+06    -5.77296E+06     17.3799E+06     23.2248E+06     984.162E+03         80.4995
            1292     11.8732E-03     111.969E-03     338.771E-03     179.927E-03    -597.636E-03     40.5476E-03    -366.129E-03     246.644E-03    -177.277E-03     600.735E-03    -297.001E-03    -301.569E-03    -298.423E-03     597.589E-03    -297.001E-03     104.879E-03     26.2677E+06     19.9396E+06    -3.75387E+06    -3.72835E+06     19.9141E+06     26.2677E+06     720.150E+03         84.6737
            1293     12.6139E-03     112.164E-03     315.913E-03     113.110E-03    -530.255E-03     17.1055E-03    -358.242E-03     239.905E-03    -475.941E-03     602.490E-03    -296.759E-03    -303.328E-03    -299.734E-03     598.896E-03    -296.759E-03     113.493E-03     28.0149E+06     21.0181E+06    -1.97450E+06    -1.96879E+06     21.0124E+06     28.0149E+06     322.745E+03         88.3628
            1294     741.133E-06     113.383E-03         3.78190    -333.521E-03        -3.32109     889.044E-03    -428.239E-03    -333.521E-03         3.31284     595.916E-03    -296.711E-03    -298.849E-03    -296.708E-03     595.913E-03    -298.849E-03    -2.65601E-03    -25.0005E+06    -36.2582E+06    -36.8640E+06    -36.7082E+06    -25.0994E+06    -36.3152E+06     773.432E+03         66.2838
            1295     1.48219E-03     113.331E-03         1.62629     359.814E-03        -1.67989     683.255E-03    -736.856E-03     359.814E-03    -787.725E-03     593.659E-03    -296.354E-03    -298.080E-03    -296.344E-03     593.649E-03    -298.080E-03    -5.76863E-03    -21.6169E+06    -34.0999E+06    -36.1855E+06    -36.0555E+06    -21.7469E+06    -34.0999E+06     1.03758E+06         66.2316
            1296     2.22298E-03     113.251E-03     884.509E-03     372.946E-03        -1.12783     455.536E-03    -775.657E-03     449.750E-03     585.594E-03     591.428E-03    -295.078E-03    -297.026E-03    -295.061E-03     591.412E-03    -297.026E-03    -7.60875E-03    -18.7797E+06    -30.0787E+06    -34.8053E+06    -34.6465E+06    -18.9385E+06    -30.0787E+06     1.28670E+06         66.1714
            1297     2.96372E-03     113.195E-03     653.108E-03     373.663E-03        -1.02251     382.037E-03    -828.247E-03     450.466E-03    -288.669E-03     589.634E-03    -295.238E-03    -296.863E-03    -295.801E-03     589.616E-03    -296.282E-03    -7.98045E-03    -15.3664E+06    -24.9692E+06    -33.0912E+06    -32.9274E+06    -15.5303E+06    -24.9692E+06     1.39678E+06         66.1681
            1298     3.70437E-03     113.144E-03     701.333E-03     396.778E-03        -1.05880     507.584E-03    -921.810E-03     453.540E-03    -70.7362E-03     591.607E-03    -296.047E-03    -299.645E-03    -299.632E-03     591.595E-03    -296.047E-03    -6.47060E-03    -11.7537E+06    -19.7102E+06    -30.9422E+06    -30.8007E+06    -11.8953E+06    -19.7102E+06     1.56699E+06         66.2937
            1299     4.44535E-03     113.116E-03     520.488E-03     271.568E-03    -865.859E-03     284.243E-03    -807.132E-03     449.085E-03    -161.783E-03     598.830E-03    -295.286E-03    -301.437E-03    -301.433E-03     598.826E-03    -295.286E-03    -3.49023E-03    -7.29699E+06    -13.9785E+06    -28.6699E+06    -28.4998E+06    -7.46706E+06    -13.9785E+06     1.88282E+06         66.5469
            1300     5.18607E-03     113.090E-03     523.006E-03     301.496E-03    -890.627E-03     215.494E-03    -703.871E-03     422.252E-03    -417.055E-03     602.868E-03    -296.071E-03    -299.279E-03    -299.277E-03     602.866E-03    -296.071E-03     1.33383E-03    -3.14820E+06    -7.68086E+06    -26.3185E+06    -26.0941E+06    -3.37261E+06    -7.68086E+06     2.20344E+06         66.9091
            1301     5.92730E-03     113.093E-03     546.460E-03     392.151E-03    -870.451E-03     246.221E-03    -576.391E-03     398.330E-03    -821.519E-03     599.024E-03    -296.198E-03    -297.994E-03    -296.250E-03     599.002E-03    -297.920E-03     8.03673E-03     1.76117E+06    -296.876E+03    -23.3778E+06    -23.1172E+06     1.46214E+06    -258.500E+03     2.47321E+06         67.3097
            1302     6.66837E-03     113.112E-03     458.025E-03     325.148E-03    -695.194E-03     214.928E-03    -506.956E-03     380.008E-03    -247.875E-03     591.190E-03    -296.066E-03    -300.536E-03    -295.990E-03     591.115E-03    -300.536E-03     15.8404E-03     6.40916E+06     4.96347E+06    -20.7692E+06    -20.5237E+06     5.25291E+06     5.87419E+06     2.43468E+06         67.7484
            1303     7.40971E-03     113.148E-03     476.244E-03     320.906E-03    -703.416E-03     319.114E-03    -594.967E-03     369.587E-03    -132.548E-03     589.542E-03    -297.551E-03    -302.433E-03    -297.379E-03     589.371E-03    -302.433E-03     24.3052E-03     10.8182E+06     8.35234E+06    -18.3015E+06    -18.0892E+06     8.14006E+06     10.8182E+06     2.28510E+06         68.4155
            1304     8.15123E-03     113.189E-03     436.804E-03     290.852E-03    -682.498E-03     167.568E-03    -483.197E-03     360.788E-03    -304.129E-03     593.779E-03    -296.266E-03    -300.573E-03    -295.936E-03     593.448E-03    -300.573E-03     33.8944E-03     16.5186E+06     13.0024E+06    -15.2349E+06    -15.0212E+06     12.7887E+06     16.5186E+06     2.44108E+06         69.4528
            1305     8.89275E-03     113.252E-03     339.168E-03     109.742E-03    -529.163E-03    -62.4729E-03    -356.949E-03     339.168E-03     77.6625E-03     594.785E-03    -292.272E-03    -296.897E-03    -291.707E-03     594.220E-03    -296.897E-03     44.4160E-03     20.2910E+06     15.7641E+06    -12.3738E+06    -12.1818E+06     15.5721E+06     20.2910E+06     2.28094E+06         71.0135
            1306     9.63347E-03     113.345E-03     321.483E-03     71.4986E-03    -542.746E-03     16.2387E-03    -481.545E-03     315.542E-03     31.5640E-03     593.282E-03    -292.251E-03    -295.209E-03    -291.901E-03     592.425E-03    -294.702E-03     54.8645E-03     22.9330E+06     17.6851E+06    -9.54888E+06    -9.43569E+06     17.5719E+06     22.9330E+06     1.69199E+06         73.3574
            1307     10.3755E-03     113.437E-03     312.881E-03     127.694E-03    -589.859E-03     57.6132E-03    -506.541E-03     299.644E-03    -14.9705E-03     592.995E-03    -297.168E-03    -297.961E-03    -296.350E-03     591.670E-03    -297.455E-03     68.1624E-03     24.1903E+06     17.8319E+06    -7.18808E+06    -7.09816E+06     17.7419E+06     24.1903E+06     1.44783E+06         76.5500
            1308     11.1166E-03     113.572E-03     412.325E-03     204.425E-03    -753.041E-03     195.399E-03    -623.512E-03     291.822E-03     60.8286E-03     597.183E-03    -298.366E-03    -299.179E-03    -297.058E-03     595.350E-03    -298.653E-03     80.8637E-03     25.1422E+06     17.8072E+06    -5.14141E+06    -5.06193E+06     17.7277E+06     25.1422E+06     1.30929E+06         80.4161
            1309     11.8734E-03     113.760E-03     554.016E-03     296.492E-03    -987.686E-03     387.836E-03    -821.505E-03     296.492E-03     69.3060E-03     600.996E-03    -297.058E-03    -301.556E-03    -298.451E-03     597.891E-03    -297.058E-03     104.060E-03     27.5561E+06     20.7680E+06    -3.24742E+06    -3.20216E+06     20.7227E+06     27.5561E+06     979.583E+03         84.5869
            1310     12.6140E-03     113.964E-03     448.797E-03     218.650E-03    -716.206E-03     244.804E-03    -598.044E-03     304.480E-03     64.3844E-03     602.535E-03    -296.626E-03    -303.400E-03    -299.804E-03     598.939E-03    -296.626E-03     113.544E-03     29.2813E+06     21.9743E+06    -1.58399E+06    -1.56374E+06     21.9541E+06     29.2813E+06     570.157E+03         88.2824
            1311     741.345E-06     115.193E-03         4.11818    -30.1472E-03        -3.71624     610.465E-03    -208.525E-03    -30.1472E-03         3.66868     596.486E-03    -297.152E-03    -298.848E-03    -297.673E-03     596.484E-03    -298.324E-03    -2.46933E-03    -28.2514E+06    -39.6400E+06    -40.6234E+06    -40.5105E+06    -28.3286E+06    -39.6757E+06     725.231E+03         66.2758
            1312     1.48234E-03     115.135E-03         1.43062     251.599E-03        -1.43153     80.7209E-03    -81.6330E-03     251.599E-03        -1.26753     594.112E-03    -296.693E-03    -298.420E-03    -296.684E-03     594.102E-03    -298.420E-03    -5.67754E-03    -24.2620E+06    -36.4752E+06    -39.3805E+06    -39.2233E+06    -24.4192E+06    -36.4752E+06     1.35521E+06         66.2314
            1313     2.22263E-03     115.041E-03     716.525E-03     238.277E-03    -703.593E-03     370.408E-03    -357.475E-03     238.277E-03     484.507E-03     591.434E-03    -295.152E-03    -297.234E-03    -295.134E-03     591.416E-03    -297.234E-03    -7.89588E-03    -20.5971E+06    -31.6129E+06    -37.4695E+06    -37.2263E+06    -20.8403E+06    -31.6129E+06     1.71117E+06         66.1740
            1314     2.96347E-03     114.980E-03     565.351E-03     285.262E-03    -706.530E-03     448.126E-03    -589.305E-03     285.262E-03    -461.092E-03     590.092E-03    -295.317E-03    -296.779E-03    -295.724E-03     590.073E-03    -296.351E-03    -8.28913E-03    -16.6805E+06    -26.0854E+06    -35.2172E+06    -34.9486E+06    -16.9491E+06    -26.0854E+06     1.92439E+06         66.1673
            1315     3.70431E-03     114.925E-03     604.985E-03     320.983E-03    -926.860E-03     461.666E-03    -783.541E-03     320.983E-03    -7.34681E-03     591.907E-03    -296.074E-03    -299.228E-03    -299.214E-03     591.893E-03    -296.074E-03    -6.79862E-03    -12.6712E+06    -19.6444E+06    -33.2073E+06    -32.9896E+06    -12.8889E+06    -19.6444E+06     2.10025E+06         66.2898
            1316     4.44522E-03     114.891E-03     770.365E-03     330.616E-03        -1.13457     652.854E-03        -1.04622     359.780E-03     61.2671E-03     598.137E-03    -295.590E-03    -301.209E-03    -301.204E-03     598.132E-03    -295.590E-03    -3.70713E-03    -8.58738E+06    -13.4458E+06    -30.7422E+06    -30.5313E+06    -8.79820E+06    -13.4458E+06     2.13489E+06         66.5409
            1317     5.18655E-03     114.865E-03     759.299E-03     376.896E-03        -1.21929     712.197E-03        -1.20135     406.060E-03    -38.8248E-03     602.191E-03    -296.417E-03    -299.360E-03    -299.347E-03     602.188E-03    -296.429E-03     1.16503E-03    -4.87118E+06    -8.45394E+06    -28.2628E+06    -28.0371E+06    -5.09684E+06    -8.45394E+06     2.23436E+06         66.8954
            1318     5.92804E-03     114.867E-03     594.127E-03     429.075E-03        -1.08202     549.198E-03        -1.04327     435.254E-03     243.734E-03     599.009E-03    -296.173E-03    -297.713E-03    -296.193E-03     598.988E-03    -297.673E-03     7.74425E-03     531.083E+03    -1.50608E+06    -25.3652E+06    -25.1176E+06     266.904E+03    -1.48956E+06        2.46E+06         67.2883
            1319     6.66912E-03     114.882E-03     516.426E-03     431.813E-03    -871.022E-03     445.299E-03    -811.525E-03     443.442E-03     7.92221E-03     591.540E-03    -296.070E-03    -300.080E-03    -295.996E-03     591.466E-03    -300.080E-03     15.6281E-03     6.07428E+06     4.38428E+06    -21.9881E+06    -21.7117E+06     4.64288E+06     5.53931E+06     2.67150E+06         67.7216
            1320     7.40986E-03     114.921E-03     512.131E-03     366.389E-03    -756.785E-03     405.057E-03    -726.389E-03     443.067E-03    -240.218E-03     590.044E-03    -297.803E-03    -302.250E-03    -297.632E-03     589.874E-03    -302.250E-03     24.2040E-03     11.8551E+06     8.43968E+06    -18.8351E+06    -18.6004E+06     8.20504E+06     11.8551E+06     2.47346E+06         68.3782
            1321     8.15170E-03     114.961E-03     482.745E-03     320.677E-03    -666.203E-03     297.970E-03    -596.982E-03     436.230E-03     30.6686E-03     594.075E-03    -296.465E-03    -300.753E-03    -296.142E-03     593.753E-03    -300.753E-03     33.5334E-03     17.3822E+06     12.3076E+06    -15.8084E+06    -15.6448E+06     12.1440E+06     17.3822E+06     2.10677E+06         69.4053
            1322     8.89302E-03     115.025E-03     426.691E-03     189.265E-03    -475.110E-03     103.138E-03    -380.891E-03     418.600E-03     15.4858E-03     594.701E-03    -292.229E-03    -297.122E-03    -291.666E-03     594.138E-03    -297.122E-03     44.2464E-03     21.0384E+06     16.0309E+06    -12.8500E+06    -12.7000E+06     15.8808E+06     21.0384E+06     2.03087E+06         70.9600
            1323     9.63400E-03     115.112E-03     408.435E-03     122.240E-03    -421.211E-03    -36.4104E-03    -245.926E-03     391.802E-03    -318.792E-03     593.288E-03    -292.259E-03    -295.100E-03    -291.695E-03     592.415E-03    -294.791E-03     55.3346E-03     22.7472E+06     17.9725E+06    -10.3660E+06    -10.2185E+06     17.8249E+06     22.7472E+06     2.01571E+06         73.3002
            1324     10.3763E-03     115.213E-03     404.886E-03     193.847E-03    -524.958E-03    -12.8713E-03    -279.151E-03     365.798E-03     31.1777E-03     592.980E-03    -297.154E-03    -297.654E-03    -296.125E-03     591.642E-03    -297.345E-03     68.5377E-03     23.9467E+06     17.7162E+06    -8.11221E+06    -7.97989E+06     17.5838E+06     23.9467E+06     1.81580E+06         76.4891
            1325     11.1173E-03     115.349E-03     597.733E-03     263.471E-03    -790.213E-03     138.044E-03    -417.921E-03     350.868E-03    -444.860E-03     597.310E-03    -298.389E-03    -299.062E-03    -297.045E-03     595.483E-03    -298.580E-03     80.7308E-03     25.8400E+06     18.5336E+06    -5.93951E+06    -5.85644E+06     18.4505E+06     25.8400E+06     1.37717E+06         80.3494
            1326     11.8740E-03     115.546E-03     650.091E-03     330.831E-03    -975.002E-03     229.372E-03    -569.482E-03     346.031E-03    -222.070E-03     601.219E-03    -297.186E-03    -301.428E-03    -298.307E-03     598.098E-03    -297.186E-03     104.253E-03     28.4381E+06     21.0095E+06    -4.02102E+06    -3.97229E+06     20.9608E+06     28.4381E+06     1.09113E+06         84.5184
            1327     12.6151E-03     115.762E-03     438.742E-03     318.443E-03    -826.564E-03     212.791E-03    -623.729E-03     341.559E-03     261.754E-03     602.460E-03    -296.562E-03    -303.139E-03    -299.523E-03     598.844E-03    -296.562E-03     113.811E-03     31.5594E+06     23.3060E+06    -1.48160E+06    -1.45152E+06     23.2759E+06     31.5594E+06     827.319E+03         88.2206
            1328     741.082E-06     117.019E-03         3.74014     496.286E-03        -4.31244     380.272E-03    -952.571E-03     496.286E-03         4.21858     596.881E-03    -297.526E-03    -298.907E-03    -298.228E-03     596.878E-03    -298.201E-03    -3.01455E-03    -31.1046E+06    -42.4249E+06    -43.2220E+06    -43.0504E+06    -31.1384E+06    -42.5628E+06     545.727E+03         66.2761
            1329     1.48157E-03     116.959E-03         1.34713     423.100E-03        -1.83154     440.112E-03    -924.521E-03     423.100E-03    -848.000E-03     594.134E-03    -296.590E-03    -298.526E-03    -296.581E-03     594.125E-03    -298.526E-03    -5.60656E-03    -26.8627E+06    -39.4493E+06    -41.6297E+06    -41.5725E+06    -26.9198E+06    -39.4493E+06     792.257E+03         66.2300
            1330     2.22274E-03     116.848E-03     904.129E-03     438.079E-03        -1.20522     667.483E-03    -968.577E-03     438.079E-03     607.843E-03     591.442E-03    -295.246E-03    -297.363E-03    -295.229E-03     591.425E-03    -297.363E-03    -7.69624E-03    -23.0864E+06    -34.3639E+06    -39.9840E+06    -39.7883E+06    -23.2821E+06    -34.3639E+06     1.43190E+06         66.1749
            1331     2.96368E-03     116.777E-03     961.354E-03     488.194E-03        -1.17642     767.019E-03    -982.081E-03     488.194E-03     525.720E-03     590.586E-03    -295.585E-03    -296.735E-03    -295.860E-03     590.567E-03    -296.441E-03    -8.06560E-03    -19.0861E+06    -28.3908E+06    -38.1803E+06    -37.8994E+06    -19.3669E+06    -28.3908E+06     2.02729E+06         66.1694
            1332     3.70443E-03     116.711E-03     842.235E-03     492.015E-03        -1.13905     524.315E-03    -838.388E-03     509.272E-03     808.679E-03     592.159E-03    -296.176E-03    -298.932E-03    -298.919E-03     592.145E-03    -296.176E-03    -6.75997E-03    -14.1899E+06    -21.2897E+06    -35.3156E+06    -35.0007E+06    -14.5047E+06    -21.2897E+06     2.50793E+06         66.2893
            1333     4.44582E-03     116.675E-03     847.204E-03     381.531E-03        -1.08224     581.159E-03    -942.690E-03     508.021E-03     200.271E-03     597.433E-03    -296.033E-03    -301.127E-03    -301.122E-03     597.428E-03    -296.033E-03    -3.80310E-03    -9.55253E+06    -14.8346E+06    -32.4553E+06    -32.0997E+06    -9.90815E+06    -14.8346E+06     2.78375E+06         66.5375
            1334     5.18651E-03     116.647E-03     813.637E-03     367.308E-03        -1.05629     600.729E-03    -992.504E-03     516.432E-03     432.395E-03     601.710E-03    -296.887E-03    -299.535E-03    -299.522E-03     601.707E-03    -296.898E-03     957.689E-06    -5.53621E+06    -8.90218E+06    -29.6547E+06    -29.3705E+06    -5.82039E+06    -8.90218E+06     2.55039E+06         66.8879
            1335     5.92823E-03     116.643E-03     618.815E-03     399.528E-03    -986.194E-03     425.386E-03    -909.213E-03     515.977E-03     553.896E-03     599.348E-03    -296.301E-03    -297.678E-03    -296.287E-03     599.329E-03    -297.673E-03     7.42052E-03    -354.777E+03    -1.79990E+06    -26.6198E+06    -26.3883E+06    -940.063E+03    -1.44614E+06     2.38395E+06         67.2777
            1336     6.66845E-03     116.663E-03     542.507E-03     332.046E-03    -879.975E-03     314.216E-03    -819.804E-03     500.165E-03     108.168E-03     591.774E-03    -295.915E-03    -299.732E-03    -295.843E-03     591.701E-03    -299.732E-03     15.3974E-03     5.83825E+06     3.85838E+06    -23.5450E+06    -23.3275E+06     3.64080E+06     5.83825E+06     2.41855E+06         67.7075
            1337     7.40981E-03     116.701E-03     471.352E-03     251.109E-03    -678.232E-03     101.872E-03    -528.995E-03     471.352E-03    -29.5779E-03     590.053E-03    -297.607E-03    -301.885E-03    -297.437E-03     589.883E-03    -301.885E-03     24.1471E-03     12.0247E+06     8.57626E+06    -20.2481E+06    -20.0556E+06     8.38385E+06     12.0247E+06     2.33930E+06         68.3528
            1338     8.15137E-03     116.742E-03     558.361E-03     309.379E-03    -748.074E-03     130.117E-03    -448.509E-03     438.058E-03    -400.189E-03     593.961E-03    -296.384E-03    -300.788E-03    -296.062E-03     593.639E-03    -300.788E-03     33.4907E-03     16.4783E+06     12.2976E+06    -17.0406E+06    -16.8693E+06     12.1263E+06     16.4783E+06     2.19765E+06         69.3692
            1339     8.89339E-03     116.810E-03     682.534E-03     364.561E-03    -843.862E-03     393.279E-03    -611.246E-03     421.200E-03    -298.959E-03     594.518E-03    -292.130E-03    -297.343E-03    -291.561E-03     593.949E-03    -297.343E-03     44.4744E-03     20.3201E+06     15.2802E+06    -14.3637E+06    -14.1855E+06     15.1020E+06     20.3201E+06     2.25521E+06         70.9209
            1340     9.63462E-03     116.906E-03     662.191E-03     359.820E-03    -777.319E-03     357.801E-03    -529.568E-03     416.459E-03    -320.005E-03     593.172E-03    -292.103E-03    -294.934E-03    -291.270E-03     592.282E-03    -294.878E-03     55.8427E-03     22.5557E+06     17.5515E+06    -11.9761E+06    -11.7718E+06     17.3473E+06     22.5557E+06     2.44049E+06         73.2564
            1341     10.3765E-03     117.013E-03     537.207E-03     400.162E-03    -698.165E-03     283.188E-03    -454.034E-03     410.050E-03    -490.148E-03     592.741E-03    -296.947E-03    -297.205E-03    -295.668E-03     591.393E-03    -297.135E-03     68.8227E-03     23.9774E+06     18.6798E+06    -9.53343E+06    -9.36995E+06     18.5163E+06     23.9774E+06     2.10072E+06         76.4354
            1342     11.1177E-03     117.156E-03     545.861E-03     315.368E-03    -657.557E-03     76.8380E-03    -269.250E-03     396.085E-03    -474.366E-03     597.102E-03    -298.364E-03    -298.822E-03    -296.939E-03     595.262E-03    -298.407E-03     80.9968E-03     26.5751E+06     19.8899E+06    -7.21144E+06    -7.14363E+06     19.8221E+06     26.5751E+06     1.28535E+06         80.2900
            1343     11.8737E-03     117.359E-03     611.314E-03     280.949E-03    -639.451E-03    -223.019E-03     108.853E-03     366.978E-03    -575.181E-03     601.309E-03    -297.304E-03    -301.579E-03    -298.437E-03     598.167E-03    -297.304E-03     104.655E-03     29.8656E+06     21.6937E+06    -4.79949E+06    -4.77541E+06     21.6697E+06     29.8656E+06     586.994E+03         84.4620
            1344     12.6146E-03     117.580E-03     641.422E-03     312.975E-03    -721.507E-03    -273.016E-03     177.730E-03     328.175E-03    -442.800E-03     603.117E-03    -296.607E-03    -303.263E-03    -299.656E-03     599.510E-03    -296.607E-03     113.672E-03     33.8267E+06     24.0574E+06    -2.00898E+06    -1.99651E+06     24.0449E+06     33.8267E+06     294.102E+03         88.1717
            1345     740.023E-06     118.847E-03         3.42334         1.27507        -5.03183     238.840E-03        -1.84733         1.27507         3.24677     596.928E-03    -297.168E-03    -299.405E-03    -297.347E-03     596.925E-03    -299.224E-03    -2.89271E-03    -31.6722E+06    -43.5073E+06    -44.1904E+06    -43.9855E+06    -31.7029E+06    -43.6815E+06     408.683E+03         66.2732
            1346     1.48163E-03     118.778E-03         2.01918     805.856E-03        -2.98199         1.06323        -2.02604     805.856E-03    -717.848E-03     593.745E-03    -296.213E-03    -298.510E-03    -296.205E-03     593.737E-03    -298.510E-03    -5.31385E-03    -28.9210E+06    -41.4654E+06    -43.8954E+06    -43.8607E+06    -28.9557E+06    -41.4654E+06     648.220E+03         66.2237
            1347     2.22278E-03     118.676E-03         1.33735     825.630E-03        -2.25867     633.152E-03        -1.55446     825.630E-03     643.222E-03     591.498E-03    -295.382E-03    -297.298E-03    -295.365E-03     591.482E-03    -297.298E-03    -7.52130E-03    -25.9040E+06    -37.2757E+06    -42.6713E+06    -42.6104E+06    -25.9649E+06    -37.2757E+06     876.956E+03         66.1684
            1348     2.96378E-03     118.602E-03         1.07572     746.635E-03        -1.77854     408.483E-03        -1.11130     746.635E-03     215.750E-03     591.244E-03    -295.813E-03    -296.546E-03    -295.887E-03     591.226E-03    -296.454E-03    -8.04460E-03    -21.2010E+06    -31.2700E+06    -39.9700E+06    -39.8509E+06    -21.3200E+06    -31.2700E+06     1.28641E+06         66.1637
            1349     3.70474E-03     118.529E-03         1.06515     664.521E-03        -1.50020     438.086E-03    -890.395E-03     681.779E-03     133.211E-03     592.587E-03    -296.271E-03    -298.722E-03    -298.672E-03     592.574E-03    -296.309E-03    -6.73465E-03    -16.4208E+06    -24.7601E+06    -37.1853E+06    -36.9696E+06    -16.6365E+06    -24.7601E+06     1.76456E+06         66.2830
            1350     4.44552E-03     118.485E-03     822.666E-03     443.451E-03        -1.01005     239.836E-03    -611.372E-03     627.600E-03    -681.800E-03     596.774E-03    -296.480E-03    -301.202E-03    -301.197E-03     596.769E-03    -296.480E-03    -3.81960E-03    -11.2490E+06    -17.3897E+06    -34.1259E+06    -33.8479E+06    -11.5270E+06    -17.3897E+06     2.25422E+06         66.5333
            1351     5.18640E-03     118.461E-03     557.770E-03     326.668E-03    -653.586E-03     13.9163E-03    -340.834E-03     557.770E-03     202.759E-03     601.235E-03    -297.224E-03    -299.693E-03    -299.691E-03     601.232E-03    -297.224E-03     1.02624E-03    -6.03986E+06    -9.70150E+06    -30.9235E+06    -30.6414E+06    -6.32194E+06    -9.70150E+06     2.55628E+06         66.8820
            1352     5.92760E-03     118.452E-03     544.165E-03     352.319E-03    -714.621E-03     76.4383E-03    -387.660E-03     493.084E-03    -403.058E-03     599.776E-03    -296.217E-03    -297.666E-03    -296.262E-03     599.755E-03    -297.599E-03     7.81546E-03    -1.56267E+06    -3.20159E+06    -28.1016E+06    -27.8096E+06    -2.26609E+06    -2.79020E+06     2.68995E+06         67.2661
            1353     6.66863E-03     118.470E-03     501.949E-03     250.011E-03    -671.074E-03     179.861E-03    -549.843E-03     450.868E-03    -256.918E-03     591.956E-03    -295.565E-03    -299.357E-03    -295.491E-03     591.881E-03    -299.357E-03     15.7453E-03     4.66790E+06     3.05757E+06    -25.1878E+06    -24.9191E+06     2.78897E+06     4.66790E+06     2.73138E+06         67.6935
            1354     7.41015E-03     118.504E-03     514.035E-03     241.746E-03    -668.901E-03     213.045E-03    -549.665E-03     423.500E-03     208.753E-03     590.072E-03    -297.369E-03    -301.546E-03    -297.201E-03     589.904E-03    -301.546E-03     24.0426E-03     12.0235E+06     8.41127E+06    -22.0251E+06    -21.7866E+06     8.17282E+06     12.0235E+06     2.66463E+06         68.3320
            1355     8.15151E-03     118.549E-03     618.467E-03     345.566E-03    -836.371E-03     210.877E-03    -486.233E-03     403.019E-03    -505.268E-03     593.812E-03    -296.408E-03    -300.822E-03    -296.090E-03     593.494E-03    -300.822E-03     33.2720E-03     17.0449E+06     11.7501E+06    -18.7959E+06    -18.5676E+06     11.5217E+06     17.0449E+06     2.60989E+06         69.3377
            1356     8.89402E-03     118.611E-03     655.569E-03     335.930E-03    -837.401E-03     297.416E-03    -532.943E-03     389.626E-03    -501.521E-03     594.651E-03    -292.356E-03    -297.563E-03    -291.784E-03     594.079E-03    -297.563E-03     44.5845E-03     20.5160E+06     14.8387E+06    -15.5913E+06    -15.3871E+06     14.6344E+06     20.5160E+06     2.47662E+06         70.8888
            1357     9.63448E-03     118.713E-03     666.776E-03     333.039E-03    -813.524E-03     459.994E-03    -660.438E-03     386.735E-03    -269.912E-03     593.405E-03    -292.234E-03    -295.010E-03    -291.336E-03     592.508E-03    -295.010E-03     56.1260E-03     23.0411E+06     17.4673E+06    -12.4952E+06    -12.3193E+06     17.2915E+06     23.0411E+06     2.25132E+06         73.2262
            1358     10.3766E-03     118.824E-03     522.749E-03     324.946E-03    -645.821E-03     332.501E-03    -514.365E-03     383.738E-03    -688.812E-03     592.852E-03    -296.780E-03    -297.257E-03    -295.701E-03     591.512E-03    -296.996E-03     68.6546E-03     25.8693E+06     19.4081E+06    -9.75976E+06    -9.62044E+06     19.2688E+06     25.8693E+06     1.95956E+06         76.3960
            1359     11.1185E-03     118.968E-03     365.223E-03     206.417E-03    -354.760E-03     61.1390E-03    -209.482E-03     365.223E-03    -223.776E-03     597.193E-03    -298.318E-03    -298.979E-03    -297.144E-03     595.358E-03    -298.318E-03     80.8842E-03     30.0588E+06     21.6894E+06    -6.90187E+06    -6.83098E+06     21.6185E+06     30.0588E+06     1.34815E+06         80.2412
            1360     11.8743E-03     119.175E-03     449.615E-03     169.113E-03    -369.246E-03    -139.286E-03     56.1685E-03     332.600E-03    -239.800E-03     601.435E-03    -297.466E-03    -301.977E-03    -298.843E-03     598.301E-03    -297.466E-03     104.612E-03     33.3239E+06     23.1928E+06    -4.30746E+06    -4.28578E+06     23.1711E+06     33.3239E+06     567.414E+03         84.4149
            1361     12.6134E-03     119.398E-03     630.786E-03     232.932E-03    -454.556E-03    -248.756E-03     361.514E-03     296.404E-03    -225.507E-03     603.897E-03    -296.808E-03    -303.416E-03    -299.811E-03     600.292E-03    -296.808E-03     113.733E-03     36.4189E+06     24.2963E+06    -2.11016E+06    -2.10395E+06     24.2901E+06     36.4189E+06     105.362E+03         88.1319
            1362     741.196E-06     120.672E-03         3.79345         1.33736        -5.10185     73.5722E-03        -1.38198         1.33736         2.96028     596.358E-03    -296.622E-03    -299.434E-03    -296.619E-03     596.355E-03    -299.434E-03    -2.41062E-03    -33.7155E+06    -46.0065E+06    -46.8564E+06    -46.7572E+06    -33.7446E+06    -46.0766E+06     422.343E+03         66.2638
            1363     1.48180E-03     120.604E-03         2.25912     639.883E-03        -2.98700     272.882E-03        -1.00077     639.883E-03    -970.402E-03     594.010E-03    -296.842E-03    -298.275E-03    -296.834E-03     594.002E-03    -298.275E-03    -5.33144E-03    -30.1618E+06    -43.2944E+06    -46.1522E+06    -46.1083E+06    -30.2057E+06    -43.2944E+06     772.231E+03         66.2184
            1364     2.22263E-03     120.499E-03         1.56520     531.936E-03        -2.30035     201.866E-03    -937.019E-03     531.936E-03     351.584E-03     592.352E-03    -296.161E-03    -297.239E-03    -296.144E-03     592.335E-03    -297.239E-03    -7.68675E-03    -27.1030E+06    -38.8388E+06    -44.6564E+06    -44.5865E+06    -27.1729E+06    -38.8388E+06     890.655E+03         66.1640
            1365     2.96377E-03     120.424E-03         1.13207     488.522E-03        -1.82761     343.935E-03        -1.03948     488.522E-03    -519.319E-03     592.595E-03    -296.070E-03    -296.586E-03    -296.050E-03     592.576E-03    -296.586E-03    -8.24676E-03    -23.0292E+06    -33.0231E+06    -42.5794E+06    -42.5039E+06    -23.1046E+06    -33.0231E+06     978.656E+03         66.1548
            1366     3.70481E-03     120.351E-03     912.346E-03     425.779E-03        -1.43303     377.068E-03    -948.119E-03     476.143E-03     317.461E-03     593.137E-03    -296.602E-03    -298.591E-03    -298.336E-03     593.123E-03    -296.844E-03    -6.89720E-03    -18.1876E+06    -26.3035E+06    -39.8997E+06    -39.8396E+06    -18.2478E+06    -26.3035E+06     1.08081E+06         66.2708
            1367     4.44582E-03     120.305E-03     658.234E-03     346.508E-03    -981.668E-03     219.183E-03    -650.641E-03     454.532E-03    -390.026E-03     595.809E-03    -297.110E-03    -301.054E-03    -301.049E-03     595.803E-03    -297.110E-03    -3.88151E-03    -13.5584E+06    -19.8312E+06    -36.9997E+06    -36.9004E+06    -13.6577E+06    -19.8312E+06     1.44469E+06         66.5258
            1368     5.18675E-03     120.274E-03     477.575E-03     335.048E-03    -795.447E-03     113.028E-03    -512.877E-03     417.026E-03     160.958E-03     600.366E-03    -297.425E-03    -299.723E-03    -299.720E-03     600.363E-03    -297.425E-03     1.07678E-03    -8.49246E+06    -12.9934E+06    -33.9156E+06    -33.6765E+06    -8.73153E+06    -12.9934E+06     2.38010E+06         66.8732
            1369     5.92828E-03     120.265E-03     481.909E-03     320.944E-03    -746.863E-03     100.135E-03    -423.060E-03     378.915E-03    -549.821E-03     599.491E-03    -295.804E-03    -297.447E-03    -295.882E-03     599.468E-03    -297.346E-03     8.05057E-03    -2.99669E+06    -5.05467E+06    -30.7631E+06    -30.4462E+06    -3.54076E+06    -4.82750E+06     2.90635E+06         67.2489
            1370     6.66966E-03     120.282E-03     411.609E-03     279.191E-03    -552.965E-03     175.192E-03    -388.391E-03     351.034E-03    -266.514E-03     591.943E-03    -295.164E-03    -298.950E-03    -295.088E-03     591.868E-03    -298.950E-03     15.9012E-03     4.35972E+06     2.46363E+06    -27.0923E+06    -26.8157E+06     2.18707E+06     4.35972E+06     2.83825E+06         67.6765
            1371     7.41041E-03     120.321E-03     576.414E-03     305.562E-03    -758.796E-03     421.152E-03    -641.723E-03     343.751E-03    -205.811E-03     590.489E-03    -297.503E-03    -301.296E-03    -297.335E-03     590.321E-03    -301.296E-03     24.0442E-03     12.5925E+06     7.73809E+06    -23.4863E+06    -23.2387E+06     7.49051E+06     12.5925E+06     2.75256E+06         68.3153
            1372     8.15226E-03     120.359E-03     712.910E-03     353.763E-03    -937.690E-03     527.303E-03    -752.083E-03     353.763E-03    -342.128E-03     593.758E-03    -296.552E-03    -300.794E-03    -296.235E-03     593.441E-03    -300.794E-03     33.2049E-03     19.0752E+06     11.6524E+06    -19.9881E+06    -19.7777E+06     11.4420E+06     19.0752E+06     2.54853E+06         69.3162
            1373     8.89370E-03     120.423E-03     565.147E-03     300.851E-03    -754.509E-03     235.015E-03    -478.073E-03     354.546E-03    -462.966E-03     594.561E-03    -292.588E-03    -297.712E-03    -292.014E-03     593.987E-03    -297.712E-03     44.6078E-03     22.6339E+06     14.9399E+06    -16.3803E+06    -16.2151E+06     14.7747E+06     22.6339E+06     2.25514E+06         70.8723
            1374     9.63483E-03     120.523E-03     461.126E-03     228.722E-03    -645.034E-03     45.4490E-03    -336.197E-03     335.562E-03    -557.144E-03     593.706E-03    -292.566E-03    -295.288E-03    -291.886E-03     592.807E-03    -295.069E-03     56.1916E-03     24.4892E+06     17.4008E+06    -13.1805E+06    -13.0653E+06     17.2856E+06     24.4892E+06     1.84130E+06         73.2176
            1375     10.3767E-03     120.635E-03     360.082E-03     142.491E-03    -473.978E-03     7.35571E-03    -287.901E-03     309.140E-03    -110.825E-03     593.346E-03    -296.755E-03    -297.767E-03    -296.365E-03     592.016E-03    -296.827E-03     68.4366E-03     28.3220E+06     20.0828E+06    -9.93506E+06    -9.86975E+06     20.0175E+06     28.3220E+06     1.31623E+06         76.3803
            1376     11.1182E-03     120.778E-03     282.138E-03     77.9143E-03    -319.226E-03     7.95119E-03    -249.263E-03     282.138E-03    -58.6709E-03     597.493E-03    -298.296E-03    -299.759E-03    -297.941E-03     595.676E-03    -298.296E-03     80.5401E-03     32.6965E+06     22.4951E+06    -7.06239E+06    -7.01846E+06     22.4512E+06     32.6965E+06     1.06149E+06         80.2107
            1377     11.8731E-03     120.982E-03     356.339E-03     106.989E-03    -454.808E-03     173.358E-03    -426.019E-03     261.181E-03    -179.993E-03     601.304E-03    -297.590E-03    -302.121E-03    -298.995E-03     598.178E-03    -297.590E-03     104.424E-03     35.7230E+06     23.8311E+06    -4.53526E+06    -4.50409E+06     23.7999E+06     35.7230E+06     933.548E+03         84.3785
            1378     12.6129E-03     121.213E-03     422.019E-03     186.180E-03    -676.124E-03     258.704E-03    -576.281E-03     249.653E-03     173.744E-03     603.690E-03    -296.916E-03    -302.758E-03    -299.148E-03     600.080E-03    -296.916E-03     113.755E-03     39.6221E+06     25.2977E+06    -2.02250E+06    -2.00629E+06     25.2815E+06     39.6221E+06     576.862E+03         88.0984
            1379     741.191E-06     122.500E-03         3.93510     86.7044E-03        -4.04466     67.0468E-03    -176.609E-03     86.7044E-03         3.72685     596.041E-03    -296.611E-03    -299.253E-03    -296.608E-03     596.038E-03    -299.253E-03    -2.69245E-03     -36.359E+06    -49.4934E+06    -50.2791E+06    -50.1213E+06    -36.4073E+06    -49.6029E+06     693.995E+03         66.2488
            1380     1.48175E-03     122.433E-03         1.81759     77.7940E-03        -2.01305     7.52777E-03    -202.988E-03     77.7940E-03    -611.613E-03     593.953E-03    -297.494E-03    -298.046E-03    -297.484E-03     593.943E-03    -298.046E-03    -5.79940E-03    -31.9577E+06    -46.3245E+06    -49.1599E+06    -49.0136E+06    -32.0283E+06    -46.4003E+06     1.09439E+06         66.2031
            1381     2.22264E-03     122.322E-03         1.37927     114.448E-03        -1.63159     395.711E-03    -648.031E-03     114.448E-03     472.040E-03     592.829E-03    -296.916E-03    -297.300E-03    -297.064E-03     592.812E-03    -297.135E-03    -7.87430E-03    -28.3688E+06    -40.7041E+06    -47.4158E+06    -47.3170E+06    -28.4676E+06    -40.7041E+06     1.11651E+06         66.1558
            1382     2.96359E-03     122.242E-03         1.13845     195.311E-03        -1.56253     459.122E-03    -883.203E-03     195.311E-03     164.946E-03     593.466E-03    -296.222E-03    -296.790E-03    -296.368E-03     593.447E-03    -296.624E-03    -8.21092E-03    -24.3822E+06    -34.6325E+06    -45.3466E+06    -45.2397E+06    -24.4891E+06    -34.6325E+06     1.23716E+06         66.1441
            1383     3.70460E-03     122.172E-03     690.224E-03     162.082E-03        -1.14362     185.226E-03    -704.205E-03     227.660E-03         1.31441     593.245E-03    -296.752E-03    -298.205E-03    -297.809E-03     593.231E-03    -297.135E-03    -6.89510E-03    -19.8653E+06    -28.2655E+06    -42.7364E+06    -42.6077E+06    -19.9939E+06    -28.2655E+06     1.65622E+06         66.2523
            1384     4.44554E-03     122.124E-03     482.092E-03     165.215E-03    -936.127E-03     261.795E-03    -781.410E-03     230.793E-03    -308.183E-03     594.914E-03    -297.591E-03    -300.704E-03    -300.699E-03     594.909E-03    -297.591E-03    -3.84311E-03    -15.2460E+06    -21.6363E+06    -39.9360E+06    -39.7726E+06    -15.4093E+06    -21.6363E+06     1.96496E+06         66.5086
            1385     5.18693E-03     122.091E-03     808.232E-03     255.685E-03        -1.28489     528.803E-03        -1.00546     255.685E-03     264.412E-03     599.522E-03    -297.585E-03    -299.775E-03    -299.772E-03     599.519E-03    -297.585E-03     1.06910E-03    -10.5109E+06    -14.5749E+06    -37.0488E+06    -36.9066E+06    -10.6531E+06    -14.5749E+06     1.87155E+06         66.8605
            1386     5.92789E-03     122.082E-03     689.142E-03     251.253E-03        -1.06853     426.633E-03    -839.676E-03     284.906E-03     267.383E-03     599.060E-03    -295.484E-03    -297.253E-03    -295.609E-03     599.038E-03    -297.105E-03     7.96847E-03    -3.78834E+06    -5.93004E+06    -33.3755E+06    -33.2293E+06    -4.71305E+06    -5.15150E+06     1.86978E+06         67.2460
            1387     6.66982E-03     122.092E-03     455.066E-03     259.781E-03    -759.111E-03     290.006E-03    -627.705E-03     293.435E-03    -166.732E-03     592.113E-03    -295.136E-03    -298.687E-03    -295.063E-03     592.040E-03    -298.687E-03     15.6796E-03     4.35450E+06     1.42704E+06    -29.2863E+06    -29.1103E+06     1.25106E+06     4.35450E+06     2.18736E+06         67.6886
            1388     7.41066E-03     122.130E-03     505.230E-03     291.363E-03    -769.571E-03     263.567E-03    -527.907E-03     291.363E-03    -343.202E-03     591.012E-03    -297.890E-03    -301.082E-03    -297.727E-03     590.848E-03    -301.082E-03     23.7473E-03     13.0502E+06     6.92625E+06    -24.9246E+06    -24.7402E+06     6.74187E+06     13.0502E+06     2.40501E+06         68.3364
            1389     8.15199E-03     122.167E-03     565.078E-03     240.051E-03    -776.262E-03     241.694E-03    -499.403E-03     286.576E-03    -249.141E-03     593.799E-03    -296.824E-03    -300.770E-03    -296.511E-03     593.485E-03    -300.770E-03     33.0311E-03     20.6953E+06     11.6445E+06    -20.8679E+06    -20.7073E+06     11.4839E+06     20.6953E+06     2.27154E+06         69.3373
            1390     8.89358E-03     122.229E-03     565.148E-03     234.407E-03    -777.810E-03     270.120E-03    -529.307E-03     280.932E-03    -166.114E-03     594.483E-03    -292.849E-03    -297.839E-03    -292.277E-03     593.912E-03    -297.839E-03     44.5162E-03     25.3707E+06     15.2024E+06    -17.3258E+06    -17.2076E+06     15.0842E+06     25.3707E+06     1.93412E+06         70.8846
            1391     9.63503E-03     122.326E-03     429.336E-03     189.946E-03    -627.803E-03     67.2861E-03    -344.205E-03     268.398E-03    -353.825E-03     593.920E-03    -292.775E-03    -295.369E-03    -292.175E-03     593.032E-03    -295.080E-03     55.8970E-03     27.8851E+06     18.1574E+06    -13.7450E+06    -13.6717E+06     18.0841E+06     27.8851E+06     1.49568E+06         73.2194
            1392     10.3764E-03     122.443E-03     244.081E-03     70.5222E-03    -408.823E-03    -105.642E-03    -232.658E-03     244.081E-03     111.485E-03     594.261E-03    -296.697E-03    -297.886E-03    -296.558E-03     592.933E-03    -296.697E-03     68.3909E-03     30.7404E+06     20.4810E+06    -10.6724E+06    -10.6179E+06     20.4265E+06     30.7404E+06     1.21323E+06         76.3681
            1393     11.1172E-03     122.587E-03     234.470E-03     63.8542E-03    -460.850E-03    -5.20957E-03    -377.811E-03     220.495E-03    -46.9456E-03     598.178E-03    -298.224E-03    -300.081E-03    -298.273E-03     596.370E-03    -298.224E-03     80.4104E-03     34.5767E+06     22.3801E+06    -8.08873E+06    -8.04690E+06     22.3383E+06     34.5767E+06     1.03888E+06         80.1806
            1394     11.8729E-03     122.792E-03     316.397E-03     106.400E-03    -587.363E-03     135.101E-03    -506.929E-03     207.263E-03    -231.098E-03     600.989E-03    -297.597E-03    -301.842E-03    -298.718E-03     597.865E-03    -297.597E-03     104.253E-03     37.8104E+06     24.2210E+06    -5.45969E+06    -5.43340E+06     24.1947E+06     37.8104E+06     878.184E+03         84.3370
            1395     12.6136E-03     123.020E-03     406.896E-03     160.220E-03    -816.116E-03     152.441E-03    -600.990E-03     199.550E-03     194.705E-03     603.364E-03    -296.999E-03    -301.755E-03    -298.136E-03     599.745E-03    -296.999E-03     113.802E-03     42.3428E+06     26.4202E+06    -2.53455E+06    -2.51842E+06     26.4040E+06     42.3428E+06     637.179E+03         88.0533
            1396     740.418E-06     124.332E-03         4.53520    -458.618E-03        -4.47815     473.166E-03    -416.112E-03    -458.618E-03         4.73273     597.124E-03    -296.771E-03    -300.081E-03    -296.768E-03     597.121E-03    -300.081E-03    -2.51247E-03    -38.7800E+06    -53.1803E+06    -54.3946E+06    -54.2911E+06    -38.8077E+06    -53.2561E+06     497.589E+03         66.2568
            1397     1.48120E-03     124.286E-03         1.56656     73.3578E-03        -1.94258     425.779E-03    -801.805E-03     73.3578E-03        -1.00112     594.475E-03    -297.522E-03    -298.506E-03    -297.511E-03     594.464E-03    -298.506E-03    -6.03753E-03    -34.7657E+06    -49.6227E+06    -52.9390E+06    -52.7779E+06     -34.851E+06    -49.6985E+06     1.11581E+06         66.2133
            1398     2.22181E-03     124.181E-03     833.835E-03     164.515E-03        -1.18459     260.551E-03    -611.303E-03     164.515E-03     863.511E-03     593.698E-03    -297.081E-03    -297.683E-03    -297.227E-03     593.679E-03    -297.518E-03    -8.19904E-03    -30.6929E+06    -44.0157E+06    -50.8400E+06    -50.6676E+06    -30.8653E+06    -44.0157E+06     1.81424E+06         66.1826
            1399     2.96313E-03     124.074E-03     560.833E-03     149.937E-03    -820.786E-03    -84.6069E-03    -175.346E-03     149.937E-03     511.692E-03     594.121E-03    -296.099E-03    -297.239E-03    -296.244E-03     594.101E-03    -297.074E-03    -8.42256E-03    -26.0076E+06    -37.0505E+06    -48.3449E+06    -48.1068E+06    -26.2457E+06    -37.0505E+06     2.19100E+06         66.1732
            1400     3.70498E-03     123.977E-03     594.630E-03     111.680E-03    -895.501E-03     165.112E-03    -481.197E-03     126.895E-03         1.16363     592.791E-03    -296.747E-03    -298.191E-03    -297.439E-03     592.777E-03    -297.485E-03    -6.86897E-03    -21.4013E+06    -29.6891E+06    -45.7995E+06    -45.5718E+06    -21.6290E+06    -29.6891E+06     2.22444E+06         66.2587
            1401     4.44579E-03     123.934E-03     597.140E-03     98.0766E-03    -922.871E-03     307.537E-03    -680.776E-03     145.584E-03    -29.1766E-03     594.623E-03    -297.969E-03    -300.610E-03    -300.605E-03     594.618E-03    -297.969E-03    -3.70047E-03    -16.2298E+06    -21.7689E+06    -42.5592E+06    -42.3776E+06    -16.4114E+06    -21.7689E+06     2.15383E+06         66.4904
            1402     5.18718E-03     123.896E-03     696.680E-03     139.957E-03    -972.513E-03     347.456E-03    -655.582E-03     172.250E-03     203.010E-03     599.709E-03    -297.726E-03    -299.905E-03    -299.902E-03     599.707E-03    -297.726E-03     1.02962E-03    -10.6518E+06    -13.4028E+06    -38.8859E+06    -38.7379E+06    -10.7999E+06    -13.4028E+06     1.98112E+06         66.8273
            1403     5.92870E-03     123.886E-03     721.999E-03     203.136E-03        -1.06633     493.415E-03    -837.744E-03     203.136E-03     433.609E-03     599.282E-03    -295.895E-03    -297.774E-03    -296.117E-03     599.260E-03    -297.531E-03     7.75722E-03    -3.62561E+06    -5.59913E+06    -35.0133E+06    -34.9113E+06    -5.07368E+06    -4.25302E+06     1.64690E+06         67.2108
            1404     6.67002E-03     123.900E-03     530.217E-03     232.014E-03    -936.620E-03     436.391E-03    -842.794E-03     232.014E-03    -74.1336E-03     592.596E-03    -295.806E-03    -299.447E-03    -295.735E-03     592.525E-03    -299.447E-03     15.4538E-03     4.88391E+06     535.555E+03    -31.1359E+06    -31.0618E+06     461.459E+03     4.88391E+06     1.36654E+06         67.6553
            1405     7.41064E-03     123.932E-03     361.574E-03     240.936E-03    -755.518E-03     217.762E-03    -611.706E-03     240.936E-03     51.3001E-03     591.721E-03    -298.173E-03    -301.334E-03    -298.012E-03     591.560E-03    -301.334E-03     23.5028E-03     13.5571E+06     5.93827E+06    -27.1276E+06    -27.0420E+06     5.85265E+06     13.5571E+06     1.39984E+06         68.2993
            1406     8.15207E-03     123.975E-03     287.622E-03     116.850E-03    -541.102E-03     1.12334E-03    -365.844E-03     228.091E-03    -30.4144E-03     594.350E-03    -297.284E-03    -300.856E-03    -296.974E-03     594.039E-03    -300.856E-03     32.8665E-03     21.9848E+06     10.9273E+06    -22.7608E+06    -22.6764E+06     10.8429E+06     21.9848E+06     1.48069E+06         69.2877
            1407     8.89396E-03     124.039E-03     293.510E-03     38.7015E-03    -453.658E-03    -872.919E-06    -327.768E-03     207.194E-03    -93.6679E-03     594.758E-03    -293.448E-03    -297.896E-03    -292.886E-03     594.196E-03    -297.896E-03     44.2099E-03     27.8685E+06     15.2078E+06    -18.4135E+06    -18.3371E+06     15.1314E+06     27.8685E+06     1.54695E+06         70.8090
            1408     9.63451E-03     124.136E-03     345.795E-03     110.900E-03    -515.992E-03     149.771E-03    -402.526E-03     193.459E-03     40.9245E-03     594.560E-03    -292.989E-03    -295.480E-03    -292.185E-03     593.686E-03    -295.410E-03     55.4639E-03     30.2747E+06     18.2271E+06    -14.7477E+06    -14.6389E+06     18.1183E+06     30.2747E+06     1.78056E+06         73.1184
            1409     10.3768E-03     124.250E-03     325.494E-03     131.959E-03    -477.895E-03     190.455E-03    -398.670E-03     187.773E-03     25.0608E-03     594.892E-03    -296.653E-03    -297.596E-03    -295.826E-03     593.570E-03    -297.100E-03     68.2213E-03     32.8702E+06     20.2634E+06    -11.9931E+06    -11.8831E+06     20.1534E+06     32.8702E+06     1.77058E+06         76.2531
            1410     11.1180E-03     124.394E-03     355.271E-03     154.927E-03    -528.805E-03     210.295E-03    -414.335E-03     185.433E-03    -321.942E-03     598.708E-03    -298.285E-03    -299.703E-03    -297.830E-03     596.893E-03    -298.343E-03     80.5538E-03     37.5272E+06     22.9464E+06    -8.81660E+06    -8.74521E+06     22.8750E+06     37.5272E+06     1.46759E+06         80.0594
            1411     11.8729E-03     124.596E-03     331.910E-03     139.873E-03    -539.523E-03     43.2186E-03    -290.162E-03     179.203E-03    -10.1346E-03     600.834E-03    -297.902E-03    -301.601E-03    -298.470E-03     597.704E-03    -297.902E-03     104.359E-03     41.3719E+06     25.1962E+06    -5.81321E+06    -5.77326E+06     25.1562E+06     41.3719E+06     1.05180E+06         84.2285
            1412     12.6129E-03     124.832E-03     477.482E-03     124.687E-03    -620.385E-03    -74.6606E-03    -107.573E-03     164.017E-03    -55.3530E-03     602.150E-03    -297.243E-03    -301.288E-03    -297.679E-03     598.541E-03    -297.243E-03     113.523E-03     45.4226E+06     27.2411E+06    -2.85752E+06    -2.84638E+06     27.2300E+06     45.4226E+06     407.207E+03         87.9788
            1413     740.713E-06     126.144E-03         5.07475    -48.6373E-03        -5.48742         1.13568        -1.54835    -48.6373E-03         5.46948     597.126E-03    -297.179E-03    -299.636E-03    -297.176E-03     597.124E-03    -299.636E-03    -2.30880E-03    -42.7044E+06    -57.9857E+06    -59.5877E+06    -59.3789E+06    -42.9132E+06    -57.9857E+06     1.50146E+06         66.2697
            1414     1.48164E-03     126.058E-03         1.83994     430.381E-03        -2.54658    -17.1837E-03    -689.461E-03     430.381E-03    -611.407E-03     594.535E-03    -297.295E-03    -298.389E-03    -297.285E-03     594.525E-03    -298.389E-03    -5.79689E-03    -38.0566E+06    -53.4079E+06    -58.1108E+06    -57.8628E+06    -38.3046E+06    -53.4079E+06     1.91432E+06         66.2568
            1415     2.22277E-03     125.943E-03     949.067E-03     228.568E-03        -1.43489    -307.701E-03    -178.124E-03     228.568E-03         1.85774     594.160E-03    -296.899E-03    -297.572E-03    -296.881E-03     594.143E-03    -297.572E-03    -7.94827E-03    -33.6136E+06    -46.9394E+06    -55.4930E+06    -55.2806E+06    -33.8260E+06    -46.9394E+06     2.12952E+06         66.2691
            1416     2.96433E-03     125.850E-03     394.130E-03     137.669E-03    -713.514E-03     110.279E-03    -429.663E-03     137.669E-03     35.2552E-03     594.161E-03    -295.683E-03    -297.315E-03    -295.664E-03     594.142E-03    -297.315E-03    -8.15773E-03    -28.3261E+06    -39.0663E+06    -52.5083E+06    -52.2338E+06    -28.6006E+06    -39.0663E+06     2.49890E+06         66.2892
            1417     3.70565E-03     125.774E-03     648.689E-03     165.808E-03    -881.041E-03     493.526E-03    -725.878E-03     165.808E-03     540.724E-03     591.852E-03    -296.491E-03    -298.248E-03    -297.068E-03     591.839E-03    -297.659E-03    -6.47864E-03    -22.5390E+06    -30.1611E+06    -48.8532E+06    -48.6033E+06    -22.7889E+06    -30.1611E+06     2.46893E+06         66.3630
            1418     4.44624E-03     125.754E-03     608.441E-03     171.020E-03    -799.220E-03     283.352E-03    -506.424E-03     203.312E-03         1.07189     594.369E-03    -297.924E-03    -300.728E-03    -300.724E-03     594.365E-03    -297.924E-03    -3.45210E-03    -16.8105E+06    -21.5157E+06    -44.9263E+06    -44.7512E+06    -16.9856E+06    -21.5157E+06     2.19298E+06         66.5516
            1419     5.18573E-03     125.746E-03     336.843E-03     164.620E-03    -565.680E-03     29.9357E-03    -291.269E-03     197.116E-03     363.429E-03     600.224E-03    -297.484E-03    -300.124E-03    -300.121E-03     600.222E-03    -297.484E-03     1.09989E-03    -10.8946E+06    -12.8135E+06    -40.7096E+06    -40.5644E+06    -11.0398E+06    -12.8135E+06     2.03355E+06         66.8398
            1420     5.92458E-03     125.763E-03     401.846E-03     181.338E-03    -705.947E-03     129.313E-03    -433.618E-03     181.542E-03     306.333E-03     599.545E-03    -296.006E-03    -297.964E-03    -296.410E-03     599.523E-03    -297.538E-03     7.88581E-03    -3.43242E+06    -5.45148E+06    -36.8669E+06    -36.7269E+06    -5.36805E+06    -3.65586E+06     2.05720E+06         67.1753
            1421     6.66455E-03     125.800E-03     376.961E-03     129.316E-03    -682.286E-03     161.394E-03    -514.535E-03     177.132E-03     454.499E-03     592.716E-03    -295.980E-03    -299.756E-03    -295.904E-03     592.640E-03    -299.756E-03     15.8877E-03     6.87898E+06     540.838E+03    -33.0438E+06    -32.9002E+06     397.180E+03     6.87898E+06     1.97874E+06         67.5710
            1422     7.40544E-03     125.842E-03     219.758E-03     91.6681E-03    -566.288E-03     85.2767E-03    -510.999E-03     170.860E-03     304.476E-03     591.729E-03    -298.188E-03    -301.582E-03    -298.021E-03     591.562E-03    -301.582E-03     24.0323E-03     15.7705E+06     5.54075E+06    -29.2250E+06    -29.1151E+06     5.43082E+06     15.7705E+06     1.60471E+06         68.1658
            1423     8.14626E-03     125.879E-03     255.192E-03     65.5956E-03    -580.478E-03     100.340E-03    -521.719E-03     161.688E-03     184.739E-03     595.131E-03    -297.696E-03    -300.888E-03    -297.376E-03     594.811E-03    -300.888E-03     33.3963E-03     23.3126E+06     10.5021E+06    -25.0576E+06    -24.9816E+06     10.4261E+06     23.3126E+06     1.48155E+06         69.1176
            1424     8.88777E-03     125.919E-03     205.832E-03     5.15044E-03    -452.742E-03    -20.1558E-03    -370.872E-03     149.268E-03    -514.281E-06     595.413E-03    -293.914E-03    -297.860E-03    -293.344E-03     594.843E-03    -297.860E-03     44.5991E-03     29.4406E+06     14.3778E+06    -21.0025E+06    -20.9274E+06     14.3027E+06     29.4406E+06     1.56971E+06         70.6243
            1425     9.62854E-03     126.017E-03     251.457E-03     52.9651E-03    -481.513E-03    -46.9731E-03    -262.484E-03     132.366E-03    -7.84340E-03     595.237E-03    -293.335E-03    -295.639E-03    -292.452E-03     594.354E-03    -295.639E-03     55.7502E-03     32.0211E+06     16.9979E+06    -17.2795E+06    -17.1832E+06     16.9017E+06     32.0211E+06     1.53039E+06         72.9239
            1426     10.3701E-03     126.141E-03     395.528E-03     125.489E-03    -560.152E-03     232.162E-03    -396.786E-03     125.489E-03    -235.976E-03     595.394E-03    -297.065E-03    -297.852E-03    -295.737E-03     594.065E-03    -297.852E-03     68.4124E-03     35.4671E+06     20.3861E+06    -13.0649E+06    -12.9706E+06     20.2918E+06     35.4671E+06     1.49775E+06         76.0463
            1427     11.1131E-03     126.237E-03     382.295E-03     129.231E-03    -429.904E-03     281.950E-03    -329.558E-03     129.231E-03    -318.754E-03     599.271E-03    -298.674E-03    -299.835E-03    -297.638E-03     597.459E-03    -299.059E-03     80.5101E-03     40.3090E+06     23.2826E+06    -9.33714E+06    -9.27951E+06     23.2250E+06     40.3090E+06     1.21603E+06         79.8547
            1428     11.8699E-03     126.383E-03     305.153E-03     125.779E-03    -340.984E-03     80.6074E-03    -116.439E-03     125.779E-03     40.1093E-03     601.243E-03    -298.244E-03    -301.655E-03    -298.550E-03     598.139E-03    -298.244E-03     103.978E-03     44.7271E+06     25.9380E+06    -5.99833E+06    -5.96698E+06     25.9066E+06     44.7271E+06     813.464E+03         84.0794
            1429     12.6111E-03     126.589E-03     373.676E-03     70.3435E-03    -464.786E-03    -38.8057E-03    -93.1313E-03     111.170E-03    -261.175E-03     601.045E-03    -297.834E-03    -301.471E-03    -297.908E-03     597.481E-03    -297.834E-03     112.733E-03     50.0247E+06     28.5443E+06    -2.77263E+06    -2.76351E+06     28.5352E+06     50.0247E+06     374.130E+03         87.9330
            1430     740.962E-06     127.954E-03         5.08109    -542.230E-03        -4.41925     238.335E-03     423.513E-03    -542.230E-03         3.67155     595.774E-03    -297.514E-03    -298.247E-03    -297.512E-03     595.772E-03    -298.247E-03    -2.10892E-03    -47.4895E+06    -64.6421E+06    -65.9872E+06    -65.4176E+06    -47.7278E+06    -64.9735E+06     683.567E+03         66.1656
            1431     1.48136E-03     127.868E-03         2.45879    -47.3872E-03        -2.51867     112.272E-03    -172.155E-03    -47.3872E-03    -425.640E-03     594.087E-03    -297.190E-03    -297.664E-03    -297.182E-03     594.079E-03    -297.664E-03    -5.20045E-03    -41.4667E+06    -59.0105E+06    -63.1202E+06    -62.8526E+06    -41.7343E+06    -59.0105E+06     1.53032E+06         66.1765
            1432     2.22263E-03     127.739E-03         1.84884     61.4467E-03        -2.15882     250.532E-03    -560.512E-03     61.4467E-03     827.071E-03     593.801E-03    -296.554E-03    -297.087E-03    -296.540E-03     593.786E-03    -297.087E-03    -7.18904E-03    -36.5739E+06    -51.1273E+06    -60.2894E+06    -60.0851E+06    -36.7782E+06    -51.1273E+06     2.16214E+06         66.2297
            1433     2.96353E-03     127.671E-03         1.19863     141.556E-03        -1.64847     471.834E-03    -921.670E-03     141.556E-03    -843.675E-03     593.752E-03    -295.694E-03    -297.227E-03    -295.677E-03     593.736E-03    -297.227E-03    -7.60338E-03    -30.6383E+06    -41.7616E+06    -56.6599E+06    -56.4566E+06    -30.8416E+06    -41.7616E+06     2.25251E+06         66.2995
            1434     3.70546E-03     127.569E-03     640.299E-03     132.016E-03        -1.01939     268.416E-03    -706.779E-03     191.288E-03     699.005E-03     591.484E-03    -296.618E-03    -298.473E-03    -297.406E-03     591.473E-03    -297.674E-03    -6.13604E-03    -24.0635E+06    -31.6597E+06    -52.3989E+06    -52.1900E+06    -24.2724E+06    -31.6597E+06     2.41553E+06         66.4267
            1435     4.44796E-03     127.475E-03     482.889E-03     142.464E-03    -821.328E-03     199.080E-03    -596.790E-03     201.735E-03     838.475E-03     593.898E-03    -297.711E-03    -300.813E-03    -300.809E-03     593.895E-03    -297.711E-03    -3.27548E-03    -17.5904E+06    -21.5064E+06    -48.1938E+06    -47.9502E+06    -17.8340E+06    -21.5064E+06     2.70226E+06         66.6539
            1436     5.19061E-03     127.410E-03     389.206E-03     180.832E-03    -817.553E-03     85.8467E-03    -530.356E-03     196.994E-03     230.935E-03     599.716E-03    -297.126E-03    -299.978E-03    -299.975E-03     599.712E-03    -297.126E-03     1.53371E-03    -11.0426E+06    -12.8242E+06    -44.1921E+06    -43.9469E+06    -12.0056E+06    -12.1063E+06     2.69343E+06         66.9636
            1437     5.93241E-03     127.381E-03     226.525E-03     143.543E-03    -607.406E-03    -125.400E-03    -284.700E-03     172.762E-03    -200.561E-03     599.120E-03    -295.353E-03    -297.202E-03    -295.878E-03     599.095E-03    -296.652E-03     8.55358E-03    -2.29364E+06    -6.11675E+06    -40.1766E+06    -39.9439E+06    -6.30067E+06    -2.34244E+06     2.69661E+06         67.3174
            1438     6.67380E-03     127.398E-03     249.720E-03     79.4040E-03    -529.490E-03    -119.528E-03    -221.115E-03     140.277E-03     429.999E-03     592.461E-03    -295.331E-03    -298.349E-03    -295.247E-03     592.377E-03    -298.349E-03     16.6984E-03     8.09058E+06     130.122E+03    -35.6023E+06    -35.3729E+06    -99.2689E+03     8.09058E+06     2.83713E+06         67.7158
            1439     7.41525E-03     127.432E-03     169.179E-03     12.8562E-03    -438.585E-03    -119.727E-03    -250.322E-03     113.499E-03     275.196E-03     591.409E-03    -297.888E-03    -300.818E-03    -297.710E-03     591.231E-03    -300.818E-03     24.8626E-03     17.8141E+06     6.06984E+06    -30.7302E+06    -30.5216E+06     5.86128E+06     17.8141E+06     2.73930E+06         68.2816
            1440     8.15469E-03     127.500E-03     150.797E-03    -169.050E-06    -516.278E-03    -40.4217E-03    -419.461E-03     94.2328E-03     53.6167E-03     594.703E-03    -297.667E-03    -300.700E-03    -297.324E-03     594.361E-03    -300.700E-03     34.4730E-03     25.7599E+06     10.3448E+06    -26.7273E+06    -26.5768E+06     10.1944E+06     25.7599E+06     2.34204E+06         69.2027
            1441     8.89491E-03     127.583E-03     278.634E-03     21.1384E-03    -629.931E-03     67.1206E-03    -482.144E-03     84.8646E-03     457.674E-03     594.813E-03    -294.293E-03    -297.852E-03    -293.700E-03     594.220E-03    -297.852E-03     45.5803E-03     32.5903E+06     14.0386E+06    -22.2245E+06    -22.1205E+06     13.9346E+06     32.5903E+06     1.91791E+06         70.6983
            1442     9.63593E-03     127.670E-03     317.719E-03     54.9559E-03    -659.447E-03    -16.2580E-03    -347.620E-03     77.1063E-03    -23.3390E-03     595.046E-03    -293.562E-03    -295.550E-03    -292.890E-03     594.132E-03    -295.309E-03     56.6837E-03     36.6027E+06     17.4537E+06    -17.6703E+06    -17.5981E+06     17.3815E+06     36.6027E+06     1.40459E+06         72.9867
            1443     10.3763E-03     127.795E-03     294.061E-03     67.4409E-03    -586.097E-03    -581.418E-06    -291.454E-03     67.4409E-03    -411.532E-03     596.047E-03    -297.157E-03    -297.778E-03    -296.081E-03     594.690E-03    -297.496E-03     69.2724E-03     39.0032E+06     20.5058E+06    -13.9787E+06    -13.9306E+06     20.4577E+06     39.0032E+06     926.065E+03         76.0991
            1444     11.1181E-03     127.913E-03     213.322E-03     58.0093E-03    -468.451E-03    -26.1401E-03    -228.989E-03     58.0093E-03     285.939E-03     600.144E-03    -298.812E-03    -299.953E-03    -297.780E-03     598.299E-03    -299.139E-03     81.2719E-03     43.5472E+06     23.5236E+06    -10.2237E+06    -10.2020E+06     23.5019E+06     43.5472E+06     579.760E+03         79.9158
            1445     11.8745E-03     128.036E-03     232.805E-03     49.4164E-03    -388.756E-03     66.9423E-03    -222.893E-03     49.4164E-03     53.7785E-03     601.655E-03    -298.177E-03    -301.529E-03    -298.326E-03     598.452E-03    -298.177E-03     105.597E-03     49.0404E+06     26.4221E+06    -6.60302E+06    -6.59671E+06     26.4158E+06     49.0404E+06     355.747E+03         84.1693
            1446     12.6166E-03     128.244E-03     262.024E-03     3.60741E-03    -334.414E-03     146.759E-03    -259.976E-03     44.4343E-03    -147.441E-03     601.446E-03    -298.137E-03    -301.265E-03    -297.590E-03     597.770E-03    -298.137E-03     114.481E-03     54.4584E+06     29.1358E+06    -3.30638E+06    -3.30259E+06     29.1320E+06     54.4584E+06     290.602E+03         88.0619
            1447     741.386E-06     129.746E-03         5.00618     84.0605E-03        -4.61909    -830.313E-03         1.21740     84.0605E-03         2.57235     594.659E-03    -296.893E-03    -297.757E-03    -296.890E-03     594.656E-03    -297.757E-03    -2.49010E-03    -50.9720E+06    -68.9329E+06    -71.3968E+06    -70.9643E+06    -51.0732E+06    -69.2643E+06     114.309E+03         65.9852
            1448     1.48276E-03     129.641E-03         3.08933    -307.637E-03        -2.75742     260.468E-03     71.4391E-03    -307.637E-03    -910.884E-03     593.639E-03    -296.694E-03    -297.305E-03    -296.911E-03     593.630E-03    -297.079E-03    -5.33246E-03    -45.2282E+06    -64.5622E+06    -69.3815E+06    -69.2333E+06    -45.3764E+06    -64.5622E+06     1.13796E+06         65.9798
            1449     2.22388E-03     129.527E-03         2.31056    -94.4318E-03        -2.43928     455.621E-03    -584.344E-03    -94.4318E-03     255.174E-03     593.970E-03    -296.280E-03    -297.001E-03    -296.490E-03     593.954E-03    -296.775E-03    -7.37159E-03    -39.8904E+06    -56.4872E+06    -66.2454E+06    -66.0674E+06    -40.0684E+06    -56.4872E+06     2.09010E+06         66.0035
            1450     2.96415E-03     129.466E-03         1.52775     13.0962E-03        -1.87261     96.6989E-03    -441.561E-03     13.0962E-03    -976.703E-03     593.524E-03    -296.204E-03    -297.485E-03    -296.187E-03     593.508E-03    -297.485E-03    -7.73210E-03    -33.1756E+06    -45.2253E+06    -62.5652E+06    -62.2625E+06    -33.4783E+06    -45.2253E+06     2.90417E+06         66.0629
            1451     3.70437E-03     129.389E-03     738.956E-03    -33.0524E-03        -1.14851    -43.5511E-03    -425.271E-03     26.2189E-03     616.109E-03     592.028E-03    -297.270E-03    -299.696E-03    -298.870E-03     592.017E-03    -298.085E-03    -6.14016E-03    -26.2445E+06    -33.1871E+06    -58.5626E+06    -58.1323E+06    -26.6748E+06    -33.1871E+06     3.60361E+06         66.2378
            1452     4.44458E-03     129.338E-03     507.195E-03    -25.2256E-03    -961.095E-03     123.628E-03    -636.799E-03     34.0457E-03    -6.43863E-03     595.074E-03    -297.745E-03    -301.539E-03    -301.535E-03     595.070E-03    -297.745E-03    -3.13597E-03    -19.5011E+06    -22.0942E+06    -54.0368E+06    -53.5581E+06    -19.9797E+06    -22.0942E+06     3.95748E+06         66.5547
            1453     5.18629E-03     129.287E-03     401.789E-03     39.5235E-03    -861.298E-03     179.444E-03    -654.911E-03     55.4816E-03     554.058E-03     600.245E-03    -296.944E-03    -299.703E-03    -299.700E-03     600.241E-03    -296.944E-03     1.83409E-03    -11.1150E+06    -13.1772E+06    -49.1840E+06    -48.7481E+06    -13.3053E+06    -11.4228E+06     3.92885E+06         66.9780
            1454     5.92925E-03     129.233E-03     184.281E-03     35.6718E-03    -586.095E-03     21.6789E-03    -452.507E-03     64.6863E-03    -14.1876E-03     599.078E-03    -295.417E-03    -297.235E-03    -295.967E-03     599.052E-03    -296.659E-03     8.82968E-03    -224.657E+03    -6.28740E+06    -43.8199E+06    -43.4733E+06    -6.63399E+06    -224.657E+03     3.57435E+06         67.4671
            1455     6.67145E-03     129.226E-03     108.585E-03    -5.22545E-03    -493.452E-03    -126.276E-03    -316.412E-03     52.5969E-03     183.716E-03     592.250E-03    -295.426E-03    -298.483E-03    -295.340E-03     592.164E-03    -298.483E-03     16.8898E-03     10.5533E+06    -261.008E+03    -38.4131E+06    -38.1672E+06    -506.959E+03     10.5533E+06     3.03739E+06         67.9846
            1456     7.41403E-03     129.227E-03     155.275E-03    -30.4418E-03    -479.092E-03    -88.7934E-03    -301.240E-03     35.7743E-03     6.42772E-03     591.565E-03    -297.736E-03    -300.909E-03    -297.551E-03     591.380E-03    -300.909E-03     25.3357E-03     20.1928E+06     5.57821E+06    -33.3728E+06    -33.1686E+06     5.37392E+06     20.1928E+06     2.81294E+06         68.6247
            1457     8.15645E-03     129.246E-03     120.130E-03    -41.5334E-03    -402.344E-03    -126.215E-03    -219.025E-03     21.4924E-03    -204.443E-03     594.056E-03    -297.858E-03    -300.728E-03    -297.497E-03     593.696E-03    -300.728E-03     35.3635E-03     28.8844E+06     11.0444E+06    -27.9438E+06    -27.7741E+06     10.8747E+06     28.8844E+06     2.54843E+06         69.5914
            1458     8.89899E-03     129.293E-03     253.494E-03    -31.2765E-03    -527.281E-03    -37.0762E-03    -278.287E-03     10.2993E-03     244.592E-03     593.426E-03    -294.661E-03    -297.925E-03    -294.038E-03     592.803E-03    -297.925E-03     46.6625E-03     35.9753E+06     14.5036E+06    -22.7153E+06    -22.6040E+06     14.3923E+06     35.9753E+06     2.02346E+06         71.1063
            1459     9.64089E-03     129.379E-03     320.982E-03     9.26851E-03    -624.196E-03     127.984E-03    -431.198E-03     9.26851E-03     14.5163E-03     593.999E-03    -293.309E-03    -295.579E-03    -292.598E-03     593.047E-03    -295.337E-03     57.8351E-03      40.795E+06     18.0673E+06    -18.2160E+06    -18.1283E+06     17.9796E+06      40.795E+06     1.74098E+06         73.3903
            1460     10.3816E-03     129.498E-03     153.480E-03    -37.2047E-03    -476.973E-03    -88.1068E-03    -278.770E-03     6.17961E-03    -60.1697E-03     595.990E-03    -296.686E-03    -297.357E-03    -295.557E-03     594.579E-03    -297.075E-03     70.6121E-03     44.1657E+06     21.4635E+06    -14.0844E+06    -14.0104E+06     21.3894E+06     44.1657E+06     1.34324E+06         76.5114
            1461     11.1231E-03     129.631E-03     151.283E-03    -51.0925E-03    -524.850E-03    -184.944E-03    -232.007E-03    -7.70819E-03     166.690E-03     600.397E-03    -298.579E-03    -299.674E-03    -297.594E-03     598.431E-03    -298.693E-03     83.8186E-03     48.6242E+06     23.9971E+06    -10.4962E+06    -10.4421E+06     23.9430E+06     48.6242E+06     1.07589E+06         80.3523
            1462     11.8773E-03     129.777E-03     233.310E-03    -18.3152E-03    -622.695E-03     9.65514E-03    -399.039E-03    -18.3152E-03    -27.9181E-03     601.071E-03    -298.072E-03    -301.521E-03    -298.105E-03     597.656E-03    -298.072E-03     109.116E-03     53.6978E+06     27.4329E+06    -7.06623E+06    -7.03018E+06     27.3968E+06     53.6978E+06     936.620E+03         84.5657
            1463     12.6188E-03     130.033E-03     248.973E-03    -20.6070E-03    -456.145E-03     153.550E-03    -360.722E-03    -20.6070E-03     126.860E-03     600.597E-03    -297.922E-03    -301.155E-03    -297.316E-03     596.759E-03    -297.922E-03     116.851E-03     57.9784E+06     29.7003E+06    -3.86309E+06    -3.84631E+06     29.6835E+06     57.9784E+06     508.371E+03         88.3484
            1464     741.286E-06     131.525E-03         5.48506         1.53430        -7.19544    -374.291E-03        -1.33609         1.53430         3.55449     593.496E-03    -295.960E-03    -297.485E-03    -296.014E-03     593.493E-03    -297.428E-03    -2.73331E-03    -58.7569E+06    -76.0506E+06    -80.2388E+06    -78.7312E+06    -60.2645E+06    -76.0506E+06     3.78705E+06         65.9355
            1465     1.48327E-03     131.384E-03         3.44215     377.299E-03        -3.94567    -292.992E-03    -210.529E-03     377.299E-03        -1.72179     592.580E-03    -296.205E-03    -296.832E-03    -296.556E-03     592.570E-03    -296.471E-03    -5.79799E-03    -49.1658E+06    -69.3148E+06    -77.5217E+06    -76.8760E+06    -49.8114E+06    -69.3148E+06     3.84187E+06         65.8999
            1466     2.22465E-03     131.275E-03         2.17019     75.1066E-03        -2.37700    -577.617E-03     370.811E-03     75.1066E-03         1.30943     593.326E-03    -295.947E-03    -296.875E-03    -296.234E-03     593.308E-03    -296.570E-03    -7.89882E-03    -43.4425E+06    -60.4781E+06    -74.3554E+06    -73.8163E+06    -43.9816E+06    -60.4781E+06     3.72895E+06         65.8335
            1467     2.96514E-03     131.216E-03         1.29409    -100.572E-03        -1.45382    -572.502E-03     412.767E-03    -100.572E-03    -526.208E-03     592.633E-03    -295.790E-03    -297.324E-03    -295.772E-03     592.615E-03    -297.324E-03    -7.97371E-03    -36.6095E+06    -49.5377E+06    -70.0962E+06    -69.5586E+06    -37.1471E+06    -49.5377E+06     4.18704E+06         65.7935
            1468     3.70525E-03     131.163E-03     821.415E-03    -164.625E-03    -998.585E-03    -235.433E-03     58.2626E-03    -164.625E-03     286.320E-03     591.063E-03    -296.813E-03    -299.864E-03    -298.942E-03     591.052E-03    -297.724E-03    -6.22785E-03    -29.0072E+06    -37.1527E+06    -64.8728E+06    -64.2286E+06    -29.6515E+06    -37.1527E+06     4.75515E+06         65.9061
            1469     4.44537E-03     131.136E-03     620.122E-03    -160.051E-03    -788.727E-03    -59.8564E-03    -108.749E-03    -160.051E-03    -79.9884E-03     595.601E-03    -297.294E-03    -301.767E-03    -301.763E-03     595.598E-03    -297.294E-03    -3.19081E-03    -21.3855E+06    -24.5870E+06    -59.1292E+06    -58.5068E+06    -22.0080E+06    -24.5870E+06     4.79117E+06         66.2068
            1470     5.18498E-03     131.118E-03     528.433E-03    -142.447E-03    -730.407E-03    -43.7607E-03    -158.213E-03    -142.447E-03     567.670E-03     601.583E-03    -296.623E-03    -299.655E-03    -299.652E-03     601.579E-03    -296.623E-03     1.77106E-03    -11.3660E+06    -14.0702E+06    -53.1346E+06    -52.6318E+06    -14.1924E+06    -11.7465E+06     4.40381E+06         66.6744
            1471     5.92558E-03     131.102E-03     259.245E-03    -106.508E-03    -548.869E-03    -71.2920E-03    -193.098E-03    -131.742E-03     25.0378E-03     599.507E-03    -296.021E-03    -297.923E-03    -296.693E-03     599.479E-03    -297.224E-03     8.95538E-03     742.146E+03    -6.74726E+06    -47.5203E+06    -47.1063E+06    -7.16126E+06     742.146E+03     4.07612E+06         67.2546
            1472     6.66617E-03     131.125E-03     148.827E-03    -148.051E-03    -443.004E-03    -97.7402E-03    -215.970E-03    -128.519E-03    -293.148E-03     592.326E-03    -296.125E-03    -300.203E-03    -296.040E-03     592.241E-03    -300.203E-03     16.9480E-03     13.0679E+06    -35.4048E+03    -41.7262E+06    -41.3785E+06    -383.159E+03     13.0679E+06     3.75761E+06         67.8730
            1473     7.40782E-03     131.133E-03     277.201E-03    -170.955E-03    -494.572E-03    -61.9520E-03    -200.185E-03    -126.189E-03    -275.762E-03     591.413E-03    -297.671E-03    -302.184E-03    -297.478E-03     591.220E-03    -302.184E-03     25.7491E-03     24.5297E+06     6.07457E+06    -35.5941E+06    -35.3733E+06     5.85375E+06     24.5297E+06     2.92913E+06         68.6172
            1474     8.14945E-03     131.154E-03     350.998E-03    -121.027E-03    -447.570E-03    -684.693E-06    -95.8871E-03    -121.027E-03    -304.324E-03     594.644E-03    -297.941E-03    -300.933E-03    -297.569E-03     594.272E-03    -300.933E-03     36.0326E-03     33.0431E+06     11.0657E+06    -29.7950E+06    -29.6474E+06     10.9182E+06     33.0431E+06     2.41515E+06         69.6860
            1475     8.89139E-03     131.218E-03     450.422E-03    -112.581E-03    -537.647E-03     92.8392E-03    -180.065E-03    -112.581E-03    -825.393E-03     594.238E-03    -294.731E-03    -297.977E-03    -294.082E-03     593.589E-03    -297.977E-03     47.5828E-03     39.1780E+06     14.9180E+06    -24.6105E+06    -24.4718E+06     14.7792E+06     39.1780E+06     2.31825E+06         71.2757
            1476     9.63265E-03     131.307E-03     350.386E-03    -102.011E-03    -484.623E-03     137.477E-03    -271.714E-03    -102.011E-03    -317.302E-03     593.783E-03    -293.260E-03    -295.928E-03    -292.276E-03     592.799E-03    -295.928E-03     58.8273E-03     44.3757E+06     18.2767E+06    -19.8305E+06    -19.7109E+06     18.1571E+06     44.3757E+06     2.04948E+06         73.6033
            1477     10.3746E-03     131.420E-03     242.316E-03    -139.068E-03    -414.298E-03     47.2669E-03    -262.633E-03    -95.6840E-03    -63.7920E-03     595.332E-03    -296.433E-03    -298.081E-03    -294.975E-03     593.874E-03    -298.081E-03     71.6616E-03     47.6942E+06     21.6592E+06    -15.4909E+06    -15.3765E+06     21.5448E+06     47.6942E+06     1.98725E+06         76.7543
            1478     11.1178E-03     131.532E-03     292.221E-03    -135.977E-03    -461.706E-03     65.2846E-03    -278.154E-03    -92.5932E-03    -272.828E-03     599.973E-03    -298.251E-03    -299.950E-03    -297.062E-03     597.958E-03    -299.124E-03     84.8768E-03     51.3570E+06     24.6024E+06    -11.4243E+06    -11.3354E+06     24.5135E+06     51.3570E+06     1.76064E+06         80.6204
            1479     11.8754E-03     131.659E-03     283.360E-03    -92.4780E-03    -493.539E-03    -19.2055E-03    -190.973E-03    -92.4780E-03    -167.340E-03     601.343E-03    -298.044E-03    -301.449E-03    -298.029E-03     597.924E-03    -298.044E-03     109.251E-03     56.1839E+06     27.8465E+06    -7.39091E+06    -7.33307E+06     27.7886E+06     56.1839E+06     1.42305E+06         84.8054
            1480     12.6164E-03     131.898E-03     290.765E-03    -98.8877E-03    -412.001E-03    -39.5273E-03    -81.7089E-03    -98.8877E-03     182.592E-03     600.615E-03    -297.961E-03    -301.064E-03    -297.248E-03     596.799E-03    -297.961E-03     116.481E-03     60.8135E+06     31.1200E+06    -3.59992E+06    -3.56009E+06     31.0801E+06     60.8135E+06     1.07843E+06         88.4860
            1481     742.009E-06     133.317E-03         7.68779     504.554E-03        -9.00844    -621.105E-03    -699.547E-03     504.554E-03         6.73158     593.060E-03    -295.774E-03    -297.325E-03    -295.940E-03     593.057E-03    -297.156E-03    -2.85067E-03    -71.1945E+06    -82.9425E+06    -89.2862E+06    -83.2833E+06    -76.7536E+06    -83.3863E+06     3.68743E+06         66.0898
            1482     1.48306E-03     133.148E-03         3.75774     5.72136E-03        -4.10711    -340.048E-03    -9.31990E-03     5.72136E-03        -2.04674     592.579E-03    -296.314E-03    -296.680E-03    -296.669E-03     592.569E-03    -296.314E-03    -6.04086E-03    -57.1801E+06    -76.3246E+06    -83.9688E+06    -81.6523E+06    -59.0528E+06    -76.7683E+06     6.37456E+06         66.0365
            1483     2.22494E-03     133.020E-03         2.37532    -71.1513E-03        -2.52637    -446.365E-03     295.317E-03    -71.1513E-03         1.08508     592.852E-03    -295.665E-03    -296.930E-03    -295.844E-03     592.834E-03    -296.733E-03    -7.95449E-03    -46.5465E+06    -65.2858E+06    -80.6188E+06    -79.0420E+06    -48.1232E+06    -65.2858E+06     6.87889E+06         65.8955
            1484     2.96612E-03     132.943E-03         1.48842    -150.828E-03        -1.46838    -460.021E-03     480.060E-03    -150.828E-03    -944.117E-03     591.669E-03    -294.681E-03    -297.359E-03    -294.663E-03     591.651E-03    -297.359E-03    -8.08793E-03    -38.6418E+06    -52.8312E+06    -75.9738E+06    -74.9715E+06    -39.6441E+06    -52.8312E+06     5.89544E+06         65.7277
            1485     3.70697E-03     132.890E-03     950.826E-03    -213.133E-03    -826.451E-03    -482.908E-03     607.284E-03    -213.133E-03     273.809E-03     588.832E-03    -295.697E-03    -298.823E-03    -297.201E-03     588.820E-03    -297.307E-03    -6.36823E-03    -30.8080E+06    -39.7835E+06    -70.1833E+06    -69.5213E+06    -31.4700E+06    -39.7835E+06     5.00171E+06         65.6865
            1486     4.44677E-03     132.877E-03     984.971E-03    -261.506E-03    -837.949E-03    -521.339E-03     668.360E-03    -261.506E-03     247.426E-03     592.563E-03    -296.718E-03    -300.752E-03    -300.748E-03     592.559E-03    -296.718E-03    -3.45118E-03    -22.6777E+06    -26.1499E+06    -63.8363E+06    -63.3261E+06    -23.1879E+06    -26.1499E+06     4.53545E+06         65.8492
            1487     5.18659E-03     132.877E-03     901.608E-03    -299.012E-03    -776.055E-03    -528.966E-03     654.520E-03    -299.012E-03     677.707E-03     600.557E-03    -296.223E-03    -299.595E-03    -299.591E-03     600.553E-03    -296.223E-03     1.54872E-03    -12.3254E+06    -15.2217E+06    -57.6392E+06    -57.1343E+06    -15.3539E+06    -12.6981E+06     4.61742E+06         66.2168
            1488     5.92628E-03     132.887E-03     417.526E-03    -226.248E-03    -478.244E-03    -336.913E-03     366.349E-03    -316.402E-03    -174.063E-03     599.966E-03    -295.934E-03    -297.907E-03    -296.759E-03     599.938E-03    -297.054E-03     9.03891E-03     1.16257E+06    -7.37666E+06    -51.1168E+06    -50.6858E+06    -7.80764E+06     1.16257E+06     4.27428E+06         66.7235
            1489     6.66600E-03     132.934E-03     449.088E-03    -211.093E-03    -457.864E-03     5.32853E-03     76.0496E-03    -301.247E-03     2.01185E-03     592.581E-03    -296.043E-03    -300.730E-03    -295.958E-03     592.496E-03    -300.730E-03     17.0228E-03     14.3683E+06    -210.751E+03    -44.2502E+06    -43.8980E+06    -562.898E+03     14.3683E+06     3.88622E+06         67.3046
            1490     7.40660E-03     132.968E-03     511.497E-03    -255.523E-03    -480.305E-03     47.8489E-03    -3.14178E-03    -269.038E-03     293.806E-03     591.214E-03    -297.177E-03    -302.872E-03    -296.979E-03     591.017E-03    -302.872E-03     25.9792E-03     26.4889E+06     6.85629E+06    -37.7859E+06    -37.4435E+06     6.51389E+06     26.4889E+06     3.73354E+06         68.0733
            1491     8.14754E-03     133.012E-03     495.478E-03    -223.459E-03    -528.058E-03     127.558E-03    -146.622E-03    -236.975E-03     294.618E-03     595.348E-03    -297.387E-03    -301.032E-03    -297.013E-03     594.974E-03    -301.032E-03     36.1966E-03     36.9519E+06     11.7042E+06    -32.0942E+06    -31.8513E+06     11.4613E+06     36.9519E+06     3.02753E+06         69.2039
            1492     8.88828E-03     133.091E-03     746.749E-03    -210.984E-03    -725.532E-03     32.9144E-03    -11.6971E-03    -210.984E-03    -37.0485E-03     595.456E-03    -294.446E-03    -297.938E-03    -293.806E-03     594.816E-03    -297.938E-03     47.3114E-03     43.8384E+06     14.4467E+06    -26.4234E+06    -26.2580E+06     14.2813E+06     43.8384E+06     2.57762E+06         70.8568
            1493     9.62963E-03     133.181E-03     583.734E-03    -201.993E-03    -563.352E-03    -181.137E-03     201.519E-03    -201.993E-03     182.370E-03     594.236E-03    -293.561E-03    -296.245E-03    -292.594E-03     593.269E-03    -296.245E-03     58.3664E-03     47.7329E+06     17.7752E+06    -21.1599E+06    -20.9371E+06     17.5524E+06     47.7329E+06     2.91337E+06         73.2425
            1494     10.3722E-03     133.294E-03     483.997E-03    -198.463E-03    -427.273E-03    -21.7888E-03     78.5127E-03    -198.463E-03    -157.291E-03     594.849E-03    -296.502E-03    -298.897E-03    -295.074E-03     593.421E-03    -298.897E-03     70.8967E-03     49.8897E+06     21.6975E+06    -16.6445E+06    -16.4119E+06     21.4650E+06     49.8897E+06     2.90090E+06         76.4360
            1495     11.1145E-03     133.410E-03     498.119E-03    -189.602E-03    -424.070E-03     38.4696E-03     35.5796E-03    -189.602E-03    -81.4211E-03     599.263E-03    -297.962E-03    -300.370E-03    -296.767E-03     597.347E-03    -299.649E-03     82.7669E-03     53.0561E+06     25.6196E+06    -12.4287E+06    -12.2690E+06     25.4599E+06     53.0561E+06     2.34224E+06         80.3358
            1496     11.8724E-03     133.529E-03     450.906E-03    -159.932E-03    -364.937E-03    -71.2553E-03     183.276E-03    -185.983E-03     15.1372E-03     602.068E-03    -298.012E-03    -301.315E-03    -298.043E-03     598.796E-03    -298.012E-03     106.718E-03     57.8068E+06     28.4584E+06    -8.42953E+06    -8.36060E+06     28.3895E+06     57.8068E+06     1.43485E+06         84.5566
            1497     12.6145E-03     133.756E-03     319.709E-03    -157.520E-03    -316.550E-03    -73.4672E-03     108.793E-03    -189.687E-03    -167.693E-03     602.599E-03    -298.045E-03    -301.012E-03    -297.322E-03     598.909E-03    -298.045E-03     114.640E-03     62.9790E+06     32.5388E+06    -3.93237E+06    -3.90501E+06     32.5114E+06     62.9790E+06     631.387E+03         88.2514
            1498     740.515E-06     135.159E-03         9.77697    -981.873E-03        -9.34133    -627.650E-03         1.06329    -981.873E-03         9.39979     593.223E-03    -296.248E-03    -297.231E-03    -296.458E-03     593.219E-03    -297.017E-03    -2.99176E-03    -80.9501E+06    -86.7043E+06    -94.9879E+06    -86.7019E+06    -90.9111E+06    -85.0292E+06     2.35846E+06         66.3724
            1499     1.48279E-03     134.964E-03         4.22379    -673.666E-03        -3.95678    -125.401E-03     392.409E-03    -673.666E-03        -1.50037     592.694E-03    -296.205E-03    -296.679E-03    -296.424E-03     592.682E-03    -296.448E-03    -6.42530E-03    -68.4745E+06    -82.8239E+06    -89.8097E+06    -84.6083E+06     -75.351E+06    -81.1488E+06     6.15932E+06         66.3281
            1500     2.22459E-03     134.833E-03         2.58283    -414.961E-03        -2.34661     330.856E-03    -94.6341E-03    -414.961E-03         1.71849     592.585E-03    -295.475E-03    -297.126E-03    -295.574E-03     592.565E-03    -297.008E-03    -8.39089E-03    -52.6630E+06    -72.4863E+06    -84.4260E+06    -81.7555E+06    -55.3335E+06    -72.4863E+06     8.54641E+06         66.1757
            1501     2.96652E-03     134.717E-03         1.65527    -248.330E-03        -1.47554     75.4718E-03     104.256E-03    -248.330E-03    -126.004E-03     590.713E-03    -293.974E-03    -297.794E-03    -293.953E-03     590.693E-03    -297.794E-03    -8.56445E-03    -39.3547E+06    -57.0718E+06    -79.7352E+06    -77.8814E+06    -41.2084E+06    -57.0718E+06     8.26537E+06         65.9350
            1502     3.70822E-03     134.631E-03         1.43861    -236.558E-03        -1.24046    -539.034E-03     737.181E-03    -236.558E-03         1.13561     587.338E-03    -294.754E-03    -297.906E-03    -295.270E-03     587.325E-03    -297.377E-03    -6.75764E-03    -30.5372E+06    -40.6629E+06    -74.1824E+06    -73.0559E+06    -31.6637E+06    -40.6629E+06     6.72063E+06         65.7444
            1503     4.44928E-03     134.604E-03         1.21162    -308.999E-03        -1.04448    -825.317E-03     992.462E-03    -308.999E-03     21.6337E-03     589.427E-03    -296.045E-03    -299.623E-03    -299.354E-03     589.422E-03    -296.309E-03    -3.64771E-03    -23.1461E+06    -26.7526E+06    -68.3599E+06    -67.6646E+06    -23.8413E+06    -26.7526E+06     5.42165E+06         65.7289
            1504     5.18938E-03     134.601E-03         1.01378    -352.663E-03    -837.072E-03    -370.052E-03     546.756E-03    -352.663E-03     185.136E-03     598.415E-03    -295.771E-03    -299.511E-03    -299.508E-03     598.412E-03    -295.771E-03     1.30559E-03    -12.7607E+06    -15.6349E+06    -61.5269E+06    -61.0816E+06    -15.6227E+06    -13.2182E+06     4.44426E+06         65.9243
            1505     5.92891E-03     134.627E-03     656.313E-03    -271.921E-03    -538.403E-03    -87.0579E-03     269.889E-03    -336.842E-03     50.1600E-03     600.293E-03    -295.405E-03    -297.190E-03    -296.336E-03     600.269E-03    -296.235E-03     8.45043E-03     1.16040E+06    -7.21215E+06    -54.1553E+06    -53.8469E+06    -7.52062E+06     1.16040E+06     3.72493E+06         66.2661
            1506     6.66817E-03     134.692E-03     524.480E-03    -212.035E-03    -407.553E-03    -74.3347E-03     284.772E-03    -305.545E-03     589.883E-03     593.162E-03    -295.482E-03    -299.799E-03    -295.400E-03     593.080E-03    -299.799E-03     16.5169E-03     14.8185E+06    -1.01235E+06    -47.3755E+06    -47.1320E+06    -1.25578E+06     14.8185E+06     3.33193E+06         66.7054
            1507     7.40833E-03     134.756E-03     431.073E-03    -185.322E-03    -315.627E-03     120.573E-03     79.9238E-03    -270.373E-03     355.779E-03     591.248E-03    -296.690E-03    -302.585E-03    -296.498E-03     591.056E-03    -302.585E-03     25.6549E-03     27.3969E+06     4.77905E+06    -40.5572E+06    -40.2368E+06     4.45862E+06     27.3969E+06     3.69214E+06         67.3901
            1508     8.14852E-03     134.817E-03     520.735E-03    -182.510E-03    -546.680E-03    -11.0104E-03     41.5269E-03    -238.972E-03     624.232E-03     595.032E-03    -296.813E-03    -301.059E-03    -296.456E-03     594.675E-03    -301.059E-03     35.3578E-03     38.5339E+06     12.3299E+06    -33.9670E+06    -33.5044E+06     11.8673E+06     38.5339E+06     4.35582E+06         68.4892
            1509     8.88905E-03     134.903E-03     637.961E-03    -230.059E-03    -672.844E-03    -301.854E-03     268.536E-03    -231.624E-03     845.911E-03     595.365E-03    -294.072E-03    -297.971E-03    -293.455E-03     594.748E-03    -297.971E-03     46.3612E-03     46.5091E+06     15.4847E+06    -28.1694E+06    -27.8117E+06     15.1270E+06     46.5091E+06     3.67123E+06         70.1364
            1510     9.63042E-03     134.997E-03     461.926E-03    -240.359E-03    -483.447E-03    -394.432E-03     374.475E-03    -241.924E-03     255.225E-03     594.257E-03    -293.772E-03    -296.281E-03    -292.827E-03     593.312E-03    -296.281E-03     57.7046E-03     50.4362E+06     16.4932E+06    -22.6421E+06    -22.4112E+06     16.2623E+06     50.4362E+06     2.97843E+06         72.5421
            1511     10.3708E-03     135.127E-03     618.703E-03    -256.504E-03    -531.513E-03    -428.128E-03     515.318E-03    -256.504E-03    -26.6740E-03     594.666E-03    -296.539E-03    -298.991E-03    -295.168E-03     593.295E-03    -298.991E-03     69.5251E-03     52.2612E+06     21.1806E+06    -17.5688E+06    -17.2625E+06     20.8743E+06     52.2612E+06     3.41268E+06         75.7784
            1512     11.1145E-03     135.242E-03     742.251E-03    -269.698E-03    -589.517E-03    -368.400E-03     521.133E-03    -269.698E-03    -154.909E-03     598.980E-03    -297.862E-03    -300.607E-03    -296.788E-03     597.165E-03    -299.867E-03     80.5515E-03     56.1599E+06     26.8387E+06    -12.7539E+06    -12.4838E+06     26.5686E+06     56.1599E+06     3.21516E+06         79.7266
            1513     11.8721E-03     135.357E-03     584.280E-03    -244.422E-03    -467.981E-03    -19.7350E-03     162.085E-03    -270.474E-03    -98.5243E-03     601.911E-03    -298.039E-03    -301.575E-03    -298.397E-03     598.733E-03    -298.039E-03     105.023E-03     61.8179E+06     31.6018E+06    -8.05837E+06    -7.95357E+06     31.4970E+06     61.8179E+06     1.78901E+06         84.0096
            1514     12.6130E-03     135.579E-03     404.130E-03    -223.676E-03    -453.858E-03     165.981E-03    -183.542E-03    -255.843E-03    -400.917E-03     603.987E-03    -298.022E-03    -301.642E-03    -298.038E-03     600.383E-03    -298.022E-03     113.377E-03     67.1420E+06     34.6321E+06    -3.42888E+06    -3.41530E+06     34.6185E+06     67.1420E+06     402.608E+03         87.7752
            1515     740.743E-06     136.991E-03         11.0922    -881.593E-03        -10.1013    -47.1203E-03         1.03808    -881.593E-03         8.51224     593.677E-03    -296.689E-03    -297.215E-03    -296.846E-03     593.674E-03    -297.055E-03    -3.15350E-03     -81.486E+06    -84.3613E+06    -103.236E+06    -84.7091E+06    -102.143E+06    -82.2316E+06     2.89389E+06         66.6988
            1516     1.48178E-03     136.810E-03         5.32981    -486.482E-03        -5.02408    -420.954E-03     726.684E-03    -486.482E-03        -2.44626     592.935E-03    -296.190E-03    -296.835E-03    -296.179E-03     592.924E-03    -296.835E-03    -6.11651E-03    -73.2173E+06    -80.8368E+06    -94.5514E+06    -82.1028E+06    -89.6529E+06    -76.8498E+06     4.73623E+06         66.6922
            1517     2.22377E-03     136.660E-03         3.28558    -476.797E-03        -2.97914    -461.364E-03     767.804E-03    -476.797E-03         1.77621     592.436E-03    -295.323E-03    -297.386E-03    -295.303E-03     592.416E-03    -297.386E-03    -8.55492E-03    -60.5664E+06    -73.1675E+06    -84.9864E+06    -79.4071E+06    -68.0029E+06    -71.3103E+06     8.02480E+06         66.5881
            1518     2.96549E-03     136.546E-03         2.25204    -443.209E-03        -1.92450    -309.017E-03     636.551E-03    -443.209E-03    -233.044E-03     589.931E-03    -293.631E-03    -298.163E-03    -293.609E-03     589.909E-03    -298.163E-03    -8.93636E-03    -43.6383E+06    -60.1503E+06    -80.2670E+06    -76.4608E+06    -47.4445E+06    -60.1503E+06     10.2351E+06         66.3674
            1519     3.70820E-03     136.425E-03         1.54607    -395.492E-03        -1.34335    -264.431E-03     467.151E-03    -395.492E-03         1.58252     586.356E-03    -294.289E-03    -297.541E-03    -294.274E-03     586.341E-03    -297.541E-03    -7.19548E-03    -29.5980E+06    -44.7843E+06    -75.2194E+06    -72.9449E+06    -31.8725E+06    -44.7843E+06     9.66962E+06         66.1189
            1520     4.45015E-03     136.370E-03     716.371E-03    -299.776E-03    -726.761E-03    -314.046E-03     373.763E-03    -369.882E-03    -442.216E-03     588.049E-03    -295.742E-03    -299.144E-03    -298.633E-03     588.044E-03    -296.247E-03    -3.97116E-03    -21.4412E+06    -29.1060E+06    -69.6092E+06    -68.3137E+06    -22.7367E+06    -29.1060E+06     7.60652E+06         65.9738
            1521     5.19159E-03     136.336E-03     685.771E-03    -283.218E-03    -718.758E-03    -192.979E-03     230.098E-03    -353.324E-03    -792.215E-03     596.902E-03    -295.609E-03    -299.412E-03    -299.409E-03     596.900E-03    -295.609E-03     863.997E-06    -12.1771E+06    -15.6193E+06    -63.1505E+06    -62.4130E+06    -14.4778E+06    -14.0561E+06     5.75817E+06         66.0172
            1522     5.93243E-03     136.340E-03     798.360E-03    -294.729E-03    -647.153E-03    -48.7264E-03     230.750E-03    -325.545E-03    -212.606E-03     600.055E-03    -294.769E-03    -296.173E-03    -295.853E-03     600.035E-03    -295.069E-03     7.53757E-03     296.727E+03    -6.67366E+06    -57.0978E+06    -56.6293E+06    -7.14215E+06     296.727E+03     4.64276E+06         66.2208
            1523     6.67290E-03     136.396E-03     686.612E-03    -241.937E-03    -554.959E-03    -141.471E-03     332.529E-03    -301.343E-03    -140.470E-03     593.939E-03    -294.141E-03    -297.720E-03    -294.260E-03     593.861E-03    -297.522E-03     15.9385E-03     14.6006E+06    -475.063E+03    -50.6778E+06    -50.3795E+06    -773.337E+03     14.6006E+06     3.81471E+06         66.5069
            1524     7.41218E-03     136.477E-03     703.472E-03    -219.451E-03    -529.220E-03    -181.515E-03     427.303E-03    -290.987E-03    -717.976E-03     591.564E-03    -295.643E-03    -301.300E-03    -295.458E-03     591.378E-03    -301.300E-03     25.2593E-03     27.8570E+06     3.45586E+06    -43.6968E+06    -43.4974E+06     3.25642E+06     27.8570E+06     3.00925E+06         67.0151
            1525     8.15188E-03     136.561E-03     634.846E-03    -229.893E-03    -497.012E-03    -304.876E-03     505.281E-03    -292.464E-03     102.040E-03     593.198E-03    -296.083E-03    -301.055E-03    -295.751E-03     592.865E-03    -301.055E-03     34.1051E-03     38.3813E+06     8.84913E+06    -36.7112E+06    -36.3899E+06     8.52782E+06     38.3813E+06     3.37701E+06         67.9835
            1526     8.89199E-03     136.663E-03     444.279E-03    -230.800E-03    -464.107E-03    -307.247E-03     357.547E-03    -300.928E-03     96.4052E-03     593.530E-03    -293.783E-03    -298.134E-03    -293.197E-03     592.944E-03    -298.134E-03     45.0792E-03     46.4802E+06     16.2456E+06    -29.9727E+06    -29.4633E+06     15.7362E+06     46.4802E+06     4.43562E+06         69.5618
            1527     9.63215E-03     136.769E-03     330.010E-03    -257.042E-03    -425.864E-03    -282.006E-03     236.656E-03    -307.546E-03    -36.6116E-03     594.014E-03    -293.836E-03    -296.216E-03    -292.912E-03     593.090E-03    -296.216E-03     57.0111E-03     52.3596E+06     17.6906E+06    -23.9309E+06    -23.5242E+06     17.2839E+06     52.3596E+06     3.94507E+06         71.9437
            1528     10.3726E-03     136.905E-03     538.346E-03    -313.397E-03    -577.254E-03    -334.248E-03     295.340E-03    -313.397E-03     228.439E-03     594.817E-03    -296.216E-03    -298.873E-03    -294.875E-03     593.476E-03    -298.873E-03     68.7867E-03     55.4604E+06     20.1017E+06    -18.4128E+06    -18.1608E+06     19.8497E+06     55.4604E+06     2.97498E+06         75.1937
            1529     11.1152E-03     137.021E-03     566.767E-03    -280.376E-03    -555.179E-03    -196.341E-03     240.938E-03    -313.385E-03    -266.846E-03     599.236E-03    -297.782E-03    -300.706E-03    -296.699E-03     597.462E-03    -300.014E-03     79.6433E-03     59.2576E+06     27.6376E+06    -12.8821E+06    -12.6875E+06     27.4430E+06     59.2576E+06     2.66928E+06         79.1640
            1530     11.8721E-03     137.145E-03     466.544E-03    -229.479E-03    -438.853E-03     63.3790E-03     32.7466E-03    -297.913E-03    -407.623E-03     601.452E-03    -298.066E-03    -301.760E-03    -298.619E-03     598.311E-03    -298.066E-03     104.356E-03     65.4461E+06     34.3613E+06    -7.98018E+06    -7.87637E+06     34.2575E+06     65.4461E+06     1.96694E+06         83.4914
            1531     12.6138E-03     137.362E-03     481.399E-03    -138.052E-03    -466.688E-03     274.960E-03    -129.628E-03    -268.673E-03    -380.733E-03     603.574E-03    -297.963E-03    -301.741E-03    -298.158E-03     599.992E-03    -297.963E-03     113.038E-03     71.3699E+06     37.3994E+06    -3.76194E+06    -3.73471E+06     37.3721E+06     71.3699E+06     1.00761E+06         87.3289
            1532     740.909E-06     138.833E-03         10.0710    -696.622E-03        -9.57152    -322.199E-03     821.704E-03    -696.622E-03         7.83802     593.408E-03    -296.597E-03    -296.997E-03    -296.652E-03     593.405E-03    -296.939E-03    -2.95407E-03    -78.4530E+06    -80.1463E+06    -114.704E+06    -80.0546E+06    -114.400E+06    -78.8479E+06     3.07324E+06         67.0188
            1533     1.48214E-03     138.658E-03         5.23218    -581.813E-03        -4.78386        -1.03895         1.48727    -581.813E-03        -2.08445     592.896E-03    -296.069E-03    -296.899E-03    -296.060E-03     592.886E-03    -296.899E-03    -5.65962E-03    -74.5054E+06    -77.3950E+06    -102.471E+06    -78.8203E+06    -101.028E+06    -74.5232E+06     4.90457E+06         67.0602
            1534     2.22302E-03     138.525E-03         3.69581    -718.443E-03        -3.21971        -1.06547         1.54157    -718.443E-03         1.07938     591.886E-03    -294.835E-03    -297.510E-03    -294.817E-03     591.868E-03    -297.510E-03    -7.81727E-03    -67.0605E+06    -70.9969E+06    -89.9247E+06    -76.6484E+06    -83.2622E+06    -68.0715E+06     7.81831E+06         67.0338
            1535     2.96475E-03     138.399E-03         2.50425    -754.534E-03        -2.17347    -773.011E-03         1.10380    -754.534E-03        -1.05278     589.085E-03    -293.785E-03    -298.150E-03    -293.765E-03     589.065E-03    -298.150E-03    -8.32939E-03    -51.7336E+06    -61.2378E+06    -81.0753E+06    -74.0418E+06    -59.8354E+06    -60.1696E+06     10.9828E+06         66.9066
            1536     3.70747E-03     138.278E-03         1.78161    -687.206E-03        -1.58533    -179.574E-03     375.858E-03    -687.206E-03     89.9948E-03     585.792E-03    -294.894E-03    -297.382E-03    -294.879E-03     585.778E-03    -297.382E-03    -7.03611E-03    -31.2737E+06    -48.6452E+06    -75.3825E+06    -70.9425E+06    -35.7137E+06    -48.6452E+06     12.6162E+06         66.7249
            1537     4.44984E-03     138.200E-03         1.00687    -474.948E-03    -971.024E-03     337.934E-03    -229.662E-03    -547.372E-03        -1.45004     587.698E-03    -295.930E-03    -299.033E-03    -298.761E-03     587.692E-03    -296.196E-03    -4.18087E-03    -18.2938E+06    -32.8729E+06    -69.7862E+06    -67.0708E+06    -21.0093E+06    -32.8729E+06     11.1840E+06         66.5673
            1538     5.19200E-03     138.127E-03     522.533E-03    -346.001E-03    -635.070E-03    -113.190E-03     95.1500E-03    -440.498E-03    -395.197E-03     596.353E-03    -295.640E-03    -299.257E-03    -299.254E-03     596.350E-03    -295.640E-03     613.114E-06    -11.4032E+06    -16.9024E+06    -64.1182E+06    -62.4846E+06    -13.4198E+06    -16.5194E+06     8.91677E+06         66.5281
            1539     5.93388E-03     138.094E-03     768.381E-03    -361.749E-03    -683.426E-03    -420.565E-03     558.410E-03    -414.639E-03    -74.7640E-03     600.005E-03    -294.299E-03    -295.406E-03    -295.389E-03     599.988E-03    -294.299E-03     7.12531E-03    -265.855E+03    -5.53158E+06    -58.0558E+06    -57.0068E+06    -6.11484E+06    -731.659E+03     7.21371E+06         66.6365
            1540     6.67535E-03     138.127E-03     928.771E-03    -382.177E-03    -684.584E-03    -327.621E-03     602.625E-03    -412.993E-03    -277.730E-03     594.701E-03    -292.979E-03    -295.854E-03    -293.232E-03     594.628E-03    -295.527E-03     15.3867E-03     14.1162E+06     1.25186E+06    -51.9616E+06    -51.2597E+06     549.986E+03     14.1162E+06     5.88604E+06         66.8149
            1541     7.41601E-03     138.188E-03     900.558E-03    -413.154E-03    -653.843E-03    -405.503E-03     652.218E-03    -413.154E-03    -552.826E-03     592.057E-03    -294.595E-03    -300.013E-03    -294.423E-03     591.885E-03    -300.013E-03     24.3270E-03     27.6419E+06     5.96063E+06    -46.0129E+06    -45.5780E+06     5.52565E+06     27.6419E+06     4.50309E+06         67.1632
            1542     8.15632E-03     138.269E-03     613.675E-03    -283.699E-03    -455.256E-03    -271.031E-03     557.694E-03    -411.942E-03     17.0234E-03     591.518E-03    -295.553E-03    -301.139E-03    -295.234E-03     591.199E-03    -301.139E-03     33.2720E-03     39.0731E+06     7.90082E+06    -39.4665E+06    -39.2662E+06     7.70051E+06     39.0731E+06     2.89463E+06         67.9618
            1543     8.89574E-03     138.380E-03     335.905E-03    -151.008E-03    -396.737E-03    -75.4305E-03     260.328E-03    -396.737E-03    -266.437E-03     591.659E-03    -293.768E-03    -298.409E-03    -293.201E-03     591.093E-03    -298.409E-03     44.3439E-03     47.6740E+06     13.0285E+06    -32.3354E+06    -32.0601E+06     12.7532E+06     47.6740E+06     2.80566E+06         69.4257
            1544     9.63551E-03     138.500E-03     495.071E-03    -251.705E-03    -525.378E-03     63.0374E-03     24.1410E-03    -369.191E-03     369.232E-03     593.565E-03    -293.264E-03    -296.060E-03    -292.375E-03     592.676E-03    -296.060E-03     55.8829E-03     53.7162E+06     18.8271E+06    -25.1257E+06    -24.7781E+06     18.4795E+06     53.7162E+06     3.29375E+06         71.7456
            1545     10.3767E-03     138.638E-03     508.296E-03    -332.573E-03    -541.431E-03     199.747E-03    -232.882E-03    -332.573E-03     592.713E-03     595.089E-03    -295.247E-03    -298.115E-03    -293.931E-03     593.772E-03    -298.115E-03     68.1036E-03     57.1521E+06     20.8866E+06    -18.6824E+06    -18.4716E+06     20.6758E+06     57.1521E+06     2.75251E+06         74.9548
            1546     11.1181E-03     138.774E-03     399.188E-03    -255.620E-03    -488.908E-03     328.524E-03    -385.236E-03    -288.629E-03     239.549E-03     599.941E-03    -297.621E-03    -300.183E-03    -296.423E-03     598.178E-03    -299.618E-03     79.4151E-03     61.4355E+06     27.4878E+06    -13.7259E+06    -13.5943E+06     27.3563E+06     61.4355E+06     2.22580E+06         78.8924
            1547     11.8733E-03     138.888E-03     369.108E-03    -180.312E-03    -491.004E-03     129.388E-03    -182.850E-03    -248.747E-03     205.071E-03     601.296E-03    -298.119E-03    -301.849E-03    -298.657E-03     598.104E-03    -298.119E-03     105.045E-03     68.1363E+06     35.4789E+06    -8.99400E+06    -8.90221E+06     35.3871E+06     68.1363E+06     1.99276E+06         83.2259
            1548     12.6146E-03     139.125E-03     300.242E-03    -89.9818E-03    -342.435E-03    -35.4966E-03     123.925E-03    -220.603E-03     219.799E-03     602.423E-03    -297.970E-03    -301.675E-03    -298.009E-03     598.758E-03    -297.970E-03     114.244E-03     73.9145E+06     39.6654E+06    -4.49904E+06    -4.43627E+06     39.6026E+06     73.9145E+06     1.58628E+06         87.1202
            1549     740.997E-06     140.686E-03         6.67112        -1.09872        -6.35339    -923.913E-03         1.24164        -1.09872         6.74992     593.374E-03    -296.257E-03    -297.351E-03    -296.983E-03     593.372E-03    -296.623E-03    -2.33740E-03    -80.7557E+06    -82.8675E+06    -128.244E+06    -82.3922E+06    -127.895E+06    -81.5800E+06     3.38974E+06         67.2772
            1550     1.48200E-03     140.516E-03         2.79720    -928.495E-03        -2.48641    -698.732E-03         1.00952    -928.495E-03    -919.117E-03     592.092E-03    -295.421E-03    -296.627E-03    -295.411E-03     592.083E-03    -296.627E-03    -5.55012E-03    -77.0138E+06    -79.7624E+06    -115.304E+06    -80.7210E+06    -114.252E+06    -77.1069E+06     5.62011E+06         67.3590
            1551     2.22402E-03     140.388E-03         2.13553    -806.761E-03        -1.94169    -400.052E-03     593.901E-03    -806.761E-03     198.745E-03     590.538E-03    -294.933E-03    -297.249E-03    -294.917E-03     590.522E-03    -297.249E-03    -7.54174E-03    -70.8171E+06    -74.5450E+06    -101.134E+06    -78.1979E+06    -97.4630E+06    -70.8349E+06      7.9123E+06         67.4174
            1552     2.96538E-03     140.268E-03         1.71703    -708.944E-03        -1.71356    -307.783E-03     311.256E-03    -708.944E-03    -435.987E-03     588.043E-03    -295.438E-03    -297.709E-03    -295.493E-03     588.026E-03    -297.637E-03    -7.89181E-03    -59.7703E+06    -64.3416E+06    -87.3380E+06    -74.9966E+06    -74.5222E+06    -61.9311E+06     10.8980E+06         67.4201
            1553     3.70683E-03     140.168E-03         1.50981    -649.866E-03        -1.54887    -330.528E-03     291.467E-03    -649.866E-03     63.9303E-03     587.406E-03    -295.942E-03    -298.010E-03    -297.204E-03     587.393E-03    -296.735E-03    -6.63259E-03    -38.6162E+06    -51.1447E+06    -77.4231E+06    -70.9672E+06    -45.4243E+06    -50.7926E+06     13.4651E+06         67.3752
            1554     4.44886E-03     140.057E-03         1.32499    -596.873E-03        -1.26993    -165.927E-03     223.309E-03    -599.190E-03    -632.245E-03     590.238E-03    -295.804E-03    -299.797E-03    -299.767E-03     590.234E-03    -295.829E-03    -3.85070E-03    -17.9031E+06    -35.9735E+06    -70.4882E+06    -66.4499E+06    -21.9414E+06    -35.9735E+06     13.8700E+06         67.3068
            1555     5.19166E-03     139.968E-03     871.764E-03    -510.271E-03    -758.157E-03    -54.5094E-03     192.507E-03    -534.662E-03     989.111E-03     597.337E-03    -295.391E-03    -298.961E-03    -298.959E-03     597.335E-03    -295.391E-03     702.403E-06    -9.15533E+06    -19.2467E+06    -64.9921E+06    -62.1668E+06    -11.9806E+06    -19.2467E+06     12.1019E+06         67.2822
            1556     5.93373E-03     139.916E-03     636.257E-03    -459.545E-03    -565.758E-03    -185.600E-03     278.173E-03    -481.618E-03     626.162E-03     600.369E-03    -294.163E-03    -295.483E-03    -295.081E-03     600.352E-03    -294.549E-03     6.99337E-03    -473.135E+03    -5.13093E+06    -58.7100E+06    -56.7802E+06    -5.02420E+06    -2.50968E+06     10.0593E+06         67.3575
            1557     6.67558E-03     139.912E-03     541.832E-03    -405.334E-03    -527.212E-03    -261.796E-03     323.284E-03    -452.201E-03     279.434E-03     595.064E-03    -292.838E-03    -295.648E-03    -292.899E-03     594.997E-03    -295.519E-03     14.8111E-03     13.7153E+06     3.03481E+06    -51.9658E+06    -50.5741E+06     1.64313E+06     13.7153E+06     8.53856E+06         67.4986
            1558     7.41715E-03     139.934E-03     533.161E-03    -384.249E-03    -558.368E-03    -235.775E-03     257.436E-03    -431.116E-03     546.697E-03     592.178E-03    -294.267E-03    -299.617E-03    -294.106E-03     592.018E-03    -299.617E-03     23.4799E-03     29.3389E+06     8.73792E+06    -45.5076E+06    -44.4678E+06     7.69816E+06     29.3389E+06     7.27209E+06         67.7803
            1559     8.15858E-03     139.987E-03     434.957E-03    -249.572E-03    -532.937E-03    -128.744E-03     187.390E-03    -406.197E-03     534.172E-03     591.177E-03    -295.508E-03    -301.228E-03    -295.189E-03     590.858E-03    -301.228E-03     33.1798E-03     42.9094E+06     12.4093E+06    -39.0719E+06    -38.4272E+06     11.7645E+06     42.9094E+06     5.43901E+06         68.4642
            1560     8.89928E-03     140.077E-03     205.686E-03    -150.623E-03    -424.475E-03    -53.2589E-03     59.6422E-03    -375.795E-03     81.0738E-03     591.376E-03    -293.999E-03    -298.649E-03    -293.424E-03     590.802E-03    -298.649E-03     44.6864E-03     51.9323E+06     14.4570E+06    -32.4636E+06    -32.2423E+06     14.2358E+06     51.9323E+06     2.76022E+06         69.8229
            1561     9.63967E-03     140.195E-03     458.130E-03    -258.804E-03    -483.686E-03     226.827E-03    -176.020E-03    -335.167E-03     410.501E-03     593.185E-03    -293.090E-03    -295.788E-03    -292.209E-03     592.304E-03    -295.788E-03     55.6319E-03     56.8213E+06     17.0828E+06    -26.1279E+06    -26.0230E+06     16.9779E+06     56.8213E+06     1.91216E+06         72.0658
            1562     10.3800E-03     140.345E-03     518.748E-03    -274.529E-03    -462.462E-03     427.730E-03    -363.628E-03    -282.345E-03     362.693E-03     594.732E-03    -294.439E-03    -296.977E-03    -293.137E-03     593.430E-03    -296.977E-03     67.6714E-03     58.9440E+06     20.2482E+06    -20.6641E+06    -20.4639E+06     20.0481E+06     58.9440E+06     2.81891E+06         75.1985
            1563     11.1211E-03     140.494E-03     538.305E-03    -232.653E-03    -616.280E-03     359.681E-03    -437.655E-03    -232.653E-03     400.699E-06     599.849E-03    -296.803E-03    -299.166E-03    -295.293E-03     598.099E-03    -298.924E-03     79.0744E-03     62.8625E+06     28.9022E+06    -15.4063E+06    -15.2352E+06     28.7311E+06     62.8625E+06     2.61069E+06         79.0584
            1564     11.8737E-03     140.623E-03     595.933E-03    -194.322E-03    -789.283E-03     304.038E-03    -497.388E-03    -194.322E-03     296.621E-03     600.916E-03    -297.788E-03    -301.141E-03    -297.637E-03     597.708E-03    -298.084E-03     105.125E-03     69.4296E+06     36.0288E+06    -10.1693E+06    -10.0996E+06     35.9591E+06     69.4296E+06     1.64473E+06         83.3484
            1565     12.6159E-03     140.883E-03     538.611E-03    -162.855E-03    -864.307E-03     239.596E-03    -565.292E-03    -162.855E-03     340.752E-03     602.111E-03    -297.797E-03    -301.291E-03    -297.610E-03     598.430E-03    -297.797E-03     114.375E-03     74.9626E+06     40.9327E+06    -5.23777E+06    -5.18818E+06     40.8831E+06     74.9626E+06     914.517E+03         87.2704
            1566     741.100E-06     142.521E-03         4.09245        -1.06230        -3.52029    -520.250E-03         1.09241        -1.06230         2.20237     593.719E-03    -296.183E-03    -297.744E-03    -297.313E-03     593.716E-03    -296.610E-03    -2.61855E-03    -82.3649E+06    -84.6246E+06    -141.051E+06    -84.0373E+06    -140.814E+06    -83.1892E+06     3.05897E+06         67.4689
            1567     1.48268E-03     142.381E-03         1.89539    -632.916E-03        -2.03564     181.871E-03    -322.121E-03    -632.916E-03        -1.14889     591.971E-03    -295.345E-03    -296.583E-03    -295.584E-03     591.959E-03    -296.333E-03    -6.13653E-03    -78.9229E+06    -81.7841E+06    -128.374E+06    -82.4712E+06    -127.612E+06    -78.9981E+06     5.48740E+06         67.5767
            1568     2.22392E-03     142.276E-03         1.12495    -430.690E-03        -1.59708    -212.818E-03    -259.312E-03    -430.690E-03     82.0788E-03     590.455E-03    -295.953E-03    -297.089E-03    -296.238E-03     590.437E-03    -296.785E-03    -8.10053E-03    -72.4103E+06    -77.9478E+06    -113.466E+06    -80.3082E+06    -111.106E+06    -72.4103E+06     8.15515E+06         67.7026
            1569     2.96562E-03     142.139E-03     939.967E-03    -395.992E-03        -1.20165    -234.106E-03    -27.5740E-03    -395.992E-03    -723.833E-03     589.095E-03    -296.498E-03    -297.145E-03    -296.854E-03     589.077E-03    -296.771E-03    -8.09328E-03    -63.7122E+06    -69.1377E+06    -96.1116E+06    -77.3051E+06    -87.9443E+06    -63.7122E+06     10.7473E+06         67.8082
            1570     3.70686E-03     142.061E-03     710.006E-03    -379.609E-03    -800.522E-03    -303.539E-03     213.023E-03    -379.609E-03     65.4370E-03     590.719E-03    -295.611E-03    -298.673E-03    -298.661E-03     590.707E-03    -295.611E-03    -6.37831E-03    -47.4064E+06    -54.6912E+06    -82.4314E+06    -73.5191E+06    -58.3828E+06    -52.6271E+06     13.1838E+06         67.8797
            1571     4.44870E-03     141.934E-03         1.07802    -412.424E-03        -1.06758    -786.569E-03     797.005E-03    -412.424E-03     327.297E-03     594.268E-03    -295.087E-03    -300.630E-03    -300.627E-03     594.264E-03    -295.087E-03    -3.32973E-03    -23.0812E+06    -39.3194E+06    -74.1620E+06    -69.0603E+06    -28.1829E+06    -39.3194E+06     14.8465E+06         67.9423
            1572     5.19096E-03     141.849E-03         1.27704    -464.192E-03        -1.11732    -633.650E-03     793.368E-03    -464.192E-03     690.545E-03     599.948E-03    -294.765E-03    -298.601E-03    -298.599E-03     599.946E-03    -294.765E-03     930.178E-06    -7.24604E+06    -22.3234E+06    -67.0156E+06    -63.4949E+06    -10.7667E+06    -22.3234E+06     14.0243E+06         68.0314
            1573     5.93312E-03     141.777E-03     658.991E-03    -449.799E-03    -656.930E-03    -45.6889E-03     53.1156E-03    -455.165E-03     86.4628E-03     600.600E-03    -294.085E-03    -296.046E-03    -295.100E-03     600.582E-03    -295.013E-03     7.12887E-03     168.418E+03    -5.52758E+06    -60.2075E+06    -57.7012E+06    -3.97398E+06    -3.89146E+06     11.8272E+06         68.1705
            1574     6.67496E-03     141.769E-03     164.687E-03    -347.950E-03    -402.499E-03     105.856E-03    -289.403E-03    -402.215E-03     299.234E-03     594.345E-03    -293.209E-03    -297.071E-03    -293.139E-03     594.275E-03    -297.071E-03     15.1192E-03     13.6259E+06     3.90949E+06    -53.2466E+06    -51.2876E+06     1.95050E+06     13.6259E+06     10.3821E+06         68.3448
            1575     7.41671E-03     141.757E-03     239.750E-03    -310.568E-03    -612.586E-03    -82.6363E-03    -241.301E-03    -359.467E-03     277.740E-03     592.011E-03    -294.396E-03    -300.362E-03    -294.233E-03     591.848E-03    -300.362E-03     23.7051E-03     30.5092E+06     9.55236E+06    -45.8188E+06    -44.1404E+06     7.87395E+06     30.5092E+06     9.46237E+06         68.6476
            1576     8.15824E-03     141.790E-03     327.825E-03    -282.358E-03    -754.176E-03    -30.1056E-03    -348.239E-03    -330.365E-03    -65.6517E-03     591.240E-03    -295.555E-03    -301.211E-03    -295.230E-03     590.915E-03    -301.211E-03     33.4669E-03     45.5967E+06     17.0292E+06    -38.4479E+06    -37.2152E+06     15.7965E+06     45.5967E+06     8.05834E+06         69.3341
            1577     8.89990E-03     141.841E-03     266.700E-03    -250.000E-03    -546.209E-03     84.0036E-03    -315.506E-03    -298.007E-03     11.5064E-03     591.401E-03    -294.002E-03    -298.712E-03    -293.409E-03     590.808E-03    -298.712E-03     45.3848E-03     55.9340E+06     20.9171E+06    -32.0394E+06    -31.3295E+06     20.2072E+06     55.9340E+06     5.81867E+06         70.6617
            1578     9.64112E-03     141.934E-03     350.788E-03    -257.526E-03    -460.152E-03     74.7716E-03    -176.320E-03    -265.341E-03    -91.6450E-03     592.918E-03    -293.492E-03    -295.641E-03    -292.620E-03     592.013E-03    -295.607E-03     56.4271E-03     61.1715E+06     17.6054E+06    -26.4206E+06    -26.0267E+06     17.2115E+06     61.1715E+06     3.88747E+06         72.8398
            1579     10.3827E-03     142.071E-03     426.626E-03    -223.354E-03    -470.965E-03     271.152E-03    -307.676E-03    -231.170E-03    -299.707E-03     593.437E-03    -294.487E-03    -296.495E-03    -293.183E-03     592.098E-03    -296.461E-03     68.5067E-03     63.3171E+06     18.7584E+06    -20.7026E+06    -20.4060E+06     18.4617E+06     63.3171E+06     3.31903E+06         75.8905
            1580     11.1245E-03     142.215E-03     496.904E-03    -193.270E-03    -594.223E-03     325.813E-03    -423.132E-03    -193.270E-03    -86.7403E-03     598.468E-03    -295.812E-03    -298.758E-03    -294.021E-03     596.677E-03    -298.758E-03     79.8656E-03     66.5361E+06     30.3356E+06    -15.2768E+06    -15.0088E+06     30.0676E+06     66.5361E+06     3.35170E+06         79.6553
            1581     11.8755E-03     142.365E-03     520.375E-03    -157.871E-03    -714.196E-03     276.746E-03    -470.567E-03    -157.871E-03     229.704E-03     600.490E-03    -297.175E-03    -300.522E-03    -296.299E-03     597.268E-03    -298.176E-03     105.340E-03     72.3356E+06     39.6734E+06    -10.1797E+06    -10.0473E+06     39.5410E+06     72.3356E+06     2.09010E+06         83.8688
            1582     12.6164E-03     142.655E-03     531.498E-03    -123.448E-03    -952.725E-03     335.123E-03    -756.351E-03    -123.448E-03    -163.832E-03     601.939E-03    -297.561E-03    -300.476E-03    -296.667E-03     598.322E-03    -297.753E-03     113.167E-03     77.9350E+06     43.1066E+06    -5.08412E+06    -5.07093E+06     43.0934E+06     77.9350E+06     323.722E+03         87.7932
            1583     740.796E-06     144.371E-03         2.73661     446.654E-03        -3.50656     305.549E-03        -1.27021     641.368E-03    -287.262E-03     594.608E-03    -296.828E-03    -298.099E-03    -297.886E-03     594.605E-03    -297.038E-03    -2.53131E-03    -83.5996E+06    -86.6157E+06    -154.095E+06    -85.6761E+06    -153.887E+06    -84.7467E+06     3.37513E+06         67.6440
            1584     1.48199E-03     144.249E-03         1.94521     262.471E-03        -2.64838    -208.976E-03    -507.279E-03     275.555E-03    -762.324E-03     594.257E-03    -296.348E-03    -297.246E-03    -296.743E-03     594.246E-03    -296.841E-03    -5.97078E-03    -80.4870E+06    -83.9530E+06    -141.654E+06    -84.6105E+06    -140.996E+06    -80.4870E+06     5.74422E+06         67.7582
            1585     2.22382E-03     144.162E-03         1.12274     27.8515E-03        -1.56747    -497.732E-03     53.0043E-03     27.8515E-03         1.19067     592.809E-03    -296.522E-03    -297.580E-03    -296.809E-03     592.793E-03    -297.276E-03    -7.69106E-03    -73.4106E+06    -80.4466E+06    -127.054E+06    -82.3004E+06    -125.200E+06    -73.4106E+06     8.50117E+06         67.9165
            1586     2.96515E-03     144.026E-03     761.965E-03    -136.472E-03    -925.967E-03    -598.759E-03     434.757E-03    -136.472E-03    -121.524E-03     591.698E-03    -296.142E-03    -297.638E-03    -297.150E-03     591.681E-03    -296.614E-03    -7.72946E-03    -64.2699E+06    -73.3748E+06    -107.553E+06    -79.1415E+06    -101.786E+06    -64.2699E+06     11.3975E+06         68.0879
            1587     3.70735E-03     143.951E-03     867.277E-03    -230.850E-03    -827.006E-03    -507.465E-03     547.736E-03    -230.850E-03     541.611E-03     592.641E-03    -295.178E-03    -299.122E-03    -299.111E-03     592.630E-03    -295.178E-03    -6.12730E-03    -52.2221E+06    -59.0351E+06    -90.1857E+06    -75.6183E+06    -72.3916E+06    -53.4331E+06     14.2751E+06         68.2654
            1588     4.44886E-03     143.826E-03     960.905E-03    -271.286E-03    -974.769E-03    -377.815E-03     363.952E-03    -271.286E-03     557.237E-03     596.467E-03    -295.347E-03    -300.481E-03    -300.478E-03     596.464E-03    -295.347E-03    -3.22348E-03    -28.5219E+06    -41.5869E+06    -78.2016E+06    -71.2932E+06    -36.5409E+06    -40.4763E+06     15.6677E+06         68.4660
            1589     5.19047E-03     143.753E-03     923.615E-03    -289.498E-03        -1.01640    -336.993E-03     244.204E-03    -289.498E-03    -74.4001E-03     602.348E-03    -295.402E-03    -298.208E-03    -298.145E-03     602.345E-03    -295.462E-03     1.31252E-03    -7.63349E+06    -24.6826E+06    -70.0650E+06    -66.2151E+06    -11.4834E+06    -24.6826E+06     14.9554E+06         68.6884
            1590     5.93171E-03     143.668E-03     678.823E-03    -302.571E-03    -855.724E-03    -435.769E-03     264.235E-03    -307.937E-03    -463.495E-03     600.397E-03    -294.743E-03    -296.647E-03    -295.307E-03     600.376E-03    -296.062E-03     7.83563E-03     600.381E+03    -6.62923E+06    -63.5497E+06    -60.4652E+06    -3.40819E+06    -5.70521E+06     13.5741E+06         68.9192
            1591     6.67350E-03     143.656E-03     355.230E-03    -313.104E-03    -619.783E-03    -344.379E-03     87.2240E-03    -320.502E-03     176.427E-03     593.061E-03    -294.481E-03    -298.968E-03    -294.402E-03     592.982E-03    -298.968E-03     16.0261E-03     12.5975E+06     4.62440E+06    -56.8417E+06    -54.3763E+06     2.15901E+06     12.5975E+06     11.9935E+06         69.1676
            1592     7.41496E-03     143.643E-03     166.277E-03    -306.488E-03    -477.665E-03    -32.7739E-03    -276.581E-03    -308.520E-03    -174.285E-03     591.479E-03    -295.578E-03    -301.374E-03    -295.403E-03     591.303E-03    -301.374E-03     24.6569E-03     29.4782E+06     9.95996E+06    -49.0626E+06    -47.1754E+06     8.07279E+06     29.4782E+06     10.3673E+06         69.5700
            1593     8.15623E-03     143.657E-03     310.096E-03    -280.218E-03    -717.208E-03     36.1679E-03    -443.280E-03    -280.218E-03    -243.832E-03     592.454E-03    -295.844E-03    -300.981E-03    -295.505E-03     592.115E-03    -300.981E-03     34.2355E-03     45.3155E+06     18.4785E+06    -41.0814E+06    -39.5216E+06     16.9186E+06     45.3155E+06     9.48912E+06         70.3408
            1594     8.89832E-03     143.700E-03     363.865E-03    -248.270E-03    -695.728E-03     158.018E-03    -489.880E-03    -248.270E-03     128.372E-03     592.601E-03    -293.949E-03    -298.614E-03    -293.339E-03     591.991E-03    -298.614E-03     46.0769E-03     57.7510E+06     25.4838E+06    -33.5763E+06    -32.3720E+06     24.2795E+06     57.7510E+06     8.31409E+06         71.6865
            1595     9.63960E-03     143.775E-03     420.354E-03    -211.953E-03    -720.051E-03     248.247E-03    -547.944E-03    -211.953E-03    -27.8601E-03     592.495E-03    -293.282E-03    -295.688E-03    -292.378E-03     591.556E-03    -295.654E-03     57.3904E-03     63.9444E+06     21.8123E+06    -26.6913E+06    -25.8632E+06     20.9842E+06     63.9444E+06     6.25902E+06         73.8265
            1596     10.3816E-03     143.894E-03     416.450E-03    -175.642E-03    -700.182E-03     239.051E-03    -522.782E-03    -175.642E-03    -287.851E-03     592.243E-03    -294.351E-03    -296.657E-03    -292.986E-03     590.844E-03    -296.623E-03     69.9902E-03     65.6630E+06     19.2902E+06    -20.7499E+06    -20.1471E+06     18.6874E+06     65.6630E+06     4.80937E+06         76.8190
            1597     11.1238E-03     144.018E-03     386.723E-03    -141.042E-03    -682.722E-03     299.390E-03    -595.390E-03    -141.042E-03    -41.9363E-03     597.900E-03    -295.667E-03    -298.936E-03    -293.779E-03     596.012E-03    -298.936E-03     81.9585E-03     70.1004E+06     31.0479E+06    -15.0018E+06    -14.6005E+06     30.6466E+06     70.1004E+06     4.08631E+06         80.5248
            1598     11.8752E-03     144.155E-03     454.519E-03    -106.165E-03    -831.767E-03     346.592E-03    -723.839E-03    -106.165E-03     101.530E-03     600.933E-03    -297.215E-03    -300.741E-03    -296.099E-03     597.562E-03    -298.486E-03     107.858E-03     77.5724E+06     44.9494E+06    -9.44497E+06    -9.25655E+06     44.7610E+06     77.5724E+06     2.95950E+06         84.6883
            1599     12.6163E-03     144.435E-03     459.151E-03    -72.7296E-03    -874.967E-03     271.561E-03    -687.376E-03    -72.7296E-03    -475.517E-03     601.528E-03    -297.739E-03    -300.188E-03    -296.278E-03     597.812E-03    -297.934E-03     114.560E-03     82.5263E+06     46.7731E+06    -4.69618E+06    -4.64878E+06     46.7257E+06     82.5263E+06     1.13272E+06         88.5990
            1600     741.437E-06     146.230E-03         2.07721     494.131E-03        -3.33178     502.113E-03        -1.95139     688.844E-03     666.093E-03     594.950E-03    -297.040E-03    -298.315E-03    -298.313E-03     594.948E-03    -297.040E-03    -2.41310E-03    -89.9778E+06    -92.8002E+06    -169.002E+06    -91.8517E+06    -168.804E+06    -91.1249E+06     3.37642E+06         67.8056
            1601     1.48288E-03     146.126E-03         1.46180     398.036E-03        -2.22758    -399.604E-03    -379.263E-03     411.120E-03     943.069E-03     595.182E-03    -296.589E-03    -297.671E-03    -297.014E-03     595.174E-03    -297.237E-03    -5.27270E-03    -85.3741E+06    -89.1492E+06    -156.546E+06    -89.8236E+06    -155.872E+06    -85.3741E+06     6.37701E+06         67.9175
            1602     2.22423E-03     146.064E-03     747.493E-03     164.108E-03    -974.895E-03    -169.751E-03    -57.6510E-03     164.108E-03     347.907E-03     593.351E-03    -296.499E-03    -297.684E-03    -296.551E-03     593.338E-03    -297.619E-03    -6.88928E-03    -76.9686E+06    -85.2127E+06    -141.429E+06    -86.8543E+06    -139.787E+06    -76.9686E+06     9.12161E+06         68.0918
            1603     2.96584E-03     145.926E-03     655.880E-03     84.0992E-03        -1.00876    -85.0581E-03    -267.820E-03     84.0992E-03     236.205E-03     592.542E-03    -296.061E-03    -298.720E-03    -298.234E-03     592.527E-03    -296.533E-03    -7.20596E-03    -67.2496E+06    -78.6905E+06    -121.120E+06    -83.0347E+06    -116.776E+06    -67.2496E+06     11.8569E+06         68.3232
            1604     3.70712E-03     145.882E-03     731.285E-03     22.5621E-03        -1.25965    -242.276E-03    -286.088E-03     22.5621E-03     565.040E-03     594.790E-03    -295.205E-03    -300.446E-03    -300.436E-03     594.780E-03    -295.205E-03    -5.88454E-03    -55.5949E+06    -65.5029E+06    -99.0124E+06    -78.2439E+06    -86.2715E+06    -55.5949E+06     14.4989E+06         68.6069
            1605     4.44842E-03     145.757E-03     515.349E-03    -135.133E-03    -940.184E-03    -50.6017E-03    -483.348E-03    -26.0192E-03     483.080E-03     598.216E-03    -296.016E-03    -300.299E-03    -300.296E-03     598.213E-03    -296.016E-03    -2.80755E-03    -33.8804E+06    -45.4625E+06    -83.1984E+06    -73.3461E+06    -47.4209E+06    -41.7741E+06     16.8911E+06         68.9135
            1606     5.18953E-03     145.690E-03     335.025E-03    -225.567E-03    -727.771E-03    -45.8511E-03    -528.428E-03    -44.0337E-03     312.342E-03     602.120E-03    -296.299E-03    -297.794E-03    -297.459E-03     602.116E-03    -296.630E-03     1.98628E-03    -9.89333E+06    -25.5259E+06    -74.4727E+06    -68.8920E+06    -15.4740E+06    -25.5259E+06     17.8270E+06         69.2258
            1607     5.93181E-03     145.590E-03     478.650E-03    -142.259E-03    -906.271E-03    -343.185E-03    -156.854E-03    -69.8399E-03     413.334E-03     599.496E-03    -295.755E-03    -297.779E-03    -295.729E-03     599.470E-03    -297.779E-03     8.76917E-03     984.823E+03    -6.89799E+06    -67.4897E+06    -63.2243E+06    -3.40093E+06    -6.77765E+06     16.4669E+06         69.5330
            1608     6.67217E-03     145.599E-03     522.448E-03    -108.540E-03    -941.601E-03    -420.671E-03     1.51898E-03    -108.540E-03     34.2466E-03     591.822E-03    -296.028E-03    -300.546E-03    -295.941E-03     591.735E-03    -300.546E-03     17.0032E-03     11.6437E+06     6.92584E+06    -59.7894E+06    -56.6836E+06     3.84368E+06     11.6200E+06     13.9583E+06         69.8659
            1609     7.41354E-03     145.560E-03     368.829E-03    -123.101E-03    -655.052E-03    -18.0367E-03    -268.187E-03    -123.101E-03    -29.1422E-03     590.623E-03    -296.850E-03    -301.514E-03    -296.654E-03     590.428E-03    -301.514E-03     25.9247E-03     28.6871E+06     11.9257E+06    -52.6201E+06    -50.4405E+06     9.74605E+06     28.6871E+06     11.6263E+06         70.3771
            1610     8.15403E-03     145.585E-03     401.830E-03    -110.211E-03    -704.812E-03     45.7185E-03    -348.700E-03    -110.211E-03     882.369E-03     593.405E-03    -296.459E-03    -300.646E-03    -296.095E-03     593.041E-03    -300.646E-03     35.5875E-03     45.2632E+06     18.0742E+06    -44.5274E+06    -42.8731E+06     16.4198E+06     45.2632E+06     9.99548E+06         71.2324
            1611     8.89592E-03     145.612E-03     272.162E-03    -97.5995E-03    -697.895E-03    -64.8370E-03    -360.896E-03    -97.5995E-03     762.981E-03     593.598E-03    -294.022E-03    -298.418E-03    -293.380E-03     592.957E-03    -298.418E-03     47.2301E-03     58.0931E+06     26.8078E+06    -36.2927E+06    -34.9290E+06     25.4441E+06     58.0931E+06     9.15621E+06         72.6186
            1612     9.63714E-03     145.670E-03     250.493E-03    -117.458E-03    -739.738E-03     6.21028E-03    -526.655E-03    -86.2582E-03     429.158E-03     592.508E-03    -293.316E-03    -295.769E-03    -292.323E-03     591.514E-03    -295.769E-03     59.0443E-03     64.9536E+06     26.1735E+06    -29.2421E+06    -28.0583E+06     24.9897E+06     64.9536E+06     8.00282E+06         74.7713
            1613     10.3802E-03     145.766E-03     194.715E-03    -130.796E-03    -745.394E-03    -14.5938E-03    -593.081E-03    -73.8007E-03     131.861E-03     592.571E-03    -294.887E-03    -297.364E-03    -293.412E-03     591.096E-03    -297.364E-03     71.8917E-03     67.3409E+06     22.3449E+06    -22.5578E+06    -21.7495E+06     21.5366E+06     67.3409E+06     5.88834E+06         77.7620
            1614     11.1254E-03     145.857E-03     128.554E-03    -108.149E-03    -695.073E-03     5.63848E-03    -616.138E-03    -64.1684E-03    -321.656E-03     598.986E-03    -296.106E-03    -299.352E-03    -294.106E-03     596.986E-03    -299.352E-03     84.4012E-03     71.8289E+06     32.9494E+06    -16.0589E+06    -15.6863E+06     32.5768E+06     71.8289E+06     3.99729E+06         81.4777
            1615     11.8760E-03     145.962E-03     325.658E-03    -65.7350E-03    -865.324E-03     246.547E-03    -804.396E-03    -47.5508E-03    -238.265E-03     601.754E-03    -297.313E-03    -300.968E-03    -296.250E-03     598.209E-03    -298.485E-03     110.774E-03     78.9435E+06     47.5125E+06    -10.3991E+06    -10.2374E+06     47.3508E+06     78.9435E+06     3.02785E+06         85.6438
            1616     12.6186E-03     146.262E-03     495.320E-03    -16.6260E-03        -1.03323     437.657E-03    -975.570E-03    -16.6260E-03    -292.259E-03     601.250E-03    -297.611E-03    -300.663E-03    -296.783E-03     597.372E-03    -297.613E-03     117.035E-03     84.0949E+06     50.6358E+06    -5.04739E+06    -4.93909E+06     50.5275E+06     84.0949E+06     2.12415E+06         89.5221
            1617     741.449E-06     148.085E-03         3.38472        -1.10063        -3.01600     167.223E-03     201.499E-03        -1.10063     302.122E-03     593.848E-03    -296.412E-03    -297.446E-03    -297.427E-03     593.845E-03    -296.428E-03    -2.84860E-03    -96.4766E+06    -99.4178E+06    -182.873E+06    -98.5453E+06    -182.740E+06    -97.4815E+06     3.21210E+06         67.9372
            1618     1.48311E-03     148.025E-03         2.01521    -277.973E-03        -2.37270     330.798E-03    -688.285E-03    -277.973E-03         2.36235     593.150E-03    -296.247E-03    -297.046E-03    -296.516E-03     593.141E-03    -296.768E-03    -5.53860E-03    -92.3302E+06    -95.7274E+06    -171.253E+06    -96.2180E+06    -170.762E+06    -92.3302E+06     5.44769E+06         68.0418
            1619     2.22509E-03     147.986E-03     695.897E-03    -32.5425E-03        -1.25389     429.470E-03    -987.462E-03    -32.5425E-03    -965.430E-03     591.712E-03    -296.138E-03    -297.385E-03    -296.866E-03     591.698E-03    -296.643E-03    -7.12043E-03    -83.6857E+06    -91.3699E+06    -155.646E+06    -92.6521E+06    -154.363E+06    -83.6857E+06     8.44236E+06         68.2222
            1620     2.96613E-03     147.867E-03     404.297E-03     88.2953E-03        -1.17168     376.670E-03        -1.14405     88.2953E-03    -342.075E-03     592.919E-03    -295.448E-03    -298.979E-03    -298.965E-03     592.905E-03    -295.448E-03    -7.04547E-03    -72.3798E+06    -85.1858E+06    -134.190E+06    -88.3205E+06    -131.055E+06    -72.3798E+06     11.1778E+06         68.4849
            1621     3.70685E-03     147.830E-03     352.749E-03     141.352E-03        -1.29515     259.453E-03        -1.20185     141.352E-03    -668.447E-03     597.149E-03    -294.685E-03    -300.741E-03    -300.732E-03     597.141E-03    -294.685E-03    -5.40711E-03    -59.5820E+06    -74.3474E+06    -110.316E+06    -83.5191E+06    -101.144E+06    -59.5820E+06     14.1000E+06         68.8157
            1622     4.44800E-03     147.720E-03     296.979E-03     41.7343E-03        -1.13975     84.7108E-03        -1.03659     150.848E-03    -468.597E-03     599.908E-03    -296.026E-03    -299.860E-03    -299.858E-03     599.905E-03    -296.026E-03    -2.05005E-03    -41.7437E+06    -52.9906E+06    -91.8667E+06    -78.2200E+06    -63.3336E+06    -45.0474E+06     17.6938E+06         69.1687
            1623     5.18963E-03     147.653E-03     176.759E-03    -53.7236E-03    -934.929E-03    -118.495E-03    -821.209E-03     127.809E-03    -62.1459E-03     600.978E-03    -296.102E-03    -297.916E-03    -296.664E-03     600.973E-03    -297.349E-03     2.89654E-03    -14.9046E+06    -28.3316E+06    -79.5174E+06    -71.9938E+06    -23.1120E+06    -27.6478E+06     19.9719E+06         69.5422
            1624     5.93056E-03     147.585E-03     363.782E-03     36.7676E-03        -1.09519     123.362E-03    -927.186E-03     109.187E-03     292.966E-03     598.136E-03    -295.979E-03    -299.381E-03    -295.947E-03     598.104E-03    -299.381E-03     9.84082E-03     2.35933E+06    -7.84012E+06    -70.9046E+06    -65.6220E+06    -2.92334E+06    -7.84012E+06     18.9184E+06         69.9244
            1625     6.67200E-03     147.564E-03     515.810E-03     111.426E-03        -1.21715     164.931E-03    -866.267E-03     111.426E-03    -375.306E-03     591.147E-03    -296.771E-03    -301.364E-03    -296.671E-03     591.048E-03    -301.364E-03     18.2825E-03     13.1381E+06     8.19714E+06    -63.4322E+06    -59.1703E+06     4.69523E+06     12.3781E+06     16.9415E+06         70.3388
            1626     7.41298E-03     147.530E-03     401.694E-03     99.4958E-03        -1.07339    -177.862E-03    -493.832E-03     99.4958E-03    -679.519E-03     590.921E-03    -296.938E-03    -301.172E-03    -296.724E-03     590.708E-03    -301.172E-03     27.1661E-03     31.2717E+06     16.8552E+06    -55.0228E+06    -52.0283E+06     13.8607E+06     31.2717E+06     14.1872E+06         70.9375
            1627     8.15523E-03     147.520E-03     469.832E-03     78.9446E-03    -980.506E-03    -72.8834E-03    -437.791E-03     78.9446E-03    -35.7642E-03     593.788E-03    -296.622E-03    -300.381E-03    -296.221E-03     593.387E-03    -300.381E-03     37.3305E-03     47.0626E+06     20.8208E+06    -46.3077E+06    -44.4935E+06     19.0066E+06     47.0626E+06     10.8368E+06         71.8771
            1628     8.89764E-03     147.537E-03     369.881E-03     71.5945E-03    -891.514E-03     24.7365E-03    -546.370E-03     71.5945E-03    -202.276E-03     593.361E-03    -293.803E-03    -297.944E-03    -293.097E-03     592.656E-03    -297.944E-03     49.5327E-03     59.8349E+06     25.2295E+06    -38.1348E+06    -36.6271E+06     23.7219E+06     59.8349E+06     9.63862E+06         73.3478
            1629     9.64053E-03     147.581E-03     196.314E-03     34.5443E-03    -816.869E-03    -114.139E-03    -537.615E-03     65.7438E-03    -243.254E-03     593.067E-03    -292.856E-03    -295.547E-03    -291.790E-03     592.001E-03    -295.547E-03     61.2071E-03     68.3648E+06     29.0467E+06    -30.3027E+06    -28.9091E+06     27.6531E+06     68.3648E+06     8.97498E+06         75.5740
            1630     10.3849E-03     147.656E-03     146.302E-03     1.67651E-03    -859.219E-03    -83.4916E-03    -686.421E-03     58.6722E-03    -127.221E-03     593.375E-03    -295.107E-03    -297.727E-03    -293.547E-03     591.815E-03    -297.727E-03     73.9854E-03     70.9277E+06     28.3596E+06    -22.9851E+06    -22.0973E+06     27.4718E+06     70.9277E+06     6.60082E+06         78.6111
            1631     11.1297E-03     147.731E-03     149.153E-03     15.7195E-03    -881.471E-03     50.0023E-03    -826.301E-03     59.6999E-03     71.9933E-03     599.317E-03    -296.378E-03    -299.439E-03    -294.262E-03     597.200E-03    -299.439E-03     86.8518E-03     73.5464E+06     36.4935E+06    -16.6472E+06    -16.2821E+06     36.1284E+06     73.5464E+06     4.12087E+06         82.3632
            1632     11.8798E-03     147.820E-03     189.236E-03    -63.1905E-03    -843.835E-03     2.59688E-03    -790.072E-03     69.6860E-03     143.421E-03     601.503E-03    -297.307E-03    -300.748E-03    -296.099E-03     597.810E-03    -298.262E-03     113.153E-03     79.3870E+06     48.9954E+06    -10.9185E+06    -10.7520E+06     48.8288E+06     79.3870E+06     3.11895E+06         86.5414
            1633     12.6229E-03     148.108E-03     310.120E-03    -20.2498E-03    -902.966E-03     182.777E-03    -890.316E-03     94.4426E-03     28.4361E-03     600.826E-03    -297.044E-03    -301.006E-03    -296.981E-03     596.802E-03    -297.044E-03     119.233E-03     84.8233E+06     53.5388E+06    -5.60059E+06    -5.48085E+06     53.4190E+06     84.8233E+06     2.15890E+06         90.3725
            1634     741.440E-06     149.951E-03         4.47166    -588.629E-03        -4.30818    -19.0213E-03     182.503E-03    -588.629E-03        -2.69457     592.299E-03    -295.611E-03    -296.629E-03    -296.213E-03     592.297E-03    -296.024E-03    -2.78661E-03    -102.773E+06    -105.249E+06    -194.705E+06    -104.362E+06    -194.587E+06    -103.778E+06     3.06646E+06         68.0397
            1635     1.48316E-03     149.905E-03         2.24259    -157.132E-03        -2.82308     435.180E-03        -1.01566    -157.132E-03         1.28200     591.370E-03    -295.753E-03    -296.342E-03    -295.951E-03     591.362E-03    -296.135E-03    -5.16099E-03    -99.1570E+06    -103.204E+06    -183.998E+06    -103.507E+06    -183.695E+06    -99.1570E+06     4.75305E+06         68.1271
            1636     2.22472E-03     149.896E-03         1.36628     65.9926E-03        -2.44600     582.473E-03        -1.66219     65.9926E-03    -648.163E-03     590.691E-03    -295.240E-03    -297.234E-03    -296.856E-03     590.679E-03    -295.607E-03    -6.46496E-03    -90.1267E+06    -99.3276E+06    -167.760E+06    -100.066E+06    -167.022E+06    -90.1267E+06     6.80278E+06         68.2893
            1637     2.96650E-03     149.783E-03     706.939E-03     111.332E-03        -1.67142     329.641E-03        -1.34450     161.706E-03         1.01387     593.306E-03    -294.372E-03    -298.889E-03    -298.877E-03     593.294E-03    -294.372E-03    -6.49278E-03    -78.1067E+06    -93.0840E+06    -146.725E+06    -95.0791E+06    -144.730E+06    -78.1067E+06     9.39746E+06         68.5409
            1638     3.70846E-03     149.762E-03     343.621E-03     123.416E-03        -1.12156     224.512E-03        -1.05849     179.455E-03    -194.739E-03     597.394E-03    -294.503E-03    -300.115E-03    -300.108E-03     597.387E-03    -294.503E-03    -4.94421E-03    -63.8282E+06    -83.4326E+06    -122.261E+06    -89.2148E+06    -116.479E+06    -63.8282E+06     12.3928E+06         68.8716
            1639     4.45029E-03     149.654E-03     446.642E-03     186.272E-03        -1.29572     350.898E-03        -1.20564     191.937E-03     86.2212E-03     600.494E-03    -296.313E-03    -299.194E-03    -299.170E-03     600.492E-03    -296.334E-03    -1.73266E-03    -47.1070E+06    -62.9184E+06    -99.6635E+06    -82.0042E+06    -80.5776E+06    -47.1070E+06     16.0399E+06         69.2495
            1640     5.19122E-03     149.595E-03     437.262E-03     210.404E-03        -1.36690     351.825E-03        -1.28146     210.404E-03     311.350E-03     600.403E-03    -295.892E-03    -298.156E-03    -296.022E-03     600.397E-03    -298.021E-03     3.56964E-03    -21.4633E+06    -34.8433E+06    -84.2134E+06    -75.0429E+06    -35.6852E+06    -29.7918E+06     19.7610E+06         69.6789
            1641     5.93272E-03     149.513E-03     383.186E-03     101.430E-03        -1.25424     209.693E-03        -1.19583     216.511E-03     38.1533E-03     596.723E-03    -295.633E-03    -299.905E-03    -295.595E-03     596.686E-03    -299.905E-03     10.8153E-03     1.25087E+06    -10.1662E+06    -74.9527E+06    -68.6077E+06    -5.09412E+06    -10.1662E+06     20.9606E+06         70.1201
            1642     6.67488E-03     149.508E-03     476.703E-03     100.287E-03        -1.29474     236.494E-03        -1.16961     215.369E-03    -106.656E-03     591.791E-03    -296.735E-03    -301.044E-03    -296.621E-03     591.677E-03    -301.044E-03     19.5357E-03     14.8136E+06     8.11596E+06    -66.0950E+06    -61.2111E+06     6.32054E+06     11.7252E+06     18.6594E+06         70.5896
            1643     7.41645E-03     149.461E-03     485.037E-03     209.817E-03        -1.44741     92.8777E-03        -1.05526     209.817E-03    -26.2556E-03     591.531E-03    -296.511E-03    -300.992E-03    -296.274E-03     591.294E-03    -300.992E-03     28.6533E-03     32.4929E+06     21.1090E+06    -56.1648E+06    -52.7322E+06     17.6764E+06     32.4929E+06     15.7691E+06         71.2589
            1644     8.15985E-03     149.446E-03     457.973E-03     159.859E-03        -1.32661     5.76409E-03    -910.118E-03     195.578E-03    -105.534E-03     593.650E-03    -296.466E-03    -300.204E-03    -296.026E-03     593.210E-03    -300.204E-03     39.0929E-03     49.8138E+06     26.0697E+06    -47.7761E+06    -45.2152E+06     23.5088E+06     49.8138E+06     13.4230E+06         72.2897
            1645     8.90301E-03     149.462E-03     444.020E-03     151.311E-03        -1.23439     139.218E-03    -965.304E-03     187.030E-03    -72.5020E-03     593.497E-03    -293.777E-03    -297.269E-03    -293.020E-03     592.740E-03    -297.269E-03     51.3806E-03     63.0051E+06     25.9045E+06    -39.8207E+06    -37.9174E+06     24.0011E+06     63.0051E+06     10.9866E+06         73.8627
            1646     9.64553E-03     149.502E-03     584.985E-03     197.776E-03        -1.29346     418.930E-03        -1.12741     197.776E-03    -198.992E-03     593.344E-03    -292.466E-03    -295.305E-03    -291.347E-03     592.225E-03    -295.305E-03     62.7174E-03     71.6379E+06     31.0658E+06    -31.6466E+06    -30.2478E+06     29.6669E+06     71.6379E+06     9.21570E+06         76.1792
            1647     10.3885E-03     149.580E-03     575.632E-03     221.904E-03        -1.27108     486.890E-03        -1.18233     221.904E-03    -117.084E-03     593.679E-03    -294.704E-03    -297.517E-03    -293.074E-03     592.049E-03    -297.517E-03     75.6300E-03     74.1646E+06     34.1604E+06    -24.1328E+06    -23.1628E+06     33.1905E+06     74.1646E+06     7.43628E+06         79.2761
            1648     11.1344E-03     149.646E-03     395.035E-03     212.992E-03        -1.16993     307.647E-03        -1.11014     240.599E-03     404.858E-03     598.735E-03    -296.377E-03    -298.914E-03    -294.150E-03     596.508E-03    -298.914E-03     89.0305E-03     76.2597E+06     41.6253E+06    -17.3819E+06    -16.8650E+06     41.1083E+06     76.2597E+06     5.18415E+06         83.0629
            1649     11.8818E-03     149.716E-03     400.237E-03     112.837E-03        -1.13439     222.115E-03        -1.09857     255.136E-03     374.597E-03     600.400E-03    -297.649E-03    -299.940E-03    -295.662E-03     596.592E-03    -298.119E-03     114.981E-03     81.5557E+06     51.3591E+06    -11.4295E+06    -11.2392E+06     51.1687E+06     81.5557E+06     3.23311E+06         87.2404
            1650     12.6257E-03     150.017E-03     448.522E-03     167.686E-03        -1.25694     276.834E-03        -1.19994     282.379E-03    -83.8040E-03     599.977E-03    -296.692E-03    -300.478E-03    -296.353E-03     595.852E-03    -296.692E-03     120.680E-03     86.0608E+06     56.0356E+06    -5.62402E+06    -5.53992E+06     55.9515E+06     86.0608E+06     1.75735E+06         91.0185
            1651     742.044E-06     151.782E-03         5.78419     447.108E-03        -6.87768     929.863E-03        -2.02335     447.108E-03        -5.95912     590.323E-03    -294.678E-03    -295.692E-03    -294.927E-03     590.321E-03    -295.441E-03    -1.99717E-03    -111.306E+06    -113.366E+06    -206.072E+06    -113.372E+06    -205.912E+06    -111.460E+06     3.40563E+06         68.1151
            1652     1.48418E-03     151.780E-03         2.38768     644.960E-03        -3.77954     484.993E-03        -1.87685     644.960E-03     567.422E-03     588.902E-03    -294.688E-03    -295.223E-03    -294.934E-03     588.898E-03    -294.972E-03    -4.08685E-03    -105.160E+06    -110.196E+06    -192.156E+06    -110.387E+06    -191.966E+06    -105.160E+06     3.33334E+06         68.1854
            1653     2.22658E-03     151.776E-03         1.77325     529.194E-03        -3.08214     115.428E-03        -1.42432     529.194E-03    -481.364E-03     589.228E-03    -293.882E-03    -296.248E-03    -295.957E-03     589.221E-03    -294.166E-03    -5.19028E-03    -95.6348E+06    -106.061E+06    -176.776E+06    -106.430E+06    -176.407E+06    -95.6348E+06     4.32728E+06         68.3207
            1654     2.96843E-03     151.667E-03         1.14684     382.605E-03        -2.23588     288.562E-03        -1.42798     432.979E-03         1.59917     592.737E-03    -293.347E-03    -298.470E-03    -298.461E-03     592.728E-03    -293.347E-03    -5.64155E-03    -82.9497E+06    -99.9324E+06    -156.458E+06    -100.765E+06    -155.625E+06    -82.9497E+06     6.10153E+06         68.5458
            1655     3.71077E-03     151.655E-03     591.377E-03     352.553E-03        -1.58688     435.673E-03        -1.48722     408.592E-03    -69.1859E-03     596.299E-03    -294.656E-03    -299.593E-03    -299.587E-03     596.293E-03    -294.656E-03    -4.37191E-03    -67.8407E+06    -91.3829E+06    -132.576E+06    -94.1079E+06    -129.851E+06    -67.8407E+06     9.07476E+06         68.8721
            1656     4.45295E-03     151.558E-03     537.420E-03     355.286E-03        -1.56354     356.647E-03        -1.42452     397.033E-03     215.468E-03     600.416E-03    -296.396E-03    -298.590E-03    -298.290E-03     600.415E-03    -296.694E-03    -1.27504E-03    -51.1336E+06    -75.8827E+06    -108.191E+06    -87.1065E+06    -96.9675E+06    -51.1336E+06     13.0183E+06         69.2812
            1657     5.19503E-03     151.495E-03     714.275E-03     356.402E-03        -1.67901     516.128E-03        -1.51695     392.484E-03     384.319E-03     599.881E-03    -295.500E-03    -297.954E-03    -295.491E-03     599.872E-03    -297.954E-03     4.16409E-03    -30.1521E+06    -46.0151E+06    -89.4380E+06    -79.2120E+06    -53.4297E+06    -32.9635E+06     17.7247E+06         69.7583
            1658     5.93699E-03     151.425E-03     627.811E-03     279.653E-03        -1.61244     391.270E-03        -1.49098     394.735E-03     924.307E-03     595.054E-03    -295.277E-03    -299.334E-03    -295.234E-03     595.011E-03    -299.334E-03     11.6836E-03    -3.24200E+06    -15.2121E+06    -77.5752E+06    -70.9240E+06    -11.5581E+06    -13.5472E+06     20.5621E+06         70.2420
            1659     6.67991E-03     151.410E-03     568.682E-03     270.301E-03        -1.60983     294.281E-03        -1.45051     385.382E-03     235.250E-03     591.794E-03    -296.500E-03    -300.504E-03    -296.377E-03     591.671E-03    -300.504E-03     20.3583E-03     15.7459E+06     6.92460E+06    -67.5978E+06    -62.8605E+06     10.0818E+06     7.85137E+06     19.0538E+06         70.7389
            1660     7.42216E-03     151.367E-03     743.589E-03     385.195E-03        -1.89239     541.765E-03        -1.69057     385.195E-03     583.086E-03     591.315E-03    -296.667E-03    -300.911E-03    -296.402E-03     591.050E-03    -300.911E-03     30.2455E-03     30.5483E+06     21.3105E+06    -58.9268E+06    -55.2248E+06     18.0093E+06     30.1475E+06     16.8395E+06         71.4322
            1661     8.16432E-03     151.378E-03     709.944E-03     362.620E-03        -1.89124     520.622E-03        -1.73764     398.339E-03     707.450E-03     593.277E-03    -297.009E-03    -299.772E-03    -296.630E-03     592.804E-03    -299.679E-03     40.6966E-03     49.9208E+06     28.3554E+06    -50.5117E+06    -47.2194E+06     25.0631E+06     49.9208E+06     15.7580E+06         72.5028
            1662     8.90676E-03     151.407E-03     581.281E-03     370.384E-03        -1.74011     365.848E-03        -1.56040     406.103E-03     682.631E-03     593.826E-03    -294.505E-03    -296.615E-03    -293.818E-03     593.046E-03    -296.522E-03     52.2398E-03     64.1506E+06     30.2203E+06    -42.4508E+06    -39.6641E+06     27.4337E+06     64.1506E+06     13.8696E+06         74.1206
            1663     9.64912E-03     151.467E-03     680.232E-03     408.201E-03        -1.76825     392.794E-03        -1.48369     411.079E-03     87.2379E-03     593.173E-03    -293.453E-03    -295.473E-03    -292.474E-03     592.023E-03    -295.301E-03     63.6383E-03     73.9050E+06     35.5630E+06    -34.4830E+06    -32.5908E+06     33.6708E+06     73.9050E+06     11.1017E+06         76.4744
            1664     10.3920E-03     151.545E-03     820.512E-03     419.623E-03        -1.77116     535.055E-03        -1.48858     422.502E-03     142.318E-03     593.413E-03    -295.201E-03    -297.756E-03    -293.702E-03     591.742E-03    -297.585E-03     76.5906E-03     77.7187E+06     39.5805E+06    -26.4723E+06    -25.4261E+06     38.5343E+06     77.7187E+06     8.20757E+06         79.6102
            1665     11.1364E-03     151.599E-03     695.255E-03     407.342E-03        -1.66141     494.498E-03        -1.48826     434.949E-03     449.191E-03     597.872E-03    -296.465E-03    -298.729E-03    -294.322E-03     595.609E-03    -298.609E-03     89.7385E-03     79.4330E+06     46.5785E+06    -19.0396E+06    -18.5048E+06     46.0437E+06     79.4330E+06     5.59758E+06         83.4415
            1666     11.8838E-03     151.666E-03     640.763E-03     422.811E-03        -1.67444     524.061E-03        -1.58535     450.417E-03     147.837E-03     599.526E-03    -297.911E-03    -299.918E-03    -295.987E-03     595.715E-03    -298.031E-03     115.065E-03     83.9428E+06     56.4999E+06    -12.1721E+06    -12.0127E+06     56.3405E+06     83.9428E+06     2.92509E+06         87.6429
            1667     12.6300E-03     151.940E-03     657.313E-03     414.374E-03        -1.79300     431.069E-03        -1.62671     474.330E-03    -215.739E-03     599.058E-03    -296.207E-03    -300.492E-03    -296.336E-03     594.901E-03    -296.207E-03     121.189E-03     87.8625E+06     59.2653E+06    -6.04964E+06    -5.98335E+06     59.1990E+06     87.8625E+06     729.946E+03         91.4021
            1668     742.939E-06     153.617E-03         8.32186     498.856E-03        -9.89387         1.24508        -2.81709     498.856E-03        -8.45418     588.228E-03    -293.597E-03    -294.661E-03    -293.640E-03     588.227E-03    -294.616E-03    -1.87301E-03    -110.936E+06    -115.158E+06    -213.624E+06    -112.222E+06    -213.466E+06    -114.029E+06     979.553E+03         68.1601
            1669     1.48599E-03     153.644E-03         2.99573     818.132E-03        -4.61761     641.893E-03        -2.26377     818.132E-03         2.21321     586.545E-03    -293.580E-03    -294.054E-03    -293.983E-03     586.541E-03    -293.646E-03    -3.90534E-03    -107.574E+06    -113.455E+06    -194.744E+06    -111.362E+06    -194.727E+06    -109.684E+06     1.09199E+06         68.2164
            1670     2.22857E-03     153.662E-03         1.73039     697.870E-03        -2.98583     282.812E-03        -1.53825     697.870E-03    -471.816E-03     588.375E-03    -292.810E-03    -295.311E-03    -295.247E-03     588.368E-03    -292.866E-03    -5.05201E-03    -99.2404E+06    -108.309E+06    -182.182E+06    -108.353E+06    -182.137E+06    -99.2404E+06     1.49348E+06         68.3366
            1671     2.97117E-03     153.562E-03         1.40357     602.330E-03        -2.64444     413.819E-03        -1.65469     602.330E-03     483.666E-03     592.148E-03    -292.943E-03    -297.621E-03    -297.614E-03     592.141E-03    -292.943E-03    -5.11252E-03    -86.7252E+06    -103.631E+06    -164.907E+06    -103.905E+06    -164.633E+06    -86.7252E+06     3.56041E+06         68.5408
            1672     3.71340E-03     153.550E-03         1.09723     588.983E-03        -2.46152     710.314E-03        -2.07461     588.983E-03    -878.295E-03     595.266E-03    -295.006E-03    -298.580E-03    -298.576E-03     595.262E-03    -295.006E-03    -3.35761E-03    -72.4137E+06    -97.4666E+06    -141.528E+06    -98.5496E+06    -140.445E+06    -72.4137E+06     5.94566E+06         68.8430
            1673     4.45611E-03     153.458E-03     820.483E-03     566.099E-03        -2.20408     651.009E-03        -2.07069     602.181E-03     331.318E-03     598.749E-03    -296.189E-03    -297.616E-03    -297.166E-03     598.747E-03    -296.638E-03     36.4676E-06    -56.3729E+06    -86.3254E+06    -115.268E+06    -91.4610E+06    -110.132E+06    -56.3729E+06     8.63328E+06         69.2477
            1674     5.19846E-03     153.425E-03     783.054E-03     503.524E-03        -2.03271     539.158E-03        -1.88329     597.999E-03    -108.865E-03     597.419E-03    -294.969E-03    -297.700E-03    -294.957E-03     597.406E-03    -297.700E-03     5.47325E-03    -39.0839E+06    -61.0752E+06    -93.6113E+06    -83.1375E+06    -71.5490E+06    -39.0839E+06     12.6735E+06         69.7370
            1675     5.94141E-03     153.366E-03     812.662E-03     532.358E-03        -2.09225     600.597E-03        -1.93857     590.752E-03     777.393E-03     592.577E-03    -294.795E-03    -299.043E-03    -294.745E-03     592.527E-03    -299.043E-03     12.7672E-03    -11.6757E+06    -26.7010E+06    -80.1704E+06    -74.5423E+06    -23.9159E+06    -20.0889E+06     17.2030E+06         70.2410
            1676     6.68353E-03     153.358E-03     851.304E-03     587.444E-03        -2.25300     556.810E-03        -1.95850     587.444E-03    -355.455E-03     590.718E-03    -296.279E-03    -299.803E-03    -296.148E-03     590.587E-03    -299.803E-03     21.0173E-03     13.2842E+06     767.245E+03    -71.5671E+06    -66.7895E+06     8.50660E+06     767.245E+03     19.5465E+06         70.7423
            1677     7.42667E-03     153.341E-03     900.733E-03     585.781E-03        -2.23864     607.970E-03        -1.94588     585.781E-03    -337.104E-03     591.353E-03    -297.286E-03    -299.920E-03    -297.008E-03     591.075E-03    -299.920E-03     30.9661E-03     27.2562E+06     17.3344E+06     -63.743E+06    -59.2318E+06     16.9269E+06     23.1524E+06     19.0163E+06         71.4096
            1678     8.16792E-03     153.357E-03     875.079E-03     592.008E-03        -2.25014     698.505E-03        -2.07356     592.008E-03     49.2867E-03     592.965E-03    -297.413E-03    -298.912E-03    -297.348E-03     592.479E-03    -298.489E-03     41.3412E-03     44.9715E+06     29.1538E+06    -54.9286E+06    -51.1857E+06     25.4108E+06     44.9715E+06     17.1782E+06         72.4536
            1679     8.91063E-03     153.386E-03     950.017E-03     605.176E-03        -2.35152     762.158E-03        -2.16366     605.176E-03     129.999E-03     593.433E-03    -294.972E-03    -296.120E-03    -294.597E-03     592.636E-03    -295.698E-03     52.8037E-03     63.0064E+06     34.5123E+06    -45.1760E+06    -42.3269E+06     31.6632E+06     63.0064E+06     14.6585E+06         74.0579
            1680     9.65209E-03     153.445E-03     799.393E-03     562.549E-03        -2.29637     438.149E-03        -1.98108     608.503E-03    -133.922E-03     592.229E-03    -294.400E-03    -295.562E-03    -293.655E-03     591.048E-03    -295.125E-03     64.4871E-03     76.5222E+06     40.7827E+06    -35.0457E+06    -33.0853E+06     38.8222E+06     76.5222E+06     11.7540E+06         76.4150
            1681     10.3945E-03     153.523E-03     729.636E-03     531.919E-03        -2.23909     360.995E-03        -1.93625     597.723E-03    -519.359E-03     592.357E-03    -295.605E-03    -298.348E-03    -294.328E-03     590.643E-03    -297.911E-03     77.5470E-03     82.7668E+06     46.3529E+06    -25.5913E+06    -24.5537E+06     45.3153E+06     82.7668E+06     8.49525E+06         79.5841
            1682     11.1402E-03     153.575E-03     790.511E-03     573.988E-03        -2.27587     629.603E-03        -2.13481     593.837E-03    -61.1065E-03     597.095E-03    -296.478E-03    -299.334E-03    -294.776E-03     594.844E-03    -298.784E-03     89.5405E-03     84.2402E+06     51.9322E+06    -17.7775E+06    -17.3045E+06     51.4593E+06     84.2402E+06     5.48337E+06         83.4825
            1683     11.8889E-03     153.588E-03     729.375E-03     600.388E-03        -2.16371     651.703E-03        -2.08761     601.966E-03    -196.719E-03     598.838E-03    -297.922E-03    -300.588E-03    -296.844E-03     595.094E-03    -297.922E-03     113.972E-03     88.9110E+06     63.1301E+06    -10.9556E+06    -10.8157E+06     62.9903E+06     88.9110E+06     2.82109E+06         87.7593
            1684     12.6360E-03     153.843E-03     755.140E-03     553.196E-03        -2.05454     568.501E-03        -1.92943     614.731E-03    -322.096E-03     598.223E-03    -295.818E-03    -301.332E-03    -297.156E-03     594.047E-03    -295.818E-03     121.607E-03     92.6052E+06     63.4513E+06    -5.27971E+06    -5.22198E+06     63.3935E+06     92.6052E+06     611.538E+03         91.5601
            1685     743.015E-06     155.459E-03         9.40688     592.360E-03        -10.8212     567.541E-03        -1.98183     592.360E-03        -8.44841     587.002E-03    -293.058E-03    -294.020E-03    -293.057E-03     587.000E-03    -294.020E-03    -1.16594E-03    -100.605E+06    -105.735E+06    -215.964E+06    -102.900E+06    -215.859E+06    -103.545E+06     349.464E+03         68.1230
            1686     1.48607E-03     155.525E-03         3.89200     637.301E-03        -5.22846     813.177E-03        -2.14964     637.301E-03         3.19168     585.464E-03    -292.564E-03    -293.564E-03    -293.383E-03     585.460E-03    -292.740E-03    -3.44932E-03    -101.133E+06    -105.732E+06    -196.960E+06    -103.650E+06    -196.932E+06    -103.243E+06     1.22807E+06         68.1561
            1687     2.22962E-03     155.567E-03         2.48292     771.045E-03        -3.91881         1.29082        -2.72671     771.045E-03    -233.070E-03     588.068E-03    -292.469E-03    -295.237E-03    -295.231E-03     588.062E-03    -292.469E-03    -4.57733E-03    -94.2475E+06    -102.998E+06    -186.854E+06    -103.084E+06    -186.768E+06    -94.2475E+06     2.31994E+06         68.2550
            1688     2.97246E-03     155.485E-03         1.78562     735.026E-03        -3.36802     841.955E-03        -2.54017     850.839E-03         1.21097     591.986E-03    -293.428E-03    -297.223E-03    -297.217E-03     591.981E-03    -293.428E-03    -4.24891E-03    -83.4733E+06    -100.469E+06    -172.604E+06    -100.682E+06    -172.391E+06    -83.4733E+06     3.66447E+06         68.4233
            1689     3.71562E-03     155.491E-03         1.14078     526.223E-03        -2.48763     532.757E-03        -2.16870     815.319E-03    -789.755E-03     595.304E-03    -295.110E-03    -297.361E-03    -297.181E-03     595.302E-03    -295.288E-03    -2.37963E-03    -72.5114E+06    -96.0784E+06    -147.644E+06     -96.579E+06    -147.143E+06    -72.5114E+06     4.83788E+06         68.6623
            1690     4.45901E-03     155.415E-03     972.688E-03     568.072E-03        -2.31464     726.944E-03        -2.27751     776.686E-03     632.845E-03     596.271E-03    -295.445E-03    -296.538E-03    -295.666E-03     596.269E-03    -296.315E-03     1.28059E-03    -58.4110E+06    -89.7696E+06    -122.115E+06    -91.6574E+06    -120.227E+06    -58.4110E+06     6.49909E+06         69.0195
            1691     5.20175E-03     155.372E-03     799.461E-03     626.992E-03        -2.37183     630.019E-03        -2.33368     758.288E-03     32.8663E-03     592.679E-03    -294.149E-03    -297.652E-03    -294.132E-03     592.662E-03    -297.652E-03     6.96633E-03    -42.6991E+06    -73.7668E+06    -98.6514E+06    -85.8278E+06    -86.5904E+06    -42.6991E+06     9.58191E+06         69.4997
            1692     5.94427E-03     155.329E-03     889.271E-03     648.112E-03        -2.44452     707.605E-03        -2.35883     744.079E-03     417.801E-03     589.019E-03    -294.772E-03    -299.235E-03    -294.714E-03     588.961E-03    -299.235E-03     13.8565E-03    -21.7093E+06    -39.7726E+06    -85.1980E+06    -79.2519E+06    -42.4472E+06    -24.9809E+06     14.7609E+06         70.0184
            1693     6.68685E-03     155.332E-03         1.05275     745.259E-03        -2.71649     841.080E-03        -2.50481     745.259E-03    -272.609E-03     590.508E-03    -296.830E-03    -299.102E-03    -296.695E-03     590.373E-03    -299.102E-03     21.5162E-03     5.05338E+06    -5.32587E+06    -76.7390E+06    -71.8347E+06    -1.10736E+06    -4.06947E+06     19.1594E+06         70.5224
            1694     7.42933E-03     155.313E-03         1.06680     751.400E-03        -2.76178     795.529E-03        -2.49051     751.400E-03    -6.18839E-03     592.293E-03    -297.276E-03    -298.724E-03    -297.615E-03     592.021E-03    -298.114E-03     30.6613E-03     23.2464E+06     15.7864E+06    -67.7966E+06    -63.4617E+06     17.3489E+06     17.3489E+06     18.9798E+06         71.1604
            1695     8.17245E-03     155.317E-03     948.763E-03     640.127E-03        -2.51487     648.389E-03        -2.32323     748.859E-03     358.821E-03     592.158E-03    -296.233E-03    -298.442E-03    -297.747E-03     591.681E-03    -296.451E-03     40.8626E-03     38.6610E+06     32.0636E+06    -56.9771E+06    -53.9215E+06     29.0543E+06     38.6148E+06     15.7448E+06         72.1801
            1696     8.91510E-03     155.344E-03     968.125E-03     611.974E-03        -2.47956     663.332E-03        -2.30540     742.606E-03     283.266E-03     592.734E-03    -294.085E-03    -295.978E-03    -295.014E-03     591.940E-03    -294.256E-03     52.6562E-03     60.0271E+06     39.5562E+06    -45.2789E+06    -43.5049E+06     37.7822E+06     60.0271E+06     11.9217E+06         73.7886
            1697     9.65855E-03     155.381E-03     972.675E-03     677.166E-03        -2.63423     736.127E-03        -2.46266     742.142E-03     266.981E-03     591.581E-03    -294.457E-03    -295.322E-03    -293.949E-03     590.379E-03    -294.628E-03     65.0123E-03     77.2957E+06     43.8407E+06    -34.3224E+06    -33.2329E+06     42.7512E+06     77.2957E+06     8.90518E+06         76.1832
            1698     10.4028E-03     155.429E-03     788.828E-03     523.905E-03        -2.52895     499.424E-03        -2.45265     737.001E-03    -524.613E-03     591.354E-03    -295.322E-03    -297.765E-03    -293.929E-03     589.609E-03    -297.413E-03     78.2484E-03     86.4290E+06     50.9509E+06    -24.6919E+06    -23.9798E+06     50.2388E+06     86.4290E+06     7.13546E+06         79.4278
            1699     11.1486E-03     155.456E-03     721.025E-03     397.724E-03        -2.28536     382.345E-03        -2.26863     719.675E-03    -11.9792E-03     596.662E-03    -295.902E-03    -298.909E-03    -294.567E-03     594.411E-03    -297.992E-03     89.5215E-03     89.6240E+06     56.9039E+06    -16.3943E+06    -15.9823E+06     56.4919E+06     89.6240E+06     5.34336E+06         83.4242
            1700     11.8984E-03     155.457E-03     725.877E-03     554.599E-03        -2.27726     562.621E-03        -2.26751     708.107E-03    -119.366E-03     598.599E-03    -297.553E-03    -300.660E-03    -296.937E-03     594.876E-03    -297.553E-03     113.629E-03     94.3054E+06     67.3236E+06    -9.83364E+06    -9.58191E+06     67.0719E+06     94.3054E+06     4.04762E+06         87.7863
            1701     12.6467E-03     155.711E-03     810.862E-03     699.907E-03        -2.40525     773.094E-03        -2.38426     716.682E-03    -148.556E-03     597.269E-03    -295.561E-03    -301.174E-03    -296.928E-03     593.023E-03    -295.561E-03     122.702E-03     96.6352E+06     68.7381E+06    -5.68282E+06    -5.54047E+06     68.5958E+06     96.6352E+06     2.51929E+06         91.6301
            1702     744.090E-06     157.303E-03         8.32753         1.34453        -9.80503     583.484E-03        -2.06099         1.34453        -7.81433     586.267E-03    -292.547E-03    -293.873E-03    -293.237E-03     586.266E-03    -293.182E-03    -944.561E-06    -95.3719E+06    -99.9008E+06    -218.436E+06    -98.1546E+06    -218.380E+06    -97.1736E+06     1.98191E+06         67.9537
            1703     1.48757E-03     157.407E-03         3.81795         1.06240        -5.47092         1.23834        -2.89131         1.06240         1.72281     583.061E-03    -291.295E-03    -292.464E-03    -291.970E-03     583.059E-03    -291.788E-03    -2.52942E-03    -91.1963E+06    -96.2529E+06    -203.865E+06    -96.3524E+06    -203.766E+06    -91.1963E+06     2.66662E+06         67.9563
            1704     2.23136E-03     157.482E-03         2.55676         1.13826        -4.65306         1.21502        -3.31131         1.13826    -691.551E-03     585.365E-03    -291.203E-03    -294.643E-03    -294.640E-03     585.362E-03    -291.203E-03    -3.50304E-03    -82.5270E+06    -93.9416E+06    -193.311E+06    -94.1808E+06    -193.072E+06    -82.5270E+06     4.76734E+06         68.0147
            1705     2.97550E-03     157.421E-03         1.77236         1.03159        -3.65879         1.10996        -3.11221         1.14740         2.29385     591.522E-03    -292.394E-03    -297.242E-03    -297.239E-03     591.519E-03    -292.394E-03    -3.21445E-03    -71.6333E+06    -90.4378E+06    -177.880E+06    -90.8074E+06    -177.510E+06    -71.6333E+06     5.55086E+06         68.1242
            1706     3.71927E-03     157.425E-03         1.13298     567.141E-03        -2.61828     574.602E-03        -2.58071         1.08795    -241.890E-03     595.638E-03    -294.266E-03    -296.566E-03    -296.348E-03     595.637E-03    -294.482E-03    -1.65324E-03    -59.5887E+06    -85.9629E+06    -154.679E+06    -86.6764E+06    -153.966E+06    -59.5887E+06     6.73841E+06         68.2965
            1707     4.46273E-03     157.351E-03     992.546E-03     549.506E-03        -2.44762     526.135E-03        -2.42425     992.546E-03    -72.4691E-03     594.339E-03    -294.315E-03    -296.205E-03    -294.312E-03     594.337E-03    -296.205E-03     1.79105E-03    -46.0542E+06    -80.7757E+06    -131.261E+06    -82.6832E+06    -129.354E+06    -46.0542E+06     8.79829E+06         68.6211
            1708     5.20624E-03     157.310E-03     986.750E-03     869.629E-03        -2.71190     909.079E-03        -2.70985     945.244E-03     24.6949E-03     589.039E-03    -293.550E-03    -298.049E-03    -293.532E-03     589.021E-03    -298.049E-03     7.41132E-03    -31.3541E+06    -71.2720E+06    -105.338E+06    -78.1277E+06    -98.4828E+06    -31.3541E+06     11.1751E+06         69.1138
            1709     5.94969E-03     157.257E-03         1.07803     859.724E-03        -2.88441     968.061E-03        -2.85470     939.989E-03     390.584E-03     585.678E-03    -295.630E-03    -299.247E-03    -295.571E-03     585.619E-03    -299.247E-03     14.0172E-03    -15.9487E+06    -47.3422E+06    -86.2305E+06    -72.2431E+06    -61.3297E+06    -15.9487E+06     14.9388E+06         69.6837
            1710     6.69275E-03     157.240E-03         1.06441     782.425E-03        -2.89396     824.291E-03        -2.80450     933.091E-03    -241.261E-03     589.699E-03    -297.038E-03    -298.580E-03    -296.903E-03     589.563E-03    -298.580E-03     21.5372E-03     3.68446E+06    -9.54575E+06    -73.4154E+06    -65.4259E+06    -15.0452E+06     1.19441E+06     19.3676E+06         70.2461
            1711     7.43596E-03     157.207E-03         1.06910     690.532E-03        -2.86245     706.516E-03        -2.72443     915.095E-03     60.8475E-03     592.797E-03    -296.266E-03    -298.339E-03    -297.326E-03     592.533E-03    -297.016E-03     30.2691E-03     25.4859E+06     19.7359E+06    -63.5451E+06    -58.8702E+06     20.8111E+06     19.7359E+06     19.3366E+06         70.9167
            1712     8.17906E-03     157.191E-03         1.03111     670.245E-03        -2.73646     706.873E-03        -2.63754     895.565E-03     323.129E-03     591.295E-03    -294.857E-03    -298.384E-03    -297.906E-03     590.817E-03    -294.857E-03     40.8114E-03     41.2253E+06     36.8024E+06    -54.5121E+06    -52.1478E+06     37.6981E+06     37.9653E+06     14.2886E+06         71.9650
            1713     8.92440E-03     157.187E-03     893.040E-03     674.883E-03        -2.64635     608.236E-03        -2.56337     876.714E-03    -159.769E-03     591.847E-03    -292.036E-03    -296.005E-03    -295.217E-03     591.059E-03    -292.036E-03     52.5490E-03     57.1667E+06     45.7957E+06    -45.1229E+06    -44.0664E+06     44.7392E+06     57.1667E+06     9.59284E+06         73.6070
            1714     9.66906E-03     157.230E-03     913.240E-03     758.485E-03        -2.72275     702.503E-03        -2.61494     861.414E-03    -324.687E-03     591.492E-03    -292.823E-03    -295.494E-03    -294.296E-03     590.295E-03    -292.823E-03     64.8251E-03     75.5260E+06     46.8082E+06    -36.1031E+06    -35.4910E+06     46.1960E+06     75.5260E+06     7.04206E+06         76.0468
            1715     10.4133E-03     157.291E-03     903.226E-03     683.599E-03        -2.61674     679.964E-03        -2.56127     851.400E-03    -288.561E-03     590.800E-03    -294.369E-03    -296.914E-03    -293.538E-03     589.062E-03    -296.008E-03     78.0762E-03     87.9335E+06     52.5875E+06    -27.5859E+06    -27.1547E+06     52.1564E+06     87.9335E+06     5.82070E+06         79.3689
            1716     11.1598E-03     157.330E-03     838.047E-03     525.923E-03        -2.48224     505.505E-03        -2.45960     835.825E-03     111.014E-03     594.722E-03    -295.074E-03    -297.862E-03    -293.981E-03     592.479E-03    -296.713E-03     89.2065E-03     91.3939E+06     58.9299E+06    -19.6406E+06    -19.2827E+06     58.5720E+06     91.3939E+06     5.20781E+06         83.4513
            1717     11.9081E-03     157.342E-03     839.988E-03     545.725E-03        -2.54976     546.126E-03        -2.53152     821.348E-03    -303.359E-03     597.044E-03    -297.137E-03    -299.674E-03    -295.940E-03     593.310E-03    -297.137E-03     113.662E-03     94.4630E+06     67.4228E+06    -12.7824E+06    -12.4394E+06     67.0798E+06     94.4630E+06     5.14684E+06         87.8641
            1718     12.6552E-03     157.619E-03     835.953E-03     602.547E-03        -2.59470     608.448E-03        -2.58418     819.534E-03    -56.8847E-03     594.617E-03    -295.315E-03    -299.266E-03    -294.914E-03     590.266E-03    -295.315E-03     124.059E-03     97.9800E+06     74.5312E+06    -6.29391E+06    -6.02728E+06     74.2646E+06     97.9800E+06     4.09517E+06         91.7230
            1719     743.861E-06     159.136E-03         6.66481         1.89521        -9.04593     959.632E-03        -3.34075         1.89521        -8.80172     585.399E-03    -292.151E-03    -293.606E-03    -292.841E-03     585.398E-03    -292.915E-03    -1.56813E-03    -99.2675E+06    -103.739E+06    -223.284E+06    -101.967E+06    -223.255E+06    -101.069E+06     1.56850E+06         67.7824
            1720     1.48959E-03     159.258E-03         2.30685         1.32785        -4.36030     969.361E-03        -3.02280         1.32785     503.246E-03     580.766E-03    -290.286E-03    -291.291E-03    -290.701E-03     580.763E-03    -290.873E-03    -3.01557E-03    -95.1181E+06    -100.811E+06    -214.290E+06    -100.955E+06    -214.146E+06    -95.1181E+06     3.73608E+06         67.7914
            1721     2.23514E-03     159.333E-03         1.53370     971.834E-03        -3.36749     503.271E-03        -2.48986         1.12463        -1.34068     581.780E-03    -289.725E-03    -293.364E-03    -293.359E-03     581.774E-03    -289.725E-03    -4.16328E-03    -82.8277E+06    -96.9168E+06    -201.557E+06    -97.2458E+06    -201.228E+06    -82.8277E+06     5.75310E+06         67.8270
            1722     2.97988E-03     159.282E-03         1.38343     863.775E-03        -3.09801     966.997E-03        -2.83437         1.01657     698.848E-03     589.156E-03    -290.619E-03    -296.658E-03    -296.652E-03     589.151E-03    -290.619E-03    -4.00255E-03    -69.0112E+06    -91.5514E+06    -184.033E+06    -92.1620E+06    -183.422E+06    -69.0112E+06     7.30767E+06         67.8930
            1723     3.72443E-03     159.280E-03         1.67239     816.082E-03        -3.41379         1.38664        -3.35975         1.04780    -502.627E-03     594.584E-03    -292.485E-03    -296.022E-03    -295.981E-03     594.583E-03    -292.525E-03    -2.12792E-03    -54.0161E+06    -85.2664E+06    -163.924E+06    -86.3584E+06    -162.832E+06    -54.0161E+06     8.99593E+06         68.0327
            1724     4.46843E-03     159.208E-03         1.44888     771.632E-03        -3.14135         1.11423        -3.12065         1.08558    -314.866E-03     592.789E-03    -293.095E-03    -295.711E-03    -293.773E-03     592.786E-03    -295.030E-03     1.73239E-03    -39.1702E+06    -77.7806E+06    -140.975E+06    -79.8934E+06    -138.862E+06    -39.1702E+06     10.9851E+06         68.3584
            1725     5.21247E-03     159.166E-03         1.10767     784.560E-03        -2.76552     757.904E-03        -2.69736         1.06617    -558.693E-03     587.440E-03    -293.190E-03    -297.863E-03    -293.171E-03     587.421E-03    -297.863E-03     7.56340E-03    -25.3864E+06    -68.3611E+06    -114.449E+06    -73.3998E+06    -109.410E+06    -25.3864E+06     13.4610E+06         68.8670
            1726     5.95582E-03     159.121E-03         1.06285     729.676E-03        -2.74900     655.250E-03        -2.63307         1.02134    -741.171E-03     583.108E-03    -294.887E-03    -298.693E-03    -294.825E-03     583.046E-03    -298.693E-03     14.2816E-03    -11.5072E+06    -52.9123E+06    -88.6794E+06    -66.8478E+06    -74.7440E+06    -11.5072E+06     15.7139E+06         69.4732
            1727     6.70024E-03     159.095E-03         1.08454     785.880E-03        -2.83184     750.182E-03        -2.69775     986.147E-03        -1.13025     586.352E-03    -295.434E-03    -297.782E-03    -295.289E-03     586.207E-03    -297.782E-03     22.1990E-03     2.96746E+06    -20.3885E+06    -70.1910E+06    -59.6409E+06    -30.5968E+06     2.62566E+06     18.8287E+06         70.1235
            1728     7.44388E-03     159.069E-03         1.06105     729.032E-03        -2.80789     740.583E-03        -2.72105     962.650E-03    -596.406E-03     590.064E-03    -295.291E-03    -297.853E-03    -296.260E-03     589.792E-03    -296.610E-03     30.7933E-03     30.1452E+06     15.0050E+06    -58.6574E+06    -52.4682E+06     20.1582E+06     18.8028E+06     21.3223E+06         70.8947
            1729     8.18844E-03     159.081E-03     963.636E-03     820.313E-03        -2.85213     814.203E-03        -2.82834     945.956E-03    -165.177E-03     588.886E-03    -294.383E-03    -298.070E-03    -297.587E-03     588.403E-03    -294.383E-03     40.9584E-03     51.7543E+06     39.4453E+06    -50.3961E+06    -46.3610E+06     47.6399E+06     39.5246E+06     19.2072E+06         71.9931
            1730     8.93251E-03     159.086E-03     992.987E-03     867.237E-03        -2.90637     890.063E-03        -2.87464     938.436E-03    -410.926E-03     589.970E-03    -290.831E-03    -296.098E-03    -295.320E-03     589.192E-03    -290.831E-03     52.2290E-03     61.1363E+06     53.8168E+06    -44.2197E+06    -41.7244E+06     52.5506E+06     59.9072E+06     14.3840E+06         73.6296
            1731     9.67763E-03     159.123E-03         1.00297     853.877E-03        -2.81714     867.626E-03        -2.76283     934.905E-03    -529.123E-03     590.731E-03    -290.959E-03    -295.752E-03    -294.566E-03     589.545E-03    -290.959E-03     64.4429E-03     76.8049E+06     55.1742E+06    -37.3406E+06    -36.2742E+06     54.1078E+06     76.8049E+06     9.23747E+06         76.0627
            1732     10.4226E-03     159.181E-03     984.848E-03     916.035E-03        -2.82754     922.723E-03        -2.78305     933.665E-03    -292.548E-03     590.188E-03    -293.243E-03    -296.452E-03    -293.462E-03     588.436E-03    -294.481E-03     78.3574E-03     89.0949E+06     53.4009E+06    -29.1189E+06    -28.6161E+06     52.8981E+06     89.0949E+06     6.29764E+06         79.4155
            1733     11.1677E-03     159.243E-03         1.00570     928.626E-03        -2.84272     976.538E-03        -2.82136     936.426E-03     123.117E-03     592.479E-03    -294.757E-03    -297.086E-03    -293.556E-03     590.187E-03    -295.995E-03     90.0323E-03     93.4507E+06     58.4773E+06    -21.6091E+06    -21.1169E+06     57.9852E+06     93.4507E+06     6.13862E+06         83.5449
            1734     11.9165E-03     159.266E-03     981.337E-03     588.463E-03        -2.63204     610.689E-03        -2.60499     932.056E-03    -263.369E-03     594.133E-03    -296.413E-03    -298.156E-03    -293.942E-03     590.321E-03    -296.815E-03     114.589E-03     96.2653E+06     68.7292E+06    -14.3091E+06    -13.9934E+06     68.4135E+06     96.2653E+06     4.88086E+06         87.9959
            1735     12.6676E-03     159.521E-03     988.091E-03     500.644E-03        -2.50132     556.619E-03        -2.49154     922.335E-03    -233.640E-03     590.951E-03    -294.854E-03    -297.245E-03    -292.371E-03     586.478E-03    -295.256E-03     125.399E-03     100.168E+06     78.8160E+06    -6.47299E+06    -6.29579E+06     78.6387E+06     100.168E+06     2.75906E+06         91.8787
            1736     745.467E-06     160.950E-03         4.87405         1.51274        -7.66920     881.373E-03        -3.67652         1.51274        -5.90558     582.813E-03    -291.172E-03    -292.074E-03    -291.635E-03     582.812E-03    -291.610E-03    -1.30271E-03    -107.569E+06    -112.223E+06    -232.079E+06    -109.744E+06    -232.037E+06    -110.090E+06     1.09332E+06         67.7528
            1737     1.49057E-03     161.088E-03         1.69080         1.05685        -3.71292     609.790E-03        -2.63191         1.05685         1.79874     580.285E-03    -289.858E-03    -291.024E-03    -290.759E-03     580.281E-03    -290.119E-03    -3.63186E-03    -105.638E+06    -109.743E+06    -222.958E+06    -109.255E+06    -222.831E+06    -106.252E+06     3.66247E+06         67.8316
            1738     2.23666E-03     161.163E-03         1.23795     764.656E-03        -2.88191     787.402E-03        -2.58416     917.454E-03    -431.633E-03     581.198E-03    -289.659E-03    -292.366E-03    -292.359E-03     581.191E-03    -289.659E-03    -4.87431E-03    -94.8335E+06    -106.445E+06    -210.951E+06    -106.775E+06    -210.621E+06    -94.8335E+06     5.67021E+06         67.9125
            1739     2.98220E-03     161.124E-03         1.35508     765.452E-03        -2.99257         1.10490        -2.89519     918.250E-03     63.2849E-03     586.023E-03    -290.669E-03    -295.262E-03    -295.256E-03     586.016E-03    -290.669E-03    -4.68969E-03    -80.5156E+06    -101.355E+06    -194.169E+06    -102.117E+06    -193.407E+06    -80.5156E+06     8.15849E+06         67.9893
            1740     3.72762E-03     161.128E-03         1.64227     990.478E-03        -3.27543         1.55195        -3.19170     997.075E-03    -68.6332E-03     591.897E-03    -291.508E-03    -295.580E-03    -295.578E-03     591.894E-03    -291.508E-03    -2.59283E-03    -65.9972E+06    -95.2660E+06    -173.565E+06    -96.6968E+06    -172.135E+06    -65.9972E+06     10.2850E+06         68.1199
            1741     4.47316E-03     161.071E-03         1.47056     985.400E-03        -3.21568         1.29339        -3.12463         1.07152     753.453E-03     591.911E-03    -292.047E-03    -294.365E-03    -293.406E-03     591.908E-03    -293.004E-03     1.67797E-03    -50.3502E+06    -87.9402E+06    -149.805E+06    -90.2357E+06    -147.510E+06    -50.3502E+06     11.4914E+06         68.4363
            1742     5.21782E-03     161.032E-03         1.19832     792.818E-03        -3.00374     809.334E-03        -2.89365         1.07171    -85.9441E-03     586.802E-03    -292.635E-03    -296.294E-03    -292.614E-03     586.781E-03    -296.294E-03     7.87486E-03    -34.3994E+06    -78.1616E+06    -123.608E+06    -82.5309E+06    -119.239E+06    -34.3994E+06     12.7258E+06         68.9309
            1743     5.96240E-03     160.991E-03         1.14587     786.613E-03        -2.97490     754.496E-03        -2.83249         1.03559    -436.305E-03     581.737E-03    -292.591E-03    -298.062E-03    -292.522E-03     581.668E-03    -298.062E-03     15.0539E-03    -18.4031E+06    -62.1397E+06    -97.2794E+06    -74.3594E+06    -85.0597E+06    -18.4031E+06     14.8773E+06         69.5034
            1744     6.70691E-03     160.984E-03         1.13227     952.291E-03        -3.07497     950.260E-03        -2.95512         1.01445    -552.158E-03     583.559E-03    -293.224E-03    -297.427E-03    -293.062E-03     583.398E-03    -297.427E-03     23.3748E-03    -1.80429E+06    -32.6575E+06    -77.1001E+06    -66.4454E+06    -43.3122E+06    -1.80429E+06     17.2554E+06         70.1679
            1745     7.45078E-03     160.960E-03         1.17844     992.054E-03        -3.15971         1.07529        -3.07817         1.01367    -19.9359E-03     585.993E-03    -294.847E-03    -297.163E-03    -295.431E-03     585.696E-03    -296.282E-03     32.0811E-03     26.4032E+06     5.52288E+06    -63.9149E+06    -58.2003E+06     10.6693E+06     15.5422E+06     19.7788E+06         71.0240
            1746     8.19462E-03     160.963E-03         1.12358         1.01034        -3.09362         1.07129        -3.05038         1.01940     369.997E-03     584.753E-03    -294.102E-03    -297.478E-03    -296.977E-03     584.253E-03    -294.102E-03     41.6599E-03     53.0244E+06     36.3264E+06    -53.7912E+06    -49.2293E+06     48.4625E+06     36.3264E+06     21.4647E+06         72.1614
            1747     8.93804E-03     160.993E-03         1.09829     966.615E-03        -3.03541         1.02763        -3.02175         1.02361     199.788E-03     587.930E-03    -291.122E-03    -296.284E-03    -295.495E-03     587.142E-03    -291.122E-03     52.5003E-03     67.0961E+06     56.6835E+06    -44.1898E+06    -40.4836E+06     60.9371E+06     59.1363E+06     19.4596E+06         73.7612
            1748     9.68305E-03     161.048E-03         1.10782     970.038E-03        -2.98259         1.03490        -2.96666         1.02704     293.785E-03     590.185E-03    -290.973E-03    -295.859E-03    -294.659E-03     588.986E-03    -290.973E-03     64.7891E-03     81.6452E+06     64.8757E+06    -35.8738E+06    -33.3627E+06     64.4872E+06     79.5225E+06     15.1923E+06         76.1645
            1749     10.4292E-03     161.106E-03         1.08930     843.746E-03        -2.85108     881.405E-03        -2.82484         1.02540    -203.842E-03     589.103E-03    -292.677E-03    -295.333E-03    -293.106E-03     587.314E-03    -293.115E-03     79.0764E-03     92.0668E+06     58.1186E+06    -29.5959E+06    -27.9056E+06     56.4284E+06     92.0668E+06     11.2562E+06         79.5276
            1750     11.1766E-03     161.131E-03         1.08347     802.144E-03        -2.81990     838.561E-03        -2.78927         1.01642     43.6449E-03     589.314E-03    -293.099E-03    -294.093E-03    -291.270E-03     586.929E-03    -293.538E-03     91.5086E-03     96.7999E+06     61.7332E+06    -22.5144E+06    -21.7412E+06     60.9600E+06     96.7999E+06      7.6105E+06         83.6979
            1751     11.9268E-03     161.174E-03         1.20113     759.082E-03        -2.85597     929.139E-03        -2.83650         1.01161    -41.6919E-03     589.980E-03    -293.826E-03    -295.253E-03    -290.472E-03     586.070E-03    -294.697E-03     115.725E-03     101.859E+06     76.1302E+06    -14.5099E+06    -14.2885E+06     75.9088E+06     101.859E+06     3.93430E+06         88.2066
            1752     12.6778E-03     161.439E-03         1.22207     661.085E-03        -2.87654     858.131E-03        -2.86537         1.01385    -309.280E-03     588.812E-03    -293.618E-03    -295.605E-03    -290.202E-03     584.279E-03    -294.489E-03     125.920E-03     106.069E+06     83.0586E+06    -5.96257E+06    -5.90928E+06     83.0053E+06     106.069E+06     1.28726E+06         92.1434
            1753     745.927E-06     162.758E-03         3.38485     755.999E-03        -5.52087         1.22857        -3.36459     755.999E-03        -1.79136     579.800E-03    -289.880E-03    -290.515E-03    -290.514E-03     579.798E-03    -289.880E-03    -1.69670E-03    -112.324E+06    -116.628E+06    -240.594E+06    -114.150E+06    -240.551E+06    -114.844E+06     1.34588E+06         67.7153
            1754     1.49194E-03     162.956E-03         1.96029     992.725E-03        -4.28393         1.07892        -3.40255     992.725E-03         1.98624     578.511E-03    -288.798E-03    -290.010E-03    -290.007E-03     578.508E-03    -288.798E-03    -3.09222E-03    -111.148E+06    -115.127E+06    -232.062E+06    -114.655E+06    -231.919E+06    -111.762E+06     3.86441E+06         67.8481
            1755     2.23745E-03     163.056E-03         1.56644         1.07302        -3.68642         1.41817        -3.53816         1.07302    -207.162E-03     580.437E-03    -288.901E-03    -291.567E-03    -291.562E-03     580.432E-03    -288.901E-03    -3.98099E-03    -102.126E+06    -112.234E+06    -220.328E+06    -112.553E+06    -220.009E+06    -102.126E+06     5.75093E+06         68.0212
            1756     2.98376E-03     163.021E-03         1.42514         1.11190        -3.33802         1.26812        -3.21150         1.14240     44.8960E-03     584.179E-03    -290.445E-03    -294.098E-03    -294.094E-03     584.175E-03    -290.445E-03    -3.71072E-03    -89.5428E+06    -107.492E+06    -204.245E+06    -108.067E+06    -203.670E+06    -89.5428E+06     7.15086E+06         68.1898
            1757     3.72988E-03     163.029E-03         1.24201         1.11210        -3.08002         1.09449        -2.96960         1.14920    -232.424E-03     588.641E-03    -291.696E-03    -294.958E-03    -294.956E-03     588.639E-03    -291.696E-03    -1.82578E-03    -73.4296E+06    -100.461E+06    -182.092E+06    -101.522E+06    -181.031E+06    -73.4296E+06     8.70665E+06         68.3484
            1758     4.47523E-03     162.989E-03         1.31012         1.14069        -3.33243         1.21801        -3.24692         1.14729     786.637E-03     590.529E-03    -291.857E-03    -293.931E-03    -293.107E-03     590.526E-03    -292.678E-03     2.12615E-03    -55.4598E+06    -92.5445E+06    -156.809E+06    -94.4056E+06    -154.948E+06    -55.4598E+06     10.3621E+06         68.6143
            1759     5.22081E-03     162.964E-03         1.55059         1.17289        -3.78710         1.49661        -3.73311         1.17289     134.308E-03     587.201E-03    -291.760E-03    -295.230E-03    -291.739E-03     587.179E-03    -295.230E-03     8.04114E-03    -36.6244E+06    -83.8042E+06    -130.748E+06    -87.2172E+06    -127.335E+06    -36.6244E+06     11.6934E+06         69.0667
            1760     5.96565E-03     162.914E-03         1.50240         1.20802        -3.84482         1.45666        -3.79908         1.20802     285.043E-03     581.789E-03    -290.906E-03    -296.934E-03    -290.830E-03     581.713E-03    -296.934E-03     15.7173E-03    -18.4840E+06    -70.7396E+06    -103.579E+06    -79.5668E+06    -94.7522E+06    -18.4840E+06     13.0526E+06         69.5928
            1761     6.71001E-03     162.921E-03         1.26619         1.08870        -3.50172         1.07844        -3.43914         1.21387     132.933E-03     582.771E-03    -291.319E-03    -296.723E-03    -291.142E-03     582.595E-03    -296.723E-03     24.4582E-03    -700.410E+03    -42.7570E+06    -81.2259E+06    -70.9817E+06    -53.0013E+06    -700.410E+03     14.8353E+06         70.1936
            1762     7.45486E-03     162.903E-03         1.25492     877.327E-03        -3.26079     855.261E-03        -3.17235         1.18854     276.922E-03     582.993E-03    -293.703E-03    -296.421E-03    -293.723E-03     582.662E-03    -296.069E-03     33.7248E-03     20.8448E+06     398.927E+03    -67.1818E+06    -62.1785E+06    -1.53038E+06     17.7707E+06     17.4750E+06         71.0517
            1763     8.19968E-03     162.914E-03         1.26441     902.757E-03        -3.20258     933.523E-03        -3.13052         1.16158     456.511E-03     581.602E-03    -293.584E-03    -296.310E-03    -295.410E-03     581.045E-03    -293.927E-03     43.8846E-03     48.1555E+06     33.0898E+06    -57.7033E+06    -53.9665E+06     42.8311E+06     34.6774E+06     19.1836E+06         72.2248
            1764     8.94514E-03     162.923E-03         1.18114     945.398E-03        -3.17078     959.779E-03        -3.14871         1.14469    -135.783E-03     585.908E-03    -291.479E-03    -295.768E-03    -294.904E-03     585.044E-03    -291.479E-03     54.8703E-03     67.1045E+06     53.0005E+06    -48.5061E+06    -45.3984E+06     63.9968E+06     53.0005E+06     18.6770E+06         73.8542
            1765     9.69132E-03     162.948E-03         1.14117     865.382E-03        -3.19160     865.185E-03        -3.17868         1.12845     135.145E-03     587.508E-03    -291.747E-03    -295.890E-03    -294.602E-03     586.221E-03    -291.747E-03     67.0453E-03     79.0668E+06     68.1425E+06    -38.8996E+06    -36.0500E+06     68.9928E+06     75.3668E+06     17.2631E+06         76.2941
            1766     10.4377E-03     163.014E-03         1.24461     794.048E-03        -3.13367     893.485E-03        -3.10074         1.11225     3.13221E-03     585.546E-03    -292.650E-03    -294.760E-03    -292.850E-03     583.667E-03    -292.681E-03     80.8762E-03     93.3534E+06     66.9429E+06    -28.7100E+06    -26.5112E+06     64.7441E+06     93.3534E+06     14.0249E+06         79.7111
            1767     11.1860E-03     163.056E-03         1.21643     727.069E-03        -3.03966     810.818E-03        -3.00377         1.09679     166.517E-03     585.704E-03    -291.168E-03    -292.488E-03    -290.019E-03     583.267E-03    -291.199E-03     92.2990E-03     103.364E+06     70.1775E+06    -19.4096E+06    -18.2000E+06     68.9680E+06     103.364E+06     9.88925E+06         83.9808
            1768     11.9368E-03     163.096E-03         1.25820     902.596E-03        -3.05182         1.05898        -3.04068         1.09067     9.87541E-03     587.689E-03    -291.729E-03    -293.337E-03    -288.946E-03     583.767E-03    -292.198E-03     115.695E-03     109.760E+06     84.8140E+06    -11.9136E+06    -11.3797E+06     84.2801E+06     109.760E+06     6.23502E+06         88.5963
            1769     12.6883E-03     163.357E-03         1.25930     730.944E-03        -3.07554     890.325E-03        -3.06739         1.09176    -300.114E-03     588.062E-03    -292.426E-03    -293.450E-03    -288.377E-03     583.517E-03    -292.955E-03     125.912E-03     109.196E+06     89.8476E+06    -3.62761E+06    -3.45999E+06     89.6800E+06     109.196E+06     3.06959E+06         92.5895
            1770     746.537E-06     164.588E-03         2.55630     300.783E-03        -3.77555         1.53873        -2.75799     300.783E-03        -1.50145     580.950E-03    -290.492E-03    -290.995E-03    -290.736E-03     580.949E-03    -290.751E-03    -1.79334E-03    -120.997E+06    -124.745E+06    -251.961E+06    -123.674E+06    -251.797E+06    -122.231E+06     4.01838E+06         67.5472
            1771     1.49304E-03     164.815E-03         1.59819     968.439E-03        -3.72159         1.20094        -3.32434     968.439E-03     322.328E-03     578.186E-03    -288.499E-03    -289.435E-03    -289.079E-03     578.184E-03    -288.853E-03    -2.73324E-03    -117.389E+06    -123.340E+06    -239.898E+06    -123.553E+06    -239.685E+06    -117.389E+06      4.6054E+06         67.6656
            1772     2.23937E-03     164.941E-03         1.66027         1.07582        -3.69708         1.42579        -3.46260         1.07582    -312.278E-03     578.362E-03    -288.405E-03    -290.669E-03    -290.313E-03     578.359E-03    -288.759E-03    -3.31588E-03    -105.563E+06    -119.778E+06    -228.012E+06    -120.019E+06    -227.770E+06    -105.563E+06     4.95104E+06         67.8647
            1773     2.98474E-03     164.949E-03         1.55218         1.12302        -3.65783         1.31622        -3.45237         1.15352    -124.149E-03     581.871E-03    -289.446E-03    -293.071E-03    -293.069E-03     581.869E-03    -289.446E-03    -2.70864E-03    -91.6002E+06    -114.025E+06    -210.138E+06    -114.342E+06    -209.820E+06    -91.6002E+06     5.50181E+06         68.1027
            1774     3.73076E-03     164.967E-03         1.39257         1.15155        -3.86381         1.25440        -3.75614         1.18205        -1.15712     585.515E-03    -290.422E-03    -293.915E-03    -293.913E-03     585.513E-03    -290.422E-03    -473.197E-06    -75.2611E+06    -107.373E+06    -188.185E+06    -107.834E+06    -187.725E+06    -75.2611E+06     5.94905E+06         68.3243
            1775     4.47662E-03     164.924E-03         1.53503         1.21520        -3.95190         1.52520        -3.94207         1.21520    -358.402E-03     587.476E-03    -291.307E-03    -293.298E-03    -292.679E-03     587.471E-03    -291.920E-03     3.56506E-03    -56.4130E+06    -98.8637E+06    -164.662E+06    -99.8771E+06    -163.649E+06    -56.4130E+06     7.66346E+06         68.5568
            1776     5.22244E-03     164.917E-03         1.62926         1.19548        -3.85845         1.51576        -3.80903         1.25956    -814.414E-03     586.735E-03    -290.998E-03    -293.742E-03    -290.969E-03     586.706E-03    -293.742E-03     9.31718E-03    -37.2966E+06    -88.5454E+06    -137.577E+06    -90.9078E+06    -135.215E+06    -37.2966E+06     9.74349E+06         68.9350
            1777     5.96900E-03     164.848E-03         1.46192         1.13697        -3.73031         1.26832        -3.67757         1.27782    -403.009E-03     581.922E-03    -290.134E-03    -294.931E-03    -290.047E-03     581.836E-03    -294.931E-03     16.8869E-03    -18.3164E+06    -75.7601E+06    -107.642E+06    -81.8127E+06    -101.590E+06    -18.3164E+06     11.0553E+06         69.4282
            1778     6.71518E-03     164.854E-03         1.37248         1.08070        -3.62855         1.12836        -3.57381         1.27007    -424.257E-03     581.479E-03    -290.177E-03    -295.141E-03    -289.981E-03     581.283E-03    -295.141E-03     25.7059E-03    -330.853E+03    -51.6146E+06    -83.2101E+06    -73.0058E+06    -61.8189E+06    -330.853E+03     12.4406E+06         69.9916
            1779     7.46200E-03     164.837E-03         1.31693     933.265E-03        -3.41425     935.859E-03        -3.34735         1.24744    -344.845E-03     579.891E-03    -290.920E-03    -295.271E-03    -290.554E-03     579.524E-03    -295.271E-03     35.3742E-03     17.8427E+06    -9.67531E+06    -68.3780E+06    -63.7006E+06    -14.3527E+06     17.8427E+06     15.3570E+06         70.8201
            1780     8.20759E-03     164.855E-03         1.22041     941.569E-03        -3.35390     856.677E-03        -3.26451         1.21591    -424.247E-03     579.117E-03    -291.235E-03    -294.534E-03    -291.439E-03     578.491E-03    -293.704E-03     46.3277E-03     44.4066E+06     31.3510E+06    -58.5124E+06    -54.5195E+06     34.2765E+06     37.4883E+06     19.0344E+06         72.0277
            1781     8.95412E-03     164.871E-03         1.23671         1.04985        -3.41178         1.01390        -3.33128         1.19215    -608.198E-03     582.921E-03    -290.883E-03    -293.291E-03    -291.894E-03     581.939E-03    -291.299E-03     58.2722E-03     67.7322E+06     56.4722E+06    -50.2471E+06    -46.8219E+06     64.3070E+06     56.4722E+06     19.6142E+06         73.7468
            1782     9.70077E-03     164.910E-03         1.21443     911.115E-03        -3.48579     896.445E-03        -3.43106         1.17437    -363.407E-03     583.379E-03    -292.038E-03    -294.048E-03    -292.566E-03     581.925E-03    -292.066E-03     71.0029E-03     79.8164E+06     73.1475E+06    -40.9553E+06    -38.8353E+06     75.3690E+06     75.4749E+06     15.4211E+06         76.3100
            1783     10.4484E-03     164.947E-03         1.43590     971.516E-03        -3.67963         1.18646        -3.62392         1.16525    -142.948E-03     582.521E-03    -292.662E-03    -293.908E-03    -291.777E-03     580.418E-03    -292.690E-03     85.3540E-03     92.4822E+06     75.2464E+06    -30.4944E+06    -29.3276E+06     74.0796E+06     92.4822E+06     10.4743E+06         79.8950
            1784     11.1940E-03     164.991E-03         1.43799     924.183E-03        -3.56319         1.17813        -3.54649         1.16734     413.482E-03     584.679E-03    -290.602E-03    -293.206E-03    -290.467E-03     581.940E-03    -290.602E-03     97.6673E-03     104.237E+06     72.4134E+06    -20.0323E+06    -19.0830E+06     71.4642E+06     104.237E+06     8.72121E+06         84.3881
            1785     11.9422E-03     165.044E-03         1.18452     820.623E-03        -3.25340     836.777E-03        -3.24449         1.15945    -88.6932E-03     588.465E-03    -291.462E-03    -294.175E-03    -289.811E-03     584.101E-03    -291.462E-03     122.081E-03     112.352E+06     87.3655E+06    -11.3148E+06    -10.4559E+06     86.5066E+06     112.352E+06     9.04436E+06         89.1551
            1786     12.6948E-03     165.271E-03         1.24077     821.988E-03        -3.16886     893.080E-03        -3.14481         1.14562    -531.200E-03     587.230E-03    -291.061E-03    -292.436E-03    -286.585E-03     582.246E-03    -291.928E-03     131.525E-03     112.822E+06     100.951E+06    -4.61321E+06    -4.10704E+06     100.444E+06     112.822E+06     6.51461E+06         93.1144
            1787     746.661E-06     166.390E-03         2.12466     735.026E-03        -3.52506         1.66095        -3.06136     735.026E-03        -1.25093     583.697E-03    -291.216E-03    -292.447E-03    -292.187E-03     583.697E-03    -291.474E-03    -366.206E-06    -133.193E+06    -137.594E+06    -264.671E+06    -135.266E+06    -264.520E+06    -135.672E+06     2.68579E+06         67.3122
            1788     1.49362E-03     166.664E-03         1.48929         1.18209        -3.15803         1.25791        -3.03750         1.29295     310.698E-03     580.567E-03    -289.510E-03    -290.499E-03    -289.829E-03     580.566E-03    -290.178E-03    -1.59446E-03    -127.266E+06    -134.298E+06    -246.044E+06    -133.281E+06    -245.816E+06    -128.510E+06     3.63010E+06         67.4181
            1789     2.24125E-03     166.801E-03         1.63378     971.007E-03        -3.48207         1.11621        -3.31406         1.32057     529.922E-03     578.112E-03    -289.097E-03    -290.309E-03    -289.640E-03     578.111E-03    -289.765E-03    -1.81484E-03    -113.053E+06    -129.323E+06    -233.479E+06    -129.525E+06    -233.278E+06    -113.053E+06     4.33702E+06         67.5680
            1790     2.98769E-03     166.813E-03         1.62467     946.603E-03        -3.80473         1.11493        -3.63657         1.28819     343.047E-03     579.941E-03    -289.316E-03    -291.676E-03    -291.675E-03     579.940E-03    -289.316E-03    -808.418E-06    -95.6877E+06    -122.979E+06    -213.259E+06    -123.175E+06    -213.062E+06    -95.6877E+06     4.08711E+06         67.7336
            1791     3.73474E-03     166.832E-03         1.43415     942.937E-03        -3.68384         1.07141        -3.62899         1.25082    -917.012E-03     582.567E-03    -289.247E-03    -292.075E-03    -292.072E-03     582.564E-03    -289.247E-03     1.99906E-03    -77.0878E+06    -114.803E+06    -190.769E+06    -115.025E+06    -190.546E+06    -77.0878E+06     3.73860E+06         67.9276
            1792     4.48114E-03     166.815E-03         1.40929     855.631E-03        -3.55220         1.02904        -3.53287         1.21656    -214.303E-03     582.804E-03    -289.987E-03    -291.767E-03    -290.986E-03     582.791E-03    -290.755E-03     6.14478E-03    -57.8871E+06    -105.391E+06    -170.412E+06    -105.713E+06    -170.090E+06    -57.8871E+06     3.70971E+06         68.1652
            1793     5.22808E-03     166.808E-03         1.41839     977.424E-03        -3.46402         1.15191        -3.41753         1.19742    -340.632E-03     582.046E-03    -290.109E-03    -291.614E-03    -290.126E-03     582.003E-03    -291.554E-03     11.6755E-03    -39.0877E+06    -94.7574E+06    -141.900E+06    -95.4627E+06    -141.195E+06    -39.0877E+06     4.66027E+06         68.5211
            1794     5.97501E-03     166.784E-03         1.32762         1.05184        -3.34803         1.14555        -3.30681         1.19270    -151.976E-03     580.448E-03    -289.697E-03    -292.092E-03    -290.093E-03     580.345E-03    -291.593E-03     18.5732E-03    -20.0607E+06    -82.1114E+06    -110.372E+06    -84.7894E+06    -107.694E+06    -20.0607E+06     6.46743E+06         69.0211
            1795     6.72255E-03     166.773E-03         1.34874         1.11671        -3.47221         1.24373        -3.44397         1.19348    -124.999E-03     581.202E-03    -289.278E-03    -292.831E-03    -289.492E-03     580.977E-03    -292.393E-03     27.4360E-03    -791.626E+03    -59.9959E+06    -84.2677E+06    -74.0482E+06    -70.2154E+06    -791.626E+03     8.90354E+06         69.5844
            1796     7.47029E-03     166.743E-03         1.59775         1.19436        -3.70676         1.48379        -3.60832         1.20988     403.042E-03     578.077E-03    -288.314E-03    -292.841E-03    -287.903E-03     577.666E-03    -292.841E-03     37.3707E-03      18.388E+06    -24.1170E+06    -68.6880E+06    -64.3280E+06    -28.4770E+06      18.388E+06     12.7467E+06         70.3632
            1797     8.21860E-03     166.736E-03         1.49230         1.10900        -3.78608         1.20360        -3.61100         1.22262    -203.844E-03     576.871E-03    -287.428E-03    -292.620E-03    -286.732E-03     576.175E-03    -292.620E-03     48.5718E-03     39.2893E+06     22.1831E+06    -59.1599E+06    -54.9138E+06     19.4929E+06     37.7334E+06     17.9198E+06         71.6067
            1798     8.96661E-03     166.770E-03         1.41562         1.12250        -3.73619         1.18411        -3.60278         1.22060    -348.570E-03     578.380E-03    -288.326E-03    -291.677E-03    -287.397E-03     577.279E-03    -291.504E-03     61.4168E-03     68.0542E+06     56.6384E+06    -48.9682E+06    -45.3321E+06     64.4181E+06     56.6384E+06     20.1076E+06         73.4405
            1799     9.71479E-03     166.801E-03         1.41211         1.14053        -3.56517         1.24271        -3.47683         1.22159    -42.5479E-03     578.381E-03    -289.922E-03    -291.509E-03    -288.430E-03     576.717E-03    -291.336E-03     75.5224E-03     89.4278E+06     74.8544E+06    -39.7315E+06    -37.2085E+06     86.1957E+06     75.5635E+06     17.5723E+06         76.1411
            1800     10.4632E-03     166.886E-03         1.36738     876.488E-03        -3.42599     961.002E-03        -3.35949         1.21637    -319.151E-03     580.001E-03    -290.443E-03    -291.985E-03    -288.139E-03     577.493E-03    -291.780E-03     92.7260E-03     94.4889E+06     80.6037E+06    -32.6079E+06    -30.9062E+06     82.9064E+06     90.4844E+06     13.1646E+06         79.9358
            1801     11.2113E-03     166.941E-03         1.41495     857.532E-03        -3.46199         1.01955        -3.41311         1.20406     660.019E-03     582.143E-03    -289.476E-03    -291.568E-03    -287.401E-03     578.626E-03    -290.127E-03     110.033E-03     100.852E+06     77.3789E+06    -25.8312E+06    -24.9177E+06     76.4655E+06     100.852E+06     8.35788E+06         84.6568
            1802     11.9620E-03     166.986E-03         1.25168     876.208E-03        -3.54138     886.035E-03        -3.49132         1.19180    -12.1697E-03     586.338E-03    -290.389E-03    -292.540E-03    -286.826E-03     580.735E-03    -290.500E-03     138.103E-03     110.387E+06     88.9895E+06    -17.9880E+06    -17.5020E+06     88.5034E+06     110.387E+06     6.57389E+06         89.4707
            1803     12.7167E-03     167.230E-03         1.24848     907.190E-03        -3.50894     917.110E-03        -3.44878         1.17840    -305.171E-03     586.632E-03    -289.555E-03    -293.027E-03    -285.959E-03     580.371E-03    -290.362E-03     147.086E-03     116.786E+06     107.068E+06    -7.93821E+06    -7.53989E+06     106.670E+06     116.786E+06     5.08268E+06         93.2855
            1804     748.407E-06     168.209E-03         2.64007         1.11348        -4.80354         1.46295        -4.53904         2.02611     71.4451E-03     582.009E-03    -290.198E-03    -291.235E-03    -291.136E-03     582.009E-03    -290.297E-03     581.670E-06    -140.613E+06    -144.947E+06    -268.523E+06    -141.826E+06    -268.502E+06    -143.754E+06     261.865E+03         66.7714
            1805     1.49801E-03     168.370E-03         1.98603         1.67365        -4.32847         1.64582        -4.09911         1.78451     462.765E-03     581.248E-03    -290.015E-03    -290.880E-03    -290.261E-03     581.247E-03    -290.633E-03     1.13103E-03    -137.782E+06    -142.943E+06    -252.087E+06    -141.535E+06    -251.935E+06    -139.341E+06     702.567E+03         66.8377
            1806     2.24349E-03     168.629E-03         1.70831         1.16700        -4.02383         1.08386        -3.89492         1.66255    -778.841E-03     578.487E-03    -289.325E-03    -290.228E-03    -289.707E-03     578.484E-03    -289.843E-03     1.89587E-03    -122.236E+06    -136.439E+06    -234.595E+06    -136.632E+06    -234.402E+06    -122.236E+06     379.955E+03         66.9286
            1807     2.99172E-03     168.641E-03         1.58518         1.02042        -3.88696         1.04359        -3.83294         1.50798    -416.659E-03     579.058E-03    -289.195E-03    -291.035E-03    -291.030E-03     579.053E-03    -289.195E-03     3.19245E-03    -101.358E+06    -128.672E+06    -213.879E+06    -128.828E+06    -213.724E+06    -101.358E+06    -460.225E+03         67.0060
            1808     3.73862E-03     168.711E-03         1.57117         1.12115        -3.64527         1.23718        -3.61917         1.42903    -406.452E-03     580.598E-03    -288.990E-03    -290.909E-03    -290.641E-03     580.587E-03    -289.247E-03     5.68297E-03    -79.7986E+06    -119.115E+06    -193.248E+06    -119.218E+06    -193.145E+06    -79.7986E+06     224.050E+03         67.1145
            1809     4.48780E-03     168.633E-03         1.43104     859.821E-03        -3.45832     888.096E-03        -3.42165         1.36610     576.441E-03     578.967E-03    -288.646E-03    -290.359E-03    -288.824E-03     578.937E-03    -290.153E-03     9.55791E-03    -60.0181E+06    -109.779E+06    -170.257E+06    -109.810E+06    -170.227E+06    -60.0181E+06     442.877E+03         67.3345
            1810     5.23651E-03     168.584E-03         1.40072     916.697E-03        -3.51329     979.708E-03        -3.47393         1.29835     689.574E-03     576.946E-03    -288.317E-03    -290.088E-03    -288.307E-03     576.876E-03    -290.028E-03     15.0329E-03    -41.7494E+06    -100.015E+06    -142.779E+06    -100.130E+06    -142.664E+06    -41.7494E+06    -59.3282E+03         67.7294
            1811     5.98439E-03     168.536E-03         1.55207         1.20190        -3.62789         1.43603        -3.59224         1.28228     724.069E-03     576.546E-03    -288.659E-03    -290.246E-03    -289.641E-03     576.403E-03    -289.120E-03     21.8044E-03    -23.7046E+06    -89.8351E+06    -113.904E+06    -90.1570E+06    -113.582E+06    -23.7046E+06     1.03941E+06         68.2930
            1812     6.73107E-03     168.593E-03         1.51647         1.20612        -3.70660         1.37877        -3.65864         1.29585     222.832E-03     578.760E-03    -287.982E-03    -290.767E-03    -288.773E-03     578.486E-03    -289.702E-03     30.3830E-03    -5.81029E+06    -72.5484E+06    -88.5251E+06    -80.3056E+06    -80.7679E+06    -5.81029E+06     4.29637E+06         68.9041
            1813     7.48267E-03     168.552E-03         1.62239         1.20898        -3.92026         1.39571        -3.78861         1.30401     803.305E-03     577.600E-03    -286.647E-03    -290.007E-03    -286.178E-03     577.130E-03    -290.007E-03     39.9575E-03     12.4933E+06    -39.7704E+06    -72.9502E+06    -69.8996E+06    -42.8209E+06     12.4933E+06     8.99221E+06         69.6617
            1814     8.23131E-03     168.572E-03         1.57253         1.18614        -3.88927         1.29123        -3.72918         1.30736     501.459E-03     574.903E-03    -285.057E-03    -289.973E-03    -284.297E-03     574.143E-03    -289.973E-03     50.7107E-03     30.6846E+06     6.42078E+06    -62.7544E+06    -59.6291E+06     3.72900E+06     30.2511E+06     13.9016E+06         70.9099
            1815     8.98475E-03     168.554E-03         1.44859     993.745E-03        -3.65590         1.06703        -3.57873         1.29813    -127.147E-03     573.106E-03    -284.316E-03    -290.389E-03    -283.122E-03     571.912E-03    -290.389E-03     63.5586E-03     64.5930E+06     44.3919E+06    -53.2202E+06    -50.2434E+06     58.3335E+06     47.6747E+06     18.0554E+06         72.8288
            1816     9.73689E-03     168.599E-03         1.48416         1.07596        -3.49726         1.22685        -3.45229         1.28830     462.850E-03     572.081E-03    -284.916E-03    -290.206E-03    -283.074E-03     570.239E-03    -290.206E-03     78.8968E-03     94.1634E+06     66.6809E+06    -43.9074E+06    -41.2934E+06     91.5494E+06     66.6809E+06     18.6810E+06         75.6201
            1817     10.4860E-03     168.732E-03         1.31681     788.922E-03        -3.24632     794.581E-03        -3.20657         1.27140    -70.6898E-03     575.443E-03    -285.596E-03    -290.287E-03    -282.816E-03     572.663E-03    -290.287E-03     97.2213E-03     96.7941E+06     81.8550E+06    -34.4619E+06    -32.4567E+06     91.7134E+06     84.9306E+06     15.4551E+06         79.5147
            1818     11.2341E-03     168.859E-03         1.29931     723.929E-03        -3.27124     725.206E-03        -3.21263         1.23943     359.186E-03     576.457E-03    -286.102E-03    -289.273E-03    -282.233E-03     572.587E-03    -289.273E-03     114.980E-03     102.973E+06     89.4185E+06    -25.1784E+06    -24.0099E+06     89.1158E+06     102.107E+06     10.5391E+06         84.3158
            1819     11.9811E-03     169.056E-03         1.27684         1.02080        -3.47951     984.947E-03        -3.38377         1.21695    -288.930E-03     579.966E-03    -288.540E-03    -290.127E-03    -283.256E-03     574.070E-03    -289.515E-03     141.481E-03     115.221E+06     99.2440E+06    -16.9957E+06    -16.5743E+06     98.8226E+06     115.221E+06     6.33535E+06         89.0783
            1820     12.7177E-03     169.542E-03         1.20144     997.822E-03        -3.46930     865.549E-03        -3.33702         1.20144     86.8756E-03     586.545E-03    -289.048E-03    -294.687E-03    -288.266E-03     580.124E-03    -289.048E-03     149.210E-03     118.633E+06     110.566E+06    -9.22222E+06    -9.10409E+06     110.448E+06     118.633E+06     2.72477E+06         92.7834
            1821     749.521E-06     170.013E-03         2.35012     788.821E-03        -4.47771     741.421E-03        -4.25714         2.17695    -241.541E-03     574.619E-03    -285.648E-03    -288.309E-03    -285.844E-03     574.616E-03    -288.110E-03     2.12866E-03    -145.957E+06    -151.174E+06    -263.965E+06    -149.472E+06    -263.771E+06    -147.854E+06    -1.96720E+06         65.5844
            1822     1.49897E-03     170.370E-03         1.86527         1.34232        -4.75435         1.64653        -4.53561         1.34232    -571.415E-03     575.135E-03    -287.221E-03    -288.180E-03    -287.872E-03     575.129E-03    -287.523E-03     4.05945E-03    -141.651E+06    -145.755E+06    -251.142E+06    -145.835E+06    -250.747E+06    -141.966E+06    -4.63403E+06         65.5162
            1823     2.24952E-03     170.499E-03         2.22007         1.26280        -4.97259         1.84575        -4.74425         1.40878    -780.455E-03     574.954E-03    -286.645E-03    -288.414E-03    -288.201E-03     574.945E-03    -286.849E-03     5.25252E-03    -127.000E+06    -140.203E+06    -232.632E+06    -140.525E+06    -232.310E+06    -127.000E+06    -5.20946E+06         65.5404
            1824     2.99793E-03     170.542E-03         2.02475         1.21588        -4.60491         1.64711        -4.49743         1.48605     110.144E-03     576.454E-03    -287.271E-03    -289.733E-03    -289.716E-03     576.436E-03    -287.271E-03     7.48556E-03    -106.122E+06    -132.249E+06    -212.370E+06    -132.533E+06    -212.086E+06    -106.122E+06    -4.65800E+06         65.6379
            1825     3.74594E-03     170.556E-03         1.65384         1.38233        -4.30829         1.50712        -4.28575         1.50652    -256.309E-03     577.713E-03    -288.154E-03    -289.893E-03    -289.601E-03     577.678E-03    -288.411E-03     10.5438E-03    -85.6471E+06    -123.012E+06    -194.422E+06    -123.642E+06    -193.793E+06    -85.6471E+06    -5.02107E+06         65.7720
            1826     4.49384E-03     170.550E-03         1.65844         1.35672        -4.10701         1.48055        -4.07446         1.50207     368.768E-03     576.632E-03    -287.719E-03    -288.674E-03    -287.740E-03     576.566E-03    -288.586E-03     14.6059E-03    -65.1417E+06    -112.478E+06    -169.330E+06    -113.201E+06    -168.607E+06    -65.1417E+06    -4.69726E+06         65.9774
            1827     5.24160E-03     170.542E-03         1.56108         1.16562        -3.92650         1.17997        -3.85460         1.47483    -94.0028E-03     574.507E-03    -286.421E-03    -288.328E-03    -286.303E-03     574.389E-03    -288.328E-03     19.7511E-03    -44.5169E+06    -102.298E+06    -142.885E+06    -102.713E+06    -142.471E+06    -44.5169E+06    -3.73473E+06         66.3469
            1828     5.99017E-03     170.507E-03         1.57430         1.18563        -3.96321         1.24368        -3.88639         1.43944    -145.014E-03     572.882E-03    -287.088E-03    -289.133E-03    -287.511E-03     572.678E-03    -288.506E-03     26.1320E-03    -26.1569E+06    -93.1181E+06    -118.881E+06    -93.3745E+06    -118.625E+06    -26.1569E+06    -2.14430E+06         66.9313
            1829     6.73873E-03     170.510E-03         1.54758         1.07964        -3.92970         1.14928        -3.86447         1.41272    -430.747E-03     572.289E-03    -287.181E-03    -289.242E-03    -287.460E-03     571.942E-03    -288.616E-03     34.1967E-03    -9.17749E+06    -79.8736E+06    -93.6979E+06    -83.4328E+06    -90.1387E+06    -9.17749E+06     477.007E+03         67.6515
            1830     7.49025E-03     170.493E-03         1.37693         1.02836        -3.81206     960.278E-03        -3.74398         1.37693    -174.241E-03     574.924E-03    -285.535E-03    -287.944E-03    -284.984E-03     574.373E-03    -287.944E-03     43.2357E-03     6.08851E+06    -51.9672E+06    -76.0755E+06    -73.6680E+06    -54.3747E+06     6.08851E+06     3.71987E+06         68.4882
            1831     8.24174E-03     170.503E-03         1.43546         1.22761        -3.78887         1.26669        -3.74336         1.35087     92.6486E-03     573.570E-03    -284.090E-03    -287.207E-03    -283.253E-03     572.733E-03    -287.207E-03     53.2345E-03     22.1036E+06    -10.2971E+06    -65.2946E+06    -63.8893E+06    -11.7024E+06     22.1036E+06     8.58779E+06         69.7124
            1832     8.99127E-03     170.556E-03         1.41504     929.237E-03        -3.61355     993.955E-03        -3.59368         1.33046    -339.359E-03     569.792E-03    -281.667E-03    -287.360E-03    -280.418E-03     568.543E-03    -287.360E-03     64.8626E-03     57.8838E+06     31.1523E+06    -55.8075E+06    -53.8380E+06     46.3083E+06     40.7582E+06     13.9304E+06         71.6258
            1833     9.73957E-03     170.695E-03         1.33960     788.021E-03        -3.46882     816.688E-03        -3.45208         1.29419     111.271E-03     570.186E-03    -281.798E-03    -288.510E-03    -279.987E-03     568.375E-03    -288.510E-03     78.1357E-03     93.7829E+06     60.4594E+06    -45.6968E+06    -43.9545E+06     92.0406E+06     60.4594E+06     15.3422E+06         74.4226
            1834     10.4898E-03     170.843E-03         1.33895     938.417E-03        -3.53923     975.384E-03        -3.49822         1.26098    -382.590E-03     574.045E-03    -283.175E-03    -289.265E-03    -280.645E-03     571.516E-03    -289.265E-03     92.5682E-03     102.664E+06     80.0766E+06    -35.6762E+06    -34.5118E+06     101.500E+06     80.0766E+06     12.4734E+06         78.2890
            1835     11.2397E-03     170.979E-03         1.26835     924.581E-03        -3.54765     920.590E-03        -3.51109         1.23579    -473.878E-03     574.469E-03    -284.427E-03    -288.520E-03    -281.222E-03     571.264E-03    -288.520E-03     104.254E-03     104.777E+06     91.8874E+06    -27.0072E+06    -26.2337E+06     97.5038E+06     98.3875E+06     9.64446E+06         83.0920
            1836     11.9865E-03     171.166E-03         1.21269         1.01513        -3.34577     962.960E-03        -3.29360         1.21269    -346.565E-03     577.726E-03    -288.332E-03    -291.028E-03    -285.362E-03     573.103E-03    -289.374E-03     124.924E-03     116.460E+06     107.232E+06    -17.6982E+06    -17.2542E+06     106.788E+06     116.460E+06     6.21670E+06         87.9275
            1837     12.7196E-03     171.576E-03         1.19008     941.089E-03        -3.22317     840.370E-03        -3.12246         1.19008    -151.597E-03     586.227E-03    -289.159E-03    -296.336E-03    -291.390E-03     581.281E-03    -289.159E-03     130.865E-03     123.848E+06     118.569E+06    -9.20064E+06    -9.10846E+06     118.477E+06     123.848E+06     1.83270E+06         91.7364
            1838     753.765E-06     171.768E-03         1.79256     574.228E-03        -4.13646     665.128E-03        -3.93908         1.50428     379.588E-03     565.964E-03    -279.656E-03    -285.931E-03    -279.954E-03     565.959E-03    -285.629E-03     3.66863E-03    -139.130E+06    -147.102E+06    -252.925E+06    -143.969E+06    -252.708E+06    -142.479E+06    -3.50080E+06         64.2212
            1839     1.50721E-03     172.025E-03         1.60893     643.093E-03        -4.50937         1.01490        -4.36988         1.09764    -463.193E-03     564.637E-03    -281.922E-03    -282.954E-03    -282.944E-03     564.627E-03    -281.922E-03     5.74294E-03    -133.814E+06    -141.892E+06    -242.531E+06    -142.269E+06    -242.154E+06    -133.814E+06    -5.16141E+06         64.0800
            1840     2.25969E-03     172.144E-03         2.43251         1.26814        -4.89772         2.27215        -4.73736         1.26814    -348.059E-03     565.522E-03    -281.407E-03    -283.562E-03    -283.542E-03     565.502E-03    -281.407E-03     7.84365E-03    -121.826E+06    -137.669E+06    -227.450E+06    -138.255E+06    -226.865E+06    -121.826E+06    -6.71431E+06         64.0863
            1841     3.01251E-03     172.188E-03         2.26399         1.31711        -4.88079         1.95973        -4.75758         1.49817     910.620E-03     567.494E-03    -282.593E-03    -284.706E-03    -284.666E-03     567.454E-03    -282.593E-03     11.3008E-03    -107.341E+06    -131.321E+06    -210.305E+06    -132.041E+06    -209.585E+06    -107.341E+06    -7.26920E+06         64.2371
            1842     3.76388E-03     172.237E-03         1.51992         1.16527        -4.24762         1.09022        -4.16739         1.51473     709.846E-03     569.022E-03    -283.883E-03    -285.872E-03    -285.798E-03     568.949E-03    -283.883E-03     15.5039E-03    -87.9431E+06    -123.720E+06    -189.396E+06    -124.683E+06    -188.432E+06    -87.9431E+06    -7.59695E+06         64.4392
            1843     4.51246E-03     172.244E-03         1.55468         1.28169        -3.93132         1.32874        -3.88693         1.46324     419.562E-03     570.789E-03    -284.029E-03    -286.411E-03    -286.166E-03     570.665E-03    -284.151E-03     20.2874E-03    -66.9928E+06    -114.664E+06    -167.415E+06    -116.143E+06    -165.936E+06    -66.9928E+06    -8.45054E+06         64.6469
            1844     5.26201E-03     172.288E-03         1.53131         1.27646        -4.06742         1.31826        -4.02298         1.44506    -533.104E-03     570.985E-03    -283.655E-03    -286.063E-03    -284.420E-03     570.789E-03    -285.102E-03     25.4981E-03    -47.0999E+06    -105.252E+06    -145.879E+06    -106.942E+06    -144.188E+06    -47.0999E+06    -7.54815E+06         64.9210
            1845     6.01142E-03     172.252E-03         1.40840     992.742E-03        -3.95958     943.445E-03        -3.91028         1.40840    -701.598E-03     569.538E-03    -284.378E-03    -285.934E-03    -284.192E-03     569.242E-03    -285.825E-03     31.4366E-03    -28.0219E+06    -95.0858E+06    -122.866E+06    -96.8829E+06    -121.069E+06    -28.0219E+06    -6.01962E+06         65.4043
            1846     6.76195E-03     172.260E-03         1.45882     947.001E-03        -3.65563         1.01602        -3.62642         1.36059    -298.010E-03     567.028E-03    -285.513E-03    -286.527E-03    -285.471E-03     566.581E-03    -286.122E-03     38.7401E-03    -10.9619E+06    -82.1088E+06    -98.1828E+06    -85.7699E+06    -94.5217E+06    -10.9619E+06    -4.35819E+06         66.1161
            1847     7.51077E-03     172.268E-03         1.42025     867.017E-03        -3.48807     941.829E-03        -3.46465         1.32202    -290.907E-03     569.227E-03    -284.830E-03    -286.521E-03    -284.478E-03     568.579E-03    -286.226E-03     46.8190E-03     4.25225E+06    -59.4543E+06    -77.9634E+06    -75.4422E+06    -61.9755E+06     4.25225E+06    -1.54933E+06         66.9855
            1848     8.25983E-03     172.328E-03         1.36899     845.183E-03        -3.48253     922.220E-03        -3.47498         1.28441    -289.416E-03     570.553E-03    -283.684E-03    -285.973E-03    -283.291E-03     569.669E-03    -285.482E-03     54.7681E-03     18.8697E+06    -22.4456E+06    -66.2106E+06    -65.6820E+06    -22.9743E+06     18.8697E+06     1.27882E+06         68.1862
            1849     9.00955E-03     172.418E-03         1.45314     923.764E-03        -3.54764         1.10769        -3.53473         1.25631    -400.631E-03     569.779E-03    -282.261E-03    -285.644E-03    -282.090E-03     568.609E-03    -284.644E-03     62.9489E-03     45.6894E+06     21.9538E+06    -54.8378E+06    -54.0904E+06     31.4744E+06     35.4213E+06     5.46280E+06         70.0483
            1850     9.75539E-03     172.580E-03         1.34245     804.091E-03        -3.59369     884.012E-03        -3.56137         1.23021    -11.0262E-03     573.013E-03    -283.336E-03    -287.007E-03    -282.683E-03     571.497E-03    -286.144E-03     71.7303E-03     86.7963E+06     53.7491E+06    -44.2388E+06    -43.2411E+06     85.7986E+06     53.7491E+06     10.9388E+06         72.8111
            1851     10.5025E-03     172.705E-03         1.24871     972.832E-03        -3.48713     973.515E-03        -3.44312         1.20402    -113.746E-03     577.737E-03    -285.521E-03    -289.148E-03    -284.461E-03     575.759E-03    -288.230E-03     82.1766E-03     108.845E+06     74.1629E+06    -36.0266E+06     -34.999E+06     107.818E+06     74.1629E+06     12.1195E+06         76.6341
            1852     11.2466E-03     172.855E-03         1.22941     952.971E-03        -3.23470     968.231E-03        -3.20526         1.18471    -220.656E-03     579.720E-03    -286.612E-03    -290.494E-03    -286.517E-03     577.315E-03    -288.184E-03     91.0574E-03     108.963E+06     94.2327E+06    -26.8494E+06    -26.3067E+06     105.883E+06     96.7698E+06     8.06310E+06         81.4355
            1853     11.9864E-03     173.035E-03         1.33489     855.639E-03        -3.10340         1.00465        -3.08398         1.16646    -17.3989E-03     583.515E-03    -288.997E-03    -294.515E-03    -290.796E-03     579.975E-03    -289.176E-03     110.104E-03     118.917E+06     112.832E+06    -16.0300E+06    -15.9048E+06     112.997E+06     118.627E+06     2.63989E+06         86.4619
            1854     12.7249E-03     173.357E-03         1.31430     685.712E-03        -3.10083     830.780E-03        -3.07746         1.14586    -270.180E-03     587.063E-03    -288.947E-03    -296.849E-03    -292.856E-03     583.070E-03    -288.947E-03     118.231E-03     128.672E+06     122.001E+06    -7.27461E+06    -7.24450E+06     121.971E+06     128.672E+06     362.605E+03         90.5756
            1855     755.875E-06     173.375E-03         2.34307         1.15069        -4.71822         1.11643        -4.50843         2.16754    -152.762E-03     558.666E-03    -276.862E-03    -281.722E-03    -276.998E-03     558.659E-03    -281.580E-03     4.52499E-03    -131.989E+06    -142.672E+06    -247.289E+06    -138.725E+06    -247.225E+06    -136.000E+06    -946.179E+03         63.6736
            1856     1.51508E-03     173.530E-03         1.64056     701.936E-03        -4.41293     651.260E-03        -4.26773         1.54603    -599.718E-03     555.719E-03    -277.529E-03    -278.048E-03    -277.931E-03     555.703E-03    -277.630E-03     7.11644E-03    -127.674E+06    -137.880E+06    -236.543E+06    -137.303E+06    -236.458E+06    -128.337E+06     613.339E+03         63.6698
            1857     2.27430E-03     173.645E-03         1.83840         1.12040        -4.05630         1.49334        -3.96143         1.37059    -786.835E-03     555.403E-03    -276.953E-03    -277.898E-03    -277.682E-03     555.364E-03    -277.129E-03     11.1364E-03    -112.629E+06    -133.790E+06    -218.492E+06    -134.208E+06    -218.074E+06    -112.629E+06    -1.68368E+06         63.7898
            1858     3.03173E-03     173.684E-03         1.84579         1.37006        -3.94545         1.73306        -3.88958         1.42692     703.442E-03     554.891E-03    -277.260E-03    -278.367E-03    -278.108E-03     554.809E-03    -277.437E-03     16.0442E-03    -99.2238E+06    -129.711E+06    -202.711E+06    -130.397E+06    -202.025E+06    -99.2238E+06    -5.00399E+06         64.0010
            1859     3.78661E-03     173.743E-03         1.59200         1.21768        -4.01552         1.28925        -3.93804         1.44295         1.10101     556.479E-03    -277.773E-03    -280.196E-03    -280.053E-03     556.336E-03    -277.773E-03     21.3985E-03    -83.6789E+06    -124.271E+06    -183.589E+06    -125.011E+06    -182.849E+06    -83.6789E+06    -6.51212E+06         64.2217
            1860     4.53823E-03     173.828E-03         1.51522         1.19518        -3.81901         1.25712        -3.77749         1.41176     673.259E-03     560.573E-03    -277.853E-03    -282.420E-03    -282.196E-03     560.349E-03    -277.853E-03     26.9672E-03    -65.0053E+06    -116.927E+06    -162.486E+06    -118.172E+06    -161.241E+06    -65.0053E+06    -7.14848E+06         64.3721
            1861     5.28975E-03     173.878E-03         1.37000     969.265E-03        -3.44943     961.473E-03        -3.44164         1.37000     16.3998E-03     563.659E-03    -278.811E-03    -282.921E-03    -282.108E-03     563.336E-03    -279.300E-03     32.6632E-03    -47.1007E+06    -107.704E+06    -143.497E+06    -110.306E+06    -140.895E+06    -47.1007E+06    -8.90846E+06         64.4747
            1862     6.04089E-03     173.873E-03         1.29897     639.756E-03        -3.32688     626.652E-03        -3.31378         1.29897    -302.150E-03     565.034E-03    -280.314E-03    -283.199E-03    -282.281E-03     564.605E-03    -280.804E-03     37.8941E-03    -30.2253E+06    -96.2902E+06    -123.944E+06    -100.536E+06    -119.699E+06    -30.2253E+06    -9.69752E+06         64.7348
            1863     6.79061E-03     173.913E-03         1.48491     942.987E-03        -3.50738         1.15400        -3.48312         1.24964    -246.464E-03     564.560E-03    -282.166E-03    -283.842E-03    -283.285E-03     564.004E-03    -282.166E-03     43.2785E-03    -14.3164E+06    -82.4231E+06    -103.634E+06    -91.0071E+06    -95.0500E+06    -14.3164E+06    -9.09743E+06         65.2679
            1864     7.53775E-03     173.975E-03         1.64903         1.04804        -3.55175         1.41498        -3.51918         1.24951     9.88597E-03     564.931E-03    -283.227E-03    -284.909E-03    -283.665E-03     564.219E-03    -283.758E-03     49.0930E-03     2.20119E+06    -60.0181E+06    -84.9642E+06    -80.1279E+06    -64.8544E+06     2.20119E+06    -8.49887E+06         66.0116
            1865     8.28459E-03     174.055E-03         1.40768     805.486E-03        -3.35797     936.154E-03        -3.32439         1.24343     378.802E-03     567.302E-03    -282.843E-03    -286.663E-03    -285.260E-03     566.430E-03    -283.374E-03     54.4953E-03     19.4996E+06    -25.8362E+06    -69.3634E+06    -67.4076E+06    -27.7920E+06     19.4996E+06    -6.99153E+06         67.1128
            1866     9.02987E-03     174.180E-03         1.33150     813.787E-03        -3.27371     902.983E-03        -3.25067         1.21926     221.255E-03     571.363E-03    -282.730E-03    -287.568E-03    -286.510E-03     570.305E-03    -282.730E-03     60.1921E-03     36.1567E+06     13.9270E+06    -57.4263E+06    -57.0193E+06     16.0518E+06     33.6249E+06    -2.01981E+06         68.9289
            1867     9.77236E-03     174.321E-03         1.30758     786.298E-03        -3.27795     851.216E-03        -3.23063         1.19533     513.227E-03     576.472E-03    -284.278E-03    -289.487E-03    -288.200E-03     575.184E-03    -284.278E-03     66.6565E-03     74.6372E+06     46.3714E+06    -48.0239E+06    -47.6657E+06     71.4452E+06     49.2052E+06     5.02755E+06         71.7101
            1868     10.5152E-03     174.442E-03         1.18058     829.128E-03        -3.13448     796.444E-03        -3.08967         1.16845     384.452E-03     581.534E-03    -286.737E-03    -291.898E-03    -290.223E-03     579.859E-03    -286.737E-03     76.1866E-03     110.703E+06     67.4603E+06    -37.0932E+06    -36.5568E+06     110.167E+06     67.4603E+06     7.05278E+06         75.5276
            1869     11.2549E-03     174.584E-03         1.15536     860.054E-03        -3.00093     851.160E-03        -2.97991         1.14324     173.970E-03     583.593E-03    -287.692E-03    -294.026E-03    -291.885E-03     581.452E-03    -287.692E-03     86.4873E-03     117.717E+06     93.4773E+06    -25.2822E+06    -25.0076E+06     117.443E+06     93.4773E+06     2.57887E+06         80.3190
            1870     11.9916E-03     174.764E-03         1.29195     773.812E-03        -3.00996     912.145E-03        -2.97985         1.12351     95.5904E-03     587.350E-03    -288.691E-03    -297.766E-03    -294.469E-03     584.052E-03    -288.691E-03     106.723E-03     123.052E+06     114.759E+06    -15.3464E+06    -15.2705E+06     118.581E+06     119.154E+06     42.8563E+03         85.5248
            1871     12.7337E-03     175.039E-03         1.36892     702.305E-03        -2.88281     911.333E-03        -2.83028         1.10736     212.516E-03     588.829E-03    -288.324E-03    -297.880E-03    -293.996E-03     584.945E-03    -288.324E-03     116.987E-03     129.822E+06     120.624E+06    -8.57408E+06    -8.54123E+06     120.591E+06     129.822E+06     853.040E+03         89.9564
            1872     759.183E-06     175.025E-03         2.34085         1.35818        -3.62450         1.35388        -3.48715         2.20781        -1.35251     550.540E-03    -273.850E-03    -276.221E-03    -275.096E-03     550.523E-03    -274.958E-03     6.83144E-03    -130.758E+06    -143.221E+06    -253.550E+06    -137.824E+06    -253.462E+06    -136.243E+06     1.97031E+06         64.2995
            1873     1.52239E-03     175.162E-03         1.49652     612.108E-03        -3.60804     546.655E-03        -3.54258         1.49652    -888.183E-03     546.493E-03    -273.098E-03    -273.372E-03    -273.146E-03     546.442E-03    -273.272E-03     11.9543E-03    -127.392E+06    -135.456E+06    -236.606E+06    -134.909E+06    -236.491E+06    -128.055E+06     3.36784E+06         64.5518
            1874     2.28589E-03     175.273E-03         1.33209     712.511E-03        -3.19113     794.807E-03        -3.11158         1.17024    -220.863E-03     544.922E-03    -272.163E-03    -272.998E-03    -272.644E-03     544.818E-03    -272.413E-03     17.6086E-03    -110.981E+06    -130.616E+06    -215.733E+06    -130.778E+06    -215.571E+06    -110.981E+06     3.60873E+06         64.8648
            1875     3.04807E-03     175.324E-03         1.41792         1.11770        -2.89751         1.35565        -2.83524         1.11770     205.520E-03     544.895E-03    -272.066E-03    -273.333E-03    -272.976E-03     544.715E-03    -272.243E-03     23.5451E-03    -90.4910E+06    -125.477E+06    -194.593E+06    -125.888E+06    -194.181E+06    -90.4910E+06     2.54381E+06         65.1803
            1876     3.80740E-03     175.431E-03         1.49586         1.15842        -3.38520         1.41053        -3.29987         1.15842    -541.417E-03     546.311E-03    -272.797E-03    -275.272E-03    -274.993E-03     546.032E-03    -272.797E-03     29.7585E-03    -72.5178E+06    -119.259E+06    -175.870E+06    -119.807E+06    -175.323E+06    -72.5178E+06    -970.705E+03         65.4759
            1877     4.56441E-03     175.440E-03         1.60075         1.16744        -3.76848         1.50644        -3.70920         1.20247     12.8927E-03     549.797E-03    -273.045E-03    -278.722E-03    -278.337E-03     549.413E-03    -273.045E-03     35.3198E-03    -56.0368E+06    -112.221E+06    -154.664E+06    -112.855E+06    -154.031E+06    -56.0368E+06    -4.10673E+06         65.6601
            1878     5.32110E-03     175.480E-03         1.58760     913.436E-03        -3.43899         1.25320        -3.42018         1.22903     306.052E-03     555.497E-03    -273.443E-03    -280.790E-03    -280.300E-03     555.007E-03    -273.443E-03     40.2384E-03    -38.4113E+06    -102.612E+06    -133.536E+06    -104.603E+06    -131.545E+06    -38.4113E+06    -6.92239E+06         65.7110
            1879     6.07303E-03     175.454E-03         1.37182     766.276E-03        -3.16093     907.138E-03        -3.14244         1.21247    -349.244E-03     560.172E-03    -275.232E-03    -282.838E-03    -282.255E-03     559.589E-03    -275.232E-03     44.1950E-03    -23.2066E+06    -90.9420E+06    -117.908E+06    -96.2909E+06    -112.560E+06    -23.2066E+06    -10.3847E+06         65.7910
            1880     6.82532E-03     175.511E-03         1.32125     923.288E-03        -3.33498         1.03536        -3.31002         1.18422    -548.192E-03     562.104E-03    -277.709E-03    -284.413E-03    -283.730E-03     561.421E-03    -277.709E-03     47.9517E-03    -8.15658E+06    -75.2142E+06    -102.197E+06    -86.4845E+06    -90.9271E+06    -8.15658E+06    -12.7462E+06         66.0573
            1881     7.57237E-03     175.568E-03         1.52292         1.08811        -3.57614         1.40451        -3.55302         1.18341    -11.7179E-06     563.862E-03    -279.912E-03    -286.140E-03    -285.345E-03     563.068E-03    -279.912E-03     51.8775E-03     8.07437E+06    -53.2103E+06    -84.8974E+06    -75.7939E+06    -62.3138E+06     8.07437E+06    -13.5416E+06         66.5525
            1882     8.31420E-03     175.671E-03         1.50015         1.09650        -3.61536         1.34899        -3.56306         1.19536     144.847E-03     567.359E-03    -280.410E-03    -289.965E-03    -289.051E-03     566.444E-03    -280.410E-03     55.9228E-03     22.3859E+06    -28.4114E+06    -70.9333E+06    -66.8347E+06    -32.5100E+06     22.3859E+06    -11.5805E+06         67.4791
            1883     9.05531E-03     175.790E-03         1.28368     825.555E-03        -3.24548     876.021E-03        -3.19363         1.18136    -162.512E-03     572.628E-03    -280.938E-03    -292.799E-03    -291.706E-03     571.535E-03    -280.938E-03     61.3805E-03     36.6864E+06     6.06470E+06    -58.7460E+06    -57.3907E+06     4.70933E+06     36.6864E+06    -7.36581E+06         69.2003
            1884     9.79545E-03     175.932E-03         1.18948     755.404E-03        -2.95179     749.866E-03        -2.90075         1.14398    -118.581E-03     578.334E-03    -282.218E-03    -294.740E-03    -293.399E-03     576.993E-03    -282.218E-03     68.2713E-03     68.8031E+06     45.9559E+06    -45.9197E+06    -45.4198E+06     60.1315E+06     54.1276E+06    -3.81963E+06         71.9410
            1885     10.5323E-03     176.096E-03         1.15583     844.704E-03        -3.12315     846.252E-03        -3.07919         1.11032    -218.052E-03     582.150E-03    -285.005E-03    -295.874E-03    -294.107E-03     580.383E-03    -285.005E-03     78.4043E-03     108.591E+06     67.7955E+06    -33.8630E+06    -33.7186E+06     108.446E+06     67.7955E+06    -1.07938E+06         75.7286
            1886     11.2696E-03     176.226E-03         1.22793     951.926E-03        -3.32307         1.06880        -3.30460         1.09259    -50.7717E-03     583.045E-03    -287.501E-03    -296.641E-03    -294.363E-03     580.767E-03    -287.501E-03     89.2768E-03     124.385E+06     89.4081E+06    -25.7009E+06    -25.6371E+06     124.322E+06     89.4081E+06    -130.525E+03         80.5174
            1887     12.0082E-03     176.414E-03         1.21255     744.724E-03        -3.18692     861.739E-03        -3.16860         1.07721     252.113E-03     586.975E-03    -288.094E-03    -299.113E-03    -295.622E-03     583.485E-03    -288.094E-03     109.869E-03     121.634E+06     110.411E+06    -18.1129E+06    -17.9641E+06     119.120E+06     112.777E+06    -1.26541E+06         85.8398
            1888     12.7484E-03     176.686E-03         1.23782     730.635E-03        -2.96036     871.217E-03        -2.91957         1.05644     432.450E-03     590.297E-03    -287.521E-03    -299.936E-03    -295.933E-03     586.293E-03    -287.521E-03     118.906E-03     128.231E+06     118.201E+06    -9.11033E+06    -9.01914E+06     118.110E+06     128.231E+06    -941.979E+03         90.4679
            1889     764.255E-06     176.780E-03         1.84815     754.969E-03        -3.01507         1.33285        -2.78709         1.04229    -744.024E-03     538.352E-03    -267.259E-03    -270.275E-03    -270.237E-03     538.314E-03    -267.259E-03     10.0254E-03    -126.202E+06    -138.568E+06    -260.794E+06    -131.321E+06    -260.734E+06    -133.510E+06     2.01519E+06         65.2764
            1890     1.53295E-03     177.074E-03         1.14499     401.017E-03        -2.69957     428.229E-03        -2.47766     895.874E-03        -1.10605     534.699E-03    -266.681E-03    -267.781E-03    -267.595E-03     534.586E-03    -266.755E-03     18.2788E-03    -123.733E+06    -132.549E+06    -241.272E+06    -130.201E+06    -241.136E+06    -126.217E+06     3.42378E+06         65.6384
            1891     2.29986E-03     177.270E-03         1.44811     567.076E-03        -2.63193         1.17567        -2.56703     774.613E-03     298.435E-03     532.324E-03    -265.571E-03    -267.598E-03    -267.297E-03     532.097E-03    -265.645E-03     26.3144E-03    -109.405E+06    -125.534E+06    -218.836E+06    -125.714E+06    -218.656E+06    -109.405E+06     3.95158E+06         66.0741
            1892     3.06525E-03     177.344E-03         1.46478     808.623E-03        -2.79672         1.28860        -2.69251     880.596E-03     537.210E-03     535.095E-03    -265.653E-03    -269.387E-03    -269.025E-03     534.734E-03    -265.653E-03     33.4967E-03    -85.6351E+06    -117.096E+06    -194.878E+06    -117.400E+06    -194.574E+06    -85.6351E+06     4.25564E+06         66.5842
            1893     3.82748E-03     177.433E-03         1.11712     838.962E-03        -2.83970     907.385E-03        -2.71974     928.731E-03    -758.161E-03     538.905E-03    -266.495E-03    -272.863E-03    -272.356E-03     538.398E-03    -266.495E-03     40.0177E-03    -59.9934E+06    -108.069E+06    -168.428E+06    -108.378E+06    -168.120E+06    -59.9934E+06     3.73505E+06         67.1725
            1894     4.58869E-03     177.389E-03         1.47993     943.194E-03        -3.14867         1.38120        -3.06774     960.990E-03    -224.710E-03     543.609E-03    -267.766E-03    -277.293E-03    -276.644E-03     542.959E-03    -267.766E-03     45.6937E-03    -39.2770E+06    -100.096E+06    -143.748E+06    -100.365E+06    -143.478E+06    -39.2770E+06     625.600E+03         67.7380
            1895     5.34758E-03     177.313E-03         1.73467         1.04337        -3.62726         1.70722        -3.59981         1.04337     714.305E-03     550.673E-03    -268.740E-03    -280.338E-03    -279.569E-03     549.904E-03    -268.740E-03     50.1023E-03    -22.9333E+06    -92.0073E+06    -122.134E+06    -92.7951E+06    -121.346E+06    -22.9333E+06    -2.88165E+06         68.1368
            1896     6.10348E-03     177.265E-03         1.46023         1.08215        -3.68522         1.40744        -3.66165         1.11138    -121.550E-03     557.180E-03    -270.480E-03    -284.677E-03    -283.818E-03     556.321E-03    -270.480E-03     53.3978E-03    -7.76540E+06    -81.9351E+06    -103.526E+06    -85.2472E+06    -100.214E+06    -7.76540E+06    -6.60967E+06         68.3351
            1897     6.85430E-03     177.249E-03         1.23479         1.00733        -3.34026         1.09403        -3.32402         1.13186    -388.436E-03     560.533E-03    -273.434E-03    -288.451E-03    -287.486E-03     559.568E-03    -273.434E-03     56.8494E-03     4.26109E+06    -68.8597E+06    -91.6679E+06    -79.0232E+06    -81.5043E+06     4.26109E+06    -10.6986E+06         68.5146
            1898     7.60108E-03     177.215E-03         1.17301     672.182E-03        -3.05676     719.942E-03        -3.04424         1.11273     115.519E-03     564.071E-03    -276.148E-03    -290.703E-03    -289.621E-03     562.989E-03    -276.148E-03     60.4365E-03     15.4168E+06    -50.4382E+06    -80.3550E+06    -72.5745E+06    -58.2187E+06     15.4168E+06    -12.1800E+06         68.8952
            1899     8.34415E-03     177.278E-03         1.21585     713.866E-03        -3.01909     780.951E-03        -2.94563         1.07531     125.482E-03     569.987E-03    -277.182E-03    -295.014E-03    -293.801E-03     568.774E-03    -277.182E-03     64.4018E-03     29.1882E+06    -25.8803E+06    -69.1878E+06    -64.8101E+06    -30.2580E+06     29.1882E+06    -12.6937E+06         69.6662
            1900     9.08190E-03     177.405E-03         1.14250     775.618E-03        -3.04991     800.790E-03        -2.97277         1.04019    -20.6431E-03     575.930E-03    -278.199E-03    -298.773E-03    -297.368E-03     574.525E-03    -278.199E-03     69.7102E-03     42.5221E+06     5.69364E+06    -58.4439E+06    -54.7526E+06     2.00241E+06     42.5221E+06    -14.3246E+06         71.1586
            1901     9.81831E-03     177.546E-03         1.15769     761.912E-03        -3.11553     868.847E-03        -3.07506         1.01029    -471.495E-03     580.335E-03    -279.435E-03    -299.886E-03    -298.202E-03     578.651E-03    -279.435E-03     76.5973E-03     65.9548E+06     45.3592E+06    -45.9052E+06    -43.8815E+06     51.5431E+06     57.7473E+06    -11.5421E+06         73.7361
            1902     10.5525E-03     177.728E-03         1.21922     961.416E-03        -3.09089         1.14844        -3.05480     996.115E-03    -727.996E-03     583.168E-03    -282.633E-03    -300.049E-03    -297.967E-03     581.087E-03    -282.633E-03     85.4060E-03     102.089E+06     70.0640E+06    -35.3926E+06    -35.0072E+06     101.703E+06     70.0640E+06    -6.17183E+06         77.4791
            1903     11.2896E-03     177.875E-03         1.19465     711.348E-03        -2.95434     885.540E-03        -2.91748     983.606E-03    -605.409E-03     585.219E-03    -286.385E-03    -300.624E-03    -298.184E-03     582.779E-03    -286.385E-03     92.7938E-03     122.378E+06     86.4141E+06    -25.8910E+06    -25.6450E+06     122.132E+06     86.4141E+06    -3.08465E+06         82.2795
            1904     12.0228E-03     178.081E-03         1.48225     565.833E-03        -2.95711         1.05284        -2.92526     963.394E-03    -312.115E-03     589.260E-03    -287.214E-03    -302.148E-03    -298.724E-03     585.836E-03    -287.214E-03     109.377E-03     118.875E+06     105.561E+06    -15.8088E+06    -15.6070E+06     118.012E+06     106.223E+06    -2.13271E+06         87.6513
            1905     12.7616E-03     178.369E-03         1.40913     251.010E-03        -2.97352     714.092E-03        -2.96483     937.360E-03     4.17040E-03     590.868E-03    -286.896E-03    -302.030E-03    -298.175E-03     587.014E-03    -286.896E-03     116.854E-03     130.758E+06     115.683E+06    -6.13658E+06    -6.04882E+06     116.101E+06     130.252E+06    -1.23332E+06         92.3663
            1906     772.850E-06     178.642E-03         1.50994    -299.052E-03        -2.76911     900.861E-03        -2.23328    -225.802E-03     684.939E-03     519.170E-03    -257.823E-03    -260.987E-03    -260.925E-03     519.108E-03    -257.823E-03     13.1316E-03    -122.418E+06    -134.243E+06    -263.285E+06    -127.415E+06    -263.166E+06    -129.366E+06     2.07966E+06         65.2350
            1907     1.54635E-03     179.099E-03     906.516E-03     239.786E-03        -2.61230     466.713E-03        -2.26260     329.892E-03        -1.30312     518.235E-03    -257.612E-03    -260.274E-03    -260.092E-03     518.053E-03    -257.612E-03     23.0132E-03    -119.191E+06    -127.748E+06    -247.338E+06    -125.345E+06    -247.256E+06    -121.676E+06     976.908E+03         65.4365
            1908     2.31987E-03     179.378E-03         1.70158     518.432E-03        -2.85864         1.55524        -2.71231     518.432E-03    -361.495E-03     518.704E-03    -257.240E-03    -261.480E-03    -261.096E-03     518.319E-03    -257.240E-03     33.9639E-03    -102.513E+06    -119.740E+06    -221.350E+06    -119.845E+06    -221.245E+06    -102.513E+06     1.81346E+06         65.8779
            1909     3.08920E-03     179.480E-03         1.61231     682.743E-03        -3.14098         1.39076        -2.99140     754.717E-03     69.8803E-03     522.541E-03    -257.962E-03    -265.113E-03    -264.476E-03     521.905E-03    -257.962E-03     44.1191E-03    -77.7111E+06    -110.955E+06    -195.710E+06    -111.000E+06    -195.665E+06    -77.7111E+06     1.51072E+06         66.6331
            1910     3.85563E-03     179.576E-03         1.07100     736.278E-03        -3.09008     848.179E-03        -2.95703     826.047E-03    -704.438E-03     528.896E-03    -259.313E-03    -270.828E-03    -269.931E-03     527.999E-03    -259.313E-03     52.8613E-03    -50.8545E+06    -99.7407E+06    -166.624E+06    -99.8524E+06    -166.512E+06    -50.8545E+06     1.31442E+06         67.6146
            1911     4.61751E-03     179.566E-03         1.17999     819.887E-03        -2.83592         1.03759        -2.71131     837.683E-03    -729.253E-03     538.274E-03    -261.209E-03    -276.591E-03    -275.445E-03     537.129E-03    -261.209E-03     60.3321E-03    -25.1344E+06    -87.7137E+06    -139.192E+06    -87.8891E+06    -139.016E+06    -25.1344E+06     2.09832E+06         68.6828
            1912     5.37575E-03     179.550E-03         1.25464     823.017E-03        -2.93032         1.04450        -2.76177     864.616E-03    -596.656E-03     545.832E-03    -263.345E-03    -280.912E-03    -279.561E-03     544.481E-03    -263.345E-03     66.0303E-03    -5.50345E+06    -78.5441E+06    -114.154E+06    -78.7992E+06    -113.899E+06    -5.50345E+06     1.83045E+06         69.6443
            1913     6.13029E-03     179.404E-03         1.07524     784.985E-03        -3.13030     889.985E-03        -3.04580     885.736E-03    -613.821E-03     553.844E-03    -266.278E-03    -286.751E-03    -285.282E-03     552.374E-03    -266.278E-03     69.4976E-03     9.45407E+06    -70.9477E+06    -91.9384E+06    -71.7667E+06    -91.1195E+06     9.45407E+06     9.88806E+03         70.4486
            1914     6.88094E-03     179.319E-03         1.38265     859.473E-03        -3.17598         1.28750        -3.13998     918.626E-03    -722.808E-03     559.743E-03    -269.737E-03    -293.383E-03    -291.790E-03     558.150E-03    -269.737E-03     72.9751E-03     21.7628E+06    -61.2060E+06    -75.0729E+06    -65.6750E+06    -70.6039E+06     21.7628E+06    -2.42154E+06         71.2150
            1915     7.62791E-03     179.212E-03         1.36950     604.012E-03        -3.04824     962.767E-03        -2.98675     949.262E-03     219.027E-03     565.993E-03    -272.260E-03    -297.804E-03    -296.066E-03     564.255E-03    -272.260E-03     76.8230E-03     30.9231E+06    -44.0683E+06    -64.7166E+06    -60.8998E+06    -47.8850E+06     30.9231E+06    -6.17681E+06         71.9916
            1916     8.37043E-03     179.207E-03         1.05307     579.235E-03        -2.78697     599.219E-03        -2.69456     940.679E-03     701.876E-03     573.902E-03    -273.852E-03    -302.298E-03    -300.429E-03     572.033E-03    -273.852E-03     80.3691E-03     41.7059E+06    -16.6940E+06    -57.5070E+06    -54.4997E+06    -19.7012E+06     41.7059E+06    -10.3350E+06         72.8688
            1917     9.10848E-03     179.208E-03     995.352E-03     702.346E-03        -2.71052     721.216E-03        -2.65410     920.059E-03     223.981E-03     580.355E-03    -275.806E-03    -305.740E-03    -303.675E-03     578.290E-03    -275.806E-03     85.0463E-03     51.8615E+06     11.6608E+06    -51.6792E+06    -48.4322E+06     8.41380E+06     51.8615E+06    -13.0371E+06         74.3173
            1918     9.84277E-03     179.293E-03     990.653E-03     236.582E-03        -2.76487     320.377E-03        -2.74677     888.761E-03    -156.051E-03     585.332E-03    -277.178E-03    -306.585E-03    -304.256E-03     583.003E-03    -277.178E-03     90.7028E-03     65.1046E+06     46.1347E+06    -45.0173E+06    -42.5181E+06     46.4935E+06     62.2466E+06    -13.3026E+06         76.8708
            1919     10.5754E-03     179.462E-03         1.30152     407.776E-03        -2.65738     832.162E-03        -2.63868     858.436E-03    -332.417E-03     588.595E-03    -280.609E-03    -307.579E-03    -304.943E-03     585.959E-03    -280.609E-03     96.8347E-03     93.6820E+06     72.3293E+06    -34.6094E+06    -33.4817E+06     91.9807E+06     72.9030E+06    -10.5967E+06         80.6395
            1920     11.3028E-03     179.626E-03         1.17243     114.529E-03        -2.52046     418.243E-03        -2.48298     831.232E-03    -411.891E-03     592.217E-03    -284.737E-03    -308.810E-03    -305.909E-03     589.317E-03    -284.737E-03     101.814E-03     115.149E+06     85.6573E+06    -24.8130E+06    -24.4577E+06     114.793E+06     85.6573E+06    -6.31373E+06         85.4878
            1921     12.0275E-03     179.846E-03         1.68057     86.5729E-03        -2.52161     924.163E-03        -2.48190     803.277E-03    -631.105E-03     596.699E-03    -285.808E-03    -309.667E-03    -305.765E-03     592.797E-03    -285.808E-03     117.506E-03     116.325E+06     98.6591E+06    -17.0400E+06    -16.8814E+06     116.167E+06     98.6591E+06    -3.12325E+06         90.8370
            1922     12.7595E-03     180.145E-03         1.66059    -116.874E-03        -2.63776     685.264E-03        -2.56260     783.288E-03     58.6933E-03     595.662E-03    -286.320E-03    -307.213E-03    -302.973E-03     591.421E-03    -286.320E-03     122.940E-03     134.650E+06     107.637E+06    -4.63841E+06    -4.57385E+06     113.668E+06     128.554E+06    -1.53729E+06         95.4566
            1923     778.864E-06     180.459E-03         1.37761     64.0741E-03        -3.24440     343.903E-03        -2.42961     282.986E-03         1.87799     498.198E-03    -247.573E-03    -250.624E-03    -250.527E-03     498.101E-03    -247.573E-03     16.0363E-03    -120.064E+06    -132.427E+06    -261.082E+06    -125.800E+06    -260.926E+06    -126.846E+06     286.941E+03         63.7827
            1924     1.56223E-03     181.040E-03     815.879E-03     8.59392E-03        -3.22548     73.6147E-03        -2.96299     488.370E-03        -1.06366     498.847E-03    -247.426E-03    -251.369E-03    -251.090E-03     498.569E-03    -247.426E-03     27.9355E-03    -114.878E+06    -123.806E+06    -248.621E+06    -121.542E+06    -248.566E+06    -117.198E+06    -2.38661E+06         63.7550
            1925     2.34229E-03     181.349E-03         1.24510     256.773E-03        -3.05502     699.057E-03        -2.75299     500.781E-03     145.042E-03     502.939E-03    -248.126E-03    -254.273E-03    -253.690E-03     502.357E-03    -248.126E-03     41.2723E-03    -95.8197E+06    -114.357E+06    -224.222E+06    -114.413E+06    -224.166E+06    -95.8197E+06    -1.87540E+06         64.1438
            1926     3.11892E-03     181.501E-03         1.30822     582.662E-03        -3.08977     894.525E-03        -2.67607     582.662E-03    -566.056E-03     507.292E-03    -249.553E-03    -258.260E-03    -257.264E-03     506.297E-03    -249.553E-03     54.4906E-03    -70.8042E+06    -105.830E+06    -194.624E+06    -105.855E+06    -194.599E+06    -70.8042E+06    -669.265E+03         65.0164
            1927     3.89174E-03     181.577E-03         1.31440     653.443E-03        -3.34605     997.759E-03        -3.02941     653.443E-03    -741.412E-03     514.986E-03    -251.406E-03    -265.769E-03    -264.326E-03     513.543E-03    -251.406E-03     66.5065E-03    -44.4514E+06    -96.1804E+06    -166.474E+06    -96.2137E+06    -166.441E+06    -44.4514E+06     150.054E+03         66.1799
            1928     4.65671E-03     181.623E-03         1.25527     704.241E-03        -3.15267     884.325E-03        -2.78172     704.241E-03     848.087E-03     528.116E-03    -253.345E-03    -274.230E-03    -272.348E-03     526.233E-03    -253.345E-03     77.0133E-03    -18.7078E+06    -85.5227E+06    -140.978E+06    -85.6289E+06    -140.872E+06    -18.7078E+06     789.111E+03         67.4873
            1929     5.41673E-03     181.740E-03     912.256E-03     642.780E-03        -2.55074     509.597E-03        -2.21873     713.425E-03    -122.744E-03     538.299E-03    -255.978E-03    -280.847E-03    -278.574E-03     536.026E-03    -255.978E-03     85.5047E-03     3.93175E+06    -73.4071E+06    -115.574E+06    -73.7157E+06    -115.266E+06     3.93175E+06     2.46924E+06         68.9344
            1930     6.16861E-03     181.673E-03     696.126E-03     564.646E-03        -2.28461     431.590E-03        -2.14988     694.444E-03    -111.867E-03     548.823E-03    -260.203E-03    -288.953E-03    -286.459E-03     546.328E-03    -260.203E-03     90.5914E-03     21.2691E+06    -62.4736E+06    -89.7911E+06    -63.7147E+06      -88.55E+06     21.2691E+06     4.48931E+06         70.5918
            1931     6.91590E-03     181.587E-03         1.10586     640.411E-03        -2.49861     921.696E-03        -2.37360     699.564E-03    -310.661E-03     560.321E-03    -264.287E-03    -298.873E-03    -296.248E-03     557.696E-03    -264.287E-03     94.1888E-03     35.5063E+06    -52.3543E+06    -65.1344E+06    -55.0635E+06    -62.4253E+06     35.5063E+06     3.95591E+06         72.3160
            1932     7.65883E-03     181.509E-03         1.35156     736.478E-03        -2.90243         1.11306        -2.66393     736.478E-03     552.894E-03     571.671E-03    -267.302E-03    -305.463E-03    -302.733E-03     568.941E-03    -267.302E-03     97.2233E-03     47.5273E+06    -33.6480E+06    -49.2230E+06    -47.0000E+06    -35.8711E+06     47.5273E+06     1.23066E+06         73.9123
            1933     8.39678E-03     181.419E-03         1.14520     767.919E-03        -2.96005     945.093E-03        -2.75995     767.919E-03     973.827E-03     579.168E-03    -269.727E-03    -310.202E-03    -307.378E-03     576.344E-03    -269.727E-03     99.6317E-03     55.6545E+06    -7.59300E+06    -43.5390E+06    -42.2429E+06    -8.88915E+06     55.6545E+06    -1.87624E+06         75.5209
            1934     9.13341E-03     181.336E-03         1.16014     749.787E-03        -2.57722         1.09300        -2.55117     790.876E-03    -22.2987E-03     584.058E-03    -272.793E-03    -314.408E-03    -311.438E-03     581.089E-03    -272.793E-03     102.771E-03     63.4988E+06     19.0402E+06    -38.4782E+06    -37.8248E+06     18.3868E+06     63.4988E+06    -4.54083E+06         77.5818
            1935     9.86522E-03     181.401E-03     974.608E-03    -166.242E-03        -2.38760    -35.1573E-03        -2.31623     772.151E-03    -152.330E-03     590.183E-03    -275.433E-03    -316.392E-03    -313.250E-03     587.041E-03    -275.433E-03     106.324E-03     72.8256E+06     53.5309E+06    -33.6493E+06    -32.6298E+06     53.5474E+06     71.7896E+06    -7.71242E+06         80.5138
            1936     10.5954E-03     181.431E-03         1.35322    -170.450E-03        -2.36292     399.869E-03        -2.30687     726.855E-03    -196.463E-03     595.214E-03    -279.590E-03    -317.831E-03    -314.439E-03     591.823E-03    -279.590E-03     110.899E-03     90.4650E+06     77.5185E+06    -28.7196E+06    -27.6318E+06     88.8035E+06     78.0922E+06    -9.46282E+06         84.5336
            1937     11.3226E-03     181.536E-03         1.33098    -80.8346E-03        -2.46522     535.925E-03        -2.45561     704.612E-03    -70.7148E-03     599.893E-03    -283.704E-03    -318.440E-03    -314.794E-03     596.247E-03    -283.704E-03     115.393E-03     104.561E+06     87.3186E+06    -21.4354E+06    -20.9104E+06     104.036E+06     87.3186E+06    -7.09463E+06         89.5178
            1938     12.0532E-03     181.663E-03         1.26792    -103.522E-03        -2.46307     397.649E-03        -2.37825     681.925E-03     76.8386E-03     604.317E-03    -284.704E-03    -318.562E-03    -313.882E-03     599.637E-03    -284.704E-03     130.429E-03     113.215E+06     101.514E+06    -13.6500E+06    -13.3951E+06     112.960E+06     101.514E+06    -3.12507E+06         94.7037
            1939     12.7787E-03     181.991E-03         1.44423     293.850E-03        -2.54633     865.261E-03        -2.34117     667.662E-03     104.126E-03     605.737E-03    -285.620E-03    -317.429E-03    -312.560E-03     600.868E-03    -285.620E-03     133.340E-03     133.381E+06     106.397E+06    -9.29538E+06    -9.22271E+06     112.120E+06     127.585E+06    -956.096E+03         98.9708
            1940     787.541E-06     182.180E-03         2.20205         1.25988        -4.63975    -74.4147E-03        -3.23688         2.13347     902.348E-03     480.385E-03    -238.383E-03    -241.863E-03    -241.733E-03     480.255E-03    -238.383E-03     17.9707E-03    -115.171E+06    -126.061E+06    -256.974E+06    -119.372E+06    -256.926E+06    -121.908E+06    -2.02373E+06         61.5872
            1941     1.57734E-03     182.806E-03     927.428E-03     493.072E-03        -3.80377    -37.8296E-03        -3.22818     882.743E-03        -1.56176     479.374E-03    -237.801E-03    -241.826E-03    -241.424E-03     478.972E-03    -237.801E-03     32.9900E-03    -109.259E+06    -121.059E+06    -244.057E+06    -117.181E+06    -243.997E+06    -113.197E+06    -2.21679E+06         61.4359
            1942     2.36542E-03     183.149E-03     873.378E-03     383.122E-03        -3.16884     353.692E-03        -2.89316     627.131E-03         1.65784     483.865E-03    -238.460E-03    -245.255E-03    -244.419E-03     483.029E-03    -238.460E-03     48.5751E-03    -89.2611E+06    -112.887E+06    -223.342E+06    -112.976E+06    -223.253E+06    -89.2611E+06    -3.09981E+06         61.7965
            1943     3.14995E-03     183.293E-03         1.10711     568.932E-03        -3.15293     405.383E-03        -2.45120     568.932E-03    -531.413E-03     490.546E-03    -240.316E-03    -250.507E-03    -249.083E-03     489.123E-03    -240.316E-03     64.1980E-03    -65.1772E+06    -103.740E+06    -195.749E+06    -103.804E+06    -195.686E+06    -65.1772E+06    -2.21067E+06         62.6710
            1944     3.92941E-03     183.429E-03         1.28730     557.685E-03        -2.86531     668.035E-03        -2.24604     557.685E-03    -679.181E-03     499.823E-03    -242.201E-03    -259.905E-03    -257.833E-03     497.750E-03    -242.201E-03     78.7654E-03    -39.7186E+06    -92.6713E+06    -169.185E+06    -92.7102E+06    -169.146E+06    -39.7186E+06     189.036E+03         63.8417
            1945     4.70129E-03     183.516E-03         1.30937     587.544E-03        -2.62271     941.696E-03        -2.25504     587.544E-03         1.53194     515.494E-03    -244.397E-03    -270.305E-03    -267.608E-03     512.797E-03    -244.397E-03     91.4934E-03    -14.8316E+06    -81.6880E+06    -142.107E+06    -81.9680E+06    -141.827E+06    -14.8316E+06     2.22014E+06         65.2177
            1946     5.46585E-03     183.653E-03         1.16687     585.219E-03        -2.60451     831.349E-03        -2.29804     614.265E-03    -138.016E-03     529.021E-03    -247.502E-03    -279.080E-03    -275.804E-03     525.745E-03    -247.502E-03     102.335E-03     6.90721E+06    -71.4969E+06    -119.132E+06    -71.9080E+06    -118.721E+06     6.90721E+06     3.23400E+06         66.9267
            1947     6.21949E-03     183.744E-03         1.05248     595.485E-03        -2.29264     862.699E-03        -2.13190     624.532E-03    -178.778E-03     543.002E-03    -252.513E-03    -291.073E-03    -287.419E-03     539.348E-03    -252.513E-03     109.836E-03     26.8243E+06    -59.1693E+06    -92.7408E+06    -60.3709E+06    -91.5392E+06     26.8243E+06     4.59624E+06         69.0433
            1948     6.96316E-03     183.823E-03     835.638E-03     529.227E-03        -1.83843     616.198E-03        -1.71459     624.835E-03    -32.3141E-03     560.175E-03    -257.607E-03    -303.932E-03    -300.126E-03     556.369E-03    -257.607E-03     114.119E-03     43.8472E+06    -45.6755E+06    -65.0794E+06    -49.8416E+06    -60.9133E+06     43.8472E+06     6.28046E+06         71.3067
            1949     7.70154E-03     183.823E-03     824.038E-03     384.804E-03        -1.80958     378.540E-03        -1.58643     607.146E-03     163.906E-03     575.461E-03    -261.052E-03    -311.931E-03    -308.132E-03     571.661E-03    -261.052E-03     115.622E-03     57.7547E+06    -26.3246E+06    -46.7177E+06    -41.3478E+06    -31.6945E+06     57.7547E+06     7.16219E+06         73.6084
            1950     8.43565E-03     183.813E-03     851.096E-03     278.278E-03        -2.13669     369.512E-03        -1.96304     586.213E-03     561.572E-03     586.269E-03    -264.463E-03    -317.957E-03    -314.209E-03     582.521E-03    -264.463E-03     116.061E-03     68.5314E+06     647.755E+03    -35.0991E+06    -33.4583E+06    -993.019E+03     68.5314E+06     6.35990E+06         76.2208
            1951     9.16504E-03     183.697E-03         1.19298     413.333E-03        -2.26187     983.549E-03        -2.23364     594.534E-03     331.960E-03     591.582E-03    -268.975E-03    -324.375E-03    -320.538E-03     587.745E-03    -268.975E-03     118.198E-03     75.5659E+06     29.5548E+06    -28.2387E+06    -27.4982E+06     28.8142E+06     75.5659E+06     3.82982E+06         79.3360
            1952     9.89153E-03     183.648E-03         1.11545     153.106E-03        -2.42538     539.838E-03        -2.30519     608.517E-03    -205.743E-03     597.450E-03    -273.574E-03    -327.686E-03    -323.709E-03     593.473E-03    -273.574E-03     120.927E-03     83.5328E+06     63.4864E+06    -22.9850E+06    -22.6915E+06     64.2290E+06     82.4968E+06     1.11280E+06         83.1366
            1953     10.6185E-03     183.678E-03         1.10192     147.048E-03        -2.46113     521.390E-03        -2.33601     602.459E-03    -285.718E-03     604.506E-03    -278.121E-03    -328.474E-03    -324.338E-03     600.370E-03    -278.121E-03     123.871E-03     95.7416E+06     84.6158E+06    -18.7666E+06    -18.4068E+06     93.3479E+06     86.6497E+06    -655.219E+03         87.8557
            1954     11.3427E-03     183.696E-03         1.36586     304.324E-03        -2.36624     993.535E-03        -2.30022     610.627E-03    -134.237E-03     608.666E-03    -281.776E-03    -328.366E-03    -324.140E-03     604.440E-03    -281.776E-03     125.528E-03     100.518E+06     89.3253E+06    -16.1937E+06    -15.5783E+06     97.9979E+06     91.2300E+06    -1.29636E+06         93.1746
            1955     12.0671E-03     183.741E-03     950.838E-03    -29.1051E-03        -2.58343     61.5029E-03        -2.32605     602.851E-03     515.823E-03     611.412E-03    -283.890E-03    -328.425E-03    -323.344E-03     606.331E-03    -283.890E-03     137.299E-03     109.231E+06     101.512E+06    -13.7534E+06    -13.4273E+06     102.623E+06     107.793E+06     1.08404E+06         98.1990
            1956     12.7812E-03     184.091E-03         1.33844     257.816E-03        -2.63264     701.687E-03        -2.32155     583.470E-03     133.850E-03     615.602E-03    -285.122E-03    -328.755E-03    -323.516E-03     610.362E-03    -285.122E-03     139.904E-03     134.135E+06     111.931E+06    -9.03508E+06    -8.93469E+06     112.035E+06     133.930E+06     2.73784E+06         102.166
            1957     793.299E-06     183.849E-03         2.50066     942.128E-03        -4.18624    -111.438E-03        -2.90074         2.26873     472.136E-03     463.352E-03    -229.174E-03    -233.848E-03    -233.678E-03     463.182E-03    -229.174E-03     19.8115E-03    -109.715E+06    -116.873E+06    -253.932E+06    -109.757E+06    -253.890E+06    -116.873E+06    -1.27183E+06         59.3048
            1958     1.59101E-03     184.513E-03         1.15989     866.100E-03        -3.08171     574.575E-03        -2.49639     866.100E-03        -1.74376     461.246E-03    -228.896E-03    -232.650E-03    -232.117E-03     460.713E-03    -228.896E-03     37.2805E-03    -103.970E+06    -113.988E+06    -239.893E+06    -111.199E+06    -239.835E+06    -106.817E+06    -2.13970E+06         59.1582
            1959     2.38739E-03     184.748E-03         1.21643     780.312E-03        -3.05836     761.482E-03        -2.60341     780.312E-03         1.95545     464.568E-03    -228.668E-03    -236.176E-03    -235.070E-03     463.462E-03    -228.668E-03     54.8865E-03    -80.4419E+06    -104.009E+06    -219.590E+06    -104.066E+06    -219.534E+06    -80.4419E+06    -1.96317E+06         59.5483
            1960     3.17985E-03     184.993E-03         1.24554     443.814E-03        -3.20827    -141.605E-03        -2.07358     696.264E-03         1.01082     473.506E-03    -230.533E-03    -243.241E-03    -241.389E-03     471.654E-03    -230.533E-03     72.2217E-03    -54.2761E+06    -94.2586E+06    -197.583E+06    -94.3079E+06    -197.533E+06    -54.2761E+06    -766.805E+03         60.4308
            1961     3.96591E-03     185.157E-03     819.072E-03     90.3590E-03        -2.01718    -464.139E-03        -1.14907     505.467E-03    -160.242E-03     485.236E-03    -233.137E-03    -253.564E-03    -250.858E-03     482.529E-03    -233.137E-03     88.8535E-03    -31.7404E+06    -84.2887E+06    -173.267E+06    -84.3444E+06    -173.211E+06    -31.7404E+06     988.073E+03         61.6395
            1962     4.74288E-03     185.289E-03     847.679E-03     241.980E-03        -1.58183     475.726E-03        -1.37253     404.638E-03    -73.1119E-03     502.003E-03    -236.129E-03    -265.519E-03    -262.022E-03     498.506E-03    -236.129E-03     103.088E-03    -10.7365E+06    -73.8469E+06    -145.830E+06    -74.1602E+06    -145.517E+06    -10.7365E+06     3.66118E+06         63.1068
            1963     5.51314E-03     185.471E-03         1.10854     424.931E-03        -2.18723     869.875E-03        -1.94856     424.931E-03    -790.863E-03     519.677E-03    -239.778E-03    -277.227E-03    -273.057E-03     515.508E-03    -239.778E-03     114.755E-03     11.1803E+06    -63.0351E+06    -121.407E+06    -63.8493E+06    -120.593E+06     11.1803E+06     6.02301E+06         64.8389
            1964     6.27092E-03     185.625E-03         1.14392     467.587E-03        -2.18530     876.272E-03        -1.91765     467.587E-03     299.552E-03     537.599E-03    -244.680E-03    -290.505E-03    -285.907E-03     533.001E-03    -244.680E-03     122.949E-03     31.2167E+06    -52.4773E+06    -97.1193E+06    -54.2553E+06    -95.3412E+06     31.2167E+06     7.71875E+06         66.9133
            1965     7.01809E-03     185.773E-03     814.909E-03     390.581E-03        -1.80616     603.047E-03        -1.68991     486.189E-03     291.790E-03     555.144E-03    -250.694E-03    -305.092E-03    -300.373E-03     550.425E-03    -250.694E-03     126.980E-03     48.5212E+06    -40.2476E+06    -72.8698E+06    -45.6472E+06    -67.4702E+06     48.5212E+06     10.6058E+06         69.2434
            1966     7.75592E-03     185.930E-03     663.006E-03     254.735E-03        -1.69348     393.150E-03        -1.64597     477.077E-03    -517.335E-03     572.313E-03    -255.172E-03    -318.228E-03    -313.554E-03     567.639E-03    -255.172E-03     128.578E-03     63.8552E+06    -20.5242E+06    -52.8380E+06    -38.7390E+06    -34.6232E+06     63.8552E+06     14.0005E+06         71.8613
            1967     8.48372E-03     186.040E-03     681.013E-03     154.352E-03        -1.81928     326.395E-03        -1.77260     462.287E-03    -203.625E-03     589.821E-03    -259.231E-03    -327.228E-03    -322.743E-03     585.336E-03    -259.231E-03     127.844E-03     76.1756E+06     6.85174E+06    -41.9572E+06    -34.2783E+06    -827.142E+03     76.1756E+06     16.4682E+06         75.1011
            1968     9.20643E-03     186.097E-03     945.981E-03     285.698E-03        -2.05332     676.148E-03        -1.96469     466.899E-03     687.562E-03     599.674E-03    -264.893E-03    -334.055E-03    -329.670E-03     595.289E-03    -264.893E-03     127.632E-03     85.2618E+06     39.7424E+06    -36.1629E+06    -31.2989E+06     34.8785E+06     85.2618E+06     16.9780E+06         79.1014
            1969     9.92840E-03     186.103E-03     937.699E-03     475.659E-03        -2.48479     651.570E-03        -2.20743     484.427E-03    -476.513E-03     606.889E-03    -271.301E-03    -338.093E-03    -333.687E-03     602.482E-03    -271.301E-03     128.757E-03     94.2402E+06     74.5797E+06    -31.3137E+06    -28.5891E+06     74.0486E+06     92.0466E+06     14.7113E+06         83.9011
            1970     10.6470E-03     186.091E-03     658.710E-03     427.521E-03        -2.77010     186.331E-03        -2.35179     481.596E-03    -69.3048E-03     615.485E-03    -276.010E-03    -339.124E-03    -334.601E-03     610.962E-03    -276.010E-03     131.096E-03     99.2248E+06     90.3756E+06    -26.6195E+06    -25.0363E+06     95.6078E+06     92.4094E+06     12.3147E+06         89.5454
            1971     11.3674E-03     186.002E-03         1.51355     444.480E-03        -2.72185         1.06729        -2.32089     489.788E-03    -307.005E-03     619.018E-03    -278.737E-03    -339.720E-03    -334.982E-03     614.281E-03    -278.737E-03     134.403E-03     102.201E+06     92.1723E+06    -22.0976E+06    -21.0229E+06     99.2216E+06     94.0771E+06     10.9909E+06         95.4795
            1972     12.0837E-03     186.053E-03         1.40431     177.937E-03        -2.92522     485.941E-03        -2.33250     503.591E-03     50.8591E-03     622.100E-03    -282.450E-03    -341.823E-03    -336.110E-03     616.387E-03    -282.450E-03     147.515E-03     113.585E+06     100.228E+06    -17.4809E+06    -16.7524E+06     103.001E+06     110.083E+06     8.77668E+06         100.739
            1973     12.7888E-03     186.391E-03         1.33006     171.966E-03        -2.83127     495.199E-03        -2.32207     497.619E-03     406.460E-03     628.788E-03    -284.936E-03    -344.661E-03    -339.074E-03     623.201E-03    -284.936E-03     146.395E-03     134.445E+06     117.674E+06    -8.17506E+06    -7.87491E+06     117.852E+06     133.966E+06     4.80345E+06         104.811
            1974     800.746E-06     185.453E-03         1.65947     743.188E-03        -3.79821     74.6816E-03        -2.91712         1.44687         2.04573     445.556E-03    -219.879E-03    -225.583E-03    -225.360E-03     445.333E-03    -219.879E-03     22.5937E-03    -103.470E+06    -107.392E+06    -250.472E+06    -104.096E+06    -250.408E+06    -106.830E+06    -1.57787E+06         57.2869
            1975     1.60541E-03     186.135E-03         1.13251     734.325E-03        -2.35311     909.041E-03        -2.12963     734.325E-03        -1.04610     445.398E-03    -220.523E-03    -224.986E-03    -224.307E-03     444.719E-03    -220.523E-03     41.4344E-03    -95.0888E+06    -103.830E+06    -236.393E+06    -102.036E+06    -236.338E+06    -96.9385E+06    -1.87134E+06         57.2312
            1976     2.40685E-03     186.400E-03         1.35384     767.623E-03        -2.31282     895.149E-03        -1.85412     767.623E-03     792.951E-03     449.788E-03    -220.667E-03    -229.070E-03    -227.685E-03     448.403E-03    -220.667E-03     60.5127E-03    -75.4766E+06    -96.1683E+06    -218.651E+06    -96.2049E+06    -218.615E+06    -75.4766E+06    -1.67637E+06         57.6958
            1977     3.20561E-03     186.582E-03         1.06164     236.143E-03        -2.44129    -150.185E-03        -1.65434     661.017E-03         1.98193     459.009E-03    -222.506E-03    -236.785E-03    -234.501E-03     456.725E-03    -222.506E-03     79.0394E-03    -52.6073E+06    -88.3458E+06    -200.596E+06    -88.3756E+06    -200.566E+06    -52.6073E+06     303.084E+03         58.6266
            1978     3.99781E-03     186.799E-03     423.910E-03    -270.705E-03        -1.99718    -779.409E-03        -1.48847     423.910E-03     555.198E-03     472.430E-03    -225.130E-03    -247.776E-03    -244.519E-03     469.173E-03    -225.130E-03     96.3431E-03    -29.6417E+06    -79.5822E+06    -176.703E+06    -79.6738E+06    -176.611E+06    -29.6417E+06     2.69453E+06         59.8855
            1979     4.78047E-03     186.956E-03     643.387E-03     25.1000E-03        -1.78415     216.565E-03        -1.62707     294.841E-03    -579.147E-03     489.880E-03    -229.003E-03    -260.795E-03    -256.698E-03     485.783E-03    -229.003E-03     110.502E-03    -9.39923E+06    -70.7402E+06    -152.964E+06    -71.2252E+06    -152.479E+06    -9.39923E+06     5.34985E+06         61.4043
            1980     5.55287E-03     187.158E-03     775.493E-03     277.972E-03        -1.73332     604.526E-03        -1.59284     308.458E-03    -115.404E-03     509.931E-03    -233.596E-03    -275.459E-03    -270.735E-03     505.207E-03    -233.596E-03     121.410E-03     9.56400E+06    -61.6160E+06    -131.391E+06    -63.6752E+06    -129.332E+06     9.56400E+06     10.3898E+06         63.1207
            1981     6.31500E-03     187.390E-03     575.283E-03     294.236E-03        -1.70695     368.375E-03        -1.53052     324.721E-03     993.851E-03     531.273E-03    -238.141E-03    -290.017E-03    -284.970E-03     526.225E-03    -238.141E-03     128.367E-03     27.0532E+06    -52.8599E+06    -110.876E+06    -59.3035E+06    -104.432E+06     27.0532E+06     16.7866E+06         65.0721
            1982     7.06468E-03     187.602E-03     506.678E-03     319.363E-03        -1.89568     392.363E-03        -1.78137     319.363E-03     316.839E-03     549.697E-03    -243.680E-03    -304.641E-03    -299.555E-03     544.611E-03    -243.680E-03     131.437E-03     43.0016E+06    -40.9354E+06    -92.3129E+06    -56.6028E+06    -76.6455E+06     43.0016E+06     21.7931E+06         67.3387
            1983     7.80345E-03     187.775E-03     686.221E-03     324.842E-03        -2.04826     645.989E-03        -2.00803     324.842E-03    -573.334E-03     569.096E-03    -249.187E-03    -320.354E-03    -315.394E-03     564.136E-03    -249.187E-03     132.429E-03     57.5472E+06    -20.6544E+06    -76.8539E+06    -54.3424E+06    -43.1659E+06     57.5472E+06     25.9237E+06         70.0830
            1984     8.53287E-03     187.982E-03     947.441E-03     344.263E-03        -2.11900     821.219E-03        -1.99277     344.263E-03    -654.275E-03     590.528E-03    -254.305E-03    -332.434E-03    -327.734E-03     585.828E-03    -254.305E-03     131.340E-03     71.7902E+06     7.89040E+06    -66.1115E+06    -51.0124E+06    -7.20870E+06     71.7902E+06     29.2552E+06         73.6007
            1985     9.25246E-03     188.108E-03         1.10710     365.373E-03        -2.16140     908.506E-03        -1.96281     365.373E-03    -266.683E-03     604.302E-03    -260.306E-03    -341.291E-03    -336.877E-03     599.888E-03    -260.306E-03     128.854E-03     85.2654E+06     47.0696E+06    -55.7287E+06    -45.4349E+06     36.7757E+06     85.2654E+06     29.9736E+06         78.0321
            1986     9.96500E-03     188.288E-03         1.13553     377.380E-03        -2.34101     705.342E-03        -1.91083     377.380E-03        -1.33920     612.836E-03    -268.193E-03    -347.151E-03    -342.997E-03     608.682E-03    -268.193E-03     125.915E-03     103.206E+06     86.4002E+06    -44.7576E+06    -38.9531E+06     86.7683E+06     97.0330E+06     26.8106E+06         83.3387
            1987     10.6753E-03     188.505E-03     673.416E-03     305.207E-03        -2.60107    -132.567E-03        -1.84983     359.950E-03    -90.8281E-03     621.894E-03    -274.463E-03    -349.812E-03    -345.839E-03     617.922E-03    -274.463E-03     123.551E-03     107.256E+06     98.1192E+06    -34.7073E+06    -31.4435E+06     103.992E+06     98.1192E+06     21.1233E+06         89.4838
            1988     11.3859E-03     188.534E-03         1.18462     282.739E-03        -2.75269     285.165E-03        -1.90798     337.482E-03    -471.079E-03     629.865E-03    -277.080E-03    -352.414E-03    -348.494E-03     625.945E-03    -277.080E-03     122.471E-03     109.501E+06     98.3179E+06    -25.2678E+06    -23.4179E+06     107.651E+06     98.3179E+06     14.8818E+06         95.9639
            1989     12.0978E-03     188.576E-03         1.75429     350.930E-03        -2.71292         1.01498        -1.97361     350.930E-03    -428.842E-03     636.544E-03    -281.250E-03    -356.765E-03    -352.147E-03     631.926E-03    -281.250E-03     132.930E-03     121.187E+06     108.764E+06    -14.1835E+06    -13.4429E+06     116.243E+06     112.968E+06     8.61872E+06         101.813
            1990     12.7973E-03     188.715E-03         1.27314     169.635E-03        -2.65056     420.548E-03        -2.00053     372.193E-03     157.376E-03     643.716E-03    -284.989E-03    -361.676E-03    -357.117E-03     639.156E-03    -284.989E-03     133.541E-03     134.691E+06     126.221E+06    -6.23563E+06    -6.00961E+06     130.261E+06     130.424E+06     3.42955E+06         106.422
            1991     808.242E-06     187.019E-03         1.99721     513.320E-03        -4.67238     743.612E-03        -3.52379     618.332E-03         4.62545     428.366E-03    -211.943E-03    -216.552E-03    -216.257E-03     428.071E-03    -211.943E-03     25.1576E-03    -97.7213E+06    -102.149E+06    -245.740E+06    -98.4251E+06    -245.598E+06    -101.587E+06    -3.03188E+06         55.7084
            1992     1.61832E-03     187.682E-03     951.205E-03     403.779E-03        -2.74806     287.639E-03        -2.19671     515.993E-03     891.614E-03     430.581E-03    -212.449E-03    -217.920E-03    -217.066E-03     429.728E-03    -212.449E-03     45.9242E-03    -92.2744E+06    -100.506E+06    -235.884E+06    -97.4971E+06    -235.764E+06    -95.4033E+06    -2.24549E+06         55.8124
            1993     2.42654E-03     187.951E-03     549.595E-03     85.1872E-03        -1.70294    -111.649E-03        -1.25154     295.038E-03     107.961E-03     437.928E-03    -213.865E-03    -223.883E-03    -222.220E-03     436.265E-03    -213.865E-03     65.5888E-03    -77.0362E+06    -95.2109E+06    -220.331E+06    -95.2925E+06    -220.249E+06    -77.0362E+06     85.5460E+03         56.4017
            1994     3.22856E-03     188.167E-03     898.191E-03    -106.189E-03        -1.70492     575.254E-03        -1.65204     163.871E-03     88.7090E-03     448.642E-03    -216.271E-03    -233.267E-03    -230.601E-03     445.976E-03    -216.271E-03     84.6917E-03    -59.1917E+06    -91.6941E+06    -204.233E+06    -91.8732E+06    -204.054E+06    -59.1917E+06     2.65019E+06         57.4097
            1995     4.02517E-03     188.407E-03         1.02463    -98.9521E-03        -2.29145     689.636E-03        -2.23596     180.555E-03    -341.877E-03     463.492E-03    -218.880E-03    -245.464E-03    -241.871E-03     459.899E-03    -218.880E-03     100.573E-03    -41.0488E+06    -87.5157E+06    -185.912E+06    -88.3084E+06    -185.119E+06    -41.0488E+06     6.80982E+06         58.7012
            1996     4.80973E-03     188.598E-03     627.558E-03     66.7454E-03        -2.09213     376.670E-03        -1.97477     200.272E-03    -898.428E-03     481.681E-03    -223.229E-03    -258.970E-03    -254.654E-03     477.364E-03    -223.229E-03     112.711E-03    -21.3046E+06    -82.5218E+06    -167.301E+06    -85.8469E+06    -163.976E+06    -21.3046E+06     13.5356E+06         60.2252
            1997     5.58401E-03     188.855E-03     462.498E-03     129.538E-03        -1.73195     289.681E-03        -1.61606     186.466E-03    -451.522E-03     501.299E-03    -228.067E-03    -274.920E-03    -270.155E-03     496.534E-03    -228.067E-03     121.246E-03    -4.41684E+06    -78.0991E+06    -152.239E+06    -86.1684E+06    -144.170E+06    -4.41684E+06     20.9481E+06         61.9535
            1998     6.34638E-03     189.107E-03     377.043E-03     134.015E-03        -1.64572     316.338E-03        -1.61550     164.500E-03     50.1989E-03     522.779E-03    -233.053E-03    -291.084E-03    -286.195E-03     517.891E-03    -233.053E-03     125.742E-03     11.1441E+06    -68.9216E+06    -136.634E+06    -85.3608E+06    -120.194E+06     11.1441E+06     26.9779E+06         63.8548
            1999     7.09769E-03     189.329E-03     719.205E-03     163.999E-03        -1.96545     609.485E-03        -1.85573     163.999E-03    -876.441E-03     545.296E-03    -238.942E-03    -305.205E-03    -300.426E-03     540.517E-03    -238.942E-03     127.045E-03     26.9699E+06    -51.7559E+06    -117.270E+06    -81.6250E+06    -87.4005E+06     26.9699E+06     31.4694E+06         66.0545
            2000     7.83767E-03     189.581E-03     992.317E-03     193.794E-03        -2.10976     843.327E-03        -1.96077     193.794E-03    -512.415E-03     566.538E-03    -244.612E-03    -318.681E-03    -314.191E-03     562.048E-03    -244.612E-03     125.603E-03     42.4726E+06    -27.2090E+06    -99.5937E+06    -74.4285E+06    -52.3742E+06     42.4726E+06     33.7864E+06         68.8436
            2001     8.56558E-03     189.836E-03     821.762E-03     135.602E-03        -2.05128     345.689E-03        -1.65434     214.738E-03     155.271E-03     585.860E-03    -250.957E-03    -332.649E-03    -328.462E-03     581.673E-03    -250.957E-03     123.613E-03     58.7450E+06     5.08933E+06    -80.9035E+06    -64.0681E+06    -11.7460E+06     58.7450E+06     33.3577E+06         72.4307
            2002     9.28225E-03     190.101E-03     803.815E-03     132.955E-03        -1.88404     317.025E-03        -1.47639     212.091E-03    -633.997E-03     604.205E-03    -257.521E-03    -345.022E-03    -341.204E-03     600.387E-03    -257.521E-03     119.852E-03     76.9860E+06     49.8518E+06    -61.9787E+06    -52.2449E+06     40.1180E+06     76.9860E+06     29.9089E+06         76.8761
            2003     9.98928E-03     190.404E-03         1.23126     227.405E-03        -1.81381     984.984E-03        -1.56753     227.405E-03        -1.42809     618.458E-03    -265.050E-03    -354.873E-03    -351.547E-03     615.131E-03    -265.050E-03     113.058E-03     106.245E+06     89.3592E+06    -43.7002E+06    -38.8012E+06     96.3477E+06     94.3579E+06     25.1433E+06         82.1443
            2004     10.6851E-03     190.674E-03         1.15006     242.898E-03        -2.03825     608.467E-03        -1.50609     252.333E-03     306.108E-03     630.553E-03    -273.091E-03    -362.065E-03    -359.179E-03     627.667E-03    -273.091E-03     106.343E-03     117.671E+06     97.8968E+06    -30.8733E+06    -27.8061E+06     114.604E+06     97.8968E+06     20.9532E+06         88.2163
            2005     11.3771E-03     190.857E-03     712.199E-03    -9.76979E-03        -2.07451    -311.648E-03        -1.30201     241.578E-03     203.689E-03     643.812E-03    -277.236E-03    -365.490E-03    -362.885E-03     641.208E-03    -277.236E-03     102.187E-03     121.893E+06     101.030E+06    -22.6688E+06    -20.5392E+06     119.763E+06     101.030E+06     16.6374E+06         94.8359
            2006     12.0692E-03     190.977E-03         1.49890    -2.98987E-03        -1.76529     757.660E-03        -1.26596     238.923E-03    -238.142E-03     648.760E-03    -281.102E-03    -366.177E-03    -362.886E-03     645.469E-03    -281.102E-03     114.515E-03     134.201E+06     113.111E+06    -16.4734E+06    -15.5105E+06     132.609E+06     113.741E+06     10.3894E+06         101.200
            2007     12.7767E-03     190.997E-03         1.29759    -385.715E-03        -1.99238     207.262E-03        -1.54311     255.336E-03     79.8058E-03     646.877E-03    -285.182E-03    -363.361E-03    -359.430E-03     642.946E-03    -285.182E-03     125.522E-03     146.637E+06     125.254E+06    -11.6938E+06    -11.4444E+06     145.758E+06     125.883E+06     5.03518E+06         106.405
            2008     813.862E-06     188.552E-03         2.67366    -389.631E-03        -3.63609         1.16552        -2.12795    -389.631E-03         5.03398     414.752E-03    -203.755E-03    -211.021E-03    -210.665E-03     414.396E-03    -203.755E-03     27.8448E-03    -97.0851E+06    -102.149E+06    -238.870E+06    -99.0522E+06    -238.721E+06    -100.331E+06    -806.616E+03         54.7164
            2009     1.63133E-03     189.136E-03     570.284E-03    -80.4806E-03        -2.44624    -320.745E-03        -1.66742     31.7330E-03         2.08952     417.748E-03    -205.704E-03    -211.922E-03    -210.955E-03     416.781E-03    -205.704E-03     48.3271E-03    -101.095E+06    -109.602E+06    -236.003E+06    -107.237E+06    -235.860E+06    -103.603E+06    -716.440E+03         55.0586
            2010     2.44114E-03     189.471E-03    -115.762E-03    -508.730E-03        -1.95792    -970.375E-03        -1.31316    -298.879E-03         1.38982     427.606E-03    -207.806E-03    -220.603E-03    -218.744E-03     425.747E-03    -207.806E-03     68.7259E-03    -93.6304E+06    -110.951E+06    -228.043E+06    -111.262E+06    -227.731E+06    -93.6304E+06     4.12161E+06         55.8047
            2011     3.24637E-03     189.704E-03     839.802E-03    -457.448E-03        -1.65678     514.476E-03        -1.42909    -359.811E-03    -469.754E-03     443.218E-03    -210.718E-03    -233.185E-03    -230.393E-03     440.425E-03    -210.718E-03     86.5554E-03    -79.5609E+06    -112.679E+06    -215.341E+06    -114.643E+06    -213.377E+06    -79.5609E+06     10.9035E+06         56.8995
            2012     4.03934E-03     189.990E-03         1.54310    -145.908E-03        -2.00336         1.33351        -1.79376    -145.908E-03    -501.043E-03     461.609E-03    -214.586E-03    -246.493E-03    -242.989E-03     458.105E-03    -214.586E-03     99.2944E-03    -63.9411E+06    -113.589E+06    -204.807E+06    -118.416E+06    -199.981E+06    -63.9411E+06     17.7609E+06         58.2416
            2013     4.82447E-03     190.203E-03     759.897E-03    -8.21555E-03        -1.91751     583.992E-03        -1.76805     18.2274E-03     218.617E-03     481.090E-03    -219.852E-03    -261.164E-03    -257.266E-03     477.192E-03    -219.852E-03     107.074E-03    -46.6018E+06    -110.253E+06    -194.079E+06    -120.717E+06    -183.616E+06    -46.6018E+06     25.7075E+06         59.7738
            2014     5.59679E-03     190.471E-03     286.015E-03     14.4408E-03        -1.87315    -141.250E-03        -1.47232     40.8837E-03     682.830E-03     501.240E-03    -225.483E-03    -275.617E-03    -271.659E-03     497.282E-03    -225.483E-03     110.117E-03    -27.3104E+06    -100.425E+06    -175.926E+06    -118.168E+06    -158.183E+06    -27.3104E+06     31.1428E+06         61.4794
            2015     6.35791E-03     190.781E-03     303.622E-03    -59.2799E-03        -1.71277    -118.806E-03        -1.36606     16.4451E-03     507.910E-03     519.016E-03    -231.040E-03    -289.210E-03    -285.361E-03     515.167E-03    -231.040E-03     110.635E-03    -10.7600E+06    -87.2052E+06    -154.720E+06    -111.049E+06    -130.876E+06    -10.7600E+06     31.6840E+06         63.3254
            2016     7.10774E-03     191.070E-03     728.365E-03    -55.2952E-03        -1.67794     430.225E-03        -1.45552     20.4298E-03        -1.24033     538.261E-03    -237.574E-03    -302.563E-03    -298.902E-03     534.600E-03    -237.574E-03     110.072E-03     5.55223E+06    -67.7164E+06    -129.807E+06    -99.5982E+06    -97.9251E+06     5.55223E+06     30.5106E+06         65.4060
            2017     7.84492E-03     191.422E-03         1.37087     74.2704E-03        -1.73062         1.12658        -1.48633     74.2704E-03    -399.339E-03     559.261E-03    -244.608E-03    -315.122E-03    -311.724E-03     555.863E-03    -244.608E-03     108.204E-03     23.2936E+06    -39.3771E+06    -104.568E+06    -86.2091E+06    -57.7357E+06     23.2936E+06     27.1770E+06         68.0226
            2018     8.57189E-03     191.758E-03         1.04007     51.5562E-03        -1.75402     648.963E-03        -1.44205     130.692E-03         1.06013     579.529E-03    -251.679E-03    -329.414E-03    -326.295E-03     576.410E-03    -251.679E-03     105.592E-03     40.6502E+06    -2.73631E+06    -81.4934E+06    -72.2910E+06    -11.9387E+06     40.6502E+06     21.4597E+06         71.4191
            2019     9.28870E-03     192.039E-03     340.446E-03    -157.174E-03        -1.69662    -359.015E-03        -1.27997     125.638E-03     58.0834E-03     601.113E-03    -258.391E-03    -343.733E-03    -340.963E-03     598.343E-03    -258.391E-03     101.448E-03     61.7146E+06     41.4149E+06    -61.2459E+06    -57.0783E+06     39.4770E+06     59.4850E+06     17.7160E+06         75.6459
            2020     9.98947E-03     192.356E-03         1.00981    -96.0258E-03        -1.39502     461.046E-03        -1.04993     107.650E-03        -1.25917     620.367E-03    -264.710E-03    -356.781E-03    -354.384E-03     617.969E-03    -264.710E-03     96.2894E-03     98.7316E+06     74.4769E+06    -47.2579E+06    -45.0213E+06     94.4755E+06     76.4964E+06     17.1829E+06         80.6563
            2021     10.6820E-03     192.663E-03         1.64261     139.689E-03        -1.34783         1.33707        -1.04229     139.689E-03    -130.578E-03     636.401E-03    -272.621E-03    -366.903E-03    -364.693E-03     634.191E-03    -272.621E-03     93.9906E-03     123.159E+06     82.5303E+06    -36.7137E+06    -35.1525E+06     121.598E+06     82.5303E+06     14.5950E+06         86.4250
            2022     11.3697E-03     192.921E-03         1.02405    -72.1715E-03        -1.41341     459.256E-03        -1.09052     169.741E-03     195.583E-03     647.124E-03    -277.763E-03    -369.142E-03    -366.804E-03     644.786E-03    -277.763E-03     97.2954E-03     125.468E+06     87.8356E+06    -24.5619E+06    -23.3486E+06     124.255E+06     87.8356E+06     10.1131E+06         92.9179
            2023     12.0608E-03     193.118E-03     894.512E-03    -106.647E-03        -1.59742     46.3134E-03        -1.01988     164.008E-03    -818.510E-03     648.352E-03    -281.680E-03    -363.983E-03    -360.654E-03     645.023E-03    -281.680E-03     114.899E-03     142.075E+06     107.832E+06    -10.6103E+06    -9.76669E+06     141.232E+06     107.832E+06     6.74733E+06         99.5890
            2024     12.7691E-03     193.229E-03         1.87613    -289.855E-03        -1.50879     912.528E-03        -1.01242     177.380E-03    -552.630E-03     640.421E-03    -285.563E-03    -353.602E-03    -349.607E-03     636.426E-03    -285.563E-03     125.620E-03     164.788E+06     125.377E+06    -1.19193E+06    -947.689E+03     164.544E+06     125.377E+06     3.58290E+06         105.361
            2025     820.370E-06     190.059E-03         2.18590    -597.100E-03        -1.26594     141.475E-03     778.480E-03    -597.100E-03         2.47017     403.285E-03    -195.933E-03    -207.352E-03    -206.879E-03     402.812E-03    -195.933E-03     32.3824E-03    -115.655E+06    -121.227E+06    -243.118E+06    -117.839E+06    -242.752E+06    -119.409E+06     3.05229E+06         54.4723
            2026     1.63510E-03     190.703E-03     727.554E-03    -301.779E-03        -1.45784    -629.673E-03    -100.612E-03    -301.779E-03         1.64660     410.911E-03    -200.852E-03    -210.259E-03    -209.091E-03     409.743E-03    -200.852E-03     52.6841E-03    -124.932E+06    -136.151E+06    -246.345E+06    -136.555E+06    -242.969E+06    -127.903E+06     12.6232E+06         55.0801
            2027     2.45108E-03     190.996E-03     347.819E-03    -401.158E-03        -1.88062    -659.154E-03    -873.645E-03    -401.158E-03         1.48447     425.244E-03    -204.086E-03    -222.242E-03    -220.274E-03     423.276E-03    -204.086E-03     70.9978E-03    -123.878E+06    -145.768E+06    -248.634E+06    -153.162E+06    -241.241E+06    -123.878E+06     20.2627E+06         55.9984
            2028     3.25035E-03     191.254E-03     863.155E-03    -282.597E-03        -1.59969     539.165E-03        -1.27570    -282.597E-03     452.904E-03     446.399E-03    -208.856E-03    -237.273E-03    -234.784E-03     443.910E-03    -208.856E-03     82.1211E-03    -112.809E+06    -151.250E+06    -240.575E+06    -162.724E+06    -229.100E+06    -112.809E+06     25.8285E+06         57.1906
            2029     4.04105E-03     191.579E-03         1.59059    -8.11882E-03        -1.72000     921.321E-03        -1.05073    -8.11882E-03         1.25324     468.777E-03    -214.927E-03    -252.007E-03    -249.386E-03     466.155E-03    -214.927E-03     85.7487E-03    -96.9639E+06    -151.232E+06    -230.562E+06    -166.828E+06    -214.965E+06    -96.9639E+06     29.5359E+06         58.6048
            2030     4.81757E-03     191.799E-03         1.07715     161.596E-03        -1.73534     164.810E-03    -823.000E-03     161.596E-03         1.95262     488.234E-03    -221.457E-03    -265.399E-03    -262.916E-03     485.751E-03    -221.457E-03     84.4551E-03    -79.5822E+06    -145.336E+06    -215.983E+06    -161.918E+06    -199.401E+06    -79.5822E+06     29.0415E+06         60.1505
            2031     5.58226E-03     192.104E-03     506.036E-03     165.789E-03        -1.84881    -686.095E-03    -656.677E-03     165.789E-03         1.88442     505.898E-03    -228.392E-03    -276.830E-03    -274.580E-03     503.648E-03    -228.392E-03     81.5284E-03    -61.4965E+06    -131.581E+06    -187.516E+06    -150.657E+06    -168.440E+06    -61.4965E+06     25.2530E+06         61.7838
            2032     6.33581E-03     192.498E-03     238.348E-03    -101.278E-03        -1.53954    -920.380E-03    -576.514E-03     94.4220E-03     974.404E-03     521.127E-03    -235.426E-03    -285.665E-03    -283.594E-03     519.056E-03    -235.426E-03     79.2871E-03    -44.2066E+06    -113.383E+06    -158.472E+06    -136.790E+06    -135.065E+06    -44.2066E+06     19.1596E+06         63.4929
            2033     7.08154E-03     192.842E-03     289.505E-03    -175.402E-03        -1.27369    -762.187E-03    -417.696E-03     20.2983E-03    -696.030E-03     536.249E-03    -241.616E-03    -296.365E-03    -294.409E-03     534.294E-03    -241.616E-03     78.1960E-03    -26.5426E+06    -89.1032E+06    -136.194E+06    -121.951E+06    -103.346E+06    -26.5426E+06     11.9229E+06         65.3223
            2034     7.82021E-03     193.171E-03         1.18390     2.61031E-03        -1.11676     427.416E-03    -360.273E-03     2.61031E-03    -869.148E-03     554.927E-03    -248.112E-03    -308.517E-03    -306.683E-03     553.094E-03    -248.112E-03     77.1418E-03    -6.82950E+06    -52.9780E+06    -112.080E+06    -105.238E+06    -59.8204E+06    -6.82950E+06     4.81861E+06         67.5468
            2035     8.54790E-03     193.524E-03         1.52839     67.2337E-03        -1.02941         1.35828    -859.295E-03     67.2337E-03    -168.643E-03     573.529E-03    -255.017E-03    -320.588E-03    -318.889E-03     571.830E-03    -255.017E-03     76.0410E-03     12.4622E+06    -13.2504E+06    -89.8335E+06    -88.0053E+06    -13.7379E+06     11.1216E+06    -289.888E+03         70.5469
            2036     9.26317E-03     193.854E-03     705.874E-03    -103.201E-03        -1.86374    -288.648E-03        -1.07290     100.474E-03     661.225E-03     592.043E-03    -261.417E-03    -334.739E-03    -333.111E-03     590.415E-03    -261.417E-03     76.5960E-03     38.6228E+06     19.2684E+06    -75.2736E+06    -73.6257E+06     30.3695E+06     25.8738E+06    -2.67450E+06         74.4160
            2037     9.96773E-03     194.221E-03     626.681E-03    -155.373E-03        -1.64014    -573.708E-03    -657.820E-03     62.6969E-03    -32.5506E-03     612.000E-03    -266.686E-03    -347.499E-03    -345.821E-03     610.322E-03    -266.686E-03     79.7587E-03     80.3041E+06     42.1283E+06    -61.7542E+06    -59.9309E+06     78.4808E+06     42.1283E+06    -2.12418E+06         79.0650
            2038     10.6623E-03     194.621E-03     934.715E-03    -118.978E-03    -754.844E-03     544.448E-03    -538.139E-03     54.5851E-03    -439.250E-03     629.273E-03    -273.535E-03    -356.286E-03    -354.471E-03     627.457E-03    -273.535E-03     84.3808E-03     120.018E+06     54.0057E+06    -47.5177E+06    -46.6958E+06     119.197E+06     54.0057E+06    -1.39271E+06         84.4906
            2039     11.3554E-03     194.935E-03     791.844E-03    -80.5686E-03    -926.354E-03     554.673E-03    -848.351E-03     78.5994E-03    -137.604E-03     638.398E-03    -278.788E-03    -358.766E-03    -356.790E-03     636.422E-03    -278.788E-03     88.3208E-03     133.516E+06     59.6102E+06    -38.8928E+06    -38.4577E+06     133.081E+06     59.6102E+06    -4.99506E+06         90.7559
            2040     12.0568E-03     195.186E-03     378.300E-03    -249.566E-03        -2.63567        -1.50575        -1.03871     37.5326E-03        -1.01315     639.216E-03    -282.540E-03    -353.981E-03    -351.329E-03     636.564E-03    -282.540E-03     101.146E-03     138.052E+06     76.0690E+06    -33.3251E+06    -32.8337E+06     137.560E+06     76.0690E+06    -8.07305E+06         97.5886
            2041     12.7685E-03     195.281E-03         5.66750    -195.052E-03        -2.52672         3.82283    -969.149E-03     92.0463E-03    -407.138E-03     632.147E-03    -285.967E-03    -343.477E-03    -340.367E-03     629.037E-03    -285.967E-03     109.573E-03     164.295E+06     101.898E+06    -19.9985E+06    -19.6142E+06     163.911E+06     101.898E+06    -6.90898E+06         104.079
            2042     823.761E-06     191.604E-03         1.48871    -116.935E-03    -469.200E-03     42.6330E-03         1.20266    -342.714E-03    -207.653E-03     394.893E-03    -189.850E-03    -204.889E-03    -204.172E-03     394.176E-03    -189.850E-03     40.4422E-03    -155.627E+06    -165.633E+06    -272.362E+06    -168.805E+06    -265.436E+06    -159.381E+06     18.0646E+06         55.0664
            2043     1.64779E-03     192.248E-03         1.06800     56.0430E-03    -790.522E-03    -70.9347E-03     425.828E-03    -21.3764E-03     817.534E-03     412.196E-03    -198.863E-03    -213.457E-03    -212.137E-03     410.877E-03    -198.863E-03     56.8299E-03    -178.922E+06    -191.825E+06    -288.737E+06    -205.082E+06    -272.509E+06    -181.893E+06     31.0049E+06         55.9666
            2044     2.44588E-03     192.660E-03     821.608E-03     92.5869E-03        -1.33598    -159.932E-03    -354.436E-03     92.5869E-03     288.117E-03     438.524E-03    -205.891E-03    -232.311E-03    -230.598E-03     436.811E-03    -205.891E-03     67.1794E-03    -175.653E+06    -195.047E+06    -284.166E+06    -220.657E+06    -258.556E+06    -175.653E+06     36.5468E+06         57.1041
            2045     3.23896E-03     192.897E-03     993.182E-03     219.739E-03        -1.24349     556.795E-03    -807.105E-03     219.739E-03     477.089E-03     465.614E-03    -214.828E-03    -250.278E-03    -248.799E-03     464.135E-03    -214.828E-03     61.4185E-03    -160.261E+06    -194.898E+06    -269.360E+06    -221.204E+06    -243.055E+06    -160.261E+06     33.2902E+06         58.4086
            2046     4.00916E-03     193.247E-03         1.32073     350.175E-03        -1.31147     570.274E-03    -561.011E-03     350.175E-03         1.27235     485.916E-03    -224.153E-03    -262.861E-03    -261.812E-03     484.867E-03    -224.153E-03     47.9438E-03    -140.750E+06    -188.027E+06    -243.085E+06    -209.724E+06    -221.388E+06    -140.750E+06     25.7201E+06         59.8350
            2047     4.77068E-03     193.523E-03     940.031E-03     343.603E-03        -1.30030    -95.3609E-03    -264.909E-03     343.603E-03     613.375E-03     501.745E-03    -231.843E-03    -269.810E-03    -269.046E-03     500.980E-03    -231.843E-03     37.1444E-03    -120.806E+06    -177.559E+06    -213.022E+06    -192.229E+06    -198.352E+06    -120.806E+06     15.0944E+06         61.2946
            2048     5.52464E-03     193.843E-03     781.222E-03     261.400E-03        -1.22497    -161.057E-03    -282.686E-03     261.400E-03     618.455E-03     513.177E-03    -238.832E-03    -276.201E-03    -275.573E-03     512.549E-03    -238.832E-03     31.8451E-03    -101.021E+06    -156.240E+06    -185.135E+06    -172.611E+06    -168.764E+06    -101.021E+06     3.56814E+06         62.7346
            2049     6.27138E-03     194.210E-03     567.462E-03     81.4322E-03        -1.09434    -223.107E-03    -423.745E-03     201.407E-03     183.578E-03     526.100E-03    -246.304E-03    -280.990E-03    -280.431E-03     525.541E-03    -246.304E-03     30.2917E-03    -80.5065E+06    -127.380E+06    -160.590E+06    -152.393E+06    -135.576E+06    -80.5065E+06    -5.45836E+06         64.1223
            2050     7.01352E-03     194.566E-03     265.994E-03    -48.9998E-03        -1.44805        -1.04868    -311.418E-03     129.044E-03     215.058E-03     539.401E-03    -251.613E-03    -286.547E-03    -286.025E-03     538.879E-03    -251.613E-03     30.8189E-03    -60.4052E+06    -96.7667E+06    -138.655E+06    -132.101E+06    -103.321E+06    -60.4052E+06    -11.6749E+06         65.5600
            2051     7.74893E-03     194.939E-03     555.801E-03    -30.7596E-03        -1.41032    -849.839E-03    -83.4741E-03     48.0328E-03    -377.104E-03     552.501E-03    -256.224E-03    -295.975E-03    -295.477E-03     552.003E-03    -256.224E-03     32.9888E-03    -36.4300E+06    -60.1692E+06    -120.552E+06    -115.236E+06    -60.5119E+06    -41.4026E+06    -16.4627E+06         67.3499
            2052     8.47722E-03     195.315E-03         1.34175     30.0199E-03    -653.832E-03     744.550E-03    -77.3526E-03     50.7438E-03        -1.11564     565.403E-03    -261.430E-03    -305.342E-03    -304.801E-03     564.863E-03    -261.430E-03     38.2922E-03    -9.70297E+06    -30.9254E+06    -108.367E+06    -103.736E+06    -19.2259E+06    -26.0335E+06    -19.1683E+06         69.8087
            2053     9.20041E-03     195.687E-03         1.01073     57.1405E-03        -1.31609     5.30322E-03    -332.396E-03     78.8765E-03     55.3107E-03     577.626E-03    -267.260E-03    -315.064E-03    -314.385E-03     576.947E-03    -267.260E-03     46.4662E-03     28.4613E+06    -13.0847E+06    -99.9371E+06    -95.9908E+06     24.5150E+06    -13.0847E+06    -21.2260E+06         73.1056
            2054     9.91152E-03     196.145E-03     543.684E-03     19.1746E-03        -1.59362    -374.210E-03    -711.858E-03     55.3053E-03     356.979E-03     594.949E-03    -271.835E-03    -324.487E-03    -323.589E-03     594.050E-03    -271.835E-03     55.6596E-03     67.8223E+06    -437.209E+03    -95.8642E+06     -92.476E+06     64.4341E+06    -437.209E+03    -22.9758E+06         77.2652
            2055     10.6213E-03     196.552E-03     563.042E-03    -125.072E-03    -917.144E-03     320.290E-03    -847.954E-03     48.4908E-03    -273.357E-03     612.597E-03    -276.502E-03    -332.333E-03    -331.225E-03     611.489E-03    -276.502E-03     63.1173E-03     104.979E+06     7.21346E+06    -95.3091E+06    -92.9227E+06     102.593E+06     7.21346E+06    -20.4005E+06         82.3244
            2056     11.3304E-03     196.852E-03     307.951E-03    -104.302E-03    -959.146E-03    -165.719E-03    -644.644E-03     54.8659E-03     302.632E-03     622.997E-03    -281.232E-03    -337.222E-03    -336.025E-03     621.800E-03    -281.232E-03     66.6736E-03     132.814E+06     11.6282E+06    -96.3894E+06    -95.3981E+06     131.823E+06     11.6282E+06    -13.5750E+06         88.3504
            2057     12.0383E-03     197.117E-03     330.168E-03    -271.969E-03        -2.65575        -2.21414    -369.795E-03    -13.6127E-03     277.275E-03     621.683E-03    -284.470E-03    -335.719E-03    -334.037E-03     620.002E-03    -284.470E-03     78.8916E-03     138.321E+06     23.3387E+06    -99.7778E+06    -99.2546E+06     137.798E+06     23.3387E+06    -9.57315E+06         95.2938
            2058     12.7583E-03     197.254E-03         5.57995    -216.094E-03        -2.44255         3.22872    -332.837E-03     25.4128E-03    -188.629E-03     613.844E-03    -286.632E-03    -326.432E-03    -324.121E-03     611.534E-03    -286.632E-03     92.9096E-03     147.500E+06     46.5154E+06    -97.0898E+06    -96.6676E+06     147.078E+06     46.5154E+06    -6.15519E+06         102.524
            2059     830.871E-06     193.099E-03         1.00682     120.793E-03    -824.598E-03     656.663E-03    -93.8220E-03    -259.830E-03    -992.756E-03     395.046E-03    -189.019E-03    -205.890E-03    -202.250E-03     394.022E-03    -191.635E-03     48.2162E-03    -252.140E+06    -277.915E+06    -340.816E+06    -278.583E+06    -309.475E+06    -282.812E+06     17.9328E+06         56.6429
            2060     1.63373E-03     193.802E-03     722.770E-03     459.431E-03        -1.13706     594.743E-03    -931.618E-03     382.012E-03    -157.078E-03     434.291E-03    -205.848E-03    -230.400E-03    -229.216E-03     433.107E-03    -205.848E-03     52.6388E-03    -264.726E+06    -316.443E+06    -375.107E+06    -328.192E+06    -304.955E+06    -323.130E+06     17.3506E+06         57.9523
            2061     2.42742E-03     194.292E-03     978.615E-03     496.931E-03        -1.42081     658.755E-03        -1.10095     496.931E-03    -768.048E-03     477.076E-03    -221.138E-03    -256.364E-03    -255.446E-03     476.157E-03    -221.138E-03     27.0279E-03    -244.112E+06    -322.836E+06    -371.567E+06    -343.440E+06    -276.784E+06    -318.291E+06     1.17424E+06         59.3411
            2062     3.18264E-03     194.667E-03         1.31179     491.475E-03        -1.23624     357.889E-03    -282.337E-03     491.475E-03     81.4108E-03     506.519E-03    -235.560E-03    -269.782E-03    -268.686E-03     505.424E-03    -235.560E-03    -9.97365E-03    -206.787E+06    -297.999E+06    -353.707E+06    -326.878E+06    -246.974E+06    -284.641E+06    -17.6800E+06         60.6691
            2063     3.92387E-03     195.016E-03         1.21274     383.665E-03        -1.21020    -312.658E-03     315.202E-03     383.665E-03     861.726E-03     520.275E-03    -247.572E-03    -272.911E-03    -271.415E-03     518.779E-03    -247.572E-03    -36.9973E-03    -172.973E+06    -267.722E+06    -327.676E+06    -300.267E+06    -220.435E+06    -247.668E+06    -35.2971E+06         61.8850
            2064     4.66669E-03     195.293E-03         1.00685     234.624E-03        -1.21207    -466.340E-03     261.118E-03     234.624E-03    -19.7604E-03     527.769E-03    -253.830E-03    -272.589E-03    -268.866E-03     526.039E-03    -255.823E-03    -49.4137E-03    -141.548E+06    -239.076E+06    -298.249E+06    -270.576E+06    -192.898E+06    -215.399E+06    -49.1490E+06         62.9767
            2065     5.40754E-03     195.634E-03     949.339E-03     155.309E-03    -985.966E-03     174.362E-03    -210.990E-03     155.309E-03    -417.502E-03     532.348E-03    -254.859E-03    -275.102E-03    -267.152E-03     530.648E-03    -261.109E-03    -51.8013E-03    -113.946E+06    -208.023E+06    -276.572E+06    -242.536E+06    -168.123E+06    -187.881E+06    -60.5581E+06         63.9911
            2066     6.14792E-03     195.975E-03     938.112E-03     178.029E-03    -955.829E-03     789.886E-03    -807.603E-03     178.029E-03    -574.651E-03     536.843E-03    -255.838E-03    -278.772E-03    -266.441E-03     535.403E-03    -266.729E-03    -47.6338E-03    -90.0884E+06    -177.743E+06    -258.092E+06    -217.235E+06    -144.645E+06    -164.043E+06    -67.9740E+06         64.8860
            2067     6.88832E-03     196.316E-03     534.307E-03    -6.04997E-03        -1.33268    -92.7934E-03    -908.044E-03     196.417E-03     554.947E-03     541.502E-03    -257.318E-03    -281.202E-03    -267.567E-03     540.477E-03    -269.927E-03    -38.7422E-03    -70.6476E+06    -153.899E+06    -237.751E+06    -196.499E+06    -120.407E+06    -145.392E+06    -69.3960E+06         65.8315
            2068     7.62615E-03     196.687E-03     119.483E-03    -219.893E-03        -1.48725        -1.15124    -555.898E-03     119.483E-03     331.268E-03     547.206E-03    -259.855E-03    -286.328E-03    -272.189E-03     546.559E-03    -273.347E-03    -27.5612E-03    -42.9041E+06    -127.322E+06    -216.242E+06    -180.094E+06    -81.3643E+06    -125.010E+06    -68.7398E+06         67.1059
            2069     8.36105E-03     197.075E-03     856.152E-03    -88.5096E-03    -759.700E-03    -5.50008E-03    -34.9562E-03     48.3987E-03    -973.337E-03     555.692E-03    -263.686E-03    -292.040E-03    -278.180E-03     555.281E-03    -277.135E-03    -14.8407E-03    -15.5278E+06    -100.775E+06    -197.335E+06    -167.165E+06    -45.6984E+06    -100.775E+06    -65.6892E+06         68.8605
            2070     9.09145E-03     197.513E-03         1.02319     17.5976E-03    -674.220E-03     192.354E-03     134.883E-03     39.3336E-03        -1.31142     563.219E-03    -268.195E-03    -296.018E-03    -283.205E-03     562.914E-03    -280.703E-03    -1.50497E-03     16.4170E+06    -82.0830E+06    -181.017E+06    -158.756E+06    -5.84373E+06    -82.0830E+06    -58.5140E+06         71.3999
            2071     9.81774E-03     197.972E-03     851.525E-03     21.3653E-03    -901.721E-03     112.336E-03    -179.777E-03     38.6100E-03    -956.012E-03     570.772E-03    -272.172E-03    -299.950E-03    -288.422E-03     570.486E-03    -283.413E-03     11.6505E-03     52.4929E+06    -60.9625E+06    -166.751E+06    -153.245E+06     38.9871E+06    -60.9625E+06    -49.4308E+06         74.9116
            2072     10.5434E-03     198.391E-03         1.11341     78.2867E-03    -641.640E-03     978.162E-03    -501.899E-03     73.7955E-03    -552.675E-03     580.473E-03    -275.785E-03    -303.859E-03    -294.369E-03     580.141E-03    -284.943E-03     25.4596E-03     77.1682E+06    -43.4623E+06    -154.120E+06    -147.357E+06     70.4058E+06    -43.4623E+06    -36.9904E+06         79.4270
            2073     11.2711E-03     198.738E-03     556.243E-03     28.3553E-03        -1.46658    -460.803E-03    -515.862E-03     94.6827E-03     824.377E-03     588.685E-03    -279.714E-03    -307.679E-03    -299.505E-03     588.185E-03    -287.388E-03     39.7821E-03     101.889E+06    -37.8585E+06    -141.634E+06    -139.257E+06     99.5121E+06    -37.8585E+06    -20.9256E+06         85.0963
            2074     12.0037E-03     199.029E-03     911.915E-03    -11.8143E-03        -2.08873    -944.523E-03    -298.622E-03     54.5131E-03         1.30493     590.308E-03    -282.983E-03    -306.614E-03    -300.662E-03     589.306E-03    -287.933E-03     58.0479E-03     123.496E+06    -23.4599E+06    -131.424E+06    -130.936E+06     123.008E+06    -23.4599E+06    -5.83808E+06         92.1169
            2075     12.7438E-03     199.224E-03         1.78062    -78.2810E-03        -3.91976        -2.09960    -96.7213E-03    -21.1007E-03    -172.436E-03     585.364E-03    -282.981E-03    -301.322E-03    -295.014E-03     583.678E-03    -287.603E-03     76.2833E-03     129.805E+06     1.10235E+06    -126.389E+06    -126.186E+06     129.602E+06     1.10235E+06     4.39075E+06         100.161
            2076     821.956E-06     194.644E-03     906.115E-03     262.487E-03        -2.35100     276.278E-03        -1.84855     389.867E-03    -870.037E-03     434.801E-03    -205.210E-03    -230.439E-03    -226.373E-03     433.351E-03    -207.826E-03     30.6925E-03    -301.079E+06    -361.648E+06    -419.485E+06    -390.346E+06    -319.069E+06    -372.798E+06     18.9018E+06         59.4709
            2077     1.61045E-03     195.502E-03     596.362E-03     173.585E-03        -1.89448     188.320E-03        -1.57360     260.748E-03    -425.344E-03     504.302E-03    -241.812E-03    -263.628E-03    -255.307E-03     500.279E-03    -246.110E-03    -42.8095E-03    -286.540E+06    -410.375E+06    -437.396E+06    -417.502E+06    -292.710E+06    -424.098E+06    -19.4735E+06         61.3416
            2078     2.32198E-03     195.998E-03         1.10895     129.638E-03        -1.54152     849.350E-03        -1.28192     129.638E-03        -1.21117     552.558E-03    -258.265E-03    -292.941E-03    -269.084E-03     543.565E-03    -273.130E-03    -126.280E-03    -229.344E+06    -380.693E+06    -413.859E+06    -392.689E+06    -247.495E+06    -383.712E+06    -52.3256E+06         62.9355
            2079     3.02663E-03     196.449E-03         1.99810     178.410E-03        -1.60689     971.858E-03    -580.649E-03     178.410E-03         1.41864     571.946E-03    -264.416E-03    -304.532E-03    -265.582E-03     558.740E-03    -290.160E-03    -179.129E-03    -177.922E+06    -337.279E+06    -391.805E+06    -359.548E+06    -210.180E+06    -337.279E+06    -75.5625E+06         64.0721
            2080     3.73954E-03     196.792E-03         1.97978     214.281E-03        -1.66406     333.004E-03    -17.2896E-03     214.281E-03         2.08713     572.608E-03    -265.209E-03    -306.342E-03    -255.818E-03     557.021E-03    -300.146E-03    -201.980E-03    -137.821E+06    -294.067E+06    -372.796E+06    -327.393E+06    -183.224E+06    -294.067E+06     -92.362E+06         64.8083
            2081     4.46437E-03     197.107E-03         1.03498     22.5386E-03        -1.27231    -390.494E-03     14.4636E-03     161.243E-03     497.095E-03     564.983E-03    -260.173E-03    -305.379E-03    -244.788E-03     548.989E-03    -304.769E-03    -204.735E-03    -106.168E+06    -261.611E+06    -357.005E+06    -300.342E+06    -162.831E+06    -261.611E+06    -104.630E+06         65.2807
            2082     5.19267E-03     197.452E-03         1.05642    -44.8064E-03        -1.28807    -145.704E-03    -224.645E-03     93.8977E-03    -997.027E-03     558.745E-03    -251.669E-03    -304.723E-03    -236.616E-03     543.691E-03    -304.723E-03    -197.100E-03    -81.3166E+06    -236.291E+06    -342.852E+06    -278.228E+06    -145.941E+06    -236.291E+06    -112.762E+06         65.6128
            2083     5.93212E-03     197.761E-03         1.43297     119.936E-03        -1.15946     852.443E-03    -578.936E-03     119.936E-03        -1.64874     551.194E-03    -244.151E-03    -304.641E-03    -230.994E-03     538.038E-03    -304.641E-03    -181.657E-03    -65.2052E+06    -218.065E+06    -331.814E+06    -262.622E+06    -134.397E+06    -218.065E+06    -116.852E+06         65.8577
            2084     6.67727E-03     198.107E-03         1.17420     31.8933E-03    -907.488E-03     448.113E-03    -325.799E-03     176.292E-03     364.319E-03     543.520E-03    -237.868E-03    -304.269E-03    -226.895E-03     532.548E-03    -304.269E-03    -161.654E-03    -52.4405E+06    -205.049E+06    -321.897E+06    -250.682E+06    -123.656E+06    -205.049E+06    -118.783E+06         66.1577
            2085     7.42162E-03     198.487E-03     641.272E-03    -129.126E-03        -1.33791    -934.110E-03    -23.1105E-03     131.457E-03         1.00888     539.171E-03    -233.218E-03    -304.585E-03    -224.473E-03     530.425E-03    -304.585E-03    -139.924E-03    -31.5957E+06    -189.232E+06    -305.244E+06    -238.147E+06    -98.6925E+06    -189.232E+06    -117.535E+06         66.6450
            2086     8.16875E-03     198.871E-03     483.832E-03    -83.4419E-03        -1.08243    -568.968E-03    -162.138E-03     49.0615E-03     71.0111E-03     535.693E-03    -232.317E-03    -303.820E-03    -225.885E-03     529.262E-03    -303.820E-03    -116.584E-03    -16.0616E+06    -168.696E+06    -285.506E+06    -227.180E+06    -74.3885E+06    -168.696E+06    -110.812E+06         67.5533
            2087     8.90960E-03     199.325E-03     611.520E-03     15.6018E-03    -994.934E-03     78.6631E-03    -478.395E-03     31.9207E-03    -809.321E-03     535.878E-03    -232.456E-03    -302.100E-03    -227.932E-03     531.354E-03    -302.100E-03    -94.6403E-03    -739.277E+03    -150.532E+06    -265.936E+06    -217.547E+06    -49.1280E+06    -150.532E+06    -101.619E+06         69.2430
            2088     9.64901E-03     199.828E-03     809.100E-03     60.2245E-03    -914.914E-03     247.054E-03    -348.377E-03     55.7333E-03    -540.176E-03     532.391E-03    -231.835E-03    -300.843E-03    -229.012E-03     529.567E-03    -300.843E-03    -70.0271E-03     23.1240E+06    -128.895E+06    -241.606E+06    -205.823E+06    -12.6595E+06    -128.895E+06    -88.0070E+06         71.8772
            2089     10.4049E-03     200.234E-03         1.38965     116.619E-03    -401.443E-03         1.04725    -54.5546E-03     112.127E-03    -671.681E-03     529.305E-03    -232.370E-03    -298.923E-03    -231.148E-03     528.082E-03    -298.923E-03    -36.9361E-03     39.4160E+06    -106.025E+06    -215.478E+06    -192.947E+06     16.8846E+06    -106.025E+06    -68.6473E+06         75.4937
            2090     11.1692E-03     200.590E-03     930.132E-03    -61.3413E-03        -1.97576    -857.346E-03    -367.097E-03     117.470E-03    -545.653E-03     532.342E-03    -235.824E-03    -296.755E-03    -235.461E-03     531.979E-03    -296.755E-03     381.394E-06     60.2966E+06    -87.7739E+06    -190.773E+06    -178.719E+06     48.2427E+06    -87.7739E+06    -48.8855E+06         80.4150
            2091     11.9451E-03     200.829E-03         2.35704    -76.6797E-03        -2.28784     712.287E-03    -821.897E-03     102.132E-03         1.03995     537.103E-03    -242.920E-03    -293.068E-03    -242.365E-03     536.548E-03    -293.068E-03     36.2055E-03     82.1594E+06    -65.3681E+06    -169.810E+06    -164.717E+06     77.0656E+06    -65.3681E+06    -26.9341E+06         87.1721
            2092     12.7107E-03     201.092E-03         2.26518    -132.892E-03        -6.47504        -3.64174    -711.275E-03     10.2638E-03         1.70825     541.823E-03    -250.122E-03    -289.970E-03    -248.784E-03     540.485E-03    -289.970E-03     64.1538E-03     100.326E+06    -39.3237E+06    -151.466E+06    -149.942E+06     98.8021E+06    -39.3237E+06    -7.38072E+06         96.0981
            2093     804.898E-06     196.036E-03         2.03672    -609.966E-03        -3.79936    -128.471E-03        -1.38721    -856.927E-03        -3.49962     670.854E-03    -276.124E-03    -395.247E-03    -251.034E-03     628.260E-03    -377.743E-03    -288.142E-03    -300.130E+06    -438.120E+06    -494.556E+06    -445.895E+06    -340.848E+06    -446.062E+06    -27.3175E+06         63.6173
            2094     1.39455E-03     197.127E-03         1.36623    -804.239E-03        -2.67195     526.433E-03    -996.233E-03        -1.64016        -1.53545     695.741E-03    -264.962E-03    -429.966E-03    -194.019E-03     623.415E-03    -428.583E-03    -428.941E-03    -216.347E+06    -389.962E+06    -408.877E+06    -380.138E+06    -245.085E+06    -389.962E+06    -59.4243E+06         65.7133
            2095     2.04901E-03     197.631E-03         1.96648    -378.391E-03        -1.98643         1.66794    -711.659E-03        -1.35462        -1.39978     694.453E-03    -253.603E-03    -436.208E-03    -172.173E-03     613.022E-03    -436.208E-03    -477.211E-03    -143.044E+06    -314.287E+06    -349.605E+06    -314.590E+06    -178.059E+06    -314.287E+06    -76.3699E+06         67.3056
            2096     2.69425E-03     198.174E-03         3.02638    -15.0917E-03        -1.43611         2.55972    -387.121E-03    -597.425E-03         1.62512     675.928E-03    -248.820E-03    -424.430E-03    -171.855E-03     598.963E-03    -424.430E-03    -473.990E-03    -93.2018E+06    -267.651E+06    -315.905E+06    -271.722E+06    -137.385E+06    -267.651E+06    -88.5204E+06         68.0653
            2097     3.38853E-03     198.547E-03         3.14964     56.1143E-03        -1.72960         1.98944    -569.405E-03     56.1143E-03         3.26619     654.454E-03    -246.015E-03    -410.586E-03    -175.583E-03     584.022E-03    -410.586E-03    -457.924E-03    -62.0133E+06    -238.128E+06    -298.434E+06    -247.527E+06    -112.920E+06    -238.128E+06    -97.1053E+06         68.1700
            2098     4.09217E-03     198.920E-03         1.75583     179.626E-03        -1.98632     136.413E-03    -505.607E-03     318.330E-03         2.55801     634.664E-03    -239.710E-03    -396.807E-03    -175.837E-03     570.791E-03    -396.807E-03    -435.725E-03    -46.3927E+06    -218.970E+06    -292.495E+06    -236.666E+06    -102.222E+06    -218.970E+06    -102.930E+06         67.9268
            2099     4.82002E-03     199.218E-03         1.18987     158.343E-03        -1.88474    -502.778E-03    -330.796E-03     297.048E-03     755.779E-03     613.034E-03    -230.582E-03    -383.382E-03    -172.928E-03     555.380E-03    -383.382E-03    -408.768E-03    -36.9991E+06    -205.136E+06    -290.400E+06    -231.665E+06    -95.7346E+06    -205.136E+06    -106.690E+06         67.5286
            2100     5.56449E-03     199.523E-03         1.58456     272.207E-03        -1.32345    -5.54009E-03     266.652E-03     272.207E-03    -177.435E-03     589.443E-03    -220.025E-03    -370.731E-03    -167.969E-03     537.387E-03    -370.731E-03    -379.815E-03    -30.9000E+06    -194.688E+06    -289.811E+06    -229.201E+06    -91.5101E+06    -194.688E+06    -109.320E+06         67.0936
            2101     6.31028E-03     199.868E-03         1.53421     283.010E-03    -652.472E-03    -41.0444E-03     922.783E-03     283.010E-03     765.832E-03     569.403E-03    -207.886E-03    -361.749E-03    -160.153E-03     521.669E-03    -361.749E-03    -354.190E-03    -23.7562E+06    -186.143E+06    -289.840E+06    -227.114E+06    -86.4819E+06    -186.143E+06    -112.430E+06         66.6978
            2102     7.06058E-03     200.243E-03     884.651E-03     90.6634E-03        -1.17482    -901.216E-03     465.817E-03     235.896E-03     737.070E-03     550.252E-03    -194.429E-03    -354.500E-03    -150.406E-03     506.229E-03    -354.500E-03    -328.610E-03    -18.2282E+06    -181.691E+06    -291.144E+06    -228.858E+06    -80.5136E+06    -181.691E+06    -114.084E+06         66.4035
            2103     7.82976E-03     200.604E-03     293.574E-03    -21.1398E-03        -1.69332    -969.626E-03    -591.674E-03     140.411E-03    -477.844E-03     528.112E-03    -180.261E-03    -346.249E-03    -141.089E-03     488.941E-03    -346.249E-03    -296.193E-03    -12.8736E+06    -177.842E+06    -288.469E+06    -230.018E+06    -71.3252E+06    -177.842E+06    -112.482E+06         66.4581
            2104     8.59446E-03     201.047E-03     204.753E-03    -45.7634E-03        -1.54378    -217.579E-03        -1.25008     82.8656E-03        -1.04292     506.574E-03    -165.397E-03    -338.352E-03    -133.037E-03     474.214E-03    -338.352E-03    -257.000E-03    -2.48686E+06    -168.892E+06    -278.603E+06    -225.721E+06    -55.3685E+06    -168.892E+06    -108.404E+06         67.2318
            2105     9.36741E-03     201.513E-03     939.547E-03    -16.2162E-03        -1.22250     527.839E-03    -923.107E-03     96.0938E-03     476.466E-03     484.009E-03    -152.354E-03    -330.724E-03    -128.156E-03     459.810E-03    -330.724E-03    -211.356E-03     4.87824E+06    -161.680E+06    -269.874E+06    -225.005E+06    -39.9907E+06    -161.680E+06    -101.268E+06         68.9546
            2106     10.1704E-03     201.937E-03         1.61533     158.144E-03    -938.066E-03     907.776E-03    -230.510E-03     158.144E-03     764.311E-03     466.566E-03    -143.561E-03    -322.406E-03    -127.263E-03     450.268E-03    -322.406E-03    -160.762E-03     10.6408E+06    -153.753E+06    -261.673E+06    -227.145E+06    -23.8873E+06    -153.753E+06    -90.1456E+06         71.6281
            2107     11.0023E-03     202.265E-03         1.32825     16.3183E-03        -2.53250        -1.61988     303.148E-03     128.802E-03        -1.12301     455.341E-03    -140.715E-03    -312.996E-03    -131.148E-03     445.774E-03    -312.996E-03    -106.253E-03     23.4185E+06    -136.117E+06    -249.056E+06    -226.206E+06     569.071E+03    -136.117E+06    -74.5440E+06         75.6076
            2108     11.8386E-03     202.612E-03         3.62899     210.800E-03        -2.32839         1.11270     303.659E-03     95.0350E-03    -469.215E-03     450.555E-03    -146.510E-03    -303.742E-03    -141.846E-03     445.890E-03    -303.742E-03    -50.3967E-03     41.7435E+06    -111.467E+06    -230.504E+06    -218.821E+06     30.0603E+06    -111.467E+06    -53.2961E+06         81.7736
            2109     12.6840E-03     202.829E-03         3.08637    -98.1611E-03        -6.93127        -3.08102    -887.770E-03     25.7315E-03        -1.08517     459.837E-03    -163.506E-03    -295.590E-03    -161.635E-03     457.967E-03    -295.590E-03     7.47914E-03     54.2098E+06    -95.7148E+06    -212.709E+06    -209.398E+06     50.8989E+06    -95.7148E+06    -23.8740E+06         91.1814


