********************************************************************************
Field Output Report, written Tue May  6 20:17:43 2025

Source 1
---------

   ODB: D:/AISI_1020/Vel_10/1020_2a_8_rd_150_cal_100_v_10_fric_025.odb
   Step: Step-1
   Frame: Increment   6509912: Step Time =   0.9142

Loc 1 : Nodal values from source 1

Output sorted by column "Node Label".

Field Output reported at nodes for region: DIE_2A_8_D0_36-1.Region_1
   Computation algorithm: EXTRAPOLATE_COMPUTE_AVERAGE
   Averaged at nodes
   Averaging regions: ODB_REGIONS

      Node Label     COORD.COOR1     COORD.COOR2
                          @Loc 1          @Loc 1
-------------------------------------------------
               1     18.9668E-03     109.991E-03


Field Output reported at nodes for region: DIE_2A_8_D0_36-1.Region_2
   Computation algorithm: EXTRAPOLATE_COMPUTE_AVERAGE
   Averaged at nodes
   Averaging regions: ODB_REGIONS

      Node Label     COORD.COOR1     COORD.COOR2
                          @Loc 1          @Loc 1
-------------------------------------------------
               1     18.9668E-03     109.991E-03


Field Output reported at nodes for part: WIRE_1-1
   Computation algorithm: EXTRAPOLATE_COMPUTE_AVERAGE
   Averaged at nodes
   Averaging regions: ODB_REGIONS

      Node Label     COORD.COOR1     COORD.COOR2    ER.Max. Prin    ER.Mid. Prin    ER.Min. Prin         ER.ER11         ER.ER22         ER.ER33         ER.ER12    PE.Max. Prin    PE.Mid. Prin    PE.Min. Prin         PE.PE11         PE.PE22         PE.PE33         PE.PE12     S.Max. Prin     S.Mid. Prin     S.Min. Prin           S.S11           S.S22           S.S33           S.S12            TEMP
                          @Loc 1          @Loc 1          @Loc 1          @Loc 1          @Loc 1          @Loc 1          @Loc 1          @Loc 1          @Loc 1          @Loc 1          @Loc 1          @Loc 1          @Loc 1          @Loc 1          @Loc 1          @Loc 1          @Loc 1          @Loc 1          @Loc 1          @Loc 1          @Loc 1          @Loc 1          @Loc 1          @Loc 1
-----------------------------------------------------------------------------------------------------------------------------------------------------------------------------------------------------------------------------------------------------------------------------------------------------------------------------------------------------------------------------------------------------------------
               1     17.7137E-03     56.9582E-03         3.67757     639.229E-03        -2.31067        -2.23896         3.60586     639.229E-03         1.00351     32.2397E-03    -15.5193E-03    -16.7204E-03    -14.5597E-03     31.2801E-03    -16.7204E-03     13.3740E-03     210.781E+06     143.928E+06    -3.57053E+06    -3.57034E+06     210.780E+06     143.928E+06     146.971E+03         39.9038
               2     140.766E-09     56.7492E-03         10.9109        -2.16992        -8.16814        -2.54964         7.51387        -4.39136        -8.68386     33.5552E-03    -16.7193E-03    -16.8359E-03    -16.8323E-03     33.5516E-03    -16.7193E-03     847.410E-06    -18.9275E+06    -20.0586E+06    -230.192E+06    -19.7256E+06    -230.191E+06    -19.2607E+06    -194.618E+03         22.5922
               3     367.921E-09    -69.3889E-18         10.8038         6.03505        -18.8457         9.89882        -17.9408         6.03505        -10.2005     67.0044E-03    -33.3506E-03    -33.6538E-03    -33.6535E-03     67.0042E-03    -33.3506E-03     301.755E-06    -33.1950E+06    -33.4716E+06    -235.656E+06    -33.1951E+06    -235.656E+06    -33.4716E+06     101.466E+03         28.7240
               4     17.5850E-03    -69.3889E-18     997.295E-03     995.636E-03        -2.81521     693.657E-03        -2.51157     995.636E-03        -2.06439     60.4064E-03    -22.2815E-03    -38.1249E-03    -31.4064E-03     53.6879E-03    -22.2815E-03     49.6726E-03     219.731E+06     124.133E+06     3.17493E+06     3.20481E+06     219.701E+06     124.133E+06     2.54370E+06         41.8393
               5     17.6464E-03     114.137E-03         2.41656    -628.538E-03    -985.316E-03     989.917E-03     798.103E-03    -985.316E-03        -3.03905     11.5537E-03     6.61807E-03    -18.1718E-03     8.93392E-03     9.23785E-03    -18.1718E-03     4.92626E-03     19.9605E+06    -141.645E+06    -179.151E+06    -108.603E+06    -50.5875E+06    -141.645E+06     95.2361E+06         73.7937
               6     905.866E-09     113.248E-03         6.38563        -2.52684        -5.45006        -2.42494         6.28373        -5.45006         1.89507     19.0695E-03    -9.42296E-03    -9.64659E-03    -9.64594E-03     19.0689E-03    -9.42296E-03    -272.974E-06     1.02764E+06    -7.81845E+06    -13.2442E+06    -12.1923E+06    -24.3032E+03    -7.81845E+06    -3.72914E+06         20.9822
               7     16.7285E-03     56.9427E-03         3.17842     714.937E-03        -2.05331        -1.95997         3.08508     714.937E-03     217.595E-03     35.1595E-03    -15.8579E-03    -19.3016E-03    -14.9683E-03     31.4268E-03    -16.4585E-03     25.3355E-03     199.466E+06     86.5938E+06    -6.71867E+06    -6.71210E+06     199.459E+06     86.5938E+06    -683.338E+03         38.9262
               8     15.7438E-03     56.9046E-03         2.19687     856.912E-03        -1.54318        -1.45050         2.10418     856.912E-03    -664.173E-03     36.8780E-03    -16.0233E-03    -20.8548E-03    -15.5380E-03     31.5612E-03    -16.0233E-03     33.2107E-03     165.361E+06     11.3548E+06    -31.1935E+06    -8.19404E+06     165.347E+06    -11.6303E+06    -984.192E+03         36.8891
               9     14.7597E-03     56.8746E-03         1.94642     988.508E-03        -1.69183        -1.29861         1.54735     994.367E-03    -966.392E-03     34.7680E-03    -15.9491E-03    -18.8190E-03    -15.7440E-03     31.6931E-03    -15.9491E-03     24.5815E-03     97.7592E+06    -5.55048E+06    -47.8262E+06    -5.51098E+06     97.7197E+06    -47.8262E+06     202.275E+03         34.7342
              10     13.7747E-03     56.8540E-03         1.78413     805.327E-03        -1.51880    -482.922E-03     434.109E-03         1.11947     95.0021E-03     33.6141E-03    -16.1489E-03    -17.4652E-03    -15.8910E-03     32.0399E-03    -16.1489E-03     17.4756E-03     27.9688E+06    -3.77189E+06    -32.0504E+06    -3.65888E+06     27.8558E+06    -32.0504E+06     490.022E+03         32.5694
              11     12.7906E-03     56.8385E-03         2.61230     827.823E-03        -2.49386         2.03657        -2.22641         1.13611    -357.408E-03     33.2557E-03    -16.3022E-03    -16.9535E-03    -16.0476E-03     32.3498E-03    -16.3022E-03     13.2662E-03     1.12548E+06    -7.56825E+06    -27.0336E+06    -1.79206E+06    -15.1281E+06    -16.5561E+06     398.510E+03         30.5159
              12     11.8063E-03     56.8266E-03         4.12304     969.345E-03        -4.20483         4.01107        -4.09286     969.345E-03    -411.808E-03     33.2349E-03    -16.3947E-03    -16.8402E-03    -16.1569E-03     32.5516E-03    -16.3947E-03     11.6187E-03    -356.097E+03    -10.0964E+06    -50.1865E+06    -364.397E+03    -50.1782E+06    -10.0964E+06     522.710E+03         28.6771
              13     10.8222E-03     56.8145E-03         4.09386     685.515E-03        -3.92437         4.02881        -3.85932     685.515E-03         1.24532     33.3325E-03    -16.4858E-03    -16.8467E-03    -16.2629E-03     32.7487E-03    -16.4858E-03     10.7240E-03     937.184E+03    -3.94599E+06    -81.0650E+06     90.1577E+03    -81.0627E+06    -3.10119E+06     410.129E+03         27.1183
              14     9.83810E-03     56.8044E-03         5.03184     297.755E-03        -4.47717         4.92692        -4.37224     297.755E-03         1.74728     33.3438E-03    -16.5737E-03    -16.7701E-03    -16.3360E-03     32.9096E-03    -16.5737E-03     9.27121E-03     5.56209E+06    -274.076E+03    -102.929E+06    -275.683E+03    -102.928E+06     5.56209E+06     191.280E+03         25.8612
              15     8.85415E-03     56.7954E-03         6.79840    -320.690E-03        -5.58698         6.56878        -5.35735    -320.690E-03         2.32461     33.3711E-03    -16.6310E-03    -16.7401E-03    -16.3745E-03     33.0054E-03    -16.6310E-03     8.52758E-03     9.57857E+06    -1.54806E+06    -118.491E+06    -1.54888E+06    -118.490E+06     9.57857E+06     24.7356E+03         24.8907
              16     7.87013E-03     56.7868E-03         6.75013        -1.13786        -4.67894         5.73883        -3.66763        -1.13786         4.25736     33.4144E-03    -16.6722E-03    -16.7423E-03    -16.4220E-03     33.0942E-03    -16.6722E-03     7.98140E-03     9.46423E+06    -3.33159E+06    -135.172E+06    -3.33210E+06    -135.171E+06     9.46423E+06     108.559E+03         24.1687
              17     6.88624E-03     56.7789E-03         6.02646        -1.52902        -3.57413         4.60216        -1.63270        -2.04615         5.86638     33.4651E-03    -16.7106E-03    -16.7545E-03    -16.4874E-03     33.1981E-03    -16.7106E-03     7.29734E-03     8.41001E+06    -5.30663E+06    -152.098E+06    -5.30694E+06    -152.098E+06     8.41001E+06     128.751E+03         23.6468
              18     5.90235E-03     56.7716E-03         6.12873        -1.53752        -3.70892         5.20363        -1.09750        -3.22384         5.05610     33.5192E-03    -16.7450E-03    -16.7742E-03    -16.5582E-03     33.3032E-03    -16.7450E-03     6.56493E-03     6.68996E+06    -7.58034E+06    -168.985E+06    -7.58061E+06    -168.985E+06     6.68996E+06     146.580E+03         23.2776
              19     4.91861E-03     56.7653E-03         6.18283    -544.354E-03        -4.78299         3.82321         1.81526        -4.78299         4.56855     33.5272E-03    -16.7530E-03    -16.7742E-03    -16.6007E-03     33.3635E-03    -16.7629E-03     5.71168E-03     2.57965E+06    -10.0740E+06    -183.435E+06    -10.0746E+06    -183.434E+06     2.57965E+06    -14.4596E+03         23.0204
              20     3.93475E-03     56.7598E-03         9.68961        -2.54774        -6.31220        -1.33194         8.41348        -6.25188         6.33984     33.5283E-03    -16.7559E-03    -16.7724E-03    -16.6421E-03     33.4138E-03    -16.7718E-03     4.76485E-03    -3.26899E+06    -12.7244E+06    -196.866E+06    -12.7256E+06    -196.865E+06    -3.26899E+06    -8.78707E+03         22.8438
              21     2.95103E-03     56.7553E-03         15.4965        -6.11924        -8.58905        -7.39835         14.9405        -6.75391         3.72133     33.5688E-03    -16.7768E-03    -16.7920E-03    -16.7153E-03     33.4982E-03    -16.7829E-03     3.73071E-03    -8.49114E+06    -15.6277E+06    -211.444E+06    -15.6292E+06    -211.442E+06    -8.49114E+06     322.592E+03         22.7251
              22     1.96739E-03     56.7520E-03         15.7280        -5.75493        -9.31272        -9.12338         15.6040        -5.82021         1.49690     33.5599E-03    -16.7720E-03    -16.7879E-03    -16.7462E-03     33.5237E-03    -16.7775E-03     2.63845E-03    -13.5417E+06    -17.8829E+06    -219.453E+06    -17.8842E+06    -219.452E+06    -13.5417E+06     418.776E+03         22.6491
              23     983.621E-06     56.7499E-03         12.3914        -3.51754        -8.29964        -5.30519         10.5730        -4.69354        -2.54368     33.5421E-03    -16.7385E-03    -16.8036E-03    -16.7856E-03     33.5296E-03    -16.7440E-03     1.46205E-03    -17.5587E+06    -19.3447E+06    -225.605E+06    -19.1789E+06    -225.604E+06    -17.7253E+06     71.9276E+03         22.6063
              24    -10.0768E-09     55.7159E-03         18.6495        -6.82664        -11.0454        -6.77434         18.5972        -11.0454        -1.15420     33.5558E-03    -16.6936E-03    -16.8622E-03    -16.8578E-03     33.5515E-03    -16.6936E-03     933.123E-06    -18.5433E+06    -20.1419E+06    -229.410E+06    -19.3418E+06    -229.410E+06    -19.3440E+06    -317.824E+03         22.5965
              25     193.581E-09     54.6831E-03         19.7786        -8.11645        -11.5537        -9.29875         19.5209        -10.1137         3.91697     33.5120E-03    -16.6709E-03    -16.8411E-03    -16.8367E-03     33.5076E-03    -16.6709E-03     941.733E-06    -19.0084E+06    -20.0895E+06    -229.214E+06    -19.2895E+06    -229.214E+06    -19.8091E+06    -338.990E+03         22.6007
              26    -37.8467E-09     53.6501E-03         11.1495        -3.00457        -8.53663        -1.99658         4.60950        -3.00457         3.64730     33.4886E-03    -16.6706E-03    -16.8180E-03    -16.8141E-03     33.4847E-03    -16.6706E-03     884.071E-06    -19.9176E+06    -20.4932E+06    -230.118E+06    -20.1981E+06    -230.118E+06    -20.2128E+06    -120.590E+03         22.6050
              27     164.540E-09     52.6172E-03         11.0037         7.02854        -18.5467         10.3331        -17.8761         7.02854         7.75782     33.5027E-03    -16.6719E-03    -16.8307E-03    -16.8270E-03     33.4990E-03    -16.6719E-03     861.531E-06    -20.4681E+06    -20.9931E+06    -229.971E+06    -20.6987E+06    -229.970E+06    -20.7633E+06     244.045E+03         22.6095
              28     7.47509E-09     51.5844E-03         12.6502         10.0087        -23.2953         10.7771        -22.2798         10.8663         11.7645     33.5391E-03    -16.6876E-03    -16.8514E-03    -16.8476E-03     33.5352E-03    -16.6876E-03     883.031E-06    -19.3540E+06    -19.9454E+06    -227.306E+06    -19.5879E+06    -227.302E+06    -19.7155E+06     857.480E+03         22.6141
              29     138.066E-09     50.5510E-03         9.28557         1.55680        -10.4191         3.90204        -5.89317         2.41442         10.8775     33.5124E-03    -16.6687E-03    -16.8437E-03    -16.8393E-03     33.5081E-03    -16.6687E-03     933.619E-06    -18.6869E+06    -20.2117E+06    -225.662E+06    -19.8567E+06    -225.656E+06    -19.0484E+06          200.75         22.6186
              30     55.1120E-09     49.5184E-03         9.63936        -3.07049        -5.45623     285.427E-03         3.89770        -3.07049         14.6397     33.5555E-03    -16.7001E-03    -16.8554E-03    -16.8515E-03     33.5516E-03    -16.7001E-03     873.944E-06    -18.6772E+06    -21.6021E+06    -225.937E+06    -19.8439E+06    -225.934E+06    -20.4388E+06    -471.410E+03         22.6231
              31     52.3163E-09     48.4853E-03         9.65916    -828.497E-03        -7.82282    -984.453E-03         2.82079    -828.497E-03         17.0292     33.6627E-03    -16.7819E-03    -16.8808E-03    -16.8776E-03     33.6596E-03    -16.7819E-03     793.044E-06    -18.9912E+06    -22.0015E+06    -225.796E+06    -20.2401E+06    -225.795E+06    -20.7528E+06     37.6990E+03         22.6279
              32     37.4975E-09     47.4519E-03         8.44942         1.30040        -8.80128         2.22876        -2.58062         1.30040         13.8991     33.6436E-03    -16.7643E-03    -16.8793E-03    -16.8747E-03     33.6390E-03    -16.7643E-03     956.808E-06    -19.5161E+06    -21.6772E+06    -226.279E+06    -20.7650E+06    -226.279E+06    -20.4285E+06     43.7217E+03         22.6324
              33     95.9858E-09     46.4188E-03         10.1603         5.05089        -14.9937         7.32182        -12.1553         5.05089         15.8899     33.6232E-03    -16.7098E-03    -16.9134E-03    -16.9083E-03     33.6181E-03    -16.7098E-03     1.01134E-03    -19.5470E+06    -21.1188E+06    -227.494E+06    -20.2071E+06    -227.494E+06    -20.4594E+06     347.429E+03         22.6368
              34     172.005E-09     45.3861E-03         10.1003         3.96705        -14.0998         3.13658        -7.13614         3.96705         17.5376     33.6480E-03    -16.7523E-03    -16.8957E-03    -16.8919E-03     33.6442E-03    -16.7523E-03     873.656E-06    -19.4689E+06    -20.5838E+06    -227.878E+06    -20.1290E+06    -227.877E+06    -19.9244E+06     131.411E+03         22.6412
              35    -158.628E-09     44.3527E-03         16.3220        -5.72015        -9.74510        -6.29087         13.5323        -6.38472         13.7016     33.5626E-03    -16.7374E-03    -16.8253E-03    -16.8214E-03     33.5588E-03    -16.7374E-03     877.385E-06    -19.8532E+06    -20.4326E+06    -227.666E+06    -19.9789E+06    -227.665E+06    -20.3087E+06     304.941E+03         22.6456
              36     310.602E-09     43.3196E-03         23.5862        -10.5034        -11.5344        -8.93036         21.6467        -11.1680         15.7191     33.4078E-03    -16.6106E-03    -16.7972E-03    -16.7922E-03     33.4029E-03    -16.6106E-03     993.236E-06    -19.7187E+06    -20.0162E+06    -227.415E+06    -20.0180E+06    -227.414E+06    -19.7187E+06     537.082E+03         22.6501
              37    -82.1616E-09     42.2870E-03         14.2648        -4.20282        -8.91680        -7.02056         12.3686        -4.20282         12.6576     33.3401E-03    -16.5804E-03    -16.7597E-03    -16.7553E-03     33.3358E-03    -16.5804E-03     923.380E-06    -19.9047E+06    -20.1484E+06    -227.510E+06    -20.0792E+06    -227.509E+06    -19.9749E+06    -161.201E+03         22.6546
              38     195.064E-09     41.2544E-03         4.58607     673.187E-03        -4.30305        -1.96541         2.24843     673.187E-03         3.84345     33.3541E-03    -16.6021E-03    -16.7519E-03    -16.7485E-03     33.3507E-03    -16.6021E-03     825.953E-06    -20.8018E+06    -21.4043E+06    -228.648E+06    -21.3354E+06    -228.647E+06    -20.8720E+06    -499.544E+03         22.6593
              39    -6.38872E-09     40.2213E-03         5.58632        -1.37263        -2.66945     273.584E-03         2.64329        -1.37263         4.78178     33.3240E-03    -16.5822E-03    -16.7418E-03    -16.7378E-03     33.3200E-03    -16.5822E-03     895.735E-06    -20.3987E+06    -21.8738E+06    -228.539E+06    -20.9321E+06    -228.538E+06    -21.3415E+06     69.1545E+03         22.6641
              40     138.382E-09     39.1888E-03         12.6051        -3.60212        -7.81524        -6.45922         11.2490        -3.60212         6.17258     33.3102E-03    -16.5738E-03    -16.7364E-03    -16.7323E-03     33.3060E-03    -16.5738E-03     911.272E-06    -19.8616E+06    -21.7175E+06    -227.526E+06    -20.7755E+06    -227.526E+06    -20.8044E+06     390.976E+03         22.6690
              41     54.7322E-09     38.1560E-03         15.0207        -4.73252        -9.77819        -9.34776         14.5903        -4.73252        -3.34705     33.3567E-03    -16.5995E-03    -16.7573E-03    -16.7532E-03     33.3526E-03    -16.5995E-03     911.022E-06    -19.1599E+06    -20.7373E+06    -227.014E+06    -20.0755E+06    -227.012E+06    -19.8243E+06    -390.555E+03         22.6741
              42     84.9800E-09     37.1230E-03         10.0487        -3.92995        -5.98648        -4.81886         8.88104        -3.92995        -7.79120     33.3739E-03    -16.6143E-03    -16.7596E-03    -16.7551E-03     33.3694E-03    -16.6143E-03     947.643E-06    -19.5857E+06    -20.3031E+06    -227.387E+06    -19.5895E+06    -227.383E+06    -20.3031E+06    -125.960E+03         22.6796
              43     57.8760E-09     36.0903E-03         4.32286        -2.04900        -2.83237        -1.87228         1.48112    -167.354E-03        -3.71299     33.3567E-03    -16.5988E-03    -16.7579E-03    -16.7538E-03     33.3526E-03    -16.5988E-03     912.856E-06    -19.2565E+06    -20.3855E+06    -227.786E+06    -20.3399E+06    -227.779E+06    -19.3095E+06    -414.054E+03         22.6853
              44     126.423E-09     35.0575E-03         5.48844         1.98563        -8.72039     528.321E-03        -7.26308         5.48844        -7.33654     33.3671E-03    -16.5989E-03    -16.7681E-03    -16.7639E-03     33.3628E-03    -16.5989E-03     919.403E-06    -19.5561E+06    -22.5025E+06    -229.112E+06    -20.6390E+06    -229.105E+06    -21.4266E+06    -490.508E+03         22.6912
              45     23.0309E-09     34.0247E-03         7.12309         4.33906        -12.9589         1.62593        -9.08292         5.96023        -14.5662     33.5077E-03    -16.6927E-03    -16.8150E-03    -16.8103E-03     33.5031E-03    -16.6927E-03     966.609E-06    -20.1348E+06    -23.9469E+06    -229.982E+06    -22.0790E+06    -229.979E+06    -22.0052E+06    -107.146E+03         22.6972
              46     68.6618E-09     32.9917E-03         12.9276        -3.09942        -10.4444        -4.49612         6.97937        -3.09942        -12.2635     33.6598E-03    -16.7600E-03    -16.8998E-03    -16.8956E-03     33.6556E-03    -16.7600E-03     923.732E-06    -20.0069E+06    -23.6781E+06    -230.390E+06    -21.9527E+06    -230.386E+06    -21.7364E+06    -923.571E+03         22.7033
              47     103.095E-09     31.9583E-03         18.8226        -7.19140        -11.7145        -10.6149         17.7231        -7.19140        -11.2595     33.6434E-03    -16.7258E-03    -16.9175E-03    -16.9137E-03     33.6395E-03    -16.7258E-03     879.660E-06    -21.1776E+06    -23.6926E+06    -231.440E+06    -21.9757E+06    -231.428E+06    -22.9071E+06     509.507E+03         22.7094
              48     92.7642E-09     30.9257E-03         12.8408    -510.267E-03        -13.1008        -5.92888         5.66890    -510.267E-03        -16.9246     33.6011E-03    -16.7292E-03    -16.8718E-03    -16.8681E-03     33.5973E-03    -16.7292E-03     865.675E-06    -19.7128E+06    -20.6086E+06    -229.317E+06    -20.6187E+06    -229.307E+06    -19.7128E+06     1.05663E+06         22.7152
              49     7.96468E-09     29.8921E-03         7.48420         3.83093        -12.1205         2.12982        -6.76609         3.83093        -16.2504     33.6089E-03    -16.7277E-03    -16.8812E-03    -16.8767E-03     33.6045E-03    -16.7277E-03     944.720E-06    -18.9412E+06    -19.2583E+06    -226.372E+06    -19.2594E+06    -226.371E+06    -18.9412E+06    -304.997E+03         22.7204
              50     190.167E-09     28.8593E-03         5.23349         2.72112        -8.35656     659.765E-03        -3.78284         2.72112        -9.86454     33.5665E-03    -16.7211E-03    -16.8454E-03    -16.8403E-03     33.5614E-03    -16.7211E-03     1.01561E-03    -19.7070E+06    -21.2643E+06    -225.760E+06    -19.9163E+06    -225.757E+06    -21.0576E+06     63.3680E+03         22.7248
              51    -156.552E-09     27.8261E-03         6.45021     746.710E-03        -7.27737        -3.96036         3.13320     746.710E-03        -11.7453     33.4844E-03    -16.6887E-03    -16.7956E-03    -16.7915E-03     33.4803E-03    -16.6887E-03     900.628E-06    -17.6122E+06    -20.6335E+06    -224.670E+06    -19.2844E+06    -224.668E+06    -18.9628E+06     483.333E+03         22.7281
              52     325.963E-09     26.7934E-03         8.98719         1.34282        -10.3247        -2.01027     672.722E-03         1.34282        -17.7007     33.3906E-03    -16.5966E-03    -16.7940E-03    -16.7907E-03     33.3873E-03    -16.5966E-03     814.799E-06    -17.1565E+06    -18.8885E+06    -223.834E+06    -18.8351E+06    -223.826E+06    -17.2179E+06    -820.877E+03         22.7298
              53    -73.0211E-09     25.7605E-03         6.65844         1.95683        -8.43744     764.346E-03        -2.54334         1.95683        -14.7249     33.3434E-03    -16.5807E-03    -16.7626E-03    -16.7588E-03     33.3395E-03    -16.5807E-03     880.083E-06    -18.3424E+06    -19.9842E+06    -224.529E+06    -18.3574E+06    -224.514E+06    -19.9842E+06    -50.3125E+03         22.7295
              54     190.484E-09     24.7276E-03         4.42328         2.27696        -6.15234         1.67077        -3.39984         2.27696        -8.95217     33.3677E-03    -16.6386E-03    -16.7291E-03    -16.7248E-03     33.3634E-03    -16.6386E-03     933.117E-06    -16.7353E+06    -20.5798E+06    -223.860E+06    -19.0065E+06    -223.853E+06    -18.3157E+06     806.493E+03         22.7261
              55    -126.948E-09     23.6948E-03         8.20451         5.87036        -14.0007         5.22634        -12.9108         7.75863        -6.84020     33.3837E-03    -16.6441E-03    -16.7396E-03    -16.7356E-03     33.3797E-03    -16.6441E-03     892.385E-06    -15.5744E+06    -20.0247E+06    -223.229E+06    -17.8390E+06    -223.229E+06    -17.7606E+06    -285.771E+03         22.7191
              56     262.395E-09     22.6619E-03         7.93235         3.67491        -11.5064         3.58338        -9.04566         5.56318        -5.07495     33.3649E-03    -16.5850E-03    -16.7799E-03    -16.7756E-03     33.3606E-03    -16.5850E-03     928.890E-06    -15.9722E+06    -19.6231E+06    -222.898E+06    -17.4405E+06    -222.894E+06    -18.1585E+06     324.555E+03         22.7075
              57    -7.35659E-09     21.6289E-03         8.56924        -2.81996        -4.83924        -2.75420         7.79557        -4.13132        -1.25017     33.2459E-03    -16.5214E-03    -16.7245E-03    -16.7199E-03     33.2413E-03    -16.5214E-03     954.011E-06    -16.9785E+06    -18.7322E+06    -222.314E+06    -18.4466E+06    -222.311E+06    -17.2675E+06     730.628E+03         22.6905
              58     156.664E-09     20.5965E-03         12.0589         1.85683        -13.6507         1.74618        -3.20860         1.72750         4.37442     33.0690E-03    -16.4645E-03    -16.6045E-03    -16.6012E-03     33.0657E-03    -16.4645E-03     814.863E-06    -18.1625E+06    -18.8039E+06    -222.740E+06    -18.1645E+06    -222.738E+06    -18.8039E+06    -253.525E+03         22.6676
              59    -22.5877E-09     19.5641E-03         11.4956         7.54641        -20.1893         7.35114        -19.9940         11.4956         1.67717     32.9205E-03    -16.4006E-03    -16.5198E-03    -16.5171E-03     32.9177E-03    -16.4006E-03     738.284E-06    -19.3843E+06    -19.8466E+06    -223.488E+06    -19.4974E+06    -223.485E+06    -19.7366E+06    -49.1562E+03         22.6384
              60     130.786E-09     18.5317E-03         8.05886         2.79986        -11.5744         5.15592        -10.6039         4.73236    -349.116E-03     32.6246E-03    -16.2576E-03    -16.3670E-03    -16.3643E-03     32.6219E-03    -16.2576E-03     731.700E-06    -20.5499E+06    -20.6928E+06    -224.225E+06    -20.6943E+06    -224.223E+06    -20.5499E+06     238.916E+03         22.6029
              61    -20.3257E-09     17.4998E-03         5.16082    -119.996E-03        -5.01005         2.41192        -1.42646    -954.690E-03         7.65617     32.0393E-03    -15.9451E-03    -16.0943E-03    -16.0922E-03     32.0373E-03    -15.9451E-03     622.285E-06    -20.0839E+06    -20.5853E+06    -223.354E+06    -20.1179E+06    -223.353E+06    -20.5524E+06     167.156E+03         22.5626
              62     214.820E-09     16.4688E-03         7.33183         1.52313        -9.59432         1.40903        -6.69121         4.54282         9.30994     31.0388E-03    -15.4319E-03    -15.6069E-03    -15.6060E-03     31.0378E-03    -15.4319E-03     404.150E-06    -19.7151E+06    -20.6859E+06    -221.059E+06    -20.2213E+06    -221.055E+06    -20.1836E+06     845.460E+03         22.5194
              63    -52.8762E-09     15.4390E-03         9.05296         5.00056        -15.4285         5.56259        -14.9578         8.02025    -840.170E-03     29.4838E-03    -14.6900E-03    -14.7938E-03    -14.7936E-03     29.4836E-03    -14.6900E-03     137.252E-06    -17.8722E+06    -19.4386E+06    -217.711E+06    -18.3799E+06    -217.706E+06    -18.9363E+06     1.03187E+06         22.4768
              64     109.149E-09     14.4113E-03         7.40373         3.16965        -11.6900         5.72674        -10.0130         3.16965     864.466E-03     27.3827E-03    -13.6532E-03    -13.7295E-03    -13.7294E-03     27.3826E-03    -13.6532E-03    -82.9992E-06    -14.5286E+06    -16.1048E+06    -211.961E+06    -15.0586E+06    -211.943E+06    -15.5927E+06     1.71316E+06         22.4395
              65    -4.64792E-09     13.3854E-03         10.7127        -4.43095        -6.97095        -3.39907         7.14083        -4.43095         8.50149     24.7010E-03    -12.2848E-03    -12.4162E-03    -12.4155E-03     24.7004E-03    -12.2848E-03    -282.755E-06    -9.69203E+06    -10.8159E+06    -204.972E+06    -10.2314E+06    -204.945E+06    -10.3037E+06     2.29971E+06         22.4139
              66     171.743E-09     12.3634E-03         10.4710        -3.75744        -7.86753        -7.04199         9.64542        -3.75744         1.08229     21.5897E-03    -10.7260E-03    -10.8637E-03    -10.8615E-03     21.5875E-03    -10.7260E-03    -514.370E-06    -3.74039E+06    -4.86086E+06    -198.222E+06    -4.27219E+06    -198.199E+06    -4.35211E+06     2.11396E+06         22.4081
              67    -53.1625E-09     11.3442E-03         4.25665    -878.952E-03        -5.25707        -1.43413     433.719E-03    -878.952E-03        -6.39294     18.4992E-03    -9.19760E-03    -9.30165E-03    -9.29765E-03     18.4952E-03    -9.19760E-03    -660.695E-06     7.63695E+06     6.87765E+06    -189.948E+06     7.10349E+06    -189.923E+06     7.38641E+06     2.20504E+06         22.4323
              68     152.618E-09     10.3282E-03         6.19444        -2.77542        -4.85661         1.22066     883.026E-03        -3.54128         2.39904     15.7918E-03    -7.85677E-03    -7.93499E-03    -7.93064E-03     15.7874E-03    -7.85677E-03    -641.990E-06     16.6813E+06     14.8801E+06    -185.053E+06     15.1128E+06    -185.035E+06     16.4308E+06     503.846E+03         22.4972
              69    -65.9695E-09     9.31460E-03         5.70256        -1.69674        -5.61042        -2.59482         2.17389        -1.18366         7.50364     13.9673E-03    -6.95841E-03    -7.00892E-03    -7.00642E-03     13.9648E-03    -6.95841E-03    -439.762E-06     15.1963E+06     12.4930E+06    -187.322E+06     13.6338E+06    -187.310E+06     14.0437E+06    -1.53014E+06         22.6136
              70     104.277E-09     8.30241E-03         4.82180    -517.305E-03        -6.40387        -4.11558         1.25457     761.622E-03        -4.42411     13.6289E-03    -6.78691E-03    -6.84198E-03    -6.84138E-03     13.6283E-03    -6.78691E-03    -96.4730E-06     10.9789E+06     9.21170E+06    -191.315E+06     10.3568E+06    -191.308E+06     9.82632E+06    -796.265E+03         22.7948
              71     10.0496E-09     7.28938E-03         6.48904     130.044E-03        -7.73118    -62.7878E-03         3.94313        -4.99245        -4.26469     15.1660E-03    -7.54602E-03    -7.62002E-03    -7.61945E-03     15.1655E-03    -7.54602E-03     209.634E-06     4.78716E+06     3.95317E+06    -195.989E+06     3.90789E+06    -195.944E+06     4.78716E+06    -2.05157E+06         23.0581
              72     59.7784E-09     6.27453E-03         7.41471         2.92288        -11.7675         2.33450        -3.75776    -6.59895E-03         8.10006     19.0341E-03    -9.49280E-03    -9.54131E-03    -9.53839E-03     19.0312E-03    -9.49280E-03     554.285E-06    -2.93842E+06    -3.35838E+06    -203.608E+06    -3.41714E+06    -203.549E+06    -2.93842E+06    -3.29050E+06         23.4253
              73    -21.2929E-09     5.25364E-03         9.42035         4.13228        -16.1811         1.89245        -13.9413         9.42035    -401.322E-03     25.6990E-03    -12.8449E-03    -12.8541E-03    -12.8406E-03     25.6859E-03    -12.8454E-03     1.37189E-03    -8.31165E+06    -9.57869E+06    -210.594E+06    -8.53086E+06    -210.575E+06    -9.37810E+06    -1.88561E+06         23.9230
              74     3.63137E-09     4.22411E-03         10.4322         1.33628        -13.5635         1.26175        -3.33388     277.128E-03        -11.1069     35.1087E-03    -17.5026E-03    -17.6061E-03    -17.5777E-03     35.0807E-03    -17.5030E-03     2.42591E-03    -13.5511E+06    -17.0933E+06    -218.022E+06    -16.0580E+06    -217.991E+06    -14.6175E+06    -2.33570E+06         24.5833
              75     205.375E-09     3.18390E-03         11.6152        -3.72026        -9.08958        -3.26353         9.94339        -7.87446     449.249E-03     46.2294E-03    -23.0130E-03    -23.2164E-03    -23.1891E-03     46.2021E-03    -23.0130E-03     2.69933E-03    -19.8326E+06    -25.7450E+06    -226.693E+06    -22.3433E+06    -226.659E+06    -23.2692E+06    -2.57293E+06         25.4446
              76    -50.9862E-09     2.13212E-03         10.5966        -2.46851        -10.3284        -3.33342    -128.821E-03         1.26200         2.33147     56.8875E-03    -28.3655E-03    -28.5220E-03    -28.4528E-03     56.8745E-03    -28.4217E-03     1.99434E-03    -25.2114E+06    -29.8741E+06    -232.859E+06    -26.4472E+06    -232.849E+06    -28.6480E+06    -651.619E+03         26.5503
              77    -89.5557E-09     1.06871E-03         9.63207         3.51720        -15.5679         5.17012        -14.8365         7.24771        -7.76546     64.3803E-03    -32.0863E-03    -32.2941E-03    -32.2347E-03     64.3772E-03    -32.1425E-03     894.939E-06    -30.8641E+06    -32.2285E+06    -235.627E+06    -32.0911E+06    -235.626E+06    -31.0024E+06     356.428E+03         27.9470
              78     966.742E-06    -69.3889E-18         9.20440         6.61832        -18.0636         8.38993        -17.4509         6.82004        -2.31721     66.6081E-03    -33.1202E-03    -33.4879E-03    -33.2681E-03     66.6044E-03    -33.3363E-03     995.700E-06    -29.7604E+06    -31.9321E+06    -235.344E+06    -31.7953E+06    -235.342E+06    -29.8987E+06    -336.369E+03         28.7381
              79     1.93388E-03    -69.3889E-18         6.45410         2.49101        -11.3384         1.85101        -10.6984         6.45410         1.32479     65.2996E-03    -32.2136E-03    -33.0860E-03    -32.2027E-03     65.2887E-03    -33.0860E-03     2.03035E-03    -26.5674E+06    -30.4998E+06    -234.045E+06    -28.6218E+06    -234.024E+06    -28.4664E+06    -1.80549E+06         28.7812
              80     2.90277E-03    -69.3889E-18         4.12850        -1.43648        -4.93141        -2.91101        -3.45688         4.12850        -3.36349     62.8234E-03    -30.3539E-03    -32.4694E-03    -30.3369E-03     62.8064E-03    -32.4694E-03     2.50665E-03    -26.5080E+06    -34.2963E+06    -235.156E+06    -26.5305E+06    -235.133E+06    -34.2963E+06    -1.98120E+06         28.8586
              81     3.87386E-03    -69.3889E-18         2.58834     668.003E-03        -5.40626    -326.834E-03        -4.41143         2.58834        -1.88218     59.3476E-03    -27.7803E-03    -31.5672E-03    -27.7535E-03     59.3207E-03    -31.5672E-03     3.01822E-03    -26.1254E+06    -44.4351E+06    -240.033E+06    -26.1721E+06    -239.987E+06    -44.4351E+06    -2.73736E+06         28.9812
              82     4.84805E-03    -69.3889E-18         3.65102         2.22552        -7.95009         3.53162        -7.94742         2.34225     300.988E-03     55.5722E-03    -25.1302E-03    -30.4420E-03    -25.0901E-03     55.5322E-03    -30.4420E-03     3.58024E-03    -24.7378E+06    -58.5409E+06    -240.296E+06    -24.8620E+06    -240.172E+06    -58.5409E+06    -5.11169E+06         29.1643
              83     5.82494E-03    -69.3889E-18         4.23944         2.59520        -8.78275         4.18908        -8.73240         2.59520         1.31700     52.0171E-03    -22.8092E-03    -29.2078E-03    -22.7576E-03     51.9654E-03    -29.2078E-03     3.91796E-03    -22.0559E+06    -74.9857E+06    -227.661E+06    -22.2580E+06    -227.459E+06    -74.9857E+06    -6.39331E+06         29.4274
              84     6.80388E-03    -69.3889E-18         3.02101         2.13951        -6.97830         2.08279        -6.58613         2.68555        -1.12653     48.9845E-03    -21.0119E-03    -27.9726E-03    -20.9396E-03     48.9122E-03    -27.9726E-03     4.46573E-03    -19.2424E+06    -92.7153E+06    -205.262E+06    -19.5187E+06    -204.986E+06    -92.7153E+06    -7.13457E+06         29.7920
              85     7.78406E-03    -69.3889E-18         2.48363     377.378E-03        -4.58914    -38.1550E-03        -4.17361         2.48363        -1.59453     46.4773E-03    -19.6669E-03    -26.8104E-03    -19.5652E-03     46.3756E-03    -26.8104E-03     5.16400E-03    -15.9492E+06    -109.869E+06    -179.225E+06    -16.3517E+06    -178.822E+06    -109.869E+06    -8.00119E+06         30.2795
              86     8.76540E-03    -69.3889E-18         2.16252    -504.141E-03        -3.33856    -734.469E-03        -3.10823         2.16252         1.53445     44.0055E-03    -18.2698E-03    -25.7357E-03    -18.1551E-03     43.8908E-03    -25.7357E-03     5.33994E-03    -11.9193E+06    -123.995E+06    -150.741E+06    -12.5173E+06    -150.143E+06    -123.995E+06    -9.01296E+06         30.9099
              87     9.74904E-03    -69.3889E-18         3.56170     907.671E-03        -6.10529         2.29450        -5.94454         2.01411         1.16733     41.5460E-03    -16.8163E-03    -24.7297E-03    -16.6923E-03     41.4220E-03    -24.7297E-03     5.36417E-03    -7.27306E+06    -115.546E+06    -136.330E+06    -8.00231E+06    -117.870E+06    -133.277E+06    -8.94631E+06         31.6985
              88     10.7334E-03    -69.3889E-18         4.61942         2.14161        -8.41748         4.61737        -8.41543         2.14161     88.0219E-03     39.7720E-03    -15.9636E-03    -23.8084E-03    -15.8145E-03     39.6228E-03    -23.8084E-03     5.74993E-03    -2.43610E+06    -81.3658E+06    -136.451E+06    -3.50074E+06    -80.3011E+06    -136.451E+06    -8.79584E+06         32.6516
              89     11.7187E-03    -69.3889E-18         3.08701         1.61661        -6.38314    -184.600E-03        -3.65170         2.15679        -1.19502     38.8526E-03    -15.8432E-03    -23.0094E-03    -15.6608E-03     38.6702E-03    -23.0094E-03     6.29794E-03     2.39381E+06    -35.9881E+06    -133.503E+06     434.227E+03    -34.0285E+06    -133.503E+06    -7.38827E+06         33.7651
              90     12.7025E-03    -69.3889E-18         3.63958         1.20706        -6.48306        -6.28472         2.90106         1.74724        -2.64164     38.2392E-03    -15.9026E-03    -22.3366E-03    -15.6402E-03     37.9769E-03    -22.3366E-03     7.46477E-03     32.5179E+06    -4.72595E+06    -125.392E+06     1.78523E+06     26.0067E+06    -125.392E+06    -4.88701E+06         35.0249
              91     13.6865E-03    -69.3889E-18         3.17756         1.18308        -5.94671        -5.85465         3.08550         1.18308        -1.50798     38.3865E-03    -16.5271E-03    -21.8594E-03    -16.0844E-03     37.9438E-03    -21.8594E-03     9.74157E-03     92.5858E+06    -338.089E+03    -101.220E+06    -197.012E+03     92.4447E+06    -101.220E+06    -2.07728E+06         36.4077
              92     14.6696E-03    -69.3889E-18         1.72333     878.762E-03        -4.13635    -655.667E-03        -1.75736     878.762E-03     72.1365E-03     39.4247E-03    -17.7630E-03    -21.6617E-03    -16.8709E-03     38.5326E-03    -21.6617E-03     13.9393E-03     147.378E+06    -1.69718E+06    -50.4681E+06    -1.69202E+06     147.373E+06    -50.4681E+06     625.300E+03         37.8864
              93     15.6459E-03    -69.3889E-18         2.71655     884.623E-03        -5.06783         2.71192        -5.06320     884.623E-03    -263.860E-03     41.1460E-03    -19.4494E-03    -21.6965E-03    -17.4603E-03     39.1568E-03    -21.6965E-03     21.2239E-03     186.106E+06     27.7739E+06    -11.7045E+06    -3.30218E+06     186.098E+06     19.3793E+06     153.282E+03         39.4371
              94     16.6277E-03    -69.3889E-18         2.05908     968.755E-03        -4.15115         1.90266        -3.99473     968.755E-03        -1.31360     51.3484E-03    -21.4069E-03    -29.9415E-03    -24.5912E-03     46.6110E-03    -22.0198E-03     37.7030E-03     211.091E+06     90.7109E+06    -852.059E+03    -834.599E+03     211.073E+06     90.7109E+06     760.990E+03         41.0336
              95     17.6320E-03     1.07048E-03         1.32418     894.816E-03        -3.42619         1.16632        -3.26833     894.816E-03        -1.29406     55.3734E-03    -21.3688E-03    -34.0045E-03    -26.8500E-03     48.2189E-03    -21.3688E-03     48.3167E-03     216.370E+06     120.132E+06    -1.92783E+06    -1.91144E+06     216.353E+06     120.132E+06     1.67246E+06         41.1462
              96     17.6555E-03     2.11001E-03         1.17721     436.328E-03        -3.37590     816.176E-03        -3.32721     748.679E-03     218.730E-03     47.8552E-03    -19.8248E-03    -28.0304E-03    -22.8743E-03     42.6991E-03    -19.8248E-03     37.1670E-03     215.021E+06     124.227E+06    -5.68887E+06    -5.61892E+06     214.951E+06     124.227E+06     3.15313E+06         39.9413
              97     17.6761E-03     3.14712E-03     771.740E-03     369.748E-03        -3.07731     21.2829E-03        -2.63920     682.100E-03        -1.18063     44.2615E-03    -18.6848E-03    -25.5767E-03    -23.9163E-03     42.6011E-03    -18.6848E-03     20.0471E-03     216.308E+06     135.083E+06    -4.15825E+06    -4.04735E+06     216.197E+06     135.083E+06     4.91001E+06         39.0667
              98     17.6903E-03     4.18826E-03         1.83046     632.479E-03        -4.34968         1.39054        -3.90976     632.479E-03        -2.50420     43.3668E-03    -17.7967E-03    -25.5701E-03    -25.2138E-03     43.0105E-03    -17.7967E-03     9.17186E-03     214.265E+06     139.495E+06    -4.45627E+06    -4.40454E+06     214.214E+06     139.495E+06     3.16437E+06         38.4634
              99     17.7013E-03     5.23581E-03         2.07362     654.197E-03        -4.62030         1.90543        -4.45211     654.197E-03     276.038E-03     43.2388E-03    -17.1712E-03    -26.0676E-03    -25.9419E-03     43.1131E-03    -17.1712E-03     5.89045E-03     212.604E+06     143.962E+06    -4.47536E+06    -4.46453E+06     212.594E+06     143.962E+06     1.41327E+06         38.0781
             100     17.7083E-03     6.28284E-03         1.09237     278.672E-03        -3.35991     450.363E-03        -3.22051     781.278E-03     835.780E-03     42.5031E-03    -16.7694E-03    -25.7337E-03    -25.5640E-03     42.3334E-03    -16.7694E-03     6.76339E-03     211.002E+06     147.099E+06    -4.20624E+06    -4.20369E+06     211.000E+06     147.099E+06     736.992E+03         37.8618
             101     17.7127E-03     7.32955E-03         2.29085     368.042E-03        -4.63738         1.73702        -4.58616     870.648E-03        -1.13434     41.5973E-03    -16.5382E-03    -25.0591E-03    -24.7728E-03     41.3110E-03    -16.5382E-03     8.60841E-03     209.427E+06     147.633E+06    -3.98849E+06    -3.98745E+06     209.426E+06     147.633E+06     276.094E+03         37.7706
             102     17.7146E-03     8.37436E-03         3.40934     904.700E-03        -6.54236         3.32090        -6.45392     904.700E-03     153.380E-03     40.6113E-03    -16.4365E-03    -24.1748E-03    -23.7060E-03     40.1425E-03    -16.4365E-03     10.9123E-03     208.433E+06     146.281E+06    -4.16395E+06    -4.16306E+06     208.432E+06     146.281E+06     248.098E+03         37.7667
             103     17.7152E-03     9.41761E-03         2.34637     976.830E-03        -5.37532         2.12610        -5.15505     976.830E-03         2.35702     39.5479E-03    -16.4221E-03    -23.1258E-03    -22.4249E-03     38.8470E-03    -16.4221E-03     13.1054E-03     208.324E+06     144.151E+06    -4.70007E+06    -4.69829E+06     208.322E+06     144.151E+06     615.526E+03         37.8195
             104     17.7150E-03     10.4589E-03         1.34420     786.780E-03        -3.42241     731.140E-03        -3.08167         1.05910         2.34526     38.2154E-03    -16.4588E-03    -21.7566E-03    -20.8637E-03     37.3225E-03    -16.4588E-03     14.5115E-03     208.920E+06     142.986E+06    -4.89749E+06    -4.89567E+06     208.918E+06     142.986E+06     3.05016E+03         37.9055
             105     17.7150E-03     11.4964E-03         1.15125     438.232E-03        -2.26014    -156.568E-03        -1.66534         1.15125         2.06528     37.2110E-03    -16.5075E-03    -20.7035E-03    -19.7220E-03     36.2295E-03    -16.5075E-03     14.9476E-03     209.655E+06     143.385E+06    -4.65511E+06    -4.65181E+06     209.652E+06     143.385E+06    -817.655E+03         38.0077
             106     17.7143E-03     12.5347E-03         1.26539     467.100E-03        -1.51237    -94.3657E-03    -950.906E-03         1.26539         1.71444     36.1066E-03    -16.5622E-03    -19.5444E-03    -18.5233E-03     35.0854E-03    -16.5622E-03     14.9349E-03     210.786E+06     143.901E+06    -3.79569E+06    -3.78038E+06     210.770E+06     143.901E+06     669.314E+03         38.1134
             107     17.7144E-03     13.5711E-03         1.31981     446.022E-03        -1.27464    -140.016E-03    -688.605E-03         1.31981         1.48562     34.6011E-03    -16.6165E-03    -17.9846E-03    -16.8454E-03     33.4619E-03    -16.6165E-03     15.2817E-03     211.017E+06     142.663E+06    -3.41184E+06    -3.39103E+06     210.997E+06     142.663E+06     257.476E+03         38.2150
             108     17.7140E-03     14.6038E-03         1.31064     420.465E-03        -1.62717    -608.583E-03    -598.126E-03         1.31064         2.04578     33.9623E-03    -16.6461E-03    -17.3162E-03    -16.2227E-03     32.8689E-03    -16.6461E-03     14.7761E-03     208.745E+06     141.180E+06    -4.65950E+06    -4.64619E+06     208.732E+06     141.180E+06    -1.67793E+06         38.3092
             109     17.7137E-03     15.6385E-03         1.27549     478.435E-03        -1.96023    -108.626E-03        -1.37317         1.27549         1.34288     33.5975E-03    -16.5954E-03    -17.0021E-03    -15.9966E-03     32.6579E-03    -16.6613E-03     13.6518E-03     207.271E+06     140.742E+06    -5.01433E+06    -5.00837E+06     207.265E+06     140.742E+06    -517.439E+03         38.3939
             110     17.7142E-03     16.6721E-03         1.29769     795.739E-03        -2.46517     835.315E-03        -2.42586         1.21880     681.205E-03     33.0486E-03    -16.3721E-03    -16.6766E-03    -15.3729E-03     32.0495E-03    -16.6766E-03     13.9033E-03     208.053E+06     141.304E+06    -4.22940E+06    -4.22800E+06     208.052E+06     141.304E+06     542.660E+03         38.4684
             111     17.7139E-03     17.7063E-03         1.23963     975.803E-03        -2.33504     752.273E-03        -2.03262         1.16074         1.58376     32.5994E-03    -15.9075E-03    -16.6919E-03    -14.8585E-03     31.5505E-03    -16.6919E-03     14.1111E-03     209.859E+06     142.415E+06     -3.1088E+06    -3.10087E+06     209.851E+06     142.415E+06     1.17026E+06         38.5337
             112     17.7141E-03     18.7387E-03         1.08185     497.485E-03        -1.67952    -262.631E-03    -919.402E-03         1.08185         1.92932     32.4095E-03    -15.7127E-03    -16.6967E-03    -14.6716E-03     31.3683E-03    -16.6967E-03     14.0026E-03     210.350E+06     141.849E+06    -3.68119E+06    -3.67346E+06     210.342E+06     141.849E+06     600.722E+03         38.5909
             113     17.7138E-03     19.7709E-03         1.02767     580.922E-03        -1.77385    -101.428E-03        -1.04419     980.358E-03         1.98432     32.3757E-03    -15.6818E-03    -16.6939E-03    -14.7569E-03     31.4508E-03    -16.6939E-03     13.1793E-03     210.315E+06     140.972E+06    -4.56832E+06    -4.56065E+06     210.308E+06     140.972E+06     599.529E+03         38.6417
             114     17.7140E-03     20.8047E-03     947.841E-03     587.592E-03        -1.26542     272.973E-03    -903.491E-03     900.534E-03         1.46207     32.1293E-03    -15.4298E-03    -16.6994E-03    -14.4975E-03     31.1970E-03    -16.6994E-03     13.1532E-03     211.325E+06     141.390E+06    -3.79128E+06    -3.78218E+06     211.316E+06     141.390E+06     392.196E+03         38.6868
             115     17.7140E-03     21.8368E-03         1.09764     483.822E-03    -818.962E-03    -544.262E-03     510.002E-03     796.763E-03     136.411E-03     32.3216E-03    -15.6270E-03    -16.6946E-03    -14.6674E-03     31.3620E-03    -16.6946E-03     13.4071E-03     209.760E+06     140.949E+06    -4.76303E+06    -4.75252E+06     209.750E+06     140.949E+06    -1.42310E+06         38.7280
             116     17.7140E-03     22.8699E-03         1.35887     597.913E-03    -869.875E-03    -467.544E-03     956.534E-03     597.913E-03     760.372E-03     32.5860E-03    -15.9007E-03    -16.6853E-03    -15.0382E-03     31.7235E-03    -16.6853E-03     12.8182E-03     208.600E+06     141.060E+06    -4.47439E+06    -4.46435E+06     208.590E+06     141.060E+06    -1.36465E+06         38.7660
             117     17.7141E-03     23.9037E-03         2.10361     374.521E-03        -1.50689    -703.513E-03         1.30023     374.521E-03         2.88446     32.4113E-03    -15.7226E-03    -16.6887E-03    -14.7952E-03     31.4839E-03    -16.6887E-03     13.2237E-03     208.488E+06     141.302E+06    -3.69786E+06    -3.69599E+06     208.486E+06     141.302E+06    -577.381E+03         38.8011
             118     17.7141E-03     24.9369E-03         3.11915     205.159E-03        -2.78850        -2.31632         2.64697     205.159E-03         1.01055     32.3241E-03    -15.6280E-03    -16.6960E-03    -14.6106E-03     31.3066E-03    -16.6960E-03     13.8199E-03     208.649E+06     141.486E+06    -3.94957E+06    -3.94552E+06     208.645E+06     141.486E+06     476.412E+03         38.8342
             119     17.7140E-03     25.9698E-03         2.75438     59.8009E-03        -2.60898        -1.70739         1.85279     59.8009E-03        -2.90464     32.2930E-03    -15.5922E-03    -16.7007E-03    -14.5700E-03     31.2708E-03    -16.7007E-03     13.8418E-03     209.880E+06     141.979E+06    -3.89592E+06    -3.88944E+06     209.873E+06     141.979E+06     1.17302E+06         38.8660
             120     17.7141E-03     27.0024E-03         2.35888    -39.1135E-03        -2.33356         1.09302        -1.06770    -39.1135E-03        -1.26327     32.2845E-03    -15.5830E-03    -16.7015E-03    -14.5867E-03     31.2882E-03    -16.7015E-03     13.6668E-03     211.459E+06     142.893E+06    -3.86516E+06    -3.86147E+06     211.455E+06     142.893E+06     867.917E+03         38.8971
             121     17.7140E-03     28.0352E-03         2.16284    -59.1924E-03        -2.33346         1.67148        -1.84210    -59.1924E-03         2.32892     32.2343E-03    -15.5272E-03    -16.7071E-03    -14.5592E-03     31.2663E-03    -16.7071E-03     13.4598E-03     213.556E+06     143.846E+06    -3.69699E+06    -3.68170E+06     213.540E+06     143.846E+06     1.58001E+06         38.9275
             122     17.7138E-03     29.0689E-03         1.16447    -102.771E-03        -1.44713     52.6390E-03    -335.304E-03    -102.771E-03         1.10820     31.8763E-03    -15.1639E-03    -16.7123E-03    -14.1565E-03     30.8688E-03    -16.7123E-03     13.6106E-03     215.024E+06     143.003E+06    -3.47733E+06    -3.46305E+06     215.009E+06     143.003E+06     1.20628E+06         38.9573
             123     17.7143E-03     30.0995E-03     565.957E-03    -208.827E-03    -947.342E-03    -828.394E-03     447.009E-03    -208.827E-03    -799.271E-03     32.2092E-03    -15.5069E-03    -16.7024E-03    -14.4995E-03     31.2019E-03    -16.7024E-03     13.7054E-03     213.993E+06     142.489E+06    -4.30838E+06    -4.29465E+06     213.980E+06     142.489E+06    -1.26461E+06         38.9878
             124     17.7136E-03     31.1339E-03     208.189E-03    -235.445E-03    -644.329E-03    -579.280E-03     143.139E-03    -235.445E-03    -248.564E-03     32.6103E-03    -15.9143E-03    -16.6960E-03    -14.9966E-03     31.6926E-03    -16.6960E-03     13.2189E-03     213.005E+06     143.020E+06    -4.33808E+06    -4.32286E+06     212.990E+06     143.020E+06    -820.067E+03         39.0184
             125     17.7143E-03     32.1673E-03         1.17227    -183.129E-03        -1.25296     940.255E-03        -1.02095    -183.129E-03        -1.10462     32.2736E-03    -15.5752E-03    -16.6984E-03    -14.5869E-03     31.2853E-03    -16.6984E-03     13.5906E-03     212.392E+06     141.858E+06    -4.16016E+06    -4.15557E+06     212.387E+06     141.858E+06    -175.152E+03         39.0487
             126     17.7139E-03     33.1993E-03         2.41323    -247.376E-03        -2.44201         2.23194        -2.26072    -247.376E-03        -1.61441     32.4976E-03    -15.8003E-03    -16.6972E-03    -14.7924E-03     31.4896E-03    -16.6972E-03     13.7923E-03     211.636E+06     141.930E+06    -4.68449E+06    -4.67950E+06     211.631E+06     141.930E+06    -125.350E+03         39.0797
             127     17.7139E-03     34.2336E-03         1.88687    -436.554E-03        -2.19352         1.27363        -1.58027    -436.554E-03         1.08724     32.3548E-03    -15.6582E-03    -16.6966E-03    -14.7034E-03     31.4000E-03    -16.6966E-03     13.4021E-03     212.323E+06     141.867E+06    -4.41231E+06    -4.40231E+06     212.313E+06     141.867E+06     1.39073E+06         39.1108
             128     17.7145E-03     35.2656E-03     935.859E-03    -637.581E-03        -1.36885    -384.010E-03    -48.9833E-03    -637.581E-03         1.24405     32.1953E-03    -15.4918E-03    -16.7034E-03    -14.4746E-03     31.1780E-03    -16.7034E-03     13.7796E-03     213.681E+06     143.101E+06    -3.85358E+06    -3.84144E+06     213.669E+06     143.101E+06     274.777E+03         39.1423
             129     17.7136E-03     36.2988E-03         1.40059    -855.965E-03        -1.60364     274.477E-03    -477.527E-03    -855.965E-03        -1.99317     32.3115E-03    -15.6092E-03    -16.7023E-03    -14.6679E-03     31.3702E-03    -16.7023E-03     13.2790E-03     214.038E+06     143.405E+06    -4.46715E+06    -4.45602E+06     214.027E+06     143.405E+06     218.575E+03         39.1743
             130     17.7146E-03     37.3314E-03         2.17473        -1.09570        -1.91806         1.69916        -1.44249        -1.09570        -2.44813     32.3206E-03    -15.6205E-03    -16.7000E-03    -14.6414E-03     31.3414E-03    -16.7000E-03     13.5255E-03     214.427E+06     143.048E+06    -4.68075E+06    -4.66973E+06     214.416E+06     143.048E+06     226.062E+03         39.2066
             131     17.7135E-03     38.3651E-03         1.67167    -903.923E-03        -1.53110         1.29774    -736.385E-03        -1.32471     156.180E-03     32.4225E-03    -15.7189E-03    -16.7036E-03    -14.7115E-03     31.4151E-03    -16.7036E-03     13.7572E-03     214.650E+06     143.887E+06    -4.00082E+06    -3.99015E+06     214.639E+06     143.887E+06     201.762E+03         39.2392
             132     17.7145E-03     39.3980E-03         1.54150    -405.445E-03        -1.58086         1.12517     10.8920E-03        -1.58086         1.52165     32.2869E-03    -15.5791E-03    -16.7078E-03    -14.5874E-03     31.2952E-03    -16.7078E-03     13.6158E-03     213.496E+06     143.024E+06    -4.20411E+06    -4.19241E+06     213.485E+06     143.024E+06     123.828E+03         39.2719
             133     17.7134E-03     40.4303E-03         1.88382    -271.050E-03        -1.90707     623.587E-03     989.181E-03        -1.90707     836.641E-03     32.2603E-03    -15.5537E-03    -16.7066E-03    -14.5990E-03     31.3057E-03    -16.7066E-03     13.3375E-03     213.169E+06     142.654E+06    -3.79454E+06    -3.78758E+06     213.162E+06     142.654E+06    -268.008E+03         39.3052
             134     17.7145E-03     41.4634E-03         2.95032    -962.150E-03        -2.24642    -953.879E-03         2.94205        -2.24642     172.450E-03     32.2757E-03    -15.5728E-03    -16.7029E-03    -14.6354E-03     31.3383E-03    -16.7029E-03     13.2316E-03     213.071E+06     142.735E+06    -3.70837E+06    -3.69624E+06     213.059E+06     142.735E+06    -581.512E+03         39.3390
             135     17.7136E-03     42.4966E-03         3.90582        -1.37317        -2.51423        -1.35150         3.88415        -2.51423     443.191E-03     32.4486E-03    -15.7476E-03    -16.7010E-03    -14.7642E-03     31.4652E-03    -16.7010E-03     13.6145E-03     212.528E+06     142.741E+06    -4.47267E+06    -4.46056E+06     212.516E+06     142.741E+06    -582.447E+03         39.3733
             136     17.7144E-03     43.5298E-03         3.27317    -799.520E-03        -2.68727    -770.649E-03         3.24430        -2.68727     253.051E-03     32.3426E-03    -15.6380E-03    -16.7046E-03    -14.6843E-03     31.3889E-03    -16.7046E-03     13.3866E-03     213.470E+06     143.472E+06    -4.19783E+06    -4.19583E+06     213.468E+06     143.472E+06     496.716E+03         39.4078
             137     17.7139E-03     44.5625E-03         2.29595    -116.008E-03        -2.75713    -103.656E-03         2.28359        -2.75713    -343.706E-03     32.1004E-03    -15.3937E-03    -16.7067E-03    -14.4002E-03     31.1069E-03    -16.7067E-03     13.5936E-03     214.347E+06     143.826E+06    -3.93268E+06    -3.93244E+06     214.347E+06     143.826E+06    -124.669E+03         39.4428
             138     17.7146E-03     45.5953E-03         2.37075    -287.570E-03        -2.68668    -279.473E-03         2.36266        -2.68668     14.6246E-03     32.3280E-03    -15.6241E-03    -16.7040E-03    -14.6060E-03     31.3100E-03    -16.7040E-03     13.8235E-03     213.971E+06     144.235E+06    -4.05100E+06    -4.05007E+06     213.971E+06     144.235E+06    -432.700E+03         39.4786
             139     17.7137E-03     46.6288E-03         2.74975    -735.707E-03        -2.47229    -680.455E-03         2.69450        -2.47229     730.826E-03     32.2146E-03    -15.5029E-03    -16.7117E-03    -14.4815E-03     31.1932E-03    -16.7117E-03     13.8118E-03     213.400E+06     144.466E+06    -3.32894E+06    -3.32298E+06     213.394E+06     144.466E+06     477.228E+03         39.5145
             140     17.7146E-03     47.6614E-03         2.11892    -80.0016E-03        -2.17706     21.2027E-03         2.01772        -2.17706     282.472E-03     32.0428E-03    -15.3263E-03    -16.7165E-03    -14.2662E-03     30.9827E-03    -16.7165E-03     14.0072E-03     211.478E+06     143.361E+06    -3.97265E+06    -3.95312E+06     211.458E+06     143.361E+06    -485.782E+03         39.5509
             141     17.7136E-03     48.6929E-03         1.68362     375.017E-03        -1.86399     424.187E-03         1.63445        -1.86399    -274.807E-03     32.3276E-03    -15.6150E-03    -16.7127E-03    -14.6448E-03     31.3574E-03    -16.7127E-03     13.4504E-03     210.665E+06     143.764E+06    -4.05473E+06    -4.03541E+06     210.646E+06     143.764E+06    -503.815E+03         39.5882
             142     17.7144E-03     49.7272E-03         2.17035    -140.745E-03        -1.56622    -125.619E-03         2.15523        -1.56622     326.065E-03     32.3832E-03    -15.6758E-03    -16.7073E-03    -14.7186E-03     31.4259E-03    -16.7073E-03     13.3866E-03     210.598E+06     143.004E+06    -4.12996E+06    -4.12158E+06     210.589E+06     143.004E+06     136.452E+03         39.6257
             143     17.7138E-03     50.7596E-03         2.25399    -600.042E-03        -1.29977    -355.499E-03         2.00945        -1.29977         1.30793     32.4281E-03    -15.7142E-03    -16.7139E-03    -14.6932E-03     31.4071E-03    -16.7139E-03     13.8592E-03     211.213E+06     143.097E+06    -4.36118E+06    -4.33692E+06     211.189E+06     143.097E+06     904.421E+03         39.6635
             144     17.7139E-03     51.7938E-03         1.64521    -567.582E-03        -1.01016    -235.527E-03         1.31316        -1.01016         1.57147     32.0621E-03    -15.3368E-03    -16.7254E-03    -14.3396E-03     31.0650E-03    -16.7254E-03     13.5931E-03     213.204E+06     143.975E+06    -3.14358E+06    -3.12165E+06     213.182E+06     143.975E+06     1.83340E+06         39.7016
             145     17.7143E-03     52.8241E-03         1.54692    -449.059E-03    -865.386E-03    -525.278E-03         1.40416    -646.413E-03     104.758E-03     32.1535E-03    -15.4378E-03    -16.7157E-03    -14.4566E-03     31.1723E-03    -16.7157E-03     13.5078E-03     213.084E+06     143.460E+06    -4.59229E+06    -4.58408E+06     213.076E+06     143.460E+06    -557.643E+03         39.7410
             146     17.7138E-03     53.8583E-03         1.16331    -17.6159E-03    -489.762E-03    -136.135E-03         1.06286    -270.790E-03    -452.473E-03     32.5006E-03    -15.7911E-03    -16.7095E-03    -14.8873E-03     31.5967E-03    -16.7095E-03     13.0892E-03     213.487E+06     144.442E+06    -4.70452E+06    -4.68884E+06     213.472E+06     144.442E+06     72.5176E+03         39.7810
             147     17.7143E-03     54.8926E-03         1.72753     341.757E-03    -868.570E-03     609.659E-03     502.473E-03     88.5830E-03         2.28764     32.2360E-03    -15.5190E-03    -16.7170E-03    -14.4675E-03     31.1846E-03    -16.7170E-03     13.9768E-03     213.468E+06     144.469E+06    -3.84238E+06    -3.82579E+06     213.451E+06     144.469E+06     22.3306E+03         39.8210
             148     17.7141E-03     55.9235E-03         3.18758     422.028E-03        -1.85781    -622.530E-03         1.95230     422.028E-03         3.15253     32.3493E-03    -15.6303E-03    -16.7190E-03    -14.6060E-03     31.3250E-03    -16.7190E-03     13.8111E-03     211.072E+06     143.875E+06    -4.91663E+06    -4.90833E+06     211.063E+06     143.875E+06    -796.879E+03         39.8621
             149     17.7146E-03     57.9893E-03         3.92381     797.575E-03        -2.46734        -2.43650         3.89297     797.575E-03     741.167E-03     32.2709E-03    -15.5555E-03    -16.7153E-03    -14.5541E-03     31.2694E-03    -16.7153E-03     13.6831E-03     210.120E+06     143.311E+06    -3.83122E+06    -3.82656E+06     210.116E+06     143.311E+06    -700.129E+03         39.9466
             150     17.7135E-03     59.0235E-03         3.42484     975.123E-03        -2.12213        -2.09196         3.39467     975.123E-03     526.232E-03     32.3553E-03    -15.6388E-03    -16.7164E-03    -14.7084E-03     31.4249E-03    -16.7164E-03     13.2342E-03     210.290E+06     143.361E+06    -4.44859E+06    -4.41995E+06     210.261E+06     143.361E+06     900.198E+03         39.9900
             151     17.7145E-03     60.0561E-03         1.99173     970.627E-03        -1.17203    -515.128E-03         1.23553         1.06992    -347.505E-03     32.2398E-03    -15.5185E-03    -16.7213E-03    -14.5046E-03     31.2259E-03    -16.7213E-03     13.7576E-03     213.298E+06     144.685E+06    -3.03093E+06    -3.00436E+06     213.272E+06     144.685E+06     1.07652E+06         40.0340
             152     17.7138E-03     61.0886E-03         1.08632     700.491E-03    -568.710E-03     317.717E-03    -185.937E-03         1.08632     306.716E-03     32.3268E-03    -15.6073E-03    -16.7195E-03    -14.6219E-03     31.3414E-03    -16.7195E-03     13.5806E-03     214.046E+06     144.793E+06    -3.84627E+06    -3.83830E+06     214.038E+06     144.793E+06     237.332E+03         40.0789
             153     17.7143E-03     62.1228E-03         1.05111     317.646E-03    -591.857E-03    -240.434E-03    -33.7778E-03         1.05111     259.364E-03     32.1768E-03    -15.4549E-03    -16.7219E-03    -14.4503E-03     31.1722E-03    -16.7219E-03     13.6546E-03     214.068E+06     144.005E+06    -4.35435E+06    -4.34570E+06     214.060E+06     144.005E+06     170.187E+03         40.1242
             154     17.7140E-03     63.1538E-03         1.87970     445.515E-03        -1.72113         1.18980        -1.47817     892.442E-03     361.249E-03     32.3323E-03    -15.6159E-03    -16.7165E-03    -14.5955E-03     31.3119E-03    -16.7165E-03     13.8109E-03     213.340E+06     143.455E+06    -4.53742E+06    -4.53410E+06     213.337E+06     143.455E+06    -678.584E+03         40.1705
             155     17.7141E-03     64.1886E-03         2.39571     705.240E-03        -2.56700     938.418E-03        -1.10971     705.240E-03         2.68810     32.3378E-03    -15.6232E-03    -16.7146E-03    -14.6363E-03     31.3510E-03    -16.7146E-03     13.6008E-03     212.396E+06     142.631E+06    -4.71593E+06    -4.71565E+06     212.396E+06     142.631E+06     71.4084E+03         40.2173
             156     17.7141E-03     65.2207E-03         2.84263     586.852E-03        -2.69658        -1.90506         2.05112     586.852E-03         3.01896     32.0651E-03    -15.3426E-03    -16.7225E-03    -14.2904E-03     31.0129E-03    -16.7225E-03     13.9674E-03     212.379E+06     142.760E+06    -3.26500E+06    -3.26398E+06     212.378E+06     142.760E+06    -138.952E+03         40.2645
             157     17.7141E-03     66.2531E-03         3.03990     503.036E-03        -2.26673        -2.15014         2.92331     503.036E-03         1.55568     32.1722E-03    -15.4512E-03    -16.7209E-03    -14.4652E-03     31.1861E-03    -16.7209E-03     13.5577E-03     211.585E+06     142.709E+06    -3.34411E+06    -3.34327E+06     211.585E+06     142.709E+06    -355.756E+03         40.3128
             158     17.7140E-03     67.2859E-03         2.39913     458.740E-03        -1.24908        -1.18958         2.33963     458.740E-03     910.628E-03     32.4551E-03    -15.7416E-03    -16.7135E-03    -14.7954E-03     31.5090E-03    -16.7135E-03     13.3725E-03     211.504E+06     142.350E+06    -4.25856E+06    -4.25720E+06     211.503E+06     142.350E+06     315.024E+03         40.3620
             159     17.7141E-03     68.3193E-03         2.02855     389.030E-03    -474.072E-03    -366.084E-03         1.92056     389.030E-03     847.303E-03     32.5093E-03    -15.7993E-03    -16.7100E-03    -14.8084E-03     31.5184E-03    -16.7100E-03     13.6923E-03     212.614E+06     142.012E+06    -4.78744E+06    -4.78219E+06     212.609E+06     142.012E+06     1.03342E+06         40.4118
             160     17.7140E-03     69.3534E-03         2.67077     207.431E-03    -703.372E-03    -249.142E-03         2.21654     207.431E-03         2.30163     32.2384E-03    -15.5184E-03    -16.7200E-03    -14.4522E-03     31.1722E-03    -16.7200E-03     14.1079E-03     214.305E+06     142.350E+06    -4.31154E+06    -4.30756E+06     214.301E+06     142.350E+06     733.519E+03         40.4620
             161     17.7139E-03     70.3850E-03         4.58712    -41.7223E-03        -2.66279        -2.16075         4.08508    -41.7223E-03         3.38390     32.1080E-03    -15.3809E-03    -16.7270E-03    -14.3603E-03     31.0873E-03    -16.7270E-03     13.7609E-03     214.994E+06     142.915E+06    -3.11887E+06    -3.11667E+06     214.991E+06     142.915E+06    -403.971E+03         40.5133
             162     17.7139E-03     71.4174E-03         4.84209    -299.227E-03        -2.78495        -2.60965         4.66680    -299.227E-03         2.24213     32.3530E-03    -15.6323E-03    -16.7206E-03    -14.6685E-03     31.3892E-03    -16.7206E-03     13.4634E-03     213.918E+06     141.693E+06    -4.16117E+06    -4.15863E+06     213.915E+06     141.693E+06    -694.234E+03         40.5658
             163     17.7137E-03     72.4520E-03         4.31004    -503.423E-03        -2.10587        -2.04943         4.25360    -503.423E-03         1.17043     32.3472E-03    -15.6308E-03    -16.7164E-03    -14.5935E-03     31.3099E-03    -16.7164E-03     13.9505E-03     212.485E+06     139.053E+06    -4.77279E+06    -4.77231E+06     212.485E+06     139.053E+06    -295.292E+03         40.6189
             164     17.7139E-03     73.4840E-03         3.96183    -650.131E-03        -1.96136        -1.92396         3.92442    -650.131E-03     60.9130E-03     32.2091E-03    -15.4856E-03    -16.7235E-03    -14.4381E-03     31.1616E-03    -16.7235E-03     13.9781E-03     212.638E+06     139.113E+06    -3.79713E+06    -3.79536E+06     212.637E+06     139.113E+06    -513.977E+03         40.6728
             165     17.7135E-03     74.5164E-03         2.62811    -691.497E-03        -1.22843    -260.378E-03         1.78338    -814.819E-03     717.036E-03     32.3314E-03    -15.6055E-03    -16.7258E-03    -14.6288E-03     31.3547E-03    -16.7258E-03     13.5425E-03     212.203E+06     139.399E+06    -3.76326E+06    -3.76094E+06     212.201E+06     139.399E+06    -172.590E+03         40.7280
             166     17.7138E-03     75.5503E-03         1.61489    -816.037E-03        -1.10442     354.689E-03     279.097E-03    -939.359E-03         2.47642     32.2978E-03    -15.5723E-03    -16.7255E-03    -14.5648E-03     31.2903E-03    -16.7255E-03     13.7342E-03     210.998E+06     138.328E+06    -4.07177E+06    -4.07116E+06     210.997E+06     138.328E+06     282.265E+03         40.7842
             167     17.7136E-03     76.5826E-03         1.09109    -823.410E-03        -1.16836    -67.0325E-03     169.647E-03        -1.00329     618.840E-03     32.3282E-03    -15.6054E-03    -16.7228E-03    -14.5523E-03     31.2752E-03    -16.7228E-03     14.0516E-03     211.579E+06     138.239E+06    -4.47374E+06    -4.47297E+06     211.578E+06     138.239E+06     313.106E+03         40.8416
             168     17.7139E-03     77.6159E-03         1.91556    -952.713E-03        -2.24644         1.60402        -1.75501        -1.13260        -1.07264     32.4369E-03    -15.7190E-03    -16.7179E-03    -14.6593E-03     31.3772E-03    -16.7179E-03     14.1277E-03     212.924E+06     138.657E+06    -4.15763E+06    -4.15662E+06     212.923E+06     138.657E+06     451.489E+03         40.9003
             169     17.7137E-03     78.6495E-03         3.02214        -1.24476        -3.60259         2.37116        -2.95162        -1.24476         2.26825     32.2790E-03    -15.5549E-03    -16.7241E-03    -14.4771E-03     31.2013E-03    -16.7241E-03     14.1973E-03     213.230E+06     138.593E+06    -3.99558E+06    -3.99533E+06     213.230E+06     138.593E+06     186.256E+03         40.9598
             170     17.7137E-03     79.6813E-03         1.87000        -1.21144        -2.61903     672.377E-03        -1.42140        -1.21144         3.77110     32.1294E-03    -15.4044E-03    -16.7251E-03    -14.3834E-03     31.1085E-03    -16.7251E-03     13.7780E-03     212.421E+06     137.548E+06    -4.34698E+06    -4.34499E+06     212.419E+06     137.548E+06    -439.779E+03         41.0205
             171     17.7137E-03     80.7137E-03     918.638E-03        -1.11476        -1.53821     349.638E-03    -969.213E-03        -1.11476     884.052E-03     32.2305E-03    -15.5156E-03    -16.7148E-03    -14.5412E-03     31.2561E-03    -16.7148E-03     13.5018E-03     212.052E+06     136.818E+06    -3.60463E+06    -3.60228E+06     212.050E+06     136.818E+06    -660.074E+03         41.0827
             172     17.7138E-03     81.7477E-03         1.49780    -959.628E-03        -1.78399         1.34915        -1.63533    -959.628E-03     748.497E-03     32.2039E-03    -15.4912E-03    -16.7127E-03    -14.4495E-03     31.1622E-03    -16.7127E-03     13.9338E-03     211.985E+06     135.930E+06    -2.94383E+06    -2.94308E+06     211.984E+06     135.930E+06     6.84173E+03         41.1457
             173     17.7136E-03     82.7804E-03         2.20875    -721.955E-03        -1.96933         1.35681        -1.11739    -721.955E-03         3.07253     32.0471E-03    -15.3308E-03    -16.7162E-03    -14.2094E-03     30.9257E-03    -16.7162E-03     14.4040E-03     211.540E+06     134.586E+06    -3.06565E+06    -3.06492E+06     211.540E+06     134.586E+06     395.763E+03         41.2098
             174     17.7137E-03     83.8123E-03         2.12436    -520.150E-03        -1.60870     606.734E-03    -91.0721E-03    -520.150E-03         3.58547     32.1489E-03    -15.4407E-03    -16.7082E-03    -14.4100E-03     31.1182E-03    -16.7082E-03     13.8336E-03     211.459E+06     133.667E+06    -4.51132E+06    -4.50991E+06     211.458E+06     133.667E+06    -149.012E+03         41.2756
             175     17.7137E-03     84.8445E-03         2.19696    -377.644E-03        -1.62501    -841.487E-03         1.41344    -377.644E-03         2.31332     32.2339E-03    -15.5377E-03    -16.6962E-03    -14.6274E-03     31.3236E-03    -16.6962E-03     13.0625E-03     212.385E+06     133.505E+06    -4.93594E+06    -4.93471E+06     212.384E+06     133.505E+06    -474.098E+03         41.3428
             176     17.7140E-03     85.8786E-03         2.69728    -236.498E-03        -1.55102        -1.44718         2.59344    -236.498E-03     308.312E-03     32.2062E-03    -15.5122E-03    -16.6940E-03    -14.4926E-03     31.1866E-03    -16.6940E-03     13.7741E-03     212.844E+06     133.677E+06    -4.11125E+06    -4.10904E+06     212.842E+06     133.677E+06    -603.840E+03         41.4108
             177     17.7139E-03     86.9116E-03         2.61301    -125.501E-03    -696.809E-03    -482.353E-03         2.39855    -125.501E-03     437.217E-03     31.9792E-03    -15.2897E-03    -16.6895E-03    -14.1833E-03     30.8727E-03    -16.6895E-03     14.2924E-03     211.315E+06     131.910E+06    -4.11115E+06    -4.10703E+06     211.311E+06     131.910E+06    -943.265E+03         41.4795
             178     17.7143E-03     87.9433E-03         3.21033    -66.2411E-03    -988.310E-03    -632.495E-03         2.85451    -66.2411E-03         2.28771     31.7197E-03    -15.0477E-03    -16.6720E-03    -13.9635E-03     30.6355E-03    -16.6720E-03     14.0749E-03     208.190E+06     128.630E+06    -4.32978E+06    -4.31430E+06     208.175E+06     128.630E+06    -1.66098E+06         41.5490
             179     17.7144E-03     88.9754E-03         4.29144    -85.3635E-03        -1.92675        -1.68735         4.05204    -85.3635E-03         2.29424     31.5752E-03    -14.9338E-03    -16.6414E-03    -13.8657E-03     30.5070E-03    -16.6414E-03     13.9326E-03     205.046E+06     125.262E+06    -2.99660E+06    -2.98086E+06     205.030E+06     125.262E+06    -1.67807E+06         41.6193
             180     17.7152E-03     90.0078E-03         4.60040    -196.229E-03        -2.25294        -2.18636         4.53382    -196.229E-03     857.372E-03     31.4570E-03    -14.8510E-03    -16.6060E-03    -13.7643E-03     30.3703E-03    -16.6060E-03     14.0165E-03     201.620E+06     121.786E+06    -2.72325E+06    -2.70553E+06     201.602E+06     121.786E+06    -1.74035E+06         41.6908
             181     17.7154E-03     91.0389E-03         4.32701    -331.038E-03        -1.94754        -1.94567         4.32514    -331.038E-03    -205.896E-03     31.4578E-03    -14.9072E-03    -16.5505E-03    -13.8502E-03     30.4007E-03    -16.5505E-03     13.8307E-03     197.896E+06     116.879E+06    -3.81345E+06    -3.79219E+06     197.874E+06     116.879E+06    -2.01681E+06         41.7662
             182     17.7166E-03     92.0710E-03         3.22754     85.0672E-03        -1.08157    -490.906E-03         3.22594    -503.993E-03    -99.1352E-03     31.3875E-03    -14.9106E-03    -16.4769E-03    -13.8632E-03     30.3401E-03    -16.4769E-03     13.7604E-03     194.503E+06     111.868E+06    -3.32832E+06    -3.31660E+06     194.491E+06     111.868E+06    -1.52280E+06         41.8535
             183     17.7175E-03     93.1032E-03         3.10227    -165.006E-03        -1.17944    -274.713E-03         2.78660    -754.066E-03         1.79120     31.1560E-03    -14.7696E-03    -16.3865E-03    -13.6317E-03     30.0181E-03    -16.3865E-03     14.2767E-03     189.918E+06     105.226E+06    -4.15758E+06    -4.13198E+06     189.892E+06     105.226E+06    -2.13548E+06         41.9736
             184     17.7195E-03     94.1341E-03         4.35477    -986.862E-03        -2.47248        -2.12300         4.00529    -986.862E-03         2.50313     31.0123E-03    -14.7311E-03    -16.2812E-03    -13.5725E-03     29.8537E-03    -16.2812E-03     14.3745E-03     183.095E+06     100.646E+06    -3.53202E+06    -3.47778E+06     183.041E+06     100.646E+06    -3.14388E+06         42.1794
             185     17.7213E-03     95.1648E-03         4.04842        -1.12793        -2.67338        -2.52157         3.89661        -1.12793    -359.611E-03     30.8217E-03    -14.6912E-03    -16.1305E-03    -13.5631E-03     29.6935E-03    -16.1305E-03     14.1517E-03     176.707E+06     94.2905E+06    -1.72036E+06    -1.68404E+06     176.671E+06     94.2905E+06    -2.16623E+06         42.5797
             186     17.7247E-03     96.1961E-03         2.22309    -857.363E-03        -1.60660    -638.601E-03         1.51911        -1.12139        -1.93992     30.9909E-03    -15.0260E-03    -15.9649E-03    -13.9304E-03     29.8953E-03    -15.9649E-03     14.0302E-03     168.401E+06     91.9260E+06    -3.59677E+06    -3.48146E+06     168.286E+06     91.9260E+06    -3.48529E+06         43.3791
             187     17.7276E-03     97.2255E-03         1.63841    -625.298E-03    -898.645E-03     740.836E-03     262.954E-03    -889.325E-03     529.396E-03     31.7933E-03    -15.5700E-03    -16.2233E-03    -15.1260E-03     30.9064E-03    -15.7805E-03     12.7930E-03     157.630E+06     95.9042E+06    -5.08123E+06    -4.92405E+06     157.473E+06     95.9042E+06    -4.93911E+06         44.8371
             188     17.7327E-03     98.2583E-03         2.26043    -509.487E-03        -1.23825    -320.781E-03         1.34296    -509.487E-03         2.38013     33.2702E-03    -15.6104E-03    -17.6597E-03    -16.9633E-03     32.5738E-03    -15.6104E-03     11.8286E-03     145.296E+06     104.723E+06    -7.43878E+06    -6.61669E+06     144.474E+06     104.723E+06    -9.40223E+06         47.1410
             189     17.7344E-03     99.2947E-03         2.72337    -78.2584E-03        -2.02042        -1.66363         2.36658    -78.2584E-03         2.49084     36.3051E-03    -15.5041E-03    -20.8010E-03    -20.2160E-03     35.7201E-03    -15.5041E-03     11.3774E-03     129.191E+06     115.674E+06    -1.68904E+06    -690.483E+03     126.548E+06     117.319E+06    -11.0289E+06         50.0622
             190     17.7351E-03     100.333E-03         2.86025     427.158E-03        -2.16412        -1.89025         2.58638     427.158E-03     829.567E-03     39.9213E-03    -15.3957E-03    -24.5256E-03    -24.1132E-03     39.5088E-03    -15.3957E-03     10.2439E-03     115.812E+06     111.362E+06    -911.535E+03    -631.835E+03     111.082E+06     115.812E+06    -5.32273E+06         52.8880
             191     17.7352E-03     101.377E-03         2.15204     897.464E-03        -1.35796    -601.350E-03         1.39543     897.464E-03        -1.72452     43.4065E-03    -15.2864E-03    -28.1201E-03    -27.7848E-03     43.0712E-03    -15.2864E-03     9.74516E-03     113.635E+06     107.831E+06    -124.614E+03    -63.4325E+03     107.769E+06     113.635E+06    -1.55059E+06         55.1653
             192     17.7361E-03     102.422E-03         2.05846         1.14941        -1.29418         1.57008    -805.796E-03         1.14941    -220.390E-03     47.0464E-03    -15.1830E-03    -31.8634E-03    -31.5900E-03     46.7730E-03    -15.1830E-03     9.24394E-03     116.879E+06     111.620E+06    -2.87163E+06    -2.78216E+06     111.530E+06     116.879E+06     2.65065E+06         56.9823
             193     17.7366E-03     103.474E-03         2.27261         1.16348        -2.00922     838.548E-03    -575.164E-03         1.16348         2.78882     50.4552E-03    -15.0816E-03    -35.3736E-03    -35.1419E-03     50.2235E-03    -15.0816E-03     8.89761E-03     117.458E+06     108.447E+06    -8.80030E+06    -8.53615E+06     108.183E+06     117.458E+06    -712.340E+03         58.6479
             194     17.7374E-03     104.527E-03         1.61225     973.169E-03        -2.00818        -1.28479     888.868E-03     973.169E-03         1.51665     54.5627E-03    -14.9450E-03    -39.6176E-03    -39.3261E-03     54.2712E-03    -14.9450E-03     10.4135E-03     115.960E+06     99.1757E+06    -367.589E+03    -184.610E+03     98.9927E+06     115.960E+06    -3.62453E+06         60.2477
             195     17.7376E-03     105.589E-03         1.24552     646.194E-03        -1.95838    -819.781E-03     106.924E-03     646.194E-03        -1.93691     59.3464E-03    -14.7829E-03    -44.5635E-03    -44.2316E-03     59.0145E-03    -14.7829E-03     11.6977E-03     107.932E+06     93.7041E+06    -11.3059E+06    -11.2987E+06     93.6970E+06     107.932E+06    -720.467E+03         62.0236
             196     17.7384E-03     106.652E-03         1.10229     331.666E-03        -2.09080     572.548E-03        -1.56107     331.666E-03        -1.78619     63.7323E-03    -14.6391E-03    -49.0933E-03    -48.6308E-03     63.2698E-03    -14.6391E-03     14.2326E-03     109.844E+06     95.7652E+06     2.39722E+06     2.72998E+06     95.4324E+06     109.844E+06     3.18519E+06         64.5174
             197     17.7395E-03     107.725E-03         1.82267     61.4858E-03        -2.77105         1.80013        -2.74851     61.4858E-03     92.3376E-03     68.5410E-03    -14.4485E-03    -54.0925E-03    -53.4571E-03     67.9056E-03    -14.4485E-03     17.6069E-03     91.0724E+06     78.5976E+06    -16.5220E+06    -16.1401E+06     80.8051E+06     88.4830E+06     1.57893E+06         67.8393
             198     17.7390E-03     108.797E-03         1.66926    -243.296E-03        -2.95192         1.63487        -2.91753    -243.296E-03     746.231E-03     71.1632E-03    -14.3058E-03    -56.8574E-03    -56.4471E-03     70.7529E-03    -14.3058E-03     13.7948E-03     82.1006E+06     79.2710E+06     1.11748E+06     1.29671E+06     81.6812E+06     79.5111E+06    -286.732E+03         71.9259
             199     17.7414E-03     109.869E-03         1.19042    -559.959E-03        -2.49871         1.06788        -2.37616    -559.959E-03         1.27383     77.2656E-03    -14.1456E-03    -63.1199E-03    -61.5811E-03     75.7267E-03    -14.1456E-03     25.5844E-03     98.1651E+06     75.3830E+06     8.05822E+06     8.35186E+06     97.6314E+06     75.6231E+06    -1.96007E+06         76.2140
             200     17.7385E-03     110.978E-03     691.191E-03    -823.665E-03        -2.10047     298.804E-03        -1.70808    -823.665E-03     202.991E-03     88.3053E-03    -13.9173E-03    -74.3880E-03    -68.2882E-03     82.2055E-03    -13.9173E-03     59.8183E-03     105.010E+06     53.4526E+06    -738.452E+03     7.01541E+06     101.338E+06     49.3702E+06     6.01044E+06         78.9001
             201     17.7389E-03     112.103E-03         1.73809    -907.512E-03        -1.94043     962.588E-03        -1.16492    -907.512E-03         1.50989     83.8626E-03    -14.2263E-03    -69.6364E-03    -54.0440E-03     68.2703E-03    -14.2263E-03     88.5998E-03     71.8251E+06    -34.2342E+06    -104.319E+06    -65.0583E+06     36.6463E+06    -38.3166E+06    -49.9334E+06         80.0541
             202     17.7316E-03     113.147E-03         3.11850    -752.112E-03        -1.56600         1.92306    -192.168E-03    -930.501E-03     676.848E-03     43.0603E-03    -3.99978E-03    -39.0605E-03    -14.5633E-03     30.9580E-03    -16.3947E-03     52.1145E-03     24.7679E+06    -133.079E+06    -217.835E+06    -150.890E+06    -42.1774E+06    -133.079E+06    -11.7740E+06         77.1819
             203     16.6220E-03     114.039E-03         2.21944    -866.882E-03        -1.97033         1.38640    -958.909E-03        -1.04527    -454.407E-03     25.8957E-03    -6.10482E-03    -19.7909E-03    -6.02439E-03     24.5241E-03    -18.4997E-03     7.57806E-03     78.8242E+06    -69.2972E+06    -162.145E+06    -126.729E+06     43.4085E+06    -69.2972E+06     43.1450E+06         65.5512
             204     15.6523E-03     113.910E-03         2.50642        -1.14574        -2.56390    -1.77222E-03    -55.7166E-03        -1.14574         2.42307     42.3174E-03    -18.2851E-03    -24.0324E-03    -23.2375E-03     41.5226E-03    -18.2851E-03     14.1282E-03     40.7496E+06    -48.2068E+06    -189.670E+06    -178.020E+06     29.0990E+06    -48.2068E+06    -34.3380E+06         50.6905
             205     14.6966E-03     113.761E-03         1.84910        -1.17476        -1.78560        -1.57397         1.63748        -1.17476         1.63547     38.2175E-03    -16.3262E-03    -21.8914E-03    -19.9679E-03     37.4031E-03    -17.4352E-03     13.6696E-03    -22.2524E+06    -75.3500E+06    -207.642E+06    -190.833E+06    -39.0614E+06    -75.3500E+06    -51.8364E+06         39.6914
             206     13.7244E-03     113.659E-03     847.552E-03    -956.523E-03        -1.28600        -1.04116     814.455E-03        -1.16827     55.0391E-03     34.2272E-03    -15.9078E-03    -18.3194E-03    -16.9673E-03     33.9841E-03    -17.0169E-03     5.70700E-03     3.93808E+06    -28.4656E+06    -150.237E+06    -140.960E+06    -5.33916E+06    -28.4656E+06    -36.6013E+06         32.5121
             207     12.7494E-03     113.575E-03         1.12568    -973.212E-03        -1.21262    -840.432E-03     965.250E-03        -1.18496     583.235E-03     37.6487E-03    -16.5679E-03    -21.0807E-03    -21.0689E-03     37.6369E-03    -16.5679E-03     561.936E-06     3.01587E+06    -5.01696E+06    -123.347E+06    -118.526E+06    -1.80559E+06    -5.01696E+06    -22.1917E+06         28.0633
             208     11.7831E-03     113.501E-03     964.673E-03        -1.05340        -1.24474    -733.711E-03     617.332E-03        -1.21709     118.420E-03     38.0572E-03    -15.8304E-03    -22.2268E-03    -22.2134E-03     38.0438E-03    -15.8304E-03    -1.65121E-03     4.06693E+06    -3.55591E+06    -113.674E+06    -110.955E+06     814.654E+03    -3.02212E+06    -16.9235E+06         25.4345
             209     10.8130E-03     113.443E-03     873.230E-03    -653.139E-03        -1.28374    -314.652E-03     534.743E-03        -1.28374        -1.26162     36.5417E-03    -15.0154E-03    -21.5263E-03    -21.5066E-03     36.5220E-03    -15.0154E-03    -2.13412E-03    -2.34454E+06    -7.93017E+06    -104.022E+06    -101.292E+06    -5.60812E+06    -7.39638E+06    -16.0095E+06         23.8683
             210     9.83996E-03     113.397E-03     805.776E-03    -303.942E-03        -1.39415    -156.889E-03     658.722E-03        -1.39415    -454.359E-03     34.9466E-03    -14.2325E-03    -20.7141E-03    -20.6919E-03     34.9245E-03    -14.2325E-03    -2.19734E-03     3.80534E+06    -3.60391E+06    -94.0363E+06    -92.3205E+06    -267.874E+03    -1.24649E+06    -12.6668E+06         22.9141
             211     8.86494E-03     113.359E-03         1.61391    -840.935E-03        -1.98752        -1.35337         1.60305        -1.46423     23.2005E-03     32.5947E-03    -13.4272E-03    -19.1675E-03    -19.1426E-03     32.5698E-03    -13.4272E-03    -2.27006E-03     3.63892E+06    -4.30510E+06    -81.7043E+06    -79.1691E+06    -1.25362E+06    -1.94769E+06    -14.0319E+06         22.3076
             212     7.88713E-03     113.329E-03         2.93637        -1.42588        -2.55138        -2.07666         2.46165        -1.42588        -2.23260     30.0493E-03    -12.6714E-03    -17.3779E-03    -17.3555E-03     30.0269E-03    -12.6714E-03    -2.05976E-03    -459.993E+03    -6.63814E+06    -76.9363E+06    -73.2461E+06    -4.15025E+06    -6.63814E+06    -16.3455E+06         21.9024
             213     6.90774E-03     113.305E-03         2.51005        -1.48917        -2.83287     90.5262E-03    -413.340E-03        -1.48917        -1.78414     27.8020E-03    -12.0153E-03    -15.7867E-03    -15.7676E-03     27.7829E-03    -12.0153E-03    -1.82000E-03     2.03932E+06    -1.75477E+06    -64.6896E+06    -61.9602E+06    -690.053E+03    -1.75477E+06    -12.9259E+06         21.6198
             214     5.92472E-03     113.288E-03         1.91670        -1.66928        -2.48881     89.0640E-03    -583.139E-03        -1.74732     955.797E-03     25.6450E-03    -11.3754E-03    -14.2696E-03    -14.2545E-03     25.6299E-03    -11.3754E-03    -1.55137E-03     1.29614E+06    -8.13161E+06    -53.7819E+06    -51.7153E+06    -770.447E+03    -8.13161E+06    -10.2268E+06         21.4166
             215     4.94055E-03     113.274E-03         1.37649        -1.37572        -1.98958        -1.11069         1.11146        -1.98958         1.36399     23.7868E-03    -10.8358E-03    -12.9511E-03    -12.9378E-03     23.7736E-03    -10.8358E-03    -1.39343E-03     411.908E+03    -9.55924E+06    -43.4224E+06    -40.8221E+06    -2.18833E+06    -9.55924E+06    -10.3421E+06         21.2679
             216     3.95444E-03     113.264E-03         1.30216        -1.08478        -2.41772     217.222E-03     153.750E-06        -2.41772         2.09970     22.2031E-03    -10.3806E-03    -11.8225E-03    -11.8120E-03     22.1926E-03    -10.3806E-03    -1.19032E-03    -402.145E+03    -8.54258E+06    -33.2667E+06    -31.0075E+06    -2.66129E+06    -8.54258E+06    -8.31177E+06         21.1586
             217     2.96701E-03     113.256E-03         5.05895        -2.08293        -4.14827        -2.16457         3.87235        -2.88004         2.98507     20.8548E-03    -9.99683E-03    -10.8580E-03    -10.8508E-03     20.8476E-03    -9.99683E-03    -950.921E-06     169.141E+03    -8.58029E+06    -24.9041E+06    -23.3394E+06    -1.39548E+06    -8.58029E+06    -6.03294E+06         21.0796
             218     1.97881E-03     113.251E-03         5.19875        -2.62362        -4.23795        -3.13609         4.44299        -2.96972    -355.161E-03     19.7612E-03    -9.70251E-03    -10.0587E-03    -10.0548E-03     19.7573E-03    -9.70251E-03    -663.676E-06    -718.363E+03    -11.6657E+06    -19.0794E+06    -17.7716E+06    -1.48399E+06    -12.2078E+06    -3.59408E+06         21.0256
             219     989.247E-06     113.247E-03         4.25262        -2.38411        -4.19181        -1.67675         3.54527        -4.19181        -1.05288     19.1766E-03    -9.49877E-03    -9.67780E-03    -9.67634E-03     19.1751E-03    -9.49877E-03    -392.947E-06    -732.765E+03    -11.7482E+06    -15.0032E+06    -13.7226E+06    -1.47118E+06    -12.2903E+06    -3.02878E+06         20.9932
             220    -667.895E-09     112.227E-03         7.28368        -2.59609        -6.69018        -3.60228         5.65739        -4.05770         7.33793     16.9030E-03    -8.34515E-03    -8.55790E-03    -8.45567E-03     16.9017E-03    -8.44608E-03    -343.601E-06    -4.50005E+06    -20.0852E+06    -25.2635E+06    -22.1823E+06    -5.11581E+06    -22.5507E+06    -867.485E+03         20.9571
             221     435.313E-09     111.213E-03         12.3528        -4.51812        -9.68328        -7.55388         10.2234        -4.51812     935.555E-03     12.8788E-03    -6.37543E-03    -6.50336E-03    -6.40072E-03     12.8771E-03    -6.47636E-03    -363.061E-06    -14.4950E+06    -44.8022E+06    -50.5641E+06    -45.9724E+06    -16.6212E+06    -47.2676E+06    -5.44910E+06         20.8892
             222    -363.050E-09     110.201E-03         14.7111        -5.40207        -10.7459        -6.40857         13.1849        -8.21325     14.7657E-03     9.56394E-03    -4.76411E-03    -4.79983E-03    -4.79834E-03     9.56245E-03    -4.76411E-03    -291.623E-06    -33.4151E+06    -71.9255E+06    -77.1961E+06    -73.1051E+06    -35.5320E+06    -73.8996E+06    -7.69199E+06         20.7964
             223     332.102E-09     109.194E-03         11.6668        -4.58307        -8.25820        -2.99770         9.21746        -7.39426         11.8875     6.88049E-03    -3.41878E-03    -3.46171E-03    -3.42615E-03     6.87914E-03    -3.45299E-03    -235.695E-06    -53.3020E+06    -94.8853E+06    -102.369E+06    -99.9693E+06    -53.7277E+06    -96.8594E+06    -4.32033E+06         20.7019
             224    -352.177E-09     108.187E-03         7.01666        -1.16063        -8.14099        -6.65857         4.94098    -567.370E-03         6.06069     4.71619E-03    -2.33228E-03    -2.38391E-03    -2.34880E-03     4.71528E-03    -2.36648E-03    -159.729E-06    -71.9308E+06    -126.961E+06    -133.920E+06    -131.161E+06    -73.2404E+06    -128.410E+06    -8.61663E+06         20.6277
             225     326.851E-09     107.185E-03         6.12255    -621.707E-03        -7.17984        -2.15606     947.222E-03    -470.159E-03        -5.72545     3.24692E-03    -1.58398E-03    -1.66293E-03    -1.60005E-03     3.24556E-03    -1.64551E-03     31.6546E-06    -89.5064E+06    -157.267E+06    -162.617E+06    -156.186E+06    -90.5882E+06    -162.617E+06    -3.52026E+06         20.5906
             226    -513.143E-09     106.180E-03         7.77600        -3.57447        -4.40601         1.86730         1.94441        -4.01619    -704.043E-03     2.60910E-03    -1.26225E-03    -1.34686E-03    -1.27656E-03     2.60033E-03    -1.32377E-03     332.490E-06    -85.6478E+06    -166.651E+06    -174.739E+06    -170.604E+06    -85.8817E+06    -170.551E+06     4.43929E+06         20.6010
             227     600.552E-09     105.179E-03         6.39378        -1.85976        -5.33726        -1.34928    -648.260E-03         1.19430         6.63278     2.80169E-03    -1.38402E-03    -1.41767E-03    -1.40204E-03     2.78606E-03    -1.38402E-03     512.083E-06    -62.0669E+06    -149.970E+06    -161.648E+06    -151.670E+06    -64.5543E+06    -157.460E+06     12.0919E+06         20.6624
             228    -762.794E-09     104.174E-03         6.80846         2.19588        -8.68557         3.08038        -8.01156         5.24994        -1.42942     4.69076E-03    -2.32775E-03    -2.36301E-03    -2.34070E-03     4.66845E-03    -2.32775E-03     791.831E-06    -7.05815E+06    -69.2197E+06    -92.2489E+06    -76.9163E+06    -14.9003E+06    -76.7101E+06     22.5671E+06         20.7726
             229     927.709E-09     103.170E-03         11.8551    -987.020E-03        -9.33371     478.161E-03         2.59616        -1.53993    -234.715E-03     8.50555E-03    -4.21654E-03    -4.28901E-03    -4.25912E-03     8.47566E-03    -4.21654E-03     1.22729E-03     41.8954E+06     15.7999E+06    -2.23751E+06     5.87434E+06     36.2821E+06     13.3013E+06     11.9978E+06         20.9243
             230    -917.384E-09     102.157E-03         13.6899        -5.23762        -6.17212        -5.23603         13.3067        -5.79053         5.38583     13.0113E-03    -6.45552E-03    -6.55576E-03    -6.52708E-03     12.9826E-03    -6.45552E-03     1.48491E-03     58.8627E+06     49.6207E+06     44.8174E+06     49.5762E+06     53.1432E+06     50.5814E+06    -266.523E+03         21.1064
             231     1.00050E-06     101.143E-03         8.21666     522.280E-03        -6.34862    -336.065E-03         2.20410     522.280E-03         6.22588     17.5278E-03    -8.70705E-03    -8.82072E-03    -8.79640E-03     17.5035E-03    -8.70705E-03     1.59128E-03     71.1359E+06     64.4872E+06     44.9572E+06     66.2870E+06     46.3468E+06     67.9465E+06    -4.17954E+06         21.3059
             232    -957.274E-09     100.121E-03         4.93776         2.83782        -5.37438         2.35006        -2.78668         2.83782         7.77544     21.8133E-03    -10.8526E-03    -10.9607E-03    -10.9412E-03     21.7938E-03    -10.8526E-03     1.58718E-03     80.9228E+06     77.3931E+06     32.3774E+06     79.7095E+06     33.5907E+06     77.3931E+06    -4.27721E+06         21.5094
             233     956.547E-09     99.0990E-03         6.31432         2.60821        -5.89428         2.93345        -2.51341         2.60821         10.1850     25.4401E-03    -12.6704E-03    -12.7697E-03    -12.7544E-03     25.4248E-03    -12.6704E-03     1.52220E-03     86.4531E+06     84.2051E+06     22.9846E+06     84.1637E+06     23.3662E+06     86.1129E+06    -2.97454E+06         21.7046
             234    -809.472E-09     98.0699E-03         8.53896         4.75783        -11.1063         4.58068        -9.27248         6.88227         9.94045     28.3003E-03    -14.0609E-03    -14.2394E-03    -14.2273E-03     28.2882E-03    -14.0609E-03     1.42711E-03     92.5244E+06     86.9994E+06     10.9097E+06     90.2388E+06     11.2876E+06     88.9071E+06    -4.04130E+06         21.8818
             235     1.02667E-06     97.0415E-03         6.56055         2.65666        -7.24521         1.88521        -4.69431         4.78110         5.40684     30.4168E-03    -15.1214E-03    -15.2955E-03    -15.2872E-03     30.4085E-03    -15.1214E-03     1.22093E-03     85.7512E+06     77.4872E+06    -3.84048E+06     80.6432E+06    -3.37906E+06     82.1338E+06    -4.70680E+06         22.0343
             236    -889.886E-09     96.0088E-03         3.43976     346.820E-03        -1.53708    -61.3496E-03         1.96403     346.820E-03         4.24782     31.8506E-03    -15.8624E-03    -15.9882E-03    -15.9824E-03     31.8448E-03    -15.8624E-03     1.05160E-03     78.3765E+06     68.2791E+06    -21.1782E+06     73.2325E+06    -20.6809E+06     72.9257E+06    -5.70974E+06         22.1593
             237     979.157E-09     94.9768E-03         5.82311         4.12728        -8.50038         3.35858        -6.41820         4.50962         8.15295     32.7323E-03    -16.2810E-03    -16.4513E-03    -16.4459E-03     32.7268E-03    -16.2810E-03     1.03769E-03     66.8950E+06     56.8807E+06    -36.1508E+06     62.1183E+06    -35.9376E+06     61.4442E+06    -4.22163E+06         22.2569
             238    -738.701E-09     93.9429E-03         7.64651         6.43560        -12.6355         4.97454        -11.1745         7.64651         10.1102     33.2179E-03    -16.5404E-03    -16.6775E-03    -16.6728E-03     33.2132E-03    -16.5404E-03     963.750E-06     51.5072E+06     42.2930E+06    -50.1964E+06     46.6793E+06    -49.9320E+06     46.8565E+06    -4.94457E+06         22.3298
             239     763.382E-09     92.9100E-03         7.85330         4.49912        -10.7790         3.80435        -10.0842         7.85330         4.86199     33.5198E-03    -16.7030E-03    -16.8168E-03    -16.8129E-03     33.5158E-03    -16.7030E-03     892.711E-06     42.0245E+06     33.6790E+06    -67.1138E+06     37.9870E+06    -66.7712E+06     37.3738E+06    -5.80264E+06         22.3819
             240    -580.212E-09     91.8754E-03         11.2256         7.10956        -16.8013         6.91173        -16.6035         11.2256        -2.93288     33.5796E-03    -16.7337E-03    -16.8459E-03    -16.8417E-03     33.5754E-03    -16.7337E-03     917.383E-06     22.6280E+06     14.8634E+06    -85.1882E+06     18.6348E+06    -84.8898E+06     18.5582E+06    -5.16241E+06         22.4178
             241     587.608E-09     90.8424E-03         10.2876         7.94716        -16.9087         6.23361        -15.1951         10.2876        -10.0906     33.5961E-03    -16.7181E-03    -16.8780E-03    -16.8735E-03     33.5917E-03    -16.7181E-03     946.184E-06     7.43605E+06    -199.560E+03    -99.8126E+06     3.72389E+06    -99.6663E+06     3.36625E+06    -3.82665E+06         22.4417
             242    -308.771E-09     89.8082E-03         7.25859         1.87619        -7.64513     420.318E-03    -748.505E-03         1.81784        -7.74484     33.5901E-03    -16.6975E-03    -16.8926E-03    -16.8881E-03     33.5856E-03    -16.6975E-03     953.359E-06    -2.25829E+06    -8.85521E+06    -112.708E+06    -5.99050E+06    -112.541E+06    -5.28939E+06    -4.18555E+06         22.4574
             243     430.055E-09     88.7751E-03         7.08583    -919.711E-03        -4.91350        -3.60708         6.58777        -1.72807        -4.36622     33.5542E-03    -16.7165E-03    -16.8377E-03    -16.8337E-03     33.5503E-03    -16.7165E-03     887.401E-06    -12.1022E+06    -17.5453E+06    -126.373E+06    -14.7223E+06    -126.165E+06    -15.1333E+06    -4.74370E+06         22.4676
             244    -302.816E-09     87.7414E-03         6.26256     259.146E-03        -6.45766        -5.53260         5.33751     259.146E-03        -6.59605     33.6107E-03    -16.7484E-03    -16.8623E-03    -16.8587E-03     33.6071E-03    -16.7484E-03     856.145E-06    -21.7841E+06    -26.8764E+06    -141.137E+06    -24.4070E+06    -140.926E+06    -24.4645E+06    -4.87367E+06         22.4746
             245     378.966E-09     86.7077E-03         6.56420        -1.00324        -5.62021        -2.85807         3.80205        -1.00324        -9.18839     33.6222E-03    -16.7326E-03    -16.8895E-03    -16.8857E-03     33.6183E-03    -16.7326E-03     884.211E-06    -27.4367E+06    -31.7530E+06    -154.234E+06    -29.1691E+06    -154.138E+06    -30.1172E+06    -3.35326E+06         22.4795
             246    -170.368E-09     85.6744E-03         7.20612        -1.50678        -6.30531        -4.00488         4.90570        -1.50678        -6.84788     33.6085E-03    -16.7259E-03    -16.8826E-03    -16.8783E-03     33.6042E-03    -16.7259E-03     930.165E-06    -30.4389E+06    -33.4299E+06    -164.724E+06    -32.1529E+06    -164.646E+06    -31.7940E+06    -3.17189E+06         22.4835
             247     286.850E-09     84.6406E-03         13.6961        -4.13110        -11.0066        -10.0275         12.7171        -4.13110        -8.85317     33.5738E-03    -16.7041E-03    -16.8696E-03    -16.8653E-03     33.5694E-03    -16.7041E-03     938.060E-06    -35.0768E+06    -37.9619E+06    -175.815E+06    -36.7421E+06    -175.679E+06    -36.4319E+06    -4.31650E+06         22.4870
             248    -85.4865E-09     83.6077E-03         22.1371        -9.48793        -13.7220        -11.6501         21.1367        -10.5594        -9.81668     33.5341E-03    -16.6860E-03    -16.8481E-03    -16.8442E-03     33.5302E-03    -16.6860E-03     877.794E-06    -35.2298E+06    -39.4183E+06    -186.437E+06    -36.8466E+06    -186.351E+06    -37.8884E+06    -3.03081E+06         22.4904
             249     203.171E-09     82.5744E-03         19.6266        -9.16105        -11.8788        -10.6441         19.4633        -10.2325     366.422E-03     33.5562E-03    -16.7118E-03    -16.8444E-03    -16.8406E-03     33.5524E-03    -16.7118E-03     871.719E-06    -33.6463E+06    -39.4950E+06    -193.073E+06    -36.8531E+06    -193.057E+06    -36.3049E+06    -1.58135E+06         22.4937
             250    -61.2953E-09     81.5409E-03         12.7376        -4.64331        -9.88674        -9.72590         12.5767        -4.64331         3.78086     33.5161E-03    -16.6771E-03    -16.8391E-03    -16.8348E-03     33.5119E-03    -16.6771E-03     928.355E-06    -32.8774E+06    -38.8796E+06    -198.623E+06    -36.0898E+06    -198.600E+06    -35.6895E+06    -1.90114E+06         22.4971
             251     236.434E-09     80.5079E-03         9.70034        -1.98819        -9.81913        -7.77209         7.65330        -1.98819        -6.42931     33.4629E-03    -16.6544E-03    -16.8085E-03    -16.8041E-03     33.4585E-03    -16.6544E-03     943.490E-06    -30.1503E+06    -34.6690E+06    -203.907E+06    -31.8700E+06    -203.894E+06    -32.9624E+06    -1.41017E+06         22.5007
             252    -80.8651E-09     79.4748E-03         7.78360     640.838E-03        -10.8007     11.6999E-03        -3.02882     640.838E-03        -7.27229     33.5101E-03    -16.6830E-03    -16.8271E-03    -16.8230E-03     33.5059E-03    -16.6830E-03     913.123E-06    -30.6401E+06    -33.0686E+06    -207.769E+06    -32.3585E+06    -207.757E+06    -31.3620E+06    -1.36765E+06         22.5043
             253     221.411E-09     78.4415E-03         6.27786         3.50199        -12.1889         4.54025        -11.6062         4.65689         4.85218     33.5678E-03    -16.7056E-03    -16.8622E-03    -16.8577E-03     33.5633E-03    -16.7056E-03     946.840E-06    -29.7577E+06    -31.1293E+06    -213.238E+06    -30.4344E+06    -213.211E+06    -30.4796E+06    -2.19856E+06         22.5080
             254    -37.2599E-09     77.4085E-03         8.91120     269.250E-03        -11.4420        -3.16344    -522.304E-03         1.42415         8.15988     33.6334E-03    -16.7404E-03    -16.8930E-03    -16.8884E-03     33.6288E-03    -16.7404E-03     963.119E-06    -27.2902E+06    -29.4798E+06    -218.604E+06    -27.9575E+06    -218.587E+06    -28.8300E+06    -1.33378E+06         22.5117
             255     173.404E-09     76.3751E-03         8.59559        -3.13038        -6.75114        -5.80905         8.04612        -3.52301         2.18740     33.6530E-03    -16.7420E-03    -16.9110E-03    -16.9070E-03     33.6490E-03    -16.7420E-03     897.499E-06    -26.1767E+06    -30.3654E+06    -221.851E+06    -28.8319E+06    -221.845E+06    -27.7166E+06    -836.492E+03         22.5154
             256     27.0874E-09     75.3422E-03         8.21568         2.59943        -12.5119         2.62995        -7.91086         3.58413         1.24908     33.6018E-03    -16.7231E-03    -16.8787E-03    -16.8748E-03     33.5979E-03    -16.7231E-03     886.827E-06    -23.6309E+06    -29.0630E+06    -224.737E+06    -26.2903E+06    -224.726E+06    -26.4142E+06    -1.44200E+06         22.5190
             257     95.5738E-09     74.3088E-03         9.75554         6.76218        -18.9392         6.58965        -18.7667         9.75554         1.99006     33.5425E-03    -16.6895E-03    -16.8530E-03    -16.8488E-03     33.5383E-03    -16.6895E-03     919.577E-06    -22.7334E+06    -27.3833E+06    -226.883E+06    -24.6064E+06    -226.876E+06    -25.5168E+06    -193.637E+03         22.5225
             258     94.5178E-09     73.2761E-03         10.7389     26.0010E-03        -12.2060     260.617E-03        -2.09447     392.765E-03         2.03570     33.4730E-03    -16.6563E-03    -16.8167E-03    -16.8128E-03     33.4691E-03    -16.6563E-03     886.828E-06    -24.5134E+06    -26.9499E+06    -228.093E+06    -26.3872E+06    -228.085E+06    -25.0834E+06    -247.183E+03         22.5261
             259     33.1064E-09     72.2432E-03         16.1039        -7.30783        -9.56184        -8.05067         15.8420        -8.55709         3.59744     33.4459E-03    -16.6624E-03    -16.7835E-03    -16.7798E-03     33.4423E-03    -16.6624E-03     860.767E-06    -23.7412E+06    -24.6167E+06    -228.549E+06    -23.7462E+06    -228.544E+06    -24.6167E+06    -765.087E+03         22.5296
             260     82.0479E-09     71.2101E-03         12.8380        -5.83854        -8.13902        -8.12372         12.8227        -5.83854         1.05447     33.4390E-03    -16.6482E-03    -16.7908E-03    -16.7868E-03     33.4350E-03    -16.6482E-03     894.743E-06    -23.3225E+06    -23.8279E+06    -229.626E+06    -23.5228E+06    -229.625E+06    -23.6280E+06    -237.062E+03         22.5328
             261     80.9996E-09     70.1774E-03         7.02632        -1.75031        -6.37207        -3.02255         3.67680        -1.75031        -7.20040     33.4135E-03    -16.6348E-03    -16.7787E-03    -16.7747E-03     33.4095E-03    -16.6348E-03     891.351E-06    -23.6291E+06    -23.8608E+06    -231.417E+06    -23.8625E+06    -231.415E+06    -23.6291E+06    -572.410E+03         22.5361
             262     29.9360E-09     69.1446E-03         5.38291    -610.190E-03        -5.40679    -24.8137E-03     935.018E-06    -610.190E-03        -10.5353     33.4323E-03    -16.6489E-03    -16.7833E-03    -16.7796E-03     33.4285E-03    -16.6489E-03     867.083E-06    -24.1050E+06    -24.5321E+06    -232.535E+06    -24.1381E+06    -232.533E+06    -24.5005E+06    -307.002E+03         22.5396
             263     115.169E-09     68.1116E-03         6.14120         2.02486        -8.36813         2.32142        -4.54835         2.02486        -12.7319     33.4718E-03    -16.6688E-03    -16.8029E-03    -16.7987E-03     33.4676E-03    -16.6688E-03     914.688E-06    -23.0555E+06    -23.6644E+06    -231.994E+06    -23.2690E+06    -231.994E+06    -23.4510E+06     146.602E+03         22.5433
             264    -5.97406E-09     67.0787E-03         7.79786         2.58652        -10.1700         2.47948        -4.85160         2.58652        -16.1972     33.4237E-03    -16.6470E-03    -16.7767E-03    -16.7726E-03     33.4197E-03    -16.6470E-03     898.524E-06    -23.3442E+06    -23.9753E+06    -231.044E+06    -23.5578E+06    -231.044E+06    -23.7618E+06    -37.0205E+03         22.5473
             265     148.469E-09     66.0459E-03         9.07743         1.08147        -9.04630         3.54785        -3.51672         1.08147        -16.5280     33.4249E-03    -16.6353E-03    -16.7895E-03    -16.7858E-03     33.4211E-03    -16.6353E-03     866.017E-06    -23.4154E+06    -24.3008E+06    -230.829E+06    -23.8842E+06    -230.828E+06    -23.8331E+06     205.423E+03         22.5515
             266     8.50945E-09     65.0131E-03         12.8157         7.37913        -18.9398         9.32558        -15.5634         7.49291        -15.4581     33.5581E-03    -16.7199E-03    -16.8382E-03    -16.8340E-03     33.5540E-03    -16.7199E-03     914.534E-06    -20.3352E+06    -21.1734E+06    -229.380E+06    -20.8040E+06    -229.379E+06    -20.7057E+06     204.999E+03         22.5558
             267     64.7814E-09     63.9798E-03         15.3645         13.1862        -27.6182         12.3063        -24.6738         13.3000        -19.7542     33.5969E-03    -16.7210E-03    -16.8759E-03    -16.8718E-03     33.5928E-03    -16.7210E-03     913.429E-06    -20.4368E+06    -20.9523E+06    -227.847E+06    -20.4378E+06    -227.846E+06    -20.9523E+06     198.242E+03         22.5604
             268     167.299E-09     62.9470E-03         15.0110         8.34319        -22.0401         9.94262        -16.9717         8.34319        -25.2703     33.4971E-03    -16.6584E-03    -16.8387E-03    -16.8351E-03     33.4935E-03    -16.6584E-03     851.838E-06    -20.4985E+06    -20.8749E+06    -227.244E+06    -20.7312E+06    -227.242E+06    -20.6435E+06     101.745E+03         22.5651
             269    -39.0750E-09     61.9142E-03         13.4837     407.679E-03        -12.5431         3.72480        -2.78423     407.679E-03        -22.2747     33.4778E-03    -16.6801E-03    -16.7977E-03    -16.7943E-03     33.4744E-03    -16.6801E-03     818.266E-06    -18.1499E+06    -18.9026E+06    -227.281E+06    -18.9074E+06    -227.276E+06    -18.1499E+06    -881.352E+03         22.5696
             270     146.642E-09     60.8811E-03         20.8608        -7.68079        -11.6352        -6.15104         15.9843        -8.28851        -16.6762     33.5720E-03    -16.7273E-03    -16.8447E-03    -16.8403E-03     33.5675E-03    -16.7273E-03     941.108E-06    -18.8719E+06    -20.7484E+06    -228.411E+06    -19.3976E+06    -228.407E+06    -20.2271E+06    -681.023E+03         22.5743
             271    -35.6991E-09     59.8479E-03         28.6762        -12.2990        -14.3983        -11.3015         27.6788        -14.3983        -12.4772     33.6220E-03    -16.7316E-03    -16.8903E-03    -16.8850E-03     33.6166E-03    -16.7316E-03     1.03979E-03    -19.7136E+06    -22.0397E+06    -228.538E+06    -20.6857E+06    -228.536E+06    -21.0689E+06     352.569E+03         22.5792
             272     237.550E-09     58.8148E-03         18.1607        -7.51714        -9.30277        -6.81672         17.4603        -9.30277        -8.19924     33.5631E-03    -16.6845E-03    -16.8785E-03    -16.8738E-03     33.5584E-03    -16.6845E-03     974.236E-06    -20.2664E+06    -21.3365E+06    -229.385E+06    -21.2396E+06    -229.383E+06    -20.3657E+06     12.2124E+03         22.5838
             273    -50.9315E-09     57.7822E-03         7.05985        -1.24869        -5.31949        -1.63672         3.67111        -1.54271        -8.18963     33.5123E-03    -16.6839E-03    -16.8284E-03    -16.8247E-03     33.5087E-03    -16.6839E-03     852.517E-06    -20.4068E+06    -20.8393E+06    -230.532E+06    -20.4081E+06    -230.531E+06    -20.8393E+06    -472.050E+03         22.5881
             274     16.7297E-03     55.9108E-03         2.02579     436.947E-03    -904.243E-03    -227.576E-03         1.34913     436.947E-03         1.35487     35.2019E-03    -15.9149E-03    -19.2870E-03    -14.9005E-03     31.3598E-03    -16.4593E-03     25.7367E-03     200.679E+06     87.2879E+06    -6.41685E+06    -6.40736E+06     200.669E+06     87.2879E+06    -820.853E+03         38.8881
             275     15.7440E-03     55.8713E-03         1.20328     469.479E-03    -398.977E-03    -310.326E-03         1.11463     469.479E-03    -10.5429E-03     36.8734E-03    -16.0251E-03    -20.8483E-03    -15.4399E-03     31.4649E-03    -16.0251E-03     33.4445E-03     164.705E+06     10.2183E+06    -32.0362E+06    -9.07870E+06     164.693E+06    -12.7274E+06    -1.02107E+06         36.8611
             276     14.7591E-03     55.8419E-03         1.83756     539.598E-03        -1.27000        -1.20868         1.77624     539.598E-03     48.4698E-03     34.8637E-03    -15.9523E-03    -18.9114E-03    -15.8356E-03     31.7879E-03    -15.9523E-03     24.6005E-03     96.5784E+06    -8.01317E+06    -49.3871E+06    -7.96784E+06     96.5331E+06    -49.3871E+06    -346.189E+03         34.7206
             277     13.7750E-03     55.8210E-03         1.65517     629.074E-03        -1.31642    -551.408E-03     890.159E-03     629.074E-03     784.581E-03     33.6855E-03    -16.1512E-03    -17.5343E-03    -15.9708E-03     32.1220E-03    -16.1512E-03     17.4579E-03     28.7926E+06    -4.51060E+06    -31.6779E+06    -4.35482E+06     28.6368E+06    -31.6779E+06     444.781E+03         32.5710
             278     12.7905E-03     55.8056E-03         2.09515     634.104E-03        -1.84491         1.35842        -1.10818     634.104E-03    -478.686E-03     33.2381E-03    -16.3029E-03    -16.9352E-03    -16.0296E-03     32.3325E-03    -16.3029E-03     13.2523E-03     577.878E+03    -7.73344E+06    -27.3867E+06    -2.71628E+06    -15.3534E+06    -16.4726E+06     184.027E+03         30.5304
             279     11.8064E-03     55.7936E-03         2.90201     518.331E-03        -2.61321         2.46830        -2.17950     518.331E-03        -1.19383     33.2389E-03    -16.3945E-03    -16.8444E-03    -16.1659E-03     32.5604E-03    -16.3945E-03     11.5800E-03    -1.85337E+06    -10.3927E+06    -50.2783E+06    -1.86126E+06    -50.2704E+06    -10.3927E+06     288.728E+03         28.7001
             280     10.8222E-03     55.7817E-03         3.75561     277.377E-03        -3.29108         3.68786        -3.22334     277.377E-03     402.839E-03     33.3385E-03    -16.4838E-03    -16.8548E-03    -16.2722E-03     32.7560E-03    -16.4838E-03     10.7151E-03     230.387E+03    -4.78966E+06    -80.8619E+06    -1.15897E+06    -80.8586E+06    -3.40361E+06     414.534E+03         27.1452
             281     9.83818E-03     55.7714E-03         5.63364    -166.948E-03        -4.77256         5.52884        -4.66777    -166.948E-03     983.785E-03     33.3420E-03    -16.5720E-03    -16.7700E-03    -16.3368E-03     32.9088E-03    -16.5720E-03     9.26015E-03     5.44214E+06    -1.34396E+06    -102.959E+06    -1.34595E+06    -102.957E+06     5.44214E+06     373.035E+03         25.8880
             282     8.85415E-03     55.7625E-03         6.24019    -827.912E-03        -4.73538         5.85989        -4.35508    -827.912E-03         3.20443     33.3697E-03    -16.6281E-03    -16.7416E-03    -16.3777E-03     33.0058E-03    -16.6281E-03     8.50808E-03     9.43212E+06    -2.43944E+06    -118.432E+06    -2.44149E+06    -118.430E+06     9.43212E+06     442.838E+03         24.9149
             283     7.87021E-03     55.7538E-03         5.24744        -1.19717        -3.39862         3.82579        -1.63613        -1.53801         5.51695     33.4160E-03    -16.6680E-03    -16.7479E-03    -16.4286E-03     33.0966E-03    -16.6680E-03     7.97101E-03     9.31186E+06    -4.10343E+06    -135.159E+06    -4.10469E+06    -135.158E+06     9.31186E+06     400.558E+03         24.1889
             284     6.88627E-03     55.7459E-03         4.22072        -1.04233        -2.58670         1.59302         1.13947        -2.14079         4.48897     33.4574E-03    -16.7051E-03    -16.7523E-03    -16.4859E-03     33.1910E-03    -16.7051E-03     7.28774E-03     8.17737E+06    -6.16837E+06    -152.066E+06    -6.16976E+06    -152.065E+06     8.17737E+06     418.930E+03         23.6628
             285     5.90243E-03     55.7387E-03         4.32577    -824.685E-03        -2.99407     539.349E-03         2.64025        -2.67258         3.14768     33.4954E-03    -16.7350E-03    -16.7604E-03    -16.5423E-03     33.2795E-03    -16.7373E-03     6.56068E-03     6.03850E+06    -8.50277E+06    -168.679E+06     -8.5037E+06    -168.678E+06     6.03850E+06     241.590E+03         23.2900
             286     4.91858E-03     55.7323E-03         5.08569    -775.273E-03        -3.91876     186.824E-03         3.48442        -3.27958         4.58899     33.5205E-03    -16.7520E-03    -16.7685E-03    -16.6015E-03     33.3558E-03    -16.7543E-03     5.72996E-03     1.78351E+06    -10.9131E+06    -183.132E+06    -10.9137E+06    -183.131E+06     1.78351E+06    -23.9305E+03         23.0299
             287     3.93488E-03     55.7268E-03         6.51463        -1.75750        -4.46300     98.2850E-03         4.34115        -4.14531         6.76611     33.5282E-03    -16.7565E-03    -16.7718E-03    -16.6509E-03     33.4124E-03    -16.7616E-03     4.79448E-03    -3.90461E+06    -13.3585E+06    -197.033E+06    -13.3597E+06    -197.032E+06    -3.90461E+06     176.665E+03         22.8512
             288     2.95108E-03     55.7224E-03         8.34871        -2.56983        -5.50282        -1.19608         6.83059        -5.35846         4.40547     33.5372E-03    -16.7612E-03    -16.7760E-03    -16.6932E-03     33.4659E-03    -16.7728E-03     3.74587E-03    -8.98059E+06    -15.6012E+06    -211.432E+06    -15.6023E+06    -211.431E+06    -8.98059E+06     421.480E+03         22.7310
             289     1.96733E-03     55.7190E-03         11.2753        -4.05324        -6.96612        -3.72162         10.7993        -6.82175        -1.91549     33.5394E-03    -16.7619E-03    -16.7775E-03    -16.7298E-03     33.5036E-03    -16.7738E-03     2.61423E-03    -13.8278E+06    -17.5556E+06    -218.795E+06    -17.5559E+06    -218.795E+06    -13.8278E+06      181.81E+03         22.6541
             290     983.697E-06     55.7170E-03         16.0663        -6.25765        -9.32068        -5.87490         15.6836        -9.32068        -2.93694     33.5442E-03    -16.7257E-03    -16.8185E-03    -16.8007E-03     33.5319E-03    -16.7312E-03     1.47882E-03    -17.5091E+06    -19.3121E+06    -224.667E+06    -18.9121E+06    -224.667E+06    -17.9094E+06    -162.095E+03         22.6107
             291     16.7275E-03     54.8765E-03         1.41085     199.771E-03    -467.733E-03     499.223E-03     572.633E-03     71.0302E-03         1.43240     35.0384E-03    -15.8602E-03    -19.1782E-03    -14.8488E-03     31.3081E-03    -16.4592E-03     25.4246E-03     200.964E+06     86.7335E+06    -7.53629E+06    -7.51707E+06     200.945E+06     86.7335E+06    -638.647E+03         38.8506
             292     15.7437E-03     54.8393E-03         1.42551     51.4446E-03    -447.114E-03    -45.0976E-03         1.02565     49.2911E-03         1.11873     36.7982E-03    -16.0268E-03    -20.7714E-03    -15.4673E-03     31.4940E-03    -16.0268E-03     33.1357E-03     164.308E+06     9.81391E+06    -33.3899E+06    -10.2854E+06     164.293E+06    -13.2760E+06    -1.12176E+06         36.8336
             293     14.7592E-03     54.8081E-03         1.52610     43.9137E-03    -626.908E-03    -103.921E-03         1.00311     43.9137E-03     233.140E-03     34.8709E-03    -15.9391E-03    -18.9318E-03    -15.8735E-03     31.8126E-03    -15.9391E-03     24.4941E-03     95.7383E+06    -8.10477E+06    -52.2729E+06    -8.09017E+06     95.7237E+06    -52.2729E+06    -845.047E+03         34.7073
             294     13.7750E-03     54.7883E-03         1.23541     39.3731E-03    -374.118E-03     210.814E-03     658.621E-03     31.2314E-03    -574.667E-03     33.6730E-03    -16.1379E-03    -17.5351E-03    -16.0108E-03     32.1487E-03    -16.1379E-03     17.2645E-03     28.3365E+06    -5.78899E+06    -34.4145E+06    -5.69103E+06     28.2386E+06    -34.4145E+06    -105.071E+03         32.5726
             295     12.7906E-03     54.7726E-03         1.46626     30.3188E-03    -659.828E-03    -149.873E-03     964.446E-03     22.1772E-03    -804.819E-03     33.2359E-03    -16.3002E-03    -16.9357E-03    -16.0313E-03     32.3315E-03    -16.3002E-03     13.2445E-03     962.052E+03    -9.13796E+06    -27.4260E+06    -4.00924E+06    -14.9075E+06    -16.6852E+06     403.579E+03         30.5445
             296     11.8064E-03     54.7608E-03         1.70147     30.1460E-03    -984.741E-03     539.811E-03     208.517E-03    -1.45558E-03    -695.178E-03     33.2295E-03    -16.3900E-03    -16.8395E-03    -16.1609E-03     32.5509E-03    -16.3900E-03     11.5786E-03    -3.14494E+06    -11.1166E+06    -50.4074E+06    -3.16136E+06    -50.3910E+06    -11.1166E+06     160.369E+03         28.7228
             297     10.8223E-03     54.7487E-03         3.38029    -157.441E-03        -2.58209         3.29824        -2.46844    -189.043E-03    -508.532E-03     33.3385E-03    -16.4801E-03    -16.8584E-03    -16.2741E-03     32.7542E-03    -16.4801E-03     10.7322E-03    -1.07448E+06    -5.54314E+06    -80.8904E+06    -2.63047E+06    -80.8863E+06    -3.99127E+06     180.617E+03         27.1718
             298     9.83819E-03     54.7386E-03         4.86783    -622.218E-03        -3.69159         4.77157        -3.59534    -622.218E-03    -129.731E-03     33.3337E-03    -16.5679E-03    -16.7658E-03    -16.3299E-03     32.8978E-03    -16.5679E-03     9.28813E-03     4.73448E+06    -2.70719E+06    -103.263E+06    -2.70945E+06    -103.260E+06     4.73448E+06     356.985E+03         25.9146
             299     8.85420E-03     54.7295E-03         4.16423        -1.12554        -2.57244         3.03428        -1.44250        -1.12554         2.62264     33.3682E-03    -16.6243E-03    -16.7440E-03    -16.3786E-03     33.0028E-03    -16.6243E-03     8.52443E-03     8.92107E+06    -3.64959E+06    -118.345E+06    -3.65213E+06    -118.343E+06     8.92107E+06     464.079E+03         24.9389
             300     7.87023E-03     54.7209E-03         3.39451        -1.18505        -1.83908         1.18814     708.123E-03        -1.52589         4.04592     33.4216E-03    -16.6633E-03    -16.7583E-03    -16.4369E-03     33.1002E-03    -16.6633E-03     7.99911E-03     8.86868E+06    -5.17998E+06    -135.085E+06    -5.18202E+06    -135.083E+06     8.86868E+06     500.287E+03         24.2090
             301     6.88635E-03     54.7129E-03         3.51326        -1.22669        -2.01085    -191.879E-03         2.27563        -1.80803         3.59565     33.4555E-03    -16.6995E-03    -16.7560E-03    -16.4874E-03     33.1869E-03    -16.6995E-03     7.31601E-03     7.89746E+06    -7.02679E+06    -151.995E+06    -7.02848E+06    -151.993E+06     7.89746E+06     487.530E+03         23.6789
             302     5.90245E-03     54.7058E-03         5.12097        -1.63674        -3.33990        -2.37715         4.39872        -1.87724         4.44600     33.4770E-03    -16.7255E-03    -16.7515E-03    -16.5324E-03     33.2601E-03    -16.7278E-03     6.57493E-03     5.28818E+06    -9.13637E+06    -168.035E+06    -9.13730E+06    -168.034E+06     5.28818E+06     205.154E+03         23.3024
             303     4.91861E-03     54.6993E-03         6.32279        -1.65409        -4.67524        -3.40492         5.05248        -1.65409         6.56628     33.4957E-03    -16.7359E-03    -16.7598E-03    -16.5835E-03     33.3302E-03    -16.7467E-03     5.73957E-03     922.264E+03    -11.5551E+06    -182.995E+06    -11.5552E+06    -182.995E+06     922.264E+03     31.0641E+03         23.0395
             304     3.93478E-03     54.6938E-03         4.48446        -1.16916        -3.49033        -1.19701         2.53023        -1.50826         5.73567     33.5189E-03    -16.7500E-03    -16.7689E-03    -16.6431E-03     33.4024E-03    -16.7593E-03     4.81127E-03    -4.19802E+06    -13.8960E+06    -197.138E+06    -13.8966E+06    -197.137E+06    -4.19802E+06     269.445E+03         22.8586
             305     2.95111E-03     54.6895E-03         4.12357    -266.068E-03        -4.10281         2.89395    -719.251E-03        -2.42001         1.66683     33.5427E-03    -16.7613E-03    -16.7815E-03    -16.7019E-03     33.4703E-03    -16.7685E-03     3.77228E-03    -9.21907E+06    -15.9998E+06    -210.999E+06    -16.0004E+06    -210.999E+06    -9.21907E+06     243.966E+03         22.7369
             306     1.96737E-03     54.6861E-03         7.58949        -1.15710        -6.49956         1.98404         3.00097        -5.05218        -1.37575     33.5343E-03    -16.7568E-03    -16.7775E-03    -16.7351E-03     33.4983E-03    -16.7632E-03     2.62269E-03    -14.2796E+06    -17.8379E+06    -218.284E+06    -17.8382E+06    -218.284E+06    -14.2796E+06    -27.3990E+03         22.6591
             307     983.663E-06     54.6840E-03         14.6654        -5.38081        -9.17969        -5.14453         13.7091        -8.45970     869.721E-03     33.5143E-03    -16.7126E-03    -16.8017E-03    -16.7892E-03     33.5019E-03    -16.7126E-03     1.48652E-03    -17.9687E+06    -19.3756E+06    -224.085E+06    -18.9758E+06    -224.085E+06    -18.3691E+06    -247.456E+03         22.6152
             308     16.7304E-03     53.8448E-03         1.32069    -169.188E-03    -449.653E-03     474.071E-03     525.705E-03    -297.929E-03     485.978E-03     35.1031E-03    -15.9819E-03    -19.1211E-03    -14.9592E-03     31.4003E-03    -16.4411E-03     25.0489E-03     201.545E+06     85.9474E+06    -6.85419E+06    -6.82704E+06     201.518E+06     85.9474E+06    -45.3530E+03         38.8142
             309     15.7440E-03     53.8057E-03         1.65367    -282.734E-03    -603.848E-03     862.608E-03     274.815E-03    -370.333E-03         1.45976     36.7139E-03    -16.0118E-03    -20.7021E-03    -15.3636E-03     31.3754E-03    -16.0118E-03     33.1566E-03     164.966E+06     7.88611E+06    -31.8184E+06    -10.3196E+06     164.943E+06    -13.5899E+06    -358.353E+03         36.8071
             310     14.7595E-03     53.7757E-03         1.82010    -350.330E-03    -660.961E-03     538.116E-03     725.411E-03    -454.715E-03    -200.601E-03     34.7902E-03    -15.9323E-03    -18.8579E-03    -15.7951E-03     31.7274E-03    -15.9323E-03     24.5017E-03     95.7323E+06    -10.4829E+06    -52.9079E+06    -10.4710E+06     95.7205E+06    -52.9079E+06    -613.948E+03         34.6943
             311     13.7749E-03     53.7550E-03         1.63134    -276.880E-03    -540.503E-03     234.715E-03         1.10477    -525.533E-03        -1.15562     33.6118E-03    -16.1333E-03    -17.4785E-03    -15.9495E-03     32.0828E-03    -16.1333E-03     17.2450E-03     27.4568E+06    -7.91150E+06    -35.6155E+06    -7.89638E+06     27.4417E+06    -35.6155E+06    -450.752E+03         32.5740
             312     12.7907E-03     53.7400E-03         1.81691    -257.763E-03    -787.111E-03     161.247E-03         1.20083    -590.044E-03        -1.06203     33.2355E-03    -16.2993E-03    -16.9362E-03    -16.0331E-03     32.3324E-03    -16.2993E-03     13.2551E-03    -570.720E+03    -10.3236E+06    -26.6259E+06    -5.73947E+06    -14.7022E+06    -17.0785E+06    -50.4457E+03         30.5583
             313     11.8064E-03     53.7277E-03         1.71001    -147.825E-03    -880.640E-03     667.512E-03     697.609E-03    -683.572E-03    -435.581E-03     33.2239E-03    -16.3874E-03    -16.8364E-03    -16.1451E-03     32.5326E-03    -16.3874E-03     11.6833E-03    -4.25530E+06    -11.7151E+06    -50.1822E+06    -4.27481E+06    -50.1627E+06    -11.7151E+06    -5.95562E+03         28.7450
             314     10.8223E-03     53.7159E-03         2.59270    -400.448E-03        -1.64222         1.04102     342.647E-03    -833.629E-03    -110.453E-03     33.3398E-03    -16.4789E-03    -16.8609E-03    -16.2713E-03     32.7502E-03    -16.4789E-03     10.7809E-03    -1.70208E+06    -6.37506E+06    -81.2397E+06    -3.51379E+06    -81.2364E+06    -4.56667E+06    -47.7881E+03         27.1980
             315     9.83821E-03     53.7056E-03         3.79140        -1.00798        -2.37470     653.610E-03     763.092E-03        -1.00798     775.797E-03     33.3368E-03    -16.5667E-03    -16.7701E-03    -16.3295E-03     32.8962E-03    -16.5667E-03     9.33839E-03     4.17912E+06    -3.67870E+06    -103.334E+06    -3.68046E+06    -103.332E+06     4.17912E+06     93.5190E+03         25.9409
             316     8.85419E-03     53.6966E-03         3.38029        -1.14781        -1.95354    -158.086E-03         1.58483        -1.14781         3.29452     33.3702E-03    -16.6236E-03    -16.7466E-03    -16.3771E-03     33.0007E-03    -16.6236E-03     8.57226E-03     8.43303E+06    -4.56617E+06    -118.581E+06    -4.56720E+06    -118.580E+06     8.43303E+06     248.108E+03         24.9628
             317     7.87024E-03     53.6879E-03         3.21829        -1.23967        -1.82645    -627.813E-03         2.01966        -1.23967         4.22803     33.4280E-03    -16.6621E-03    -16.7659E-03    -16.4414E-03     33.1036E-03    -16.6621E-03     8.03681E-03     8.52006E+06    -5.86194E+06    -134.965E+06    -5.86320E+06    -134.964E+06     8.52006E+06     315.052E+03         24.2291
             318     6.88633E-03     53.6800E-03         4.12863        -1.26740        -2.82933        -1.37184         2.67114        -1.26740         5.61884     33.4614E-03    -16.6972E-03    -16.7641E-03    -16.4940E-03     33.1912E-03    -16.6972E-03     7.33809E-03     7.65019E+06    -7.31806E+06    -151.835E+06    -7.31871E+06    -151.835E+06     7.65019E+06     191.225E+03         23.6950
             319     5.90247E-03     53.6728E-03         5.65619        -1.05807        -4.69548        -3.42598         4.38669        -1.05807         6.54681     33.4827E-03    -16.7230E-03    -16.7597E-03    -16.5413E-03     33.2642E-03    -16.7230E-03     6.60017E-03     5.02365E+06    -9.14954E+06    -167.546E+06    -9.14989E+06    -167.545E+06     5.02365E+06     109.921E+03         23.3150
             320     4.91866E-03     53.6664E-03         6.00867    -426.070E-03        -5.84827        -4.71512         4.87551    -426.070E-03         6.77363     33.4935E-03    -16.7326E-03    -16.7608E-03    -16.5867E-03     33.3279E-03    -16.7412E-03     5.73927E-03     719.844E+03    -11.4710E+06    -182.983E+06    -11.4710E+06    -182.983E+06     719.844E+03     99.1600E+03         23.0491
             321     3.93485E-03     53.6610E-03         3.64003     404.081E-03        -4.43543        -2.75752         1.96212     404.081E-03         5.83743     33.5007E-03    -16.7405E-03    -16.7602E-03    -16.6309E-03     33.3856E-03    -16.7547E-03     4.78125E-03    -4.31149E+06    -13.8845E+06    -197.093E+06    -13.8849E+06    -197.093E+06    -4.31149E+06     189.044E+03         22.8660
             322     2.95103E-03     53.6564E-03         3.36146     155.168E-03        -3.99499         1.22380        -2.42506     722.888E-03         2.38690     33.5331E-03    -16.7572E-03    -16.7759E-03    -16.6959E-03     33.4615E-03    -16.7656E-03     3.75126E-03    -9.03139E+06    -16.0056E+06    -210.208E+06    -16.0060E+06    -210.208E+06    -9.03139E+06     158.423E+03         22.7429
             323     1.96741E-03     53.6532E-03         5.02143     523.486E-03        -5.95395         2.90373        -3.21212    -100.644E-03         3.15272     33.5340E-03    -16.7551E-03    -16.7789E-03    -16.7401E-03     33.4980E-03    -16.7579E-03     2.62745E-03    -14.0323E+06    -18.0291E+06    -217.603E+06    -18.0296E+06    -217.603E+06    -14.0323E+06    -189.942E+03         22.6641
             324     983.709E-06     53.6510E-03         8.04935    -732.841E-03        -7.65811     251.292E-03         1.33180        -1.92469         4.81997     33.4998E-03    -16.7077E-03    -16.7921E-03    -16.7797E-03     33.4874E-03    -16.7077E-03     1.46807E-03    -18.4453E+06    -19.7750E+06    -224.334E+06    -19.6279E+06    -224.333E+06    -18.5929E+06    -260.884E+03         22.6196
             325     16.7283E-03     52.8121E-03         1.87585    -564.564E-03    -959.477E-03    -247.022E-03         1.26207    -663.241E-03     136.048E-03     35.2917E-03    -15.8187E-03    -19.4730E-03    -14.9447E-03     31.4023E-03    -16.4576E-03     25.8830E-03     201.389E+06     86.5103E+06    -7.76543E+06    -7.75276E+06     201.376E+06     86.5103E+06     413.912E+03         38.7776
             326     15.7442E-03     52.7731E-03         2.09456    -606.741E-03    -924.149E-03     918.020E-03     383.051E-03    -737.400E-03    -202.143E-03     37.1093E-03    -16.0265E-03    -21.0828E-03    -15.5579E-03     31.5844E-03    -16.0265E-03     33.9234E-03     165.792E+06     9.33769E+06    -32.3437E+06    -10.9014E+06     165.781E+06    -12.0940E+06     1.04311E+06         36.7802
             327     14.7593E-03     52.7427E-03         2.24399    -690.506E-03    -876.005E-03         1.43537     118.119E-03    -876.005E-03        -1.53745     34.8521E-03    -15.9351E-03    -18.9170E-03    -15.7942E-03     31.7293E-03    -15.9351E-03     24.7592E-03     96.6479E+06    -9.48172E+06    -52.1897E+06    -9.47122E+06     96.6374E+06    -52.1897E+06     15.0711E+03         34.6810
             328     13.7750E-03     52.7223E-03         2.00971    -282.293E-03        -1.02214     681.715E-03         1.04570        -1.02214        -1.20517     33.6246E-03    -16.1344E-03    -17.4902E-03    -15.9294E-03     32.0638E-03    -16.1344E-03     17.4217E-03     27.2792E+06    -7.17835E+06    -35.8625E+06    -7.12821E+06     27.2291E+06    -35.8625E+06    -629.659E+03         32.5750
             329     12.7905E-03     52.7070E-03         2.40532    -377.048E-03        -1.35698     758.227E-03         1.07768        -1.16462        -2.21310     33.2487E-03    -16.3015E-03    -16.9473E-03    -16.0311E-03     32.3325E-03    -16.3015E-03     13.3466E-03    -830.595E+03    -10.1871E+06    -27.1360E+06    -5.51175E+06    -15.0469E+06    -17.5950E+06    -508.283E+03         30.5715
             330     11.8064E-03     52.6950E-03         2.65506    -552.089E-03        -1.53247     930.369E-03     980.242E-03        -1.34010        -2.79875     33.2572E-03    -16.3908E-03    -16.8664E-03    -16.1667E-03     32.5576E-03    -16.3908E-03     11.7605E-03    -4.43413E+06    -11.9130E+06    -50.0867E+06    -4.44499E+06    -50.0758E+06    -11.9130E+06    -365.529E+03         28.7666
             331     10.8222E-03     52.6828E-03         3.37580    -770.771E-03        -2.16520        -1.11496         3.01102        -1.45622    -924.495E-03     33.3513E-03    -16.4816E-03    -16.8697E-03    -16.2745E-03     32.7561E-03    -16.4816E-03     10.8306E-03    -1.97055E+06    -6.60542E+06    -81.2861E+06    -3.77180E+06    -81.2816E+06    -4.80863E+06    -311.141E+03         27.2237
             332     9.83818E-03     52.6727E-03         5.28265        -1.37020        -3.63572        -3.48908         5.13601        -1.37020         1.19384     33.3511E-03    -16.5689E-03    -16.7822E-03    -16.3402E-03     32.9091E-03    -16.5689E-03     9.35669E-03     3.95881E+06    -3.75896E+06    -103.479E+06    -3.76020E+06    -103.478E+06     3.95881E+06    -199.405E+03         25.9670
             333     8.85415E-03     52.6636E-03         4.92365        -1.15672        -3.63758        -3.12936         4.41543        -1.15672         3.69004     33.3810E-03    -16.6243E-03    -16.7567E-03    -16.3859E-03     33.0102E-03    -16.6243E-03     8.58856E-03     8.09242E+06    -4.48831E+06    -118.833E+06    -4.48890E+06    -118.832E+06     8.09242E+06    -79.2502E+03         24.9865
             334     7.87021E-03     52.6550E-03         4.19017    -964.049E-03        -3.19625        -2.28471         3.27864    -964.049E-03         4.77220     33.4297E-03    -16.6627E-03    -16.7670E-03    -16.4425E-03     33.1052E-03    -16.6627E-03     8.03833E-03     8.26157E+06    -5.71071E+06    -135.039E+06    -5.71084E+06    -135.039E+06     8.26157E+06    -27.2518E+03         24.2492
             335     6.88633E-03     52.6471E-03         5.13966    -696.851E-03        -4.51415        -3.23872         3.86423    -696.851E-03         6.34256     33.4632E-03    -16.6982E-03    -16.7650E-03    -16.4939E-03     33.1921E-03    -16.6982E-03     7.35229E-03     7.40384E+06    -7.58060E+06    -151.585E+06    -7.58070E+06    -151.585E+06     7.40384E+06    -30.2480E+03         23.7112
             336     5.90247E-03     52.6399E-03         5.33121    -187.798E-03        -5.33696        -4.05558         4.04982    -187.798E-03         6.75380     33.4869E-03    -16.7232E-03    -16.7637E-03    -16.5434E-03     33.2667E-03    -16.7232E-03     6.62787E-03     4.54443E+06    -9.76081E+06    -167.405E+06    -9.76100E+06    -167.404E+06     4.54443E+06    -44.2700E+03         23.3275
             337     4.91863E-03     52.6334E-03         3.84241     437.449E-03        -4.58398        -2.99253         2.20045     487.960E-03         5.78650     33.5103E-03    -16.7386E-03    -16.7717E-03    -16.6038E-03     33.3424E-03    -16.7386E-03     5.78217E-03     132.834E+03    -11.8909E+06    -182.850E+06    -11.8911E+06    -182.850E+06     132.834E+03     38.8815E+03         23.0588
             338     3.93489E-03     52.6280E-03         2.60352         1.12126        -4.09271        -1.48789    -51.8095E-03         1.17177         5.91489     33.5206E-03    -16.7436E-03    -16.7770E-03    -16.6558E-03     33.4043E-03    -16.7485E-03     4.80338E-03    -4.37315E+06    -13.9517E+06    -196.787E+06    -13.9525E+06    -196.786E+06    -4.37315E+06    -128.898E+03         22.8736
             339     2.95117E-03     52.6236E-03         2.91739         1.72703        -4.97603        -2.43804    -188.318E-03         2.29475         6.16312     33.5093E-03    -16.7417E-03    -16.7676E-03    -16.6811E-03     33.4381E-03    -16.7569E-03     3.74241E-03    -8.84239E+06    -15.8787E+06    -209.641E+06    -15.8804E+06    -209.640E+06    -8.84239E+06    -348.372E+03         22.7489
             340     1.96733E-03     52.6202E-03         5.06457         1.51149        -7.08308        -1.43150        -3.66933         4.59380         5.22047     33.5046E-03    -16.7392E-03    -16.7653E-03    -16.7131E-03     33.4686E-03    -16.7555E-03     2.62637E-03    -13.8776E+06    -17.7031E+06    -217.293E+06    -17.7054E+06    -217.291E+06    -13.8776E+06    -59.6915E+03         22.6692
             341     983.712E-06     52.6181E-03         8.78268         4.05130        -13.4601         5.65231        -12.8443         6.56590         6.13718     33.5046E-03    -16.7047E-03    -16.7998E-03    -16.7817E-03     33.4922E-03    -16.7106E-03     1.45814E-03    -18.5632E+06    -19.8031E+06    -224.290E+06    -19.6573E+06    -224.288E+06    -18.7108E+06     241.035E+03         22.6243
             342     16.7279E-03     51.7780E-03         2.23415    -801.630E-03        -1.18884    -738.623E-03         2.00522        -1.02292     82.9869E-03     35.0448E-03    -15.7729E-03    -19.2719E-03    -14.8940E-03     31.3613E-03    -16.4672E-03     25.2529E-03     201.114E+06     86.3644E+06    -7.23238E+06    -7.22138E+06     201.103E+06     86.3644E+06     956.945E+03         38.7416
             343     15.7434E-03     51.7401E-03         2.65671    -969.593E-03        -1.23440    -200.533E-03         1.72173        -1.06848        -1.91431     36.9098E-03    -16.0361E-03    -20.8737E-03    -15.5972E-03     31.6333E-03    -16.0361E-03     33.1375E-03     166.009E+06     9.40578E+06    -32.1956E+06    -10.6290E+06     166.006E+06    -12.1583E+06     171.347E+03         36.7535
             344     14.7592E-03     51.7097E-03         2.67490    -943.991E-03        -1.19901         1.62086     110.052E-03        -1.19901        -2.44613     34.8540E-03    -15.9448E-03    -18.9092E-03    -15.8302E-03     31.7750E-03    -15.9448E-03     24.6015E-03     97.6395E+06    -8.38775E+06    -51.2891E+06    -8.38515E+06     97.6369E+06    -51.2891E+06     190.907E+03         34.6676
             345     13.7747E-03     51.6894E-03         2.57560    -590.967E-03        -1.41804         1.90024     84.3911E-03        -1.41804        -2.04217     33.6353E-03    -16.1411E-03    -17.4942E-03    -15.9469E-03     32.0880E-03    -16.1411E-03     17.3519E-03     27.4325E+06    -6.06774E+06    -35.5031E+06    -6.02408E+06     27.3888E+06    -35.5031E+06    -313.212E+03         32.5756
             346     12.7905E-03     51.6741E-03         3.41130    -961.263E-03        -1.93459     715.318E-03         1.43232        -1.63219        -3.93136     33.2573E-03    -16.3041E-03    -16.9532E-03    -16.0420E-03     32.3460E-03    -16.3041E-03     13.3152E-03    -895.668E+03    -10.0217E+06    -27.2878E+06    -4.79894E+06    -15.2864E+06    -18.1198E+06    -574.857E+03         30.5842
             347     11.8062E-03     51.6620E-03         4.34174        -1.48613        -2.43233    -735.830E-03         2.92911        -1.77000        -4.41943     33.2742E-03    -16.3938E-03    -16.8804E-03    -16.1836E-03     32.5775E-03    -16.3938E-03     11.7397E-03    -3.92731E+06    -12.1861E+06    -49.9904E+06    -3.93793E+06    -49.9798E+06    -12.1861E+06    -560.906E+03         28.7878
             348     10.8222E-03     51.6500E-03         5.00485        -1.48990        -3.22741        -2.69667         4.75798        -1.77377        -1.81848     33.3696E-03    -16.4842E-03    -16.8854E-03    -16.2917E-03     32.7758E-03    -16.4842E-03     10.8234E-03    -1.90759E+06    -6.33157E+06    -81.3495E+06    -3.26386E+06    -81.3439E+06    -4.98096E+06    -558.924E+03         27.2491
             349     9.83812E-03     51.6397E-03         6.55410        -1.57753        -4.81880        -4.68447         6.41976        -1.57753    -560.875E-03     33.3632E-03    -16.5704E-03    -16.7928E-03    -16.3507E-03     32.9211E-03    -16.5704E-03     9.35761E-03     3.79277E+06    -3.13510E+06    -103.621E+06    -3.13730E+06    -103.618E+06     3.79277E+06    -427.135E+03         25.9928
             350     8.85418E-03     51.6307E-03         6.87570        -1.19368        -5.62498        -5.31139         6.56211        -1.19368         1.25596     33.3908E-03    -16.6250E-03    -16.7658E-03    -16.3956E-03     33.0207E-03    -16.6250E-03     8.58301E-03     7.95099E+06    -3.86648E+06    -118.915E+06    -3.86776E+06    -118.914E+06     7.95099E+06    -361.342E+03         25.0101
             351     7.87021E-03     51.6220E-03         6.52075    -674.156E-03        -5.85338        -5.30569         5.97306    -674.156E-03         4.00617     33.4267E-03    -16.6638E-03    -16.7629E-03    -16.4381E-03     33.1018E-03    -16.6638E-03     8.04178E-03     8.11897E+06    -5.27539E+06    -135.220E+06    -5.27596E+06    -135.219E+06     8.11897E+06    -246.914E+03         24.2693
             352     6.88628E-03     51.6141E-03         5.71845    -19.7508E-03        -5.75510        -5.07348         5.03683    -19.7508E-03         5.21486     33.4591E-03    -16.7022E-03    -16.7570E-03    -16.4859E-03     33.1881E-03    -16.7022E-03     7.34968E-03     7.64389E+06    -7.06675E+06    -151.598E+06    -7.06727E+06    -151.597E+06     7.64389E+06    -211.552E+03         23.7274
             353     5.90241E-03     51.6069E-03         3.72127     646.544E-03        -4.47901        -2.95337         2.19563     646.544E-03         4.87905     33.4912E-03    -16.7308E-03    -16.7604E-03    -16.5402E-03     33.2710E-03    -16.7308E-03     6.62824E-03     5.19379E+06    -9.19920E+06    -167.398E+06    -9.19955E+06    -167.398E+06     5.19379E+06    -178.445E+03         23.3402
             354     4.91861E-03     51.6005E-03         2.21142         1.09662        -3.44107    -815.798E-03    -464.361E-03         1.14713         4.80489     33.5179E-03    -16.7455E-03    -16.7724E-03    -16.6019E-03     33.3487E-03    -16.7468E-03     5.80704E-03     704.990E+03    -11.3457E+06    -182.482E+06    -11.3463E+06    -182.481E+06     704.990E+03    -207.052E+03         23.0685
             355     3.93484E-03     51.5950E-03         2.01434         1.45629        -3.58955        -1.46128    -405.744E-03         1.74810         4.13063     33.5344E-03    -16.7541E-03    -16.7803E-03    -16.6599E-03     33.4153E-03    -16.7554E-03     4.86371E-03    -4.26093E+06    -13.4255E+06    -196.226E+06    -13.4270E+06    -196.224E+06    -4.26093E+06    -439.229E+03         22.8812
             356     2.95113E-03     51.5906E-03         3.40519         1.81053        -5.32715        -2.89377    -380.509E-03         3.16285         4.11174     33.5413E-03    -16.7536E-03    -16.7877E-03    -16.7063E-03     33.4675E-03    -16.7612E-03     3.80837E-03    -8.97881E+06    -15.8950E+06    -209.451E+06    -15.8970E+06    -209.449E+06    -8.97881E+06    -523.815E+03         22.7550
             357     1.96745E-03     51.5873E-03         6.14540         1.96802        -8.26963        -1.01190        -5.04815         5.90385     873.380E-03     33.5054E-03    -16.7343E-03    -16.7711E-03    -16.7110E-03     33.4682E-03    -16.7572E-03     2.66959E-03    -14.2733E+06    -18.2725E+06    -217.721E+06    -18.2749E+06    -217.718E+06    -14.2733E+06    -119.913E+03         22.6744
             358     983.629E-06     51.5851E-03         10.1417         5.99610        -16.5497         6.01151        -15.6732         9.24972         4.34596     33.5061E-03    -16.7044E-03    -16.8016E-03    -16.7735E-03     33.4932E-03    -16.7197E-03     1.48713E-03    -18.2611E+06    -19.5902E+06    -223.495E+06    -19.4129E+06    -223.491E+06    -18.4418E+06     520.726E+03         22.6290
             359     16.7298E-03     50.7459E-03         2.32423    -614.803E-03        -1.35823    -207.523E-03         1.89554        -1.33682    -238.813E-03     35.1702E-03    -15.9542E-03    -19.2160E-03    -14.9310E-03     31.3851E-03    -16.4540E-03     25.5702E-03     201.396E+06     86.7852E+06    -5.96343E+06    -5.93538E+06     201.368E+06     86.7852E+06     1.34285E+06         38.7068
             360     15.7441E-03     50.7068E-03         2.72895    -915.113E-03        -1.43509    -327.003E-03         2.11943        -1.41368        -2.34416     36.7710E-03    -16.0244E-03    -20.7466E-03    -15.4230E-03     31.4475E-03    -16.0244E-03     33.1404E-03     166.944E+06     10.5935E+06    -30.7934E+06    -8.40843E+06     166.926E+06    -11.7741E+06     935.715E+03         36.7277
             361     14.7592E-03     50.6770E-03         3.27680        -1.26747        -1.61739     175.622E-03         1.73044        -1.51413        -3.32262     34.7447E-03    -15.9479E-03    -18.7968E-03    -15.7698E-03     31.7176E-03    -15.9479E-03     24.3620E-03     97.9849E+06    -7.82902E+06    -50.0837E+06    -7.82213E+06     97.9780E+06    -50.0837E+06    -200.868E+03         34.6544
             362     13.7749E-03     50.6563E-03         3.25088        -1.08160        -1.80269         1.72896     337.057E-03        -1.69942        -3.11606     33.5929E-03    -16.1467E-03    -17.4462E-03    -15.9150E-03     32.0617E-03    -16.1467E-03     17.2463E-03     27.8103E+06    -5.22268E+06    -34.2240E+06    -5.20225E+06     27.7899E+06    -34.2240E+06    -159.391E+03         32.5761
             363     12.7905E-03     50.6413E-03         3.44322        -1.06012        -2.05090         1.05472         1.21834        -1.94086        -3.41851     33.2499E-03    -16.3016E-03    -16.9483E-03    -16.0403E-03     32.3420E-03    -16.3016E-03     13.2979E-03    -780.593E+03    -9.45159E+06    -27.1070E+06    -3.78864E+06    -14.9848E+06    -18.5658E+06    -190.512E+03         30.5966
             364     11.8062E-03     50.6290E-03         5.37409        -1.65702        -3.47745        -2.49229         4.77209        -2.04018        -2.43795     33.2713E-03    -16.3941E-03    -16.8772E-03    -16.1830E-03     32.5771E-03    -16.3941E-03     11.7175E-03    -3.07667E+06    -12.2374E+06    -49.8337E+06    -3.08738E+06    -49.8230E+06    -12.2374E+06    -620.322E+03         28.8086
             365     10.8222E-03     50.6171E-03         7.04919        -1.88348        -5.02909        -4.95774         6.97784        -1.88348        -1.03371     33.3667E-03    -16.4855E-03    -16.8812E-03    -16.2919E-03     32.7774E-03    -16.4855E-03     10.7878E-03    -1.45978E+06    -5.96160E+06    -81.6525E+06    -2.46113E+06    -81.6471E+06    -4.96565E+06    -604.536E+03         27.2740
             366     9.83814E-03     50.6068E-03         6.83580        -1.56614        -5.21271        -5.11997         6.74306        -1.56614        -1.84905     33.3552E-03    -16.5716E-03    -16.7836E-03    -16.3396E-03     32.9112E-03    -16.5716E-03     9.37590E-03     3.69472E+06    -2.61043E+06    -103.554E+06    -2.61319E+06    -103.551E+06     3.69472E+06    -514.864E+03         26.0183
             367     8.85413E-03     50.5977E-03         7.28625        -1.11970        -6.13658        -5.93750         7.08717        -1.11970     345.066E-03     33.3737E-03    -16.6288E-03    -16.7449E-03    -16.3715E-03     33.0003E-03    -16.6288E-03     8.61778E-03     7.88276E+06    -3.51027E+06    -118.992E+06    -3.51232E+06    -118.990E+06     7.88276E+06    -477.513E+03         25.0336
             368     7.87018E-03     50.5891E-03         8.14412    -430.384E-03        -7.67960        -7.15535         7.61986    -430.384E-03         4.80085     33.4347E-03    -16.6691E-03    -16.7656E-03    -16.4341E-03     33.1032E-03    -16.6691E-03     8.12385E-03     7.98801E+06    -4.86911E+06    -135.290E+06    -4.87032E+06    -135.289E+06     7.98801E+06    -372.936E+03         24.2893
             369     6.88629E-03     50.5812E-03         6.08619     423.387E-03        -6.46265        -5.62705         5.25059     423.387E-03         5.94255     33.4818E-03    -16.7085E-03    -16.7733E-03    -16.4986E-03     33.2071E-03    -16.7085E-03     7.39911E-03     7.69925E+06    -6.65220E+06    -151.657E+06    -6.65356E+06    -151.656E+06     7.69925E+06    -417.304E+03         23.7436
             370     5.90240E-03     50.5740E-03         2.87056     972.598E-03        -3.75153        -2.34871         1.29196         1.14838         3.94538     33.5055E-03    -16.7378E-03    -16.7677E-03    -16.5469E-03     33.2847E-03    -16.7378E-03     6.63876E-03     5.46693E+06    -8.77839E+06    -167.588E+06    -8.78010E+06    -167.587E+06     5.46693E+06    -461.998E+03         23.3529
             371     4.91857E-03     50.5675E-03         2.13843         1.33770        -3.31678        -1.12729    -441.097E-03         1.72773         4.28498     33.5068E-03    -16.7442E-03    -16.7625E-03    -16.5845E-03     33.3380E-03    -16.7535E-03     5.79539E-03     582.405E+03    -11.0494E+06    -182.164E+06    -11.0506E+06    -182.163E+06     582.405E+03    -373.778E+03         23.0784
             372     3.93475E-03     50.5621E-03         2.86166         1.40812        -4.06764        -2.03750    -356.581E-03         2.59621         4.47622     33.5150E-03    -16.7436E-03    -16.7714E-03    -16.6266E-03     33.3961E-03    -16.7695E-03     4.86158E-03    -4.61053E+06    -13.4301E+06    -195.696E+06    -13.4310E+06    -195.696E+06    -4.61053E+06    -390.194E+03         22.8888
             373     2.95097E-03     50.5576E-03         4.04327         1.72689        -5.58557     11.2450E-03        -3.63840         3.81175         2.30598     33.5699E-03    -16.7662E-03    -16.8037E-03    -16.7067E-03     33.4945E-03    -16.7879E-03     3.85139E-03    -8.97919E+06    -15.7257E+06    -209.472E+06    -15.7261E+06    -209.472E+06    -8.97919E+06    -218.234E+03         22.7612
             374     1.96735E-03     50.5543E-03         6.40770         2.96179        -9.11028         4.62668        -8.75051         4.38303        -2.10379     33.5854E-03    -16.7666E-03    -16.8188E-03    -16.7663E-03     33.5473E-03    -16.7809E-03     2.70785E-03    -14.0629E+06    -17.9602E+06    -217.915E+06    -17.9606E+06    -217.915E+06    -14.0629E+06    -101.109E+03         22.6796
             375     983.711E-06     50.5523E-03         8.59598         2.62824        -10.8392         5.26362        -8.24591         3.36726         2.59926     33.5377E-03    -16.7084E-03    -16.8293E-03    -16.8065E-03     33.5243E-03    -16.7178E-03     1.52704E-03    -17.9092E+06    -19.6773E+06    -222.815E+06    -19.5002E+06    -222.812E+06    -18.0900E+06    -92.8920E+03         22.6337
             376     16.7279E-03     49.7125E-03         2.07240    -65.1725E-03        -1.62574     269.348E-03         1.73788        -1.62574    -647.402E-03     35.1486E-03    -15.9330E-03    -19.2156E-03    -14.9293E-03     31.3780E-03    -16.4487E-03     25.3796E-03     200.622E+06     86.6586E+06    -6.65011E+06    -6.62318E+06     200.595E+06     86.6586E+06     377.971E+03         38.6723
             377     15.7439E-03     49.6742E-03         2.49134    -474.252E-03        -1.74600     30.7474E-03         1.98634        -1.74600        -1.94396     36.7837E-03    -16.0210E-03    -20.7626E-03    -15.3840E-03     31.4050E-03    -16.0210E-03     33.3156E-03     167.532E+06     11.7299E+06    -30.7323E+06    -7.98551E+06     167.506E+06    -10.9906E+06     815.458E+03         36.7020
             378     14.7594E-03     49.6438E-03         3.75384        -1.42531        -2.11143    -697.200E-03         2.76352        -1.84923        -4.06534     34.7417E-03    -15.9568E-03    -18.7849E-03    -15.7198E-03     31.6766E-03    -15.9568E-03     24.4848E-03     98.8345E+06     -6.3131E+06    -47.0888E+06    -6.29709E+06     98.8185E+06    -47.0888E+06     554.467E+03         34.6412
             379     13.7748E-03     49.6238E-03         3.86994        -1.47756        -2.22712     10.2026E-03         2.11997        -1.96491        -3.95254     33.5884E-03    -16.1555E-03    -17.4329E-03    -15.8850E-03     32.0405E-03    -16.1555E-03     17.3500E-03     27.8405E+06    -5.01681E+06    -32.3809E+06    -4.96638E+06     27.7901E+06    -32.3809E+06    -20.1495E+03         32.5763
             380     12.7904E-03     49.6082E-03         3.45044        -1.22104        -2.11663    -100.119E-03         2.32952        -2.11663        -2.07322     33.2691E-03    -16.3026E-03    -16.9665E-03    -16.0471E-03     32.3498E-03    -16.3026E-03     13.3684E-03     184.306E+03    -8.72012E+06    -27.0015E+06    -3.12525E+06     -14.383E+06    -18.0290E+06    -236.578E+03         30.6086
             381     11.8063E-03     49.5962E-03         5.63855        -1.74200        -3.82827        -3.22637         5.44488        -2.15023    -909.916E-03     33.2719E-03    -16.3970E-03    -16.8748E-03    -16.1830E-03     32.5800E-03    -16.3970E-03     11.6988E-03    -1.75035E+06    -11.2311E+06    -49.7046E+06    -1.75552E+06    -49.6995E+06    -11.2311E+06    -464.093E+03         28.8289
             382     10.8221E-03     49.5841E-03         8.00078        -1.92358        -6.06532        -5.91980         7.85526        -1.92358        -1.62801     33.3513E-03    -16.4869E-03    -16.8645E-03    -16.2722E-03     32.7591E-03    -16.4869E-03     10.8090E-03    -752.526E+03    -5.39893E+06    -81.9099E+06    -1.48064E+06    -81.9062E+06    -4.67447E+06    -439.058E+03         27.2986
             383     9.83811E-03     49.5739E-03         7.57409        -1.52202        -6.05921        -5.91788         7.43276        -1.52202        -2.15869     33.3338E-03    -16.5747E-03    -16.7591E-03    -16.3152E-03     32.8898E-03    -16.5747E-03     9.37114E-03     3.89647E+06    -1.95510E+06    -103.445E+06    -1.95636E+06    -103.443E+06     3.89647E+06    -341.091E+03         26.0435
             384     8.85404E-03     49.5648E-03         7.19014        -1.03510        -6.12204        -5.83978         6.90788        -1.03510         2.36804     33.3486E-03    -16.6358E-03    -16.7128E-03    -16.3390E-03     32.9748E-03    -16.6358E-03     8.61796E-03     8.11994E+06    -3.09646E+06    -118.869E+06    -3.09795E+06    -118.868E+06     8.11994E+06    -381.720E+03         25.0568
             385     7.87003E-03     49.5562E-03         7.29126    -413.582E-03        -6.77667        -6.08970         6.60429    -413.582E-03         5.98805     33.4247E-03    -16.6800E-03    -16.7447E-03    -16.4101E-03     33.0901E-03    -16.6800E-03     8.16061E-03     8.13260E+06    -4.48913E+06    -135.261E+06    -4.49068E+06    -135.260E+06     8.13260E+06    -401.534E+03         24.3092
             386     6.88613E-03     49.5481E-03         5.91986     338.701E-03        -6.05137        -5.24660         5.11509     338.701E-03         5.71417     33.4995E-03    -16.7207E-03    -16.7788E-03    -16.4983E-03     33.2190E-03    -16.7207E-03     7.48019E-03     7.58096E+06    -6.06623E+06    -151.500E+06    -6.06798E+06    -151.498E+06     7.58096E+06    -463.609E+03         23.7598
             387     5.90236E-03     49.5410E-03         4.12521         1.02168        -4.82964        -4.33989         3.45969         1.19746         3.64955     33.5475E-03    -16.7519E-03    -16.7956E-03    -16.5694E-03     33.3213E-03    -16.7519E-03     6.72378E-03     5.42330E+06    -8.40513E+06    -167.838E+06    -8.40681E+06    -167.836E+06     5.42330E+06    -475.368E+03         23.3656
             388     4.91854E-03     49.5346E-03         2.99224         1.71510        -4.30968        -2.61079     875.153E-03         2.13331         4.19149     33.5407E-03    -16.7564E-03    -16.7844E-03    -16.6040E-03     33.3702E-03    -16.7662E-03     5.82649E-03     412.243E+03    -11.2980E+06    -182.231E+06    -11.2988E+06    -182.230E+06     412.243E+03    -281.744E+03         23.0883
             389     3.93473E-03     49.5292E-03         4.42906         1.83338        -5.79733         1.20342        -3.54665         2.80834         6.25129     33.5278E-03    -16.7452E-03    -16.7827E-03    -16.6268E-03     33.4095E-03    -16.7827E-03     4.85196E-03    -4.70354E+06    -13.9672E+06    -195.277E+06    -13.9676E+06    -195.277E+06    -4.70354E+06    -242.784E+03         22.8966
             390     2.95095E-03     49.5246E-03         6.07812         1.96510        -7.48900         4.53908        -6.68250         2.69764         5.07529     33.5735E-03    -16.7649E-03    -16.8086E-03    -16.6900E-03     33.4986E-03    -16.8086E-03     3.84081E-03    -9.10319E+06    -16.2442E+06    -209.567E+06    -16.2446E+06    -209.566E+06    -9.10319E+06    -205.052E+03         22.7675
             391     1.96720E-03     49.5212E-03         5.88975         1.67944        -6.89047         5.06037        -5.87062         1.48897         1.38844     33.6300E-03    -16.7948E-03    -16.8352E-03    -16.7810E-03     33.5923E-03    -16.8112E-03     2.69471E-03    -14.1152E+06    -18.0316E+06    -217.572E+06    -18.0319E+06    -217.572E+06    -14.1152E+06    -86.9559E+03         22.6849
             392     983.689E-06     49.5191E-03         7.75623        -1.04924        -5.77471         2.41667    -244.685E-03        -1.23971         6.86008     33.6040E-03    -16.7510E-03    -16.8530E-03    -16.8397E-03     33.5911E-03    -16.7514E-03     1.48959E-03    -17.6819E+06    -20.1868E+06    -222.428E+06    -19.3080E+06    -222.426E+06    -18.5627E+06    -308.673E+03         22.6384
             393     16.7303E-03     48.6803E-03         2.06034     31.0036E-03        -1.92820     120.076E-03         1.97127        -1.92820    -406.353E-03     35.1752E-03    -15.9007E-03    -19.2745E-03    -14.9354E-03     31.3849E-03    -16.4495E-03     25.4834E-03     200.782E+06     86.7227E+06    -6.05867E+06    -6.03891E+06     200.762E+06     86.7227E+06    -431.594E+03         38.6378
             394     15.7440E-03     48.6412E-03         2.47500    -333.014E-03        -2.06020    -62.6106E-03         2.20460        -2.06020        -1.23751     36.8311E-03    -16.0156E-03    -20.8155E-03    -15.3970E-03     31.4126E-03    -16.0156E-03     33.4698E-03     166.389E+06     10.4801E+06    -31.6353E+06    -8.37886E+06     166.376E+06    -12.7631E+06     279.894E+03         36.6763
             395     14.7591E-03     48.6111E-03         3.33896    -973.531E-03        -2.35127    -390.900E-03         2.59739        -2.19233        -3.19141     34.7427E-03    -15.9667E-03    -18.7760E-03    -15.6956E-03     31.6623E-03    -15.9667E-03     24.5126E-03     99.1767E+06    -7.32468E+06    -45.8544E+06    -7.30839E+06     99.1604E+06    -45.8544E+06     1.09740E+06         34.6278
             396     13.7748E-03     48.5908E-03         5.27191        -1.72406        -3.57770        -2.43872         4.66151        -2.25264        -3.18408     33.6310E-03    -16.1598E-03    -17.4713E-03    -15.9224E-03     32.0821E-03    -16.1598E-03     17.3859E-03     29.5961E+06    -4.84163E+06    -31.3727E+06    -4.58792E+06     29.3424E+06    -31.3727E+06    -88.3820E+03         32.5761
             397     12.7906E-03     48.5753E-03         6.63217        -1.94251        -4.75757        -4.34469         6.44163        -2.16486        -2.58196     33.2897E-03    -16.2953E-03    -16.9944E-03    -16.0660E-03     32.3613E-03    -16.2953E-03     13.4286E-03     757.683E+03    -8.09549E+06    -29.0259E+06    -2.24534E+06    -14.7783E+06    -19.3401E+06    -1.01817E+06         30.6201
             398     11.8062E-03     48.5631E-03         6.11029        -1.97370        -4.21875        -3.93357         5.85019        -1.99878        -2.66044     33.2629E-03    -16.3987E-03    -16.8642E-03    -16.1730E-03     32.5717E-03    -16.3987E-03     11.6905E-03    -989.560E+03    -10.8711E+06    -49.9279E+06    -998.800E+03    -49.9187E+06    -10.8711E+06    -160.062E+03         28.8487
             399     10.8222E-03     48.5512E-03         5.78421        -1.82960        -4.01613        -3.71549         5.48357        -1.82960        -2.83804     33.3493E-03    -16.4891E-03    -16.8601E-03    -16.2657E-03     32.7549E-03    -16.4891E-03     10.8263E-03    -106.156E+03    -5.23636E+06    -81.7347E+06    -973.663E+03    -81.7314E+06    -4.37219E+06     66.8903E+03         27.3227
             400     9.83805E-03     48.5409E-03         7.33431        -1.53853        -5.80805        -5.62387         7.15013        -1.53853        -1.33956     33.3238E-03    -16.5785E-03    -16.7453E-03    -16.3036E-03     32.8821E-03    -16.5785E-03     9.34394E-03     4.19672E+06    -1.52595E+06    -103.411E+06    -1.52627E+06    -103.410E+06     4.19672E+06    -114.127E+03         26.0684
             401     8.85404E-03     48.5320E-03         7.82687        -1.02643        -6.74717        -6.56838         7.64807        -1.02643         2.06552     33.3486E-03    -16.6402E-03    -16.7085E-03    -16.3370E-03     32.9771E-03    -16.6402E-03     8.59129E-03     8.40134E+06    -2.53218E+06    -118.653E+06    -2.53267E+06    -118.652E+06     8.40134E+06    -172.389E+03         25.0799
             402     7.87002E-03     48.5232E-03         5.88628    -431.425E-03        -5.28037        -5.01873         5.62465    -431.425E-03         2.70782     33.4092E-03    -16.6857E-03    -16.7235E-03    -16.3916E-03     33.0783E-03    -16.6867E-03     8.11153E-03     8.52408E+06     -3.8904E+06    -134.988E+06    -3.89163E+06    -134.987E+06     8.52408E+06    -371.265E+03         24.3291
             403     6.88604E-03     48.5152E-03         4.76671     181.465E-03        -4.61865        -4.37780         4.52586     181.465E-03         2.69853     33.4652E-03    -16.7164E-03    -16.7487E-03    -16.4566E-03     33.1883E-03    -16.7317E-03     7.42689E-03     7.69747E+06    -5.57263E+06    -151.362E+06    -5.57429E+06    -151.360E+06     7.69747E+06    -468.687E+03         23.7760
             404     5.90209E-03     48.5079E-03         4.26785     962.662E-03        -4.76305        -4.51292         4.01772     962.662E-03         2.94462     33.5486E-03    -16.7497E-03    -16.7989E-03    -16.5492E-03     33.3236E-03    -16.7743E-03     6.70267E-03     6.32743E+06    -7.74772E+06    -168.005E+06    -7.74869E+06    -168.004E+06     6.32743E+06    -195.472E+03         23.3784
             405     4.91840E-03     48.5016E-03         3.06961         1.74105        -4.25754        -1.76654     550.434E-03         1.76923         4.23016     33.5892E-03    -16.7798E-03    -16.8094E-03    -16.6240E-03     33.4182E-03    -16.7942E-03     5.84134E-03     1.83599E+06    -10.3234E+06    -182.157E+06    -10.3240E+06    -182.156E+06     1.83599E+06    -105.879E+03         23.0982
             406     3.93467E-03     48.4962E-03         4.73020         1.88716        -5.98397         3.52940        -4.81133         1.91534         5.03867     33.5994E-03    -16.7880E-03    -16.8114E-03    -16.6752E-03     33.4781E-03    -16.8029E-03     4.91776E-03    -4.17187E+06    -12.9851E+06    -195.195E+06    -12.9857E+06    -195.194E+06    -4.17187E+06    -186.883E+03         22.9044
             407     2.95095E-03     48.4917E-03         6.10270     909.522E-03        -6.23375         5.69863        -5.82968     909.522E-03         3.77891     33.6307E-03    -16.7963E-03    -16.8344E-03    -16.7354E-03     33.5538E-03    -16.8184E-03     3.89143E-03    -8.98808E+06    -15.6879E+06    -209.500E+06    -15.6882E+06    -209.499E+06    -8.98808E+06    -92.4271E+03         22.7738
             408     1.96729E-03     48.4882E-03         4.38234    -278.945E-03        -3.17351         1.83888    -439.582E-03    -469.419E-03         1.50058     33.6221E-03    -16.7931E-03    -16.8290E-03    -16.7629E-03     33.5843E-03    -16.8214E-03     2.69052E-03    -14.2526E+06    -18.2822E+06    -217.120E+06    -18.2825E+06    -217.119E+06    -14.2526E+06    -168.755E+03         22.6902
             409     983.538E-06     48.4860E-03         6.54802    -747.570E-03        -4.79871        -1.15720         3.09697    -938.044E-03         8.39194     33.6327E-03    -16.7831E-03    -16.8496E-03    -16.8203E-03     33.6205E-03    -16.8002E-03     1.43237E-03    -18.0999E+06    -20.7331E+06    -222.235E+06    -19.8527E+06    -222.234E+06    -18.9806E+06    -113.254E+03         22.6433
             410     16.7271E-03     47.6464E-03         2.24452    -148.777E-03        -2.24437    -96.1877E-03         2.19193        -2.24437     242.296E-03     35.0913E-03    -15.7662E-03    -19.3252E-03    -14.8351E-03     31.2963E-03    -16.4612E-03     25.6947E-03     200.755E+06     86.5742E+06    -7.32952E+06    -7.29220E+06     200.718E+06     86.5742E+06    -948.589E+03         38.6035
             411     15.7439E-03     47.6088E-03         2.60371    -376.179E-03        -2.38836    -115.838E-03         2.34336        -2.38836        -1.09183     36.9494E-03    -16.0233E-03    -20.9261E-03    -15.5507E-03     31.5740E-03    -16.0233E-03     33.4282E-03     165.263E+06     10.9723E+06    -33.8945E+06    -9.23654E+06     165.235E+06    -13.6575E+06    -552.149E+03         36.6504
             412     14.7593E-03     47.5780E-03         4.03494        -1.21100        -3.00295        -1.34554         3.67395        -2.50743        -2.21339     34.8190E-03    -15.9603E-03    -18.8587E-03    -15.7743E-03     31.7346E-03    -15.9603E-03     24.5787E-03     99.1539E+06    -5.70916E+06    -47.1872E+06    -5.70201E+06     99.1467E+06    -47.1872E+06     372.762E+03         34.6142
             413     13.7748E-03     47.5580E-03         7.56358        -2.12213        -5.62911        -5.18344         7.44922        -2.45344        -1.30982     33.6511E-03    -16.1584E-03    -17.4927E-03    -15.9428E-03     32.1011E-03    -16.1584E-03     17.3896E-03     31.4565E+06    -3.32546E+06    -30.8309E+06    -3.06579E+06     31.1969E+06    -30.8309E+06     15.4550E+03         32.5756
             414     12.7904E-03     47.5422E-03         9.51278        -2.15807        -7.53518        -7.33201         9.30961        -2.15807        -2.77193     33.2848E-03    -16.2964E-03    -16.9884E-03    -16.0630E-03     32.3594E-03    -16.2964E-03     13.4141E-03     1.06438E+06    -8.92219E+06    -29.6551E+06    -2.77625E+06    -15.1572E+06    -19.5795E+06    -538.748E+03         30.6311
             415     11.8063E-03     47.5303E-03         6.45888        -1.85230        -4.76363        -4.41379         6.10904        -1.85230        -3.01500     33.2594E-03    -16.3978E-03    -16.8616E-03    -16.1685E-03     32.5663E-03    -16.3978E-03     11.7058E-03    -2.38183E+06    -11.9806E+06    -50.7466E+06    -2.39215E+06    -50.7363E+06    -11.9806E+06    -189.752E+03         28.8679
             416     10.8221E-03     47.5182E-03         4.29151        -1.71529        -2.65001        -2.37551         4.01701        -1.71529    -141.794E-03     33.3477E-03    -16.4904E-03    -16.8573E-03    -16.2662E-03     32.7565E-03    -16.4904E-03     10.7955E-03    -787.141E+03    -5.11221E+06    -81.3254E+06    -1.41706E+06    -81.3218E+06    -4.48588E+06     228.807E+03         27.3464
             417     9.83809E-03     47.5080E-03         6.62660        -1.51255        -5.09713        -4.95392         6.48339        -1.51255     877.191E-03     33.3191E-03    -16.5799E-03    -16.7392E-03    -16.2981E-03     32.8779E-03    -16.5799E-03     9.33899E-03     4.06047E+06    -1.40764E+06    -103.389E+06    -1.40811E+06    -103.388E+06     4.06047E+06     98.7913E+03         26.0930
             418     8.85399E-03     47.4990E-03         7.97604        -1.01799        -6.85292        -6.81130         7.93442        -1.01799     387.072E-03     33.3622E-03    -16.6411E-03    -16.7211E-03    -16.3471E-03     32.9882E-03    -16.6411E-03     8.62306E-03     8.25505E+06    -2.30514E+06    -118.423E+06    -2.30543E+06    -118.423E+06     8.25505E+06    -108.725E+03         25.1029
             419     7.87005E-03     47.4903E-03         5.94410    -389.298E-03        -5.32826        -5.29464         5.91048    -389.298E-03     382.267E-03     33.4282E-03    -16.6856E-03    -16.7426E-03    -16.4104E-03     33.0970E-03    -16.6866E-03     8.11620E-03     8.43982E+06    -3.84000E+06    -134.692E+06    -3.84050E+06    -134.692E+06     8.43982E+06    -231.494E+03         24.3490
             420     6.88609E-03     47.4823E-03         3.89822     128.505E-03        -3.65324        -2.83185         3.07684     128.505E-03         2.29352     33.4564E-03    -16.7101E-03    -16.7463E-03    -16.4514E-03     33.1828E-03    -16.7314E-03     7.38129E-03     7.58409E+06    -6.16491E+06    -151.163E+06    -6.16590E+06    -151.162E+06     7.58409E+06    -160.020E+03         23.7923
             421     5.90220E-03     47.4750E-03         2.96748     448.104E-03        -2.90388    -878.011E-03     941.608E-03     448.104E-03         3.32504     33.4899E-03    -16.7144E-03    -16.7755E-03    -16.4946E-03     33.2702E-03    -16.7755E-03     6.61632E-03     5.49371E+06    -8.68264E+06    -167.966E+06    -8.68444E+06    -167.964E+06     5.49371E+06    -153.537E+03         23.3913
             422     4.91825E-03     47.4685E-03         2.58219     606.190E-03        -2.54288     70.4354E-03    -31.1233E-03     606.190E-03         3.52151     33.5470E-03    -16.7414E-03    -16.8056E-03    -16.5742E-03     33.3798E-03    -16.8056E-03     5.77171E-03     1.04823E+06    -10.9391E+06    -181.971E+06    -10.9408E+06    -181.970E+06     1.04823E+06    -99.0238E+03         23.1083
             423     3.93448E-03     47.4631E-03         3.82128     730.097E-03        -3.82531     113.176E-03    -117.207E-03     730.097E-03         1.41994     33.6363E-03    -16.8009E-03    -16.8355E-03    -16.6917E-03     33.5157E-03    -16.8241E-03     4.90882E-03    -4.38144E+06    -13.2345E+06    -195.255E+06    -13.2354E+06    -195.254E+06    -4.38144E+06    -37.8926E+03         22.9123
             424     2.95088E-03     47.4585E-03         4.15094     829.417E-03        -4.19905    -205.576E-06    -185.434E-03     966.949E-03    -742.138E-03     33.6978E-03    -16.8345E-03    -16.8634E-03    -16.7857E-03     33.6202E-03    -16.8345E-03     3.91728E-03    -9.07909E+06    -15.7098E+06    -209.237E+06    -15.7101E+06    -209.237E+06    -9.07909E+06    -96.9676E+03         22.7801
             425     1.96727E-03     47.4552E-03         4.76817         1.19474        -5.19841     541.529E-03        -1.10931         1.33227        -4.16378     33.6581E-03    -16.8082E-03    -16.8500E-03    -16.7952E-03     33.6201E-03    -16.8250E-03     2.69481E-03    -14.1525E+06    -18.1720E+06    -216.783E+06    -18.1723E+06    -216.782E+06    -14.1525E+06    -178.234E+03         22.6956
             426     983.638E-06     47.4530E-03         7.34682         1.41770        -7.94267         1.66221        -2.25806         1.41770         2.93965     33.6282E-03    -16.7732E-03    -16.8550E-03    -16.8254E-03     33.6154E-03    -16.7900E-03     1.50450E-03    -18.2166E+06    -20.5404E+06    -222.390E+06    -20.0845E+06    -222.390E+06    -18.6728E+06    -99.3384E+03         22.6480
             427     16.7299E-03     46.6141E-03         2.82624    -700.408E-03        -2.53670    -461.278E-03         2.58711        -2.53670    -583.357E-03     34.9708E-03    -15.8443E-03    -19.1265E-03    -14.7957E-03     31.2444E-03    -16.4487E-03     25.3330E-03     201.480E+06     85.6147E+06    -6.79873E+06    -6.77107E+06     201.453E+06     85.6147E+06    -728.405E+03         38.5700
             428     15.7434E-03     46.5751E-03         3.90308        -1.25212        -3.00256        -1.22446         3.52177        -2.64891        -2.34244     36.7243E-03    -16.0157E-03    -20.7086E-03    -15.4194E-03     31.4350E-03    -16.0157E-03     33.0343E-03     164.438E+06     8.43889E+06    -34.0473E+06    -10.0308E+06     164.391E+06    -15.5314E+06    -1.85516E+06         36.6251
             429     14.7592E-03     46.5455E-03         6.62500        -2.22182        -4.71759        -4.04457         6.38077        -2.65061        -2.81041     34.8457E-03    -15.9526E-03    -18.8931E-03    -15.8288E-03     31.7814E-03    -15.9526E-03     24.5504E-03     98.0548E+06    -8.00248E+06    -50.0469E+06    -7.97885E+06     98.0312E+06    -50.0469E+06    -823.773E+03         34.6006
             430     13.7747E-03     46.5247E-03         8.08225        -2.48578        -5.87001        -5.79449         8.00673        -2.48578        -1.32544     33.6702E-03    -16.1564E-03    -17.5138E-03    -15.9647E-03     32.1211E-03    -16.1564E-03     17.3687E-03     31.2293E+06    -5.28946E+06    -31.7744E+06    -5.23611E+06     31.1760E+06    -31.7744E+06     559.078E+03         32.5749
             431     12.7905E-03     46.5096E-03         7.40029        -2.25538        -5.36549        -5.18411         7.21891        -2.25538        -1.93775     33.2675E-03    -16.3023E-03    -16.9652E-03    -16.0569E-03     32.3591E-03    -16.3023E-03     13.2984E-03     1.12485E+06    -9.94708E+06    -27.7777E+06    -3.88777E+06    -14.3544E+06    -18.3578E+06     326.136E+03         30.6418
             432     11.8062E-03     46.4972E-03         7.13116        -2.01990        -5.23727        -5.03838         6.93227        -2.01990        -1.52955     33.2573E-03    -16.3944E-03    -16.8629E-03    -16.1750E-03     32.5694E-03    -16.3944E-03     11.6617E-03    -2.99061E+06    -12.6818E+06    -51.0675E+06    -2.99590E+06    -51.0623E+06    -12.6818E+06    -439.181E+03         28.8868
             433     10.8222E-03     46.4853E-03         7.31389        -1.72404        -5.62441        -5.51930         7.20878        -1.72404         1.63305     33.3296E-03    -16.4877E-03    -16.8419E-03    -16.2590E-03     32.7467E-03    -16.4877E-03     10.7181E-03    -1.43148E+06    -5.85283E+06    -81.5794E+06    -2.17543E+06    -81.5762E+06    -5.11205E+06    -202.625E+03         27.3698
             434     9.83799E-03     46.4751E-03         6.28730        -1.38233        -4.84671        -4.75810         6.19868        -1.38233     961.866E-03     33.3114E-03    -16.5777E-03    -16.7337E-03    -16.2974E-03     32.8751E-03    -16.5777E-03     9.28638E-03     3.68965E+06    -1.88416E+06    -103.156E+06    -1.88466E+06    -103.156E+06     3.68965E+06     37.5770E+03         26.1173
             435     8.85400E-03     46.4661E-03         5.46785        -1.05229        -4.24553        -3.94394         5.16626        -1.05229     729.471E-03     33.3570E-03    -16.6395E-03    -16.7175E-03    -16.3467E-03     32.9862E-03    -16.6395E-03     8.58490E-03     7.97704E+06    -2.80999E+06    -118.250E+06    -2.81024E+06    -118.250E+06     7.97704E+06    -1.27157E+03         25.1257
             436     7.86998E-03     46.4573E-03         5.56677    -686.944E-03        -4.61103        -4.00267         4.95841    -686.944E-03         2.96066     33.4353E-03    -16.6845E-03    -16.7508E-03    -16.4216E-03     33.1061E-03    -16.6845E-03     8.09430E-03     8.21024E+06    -4.59154E+06    -134.467E+06    -4.59190E+06    -134.467E+06     8.21024E+06     70.4364E+03         24.3688
             437     6.88613E-03     46.4493E-03         3.99518    -367.957E-03        -3.25987        -2.00963         2.74494    -367.957E-03         4.00495     33.4742E-03    -16.7201E-03    -16.7541E-03    -16.4755E-03     33.2017E-03    -16.7262E-03     7.37051E-03     7.44689E+06    -6.56810E+06    -150.948E+06    -6.56847E+06    -150.947E+06     7.44689E+06     102.421E+03         23.8086
             438     5.90223E-03     46.4420E-03         2.38785    -88.7706E-03        -1.79326     724.468E-03     127.505E-03    -346.159E-03         3.28021     33.4849E-03    -16.7181E-03    -16.7668E-03    -16.5001E-03     33.2665E-03    -16.7664E-03     6.59493E-03     5.33190E+06    -8.84421E+06    -167.650E+06    -8.84558E+06    -167.648E+06     5.33190E+06    -22.0972E+03         23.4043
             439     4.91835E-03     46.4356E-03         3.08226    -181.676E-03        -2.26632    -453.467E-03         1.52679    -439.064E-03         2.33591     33.5145E-03    -16.7177E-03    -16.7968E-03    -16.5523E-03     33.3492E-03    -16.7968E-03     5.73622E-03     728.837E+03    -11.5246E+06    -181.918E+06    -11.5261E+06    -181.916E+06     728.837E+03    -27.1490E+03         23.1184
             440     3.93452E-03     46.4300E-03         5.06903     86.5999E-03        -4.43846        -4.13068         4.76125     86.5999E-03    -301.209E-03     33.5991E-03    -16.7764E-03    -16.8227E-03    -16.6620E-03     33.4817E-03    -16.8198E-03     4.83357E-03    -4.63366E+06    -14.0596E+06    -194.938E+06    -14.0602E+06    -194.937E+06    -4.63366E+06    -31.3306E+03         22.9203
             441     2.95081E-03     46.4254E-03         4.51383         1.29286        -5.12976        -4.96386         3.91209         1.72869        -1.05333     33.6700E-03    -16.8197E-03    -16.8503E-03    -16.7592E-03     33.5966E-03    -16.8374E-03     3.80352E-03    -9.42064E+06    -16.4908E+06    -208.943E+06    -16.4910E+06    -208.943E+06    -9.42064E+06    -170.334E+03         22.7865
             442     1.96721E-03     46.4220E-03         4.93463         2.48731        -6.86858    -540.849E-03        -2.88017         3.97437        -4.58822     33.6753E-03    -16.8209E-03    -16.8544E-03    -16.8065E-03     33.6387E-03    -16.8322E-03     2.65845E-03    -14.5118E+06    -18.4985E+06    -216.716E+06    -18.4992E+06    -216.715E+06    -14.5118E+06    -337.078E+03         22.7009
             443     983.646E-06     46.4200E-03         8.59253         4.02636        -12.2552         5.13568        -9.84957         5.07759         3.10772     33.6473E-03    -16.7666E-03    -16.8807E-03    -16.8674E-03     33.6340E-03    -16.7666E-03     1.54885E-03    -18.2718E+06    -20.1557E+06    -222.967E+06    -19.7005E+06    -222.966E+06    -18.7280E+06    -80.4257E+03         22.6527
             444     16.7284E-03     45.5813E-03         3.86382        -1.24266        -3.16488        -1.39572         3.57917        -2.72718        -1.85993     35.1034E-03    -15.9024E-03    -19.2010E-03    -14.8221E-03     31.2644E-03    -16.4423E-03     25.6837E-03     202.333E+06     86.1539E+06    -6.49309E+06    -6.49200E+06     202.332E+06     86.1539E+06    -178.874E+03         38.5371
             445     15.7442E-03     45.5429E-03         6.48292        -2.44826        -4.45827        -3.83567         6.14528        -2.73322        -2.90928     36.7905E-03    -16.0114E-03    -20.7791E-03    -15.3537E-03     31.3651E-03    -16.0114E-03     33.4443E-03     165.055E+06     8.27264E+06    -33.5907E+06    -10.2057E+06     165.030E+06    -15.0867E+06    -498.259E+03         36.6002
             446     14.7590E-03     45.5121E-03         7.65685        -2.60900        -5.39652        -5.26513         7.52545        -2.60900        -2.41426     34.8228E-03    -15.9446E-03    -18.8782E-03    -15.8182E-03     31.7628E-03    -15.9446E-03     24.4844E-03     96.9721E+06    -10.3439E+06    -51.8914E+06    -10.2850E+06     96.9133E+06    -51.8914E+06    -1.07499E+06         34.5872
             447     13.7749E-03     45.4920E-03         6.20644        -2.37319        -4.12685        -3.85345         6.02968        -2.46982        -2.19279     33.6485E-03    -16.1461E-03    -17.5024E-03    -15.9812E-03     32.1273E-03    -16.1461E-03     17.2235E-03     30.2790E+06    -7.11181E+06    -33.7627E+06    -7.05650E+06     30.2237E+06    -33.7627E+06    -512.099E+03         32.5741
             448     12.7905E-03     45.4765E-03         5.57889        -2.29749        -3.46086        -3.09390         5.30856        -2.39412        -2.66501     33.2541E-03    -16.2959E-03    -16.9582E-03    -16.0563E-03     32.3522E-03    -16.2959E-03     13.2451E-03     1.49764E+06    -9.98669E+06    -27.6064E+06    -4.02781E+06    -13.6183E+06    -18.4494E+06     10.8194E+03         30.6522
             449     11.8064E-03     45.4644E-03         8.91743        -2.18407        -6.78994        -6.59275         8.72023        -2.18407        -2.45017     33.2392E-03    -16.3889E-03    -16.8503E-03    -16.1683E-03     32.5573E-03    -16.3889E-03     11.6088E-03    -2.91811E+06    -12.7178E+06    -50.8522E+06    -2.92064E+06    -50.8497E+06    -12.7178E+06    -237.393E+03         28.9054
             450     10.8221E-03     45.4524E-03         9.94446        -1.71442        -8.19238        -7.99186         9.74394        -1.71442        -1.82127     33.3182E-03    -16.4815E-03    -16.8367E-03    -16.2585E-03     32.7400E-03    -16.4815E-03     10.6714E-03    -1.76085E+06    -6.59025E+06    -81.8766E+06    -2.73185E+06    -81.8727E+06    -5.62310E+06    -435.074E+03         27.3928
             451     9.83818E-03     45.4422E-03         5.36439        -1.02233        -4.21267        -3.75428         5.18984        -1.30617        -1.29189     33.3079E-03    -16.5708E-03    -16.7371E-03    -16.3054E-03     32.8762E-03    -16.5708E-03     9.23903E-03     3.21093E+06    -2.85999E+06    -103.128E+06    -2.86146E+06    -103.127E+06     3.21093E+06    -252.581E+03         26.1415
             452     8.85407E-03     45.4332E-03         2.69322    -722.770E-03        -1.75595    -520.429E-03         1.95885        -1.22391         1.90436     33.3459E-03    -16.6311E-03    -16.7148E-03    -16.3464E-03     32.9775E-03    -16.6311E-03     8.55613E-03     7.51378E+06    -3.67654E+06    -118.230E+06    -3.67674E+06    -118.230E+06     7.51378E+06     48.9376E+03         25.1484
             453     7.87012E-03     45.4243E-03         3.47379    -558.522E-03        -2.61045    -840.013E-03         2.43971        -1.29488         3.74760     33.4132E-03    -16.6756E-03    -16.7376E-03    -16.4109E-03     33.0865E-03    -16.6756E-03     8.06008E-03     7.86811E+06    -5.08642E+06    -134.276E+06    -5.08675E+06    -134.276E+06     7.86811E+06     183.686E+03         24.3886
             454     6.88614E-03     45.4163E-03         4.33887    -743.591E-03        -3.20948        -2.19238         3.84082        -1.26264         2.65500     33.4562E-03    -16.7174E-03    -16.7388E-03    -16.4688E-03     33.1868E-03    -16.7181E-03     7.32470E-03     7.31459E+06    -6.94520E+06    -150.705E+06    -6.94546E+06    -150.704E+06     7.31459E+06     126.342E+03         23.8250
             455     5.90228E-03     45.4091E-03         4.54802    -812.363E-03        -3.26607        -2.65247         4.19181        -1.06975     746.799E-03     33.4961E-03    -16.7405E-03    -16.7557E-03    -16.5241E-03     33.2793E-03    -16.7553E-03     6.57450E-03     5.26932E+06    -9.20069E+06    -167.270E+06    -9.20121E+06    -167.270E+06     5.26932E+06     62.5596E+03         23.4173
             456     4.91847E-03     45.4026E-03         4.14391    -523.628E-03        -3.05172        -2.37088         3.72046    -781.016E-03     933.150E-03     33.5343E-03    -16.7473E-03    -16.7869E-03    -16.5892E-03     33.3664E-03    -16.7772E-03     5.78579E-03     800.914E+03    -11.5617E+06    -181.559E+06    -11.5623E+06    -181.558E+06     800.914E+03    -113.085E+03         23.1286
             457     3.93470E-03     45.3970E-03         4.49528    -315.490E-03        -3.57284        -2.77486         3.69729    -315.490E-03         1.41801     33.5661E-03    -16.7652E-03    -16.8009E-03    -16.6564E-03     33.4475E-03    -16.7911E-03     4.85253E-03    -4.62746E+06    -13.9134E+06    -194.718E+06    -13.9137E+06    -194.717E+06    -4.62746E+06    -95.9942E+03         22.9283
             458     2.95098E-03     45.3923E-03         4.23448     168.892E-03        -3.81175        -2.41534         2.53978     467.195E-03         2.56655     33.5877E-03    -16.7781E-03    -16.8096E-03    -16.7069E-03     33.5166E-03    -16.8096E-03     3.73633E-03    -9.47707E+06    -16.1361E+06    -208.753E+06    -16.1363E+06    -208.753E+06    -9.47707E+06    -69.8588E+03         22.7929
             459     1.96721E-03     45.3890E-03         4.37265     238.421E-03        -4.05978        -1.02022    -16.4441E-03         1.58796         1.42773     33.6102E-03    -16.7889E-03    -16.8213E-03    -16.7583E-03     33.5749E-03    -16.8166E-03     2.61566E-03    -14.7680E+06    -18.1079E+06    -216.862E+06    -18.1086E+06    -216.861E+06    -14.7680E+06    -194.006E+03         22.7063
             460     983.571E-06     45.3867E-03         7.64194         2.04861        -9.44660         1.35049        -4.20638         3.09984         7.97352     33.6372E-03    -16.7772E-03    -16.8600E-03    -16.8410E-03     33.6245E-03    -16.7835E-03     1.47946E-03    -18.5735E+06    -19.8133E+06    -223.309E+06    -19.5864E+06    -223.309E+06    -18.8012E+06    -8.94830E+03         22.6573
             461     16.7292E-03     44.5486E-03         4.47698        -1.45714        -3.49310        -2.07253         4.37697        -2.77770    -557.985E-03     35.0917E-03    -15.7919E-03    -19.2998E-03    -14.8421E-03     31.2905E-03    -16.4484E-03     25.5769E-03     201.955E+06     85.9498E+06    -7.48793E+06    -7.48425E+06     201.952E+06     85.9498E+06     241.312E+03         38.5042
             462     15.7435E-03     44.5098E-03         7.24481        -2.73483        -4.87539        -4.76944         7.13886        -2.73483    -444.609E-03     36.9436E-03    -16.0158E-03    -20.9278E-03    -15.5274E-03     31.5432E-03    -16.0158E-03     33.4831E-03     166.259E+06     9.35704E+06    -33.2370E+06    -10.1870E+06     166.244E+06    -13.6784E+06     136.713E+03         36.5755
             463     14.7596E-03     44.4793E-03         6.65816        -2.61571        -4.37063        -4.31934         6.60687        -2.61571    -869.323E-03     34.8314E-03    -15.9311E-03    -18.9003E-03    -15.8395E-03     31.7706E-03    -15.9311E-03     24.5021E-03     97.7239E+06    -7.82952E+06    -52.1427E+06    -7.78471E+06     97.6791E+06    -52.1427E+06    -1.01433E+06         34.5740
             464     13.7749E-03     44.4590E-03         6.04439        -2.42605        -3.86259        -3.59190         5.87033        -2.52268        -2.29987     33.6073E-03    -16.1306E-03    -17.4767E-03    -15.9518E-03     32.0824E-03    -16.1306E-03     17.2337E-03     29.0450E+06    -5.63758E+06    -35.3889E+06    -5.58162E+06     28.9891E+06    -35.3889E+06    -1.17819E+06         32.5732
             465     12.7907E-03     44.4436E-03         7.77072        -2.27627        -5.62437        -5.27638         7.51937        -2.37290        -3.29973     33.2433E-03    -16.2917E-03    -16.9517E-03    -16.0465E-03     32.3382E-03    -16.2917E-03     13.2642E-03     748.527E+03    -9.99780E+06    -27.5461E+06    -4.51564E+06    -13.8084E+06    -18.4713E+06    -289.346E+03         30.6623
             466     11.8063E-03     44.4315E-03         8.65847        -2.07841        -6.57720        -6.41746         8.49874        -2.07841        -2.25737     33.2327E-03    -16.3845E-03    -16.8483E-03    -16.1660E-03     32.5504E-03    -16.3845E-03     11.6106E-03    -3.62519E+06    -12.6332E+06    -50.4607E+06    -3.62685E+06    -50.4590E+06    -12.6332E+06    -135.211E+03         28.9237
             467     10.8223E-03     44.4194E-03         7.31167        -1.74171        -5.45022        -5.15455         7.01600        -1.74171        -2.71882     33.3126E-03    -16.4745E-03    -16.8381E-03    -16.2598E-03     32.7343E-03    -16.4745E-03     10.6713E-03    -2.34561E+06    -6.65951E+06    -81.7915E+06    -3.11494E+06    -81.7883E+06    -5.89335E+06    -434.435E+03         27.4156
             468     9.83815E-03     44.4093E-03         4.79696        -1.24181        -3.35745        -2.79241         4.51576        -1.52564        -1.88792     33.2996E-03    -16.5625E-03    -16.7371E-03    -16.3027E-03     32.8652E-03    -16.5625E-03     9.26949E-03     2.68505E+06    -3.42420E+06    -103.327E+06    -3.42637E+06    -103.324E+06     2.68505E+06    -390.954E+03         26.1655
             469     8.85418E-03     44.4002E-03         2.91326    -753.955E-03        -1.89789    -592.087E-03         2.37061        -1.51711         1.56282     33.3463E-03    -16.6218E-03    -16.7245E-03    -16.3510E-03     32.9728E-03    -16.6218E-03     8.61548E-03     7.05445E+06    -4.25335E+06    -118.216E+06    -4.25392E+06    -118.215E+06     7.05445E+06    -157.455E+03         25.1711
             470     7.87017E-03     44.3915E-03         2.29627    -287.383E-03        -1.69504     292.811E-03         1.71607        -1.69504         1.67903     33.4071E-03    -16.6644E-03    -16.7427E-03    -16.4124E-03     33.0768E-03    -16.6644E-03     8.10419E-03     7.38198E+06    -5.50553E+06    -134.253E+06    -5.50562E+06    -134.253E+06     7.38198E+06     13.6586E+03         24.4084
             471     6.88626E-03     44.3834E-03         4.10004    -895.220E-03        -2.79255        -1.78545         4.02128        -1.82356     869.823E-03     33.4423E-03    -16.7057E-03    -16.7366E-03    -16.4656E-03     33.1720E-03    -16.7064E-03     7.33479E-03     7.07015E+06    -7.30352E+06    -150.476E+06    -7.30368E+06    -150.476E+06     7.07015E+06     65.2444E+03         23.8414
             472     5.90236E-03     44.3761E-03         6.62800        -1.58232        -4.56342        -4.53629         6.60087        -1.58232    -28.3105E-03     33.4882E-03    -16.7367E-03    -16.7515E-03    -16.5316E-03     33.2713E-03    -16.7397E-03     6.57754E-03     4.90586E+06    -9.42213E+06    -166.725E+06    -9.42261E+06    -166.725E+06     4.90586E+06    -140.676E+03         23.4304
             473     4.91851E-03     44.3696E-03         5.10722        -1.02708        -3.56636        -2.67943         4.38431        -1.19109         1.59709     33.5342E-03    -16.7528E-03    -16.7814E-03    -16.6097E-03     33.3648E-03    -16.7551E-03     5.81422E-03     301.780E+03    -11.7834E+06    -181.247E+06    -11.7839E+06    -181.246E+06     301.780E+03    -226.475E+03         23.1389
             474     3.93481E-03     44.3639E-03         4.01405        -1.25858        -2.17230         1.57072     435.053E-03        -1.42259         4.92857     33.5398E-03    -16.7591E-03    -16.7808E-03    -16.6574E-03     33.4201E-03    -16.7628E-03     4.87367E-03    -4.92196E+06    -14.0859E+06     -194.84E+06    -14.0867E+06    -194.839E+06    -4.92196E+06    -168.697E+03         22.9363
             475     2.95104E-03     44.3594E-03         4.98034        -1.15218        -3.21685         1.95486         1.21526        -2.55882         5.25238     33.5443E-03    -16.7595E-03    -16.7848E-03    -16.6986E-03     33.4719E-03    -16.7733E-03     3.77213E-03    -9.59175E+06    -16.1435E+06    -208.749E+06    -16.1446E+06    -208.748E+06    -9.59175E+06    -24.9202E+03         22.7993
             476     1.96737E-03     44.3559E-03         6.55512        -1.31875        -4.58116    -813.500E-03         5.62985        -4.16114         2.28183     33.5354E-03    -16.7529E-03    -16.7825E-03    -16.7276E-03     33.4996E-03    -16.7720E-03     2.61510E-03    -14.8297E+06    -18.1667E+06    -216.770E+06    -18.1673E+06    -216.770E+06    -14.8297E+06     143.378E+03         22.7116
             477     983.679E-06     44.3537E-03         12.2286        -3.92693        -7.52370        -4.32983         10.8028        -5.69498         6.81402     33.5390E-03    -16.7430E-03    -16.7960E-03    -16.7749E-03     33.5269E-03    -16.7520E-03     1.45176E-03    -18.7700E+06    -19.8008E+06    -223.146E+06    -19.5740E+06    -223.145E+06    -18.9977E+06     210.559E+03         22.6620
             478     16.7283E-03     43.5158E-03         4.15774        -1.40225        -2.99709        -1.59000         4.06779        -2.71939         1.11131     35.1702E-03    -15.9077E-03    -19.2625E-03    -14.9919E-03     31.4328E-03    -16.4410E-03     25.3354E-03     202.459E+06     86.2578E+06    -6.47612E+06    -6.47034E+06     202.453E+06     86.2578E+06     388.135E+03         38.4721
             479     15.7443E-03     43.4766E-03         5.55619        -2.32562        -3.51390        -2.95526         5.41668        -2.74475     577.377E-03     36.8182E-03    -16.0050E-03    -20.8131E-03    -15.4662E-03     31.4713E-03    -16.0050E-03     33.2682E-03     167.250E+06     10.1097E+06    -32.0298E+06    -8.77664E+06     167.237E+06    -13.1309E+06    -279.669E+03         36.5513
             480     14.7592E-03     43.4465E-03         6.61254        -2.65026        -4.24141        -3.97446         6.39145        -2.69613        -2.27137     34.7517E-03    -15.9280E-03    -18.8237E-03    -15.7604E-03     31.6884E-03    -15.9280E-03     24.4855E-03     98.1346E+06    -7.95483E+06    -51.4376E+06    -7.94462E+06     98.1244E+06    -51.4376E+06    -688.892E+03         34.5608
             481     13.7751E-03     43.4260E-03         8.10304        -2.54578        -5.76764        -5.57560         7.91099        -2.54578        -2.37812     33.6004E-03    -16.1285E-03    -17.4718E-03    -15.9357E-03     32.0642E-03    -16.1285E-03     17.2863E-03     28.5309E+06    -6.39918E+06    -35.4041E+06    -6.37778E+06     28.5095E+06    -35.4041E+06    -554.541E+03         32.5721
             482     12.7905E-03     43.4107E-03         8.53990        -2.28334        -6.36005        -6.27512         8.45498        -2.28334        -1.69134     33.2387E-03    -16.2862E-03    -16.9525E-03    -16.0475E-03     32.3337E-03    -16.2862E-03     13.2633E-03    -128.361E+03    -10.1963E+06    -27.7711E+06    -4.89567E+06    -14.2411E+06    -18.9590E+06    -496.626E+03         30.6722
             483     11.8065E-03     43.3985E-03         5.63254        -1.41477        -4.19418        -3.34655         5.44772        -2.07758    -508.140E-03     33.2246E-03    -16.3790E-03    -16.8455E-03    -16.1638E-03     32.5429E-03    -16.3790E-03     11.6042E-03     -3.5961E+06    -12.6672E+06    -50.1191E+06    -3.60594E+06    -50.1092E+06    -12.6672E+06    -401.147E+03         28.9416
             484     10.8223E-03     43.3866E-03         3.95493        -1.29412        -2.50198        -1.44528         3.66023        -2.05612     572.617E-03     33.2954E-03    -16.4688E-03    -16.8266E-03    -16.2475E-03     32.7163E-03    -16.4688E-03     10.6779E-03    -2.28235E+06    -6.85269E+06    -81.7371E+06    -3.07404E+06    -81.7346E+06    -6.06347E+06    -390.381E+03         27.4382
             485     9.83827E-03     43.3764E-03         5.72590        -1.92948        -3.55382        -3.23963         5.51090        -2.02868    -286.604E-03     33.2979E-03    -16.5570E-03    -16.7409E-03    -16.3035E-03     32.8605E-03    -16.5570E-03     9.30024E-03     2.53833E+06    -3.38972E+06    -103.346E+06    -3.39176E+06    -103.344E+06     2.53833E+06    -446.435E+03         26.1893
             486     8.85417E-03     43.3673E-03         5.62678        -1.63048        -3.73223        -3.33707         5.49364        -1.89250     37.8778E-03     33.3520E-03    -16.6152E-03    -16.7368E-03    -16.3627E-03     32.9780E-03    -16.6152E-03     8.62274E-03     6.94445E+06    -4.29686E+06    -118.188E+06    -4.29885E+06    -118.186E+06     6.94445E+06    -441.950E+03         25.1936
             487     7.87022E-03     43.3585E-03         3.80091        -1.08332        -2.38810        -1.50001         3.66505        -1.83556     746.973E-03     33.4107E-03    -16.6551E-03    -16.7556E-03    -16.4266E-03     33.0817E-03    -16.6551E-03     8.08874E-03     7.27072E+06    -5.50690E+06    -134.218E+06    -5.50836E+06    -134.217E+06     7.27072E+06    -336.060E+03         24.4282
             488     6.88631E-03     43.3504E-03         3.64453        -1.13025        -2.10575    -591.631E-03         2.95467        -1.95450         1.82386     33.4405E-03    -16.6927E-03    -16.7477E-03    -16.4783E-03     33.1711E-03    -16.6927E-03     7.32368E-03     6.91319E+06    -6.92029E+06    -150.264E+06    -6.92188E+06    -150.262E+06     6.91319E+06    -362.237E+03         23.8578
             489     5.90244E-03     43.3432E-03         4.89764        -1.19196        -3.17701    -765.829E-03         3.46570        -2.17120         2.29645     33.4907E-03    -16.7246E-03    -16.7660E-03    -16.5486E-03     33.2732E-03    -16.7246E-03     6.58751E-03     5.33125E+06    -8.91808E+06    -166.594E+06    -8.91930E+06    -166.593E+06     5.33125E+06    -300.508E+03         23.4436
             490     4.91869E-03     43.3366E-03         5.24412        -1.31205        -3.30692    -881.157E-03         3.95866        -2.45235         2.54865     33.5157E-03    -16.7367E-03    -16.7789E-03    -16.6108E-03     33.3476E-03    -16.7367E-03     5.78788E-03     956.196E+03    -11.4030E+06    -181.239E+06    -11.4032E+06    -181.239E+06     956.196E+03    -24.5547E+03         23.1492
             491     3.93486E-03     43.3310E-03         5.86858        -1.90324        -3.27550     779.826E-03         3.01433        -3.10431         3.53053     33.4983E-03    -16.7383E-03    -16.7600E-03    -16.6425E-03     33.3808E-03    -16.7383E-03     4.82719E-03    -4.77866E+06    -13.9852E+06    -194.662E+06    -13.9859E+06    -194.661E+06    -4.77866E+06    -28.9413E+03         22.9444
             492     2.95114E-03     43.3264E-03         6.46450    -890.611E-03        -4.77134         1.42335         3.97935        -4.60014         2.98809     33.5073E-03    -16.7421E-03    -16.7652E-03    -16.6924E-03     33.4345E-03    -16.7421E-03     3.78541E-03    -9.85247E+06    -16.4668E+06    -208.829E+06    -16.4683E+06    -208.827E+06    -9.85247E+06    -72.5291E+03         22.8058
             493     1.96745E-03     43.3230E-03         9.82598        -2.08254        -6.86692        -1.82366         9.56710        -6.86692        -1.05197     33.4851E-03    -16.7247E-03    -16.7604E-03    -16.7216E-03     33.4490E-03    -16.7274E-03     2.61893E-03    -14.9159E+06    -18.3689E+06    -216.601E+06    -18.3697E+06    -216.600E+06    -14.9159E+06     38.4857E+03         22.7169
             494     983.702E-06     43.3208E-03         18.5954        -7.53481        -9.83115        -6.60583         17.4832        -9.64793         5.79288     33.4296E-03    -16.6592E-03    -16.7704E-03    -16.7554E-03     33.4173E-03    -16.6619E-03     1.48941E-03    -18.6387E+06    -19.5645E+06    -222.839E+06    -19.5654E+06    -222.838E+06    -18.6387E+06     297.118E+03         22.6667
             495     16.7300E-03     42.4825E-03         3.97115        -1.54511        -2.54900        -1.26165         3.68770        -2.54900    -419.933E-03     35.2904E-03    -15.9630E-03    -19.3274E-03    -15.0216E-03     31.4614E-03    -16.4397E-03     25.6853E-03     202.874E+06     86.6132E+06    -6.50742E+06    -6.49470E+06     202.862E+06     86.6132E+06    -45.8646E+03         38.4403
             496     15.7441E-03     42.4442E-03         4.47105        -2.11802        -2.61106        -1.59467         3.94770        -2.61106        -2.40792     36.9171E-03    -16.0051E-03    -20.9120E-03    -15.4572E-03     31.4623E-03    -16.0051E-03     33.6229E-03     168.328E+06     10.9072E+06    -31.6284E+06    -8.59934E+06     168.321E+06    -12.1147E+06     279.220E+03         36.5271
             497     14.7596E-03     42.4135E-03         6.51878        -2.54080        -4.23907        -3.64173         5.98111        -2.60047        -4.52286     34.7798E-03    -15.9255E-03    -18.8543E-03    -15.7596E-03     31.6851E-03    -15.9255E-03     24.6046E-03     98.0917E+06    -7.32842E+06    -51.1202E+06    -7.32682E+06     98.0901E+06    -51.1202E+06    -29.2823E+03         34.5476
             498     13.7749E-03     42.3932E-03         7.53217        -2.47084        -5.29692        -5.00686         7.24212        -2.47084        -2.64027     33.6007E-03    -16.1225E-03    -17.4782E-03    -15.9426E-03     32.0652E-03    -16.1225E-03     17.2828E-03     28.7536E+06    -4.92372E+06    -35.3567E+06    -4.91732E+06     28.7472E+06    -35.3567E+06    -207.076E+03         32.5709
             499     12.7909E-03     42.3777E-03         5.77448        -1.96870        -3.93935        -3.29239         5.50232        -2.34350        -1.18792     33.2332E-03    -16.2809E-03    -16.9523E-03    -16.0452E-03     32.3261E-03    -16.2809E-03     13.2813E-03     614.551E+03    -9.21846E+06    -28.1930E+06    -3.69847E+06    -14.2169E+06    -18.8816E+06    -429.708E+03         30.6818
             500     11.8064E-03     42.3657E-03         4.15489        -1.31371        -2.84532        -1.35797         3.70515        -2.35133        -1.68208     33.2056E-03    -16.3765E-03    -16.8291E-03    -16.1445E-03     32.5210E-03    -16.3765E-03     11.6238E-03    -3.19435E+06    -12.4798E+06    -50.2378E+06    -3.20456E+06    -50.2276E+06    -12.4798E+06    -485.724E+03         28.9592
             501     10.8224E-03     42.3537E-03         4.16596        -1.51643        -2.53299        -1.32518         3.88910        -2.44739    -71.3486E-03     33.2925E-03    -16.4655E-03    -16.8270E-03    -16.2447E-03     32.7102E-03    -16.4655E-03     10.7093E-03    -2.29091E+06    -6.52572E+06    -81.5434E+06    -2.76596E+06    -81.5407E+06    -6.05329E+06    -388.357E+03         27.4604
             502     9.83824E-03     42.3436E-03         5.94982        -2.19904        -3.55379        -3.14985         5.81402        -2.46718    -648.099E-03     33.3206E-03    -16.5517E-03    -16.7689E-03    -16.3280E-03     32.8797E-03    -16.5517E-03     9.34043E-03     2.42518E+06    -3.02250E+06    -103.293E+06    -3.02532E+06    -103.290E+06     2.42518E+06    -509.206E+03         26.2129
             503     8.85429E-03     42.3344E-03         7.35112        -2.29946        -4.80525        -4.75804         7.30391        -2.29946        -1.37100     33.3747E-03    -16.6061E-03    -16.7686E-03    -16.3953E-03     33.0014E-03    -16.6061E-03     8.61928E-03     6.80199E+06    -3.98027E+06    -118.127E+06    -3.98443E+06    -118.122E+06     6.80199E+06    -680.680E+03         25.2162
             504     7.87036E-03     42.3256E-03         5.81754        -2.00755        -3.51562        -3.33257         5.71542        -2.08848     500.062E-03     33.4093E-03    -16.6416E-03    -16.7677E-03    -16.4419E-03     33.0835E-03    -16.6416E-03     8.04942E-03     7.07957E+06    -5.29731E+06    -134.045E+06    -5.30124E+06    -134.041E+06     7.07957E+06    -702.019E+03         24.4481
             505     6.88643E-03     42.3175E-03         3.75838        -1.15224        -2.19694     261.453E-03         2.33674        -2.18899         2.58244     33.4302E-03    -16.6758E-03    -16.7544E-03    -16.4869E-03     33.1627E-03    -16.6758E-03     7.29929E-03     6.64344E+06    -7.01109E+06    -150.237E+06    -7.01384E+06    -150.234E+06     6.64344E+06    -569.507E+03         23.8744
             506     5.90258E-03     42.3102E-03         3.46005    -65.7216E-03        -2.82017         2.61143     782.899E-03        -2.82017         2.63542     33.4722E-03    -16.7035E-03    -16.7687E-03    -16.5508E-03     33.2543E-03    -16.7035E-03     6.59401E-03     4.74403E+06    -9.30208E+06    -167.064E+06    -9.30327E+06    -167.063E+06     4.74403E+06    -297.947E+03         23.4568
             507     4.91876E-03     42.3036E-03         5.39528    -910.109E-03        -3.69447     479.707E-03         4.00547        -3.69447         1.62283     33.4787E-03    -16.7126E-03    -16.7661E-03    -16.5986E-03     33.3112E-03    -16.7126E-03     5.77295E-03     483.867E+03    -11.8180E+06    -181.372E+06    -11.8182E+06    -181.372E+06     483.867E+03     2.28690E+03         23.1596
             508     3.93503E-03     42.2981E-03         8.42942        -2.56029        -4.95821        -3.16346         8.32639        -4.25201    -400.229E-03     33.4622E-03    -16.7116E-03    -16.7506E-03    -16.6337E-03     33.3452E-03    -16.7116E-03     4.81571E-03    -4.89298E+06    -14.2054E+06    -194.238E+06    -14.2056E+06    -194.237E+06    -4.89298E+06     149.954E+03         22.9525
             509     2.95123E-03     42.2935E-03         8.96138        -2.34551        -5.59212        -3.09324         8.76540        -4.64841     551.215E-03     33.4529E-03    -16.7122E-03    -16.7407E-03    -16.6683E-03     33.3805E-03    -16.7122E-03     3.76723E-03    -9.87304E+06    -16.5495E+06    -208.430E+06    -16.5501E+06    -208.430E+06    -9.87304E+06     10.0309E+03         22.8123
             510     1.96747E-03     42.2901E-03         10.5651        -3.33051        -6.01604        -3.79693         10.2879        -5.27249     385.130E-03     33.4225E-03    -16.6964E-03    -16.7260E-03    -16.6902E-03     33.3867E-03    -16.6964E-03     2.61208E-03    -15.0219E+06    -18.7431E+06    -216.667E+06    -18.7439E+06    -216.667E+06    -15.0219E+06    -148.322E+03         22.7223
             511     983.842E-06     42.2880E-03         13.5688        -4.57533        -7.78343        -6.34584         12.4763        -4.92040         5.10899     33.3720E-03    -16.6312E-03    -16.7408E-03    -16.7285E-03     33.3597E-03    -16.6312E-03     1.47079E-03    -18.8135E+06    -19.9521E+06    -222.991E+06    -19.9178E+06    -222.991E+06    -18.8486E+06    -161.862E+03         22.6714
             512     16.7277E-03     41.4499E-03         3.66104        -1.56650        -2.33174        -1.37358         3.40511        -2.26874        -1.49298     35.1854E-03    -15.8766E-03    -19.3088E-03    -14.9520E-03     31.3937E-03    -16.4417E-03     25.4443E-03     202.699E+06     85.6397E+06    -6.96792E+06    -6.95357E+06     202.684E+06     85.6397E+06    -171.246E+03         38.4086
             513     15.7439E-03     41.4108E-03         4.20025        -2.11851        -2.36784        -1.68171         3.70045        -2.30484        -3.20352     36.9486E-03    -16.0130E-03    -20.9356E-03    -15.5194E-03     31.5324E-03    -16.0130E-03     33.5219E-03     168.591E+06     9.60157E+06    -31.4411E+06    -9.77601E+06     168.582E+06    -12.0549E+06    -37.6869E+03         36.5029
             514     14.7594E-03     41.3809E-03         4.14516        -1.51717        -2.97224        -1.58767         3.58349        -2.34008        -3.14852     34.8455E-03    -15.9255E-03    -18.9200E-03    -15.8343E-03     31.7598E-03    -15.9255E-03     24.6347E-03     98.7321E+06    -7.27029E+06    -51.2292E+06    -7.26554E+06     98.7274E+06    -51.2292E+06    -356.433E+03         34.5342
             515     13.7752E-03     41.3601E-03         3.87120        -1.11784        -3.06292        -1.27802         3.36962        -2.40116        -2.16467     33.6201E-03    -16.1125E-03    -17.5076E-03    -15.9451E-03     32.0577E-03    -16.1125E-03     17.4404E-03     28.5991E+06    -4.13545E+06    -36.9579E+06    -4.10875E+06     28.5724E+06    -36.9579E+06    -20.0237E+03         32.5694
             516     12.7907E-03     41.3450E-03         3.73042        -1.42525        -2.53560    -837.577E-03         3.11315        -2.50601        -2.59100     33.2417E-03    -16.2782E-03    -16.9635E-03    -16.0446E-03     32.3228E-03    -16.2782E-03     13.3609E-03     1.15902E+06    -8.42566E+06    -28.1675E+06    -2.65021E+06    -13.8382E+06    -18.9457E+06     89.8600E+03         30.6910
             517     11.8065E-03     41.3327E-03         5.13259        -2.09630        -3.13931        -2.14894         4.63634        -2.59042        -2.91089     33.2164E-03    -16.3771E-03    -16.8393E-03    -16.1522E-03     32.5294E-03    -16.3771E-03     11.6475E-03    -2.08356E+06    -11.9128E+06    -50.0013E+06    -2.08592E+06    -49.9990E+06    -11.9128E+06    -297.722E+03         28.9765
             518     10.8223E-03     41.3209E-03         6.04188        -2.42084        -3.63028        -3.02626         5.60680        -2.58978        -3.20353     33.3243E-03    -16.4634E-03    -16.8609E-03    -16.2750E-03     32.7385E-03    -16.4634E-03     10.7483E-03    -1.72496E+06    -5.97507E+06    -81.4972E+06    -1.87001E+06    -81.4941E+06    -5.83310E+06    -432.092E+03         27.4824
             519     9.83832E-03     41.3105E-03         4.86473        -1.51274        -3.28231        -1.79892         4.47910        -2.61051        -2.47670     33.3561E-03    -16.5455E-03    -16.8106E-03    -16.3692E-03     32.9146E-03    -16.5455E-03     9.35188E-03     2.64989E+06    -2.20163E+06    -102.999E+06    -2.17209E+06    -102.996E+06     2.61728E+06    -525.249E+03         26.2364
             520     8.85436E-03     41.3014E-03         5.19375        -1.32527        -3.71715        -2.34860         5.17024        -2.67031    -560.951E-03     33.3861E-03    -16.5956E-03    -16.7905E-03    -16.4185E-03     33.0141E-03    -16.5956E-03     8.60632E-03     6.81324E+06    -3.33898E+06    -118.108E+06    -3.34279E+06    -118.104E+06     6.81324E+06    -643.792E+03         25.2386
             521     7.87044E-03     41.2926E-03         6.07242        -2.25106        -3.59153        -3.07193         5.96904        -2.66727     704.869E-03     33.4096E-03    -16.6267E-03    -16.7829E-03    -16.4584E-03     33.0851E-03    -16.6267E-03     8.03597E-03     6.79689E+06    -5.11429E+06    -134.122E+06    -5.11758E+06    -134.118E+06     6.79689E+06    -607.774E+03         24.4680
             522     6.88656E-03     41.2846E-03         4.98099        -1.78563        -2.82921        -1.03881         4.17656        -2.77159         1.69900     33.4228E-03    -16.6574E-03    -16.7654E-03    -16.4975E-03     33.1549E-03    -16.6574E-03     7.30612E-03     6.25203E+06    -7.21177E+06    -150.567E+06    -7.21310E+06    -150.566E+06     6.25203E+06    -317.812E+03         23.8910
             523     5.90269E-03     41.2772E-03         4.28107    -461.331E-03        -3.24191     869.402E-03         2.95034        -3.24191         1.34523     33.4402E-03    -16.6809E-03    -16.7593E-03    -16.5414E-03     33.2223E-03    -16.6809E-03     6.58946E-03     4.15190E+06    -9.64184E+06    -167.249E+06    -9.64211E+06    -167.249E+06     4.15190E+06    -99.1755E+03         23.4702
             524     4.91890E-03     41.2707E-03         5.50040    -669.869E-03        -4.02371     360.595E-03         4.46994        -4.02371         2.15085     33.4302E-03    -16.6882E-03    -16.7420E-03    -16.5754E-03     33.2636E-03    -16.6882E-03     5.75534E-03     -277.74E+03    -12.2356E+06    -181.420E+06    -12.2361E+06    -181.420E+06     -277.74E+03    -105.947E+03         23.1701
             525     3.93504E-03     41.2651E-03         9.54644        -3.07624        -5.40096        -3.24740         8.95211        -4.63546         1.79216     33.4202E-03    -16.6885E-03    -16.7317E-03    -16.6144E-03     33.3028E-03    -16.6885E-03     4.82197E-03    -5.27627E+06    -14.6513E+06    -194.124E+06    -14.6516E+06    -194.124E+06    -5.27627E+06    -86.3001E+03         22.9608
             526     2.95134E-03     41.2606E-03         13.0941        -4.31936        -7.57174        -7.26011         12.7825        -4.31936         2.04646     33.4111E-03    -16.6891E-03    -16.7220E-03    -16.6497E-03     33.3387E-03    -16.6891E-03     3.76331E-03    -9.79600E+06    -16.8620E+06    -208.038E+06    -16.8621E+06    -208.037E+06    -9.79600E+06     35.4002E+03         22.8189
             527     1.96757E-03     41.2573E-03         10.9924        -2.90503        -6.76245        -6.59725         10.8272        -2.90503         2.70147     33.3620E-03    -16.6683E-03    -16.6937E-03    -16.6484E-03     33.3261E-03    -16.6777E-03     2.61614E-03    -14.8971E+06    -18.7757E+06    -216.399E+06    -18.7760E+06    -216.399E+06    -14.8971E+06    -80.2523E+03         22.7278
             528     983.693E-06     41.2551E-03         6.38157    -653.638E-03        -4.51229        -3.30242         5.17170    -653.638E-03         2.89656     33.3410E-03    -16.6260E-03    -16.7150E-03    -16.6934E-03     33.3289E-03    -16.6354E-03     1.43462E-03    -19.1899E+06    -20.4867E+06    -223.477E+06    -20.4526E+06    -223.476E+06    -19.2249E+06    -392.651E+03         22.6763
             529     16.7301E-03     40.4170E-03         2.24647    -570.090E-03        -2.02152    -95.2856E-03         1.70866        -1.95851     102.923E-03     35.2386E-03    -15.8656E-03    -19.3730E-03    -14.9938E-03     31.4359E-03    -16.4421E-03     25.5470E-03     202.770E+06     85.2197E+06    -6.67229E+06    -6.66240E+06     202.760E+06     85.2197E+06    -118.532E+03         38.3774
             530     15.7440E-03     40.3780E-03         2.46201    -770.956E-03        -2.11254    -687.691E-03         2.31574        -2.04953    -844.585E-03     36.9534E-03    -16.0157E-03    -20.9377E-03    -15.5299E-03     31.5456E-03    -16.0157E-03     33.5040E-03     168.905E+06     8.92619E+06    -30.5019E+06    -9.73480E+06     168.898E+06    -11.8342E+06    -1.47736E+03         36.4791
             531     14.7594E-03     40.3476E-03         1.99575    -278.642E-03        -2.17720     487.721E-03         1.22939        -2.17720    -884.267E-03     34.7928E-03    -15.9351E-03    -18.8577E-03    -15.7871E-03     31.7222E-03    -15.9351E-03     24.5462E-03     99.3868E+06    -9.10860E+06    -50.3917E+06    -9.10399E+06     99.3822E+06    -50.3917E+06    -319.123E+03         34.5209
             532     13.7749E-03     40.3276E-03         1.82567     114.574E-03        -2.38982         1.09441     845.835E-03        -2.38982        -1.19768     33.6464E-03    -16.1127E-03    -17.5337E-03    -15.9654E-03     32.0781E-03    -16.1127E-03     17.4935E-03     28.7645E+06    -6.64576E+06    -38.3642E+06    -6.37856E+06     28.4973E+06    -38.3642E+06    -821.357E+03         32.5677
             533     12.7907E-03     40.3117E-03         3.51947        -1.15288        -2.73411    -719.537E-03         2.93821        -2.58619        -2.93575     33.2687E-03    -16.2755E-03    -16.9933E-03    -16.0718E-03     32.3472E-03    -16.2755E-03     13.3715E-03     1.37765E+06    -8.80747E+06    -29.3935E+06    -2.96035E+06    -13.8597E+06    -20.0032E+06    -537.223E+03         30.6999
             534     11.8065E-03     40.3000E-03         5.27564        -2.27123        -3.27352        -2.56105         4.95427        -2.66232        -2.19503     33.2531E-03    -16.3774E-03    -16.8758E-03    -16.1932E-03     32.5705E-03    -16.3774E-03     11.6191E-03    -1.32259E+06    -11.5412E+06    -49.6417E+06    -1.32337E+06    -49.6409E+06    -11.5412E+06     11.9209E+03         28.9935
             535     10.8224E-03     40.2878E-03         5.65357        -2.21638        -3.61739        -2.76916         5.25147        -2.66250        -2.52144     33.3711E-03    -16.4579E-03    -16.9132E-03    -16.3268E-03     32.7847E-03    -16.4579E-03     10.7596E-03    -1.20467E+06    -5.92886E+06    -81.2300E+06    -1.26378E+06    -81.2285E+06    -5.87125E+06    -127.606E+03         27.5041
             536     9.83844E-03     40.2776E-03         4.29809        -1.17578        -3.22683        -1.22218         3.85288        -2.73522        -1.88606     33.3718E-03    -16.5364E-03    -16.8354E-03    -16.3963E-03     32.9327E-03    -16.5364E-03     9.33421E-03     2.63678E+06    -1.83463E+06    -102.803E+06    -1.80360E+06    -102.801E+06     2.60417E+06    -306.825E+03         26.2597
             537     8.85446E-03     40.2684E-03         3.05197    -97.0765E-03        -2.98269     66.6175E-03         2.88827        -2.98269     686.344E-03     33.3790E-03    -16.5844E-03    -16.7947E-03    -16.4248E-03     33.0092E-03    -16.5844E-03     8.58116E-03     6.78802E+06    -3.07592E+06    -118.150E+06    -3.07706E+06    -118.149E+06     6.78802E+06    -303.346E+03         25.2610
             538     7.87056E-03     40.2597E-03         4.86695        -1.44188        -3.32814        -1.30564         4.68106        -3.27848    -324.612E-03     33.3982E-03    -16.6137E-03    -16.7845E-03    -16.4621E-03     33.0758E-03    -16.6137E-03     8.01009E-03     6.71331E+06    -4.94969E+06    -134.373E+06    -4.95046E+06    -134.373E+06     6.71331E+06    -214.520E+03         24.4878
             539     6.88666E-03     40.2517E-03         6.48921        -2.73602        -3.50918        -2.71007         6.41359        -3.45952    -368.531E-03     33.4117E-03    -16.6416E-03    -16.7701E-03    -16.5015E-03     33.1431E-03    -16.6416E-03     7.31483E-03     6.00551E+06    -7.19639E+06    -150.973E+06    -7.19660E+06    -150.972E+06     6.00551E+06    -22.5630E+03         23.9077
             540     5.90284E-03     40.2444E-03         6.78317        -2.59312        -3.74074        -2.36702         6.43807        -3.62174         2.57197     33.4169E-03    -16.6630E-03    -16.7540E-03    -16.5356E-03     33.1986E-03    -16.6630E-03     6.59430E-03     4.11722E+06    -9.59112E+06    -167.076E+06    -9.59124E+06    -167.076E+06     4.11722E+06     100.156E+03         23.4837
             541     4.91896E-03     40.2379E-03         7.00431        -2.23928        -4.08617        -1.57884         6.22486        -3.96717         4.44939     33.3964E-03    -16.6695E-03    -16.7268E-03    -16.5604E-03     33.2299E-03    -16.6695E-03     5.74920E-03    -82.8835E+03    -11.9905E+06    -181.115E+06    -11.9909E+06    -181.115E+06    -82.8835E+03    -99.2744E+03         23.1808
             542     3.93518E-03     40.2323E-03         8.84753        -3.31947        -4.58895        -2.79676         8.14202        -4.40615         4.83292     33.3715E-03    -16.6718E-03    -16.6997E-03    -16.5828E-03     33.2545E-03    -16.6718E-03     4.81022E-03    -5.15675E+06    -14.4345E+06    -194.269E+06    -14.4348E+06    -194.269E+06    -5.15675E+06    -207.068E+03         22.9691
             543     2.95130E-03     40.2278E-03         12.3515        -4.18308        -6.99772        -6.71484         12.0687        -4.18308         2.90076     33.3666E-03    -16.6732E-03    -16.6934E-03    -16.6173E-03     33.2942E-03    -16.6769E-03     3.76123E-03    -9.83432E+06    -16.7870E+06    -207.965E+06    -16.7874E+06    -207.965E+06    -9.83432E+06    -182.750E+03         22.8256
             544     1.96756E-03     40.2245E-03         10.6853        -2.78848        -6.72135        -6.67988         10.6438        -2.78848     661.983E-03     33.3443E-03    -16.6572E-03    -16.6870E-03    -16.6380E-03     33.3085E-03    -16.6704E-03     2.61184E-03    -14.7710E+06    -18.8332E+06    -216.231E+06    -18.8337E+06    -216.231E+06    -14.7710E+06    -86.9875E+03         22.7334
             545     983.801E-06     40.2224E-03         6.46711        -1.59474        -3.54417        -2.04383         4.96678        -1.59474         2.99870     33.3229E-03    -16.6130E-03    -16.7099E-03    -16.6881E-03     33.3106E-03    -16.6224E-03     1.46309E-03    -18.9348E+06    -20.8387E+06    -223.538E+06    -20.3680E+06    -223.537E+06    -19.4062E+06     84.8325E+03         22.6813
             546     16.7272E-03     39.3835E-03         2.03300    -520.556E-03        -2.01586         1.74946    -574.199E-03        -1.67868     976.581E-03     35.1756E-03    -15.8794E-03    -19.2962E-03    -14.9762E-03     31.4199E-03    -16.4437E-03     25.4647E-03     203.028E+06     85.6269E+06    -6.82805E+06    -6.80725E+06     203.007E+06     85.6269E+06    -296.208E+03         38.3467
             547     15.7441E-03     39.3449E-03         2.22427    -561.700E-03        -2.23028         1.92010    -594.709E-03        -1.89309     62.3553E-03     36.8821E-03    -16.0113E-03    -20.8709E-03    -15.5035E-03     31.5148E-03    -16.0113E-03     33.3678E-03     168.569E+06     9.67170E+06    -31.7059E+06    -9.15065E+06     168.550E+06    -12.8649E+06     71.2322E+03         36.4555
             548     14.7593E-03     39.3150E-03         2.37396    -859.941E-03        -2.12012         1.05764     450.887E-03        -2.11463        -1.61950     34.8198E-03    -15.9292E-03    -18.8906E-03    -15.8057E-03     31.7349E-03    -15.9292E-03     24.5881E-03     100.412E+06    -7.39704E+06    -51.2280E+06    -7.39053E+06     100.406E+06    -51.2280E+06     176.970E+03         34.5076
             549     13.7750E-03     39.2944E-03         2.38013    -655.006E-03        -2.32425     490.606E-03         1.22903        -2.31875        -2.27232     33.6703E-03    -16.1055E-03    -17.5648E-03    -16.0127E-03     32.1181E-03    -16.1055E-03     17.4176E-03     30.0717E+06    -5.25349E+06    -39.2594E+06    -4.92947E+06     29.7476E+06    -39.2594E+06    -1.35393E+06         32.5658
             550     12.7907E-03     39.2790E-03         3.02852    -915.509E-03        -2.64515    -404.076E-03         2.36917        -2.49723        -2.72324     33.2888E-03    -16.2672E-03    -17.0216E-03    -16.1062E-03     32.3735E-03    -16.2672E-03     13.3366E-03     411.155E+03    -9.30470E+06    -31.8315E+06    -3.51694E+06    -15.1919E+06    -22.0162E+06    -1.14575E+06         30.7085
             551     11.8065E-03     39.2669E-03         3.66884        -1.31438        -2.80641    -688.087E-03         2.89462        -2.65849        -2.42755     33.2859E-03    -16.3717E-03    -16.9142E-03    -16.2367E-03     32.6084E-03    -16.3717E-03     11.5850E-03    -2.63754E+06    -12.3914E+06    -49.8663E+06    -2.64295E+06    -49.8609E+06    -12.3914E+06     287.767E+03         29.0101
             552     10.8225E-03     39.2549E-03         3.43819    -945.450E-03        -2.84942    -476.863E-03         2.96960        -2.84942        -1.53319     33.3820E-03    -16.4494E-03    -16.9326E-03    -16.3483E-03     32.7978E-03    -16.4494E-03     10.7483E-03    -1.94865E+06    -6.48922E+06    -80.4852E+06    -2.20736E+06    -80.4805E+06    -6.23521E+06     306.963E+03         27.5256
             553     9.83847E-03     39.2446E-03         4.43200        -1.61155        -3.12101        -1.45384         4.19266        -3.03938        -1.24038     33.3649E-03    -16.5269E-03    -16.8379E-03    -16.3979E-03     32.9249E-03    -16.5269E-03     9.34021E-03     2.26562E+06    -2.55319E+06    -102.781E+06    -2.55345E+06    -102.780E+06     2.26562E+06     3.01658E+03         26.2828
             554     8.85459E-03     39.2355E-03         4.47099        -1.39371        -3.31284        -1.25408         4.24972        -3.23121    -327.794E-03     33.3663E-03    -16.5737E-03    -16.7926E-03    -16.4231E-03     32.9969E-03    -16.5737E-03     8.57535E-03     6.45569E+06    -3.70961E+06    -118.192E+06    -3.70992E+06    -118.191E+06     6.45569E+06     60.5997E+03         25.2833
             555     7.87063E-03     39.2267E-03         4.21231    -818.782E-03        -3.53207    -494.702E-03         3.88823        -3.53207        -1.41922     33.3764E-03    -16.6034E-03    -16.7730E-03    -16.4491E-03     33.0526E-03    -16.6034E-03     8.02541E-03     6.53143E+06    -5.42121E+06    -134.555E+06    -5.42148E+06    -134.555E+06     6.53143E+06     118.661E+03         24.5077
             556     6.88676E-03     39.2188E-03         6.18338        -2.30857        -3.84904        -2.07841         5.95322        -3.84904        -1.82119     33.3903E-03    -16.6315E-03    -16.7587E-03    -16.4877E-03     33.1192E-03    -16.6315E-03     7.34663E-03     5.84144E+06    -7.49801E+06    -151.135E+06    -7.49827E+06    -151.135E+06     5.84144E+06     151.797E+03         23.9244
             557     5.90286E-03     39.2115E-03         8.59631        -3.75432        -4.64579        -4.13002         8.28894        -3.96272         1.27424     33.4000E-03    -16.6514E-03    -16.7486E-03    -16.5279E-03     33.1794E-03    -16.6514E-03     6.62579E-03     3.84161E+06    -9.78788E+06    -166.857E+06    -9.78811E+06    -166.857E+06     3.84161E+06     10.2079E+03         23.4973
             558     4.91907E-03     39.2050E-03         9.62177        -3.64305        -5.58018        -5.06154         9.28526        -3.82518         3.19200     33.3736E-03    -16.6584E-03    -16.7152E-03    -16.5475E-03     33.2058E-03    -16.6584E-03     5.77044E-03    -187.781E+03    -12.0689E+06    -180.760E+06    -12.0692E+06    -180.760E+06    -187.781E+03    -190.296E+03         23.1916
             559     3.93518E-03     39.1995E-03         8.99562        -3.41938        -5.00576        -4.37835         8.55034        -3.60150         4.32219     33.3443E-03    -16.6637E-03    -16.6806E-03    -16.5621E-03     33.2258E-03    -16.6637E-03     4.84008E-03    -5.07319E+06    -14.2227E+06    -194.415E+06    -14.2232E+06    -194.415E+06    -5.07319E+06    -249.740E+03         22.9777
             560     2.95139E-03     39.1950E-03         7.76804        -2.56038        -4.45792        -2.28693         6.77980        -3.74314         3.23118     33.3414E-03    -16.6679E-03    -16.6735E-03    -16.5964E-03     33.2682E-03    -16.6719E-03     3.77871E-03    -10.0509E+06    -16.4359E+06    -208.120E+06    -16.4369E+06    -208.119E+06    -10.0509E+06    -107.184E+03         22.8325
             561     1.96752E-03     39.1917E-03         8.81764        -2.62312        -5.21222        -2.76222         8.13774        -4.39322    -657.108E-03     33.3403E-03    -16.6642E-03    -16.6761E-03    -16.6362E-03     33.3043E-03    -16.6682E-03     2.61832E-03    -15.2571E+06    -18.7665E+06    -216.358E+06    -18.7674E+06    -216.357E+06    -15.2571E+06     21.4481E+03         22.7392
             562     983.781E-06     39.1896E-03         11.4826        -3.61486        -6.74528        -5.40874         10.7333        -4.20219         2.11448     33.3251E-03    -16.6179E-03    -16.7072E-03    -16.6947E-03     33.3127E-03    -16.6179E-03     1.47480E-03    -18.8321E+06    -20.7951E+06    -223.083E+06    -20.3243E+06    -223.082E+06    -19.3035E+06     209.171E+03         22.6864
             563     16.7305E-03     38.3505E-03         2.53294        -1.22236        -2.02526         2.33776        -1.61969        -1.43275    -23.6318E-03     35.1230E-03    -15.9464E-03    -19.1766E-03    -14.9339E-03     31.3727E-03    -16.4387E-03     25.4179E-03     203.316E+06     85.8112E+06    -6.79993E+06    -6.77684E+06     203.293E+06     85.8112E+06    -112.457E+03         38.3164
             564     15.7437E-03     38.3124E-03         2.94521        -1.49430        -2.16798         2.87810        -1.91651        -1.67867    -693.915E-03     36.8081E-03    -16.0026E-03    -20.8054E-03    -15.4523E-03     31.4550E-03    -16.0026E-03     33.2750E-03     167.551E+06     9.17582E+06    -33.1175E+06    -9.46352E+06     167.523E+06    -14.4501E+06    -353.890E+03         36.4321
             565     14.7593E-03     38.2817E-03         3.03813        -1.73253        -2.05275         1.21201    -42.2707E-03        -1.91690        -3.35742     34.8498E-03    -15.9269E-03    -18.9230E-03    -15.8603E-03     31.7871E-03    -15.9269E-03     24.5020E-03     101.316E+06    -7.59249E+06    -51.0498E+06    -7.57657E+06     101.300E+06    -51.0498E+06    -120.348E+03         34.4944
             566     13.7750E-03     38.2616E-03         2.87663        -1.37906        -2.23045     144.091E-03         1.21762        -2.09459        -4.06070     33.6517E-03    -16.1148E-03    -17.5369E-03    -16.0122E-03     32.1270E-03    -16.1148E-03     17.2646E-03     31.2208E+06    -5.87958E+06    -36.5714E+06    -5.76796E+06     31.1092E+06    -36.5714E+06    -86.5459E+03         32.5639
             567     12.7907E-03     38.2460E-03         2.66581        -1.05286        -2.29652     982.228E-03     630.722E-03        -2.29652        -2.96628     33.2926E-03    -16.2697E-03    -17.0229E-03    -16.1143E-03     32.3840E-03    -16.2697E-03     13.2930E-03    -1.30699E+06    -10.6006E+06    -31.2071E+06    -5.64665E+06    -16.0069E+06    -21.4610E+06    -273.266E+03         30.7170
             568     11.8067E-03     38.2339E-03         2.95810    -964.101E-03        -2.58929         1.46312     530.881E-03        -2.58929        -3.32184     33.2818E-03    -16.3644E-03    -16.9174E-03    -16.2386E-03     32.6030E-03    -16.3644E-03     11.5952E-03    -4.78309E+06    -13.3616E+06    -50.2689E+06    -4.79202E+06    -50.2599E+06    -13.3616E+06    -107.961E+03         29.0265
             569     10.8225E-03     38.2220E-03         3.08198    -696.601E-03        -2.92108     686.969E-03         1.69841        -2.92108        -3.43071     33.3695E-03    -16.4427E-03    -16.9268E-03    -16.3399E-03     32.7827E-03    -16.4427E-03     10.7692E-03    -2.73538E+06    -7.19882E+06    -80.0187E+06    -3.47758E+06    -80.0113E+06    -6.46403E+06     128.866E+03         27.5467
             570     9.83862E-03     38.2116E-03         4.23335        -1.43145        -3.28054    -910.338E-03         3.63060        -3.19891        -2.93897     33.3457E-03    -16.5212E-03    -16.8245E-03    -16.3823E-03     32.9035E-03    -16.5212E-03     9.36097E-03     2.24461E+06    -3.27887E+06    -102.575E+06    -3.27949E+06    -102.575E+06     2.24461E+06     119.718E+03         26.3057
             571     8.85460E-03     38.2026E-03         5.25692        -2.25041        -3.46305        -2.15841         5.08329        -3.38142        -2.19658     33.3449E-03    -16.5685E-03    -16.7763E-03    -16.4042E-03     32.9728E-03    -16.5685E-03     8.60288E-03     6.36124E+06    -4.13251E+06    -118.237E+06    -4.13321E+06    -118.237E+06     6.36124E+06     213.163E+03         25.3054
             572     7.87070E-03     38.1938E-03         5.11191        -1.93466        -3.56445        -1.73158         4.90883        -3.56445        -1.35708     33.3638E-03    -16.5994E-03    -16.7644E-03    -16.4381E-03     33.0375E-03    -16.5994E-03     8.05344E-03     6.55116E+06    -5.56493E+06    -134.547E+06    -5.56568E+06    -134.546E+06     6.55116E+06     280.857E+03         24.5276
             573     6.88675E-03     38.1859E-03         6.27030        -2.43656        -4.10876        -2.60666         6.09218        -3.76055        -1.29694     33.3771E-03    -16.6284E-03    -16.7487E-03    -16.4752E-03     33.1036E-03    -16.6284E-03     7.37843E-03     5.89402E+06    -7.53583E+06    -151.103E+06    -7.53626E+06    -151.103E+06     5.89402E+06     216.990E+03         23.9413
             574     5.90290E-03     38.1786E-03         8.85876        -3.53150        -5.46753        -5.19334         8.76973        -3.71666        -1.81522     33.3799E-03    -16.6484E-03    -16.7314E-03    -16.5092E-03     33.1577E-03    -16.6484E-03     6.64481E-03     3.59515E+06    -9.85213E+06    -166.582E+06    -9.85281E+06    -166.581E+06     3.59515E+06    -92.9019E+03         23.5110
             575     4.91901E-03     38.1722E-03         9.21262        -3.34892        -5.88866        -5.75401         9.07797        -3.34892     678.408E-03     33.3573E-03    -16.6579E-03    -16.6995E-03    -16.5309E-03     33.1888E-03    -16.6579E-03     5.78340E-03    -682.427E+03    -12.2568E+06    -180.747E+06    -12.2577E+06    -180.746E+06    -682.427E+03    -383.542E+03         23.2026
             576     3.93518E-03     38.1667E-03         7.28239        -2.78774        -4.39809        -3.48209         6.63083        -3.05218         4.42115     33.3460E-03    -16.6657E-03    -16.6803E-03    -16.5608E-03     33.2265E-03    -16.6657E-03     4.86091E-03    -5.65109E+06    -14.6226E+06    -194.680E+06    -14.6234E+06    -194.679E+06    -5.65109E+06    -207.007E+03         22.9865
             577     2.95131E-03     38.1623E-03         5.47478        -1.52337        -3.72003    -434.031E-03         4.17662        -3.51121         4.55552     33.3509E-03    -16.6738E-03    -16.6770E-03    -16.6029E-03     33.2769E-03    -16.6740E-03     3.80052E-03    -10.5617E+06    -16.8527E+06    -208.344E+06    -16.8537E+06    -208.343E+06    -10.5617E+06     23.9135E+03         22.8396
             578     1.96757E-03     38.1590E-03         7.71325        -2.28218        -4.93727        -1.28413         6.71521        -4.93727         2.12375     33.3405E-03    -16.6678E-03    -16.6728E-03    -16.6313E-03     33.3038E-03    -16.6725E-03     2.64791E-03    -15.5607E+06    -18.5039E+06    -216.298E+06    -18.5049E+06    -216.297E+06    -15.5607E+06     116.907E+03         22.7452
             579     983.747E-06     38.1568E-03         12.7923        -4.35961        -7.81413        -6.40704         12.3169        -5.29130        -1.20064     33.3419E-03    -16.6291E-03    -16.7128E-03    -16.6955E-03     33.3292E-03    -16.6336E-03     1.48955E-03    -18.6882E+06    -19.9546E+06    -222.640E+06    -19.6242E+06    -222.638E+06    -19.0204E+06    -118.541E+03         22.6918
             580     16.7275E-03     37.3179E-03         2.01530        -1.14252        -1.74089         1.72982        -1.42035        -1.17758        -1.68113     35.1760E-03    -15.9019E-03    -19.2741E-03    -14.9841E-03     31.4257E-03    -16.4417E-03     25.4079E-03     203.545E+06     86.6560E+06    -7.35552E+06    -7.33683E+06     203.526E+06     86.6560E+06     67.1208E+03         38.2863
             581     15.7442E-03     37.2793E-03         2.03554        -1.30050        -1.60561         1.88215        -1.39804        -1.35469        -1.33091     36.8912E-03    -16.0069E-03    -20.8844E-03    -15.5345E-03     31.5413E-03    -16.0069E-03     33.3133E-03     168.341E+06     10.2267E+06    -32.4879E+06    -9.89809E+06     168.319E+06    -12.3409E+06    -255.246E+03         36.4091
             582     14.7596E-03     37.2487E-03         2.88239        -1.54704        -2.19014         2.06260        -1.35122        -1.56617        -2.72057     34.7961E-03    -15.9262E-03    -18.8699E-03    -15.8185E-03     31.7447E-03    -15.9262E-03     24.4507E-03     100.832E+06    -9.13948E+06    -50.2361E+06    -9.12662E+06     100.819E+06    -50.2361E+06     133.331E+03         34.4813
             583     13.7751E-03     37.2286E-03         3.07108        -1.53880        -2.36633         1.87361    -896.007E-03        -1.81166        -3.23955     33.6300E-03    -16.1222E-03    -17.5078E-03    -15.9807E-03     32.1029E-03    -16.1222E-03     17.2599E-03     31.3762E+06    -7.23582E+06    -34.2932E+06    -7.18002E+06     31.3204E+06    -34.2932E+06     877.403E+03         32.5618
             584     12.7909E-03     37.2130E-03         2.91723        -1.56488        -2.12977         2.07239    -749.548E-03        -2.10026        -3.10793     33.2888E-03    -16.2742E-03    -17.0147E-03    -16.1050E-03     32.3792E-03    -16.2742E-03     13.3075E-03     86.3361E+03    -10.6503E+06    -28.9966E+06    -5.42224E+06    -14.9597E+06    -19.1786E+06     287.823E+03         30.7251
             585     11.8066E-03     37.2011E-03         2.65694    -933.412E-03        -2.43538         1.80760    -84.0697E-03        -2.43538        -2.60776     33.2677E-03    -16.3606E-03    -16.9071E-03    -16.2207E-03     32.5813E-03    -16.3606E-03     11.6560E-03    -4.40437E+06    -13.0622E+06    -50.2204E+06    -4.41367E+06    -50.2111E+06    -13.0622E+06    -644.468E+03         29.0425
             586     10.8227E-03     37.1889E-03         3.13247        -1.03980        -2.75527     445.062E-03         1.64761        -2.75527        -3.65861     33.3575E-03    -16.4407E-03    -16.9168E-03    -16.3259E-03     32.7666E-03    -16.4407E-03     10.8031E-03    -2.77270E+06    -7.07380E+06    -80.1376E+06    -3.60305E+06    -80.1308E+06    -6.25027E+06    -473.190E+03         27.5675
             587     9.83858E-03     37.1788E-03         3.50083        -1.10418        -3.05032    -8.35625E-03         2.40501        -3.05032        -3.69663     33.3260E-03    -16.5201E-03    -16.8059E-03    -16.3609E-03     32.8810E-03    -16.5201E-03     9.38779E-03     2.38824E+06    -3.36618E+06    -102.617E+06    -3.36853E+06    -102.615E+06     2.38824E+06     37.3611E+03         26.3283
             588     8.85462E-03     37.1696E-03         4.17906        -1.48140        -3.33286    -949.167E-03         3.64683        -3.33286        -2.90475     33.3273E-03    -16.5697E-03    -16.7576E-03    -16.3833E-03     32.9530E-03    -16.5697E-03     8.62472E-03     6.65153E+06    -4.06030E+06    -118.067E+06    -4.06148E+06    -118.066E+06     6.65153E+06     179.840E+03         25.3274
             589     7.87064E-03     37.1610E-03         6.50636        -2.94964        -4.17384        -3.31175         6.16845        -3.47383        -2.32702     33.3557E-03    -16.6028E-03    -16.7529E-03    -16.4245E-03     33.0273E-03    -16.6028E-03     8.07880E-03     6.84283E+06    -5.38059E+06    -134.539E+06    -5.38229E+06    -134.537E+06     6.84283E+06     302.081E+03         24.5474
             590     6.88677E-03     37.1530E-03         7.51936        -3.25011        -4.83810        -4.63516         7.45928        -3.39295    -241.326E-03     33.3758E-03    -16.6336E-03    -16.7422E-03    -16.4652E-03     33.0988E-03    -16.6336E-03     7.42550E-03     6.22150E+06    -7.14738E+06    -150.935E+06    -7.14876E+06    -150.934E+06     6.22150E+06     323.221E+03         23.9582
             591     5.90285E-03     37.1458E-03         7.81173        -3.15165        -5.16271        -4.94593         7.59495        -3.15165     516.820E-03     33.3718E-03    -16.6552E-03    -16.7166E-03    -16.4923E-03     33.1475E-03    -16.6552E-03     6.67412E-03     3.61929E+06    -9.45284E+06    -166.310E+06    -9.45341E+06    -166.310E+06     3.61929E+06     12.0983E+03         23.5249
             592     4.91897E-03     37.1394E-03         6.78297        -2.88521        -4.33765        -4.02986         6.47518        -2.88521     355.148E-03     33.3676E-03    -16.6682E-03    -16.6994E-03    -16.5296E-03     33.1978E-03    -16.6682E-03     5.80659E-03    -949.349E+03    -12.2054E+06    -181.079E+06    -12.2065E+06    -181.078E+06    -949.349E+03    -71.2109E+03         23.2138
             593     3.93512E-03     37.1340E-03         4.98627        -2.29059        -3.06373        -2.01390         4.52307        -2.87722         1.63929     33.3787E-03    -16.6764E-03    -16.7023E-03    -16.5823E-03     33.2587E-03    -16.6764E-03     4.87021E-03    -5.97700E+06    -15.0107E+06    -194.915E+06    -15.0119E+06    -194.914E+06    -5.97700E+06    -55.0388E+03         22.9955
             594     2.95133E-03     37.1295E-03         5.25700        -2.09097        -3.41928        -1.80964         4.77462        -3.21823         2.51161     33.3754E-03    -16.6797E-03    -16.6956E-03    -16.6188E-03     33.3021E-03    -16.6833E-03     3.78507E-03    -10.5240E+06    -17.1966E+06    -208.214E+06    -17.1975E+06    -208.213E+06    -10.5240E+06    -225.417E+03         22.8470
             595     1.96750E-03     37.1262E-03         7.00250        -2.79995        -4.37545        -2.74454         6.25659        -3.68493         4.34713     33.3546E-03    -16.6729E-03    -16.6817E-03    -16.6362E-03     33.3179E-03    -16.6817E-03     2.64673E-03    -15.2435E+06    -18.8898E+06    -216.277E+06    -18.8910E+06    -216.275E+06    -15.2435E+06    -190.873E+03         22.7515
             596     983.740E-06     37.1241E-03         8.99716        -3.57961        -5.44169        -3.90701         7.80683        -3.92396    -370.743E-03     33.3583E-03    -16.6402E-03    -16.7181E-03    -16.6998E-03     33.3453E-03    -16.6455E-03     1.51221E-03    -18.7259E+06    -19.9816E+06    -222.672E+06    -19.6256E+06    -222.669E+06    -19.0846E+06    -88.1501E+03         22.6974
             597     16.7302E-03     36.2849E-03         1.33238    -857.022E-03        -1.48098     468.208E-03    -581.757E-03    -892.076E-03        -2.00195     35.2062E-03    -15.8976E-03    -19.3086E-03    -15.0110E-03     31.4550E-03    -16.4441E-03     25.3567E-03     203.819E+06     87.3626E+06    -7.29352E+06    -7.26688E+06     203.792E+06     87.3626E+06     350.935E+03         38.2565
             598     15.7442E-03     36.2461E-03         2.08480    -972.540E-03        -2.05477         1.70943        -1.64435        -1.00759        -1.83969     36.9217E-03    -16.0080E-03    -20.9137E-03    -15.5410E-03     31.5490E-03    -16.0080E-03     33.3930E-03     168.883E+06     10.0482E+06    -32.5072E+06    -10.6485E+06     168.859E+06    -11.7872E+06     531.795E+03         36.3860
             599     14.7595E-03     36.2162E-03         3.43811        -1.23512        -3.11586         3.31437        -2.99212        -1.23512        -1.68739     34.8222E-03    -15.9209E-03    -18.9013E-03    -15.8215E-03     31.7423E-03    -15.9209E-03     24.5953E-03     100.653E+06    -9.39402E+06    -50.8519E+06    -9.39076E+06     100.650E+06    -50.8519E+06     436.614E+03         34.4680
             600     13.7752E-03     36.1954E-03         3.66464        -1.56301        -2.97224         3.52559        -2.83319        -1.56301        -1.68145     33.6410E-03    -16.1169E-03    -17.5241E-03    -15.9722E-03     32.0892E-03    -16.1169E-03     17.3870E-03     31.2764E+06    -6.25079E+06    -34.5540E+06    -6.21884E+06     31.2444E+06    -34.5540E+06     311.192E+03         32.5595
             601     12.7908E-03     36.1803E-03         3.18690        -1.74956        -2.26751         2.39677        -1.32003        -1.90690        -2.95250     33.2798E-03    -16.2717E-03    -17.0081E-03    -16.0930E-03     32.3647E-03    -16.2717E-03     13.3509E-03     1.11496E+06    -9.89205E+06    -27.5074E+06    -4.03227E+06    -13.6795E+06    -18.5727E+06     72.3165E+03         30.7328
             602     11.8068E-03     36.1679E-03         2.22994    -791.238E-03        -2.22260         1.44692    -8.21410E-03        -2.22260        -1.78374     33.2657E-03    -16.3584E-03    -16.9073E-03    -16.2135E-03     32.5718E-03    -16.3584E-03     11.7185E-03    -3.05293E+06    -12.7977E+06    -49.6027E+06    -3.06145E+06    -49.5942E+06    -12.7977E+06    -497.358E+03         29.0581
             603     10.8226E-03     36.1561E-03         2.32803    -562.923E-03        -2.52190     753.772E-03         1.01133        -2.52190        -1.77332     33.3409E-03    -16.4424E-03    -16.8985E-03    -16.3034E-03     32.7458E-03    -16.4424E-03     10.8386E-03    -2.16654E+06    -6.78022E+06    -80.6273E+06    -2.87432E+06    -80.6206E+06    -6.07920E+06    -492.096E+03         27.5879
             604     9.83860E-03     36.1457E-03         3.36714        -1.27342        -2.86137    -388.216E-03         2.40902        -2.78846        -3.01900     33.3187E-03    -16.5235E-03    -16.7952E-03    -16.3464E-03     32.8700E-03    -16.5235E-03     9.42421E-03     2.45420E+06    -3.18775E+06    -102.738E+06    -3.19032E+06    -102.735E+06     2.45420E+06    -50.4525E+03         26.3506
             605     8.85458E-03     36.1368E-03         4.47821        -1.96348        -3.30038        -1.61782         3.81303        -2.98086        -3.57978     33.3199E-03    -16.5750E-03    -16.7448E-03    -16.3684E-03     32.9434E-03    -16.5750E-03     8.64757E-03     6.70158E+06    -4.10231E+06    -117.975E+06    -4.10528E+06    -117.972E+06     6.70158E+06     227.094E+03         25.3493
             606     7.87062E-03     36.1280E-03         5.87039        -2.67863        -3.99395        -3.11913         5.36426        -3.04732        -3.52697     33.3467E-03    -16.6109E-03    -16.7358E-03    -16.4045E-03     33.0154E-03    -16.6109E-03     8.11254E-03     6.86646E+06    -5.44840E+06    -134.499E+06    -5.45153E+06    -134.496E+06     6.86646E+06     382.041E+03         24.5672
             607     6.88663E-03     36.1202E-03         6.04659        -2.77055        -4.07681        -3.80186         5.98097        -2.97989    -662.988E-03     33.3738E-03    -16.6445E-03    -16.7293E-03    -16.4501E-03     33.0947E-03    -16.6445E-03     7.45219E-03     6.15298E+06    -7.07256E+06    -150.794E+06    -7.07444E+06    -150.792E+06     6.15298E+06     360.610E+03         23.9752
             608     5.90274E-03     36.1129E-03         5.90750        -2.83863        -3.82951        -3.49702         5.60294        -2.86656         2.46172     33.3883E-03    -16.6716E-03    -16.7167E-03    -16.4923E-03     33.1638E-03    -16.6716E-03     6.67578E-03     3.92742E+06    -9.27455E+06    -166.308E+06    -9.27722E+06    -166.305E+06     3.92742E+06     488.359E+03         23.5390
             609     4.91886E-03     36.1066E-03         6.33439        -2.68838        -4.37866        -3.93747         5.89319        -2.68838     345.876E-03     33.4028E-03    -16.6877E-03    -16.7151E-03    -16.5445E-03     33.2322E-03    -16.6877E-03     5.82369E-03    -406.229E+03    -12.0812E+06    -181.106E+06    -12.0835E+06    -181.103E+06    -406.229E+03     435.538E+03         23.2252
             610     3.93504E-03     36.1010E-03         5.94897        -2.01556        -4.63621        -4.12823         5.76318        -2.33775        -1.47007     33.4214E-03    -16.6950E-03    -16.7263E-03    -16.6054E-03     33.3004E-03    -16.6950E-03     4.89033E-03    -5.40403E+06    -14.6505E+06    -194.668E+06    -14.6513E+06    -194.667E+06    -5.40403E+06    -86.4285E+03         23.0047
             611     2.95129E-03     36.0967E-03         4.84036        -1.51989        -4.02553        -3.44251         4.57953        -1.84208    -823.903E-03     33.4188E-03    -16.6946E-03    -16.7242E-03    -16.6477E-03     33.3458E-03    -16.6982E-03     3.78152E-03    -10.2113E+06    -17.0075E+06    -208.137E+06    -17.0095E+06    -208.135E+06    -10.2113E+06    -529.454E+03         22.8546
             612     1.96753E-03     36.0934E-03         4.11353        -1.35041        -3.47499        -2.22070         2.85924        -1.35041         1.36954     33.3879E-03    -16.6824E-03    -16.7054E-03    -16.6646E-03     33.3512E-03    -16.6867E-03     2.64857E-03    -15.4862E+06    -18.9938E+06    -216.526E+06    -18.9960E+06    -216.523E+06    -15.4862E+06    -562.587E+03         22.7581
             613     983.770E-06     36.0912E-03         4.06366        -1.58899        -3.09601        -1.60371         1.63054    -648.163E-03     793.207E-03     33.3613E-03    -16.6364E-03    -16.7249E-03    -16.7112E-03     33.3483E-03    -16.6372E-03     1.49928E-03    -18.8025E+06    -20.0783E+06    -223.237E+06    -20.0561E+06    -223.233E+06    -18.8291E+06    -442.736E+03         22.7033
             614     16.7278E-03     35.2518E-03         1.10858    -652.956E-03        -1.45364    -52.9542E-03    -292.109E-03    -652.956E-03    -726.425E-03     35.2048E-03    -15.8378E-03    -19.3670E-03    -14.9291E-03     31.3727E-03    -16.4436E-03     25.7577E-03     203.255E+06     86.0294E+06    -7.20035E+06    -7.18019E+06     203.235E+06     86.0294E+06     941.845E+03         38.2267
             615     15.7438E-03     35.2134E-03         2.19044    -738.431E-03        -2.35794         1.61228        -1.77979    -738.431E-03        -2.26327     36.9969E-03    -16.0120E-03    -20.9849E-03    -15.5870E-03     31.5990E-03    -16.0120E-03     33.4949E-03     169.635E+06     9.53100E+06    -31.7947E+06    -10.2060E+06     169.620E+06    -12.0422E+06     1.02630E+06         36.3628
             616     14.7595E-03     35.1829E-03         3.67941    -952.049E-03        -3.60023         3.45200        -3.37282    -952.049E-03        -2.37025     34.8567E-03    -15.9241E-03    -18.9326E-03    -15.8700E-03     31.7941E-03    -15.9241E-03     24.5560E-03     101.462E+06    -8.43387E+06    -50.5414E+06    -8.42597E+06     101.454E+06    -50.5414E+06    -65.3901E+03         34.4545
             617     13.7751E-03     35.1628E-03         3.92423        -1.27049        -3.51770         3.71054        -3.30401        -1.27049        -2.25843     33.6574E-03    -16.1151E-03    -17.5423E-03    -15.9838E-03     32.0989E-03    -16.1151E-03     17.4355E-03     31.1450E+06    -5.68925E+06    -35.2380E+06     -5.6707E+06     31.1264E+06    -35.2380E+06    -255.492E+03         32.5568
             618     12.7909E-03     35.1471E-03         3.36675        -1.59586        -2.60780         2.66241        -1.89219        -1.60712        -2.93502     33.2715E-03    -16.2710E-03    -17.0004E-03    -16.0783E-03     32.3494E-03    -16.2710E-03     13.3958E-03     1.22050E+06    -9.93419E+06    -27.1445E+06    -3.87766E+06    -13.0319E+06    -18.9486E+06    -39.5417E+03         30.7402
             619     11.8066E-03     35.1352E-03         2.68328        -1.36543        -2.13930         1.80694    -706.287E-03        -1.92211        -2.73525     33.2512E-03    -16.3594E-03    -16.8918E-03    -16.1943E-03     32.5537E-03    -16.3594E-03     11.7453E-03    -3.01855E+06    -13.2295E+06    -49.2331E+06    -3.02698E+06    -49.2247E+06    -13.2295E+06    -62.7142E+03         29.0732
             620     10.8226E-03     35.1230E-03         2.15142    -748.519E-03        -2.22500         1.11025     292.658E-03        -2.22500        -1.84987     33.3303E-03    -16.4463E-03    -16.8840E-03    -16.2846E-03     32.7309E-03    -16.4463E-03     10.8738E-03    -2.29890E+06    -6.96168E+06    -80.7404E+06    -2.80405E+06    -80.7344E+06    -6.46263E+06     42.8666E+03         27.6080
             621     9.83848E-03     35.1130E-03         3.29066        -1.50676        -2.61635        -1.13352         2.73889        -2.43782        -2.18471     33.3092E-03    -16.5297E-03    -16.7795E-03    -16.3275E-03     32.8573E-03    -16.5297E-03     9.45508E-03     2.01499E+06    -3.33602E+06    -102.772E+06    -3.33943E+06    -102.769E+06     2.01499E+06     204.979E+03         26.3727
             622     8.85448E-03     35.1037E-03         4.74952        -2.47658        -3.16573        -2.87928         4.46307        -2.47658        -2.58844     33.3185E-03    -16.5840E-03    -16.7345E-03    -16.3551E-03     32.9392E-03    -16.5840E-03     8.67896E-03     6.23051E+06    -4.49636E+06    -118.051E+06    -4.50131E+06    -118.046E+06     6.23051E+06     450.725E+03         25.3710
             623     7.87049E-03     35.0953E-03         4.29748        -2.25688        -2.95873        -2.47692         4.00691        -2.44811        -2.43543     33.3571E-03    -16.6225E-03    -16.7346E-03    -16.4011E-03     33.0236E-03    -16.6225E-03     8.13954E-03     6.53843E+06    -6.02502E+06    -134.267E+06    -6.02969E+06    -134.263E+06     6.53843E+06     576.132E+03         24.5870
             624     6.88656E-03     35.0872E-03         3.75265        -2.19869        -2.47911        -1.95866         3.51262        -2.47911        -1.93521     33.3822E-03    -16.6593E-03    -16.7229E-03    -16.4435E-03     33.1028E-03    -16.6593E-03     7.45338E-03     5.87671E+06    -7.96640E+06    -150.738E+06    -7.97058E+06    -150.734E+06     5.87671E+06     628.266E+03         23.9922
             625     5.90265E-03     35.0801E-03         4.16925        -2.39665        -2.67921        -2.20216         3.83605        -2.54051     283.035E-03     33.4066E-03    -16.6896E-03    -16.7170E-03    -16.4926E-03     33.1822E-03    -16.6896E-03     6.67831E-03     3.81037E+06    -10.1217E+06    -166.274E+06    -10.1252E+06    -166.271E+06     3.81037E+06     692.202E+03         23.5531
             626     4.91878E-03     35.0737E-03         5.40191        -2.40397        -3.86263        -3.53041         5.12437        -2.45864     616.724E-03     33.4362E-03    -16.7069E-03    -16.7293E-03    -16.5575E-03     33.2644E-03    -16.7069E-03     5.84746E-03    -195.861E+03    -12.0789E+06    -180.459E+06    -12.0810E+06    -180.457E+06    -195.861E+03     374.603E+03         23.2367
             627     3.93499E-03     35.0682E-03         6.94203        -1.87153        -5.94568        -5.69950         6.69585        -1.87153     746.349E-03     33.4483E-03    -16.7137E-03    -16.7346E-03    -16.6107E-03     33.3268E-03    -16.7161E-03     4.90156E-03    -5.41189E+06    -14.3663E+06    -194.427E+06    -14.3664E+06    -194.427E+06    -5.41189E+06    -65.7644E+03         23.0142
             628     2.95118E-03     35.0638E-03         5.35841    -610.225E-03        -5.66984        -5.30161         4.99019    -610.225E-03     570.396E-03     33.4613E-03    -16.7198E-03    -16.7415E-03    -16.6652E-03     33.3874E-03    -16.7222E-03     3.81260E-03    -10.5422E+06    -16.8691E+06    -208.247E+06    -16.8708E+06    -208.245E+06    -10.5422E+06    -424.609E+03         22.8625
             629     1.96749E-03     35.0606E-03         2.64569    -91.6526E-03        -3.53709        -2.24442     281.157E-03     980.209E-03     112.710E-03     33.4497E-03    -16.7086E-03    -16.7411E-03    -16.7033E-03     33.4119E-03    -16.7086E-03     2.69208E-03    -16.0036E+06    -19.0437E+06    -216.869E+06    -19.0468E+06    -216.866E+06    -16.0036E+06    -681.738E+03         22.7648
             630     983.761E-06     35.0584E-03         3.78656     815.045E-03        -5.73266    -56.3209E-03        -4.71304         3.63831        -2.56315     33.3961E-03    -16.6467E-03    -16.7494E-03    -16.7361E-03     33.3829E-03    -16.6467E-03     1.51608E-03    -19.2350E+06    -21.2702E+06    -224.235E+06    -20.3399E+06    -224.231E+06    -20.1702E+06    -582.725E+03         22.7095
             631     16.7292E-03     34.2189E-03         1.81183    -486.322E-03        -2.05878         1.25610        -1.50305    -486.322E-03    -269.616E-03     35.1002E-03    -15.9175E-03    -19.1826E-03    -14.9677E-03     31.4045E-03    -16.4368E-03     25.1819E-03     203.345E+06     85.8041E+06    -6.72769E+06    -6.72248E+06     203.339E+06     85.8041E+06     752.457E+03         38.1976
             632     15.7440E-03     34.1799E-03         1.64933    -586.252E-03        -1.80057         1.06803        -1.21926    -586.252E-03        -1.66770     36.7564E-03    -16.0051E-03    -20.7513E-03    -15.4656E-03     31.4707E-03    -16.0051E-03     33.0541E-03     170.379E+06     10.7790E+06    -31.5331E+06    -8.61125E+06     170.377E+06    -12.1409E+06     172.513E+03         36.3401
             633     14.7594E-03     34.1502E-03         2.07055    -708.285E-03        -2.14737         1.51377        -1.59059    -708.285E-03        -2.24585     34.7938E-03    -15.9296E-03    -18.8641E-03    -15.8186E-03     31.7483E-03    -15.9296E-03     24.4491E-03     102.070E+06    -7.22236E+06    -49.4314E+06    -7.20001E+06     102.048E+06    -49.4314E+06     285.597E+03         34.4411
             634     13.7750E-03     34.1296E-03         3.00104    -904.821E-03        -2.90011         2.67331        -2.57238    -904.821E-03        -2.53882     33.6544E-03    -16.1239E-03    -17.5305E-03    -15.9771E-03     32.1011E-03    -16.1239E-03     17.4152E-03     31.4508E+06    -5.78408E+06    -34.3132E+06    -5.73654E+06     31.4033E+06    -34.3132E+06     91.5879E+03         32.5539
             635     12.7907E-03     34.1144E-03         3.39687        -1.19178        -3.02248         3.10448        -2.73009        -1.19178        -2.42917     33.2634E-03    -16.2736E-03    -16.9898E-03    -16.0638E-03     32.3375E-03    -16.2736E-03     13.4164E-03     610.344E+03    -10.4382E+06    -27.6904E+06    -4.60720E+06    -13.2328E+06    -19.6782E+06     71.4129E+03         30.7471
             636     11.8066E-03     34.1021E-03         2.69587        -1.27528        -2.25293         2.03980        -1.37336        -1.49877        -2.66513     33.2357E-03    -16.3649E-03    -16.8708E-03    -16.1731E-03     32.5381E-03    -16.3649E-03     11.7420E-03    -3.75586E+06    -13.6058E+06    -49.1527E+06    -3.77343E+06    -49.1352E+06    -13.6058E+06     349.638E+03         29.0879
             637     10.8224E-03     34.0903E-03         1.83488    -932.449E-03        -1.75483     760.709E-03     141.722E-03        -1.75483        -2.46646     33.3262E-03    -16.4533E-03    -16.8729E-03    -16.2733E-03     32.7265E-03    -16.4533E-03     10.8730E-03    -2.78458E+06    -7.51210E+06    -80.5704E+06    -3.48848E+06    -80.5627E+06    -6.81588E+06     467.428E+03         27.6276
             638     9.83840E-03     34.0799E-03         2.43254        -1.26519        -2.06570    -32.9157E-03         1.09465        -1.96008    -785.870E-03     33.3036E-03    -16.5399E-03    -16.7637E-03    -16.3152E-03     32.8550E-03    -16.5399E-03     9.41606E-03     1.98857E+06    -3.84210E+06    -102.672E+06    -3.85003E+06    -102.664E+06     1.98857E+06     662.547E+03         26.3944
             639     8.85434E-03     34.0710E-03         3.71252        -1.97405        -2.65463        -1.75467         2.90857        -2.07005     135.713E-03     33.3145E-03    -16.5965E-03    -16.7180E-03    -16.3419E-03     32.9384E-03    -16.5965E-03     8.64105E-03     6.21272E+06    -4.97869E+06    -118.023E+06    -4.98572E+06    -118.016E+06     6.21272E+06     766.155E+03         25.3925
             640     7.87037E-03     34.0622E-03         4.14407        -2.01486        -3.09396        -2.98956         4.04951        -2.02469        -1.14013     33.3648E-03    -16.6377E-03    -16.7272E-03    -16.3949E-03     33.0326E-03    -16.6377E-03     8.12497E-03     6.61417E+06    -6.51571E+06    -134.138E+06    -6.52255E+06    -134.132E+06     6.61417E+06     788.669E+03         24.6067
             641     6.88645E-03     34.0545E-03         3.55543        -1.86148        -2.64837        -2.33689         3.31504        -1.93257        -1.83213     33.3985E-03    -16.6770E-03    -16.7215E-03    -16.4426E-03     33.1195E-03    -16.6770E-03     7.44932E-03     6.12204E+06    -8.29969E+06    -150.485E+06    -8.30606E+06    -150.479E+06     6.12204E+06     889.390E+03         24.0093
             642     5.90251E-03     34.0471E-03         2.70926        -1.58635        -2.05993        -1.51715         2.51458        -1.93445    -385.843E-03     33.4310E-03    -16.7056E-03    -16.7254E-03    -16.4994E-03     33.2050E-03    -16.7056E-03     6.70542E-03     3.60492E+06    -10.2726E+06    -165.558E+06    -10.2761E+06    -165.555E+06     3.60492E+06     510.505E+03         23.5674
             643     4.91868E-03     34.0408E-03         2.65655        -1.27897        -2.29040        -1.40197         2.51714        -2.02800         1.11124     33.4579E-03    -16.7193E-03    -16.7386E-03    -16.5616E-03     33.2855E-03    -16.7239E-03     5.85678E-03    -727.654E+03    -12.2935E+06    -180.033E+06    -12.2938E+06    -180.033E+06    -727.654E+03     119.854E+03         23.2484
             644     3.93485E-03     34.0352E-03         4.84173        -1.49121        -4.22657        -3.04022         4.11757        -1.95341         3.90788     33.4661E-03    -16.7214E-03    -16.7447E-03    -16.6055E-03     33.3450E-03    -16.7395E-03     4.89720E-03    -5.75550E+06    -14.3410E+06    -194.342E+06    -14.3411E+06    -194.342E+06    -5.75550E+06     89.4905E+03         23.0238
             645     2.95110E-03     34.0310E-03         5.96068        -1.17383        -5.70000        -5.05290         5.31358        -1.17383         2.78018     33.4956E-03    -16.7359E-03    -16.7597E-03    -16.6644E-03     33.4203E-03    -16.7559E-03     3.85057E-03    -10.8194E+06    -16.7914E+06    -208.307E+06    -16.7916E+06    -208.306E+06    -10.8194E+06    -43.2947E+03         22.8705
             646     1.96733E-03     34.0275E-03         4.60619    -468.368E-03        -5.11193        -3.94319         2.36560     603.493E-03         2.32241     33.5155E-03    -16.7447E-03    -16.7709E-03    -16.7199E-03     33.4771E-03    -16.7571E-03     2.71114E-03    -16.2448E+06    -19.3185E+06    -217.271E+06    -19.3206E+06    -217.269E+06    -16.2448E+06    -150.483E+03         22.7717
             647     983.707E-06     34.0256E-03         5.58572         1.96608        -8.81106    -380.780E-03        -4.72700         3.84852        -4.47656     33.5088E-03    -16.7159E-03    -16.7929E-03    -16.7737E-03     33.4956E-03    -16.7219E-03     1.53230E-03    -19.6528E+06    -22.2089E+06    -224.911E+06    -21.2769E+06    -224.908E+06    -20.5880E+06    -152.737E+03         22.7157
             648     16.7295E-03     33.1860E-03         2.71509    -331.940E-03        -2.78025         2.60797        -2.67314    -331.940E-03    -755.904E-03     35.2994E-03    -15.9866E-03    -19.3129E-03    -15.0381E-03     31.4731E-03    -16.4351E-03     25.7302E-03     203.649E+06     86.2821E+06    -6.32311E+06    -6.31950E+06     203.645E+06     86.2821E+06     252.357E+03         38.1687
             649     15.7442E-03     33.1476E-03         1.92660    -480.500E-03        -2.02582         1.63079        -1.73000    -480.500E-03    -352.658E-03     36.8650E-03    -15.9979E-03    -20.8671E-03    -15.4595E-03     31.4573E-03    -15.9979E-03     33.4562E-03     170.615E+06     11.0364E+06    -31.7256E+06    -8.25829E+06     170.612E+06    -12.4277E+06     453.864E+03         36.3176
             650     14.7594E-03     33.1168E-03     829.766E-03    -566.180E-03    -915.848E-03     113.156E-03    -199.239E-03    -566.180E-03    -965.959E-03     34.7373E-03    -15.9328E-03    -18.8045E-03    -15.7536E-03     31.6864E-03    -15.9328E-03     24.4209E-03     101.841E+06    -7.27105E+06    -48.4107E+06    -7.25476E+06     101.824E+06    -48.4107E+06     665.672E+03         34.4278
             651     13.7750E-03     33.0970E-03         1.42769    -642.831E-03        -1.50692     928.397E-03        -1.00762    -642.831E-03    -953.209E-03     33.6035E-03    -16.1356E-03    -17.4679E-03    -15.9324E-03     32.0680E-03    -16.1356E-03     17.2988E-03     32.0678E+06    -5.50104E+06    -32.0048E+06    -5.33283E+06     31.8996E+06    -32.0048E+06     941.014E+03         32.5509
             652     12.7907E-03     33.0812E-03         2.30501    -812.256E-03        -2.26996         2.21364        -2.17860    -812.256E-03    -584.413E-03     33.2384E-03    -16.2823E-03    -16.9561E-03    -16.0395E-03     32.3218E-03    -16.2823E-03     13.3414E-03     689.456E+03    -9.83798E+06    -27.3508E+06    -4.69121E+06    -13.1419E+06    -18.6662E+06     632.904E+03         30.7538
             653     11.8065E-03     33.0695E-03         2.15199    -891.449E-03        -2.07622         1.75062        -1.52578        -1.04052    -90.3738E-03     33.2245E-03    -16.3733E-03    -16.8512E-03    -16.1575E-03     32.5308E-03    -16.3733E-03     11.7056E-03    -4.35599E+06    -13.1574E+06    -49.1801E+06    -4.37670E+06    -49.1594E+06    -13.1574E+06     547.862E+03         29.1023
             654     10.8224E-03     33.0571E-03         1.58615    -897.829E-03        -1.56261     988.389E-03    -608.813E-03        -1.25387    -754.417E-03     33.3220E-03    -16.4611E-03    -16.8609E-03    -16.2640E-03     32.7250E-03    -16.4611E-03     10.8449E-03    -2.89379E+06    -7.86340E+06    -80.5005E+06    -4.08051E+06    -80.4877E+06    -6.68954E+06     742.109E+03         27.6470
             655     9.83833E-03     33.0472E-03         1.77957        -1.16589        -1.51625     882.095E-03    -315.799E-03        -1.46886     738.914E-03     33.3010E-03    -16.5493E-03    -16.7517E-03    -16.3068E-03     32.8561E-03    -16.5493E-03     9.37738E-03     2.23497E+06    -4.29153E+06    -102.532E+06    -4.30219E+06    -102.521E+06     2.23497E+06     908.019E+03         26.4160
             656     8.85431E-03     33.0380E-03         2.36547        -1.39886        -1.89983    -268.045E-03     994.331E-03        -1.65951         1.21826     33.3123E-03    -16.6071E-03    -16.7052E-03    -16.3304E-03     32.9375E-03    -16.6071E-03     8.62466E-03     6.47791E+06    -5.04990E+06    -117.771E+06    -5.05961E+06    -117.762E+06     6.47791E+06     918.491E+03         25.4139
             657     7.87030E-03     33.0295E-03         3.27291        -1.53726        -2.65719        -2.20283         2.98320        -1.70191    -937.352E-03     33.3574E-03    -16.6509E-03    -16.7065E-03    -16.3746E-03     33.0254E-03    -16.6509E-03     8.11888E-03     6.82085E+06    -6.27083E+06    -133.950E+06    -6.27794E+06    -133.943E+06     6.82085E+06     842.943E+03         24.6263
             658     6.88631E-03     33.0214E-03         3.77220        -1.55911        -3.13348        -3.08657         3.72529        -1.55911    -978.923E-03     33.4135E-03    -16.6932E-03    -16.7202E-03    -16.4410E-03     33.1342E-03    -16.6932E-03     7.45458E-03     6.45312E+06    -7.77564E+06    -149.889E+06    -7.78144E+06    -149.883E+06     6.45312E+06     657.445E+03         24.0264
             659     5.90244E-03     33.0143E-03         2.64371        -1.15776        -2.36836        -2.08440         2.59191        -1.38992    -38.7601E-03     33.4675E-03    -16.7233E-03    -16.7442E-03    -16.5174E-03     33.2408E-03    -16.7233E-03     6.72020E-03     4.04029E+06    -9.56696E+06    -164.859E+06    -9.57095E+06    -164.855E+06     4.04029E+06     421.872E+03         23.5817
             660     4.91860E-03     33.0078E-03         1.40191    -686.208E-03        -1.57242    -436.234E-03         1.00755        -1.42803     120.785E-03     33.4815E-03    -16.7281E-03    -16.7535E-03    -16.5673E-03     33.3106E-03    -16.7433E-03     5.83001E-03    -490.649E+03    -11.8603E+06    -179.884E+06    -11.8619E+06    -179.883E+06    -490.649E+03     314.636E+03         23.2602
             661     3.93479E-03     33.0025E-03         2.79144        -1.28653        -2.33676     383.191E-03     581.152E-03        -1.79620         2.60819     33.4853E-03    -16.7220E-03    -16.7633E-03    -16.6021E-03     33.3654E-03    -16.7633E-03     4.87686E-03    -5.70064E+06    -14.4346E+06    -194.196E+06    -14.4362E+06    -194.195E+06    -5.70064E+06     410.736E+03         23.0334
             662     2.95095E-03     32.9979E-03         4.69504        -1.53985        -3.97425    -603.081E-03         2.14485        -2.36084         1.44238     33.5298E-03    -16.7427E-03    -16.7871E-03    -16.6669E-03     33.4540E-03    -16.7871E-03     3.86159E-03    -10.9137E+06    -17.1146E+06    -208.253E+06    -17.1179E+06    -208.250E+06    -10.9137E+06     611.114E+03         22.8785
             663     1.96730E-03     32.9947E-03         5.46372    -777.034E-03        -5.55350        -1.87266         3.92716        -2.92131         2.01530     33.5704E-03    -16.7686E-03    -16.8018E-03    -16.7304E-03     33.5322E-03    -16.8018E-03     2.70622E-03    -16.3683E+06    -19.8088E+06    -217.461E+06    -19.8116E+06    -217.458E+06    -16.3683E+06     641.967E+03         22.7787
             664     983.549E-06     32.9925E-03         9.45743        -1.82043        -8.37553        -3.24612         5.65131        -3.14372        -2.69069     33.6190E-03    -16.7672E-03    -16.8519E-03    -16.8240E-03     33.6060E-03    -16.7820E-03     1.50992E-03    -19.6433E+06    -22.3778E+06    -225.063E+06    -21.5161E+06    -225.060E+06    -20.5081E+06    -150.911E+03         22.7220
             665     16.7278E-03     32.1527E-03         1.81016    -234.612E-03        -1.95230         1.54199        -1.68413    -234.612E-03     250.528E-03     35.1437E-03    -15.8798E-03    -19.2639E-03    -14.9959E-03     31.4374E-03    -16.4414E-03     25.3187E-03     203.307E+06     86.2624E+06    -7.19740E+06    -7.18905E+06     203.299E+06     86.2624E+06    -377.126E+03         38.1400
             666     15.7441E-03     32.1142E-03         2.07699    -354.080E-03        -2.20791         1.89075        -2.02167    -354.080E-03         1.14259     36.8607E-03    -16.0046E-03    -20.8561E-03    -15.5524E-03     31.5570E-03    -16.0046E-03     33.1875E-03     170.291E+06     11.2423E+06    -32.4787E+06    -9.20014E+06     170.283E+06    -12.0280E+06    -177.918E+03         36.2951
             667     14.7596E-03     32.0844E-03         1.52816    -467.363E-03        -1.60507     938.747E-03        -1.01565    -467.363E-03    -667.606E-03     34.7822E-03    -15.9230E-03    -18.8592E-03    -15.7819E-03     31.7049E-03    -15.9230E-03     24.5645E-03     101.117E+06    -6.75151E+06    -50.1691E+06    -6.72951E+06     101.095E+06    -50.1691E+06     699.841E+03         34.4145
             668     13.7751E-03     32.0637E-03         1.08131    -533.523E-03        -1.17457     67.9451E-03    -161.208E-03    -533.523E-03    -856.903E-03     33.5952E-03    -16.1278E-03    -17.4674E-03    -15.9120E-03     32.0397E-03    -16.1278E-03     17.3942E-03     32.0773E+06    -4.61472E+06    -33.1805E+06    -4.43400E+06     31.8966E+06    -33.1805E+06     1.50255E+06         32.5477
             669     12.7907E-03     32.0486E-03         1.03749    -590.595E-03        -1.15551     371.687E-03    -489.713E-03    -590.595E-03     846.356E-03     33.2290E-03    -16.2866E-03    -16.9425E-03    -16.0222E-03     32.3088E-03    -16.2866E-03     13.3678E-03     2.49378E+06    -9.19519E+06    -26.6428E+06    -3.50552E+06    -12.2249E+06    -17.6137E+06     1.54424E+06         30.7603
             670     11.8065E-03     32.0363E-03         2.01701    -709.645E-03        -2.09495         1.30931        -1.38724    -709.645E-03         2.78722     33.2284E-03    -16.3781E-03    -16.8504E-03    -16.1534E-03     32.5315E-03    -16.3781E-03     11.7328E-03    -3.48716E+06    -12.6579E+06    -49.0717E+06    -3.56491E+06    -48.9939E+06    -12.6579E+06     1.21310E+06         29.1164
             671     10.8224E-03     32.0245E-03         2.18717    -864.738E-03        -2.15913     763.271E-03    -735.233E-03    -864.738E-03         1.55735     33.3153E-03    -16.4666E-03    -16.8487E-03    -16.2509E-03     32.7175E-03    -16.4666E-03     10.8523E-03    -2.95385E+06    -7.31984E+06    -80.3439E+06    -3.76318E+06    -80.3249E+06    -6.52952E+06     1.08034E+06         27.6660
             672     9.83825E-03     32.0141E-03         1.37239    -964.958E-03        -1.29353    -288.775E-03     371.222E-03    -968.542E-03     308.459E-03     33.2925E-03    -16.5552E-03    -16.7374E-03    -16.2899E-03     32.8451E-03    -16.5552E-03     9.40169E-03     1.93759E+06    -4.08813E+06    -102.403E+06    -4.10117E+06    -102.390E+06     1.93759E+06     964.252E+03         26.4372
             673     8.85420E-03     32.0053E-03         1.48852    -915.541E-03        -1.46532     472.638E-03    -281.211E-03        -1.08377     266.843E-03     33.3162E-03    -16.6154E-03    -16.7007E-03    -16.3238E-03     32.9392E-03    -16.6154E-03     8.64959E-03     6.22795E+06    -4.86329E+06    -117.384E+06    -4.87298E+06    -117.374E+06     6.22795E+06     900.440E+03         25.4350
             674     7.87018E-03     31.9965E-03         1.98486        -1.08239        -1.76435     62.5755E-03     322.583E-03        -1.24703    -87.6469E-03     33.3720E-03    -16.6604E-03    -16.7116E-03    -16.3784E-03     33.0388E-03    -16.6604E-03     8.13467E-03     6.49473E+06    -6.12282E+06    -133.433E+06    -6.12986E+06    -133.426E+06     6.49473E+06     797.826E+03         24.6458
             675     6.88622E-03     31.9887E-03         3.04407        -1.26404        -2.59560        -2.12110         2.56958        -1.26404        -1.01212     33.4303E-03    -16.7047E-03    -16.7256E-03    -16.4459E-03     33.1506E-03    -16.7047E-03     7.46324E-03     6.22192E+06    -7.87641E+06    -149.235E+06    -7.88120E+06    -149.230E+06     6.22192E+06     553.319E+03         24.0433
             676     5.90231E-03     31.9812E-03         3.29317        -1.06283        -3.01171        -2.71665         2.99811        -1.06283    -674.393E-03     33.4786E-03    -16.7282E-03    -16.7503E-03    -16.5132E-03     33.2518E-03    -16.7386E-03     6.71961E-03     3.85662E+06    -10.0733E+06    -164.666E+06    -10.0765E+06    -164.663E+06     3.85662E+06     417.501E+03         23.5960
             677     4.91852E-03     31.9749E-03         2.11449    -806.158E-03        -2.04410        -1.54692         1.66478    -853.628E-03    -329.445E-03     33.5004E-03    -16.7328E-03    -16.7676E-03    -16.5679E-03     33.3298E-03    -16.7620E-03     5.82593E-03    -722.532E+03    -12.5301E+06    -179.808E+06    -12.5358E+06    -179.802E+06    -722.532E+03     727.293E+03         23.2719
             678     3.93468E-03     31.9694E-03         2.62068        -1.02323        -2.34589         1.24611    -923.846E-03        -1.07070     176.906E-03     33.5293E-03    -16.7464E-03    -16.7829E-03    -16.6261E-03     33.4090E-03    -16.7829E-03     4.89077E-03    -5.89406E+06    -15.1377E+06    -193.985E+06    -15.1443E+06    -193.978E+06    -5.89406E+06     942.794E+03         23.0430
             679     2.95096E-03     31.9650E-03         4.33620        -1.57163        -3.48804         3.82286        -2.15371        -2.39262    -295.046E-03     33.5732E-03    -16.7676E-03    -16.8056E-03    -16.6920E-03     33.4976E-03    -16.8056E-03     3.85550E-03    -10.7497E+06    -17.3897E+06    -208.083E+06    -17.3960E+06    -208.077E+06    -10.7497E+06     1.07907E+06         22.8865
             680     1.96719E-03     31.9615E-03         6.55025        -1.97764        -5.22412         1.27035         3.07003        -4.99190    -354.580E-03     33.6119E-03    -16.7883E-03    -16.8237E-03    -16.7567E-03     33.5741E-03    -16.8174E-03     2.69638E-03    -15.4752E+06    -19.1959E+06    -216.804E+06    -19.2022E+06    -216.798E+06    -15.4752E+06     1.08503E+06         22.7856
             681     983.639E-06     31.9595E-03         13.4479        -4.68087        -9.13568        -6.23888         12.7443        -6.87414        -4.35729     33.6367E-03    -16.7629E-03    -16.8738E-03    -16.8520E-03     33.6237E-03    -16.7717E-03     1.49506E-03    -19.5342E+06    -21.9018E+06    -224.960E+06    -21.0456E+06    -224.951E+06    -20.3990E+06     704.884E+03         22.7284
             682     16.7302E-03     31.1198E-03     809.209E-03    -225.549E-03        -1.12879    -559.860E-03     240.279E-03    -225.549E-03     339.673E-03     35.1576E-03    -16.0421E-03    -19.1155E-03    -15.0282E-03     31.4611E-03    -16.4329E-03     25.0884E-03     203.891E+06     86.8005E+06    -6.14885E+06    -6.13441E+06     203.876E+06     86.8005E+06    -625.450E+03         38.1119
             683     15.7440E-03     31.0815E-03         1.51924    -237.378E-03        -1.73114     503.320E-03    -715.219E-03    -237.378E-03     986.007E-03     36.6696E-03    -15.9963E-03    -20.6733E-03    -15.3286E-03     31.3248E-03    -15.9963E-03     33.1722E-03     169.291E+06     10.0801E+06    -32.6823E+06    -9.17827E+06     169.279E+06    -13.4118E+06     70.8050E+03         36.2729
             684     14.7593E-03     31.0512E-03         1.80180    -317.998E-03        -1.96050         1.51260        -1.67130    -317.998E-03    -663.611E-03     34.7814E-03    -15.9172E-03    -18.8643E-03    -15.7576E-03     31.6747E-03    -15.9172E-03     24.6759E-03     100.081E+06    -8.97907E+06    -53.3551E+06    -8.95353E+06     100.055E+06    -53.3551E+06     737.530E+03         34.4009
             685     13.7750E-03     31.0311E-03         1.46162    -417.827E-03        -1.56704     768.476E-03    -873.896E-03    -417.827E-03        -1.12654     33.6414E-03    -16.1232E-03    -17.5182E-03    -15.9422E-03     32.0654E-03    -16.1232E-03     17.5229E-03     31.6924E+06    -6.32526E+06    -35.8928E+06    -6.17998E+06     31.5471E+06    -35.8928E+06     1.27553E+06         32.5442
             686     12.7906E-03     31.0154E-03     830.229E-03    -474.935E-03    -972.733E-03    -36.7967E-03    -105.708E-03    -474.935E-03     746.983E-03     33.2479E-03    -16.2880E-03    -16.9599E-03    -16.0275E-03     32.3155E-03    -16.2880E-03     13.4609E-03     1.81641E+06    -9.95225E+06    -26.6384E+06    -4.22252E+06    -11.9161E+06    -18.6356E+06     1.93205E+06         30.7662
             687     11.8064E-03     31.0036E-03         1.83421    -503.020E-03        -2.03740    -191.996E-03    -11.1931E-03    -503.020E-03         2.89806     33.2415E-03    -16.3826E-03    -16.8589E-03    -16.1531E-03     32.5358E-03    -16.3826E-03     11.8084E-03    -3.22925E+06    -12.8690E+06    -48.4376E+06    -3.35148E+06    -48.3154E+06    -12.8690E+06     1.97776E+06         29.1300
             688     10.8222E-03     30.9914E-03         2.14530    -504.334E-03        -2.40975    -693.362E-03     428.910E-03    -504.334E-03         2.62528     33.3232E-03    -16.4733E-03    -16.8499E-03    -16.2478E-03     32.7211E-03    -16.4733E-03     10.8900E-03    -2.65771E+06    -7.07016E+06    -80.0139E+06    -3.16790E+06    -79.9742E+06    -6.59962E+06     1.55070E+06         27.6845
             689     9.83816E-03     30.9813E-03     855.379E-03    -473.922E-03        -1.19096    -760.539E-03     428.542E-03    -477.506E-03     726.490E-03     33.2983E-03    -16.5633E-03    -16.7350E-03    -16.2857E-03     32.8491E-03    -16.5633E-03     9.42138E-03     1.78311E+06    -3.64161E+06    -101.934E+06    -3.65787E+06    -101.918E+06     1.78311E+06     1.15666E+06         26.4580
             690     8.85407E-03     30.9722E-03     756.245E-03    -498.982E-03        -1.05837     278.878E-03    -577.421E-03    -502.566E-03     280.584E-03     33.3312E-03    -16.6258E-03    -16.7054E-03    -16.3276E-03     32.9534E-03    -16.6258E-03     8.66080E-03     6.06153E+06    -4.75853E+06    -117.030E+06    -4.76854E+06    -117.020E+06     6.06153E+06     925.918E+03         25.4558
             691     7.87010E-03     30.9637E-03         1.56652    -650.577E-03        -1.68122         1.09745        -1.21215    -650.577E-03     751.806E-03     33.4069E-03    -16.6695E-03    -16.7374E-03    -16.4034E-03     33.0730E-03    -16.6695E-03     8.15000E-03     6.17705E+06    -6.17375E+06    -132.807E+06    -6.18085E+06    -132.800E+06     6.17705E+06     810.056E+03         24.6649
             692     6.88617E-03     30.9556E-03         2.17257    -841.557E-03        -2.03093     365.115E-03    -223.477E-03    -841.557E-03     29.4891E-03     33.4598E-03    -16.7125E-03    -16.7473E-03    -16.4679E-03     33.1804E-03    -16.7125E-03     7.46127E-03     5.94544E+06    -7.89890E+06    -148.745E+06    -7.90355E+06    -148.741E+06     5.94544E+06     664.982E+03         24.0601
             693     5.90229E-03     30.9484E-03         2.76206    -854.543E-03        -2.54766        -1.70167         1.91607    -854.543E-03     202.051E-03     33.4767E-03    -16.7212E-03    -16.7555E-03    -16.5028E-03     33.2535E-03    -16.7507E-03     6.66454E-03     4.07474E+06    -10.1908E+06    -164.637E+06    -10.1983E+06    -164.630E+06     4.07474E+06     782.383E+03         23.6100
             694     4.91836E-03     30.9419E-03         2.25015    -659.688E-03        -2.21765        -1.89695         1.92946    -659.688E-03    -3.96273E-03     33.5068E-03    -16.7286E-03    -16.7781E-03    -16.5599E-03     33.3381E-03    -16.7781E-03     5.79571E-03    -562.804E+03    -12.9242E+06    -179.837E+06    -12.9349E+06    -179.826E+06    -562.804E+03     1.09825E+06         23.2834
             695     3.93463E-03     30.9365E-03         2.27630    -663.650E-03        -2.20331     354.875E-03    -281.885E-03    -663.650E-03     628.140E-03     33.5701E-03    -16.7724E-03    -16.7977E-03    -16.6520E-03     33.4497E-03    -16.7977E-03     4.89465E-03    -5.91757E+06    -15.3120E+06    -193.579E+06    -15.3222E+06    -193.568E+06    -5.91757E+06     1.25529E+06         23.0524
             696     2.95091E-03     30.9319E-03         4.04748        -1.29767        -3.32171         1.75247        -1.02670        -1.29767    -10.2707E-03     33.6239E-03    -16.8012E-03    -16.8227E-03    -16.7331E-03     33.5481E-03    -16.8150E-03     3.86626E-03    -10.2986E+06    -17.3051E+06    -207.491E+06    -17.3124E+06    -207.484E+06    -10.2986E+06     988.117E+03         22.8943
             697     1.96731E-03     30.9286E-03         5.41782        -1.47595        -4.42720    -156.333E-03         2.01693        -2.34593     240.300E-03     33.6355E-03    -16.8063E-03    -16.8292E-03    -16.7820E-03     33.5968E-03    -16.8147E-03     2.73157E-03    -14.5858E+06    -18.9612E+06    -216.220E+06    -18.9695E+06    -216.212E+06    -14.5858E+06     1.10674E+06         22.7922
             698     983.630E-06     30.9262E-03         9.40465    -829.011E-03        -9.15804        -4.06258         5.17918        -1.69899        -6.62446     33.6139E-03    -16.7680E-03    -16.8460E-03    -16.8326E-03     33.6006E-03    -16.7680E-03     1.50862E-03    -18.3444E+06    -20.1004E+06    -223.758E+06    -20.1114E+06    -223.747E+06    -18.3444E+06     1.28141E+06         22.7344
             699     16.7283E-03     30.0872E-03         1.03709    -181.402E-03        -1.38702        -1.07173     721.802E-03    -181.402E-03        -1.25681     35.2060E-03    -15.8501E-03    -19.3559E-03    -14.9334E-03     31.3812E-03    -16.4479E-03     25.7129E-03     202.869E+06     86.1029E+06    -8.03401E+06    -8.02530E+06     202.860E+06     86.1029E+06    -417.259E+03         38.0832
             700     15.7442E-03     30.0489E-03         1.24580    -150.810E-03        -1.52467    -209.898E-03    -68.9653E-03    -150.810E-03        -1.01610     36.9704E-03    -16.0215E-03    -20.9489E-03    -15.4965E-03     31.5180E-03    -16.0215E-03     33.6568E-03     169.094E+06     9.50899E+06    -32.4760E+06    -11.2214E+06     169.086E+06    -11.7377E+06     870.714E+03         36.2503
             701     14.7592E-03     30.0185E-03         1.74616    -199.220E-03        -1.92791         1.36894        -1.55070    -199.220E-03     755.032E-03     34.8232E-03    -15.9373E-03    -18.8859E-03    -15.7577E-03     31.6950E-03    -15.9373E-03     24.7610E-03     100.525E+06    -9.52388E+06    -51.2272E+06    -9.51124E+06     100.512E+06    -51.2272E+06     858.136E+03         34.3871
             702     13.7748E-03     29.9980E-03         1.79850    -301.988E-03        -1.91231         1.14729        -1.26111    -301.988E-03         1.55441     33.6530E-03    -16.1336E-03    -17.5193E-03    -15.9466E-03     32.0802E-03    -16.1336E-03     17.5068E-03     30.6194E+06    -7.56627E+06    -36.4204E+06    -7.43031E+06     30.4835E+06    -36.4204E+06     1.07964E+06         32.5403
             703     12.7905E-03     29.9827E-03         1.30621    -342.828E-03        -1.45203    -585.297E-03     439.474E-03    -342.828E-03         1.08789     33.2741E-03    -16.2944E-03    -16.9797E-03    -16.0466E-03     32.3410E-03    -16.2944E-03     13.4741E-03     686.780E+03    -11.4253E+06    -27.1367E+06    -5.96407E+06    -12.0884E+06    -19.8227E+06     1.82176E+06         30.7717
             704     11.8062E-03     29.9705E-03         1.68113    -271.788E-03        -1.99023        -1.68948         1.38038    -271.788E-03         1.77247     33.2531E-03    -16.3907E-03    -16.8624E-03    -16.1562E-03     32.5469E-03    -16.3907E-03     11.8134E-03    -4.57217E+06    -13.4100E+06    -47.8576E+06    -4.67312E+06    -47.7567E+06    -13.4100E+06     1.81594E+06         29.1429
             705     10.8221E-03     29.9586E-03         1.87019    -190.382E-03        -2.33908    -615.800E-03     146.905E-03    -190.382E-03         3.17954     33.3415E-03    -16.4830E-03    -16.8584E-03    -16.2597E-03     32.7428E-03    -16.4830E-03     10.8611E-03    -3.16150E+06    -7.00914E+06    -79.4386E+06    -3.61554E+06    -79.3978E+06    -6.59591E+06     1.57603E+06         27.7025
             706     9.83802E-03     29.9483E-03         1.78330    -169.892E-03        -2.27434    -149.141E-03    -341.902E-03    -169.892E-03         3.60972     33.3212E-03    -16.5723E-03    -16.7490E-03    -16.3044E-03     32.8767E-03    -16.5723E-03     9.37544E-03     1.83811E+06    -3.59476E+06    -101.419E+06    -3.61352E+06    -101.400E+06     1.83811E+06     1.30753E+06         26.4782
             707     8.85400E-03     29.9394E-03         1.19286    -115.542E-03        -1.73910        -1.07782     531.585E-03    -115.542E-03         1.87601     33.3541E-03    -16.6339E-03    -16.7202E-03    -16.3457E-03     32.9796E-03    -16.6339E-03     8.62621E-03     6.15947E+06    -4.63971E+06    -116.497E+06    -4.64976E+06    -116.487E+06     6.15947E+06     975.735E+03         25.4760
             708     7.86999E-03     29.9306E-03         1.51482    -94.8556E-03        -2.04654     477.353E-03        -1.00907    -94.8556E-03     162.520E-03     33.4296E-03    -16.6760E-03    -16.7536E-03    -16.4219E-03     33.0980E-03    -16.6760E-03     8.12478E-03     6.19257E+06    -5.97332E+06    -132.422E+06    -5.97899E+06    -132.417E+06     6.19257E+06     764.018E+03         24.6837
             709     6.88612E-03     29.9227E-03         2.45627    -315.994E-03        -2.71080         2.33410        -2.58863    -315.994E-03         1.08730     33.4782E-03    -16.7169E-03    -16.7612E-03    -16.4847E-03     33.2016E-03    -16.7169E-03     7.42517E-03     5.84198E+06    -7.64912E+06    -148.451E+06    -7.65659E+06    -148.444E+06     5.84198E+06     844.821E+03         24.0763
             710     5.90225E-03     29.9153E-03         3.06116    -675.965E-03        -2.90258         1.40613        -1.24756    -675.965E-03         2.42226     33.4990E-03    -16.7354E-03    -16.7636E-03    -16.5252E-03     33.2800E-03    -16.7548E-03     6.60363E-03     4.25734E+06    -9.95035E+06    -164.780E+06    -9.96184E+06    -164.769E+06     4.25734E+06     1.16409E+06         23.6236
             711     4.91842E-03     29.9090E-03         2.33333    -704.416E-03        -2.11674     64.5988E-03     399.172E-03    -951.596E-03         1.19955     33.5171E-03    -16.7370E-03    -16.7801E-03    -16.5714E-03     33.3515E-03    -16.7801E-03     5.74472E-03    -70.6645E+03    -12.4134E+06    -179.633E+06    -12.4292E+06    -179.617E+06    -70.6645E+03     1.48928E+06         23.2944
             712     3.93458E-03     29.9033E-03         3.10734    -723.520E-03        -2.83098        -1.65386         2.17740    -970.699E-03         2.97587     33.5607E-03    -16.7622E-03    -16.7985E-03    -16.6437E-03     33.4422E-03    -16.7985E-03     4.85165E-03    -5.40926E+06    -14.7486E+06    -192.747E+06    -14.7618E+06    -192.734E+06    -5.40926E+06     1.27113E+06         23.0613
             713     2.95090E-03     29.8989E-03         4.57745    -304.446E-03        -4.69408        -3.79590         3.67927    -304.446E-03         2.66801     33.6296E-03    -16.8035E-03    -16.8260E-03    -16.7385E-03     33.5546E-03    -16.8161E-03     3.85227E-03    -9.85242E+06    -16.9373E+06    -206.781E+06    -16.9462E+06    -206.772E+06    -9.85242E+06     987.148E+03         22.9016
             714     1.96724E-03     29.8953E-03         4.11241         1.13464        -5.76448        -2.28187     629.792E-03         1.13464         4.44477     33.6371E-03    -16.8130E-03    -16.8240E-03    -16.7853E-03     33.5983E-03    -16.8130E-03     2.72478E-03    -14.4305E+06    -18.8397E+06    -215.650E+06    -18.8495E+06    -215.640E+06    -14.4305E+06     710.684E+03         22.7984
             715     983.661E-06     29.8934E-03         5.80997         2.91110        -9.41326         1.07616        -4.67944         2.91110        -3.19545     33.6094E-03    -16.7658E-03    -16.8436E-03    -16.8304E-03     33.5962E-03    -16.7658E-03     1.52489E-03    -17.8814E+06    -19.4638E+06    -221.914E+06    -19.4695E+06    -221.908E+06    -17.8814E+06     63.2916E+03         22.7398
             716     16.7279E-03     29.0535E-03         1.14047    -104.950E-03        -1.41103    -18.9565E-03    -251.598E-03    -104.950E-03    -22.2104E-03     34.9482E-03    -15.6808E-03    -19.2674E-03    -14.7789E-03     31.2339E-03    -16.4550E-03     25.3262E-03     202.191E+06     84.3890E+06    -8.03082E+06    -8.02238E+06     202.182E+06     84.3890E+06     765.902E+03         38.0547
             717     15.7433E-03     29.0157E-03     957.722E-03    -119.865E-03        -1.14750     280.587E-03    -470.363E-03    -119.865E-03        -1.04374     36.9455E-03    -16.0411E-03    -20.9044E-03    -15.6121E-03     31.6532E-03    -16.0411E-03     33.1899E-03     168.504E+06     6.57068E+06    -30.9469E+06    -12.6064E+06     168.501E+06    -11.7671E+06     365.259E+03         36.2275
             718     14.7592E-03     28.9856E-03         1.23018    -164.316E-03        -1.32637     787.420E-03    -883.603E-03    -164.316E-03     885.953E-03     34.9017E-03    -15.9606E-03    -18.9411E-03    -15.8492E-03     31.8098E-03    -15.9606E-03     24.7003E-03     101.019E+06    -11.2120E+06    -49.1242E+06    -11.2041E+06     101.011E+06    -49.1242E+06     605.174E+03         34.3730
             719     13.7747E-03     28.9651E-03         1.59112    -204.380E-03        -1.64904     56.2552E-03    -114.172E-03    -204.380E-03         2.55641     33.6663E-03    -16.1419E-03    -17.5244E-03    -15.9455E-03     32.0873E-03    -16.1419E-03     17.5289E-03     29.5597E+06    -8.65226E+06    -36.9656E+06    -8.56375E+06     29.4712E+06    -36.9656E+06     1.09016E+06         32.5360
             720     12.7903E-03     28.9497E-03         1.78631    -166.669E-03        -1.94942        -1.33126         1.16815    -166.669E-03         2.22384     33.2927E-03    -16.3007E-03    -16.9919E-03    -16.0695E-03     32.3702E-03    -16.3007E-03     13.4030E-03    -373.235E+03    -11.4953E+06    -26.9156E+06    -6.46432E+06    -12.0855E+06    -20.2342E+06     1.39382E+06         30.7766
             721     11.8062E-03     28.9377E-03         1.81252    -73.9582E-03        -2.16164        -1.17581     826.687E-03    -73.9582E-03         2.63632     33.2750E-03    -16.3972E-03    -16.8778E-03    -16.1813E-03     32.5785E-03    -16.3972E-03     11.7376E-03    -4.83802E+06    -13.2898E+06    -47.2587E+06    -4.89560E+06    -47.2011E+06    -13.2898E+06     1.18197E+06         29.1552
             722     10.8220E-03     28.9256E-03         1.87887    -12.1077E-03        -2.34120    -334.070E-03    -128.253E-03    -12.1077E-03         3.21485     33.3493E-03    -16.4874E-03    -16.8619E-03    -16.2725E-03     32.7599E-03    -16.4874E-03     10.7790E-03    -3.32271E+06    -7.30877E+06    -79.1787E+06    -3.87407E+06    -79.1609E+06    -6.77519E+06     1.12982E+06         27.7197
             723     9.83803E-03     28.9155E-03         2.33049     36.2577E-03        -2.86485    -605.457E-03     71.1037E-03     36.2577E-03         4.21259     33.3388E-03    -16.5747E-03    -16.7640E-03    -16.3262E-03     32.9010E-03    -16.5747E-03     9.30746E-03     1.72175E+06    -3.65561E+06    -100.846E+06    -3.67023E+06    -100.832E+06     1.72175E+06     1.12408E+06         26.4977
             724     8.85398E-03     28.9064E-03         1.84212     139.412E-03        -2.44191        -1.10083     501.046E-03     139.412E-03         2.14227     33.3795E-03    -16.6341E-03    -16.7453E-03    -16.3759E-03     33.0101E-03    -16.6341E-03     8.57274E-03     6.21592E+06    -4.25515E+06    -116.050E+06    -4.26238E+06    -116.043E+06     6.21592E+06     876.151E+03         25.4956
             725     7.87007E-03     28.8977E-03         1.31111     259.836E-03        -2.01704    -532.235E-03    -173.689E-03     259.836E-03    -571.498E-03     33.4365E-03    -16.6739E-03    -16.7625E-03    -16.4359E-03     33.1099E-03    -16.6739E-03     8.06345E-03     6.27882E+06    -5.51519E+06    -132.215E+06    -5.52055E+06    -132.209E+06     6.27882E+06     763.552E+03         24.7017
             726     6.88612E-03     28.8896E-03         2.72937     182.921E-03        -3.33006         1.98763        -2.58832     182.921E-03     286.401E-03     33.4678E-03    -16.7128E-03    -16.7550E-03    -16.4848E-03     33.1976E-03    -16.7128E-03     7.33816E-03     5.71160E+06    -7.19670E+06    -148.556E+06    -7.20578E+06    -148.547E+06     5.71160E+06     1.05298E+06         24.0920
             727     5.90226E-03     28.8824E-03         4.80681    -353.182E-03        -4.84866         4.57079        -4.61264    -353.182E-03         1.95410     33.5074E-03    -16.7483E-03    -16.7590E-03    -16.5437E-03     33.2922E-03    -16.7485E-03     6.54905E-03     4.22171E+06    -9.36896E+06    -164.842E+06    -9.38571E+06    -164.825E+06     4.22171E+06     1.52580E+06         23.6365
             728     4.91849E-03     28.8760E-03         3.73960    -746.718E-03        -3.33348         2.30626        -1.54472        -1.10214         2.02338     33.5316E-03    -16.7568E-03    -16.7747E-03    -16.5988E-03     33.3677E-03    -16.7689E-03     5.71654E-03     333.401E+03    -11.7846E+06    -179.047E+06    -11.8030E+06    -179.028E+06     333.401E+03     1.53320E+06         23.3048
             729     3.93472E-03     28.8705E-03         4.26206    -889.720E-03        -3.71339        -2.82217         3.72626        -1.24514         3.84412     33.5424E-03    -16.7585E-03    -16.7839E-03    -16.6443E-03     33.4248E-03    -16.7805E-03     4.83491E-03    -4.93317E+06    -13.9398E+06    -191.768E+06    -13.9529E+06    -191.755E+06    -4.93317E+06     1.21393E+06         23.0695
             730     2.95094E-03     28.8657E-03         4.78909    -416.687E-03        -4.77248        -4.09890         4.13785    -439.019E-03         4.02056     33.5856E-03    -16.7857E-03    -16.7999E-03    -16.7162E-03     33.5120E-03    -16.7957E-03     3.80766E-03    -9.51792E+06    -15.8475E+06    -206.146E+06    -15.8569E+06    -206.137E+06    -9.51792E+06     911.044E+03         22.9081
             731     1.96730E-03     28.8624E-03         4.31441     725.770E-03        -5.47617        -1.44354     304.117E-03     703.438E-03         6.66910     33.5940E-03    -16.7941E-03    -16.7999E-03    -16.7635E-03     33.5577E-03    -16.7941E-03     2.63252E-03    -14.0209E+06    -17.4056E+06    -214.335E+06    -17.4126E+06    -214.328E+06    -14.0209E+06     402.005E+03         22.8038
             732     983.602E-06     28.8601E-03         5.44921         1.97905        -7.87419     487.339E-03        -2.91232         1.97905         1.10419     33.5709E-03    -16.7534E-03    -16.8175E-03    -16.8049E-03     33.5583E-03    -16.7534E-03     1.51328E-03    -18.1047E+06    -19.6763E+06    -220.747E+06    -19.0045E+06    -220.744E+06    -18.7800E+06     33.4791E+03         22.7445
             733     16.7293E-03     28.0216E-03         1.86919    -106.441E-03        -1.94177         1.46771        -1.54030    -106.441E-03         2.08946     35.0073E-03    -15.8513E-03    -19.1560E-03    -14.8012E-03     31.2425E-03    -16.4412E-03     25.3457E-03     202.553E+06     84.9394E+06    -6.02678E+06    -6.00668E+06     202.533E+06     84.9394E+06     1.78495E+06         38.0268
             734     15.7436E-03     27.9822E-03         1.91363    -151.373E-03        -1.88299    -255.528E-03     286.174E-03    -151.373E-03     763.724E-03     36.7056E-03    -16.0214E-03    -20.6842E-03    -15.3851E-03     31.4065E-03    -16.0214E-03     33.0139E-03     168.429E+06     7.54721E+06    -30.6520E+06    -9.61724E+06     168.399E+06    -13.4573E+06     1.79256E+06         36.2051
             735     14.7589E-03     27.9527E-03         2.21260    -89.7945E-03        -2.20491        -1.82799         1.83568    -89.7945E-03        -1.01103     34.7853E-03    -15.9720E-03    -18.8133E-03    -15.8177E-03     31.7897E-03    -15.9720E-03     24.2669E-03     101.098E+06    -10.7805E+06    -47.1706E+06    -10.7471E+06     101.064E+06    -47.1706E+06     1.39871E+06         34.3588
             736     13.7747E-03     27.9321E-03         2.00244     4.09847E-03        -2.09775    -894.280E-03     798.966E-03     4.09847E-03     50.6831E-03     33.6609E-03    -16.1519E-03    -17.5090E-03    -15.9585E-03     32.1103E-03    -16.1519E-03     17.3936E-03     30.1629E+06    -9.28315E+06    -35.4712E+06    -9.09863E+06     29.9784E+06    -35.4712E+06     351.761E+03         32.5311
             737     12.7904E-03     27.9168E-03         1.95011     24.4249E-03        -2.12085     433.951E-03    -604.684E-03     24.4249E-03         2.11357     33.2952E-03    -16.2934E-03    -17.0018E-03    -16.0842E-03     32.3775E-03    -16.2934E-03     13.3561E-03    -523.279E+03    -11.0529E+06    -28.9191E+06    -6.05170E+06    -12.5881E+06    -21.8555E+06    -27.0343E+03         30.7808
             738     11.8062E-03     27.9046E-03         2.36710     21.8466E-03        -2.60888    -249.525E-03     7.74351E-03     21.8466E-03         3.47854     33.2830E-03    -16.3986E-03    -16.8844E-03    -16.2033E-03     32.6019E-03    -16.3986E-03     11.6110E-03    -3.93683E+06    -12.6522E+06    -47.0512E+06    -3.95020E+06    -47.0378E+06    -12.6522E+06     692.873E+03         29.1667
             739     10.8221E-03     27.8927E-03         2.53782     133.805E-03        -2.95570        -2.05126         1.63338     133.805E-03         2.97787     33.3460E-03    -16.4858E-03    -16.8601E-03    -16.2787E-03     32.7646E-03    -16.4858E-03     10.7087E-03    -2.64066E+06    -7.10139E+06    -78.9263E+06    -3.23488E+06    -78.9161E+06    -6.51737E+06     828.650E+03         27.7360
             740     9.83800E-03     27.8824E-03         1.84752     289.024E-03        -2.42845        -1.48908     870.784E-03     326.401E-03         2.12954     33.3443E-03    -16.5719E-03    -16.7724E-03    -16.3384E-03     32.9104E-03    -16.5719E-03     9.26696E-03     2.01681E+06    -3.03884E+06    -100.450E+06    -3.04467E+06    -100.444E+06     2.01681E+06     716.756E+03         26.5163
             741     8.85407E-03     27.8735E-03         1.31142     387.747E-03        -1.96637     336.644E-03        -1.02897     425.124E-03     974.708E-03     33.3921E-03    -16.6285E-03    -16.7635E-03    -16.3966E-03     33.0252E-03    -16.6285E-03     8.54694E-03     6.34930E+06    -3.58362E+06    -116.000E+06    -3.58959E+06    -115.994E+06     6.34930E+06     778.632E+03         25.5143
             742     7.87010E-03     27.8646E-03         1.13951     449.473E-03        -1.79805     172.192E-03    -830.735E-03     449.473E-03    -54.9732E-03     33.4403E-03    -16.6659E-03    -16.7744E-03    -16.4503E-03     33.1162E-03    -16.6659E-03     8.03362E-03     6.53277E+06    -4.89947E+06    -132.093E+06    -4.90622E+06    -132.086E+06     6.53277E+06     904.188E+03         24.7188
             743     6.88625E-03     27.8567E-03         1.69865     456.051E-03        -2.38589     620.497E-03        -1.30773     456.051E-03    -534.560E-03     33.4585E-03    -16.7019E-03    -16.7566E-03    -16.4891E-03     33.1910E-03    -16.7019E-03     7.30143E-03     5.81083E+06    -6.66518E+06    -148.845E+06    -6.67601E+06    -148.834E+06     5.81083E+06     1.20932E+06         24.1067
             744     5.90237E-03     27.8494E-03         3.19372     150.441E-03        -3.57322         2.66511        -3.13925     245.077E-03    -83.7625E-03     33.4865E-03    -16.7343E-03    -16.7523E-03    -16.5377E-03     33.2720E-03    -16.7343E-03     6.53826E-03     4.30494E+06    -8.57352E+06    -164.545E+06    -8.59090E+06    -164.528E+06     4.30494E+06     1.55833E+06         23.6485
             745     4.91854E-03     27.8430E-03         3.50156    -217.168E-03        -3.51463         2.57552        -2.57498    -230.774E-03     815.795E-03     33.5226E-03    -16.7519E-03    -16.7707E-03    -16.6073E-03     33.3592E-03    -16.7519E-03     5.71001E-03     761.130E+03    -10.5642E+06    -178.269E+06    -10.5798E+06    -178.253E+06     761.130E+03     1.42672E+06         23.3142
             746     3.93480E-03     27.8374E-03         4.08850    -567.609E-03        -3.77585     700.437E-03    -279.546E-03    -675.851E-03         2.18402     33.5436E-03    -16.7549E-03    -16.7887E-03    -16.6713E-03     33.4261E-03    -16.7549E-03     4.83477E-03    -4.50143E+06    -12.6865E+06    -191.207E+06    -12.6979E+06    -191.196E+06    -4.50143E+06     1.28473E+06         23.0767
             747     2.95111E-03     27.8328E-03         3.72288    -970.999E-03        -3.02299    -101.429E-03     823.649E-03    -993.332E-03     989.255E-03     33.5377E-03    -16.7577E-03    -16.7800E-03    -16.7068E-03     33.4645E-03    -16.7577E-03     3.79078E-03    -9.34540E+06    -14.7864E+06    -204.976E+06    -14.7948E+06    -204.968E+06    -9.34540E+06      962.93E+03         22.9136
             748     1.96738E-03     27.8293E-03         3.70253        -1.28769        -2.66909    -644.349E-03         1.70012        -1.31003         2.47359     33.5109E-03    -16.7515E-03    -16.7594E-03    -16.7236E-03     33.4751E-03    -16.7515E-03     2.61525E-03    -13.9428E+06    -17.1694E+06    -213.130E+06    -17.1735E+06    -213.126E+06    -13.9428E+06     656.131E+03         22.8081
             749     983.740E-06     27.8272E-03         5.75722    -365.660E-03        -5.52658        -2.59311         2.82376    -365.660E-03        -2.18190     33.4900E-03    -16.7159E-03    -16.7741E-03    -16.7619E-03     33.4778E-03    -16.7159E-03     1.46102E-03    -17.0254E+06    -19.5547E+06    -219.650E+06    -18.8818E+06    -219.647E+06    -17.7007E+06     626.129E+03         22.7480
             750     16.7286E-03     26.9885E-03         1.98453    -68.1330E-03        -1.89770     987.097E-03    -900.271E-03    -68.1330E-03    -274.353E-03     35.1467E-03    -15.8801E-03    -19.2666E-03    -14.9048E-03     31.3442E-03    -16.4394E-03     25.5879E-03     201.504E+06     85.5209E+06    -6.57136E+06    -6.55660E+06     201.489E+06     85.5209E+06     1.47332E+06         37.9985
             751     15.7440E-03     26.9500E-03         2.24814    -67.5432E-03        -2.08488    -899.872E-03         1.06313    -67.5432E-03     169.747E-03     36.7899E-03    -16.0085E-03    -20.7814E-03    -15.4029E-03     31.4114E-03    -16.0085E-03     33.3206E-03     168.458E+06     10.2192E+06    -32.1027E+06    -8.45196E+06     168.416E+06    -13.3894E+06     2.52727E+06         36.1825
             752     14.7593E-03     26.9193E-03         3.19740     66.0833E-03        -3.13735        -2.98351         3.04356     66.0833E-03        -1.51618     34.7205E-03    -15.9646E-03    -18.7559E-03    -15.7360E-03     31.7006E-03    -15.9646E-03     24.2675E-03     102.395E+06    -5.97639E+06    -45.0530E+06    -5.91744E+06     102.337E+06    -45.0530E+06     2.45911E+06         34.3441
             753     13.7748E-03     26.8995E-03         2.37511     229.340E-03        -2.50781        -1.39153         1.25883     229.340E-03        -1.30748     33.6458E-03    -16.1559E-03    -17.4899E-03    -15.9685E-03     32.1244E-03    -16.1559E-03     17.2478E-03     32.3018E+06    -4.28004E+06    -31.3965E+06    -4.05684E+06     32.0786E+06    -31.3965E+06     704.459E+03         32.5257
             754     12.7904E-03     26.8836E-03         1.37876     198.198E-03        -1.54696     861.075E-03        -1.09865     267.570E-03     351.187E-03     33.2869E-03    -16.2898E-03    -16.9971E-03    -16.0860E-03     32.3758E-03    -16.2898E-03     13.2965E-03     854.068E+03    -9.01562E+06    -29.2280E+06    -3.71892E+06    -13.0066E+06    -20.6641E+06    -572.922E+03         30.7841
             755     11.8063E-03     26.8717E-03         1.75978     197.807E-03        -1.99715    -169.330E-03    -137.418E-03     267.179E-03         1.94614     33.2512E-03    -16.3947E-03    -16.8565E-03    -16.1857E-03     32.5804E-03    -16.3947E-03     11.5175E-03    -2.83360E+06    -12.0310E+06    -47.8238E+06    -2.85501E+06    -47.8024E+06    -12.0310E+06         695.332         29.1771
             756     10.8221E-03     26.8597E-03         1.97076     190.863E-03        -2.25373        -1.81936         1.33712     390.136E-03         2.05109     33.3457E-03    -16.4809E-03    -16.8648E-03    -16.2877E-03     32.7686E-03    -16.4809E-03     10.6679E-03    -1.50659E+06    -5.81618E+06    -78.5422E+06    -1.73435E+06    -78.5371E+06    -5.59355E+06     543.240E+03         27.7511
             757     9.83816E-03     26.8495E-03         1.29223     325.962E-03        -1.71823    -955.985E-03     286.467E-03     569.487E-03         1.16113     33.3445E-03    -16.5657E-03    -16.7787E-03    -16.3482E-03     32.9140E-03    -16.5657E-03     9.23254E-03     2.85597E+06    -1.64001E+06    -100.522E+06    -1.63477E+06    -100.517E+06     2.84576E+06     647.574E+03         26.5336
             758     8.85410E-03     26.8404E-03         1.44391     584.404E-03        -2.07298     955.833E-03        -1.62915     628.656E-03         1.96622     33.3851E-03    -16.6195E-03    -16.7656E-03    -16.4013E-03     33.0208E-03    -16.6195E-03     8.51584E-03     6.84484E+06    -2.56421E+06    -116.030E+06    -2.57200E+06    -116.022E+06     6.84484E+06     900.425E+03         25.5316
             759     7.87023E-03     26.8317E-03         1.65944     561.684E-03        -2.23404         1.35283        -1.92744     561.684E-03         1.67762     33.4279E-03    -16.6558E-03    -16.7721E-03    -16.4519E-03     33.1077E-03    -16.6558E-03     7.98365E-03     7.02055E+06    -4.14624E+06    -132.234E+06    -4.15739E+06    -132.223E+06     7.02055E+06     1.14905E+06         24.7346
             760     6.88630E-03     26.8237E-03         1.40212     583.229E-03        -1.97328    -398.743E-03    -172.411E-03     583.229E-03    -708.880E-03     33.4426E-03    -16.6900E-03    -16.7526E-03    -16.4867E-03     33.1767E-03    -16.6900E-03     7.28004E-03     6.24920E+06    -6.18055E+06    -148.842E+06    -6.19636E+06    -148.826E+06     6.24920E+06     1.46337E+06         24.1200
             761     5.90247E-03     26.8164E-03         1.59652     777.463E-03        -2.41408        -1.72710     814.902E-03     872.099E-03    -171.526E-03     33.4626E-03    -16.7164E-03    -16.7461E-03    -16.5302E-03     33.2466E-03    -16.7164E-03     6.55895E-03     3.97977E+06    -8.34918E+06    -164.030E+06    -8.36351E+06    -164.016E+06     3.97977E+06     1.45530E+06         23.6590
             762     4.91865E-03     26.8100E-03         2.50637         1.02515        -3.63400     857.080E-03        -2.07935         1.11979         1.31670     33.5002E-03    -16.7309E-03    -16.7693E-03    -16.6029E-03     33.3338E-03    -16.7309E-03     5.76029E-03     199.486E+03    -10.3990E+06    -177.721E+06    -10.4115E+06    -177.709E+06     199.486E+03     1.39270E+06         23.3222
             763     3.93490E-03     26.8044E-03         4.17593     742.517E-03        -5.00995         4.02976        -4.86378     742.517E-03         1.43620     33.5288E-03    -16.7330E-03    -16.7959E-03    -16.6773E-03     33.4103E-03    -16.7330E-03     4.85173E-03    -4.31493E+06    -12.3452E+06    -190.712E+06    -12.3567E+06    -190.700E+06    -4.31493E+06     1.37340E+06         23.0824
             764     2.95121E-03     26.7998E-03         4.40859    -120.936E-03        -4.32962         2.64288        -2.56390    -120.936E-03        -2.40831     33.5020E-03    -16.7275E-03    -16.7746E-03    -16.7016E-03     33.4291E-03    -16.7275E-03     3.78702E-03    -9.12796E+06    -14.6325E+06    -203.736E+06    -14.6432E+06    -203.725E+06    -9.12796E+06     1.39338E+06         22.9176
             765     1.96747E-03     26.7964E-03         3.24244    -684.228E-03        -2.57578    -387.205E-03         1.00627    -636.634E-03        -2.44099     33.4486E-03    -16.7113E-03    -16.7373E-03    -16.7008E-03     33.4121E-03    -16.7113E-03     2.64230E-03    -14.0340E+06    -16.9352E+06    -211.645E+06    -16.8710E+06    -211.638E+06    -14.1051E+06     1.05205E+06         22.8108
             766     983.713E-06     26.7942E-03         5.73017     275.998E-03        -6.02548        -1.70941         1.36651     323.592E-03        -7.78864     33.4071E-03    -16.6479E-03    -16.7593E-03    -16.7471E-03     33.3950E-03    -16.6479E-03     1.43283E-03    -16.8275E+06    -18.4421E+06    -218.592E+06    -18.3451E+06    -218.587E+06    -16.9294E+06    -119.301E+03         22.7500
             767     16.7289E-03     25.9554E-03         2.49184     118.795E-03        -2.37064        -1.76290         1.88410     118.795E-03        -1.99074     35.1401E-03    -15.8850E-03    -19.2551E-03    -14.9516E-03     31.3909E-03    -16.4393E-03     25.5035E-03     200.593E+06     85.2475E+06    -6.50323E+06    -6.49768E+06     200.588E+06     85.2475E+06     1.05607E+06         37.9694
             768     15.7439E-03     25.9170E-03         2.12172     213.176E-03        -2.03231    -733.745E-03     823.150E-03     213.176E-03        -1.07468     36.8386E-03    -16.0032E-03    -20.8354E-03    -15.4961E-03     31.4992E-03    -16.0032E-03     33.2721E-03     167.948E+06     10.5157E+06    -32.4221E+06    -8.28282E+06     167.934E+06    -13.6089E+06     1.32431E+06         36.1588
             769     14.7592E-03     25.8867E-03         2.19846     266.635E-03        -2.14486    -180.145E-03     233.744E-03     266.635E-03        -1.50759     34.7690E-03    -15.9484E-03    -18.8207E-03    -15.7686E-03     31.7169E-03    -15.9484E-03     24.4139E-03     103.151E+06    -5.60500E+06    -46.0240E+06    -5.57122E+06     103.117E+06    -46.0240E+06     1.66919E+06         34.3285
             770     13.7749E-03     25.8663E-03         2.53485     360.255E-03        -2.62946        -1.72846         1.63385     360.255E-03        -1.77971     33.6237E-03    -16.1401E-03    -17.4837E-03    -15.9668E-03     32.1068E-03    -16.1401E-03     17.2068E-03     34.3158E+06    -2.24701E+06    -31.0863E+06    -2.14982E+06     34.2186E+06    -31.0863E+06     1.11071E+06         32.5191
             771     12.7908E-03     25.8508E-03         2.29884     478.870E-03        -2.60298        -2.33201         1.95849     548.242E-03    -396.485E-03     33.2511E-03    -16.2814E-03    -16.9697E-03    -16.0668E-03     32.3482E-03    -16.2814E-03     13.2386E-03     3.52445E+06    -6.47698E+06    -28.8569E+06    -276.391E+03    -12.5112E+06    -19.0218E+06     310.391E+03         30.7861
             772     11.8063E-03     25.8388E-03         1.48523     654.473E-03        -2.05723    -723.033E-03     81.6655E-03     723.845E-03         1.14976     33.2328E-03    -16.3860E-03    -16.8467E-03    -16.1739E-03     32.5599E-03    -16.3860E-03     11.5308E-03     58.1209E+03    -11.1648E+06    -48.5202E+06     25.4017E+03    -48.4875E+06    -11.1648E+06     145.185E+03         29.1860
             773     10.8223E-03     25.8267E-03         1.78500     568.636E-03        -2.30171         1.24062        -1.95659     767.909E-03     478.308E-03     33.3481E-03    -16.4698E-03    -16.8783E-03    -16.3035E-03     32.7733E-03    -16.4698E-03     10.6459E-03    -37.7799E+03    -5.30530E+06    -78.8502E+06    -44.3095E+03    -78.8436E+06    -5.30530E+06     594.421E+03         27.7646
             774     9.83822E-03     25.8165E-03         1.95631     502.680E-03        -2.37606         1.52265        -2.14855     708.829E-03     579.029E-03     33.3407E-03    -16.5534E-03    -16.7873E-03    -16.3588E-03     32.9122E-03    -16.5534E-03     9.21474E-03     3.40270E+06    -681.105E+03    -100.560E+06    -491.908E+03    -100.547E+06     3.20121E+06     1.04583E+06         26.5492
             775     8.85431E-03     25.8074E-03         1.54037     617.812E-03        -2.02427     802.208E-03        -1.32923     660.935E-03         2.26642     33.3688E-03    -16.6054E-03    -16.7634E-03    -16.4008E-03     33.0062E-03    -16.6054E-03     8.49406E-03     7.13053E+06    -1.68985E+06    -116.015E+06    -1.70751E+06    -115.997E+06     7.13053E+06     1.34166E+06         25.5471
             776     7.87032E-03     25.7987E-03         1.36976     637.596E-03        -1.82337     348.894E-03    -838.755E-03     673.844E-03         1.97907     33.4008E-03    -16.6406E-03    -16.7601E-03    -16.4433E-03     33.0839E-03    -16.6406E-03     7.93924E-03     7.17820E+06    -3.49822E+06    -132.396E+06    -3.52248E+06    -132.371E+06     7.17820E+06     1.69690E+06         24.7485
             777     6.88645E-03     25.7907E-03         1.47387     672.879E-03        -1.95356    -871.791E-03     248.568E-03     816.416E-03     481.837E-03     33.4146E-03    -16.6739E-03    -16.7407E-03    -16.4780E-03     33.1519E-03    -16.6739E-03     7.23170E-03     6.40273E+06    -5.72546E+06    -148.661E+06    -5.74927E+06    -148.638E+06     6.40273E+06     1.82632E+06         24.1314
             778     5.90253E-03     25.7835E-03         1.84506     842.187E-03        -2.53246        -1.74676     718.765E-03         1.18278         1.04133     33.4325E-03    -16.6985E-03    -16.7341E-03    -16.5200E-03     33.2185E-03    -16.6985E-03     6.52931E-03     4.02212E+06    -8.00011E+06    -163.477E+06    -8.01891E+06    -163.459E+06     4.02212E+06     1.68702E+06         23.6677
             779     4.91870E-03     25.7770E-03         2.27900         1.47528        -3.62554    -779.041E-03    -764.558E-03         1.67234         3.15403     33.4661E-03    -16.7117E-03    -16.7544E-03    -16.5869E-03     33.2986E-03    -16.7117E-03     5.77655E-03        -207.438    -10.3318E+06    -177.238E+06    -10.3452E+06    -177.224E+06        -207.438     1.47078E+06         23.3281
             780     3.93495E-03     25.7713E-03         3.47314         1.56492        -4.91718     968.992E-03        -2.90278         2.05467         3.67907     33.4796E-03    -16.7163E-03    -16.7634E-03    -16.6446E-03     33.3609E-03    -16.7163E-03     4.85045E-03    -4.47755E+06    -12.8757E+06    -189.988E+06    -12.8888E+06    -189.975E+06    -4.47755E+06     1.50364E+06         23.0861
             781     2.95121E-03     25.7669E-03         4.43673         1.63301        -5.93077         2.56482        -4.54861         2.12276        -1.16454     33.4746E-03    -16.7138E-03    -16.7609E-03    -16.6884E-03     33.4021E-03    -16.7138E-03     3.77547E-03    -8.79027E+06    -15.1192E+06    -202.514E+06    -15.1309E+06    -202.502E+06    -8.79027E+06     1.39671E+06         22.9194
             782     1.96751E-03     25.7635E-03         4.06332         1.79259        -5.67361         2.70933        -4.36721         1.84019        -1.21063     33.4262E-03    -16.6946E-03    -16.7316E-03    -16.6951E-03     33.3897E-03    -16.6946E-03     2.64101E-03    -13.2971E+06    -16.6404E+06    -209.949E+06    -16.5743E+06    -209.944E+06    -13.3683E+06     880.866E+03         22.8114
             783     983.801E-06     25.7614E-03         5.05168         1.74428        -6.61055         1.46459        -3.07105         1.79187        -5.77276     33.3605E-03    -16.6297E-03    -16.7308E-03    -16.7184E-03     33.3481E-03    -16.6297E-03     1.46583E-03    -17.0540E+06    -18.5881E+06    -217.948E+06    -17.7046E+06    -217.940E+06    -17.9460E+06     290.287E+03         22.7499
             784     16.7288E-03     24.9224E-03         3.28343     297.512E-03        -3.03772        -2.79664         3.04234     297.512E-03     436.883E-03     35.1457E-03    -15.9011E-03    -19.2446E-03    -14.9487E-03     31.3838E-03    -16.4351E-03     25.5241E-03     200.406E+06     85.3442E+06    -5.88177E+06    -5.87640E+06     200.401E+06     85.3442E+06     787.008E+03         37.9394
             785     15.7440E-03     24.8841E-03         2.86775     456.871E-03        -2.82433        -1.61500         1.65843     456.871E-03    -974.166E-03     36.8511E-03    -15.9960E-03    -20.8551E-03    -15.5400E-03     31.5360E-03    -15.9960E-03     33.1914E-03     168.431E+06     11.1463E+06    -31.9835E+06    -7.35481E+06     168.424E+06    -13.4752E+06     401.262E+03         36.1341
             786     14.7596E-03     24.8537E-03         1.98202     529.705E-03        -2.07015     457.042E-03    -545.174E-03     529.705E-03        -2.28605     34.7826E-03    -15.9261E-03    -18.8565E-03    -15.8299E-03     31.7561E-03    -15.9261E-03     24.3682E-03     102.618E+06    -4.50943E+06    -48.2835E+06    -4.49880E+06     102.608E+06    -48.2835E+06     166.201E+03         34.3116
             787     13.7752E-03     24.8334E-03         2.27171     594.769E-03        -2.49413    -972.733E-03     750.314E-03     594.769E-03        -2.49754     33.5750E-03    -16.1164E-03    -17.4586E-03    -15.9285E-03     32.0449E-03    -16.1164E-03     17.2589E-03     34.8373E+06    -1.43049E+06    -33.1799E+06    -1.21546E+06     34.6223E+06    -33.1799E+06     989.635E+03         32.5109
             788     12.7907E-03     24.8179E-03         2.71336     802.197E-03        -3.26013        -3.00524         2.45848     802.197E-03    -800.500E-03     33.2324E-03    -16.2660E-03    -16.9664E-03    -16.0603E-03     32.3263E-03    -16.2660E-03     13.2615E-03     4.71038E+06    -7.27119E+06     -29.229E+06    -44.2695E+03    -11.8775E+06     -19.868E+06     1.20847E+06         30.7862
             789     11.8066E-03     24.8058E-03         2.07116         1.03677        -2.94608        -1.01700     142.082E-03         1.03677         1.45219     33.2377E-03    -16.3712E-03    -16.8665E-03    -16.1926E-03     32.5638E-03    -16.3712E-03     11.5425E-03     454.026E+03    -11.8165E+06    -48.6188E+06     409.498E+03    -48.5743E+06    -11.8165E+06     1.23098E+06         29.1930
             790     10.8224E-03     24.7938E-03         2.38895         1.07722        -3.32652         2.10935        -3.04692         1.07722         1.35247     33.3300E-03    -16.4562E-03    -16.8738E-03    -16.3003E-03     32.7565E-03    -16.4562E-03     10.6346E-03     369.551E+03    -5.47788E+06    -79.0510E+06     334.865E+03    -79.0163E+06    -5.47788E+06     1.33828E+06         27.7760
             791     9.83843E-03     24.7836E-03         2.42512     970.808E-03        -3.19661         2.10861        -2.88577     976.485E-03    -103.880E-03     33.3288E-03    -16.5387E-03    -16.7901E-03    -16.3604E-03     32.8990E-03    -16.5387E-03     9.22580E-03     3.55095E+06    -980.899E+03    -100.743E+06    -396.555E+03    -100.713E+06     2.93669E+06     1.62054E+06         26.5626
             792     8.85439E-03     24.7744E-03         1.95352     892.253E-03        -2.58464     752.424E-03        -1.42547     934.178E-03        -1.95184     33.3471E-03    -16.5900E-03    -16.7570E-03    -16.3940E-03     32.9840E-03    -16.5900E-03     8.49693E-03     7.01619E+06    -1.67365E+06    -115.948E+06    -1.71245E+06    -115.910E+06     7.01619E+06     2.01702E+06         25.5604
             793     7.87049E-03     24.7658E-03         1.84373     953.716E-03        -2.47424     330.002E-03    -996.765E-03     989.964E-03    -521.383E-03     33.3797E-03    -16.6240E-03    -16.7557E-03    -16.4382E-03     33.0622E-03    -16.6240E-03     7.94507E-03     7.08749E+06    -3.28660E+06    -132.306E+06    -3.32482E+06    -132.268E+06     7.08749E+06     2.20574E+06         24.7601
             794     6.88655E-03     24.7578E-03         1.30719     815.560E-03        -1.79096     101.700E-03    -875.947E-03         1.10603         1.74037     33.3973E-03    -16.6561E-03    -16.7412E-03    -16.4792E-03     33.1353E-03    -16.6561E-03     7.22097E-03     6.62746E+06    -5.13703E+06    -148.243E+06    -5.17388E+06    -148.206E+06     6.62746E+06     2.27440E+06         24.1404
             795     5.90270E-03     24.7506E-03         1.32828     666.495E-03        -1.66570    -457.751E-03    -541.455E-03         1.32828     507.608E-03     33.4128E-03    -16.6782E-03    -16.7345E-03    -16.5211E-03     33.1994E-03    -16.6782E-03     6.51874E-03     4.37228E+06    -7.52340E+06    -162.776E+06    -7.54821E+06    -162.751E+06     4.37228E+06     1.92644E+06         23.6738
             796     4.91885E-03     24.7440E-03         1.90801         1.00951        -2.59679        -1.32521    -144.186E-03         1.79012     481.701E-03     33.4187E-03    -16.6898E-03    -16.7289E-03    -16.5632E-03     33.2529E-03    -16.6898E-03     5.74004E-03     197.747E+03    -10.2017E+06    -176.627E+06    -10.2191E+06    -176.610E+06     197.747E+03     1.69600E+06         23.3315
             797     3.93501E-03     24.7385E-03         2.70369         1.56525        -3.93724        -1.27635    -977.755E-03         2.58580         3.66253     33.4144E-03    -16.6971E-03    -16.7174E-03    -16.6013E-03     33.2983E-03    -16.6971E-03     4.79149E-03    -4.25113E+06    -12.6954E+06    -189.194E+06    -12.7107E+06    -189.179E+06    -4.25113E+06     1.62733E+06         23.0870
             798     2.95123E-03     24.7339E-03         3.88318         1.98739        -5.55017         1.06878        -4.21789         3.46951         2.04135     33.4218E-03    -16.6971E-03    -16.7247E-03    -16.6479E-03     33.3507E-03    -16.7028E-03     3.73541E-03    -8.17574E+06    -14.8563E+06    -201.095E+06    -14.8640E+06    -201.087E+06    -8.17574E+06     1.11106E+06         22.9185
             799     1.96751E-03     24.7306E-03         5.72008         2.76895        -8.20057         4.56490        -7.91625         3.63981         1.60511     33.4012E-03    -16.6890E-03    -16.7122E-03    -16.6710E-03     33.3657E-03    -16.6947E-03     2.59908E-03    -12.4653E+06    -16.9026E+06    -208.863E+06    -16.9046E+06    -208.861E+06    -12.4653E+06     548.553E+03         22.8092
             800     983.711E-06     24.7286E-03         5.58309         2.84334        -7.99224         3.97969        -6.38884         2.84334        -1.85473     33.3709E-03    -16.6616E-03    -16.7093E-03    -16.6971E-03     33.3587E-03    -16.6616E-03     1.46764E-03    -15.7968E+06    -19.2537E+06    -217.210E+06    -18.4676E+06    -217.206E+06    -16.5870E+06     593.483E+03         22.7468
             801     16.7290E-03     23.8898E-03         2.35728     427.975E-03        -1.95164        -1.33358         1.73921     427.975E-03     749.881E-03     35.2017E-03    -15.9386E-03    -19.2631E-03    -15.0364E-03     31.4580E-03    -16.4216E-03     25.3052E-03     199.921E+06     84.3666E+06    -5.90333E+06    -5.89971E+06     199.917E+06     84.3666E+06     73.9132E+03         37.9081
             802     15.7441E-03     23.8508E-03         2.81451     576.158E-03        -2.75132        -2.40053         2.46373     576.158E-03        -1.92353     36.8016E-03    -15.9926E-03    -20.8089E-03    -15.4957E-03     31.4883E-03    -15.9926E-03     33.1404E-03     169.790E+06     9.91569E+06    -29.5368E+06    -7.84818E+06     169.784E+06    -11.7669E+06     152.174E+03         36.1079
             803     14.7597E-03     23.8209E-03         2.54397     770.463E-03        -2.81466        -2.15593         1.88524     770.463E-03        -2.01102     34.7076E-03    -15.9141E-03    -18.7935E-03    -15.7803E-03     31.6944E-03    -15.9141E-03     24.3112E-03     102.104E+06    -6.44473E+06    -49.5273E+06    -6.43574E+06     102.095E+06    -49.5273E+06    -540.543E+03         34.2929
             804     13.7751E-03     23.8005E-03         1.59383     883.651E-03        -2.09509    -836.344E-03     282.670E-03     936.072E-03    -790.408E-03     33.5647E-03    -16.1055E-03    -17.4592E-03    -15.9163E-03     32.0219E-03    -16.1055E-03     17.3155E-03     33.2327E+06    -4.13174E+06    -34.9426E+06    -3.84896E+06     32.9499E+06    -34.9426E+06     911.375E+03         32.5007
             805     12.7909E-03     23.7850E-03         1.76792     996.428E-03        -2.49473    -117.922E-03    -661.317E-03         1.04885        -1.26939     33.2350E-03    -16.2674E-03    -16.9676E-03    -16.0635E-03     32.3309E-03    -16.2674E-03     13.2499E-03     4.44254E+06    -8.79973E+06    -27.0131E+06    -2.06331E+06    -11.0964E+06    -18.2106E+06     2.03602E+06         30.7841
             806     11.8067E-03     23.7728E-03         1.90491     991.063E-03        -2.70944     357.105E-03        -1.29862         1.12805    -523.325E-03     33.2337E-03    -16.3603E-03    -16.8734E-03    -16.1988E-03     32.5591E-03    -16.3603E-03     11.5491E-03    -1.15197E+06    -12.2349E+06    -48.5539E+06    -1.23392E+06    -48.4719E+06    -12.2349E+06     1.61187E+06         29.1974
             807     10.8226E-03     23.7609E-03         1.82120         1.07267        -2.70607     135.027E-03        -1.15688         1.20966         2.37917     33.3163E-03    -16.4436E-03    -16.8727E-03    -16.2968E-03     32.7404E-03    -16.4436E-03     10.6564E-03    -597.374E+03    -5.76512E+06    -79.0048E+06    -657.484E+03    -78.9447E+06    -5.76512E+06     1.91501E+06         27.7847
             808     9.83849E-03     23.7505E-03         1.84990         1.04456        -2.65999    -518.262E-03    -601.253E-03         1.35399         1.42597     33.3071E-03    -16.5253E-03    -16.7818E-03    -16.3517E-03     32.8770E-03    -16.5253E-03     9.22381E-03     3.27332E+06    -1.60770E+06    -100.899E+06    -1.06813E+06    -100.840E+06     2.67487E+06     2.26379E+06         26.5732
             809     8.85454E-03     23.7416E-03         2.17898         1.00108        -2.85102     184.816E-03        -1.38214         1.52637        -2.83726     33.3239E-03    -16.5766E-03    -16.7473E-03    -16.3856E-03     32.9621E-03    -16.5766E-03     8.47949E-03     7.00720E+06    -2.16829E+06    -115.694E+06    -2.22286E+06    -115.640E+06     7.00720E+06     2.43236E+06         25.5707
             810     7.87055E-03     23.7328E-03         2.60537         1.41029        -3.63645         1.31512        -2.56206         1.62616        -3.08839     33.3581E-03    -16.6094E-03    -16.7487E-03    -16.4316E-03     33.0410E-03    -16.6094E-03     7.93729E-03     7.14018E+06    -3.53485E+06    -131.836E+06    -3.58281E+06    -131.788E+06     7.14018E+06     2.40845E+06         24.7687
             811     6.88667E-03     23.7249E-03         2.23026         1.51652        -3.32096         1.50127        -2.73891         1.66346        -1.69836     33.3846E-03    -16.6398E-03    -16.7448E-03    -16.4829E-03     33.1228E-03    -16.6398E-03     7.21869E-03     6.87730E+06    -4.97771E+06    -147.560E+06    -5.01416E+06    -147.523E+06     6.87730E+06     2.25656E+06         24.1463
             812     5.90278E-03     23.7176E-03         2.05558     946.460E-03        -2.57698     200.716E-03        -1.59105         1.81539        -1.73561     33.4028E-03    -16.6599E-03    -16.7429E-03    -16.5296E-03     33.1895E-03    -16.6599E-03     6.51654E-03     5.01718E+06    -7.00550E+06    -162.027E+06    -7.03705E+06    -161.996E+06     5.01718E+06     2.18967E+06         23.6767
             813     4.91897E-03     23.7112E-03         2.22194     664.049E-03        -2.47069    -453.524E-03        -1.35312         2.22194        -1.57023     33.3893E-03    -16.6682E-03    -16.7211E-03    -16.5566E-03     33.2248E-03    -16.6682E-03     5.71609E-03     962.695E+03    -9.72956E+06    -175.844E+06    -9.75391E+06    -175.819E+06     962.695E+03     1.97808E+06         23.3315
             814     3.93514E-03     23.7056E-03         3.06867         1.74384        -4.38079         1.02506        -3.29457         2.70124         1.48202     33.3610E-03    -16.6706E-03    -16.6904E-03    -16.5737E-03     33.2458E-03    -16.6722E-03     4.76778E-03    -3.80186E+06    -12.1410E+06    -188.193E+06    -12.1532E+06    -188.181E+06    -3.80186E+06     1.33019E+06         23.0846
             815     2.95132E-03     23.7011E-03         3.56785         1.77195        -4.84283         1.45820        -4.16166         3.20041         2.50339     33.3515E-03    -16.6680E-03    -16.6835E-03    -16.5995E-03     33.2815E-03    -16.6820E-03     3.69809E-03    -7.96317E+06    -14.1680E+06    -200.241E+06    -14.1730E+06    -200.236E+06    -7.96317E+06     900.858E+03         22.9141
             816     1.96747E-03     23.6978E-03         4.96606         1.13071        -5.60804         1.32939        -5.04913         4.20846         1.33818     33.3535E-03    -16.6663E-03    -16.6872E-03    -16.6332E-03     33.3189E-03    -16.6856E-03     2.56742E-03    -12.3572E+06    -16.0718E+06    -207.869E+06    -16.0745E+06    -207.866E+06    -12.3572E+06     594.834E+03         22.8034
             817     983.799E-06     23.6957E-03         7.32350         3.62803        -10.7193         3.51530        -9.62602         6.34297        -2.03915     33.3701E-03    -16.6570E-03    -16.7131E-03    -16.6944E-03     33.3582E-03    -16.6638E-03     1.44086E-03    -15.1550E+06    -18.4867E+06    -216.533E+06    -17.3941E+06    -216.533E+06    -16.2481E+06    -21.4905E+03         22.7401
             818     16.7294E-03     22.8571E-03         1.37672     630.909E-03        -1.10286    -379.897E-03     653.764E-03     630.909E-03    -799.152E-03     35.3187E-03    -16.0199E-03    -19.2987E-03    -15.1652E-03     31.5774E-03    -16.4122E-03     25.2010E-03     200.019E+06     83.8644E+06    -6.15653E+06    -6.15142E+06     200.014E+06     83.8644E+06    -751.507E+03         37.8749
             819     15.7445E-03     22.8178E-03         1.91771     726.431E-03        -2.01207        -1.15835         1.06399     726.431E-03        -2.49553     36.7752E-03    -15.9809E-03    -20.7943E-03    -15.4195E-03     31.4004E-03    -15.9809E-03     33.3095E-03     169.567E+06     9.41377E+06    -29.7047E+06    -7.83591E+06     169.564E+06    -12.4510E+06     421.128E+03         36.0797
             820     14.7596E-03     22.7881E-03         2.30688     899.954E-03        -2.72597        -2.39397         1.97488     899.954E-03        -1.32806     34.6971E-03    -15.9102E-03    -18.7868E-03    -15.7416E-03     31.6518E-03    -15.9102E-03     24.4030E-03     102.648E+06    -7.39001E+06    -49.4746E+06    -7.35851E+06     102.616E+06    -49.4746E+06     773.278E+03         34.2717
             821     13.7754E-03     22.7676E-03         1.68479     820.691E-03        -2.17165        -1.49135     721.370E-03         1.10381     898.502E-03     33.6276E-03    -16.0944E-03    -17.5332E-03    -15.9815E-03     32.0759E-03    -16.0944E-03     17.3962E-03     32.2591E+06    -5.87604E+06    -36.6965E+06    -5.67153E+06     32.0546E+06    -36.6965E+06     382.584E+03         32.4878
             822     12.7910E-03     22.7520E-03         1.69454     907.256E-03        -2.37396     803.459E-03        -1.78847         1.21285    -178.846E-03     33.2466E-03    -16.2526E-03    -16.9940E-03    -16.0808E-03     32.3334E-03    -16.2526E-03     13.3158E-03     3.00021E+06    -9.04447E+06    -28.0758E+06    -2.79209E+06    -11.6828E+06    -19.6452E+06     1.31995E+06         30.7792
             823     11.8068E-03     22.7399E-03         1.74150     939.167E-03        -2.51424     550.336E-03        -1.64372         1.25980        -1.43405     33.2315E-03    -16.3493E-03    -16.8822E-03    -16.2078E-03     32.5571E-03    -16.3493E-03     11.5486E-03    -1.22061E+06    -12.1996E+06    -48.1552E+06    -1.37499E+06    -48.0008E+06    -12.1996E+06     2.29504E+06         29.1989
             824     10.8227E-03     22.7279E-03         1.69679     736.863E-03        -2.27078        -1.01240    -226.762E-03         1.40204     543.049E-03     33.3136E-03    -16.4300E-03    -16.8835E-03    -16.3093E-03     32.7393E-03    -16.4300E-03     10.6430E-03    -1.39527E+06    -6.66457E+06    -79.2125E+06    -1.77981E+06    -79.1211E+06    -6.37146E+06     2.37963E+06         27.7903
             825     9.83869E-03     22.7177E-03         1.92265     951.327E-03        -2.63596    -639.674E-03    -750.206E-03         1.62789         1.94036     33.2911E-03    -16.5097E-03    -16.7814E-03    -16.3528E-03     32.8625E-03    -16.5097E-03     9.20562E-03     2.35767E+06    -2.31221E+06    -100.540E+06    -2.20900E+06    -100.468E+06     2.18219E+06     2.57403E+06         26.5804
             826     8.85465E-03     22.7086E-03         2.02414         1.36244        -3.06056    -724.779E-03    -837.060E-03         1.88786         1.54415     33.3004E-03    -16.5589E-03    -16.7415E-03    -16.3835E-03     32.9425E-03    -16.5589E-03     8.43264E-03     6.42396E+06    -3.09061E+06    -115.416E+06    -3.15245E+06    -115.354E+06     6.42396E+06     2.56378E+06         25.5776
             827     7.87071E-03     22.6999E-03         2.54058         1.76335        -3.90685        -1.20179    -652.080E-03         2.25096        -1.46865     33.3281E-03    -16.5908E-03    -16.7373E-03    -16.4241E-03     33.0149E-03    -16.5908E-03     7.88605E-03     6.78981E+06    -4.47377E+06    -130.934E+06    -4.52073E+06    -130.887E+06     6.78981E+06     2.36958E+06         24.7736
             828     6.88676E-03     22.6919E-03         3.00464         2.26804        -4.88043     666.763E-03        -2.88562         2.61110        -4.41462     33.3527E-03    -16.6192E-03    -16.7335E-03    -16.4741E-03     33.0933E-03    -16.6192E-03     7.18202E-03     6.30123E+06    -6.19950E+06    -146.759E+06    -6.23023E+06    -146.728E+06     6.30123E+06     2.05628E+06         24.1484
             829     5.90292E-03     22.6847E-03         4.21790         2.10135        -5.90452         3.16300        -5.46869         2.72041        -3.15061     33.3670E-03    -16.6384E-03    -16.7286E-03    -16.5182E-03     33.1566E-03    -16.6384E-03     6.46887E-03     4.53666E+06    -8.14963E+06    -161.494E+06    -8.17900E+06    -161.465E+06     4.53666E+06     2.11079E+06         23.6757
             830     4.91905E-03     22.6783E-03         4.44752         1.64137        -5.65170         3.33924        -5.51776         2.61571     7.80067E-03     33.3509E-03    -16.6450E-03    -16.7059E-03    -16.5437E-03     33.1887E-03    -16.6450E-03     5.67451E-03     883.451E+03    -9.97426E+06    -174.786E+06    -9.99639E+06    -174.764E+06     883.451E+03     1.81787E+06         23.3274
             831     3.93523E-03     22.6728E-03         3.50740         1.78163        -4.85979         2.38960        -4.52582         2.56545         2.18066     33.3168E-03    -16.6452E-03    -16.6716E-03    -16.5559E-03     33.2027E-03    -16.6467E-03     4.74501E-03    -3.94422E+06    -11.9940E+06    -187.099E+06    -12.0019E+06    -187.091E+06    -3.94422E+06     1.06451E+06         23.0779
             832     2.95137E-03     22.6683E-03         3.49226         1.81804        -4.84516         2.45813        -4.60435         2.61136         1.98632     33.3045E-03    -16.6463E-03    -16.6582E-03    -16.5803E-03     33.2350E-03    -16.6547E-03     3.68466E-03    -8.65686E+06    -14.1885E+06    -199.938E+06    -14.1921E+06    -199.934E+06    -8.65686E+06     752.918E+03         22.9054
             833     1.96758E-03     22.6650E-03         4.82218     742.475E-03        -5.08479         1.68842        -4.15792         2.94937         2.97477     33.2991E-03    -16.6394E-03    -16.6597E-03    -16.6057E-03     33.2645E-03    -16.6588E-03     2.56608E-03    -13.2926E+06    -15.9735E+06    -207.220E+06    -15.9760E+06    -207.218E+06    -13.2926E+06     637.985E+03         22.7931
             834     983.673E-06     22.6628E-03         6.95681         1.69796        -8.36659         2.10156        -6.22626         4.41289    -72.4958E-03     33.3274E-03    -16.6087E-03    -16.7188E-03    -16.6940E-03     33.3153E-03    -16.6213E-03     1.46285E-03    -15.8564E+06    -18.1590E+06    -215.712E+06    -17.0685E+06    -215.710E+06    -16.9495E+06     423.399E+03         22.7289
             835     16.7291E-03     21.8234E-03         1.03107     672.976E-03        -1.04342    -223.924E-03     55.0999E-03     829.447E-03     353.405E-03     35.2892E-03    -15.8947E-03    -19.3945E-03    -15.0680E-03     31.4965E-03    -16.4285E-03     25.5709E-03     199.997E+06     83.8262E+06    -7.39216E+06    -7.38593E+06     199.991E+06     83.8262E+06    -989.523E+03         37.8384
             836     15.7443E-03     21.7856E-03         1.01571     651.122E-03        -1.18655    -193.803E-03    -224.530E-03     898.617E-03    -514.443E-03     37.0365E-03    -15.9913E-03    -21.0452E-03    -15.6067E-03     31.5980E-03    -15.9913E-03     33.6724E-03     168.288E+06     8.79459E+06    -32.1049E+06    -9.56309E+06     168.284E+06    -13.7427E+06     120.838E+03         36.0481
             837     14.7596E-03     21.7549E-03         1.23051     721.831E-03        -1.59332    -701.253E-03     67.2132E-03     993.065E-03        -1.39300     34.8918E-03    -15.9059E-03    -18.9859E-03    -15.8888E-03     31.7947E-03    -15.9059E-03     24.6615E-03     103.053E+06    -6.94111E+06    -50.6472E+06    -6.91448E+06     103.026E+06    -50.6472E+06     1.12016E+06         34.2474
             838     13.7752E-03     21.7347E-03         1.39926     850.790E-03        -1.98729    -411.774E-03    -430.691E-03         1.10523    -914.668E-03     33.6929E-03    -16.0868E-03    -17.6062E-03    -16.0638E-03     32.1506E-03    -16.0868E-03     17.3742E-03     33.0180E+06    -4.57470E+06    -36.8370E+06    -4.24452E+06     32.6879E+06    -36.8370E+06     1.10868E+06         32.4718
             839     12.7911E-03     21.7191E-03         1.66389     967.933E-03        -2.47335    -392.865E-03    -669.772E-03         1.22110     704.643E-03     33.2879E-03    -16.2409E-03    -17.0470E-03    -16.1370E-03     32.3779E-03    -16.2409E-03     13.3032E-03      982.01E+03    -9.94449E+06    -29.3516E+06    -4.11832E+06    -13.1578E+06    -21.0380E+06     1.42535E+06         30.7709
             840     11.8070E-03     21.7070E-03         1.91418         1.22779        -3.03002        -1.66414     364.652E-03         1.41144         1.89328     33.2365E-03    -16.3331E-03    -16.9035E-03    -16.2364E-03     32.5694E-03    -16.3331E-03     11.4892E-03    -3.47371E+06    -13.4910E+06    -48.1503E+06    -3.63730E+06    -47.9867E+06    -13.4910E+06     2.63568E+06         29.1967
             841     10.8228E-03     21.6950E-03         1.86229     633.243E-03        -2.38495        -1.36590    -203.351E-03         1.67984     244.831E-03     33.3071E-03    -16.4107E-03    -16.8964E-03    -16.3324E-03     32.7431E-03    -16.4107E-03     10.5464E-03    -2.28958E+06    -7.26701E+06    -78.5757E+06    -2.70362E+06    -78.4547E+06    -6.97390E+06     2.86753E+06         27.7921
             842     9.83879E-03     21.6847E-03         1.90357     668.101E-03        -2.39142     256.291E-03        -1.97961         1.90357    -779.328E-03     33.2756E-03    -16.4870E-03    -16.7887E-03    -16.3714E-03     32.8584E-03    -16.4870E-03     9.08223E-03     1.81289E+06    -3.23151E+06    -100.186E+06    -3.04173E+06    -100.110E+06     1.54667E+06     2.68573E+06         26.5838
             843     8.85485E-03     21.6757E-03         2.25308         1.47164        -3.44059    -180.908E-03        -1.65176         2.11680     860.016E-03     33.2632E-03    -16.5328E-03    -16.7304E-03    -16.3833E-03     32.9161E-03    -16.5328E-03     8.29967E-03     5.76944E+06    -3.99564E+06    -114.836E+06    -4.05765E+06    -114.774E+06     5.76944E+06     2.57175E+06         25.5805
             844     7.87087E-03     21.6670E-03         2.65928         1.42942        -3.76534        -1.90129    -298.342E-03         2.52300         1.08681     33.2816E-03    -16.5621E-03    -16.7195E-03    -16.4152E-03     32.9772E-03    -16.5621E-03     7.76921E-03      6.0656E+06    -5.51467E+06    -130.206E+06    -5.55856E+06    -130.162E+06      6.0656E+06     2.32897E+06         24.7743
             845     6.88696E-03     21.6591E-03         3.10271         1.08527        -3.85833        -1.13887        -1.63419         3.10271    -932.853E-03     33.2922E-03    -16.5901E-03    -16.7021E-03    -16.4498E-03     33.0399E-03    -16.5901E-03     7.07631E-03     5.73534E+06    -7.55566E+06    -145.797E+06    -7.59100E+06    -145.761E+06     5.73534E+06     2.18784E+06         24.1461
             846     5.90303E-03     21.6519E-03         5.06480         2.18695        -6.95892         3.41167        -6.52475         3.40592        -2.90227     33.2950E-03    -16.6074E-03    -16.6876E-03    -16.4828E-03     33.0901E-03    -16.6074E-03     6.37662E-03     3.50483E+06    -9.59265E+06    -160.650E+06    -9.61377E+06    -160.629E+06     3.50483E+06     1.65751E+06         23.6700
             847     4.91918E-03     21.6455E-03         6.81711         3.05519        -9.53759         6.58652        -9.30701         3.05519    -517.007E-03     33.2794E-03    -16.6124E-03    -16.6671E-03    -16.5092E-03     33.1215E-03    -16.6124E-03     5.59110E-03    -586.998E+03    -11.1925E+06    -173.740E+06    -11.2017E+06    -173.730E+06    -586.998E+03     1.10023E+06         23.3186
             848     3.93529E-03     21.6400E-03         5.13685         2.09527        -6.86541         4.46938        -6.55516         2.45250         2.76737     33.2618E-03    -16.6170E-03    -16.6447E-03    -16.5341E-03     33.1512E-03    -16.6170E-03     4.66678E-03    -4.99888E+06    -12.8028E+06    -186.692E+06    -12.8076E+06    -186.687E+06    -4.99888E+06     891.776E+03         23.0663
             849     2.95145E-03     21.6356E-03         3.46034         1.70748        -4.92754         2.87577        -4.70020         2.06470         1.65983     33.2608E-03    -16.6238E-03    -16.6370E-03    -16.5693E-03     33.1931E-03    -16.6238E-03     3.63377E-03    -9.21939E+06    -14.7190E+06    -199.543E+06    -14.7223E+06    -199.539E+06    -9.21939E+06     743.636E+03         22.8915
             850     1.96759E-03     21.6322E-03         5.46175     899.468E-03        -6.14660         5.00796        -5.69281     899.468E-03         2.78529     33.2459E-03    -16.6112E-03    -16.6348E-03    -16.5952E-03     33.2121E-03    -16.6169E-03     2.53530E-03    -13.9640E+06    -16.5663E+06    -206.796E+06    -16.5681E+06    -206.794E+06    -13.9640E+06     390.914E+03         22.7776
             851     983.864E-06     21.6301E-03         7.96786        -1.47470        -5.90155         1.86649     855.505E-03        -2.13038         1.88529     33.2380E-03    -16.5587E-03    -16.6792E-03    -16.6614E-03     33.2259E-03    -16.5645E-03     1.46370E-03    -16.7966E+06    -18.0813E+06    -215.280E+06    -17.9392E+06    -215.278E+06    -16.9411E+06     446.899E+03         22.7123
             852     16.7279E-03     20.7903E-03     990.138E-03     441.110E-03        -1.17968    -34.2413E-03    -643.877E-03     929.682E-03         1.42338     35.0710E-03    -15.8034E-03    -19.2676E-03    -14.9608E-03     31.3990E-03    -16.4382E-03     25.0858E-03     200.194E+06     83.7724E+06    -7.84139E+06    -7.83503E+06     200.188E+06     83.7724E+06    -230.407E+03         37.7988
             853     15.7435E-03     20.7521E-03         1.03904     166.315E-03    -953.613E-03    -350.636E-03    -399.860E-03         1.00224     790.204E-03     36.9693E-03    -16.0058E-03    -20.9634E-03    -15.7041E-03     31.7099E-03    -16.0058E-03     33.1075E-03     167.682E+06     7.62222E+06    -32.5395E+06    -11.3951E+06     167.676E+06    -13.5161E+06    -798.634E+03         36.0130
             854     14.7596E-03     20.7220E-03         1.28081     544.386E-03        -1.60976     303.129E-03        -1.15963         1.07195        -1.17022     34.9569E-03    -15.9081E-03    -19.0488E-03    -16.0321E-03     31.9403E-03    -15.9081E-03     24.4196E-03     102.071E+06    -9.34197E+06    -51.4582E+06    -9.33089E+06     102.060E+06    -51.4582E+06     66.4370E+03         34.2195
             855     13.7754E-03     20.7016E-03         1.44846     735.427E-03        -2.04040     598.079E-03        -1.57169         1.11710        -1.79580     33.7400E-03    -16.0826E-03    -17.6574E-03    -16.1424E-03     32.2250E-03    -16.0826E-03     17.2266E-03     32.3360E+06    -7.08721E+06    -37.2306E+06    -6.66572E+06     31.9145E+06    -37.2306E+06     2.03994E+06         32.4519
             856     12.7913E-03     20.6861E-03         1.66219     589.968E-03        -2.16139    -941.440E-03    -187.203E-03         1.21941     842.624E-03     33.3374E-03    -16.2296E-03    -17.1078E-03    -16.2282E-03     32.4578E-03    -16.2296E-03     13.0980E-03     1.00238E+06    -11.5465E+06    -28.4446E+06    -5.31320E+06    -12.9635E+06    -20.7120E+06     2.79058E+06         30.7587
             857     11.8071E-03     20.6740E-03         1.94866         1.04280        -2.95429        -1.98924     580.487E-03         1.44592         3.43386     33.2595E-03    -16.3077E-03    -16.9518E-03    -16.3082E-03     32.6159E-03    -16.3077E-03     11.2940E-03    -4.46067E+06    -14.2537E+06    -48.1004E+06    -4.61858E+06    -47.9425E+06    -14.2537E+06     2.29062E+06         29.1906
             858     10.8231E-03     20.6621E-03         2.38161         1.12940        -3.44887        -2.41612     698.839E-03         1.77942         2.33292     33.3023E-03    -16.3784E-03    -16.9239E-03    -16.3868E-03     32.7652E-03    -16.3784E-03     10.2904E-03    -3.23653E+06    -7.72115E+06    -77.9599E+06    -3.68884E+06    -77.8650E+06    -7.36366E+06     2.59717E+06         27.7898
             859     9.83919E-03     20.6518E-03         2.62954         1.15171        -3.67466        -2.56747     464.262E-03         2.20980    -987.918E-03     33.2234E-03    -16.4476E-03    -16.7758E-03    -16.3858E-03     32.8334E-03    -16.4476E-03     8.77503E-03     1.60341E+06    -3.51098E+06    -99.4960E+06    -3.32563E+06    -99.4151E+06     1.33719E+06     2.75100E+06         26.5829
             860     8.85517E-03     20.6429E-03         2.85792         1.75451        -4.46433     121.493E-03        -2.56270         2.58931        -2.56225     33.1873E-03    -16.4899E-03    -16.6975E-03    -16.3722E-03     32.8621E-03    -16.4899E-03     8.02712E-03     5.77947E+06    -4.03670E+06    -114.121E+06    -4.09371E+06    -114.064E+06     5.77947E+06     2.49958E+06         25.5788
             861     7.87120E-03     20.6342E-03         3.81020         1.93692        -5.53698         2.30846        -4.85707         2.75876    -661.602E-03     33.1944E-03    -16.5154E-03    -16.6790E-03    -16.3933E-03     32.9087E-03    -16.5154E-03     7.51782E-03     5.94142E+06    -5.51646E+06    -129.609E+06    -5.56270E+06    -129.563E+06     5.94142E+06     2.38115E+06         24.7704
             862     6.88723E-03     20.6263E-03         3.71189         1.15253        -4.65561     951.245E-03        -3.67149         2.92906    -569.962E-03     33.1866E-03    -16.5415E-03    -16.6450E-03    -16.4086E-03     32.9501E-03    -16.5415E-03     6.84100E-03     5.71799E+06    -7.27192E+06    -144.877E+06    -7.30483E+06    -144.845E+06     5.71799E+06     2.09961E+06         24.1390
             863     5.90330E-03     20.6191E-03         3.69158     982.337E-03        -4.49159     620.609E-03        -3.72828         3.29000        -2.24447     33.1790E-03    -16.5593E-03    -16.6196E-03    -16.4270E-03     32.9863E-03    -16.5593E-03     6.17039E-03     3.59242E+06    -9.25508E+06    -159.310E+06    -9.27124E+06    -159.294E+06     3.59242E+06     1.41320E+06         23.6593
             864     4.91934E-03     20.6127E-03         5.43188         2.07827        -7.36339         3.59157        -6.94660         3.50178     212.402E-03     33.1713E-03    -16.5656E-03    -16.6057E-03    -16.4576E-03     33.0232E-03    -16.5656E-03     5.40450E-03    -1.00398E+06    -11.6649E+06    -173.122E+06    -11.6709E+06    -173.116E+06    -1.00398E+06     952.787E+03         23.3044
             865     3.93545E-03     20.6073E-03         6.69562         2.74420        -9.29510         6.19731        -9.16245         3.10985         1.68269     33.1704E-03    -16.5706E-03    -16.5997E-03    -16.4957E-03     33.0664E-03    -16.5706E-03     4.51942E-03    -5.52409E+06    -14.0193E+06    -186.294E+06    -14.0230E+06    -186.291E+06    -5.52409E+06     675.887E+03         23.0490
             866     2.95156E-03     20.6028E-03         5.36239         2.32094        -7.54046         4.77005        -6.94812         2.32094        -2.04308     33.1734E-03    -16.5744E-03    -16.5991E-03    -16.5354E-03     33.1098E-03    -16.5744E-03     3.51879E-03    -9.43211E+06    -15.8019E+06    -199.161E+06    -15.8038E+06    -199.159E+06    -9.43211E+06     213.482E+03         22.8719
             867     1.96775E-03     20.5996E-03         5.18571         1.40037        -6.57977         2.23450        -4.04110         1.81290        -4.65822     33.1503E-03    -16.5583E-03    -16.5920E-03    -16.5598E-03     33.1181E-03    -16.5583E-03     2.47495E-03    -14.0488E+06    -17.2299E+06    -206.680E+06    -17.2319E+06    -206.678E+06    -14.0488E+06     122.073E+03         22.7562
             868     983.865E-06     20.5974E-03         9.27334         1.37116        -10.5609         1.71549        -3.35095         1.71903     11.1650E-03     33.0991E-03    -16.5038E-03    -16.5953E-03    -16.5840E-03     33.0878E-03    -16.5038E-03     1.38456E-03    -17.3887E+06    -18.3450E+06    -215.541E+06    -18.0259E+06    -215.539E+06    -17.7094E+06    -44.6824E+03         22.6898
             869     16.7298E-03     19.7581E-03         1.03859     277.780E-03        -1.36055    -111.163E-03    -947.952E-03         1.01493         1.02886     35.2437E-03    -15.9255E-03    -19.3182E-03    -15.1047E-03     31.5362E-03    -16.4316E-03     25.2325E-03     201.119E+06     85.0888E+06    -6.75560E+06    -6.74573E+06     201.109E+06     85.0888E+06     592.534E+03         37.7554
             870     15.7443E-03     19.7187E-03         1.43985     274.110E-03        -1.65701     520.281E-03        -1.53121         1.06787     83.6160E-03     36.9083E-03    -15.9938E-03    -20.9145E-03    -15.6700E-03     31.6638E-03    -15.9938E-03     33.0060E-03     168.432E+06     9.01811E+06    -31.5739E+06    -10.0433E+06     168.419E+06    -12.4996E+06     202.503E+03         35.9743
             871     14.7597E-03     19.6889E-03         1.67184     579.921E-03        -2.19232     945.892E-03        -1.97745         1.09099    -820.189E-03     34.8904E-03    -15.9004E-03    -18.9900E-03    -16.0473E-03     31.9478E-03    -15.9004E-03     24.1013E-03     100.339E+06    -10.4044E+06    -50.9401E+06    -10.3847E+06     100.319E+06    -50.9401E+06     557.740E+03         34.1874
             872     13.7755E-03     19.6685E-03         1.37305     537.259E-03        -1.86930    -363.020E-03    -745.907E-03         1.14994    -238.362E-03     33.8052E-03    -16.0684E-03    -17.7368E-03    -16.2726E-03     32.3410E-03    -16.0684E-03     16.9445E-03     30.8174E+06    -8.60202E+06    -36.6807E+06    -8.33516E+06     30.5505E+06    -36.6807E+06     1.80936E+06         32.4277
             873     12.7916E-03     19.6530E-03         1.31632     151.859E-03        -1.47802        -1.22612    -85.7951E-03         1.30208     815.314E-03     33.3734E-03    -16.1973E-03    -17.1762E-03    -16.3553E-03     32.5526E-03    -16.1973E-03     12.6573E-03     903.004E+03    -11.1786E+06     -27.675E+06    -5.67405E+06    -12.0372E+06    -20.2393E+06     2.20123E+06         30.7421
             874     11.8077E-03     19.6411E-03         1.50820     124.279E-03        -1.65191        -1.06748    -460.147E-03         1.50820         1.25772     33.2695E-03    -16.2629E-03    -17.0066E-03    -16.4135E-03     32.6764E-03    -16.2629E-03     10.8530E-03    -3.68751E+06    -13.4490E+06    -47.4216E+06    -3.82376E+06    -47.2854E+06    -13.4490E+06     2.07665E+06         29.1800
             875     10.8238E-03     19.6290E-03         2.23352     909.838E-03        -3.15102        -2.51609     694.649E-03         1.81378         2.36999     33.2563E-03    -16.3204E-03    -16.9359E-03    -16.4440E-03     32.7644E-03    -16.3204E-03     9.83964E-03    -2.69938E+06    -7.47317E+06    -77.9143E+06    -3.12676E+06    -77.8444E+06    -7.11568E+06     2.21378E+06         27.7830
             876     9.83981E-03     19.6190E-03         2.73776         1.33996        -4.05752        -3.82082         1.52300         2.31802     481.272E-03     33.1304E-03    -16.3803E-03    -16.7502E-03    -16.3995E-03     32.7798E-03    -16.3803E-03     8.31276E-03     1.81608E+06    -2.82798E+06    -98.6813E+06    -2.88904E+06    -98.6152E+06     1.81104E+06     2.48074E+06         26.5774
             877     8.85580E-03     19.6101E-03         3.14753         1.38365        -4.50046        -1.69590        -1.15230         2.87892        -2.40476     33.0673E-03    -16.4142E-03    -16.6530E-03    -16.3608E-03     32.7750E-03    -16.4142E-03     7.59509E-03     6.25642E+06    -3.31801E+06    -113.341E+06    -3.37441E+06    -113.285E+06     6.25642E+06     2.47335E+06         25.5724
             878     7.87181E-03     19.6014E-03         4.50069         2.32958        -6.79973         2.76535        -5.89392         3.15911        -2.82424     33.0408E-03    -16.4337E-03    -16.6071E-03    -16.3522E-03     32.7859E-03    -16.4337E-03     7.08357E-03     6.53437E+06    -4.38879E+06    -128.850E+06    -4.42879E+06    -128.810E+06     6.53437E+06     2.20775E+06         24.7615
             879     6.88779E-03     19.5936E-03         5.66760         2.94006        -8.56615         5.07123        -8.07194         3.04222        -4.27605     33.0092E-03    -16.4539E-03    -16.5553E-03    -16.3446E-03     32.7985E-03    -16.4539E-03     6.43848E-03     6.07968E+06    -5.75440E+06    -143.974E+06    -5.77912E+06    -143.949E+06     6.07968E+06     1.81135E+06         24.1267
             880     5.90375E-03     19.5865E-03         4.49233         1.67077        -6.11708         2.44975        -5.34364         2.93993        -3.81200     32.9957E-03    -16.4740E-03    -16.5218E-03    -16.3508E-03     32.8248E-03    -16.4740E-03     5.79313E-03     4.63438E+06    -8.06235E+06    -158.606E+06    -8.08303E+06    -158.585E+06     4.63438E+06     1.70285E+06         23.6432
             881     4.91975E-03     19.5801E-03         3.32565         1.07518        -4.39873    -141.370E-03        -3.18218         3.32565         1.03142     32.9850E-03    -16.4818E-03    -16.5032E-03    -16.3721E-03     32.8539E-03    -16.4818E-03     5.07091E-03     381.927E+03    -11.1260E+06    -172.441E+06    -11.1429E+06    -172.424E+06     381.927E+03     1.54555E+06         23.2846
             882     3.93576E-03     19.5746E-03         5.38564         1.58220        -7.02718         2.00042        -5.96947         3.90970         2.50071     32.9793E-03    -16.4807E-03    -16.4985E-03    -16.4054E-03     32.8861E-03    -16.4807E-03     4.26490E-03    -5.16223E+06    -13.8618E+06    -185.187E+06    -13.8665E+06    -185.183E+06    -5.16223E+06     692.884E+03         23.0260
             883     2.95184E-03     19.5703E-03         6.40015         2.31455        -8.75225         3.71333        -7.99176         4.24087        -2.10863     32.9871E-03    -16.4818E-03    -16.5053E-03    -16.4478E-03     32.9296E-03    -16.4818E-03     3.33501E-03    -9.78724E+06    -16.2327E+06    -198.939E+06    -16.2335E+06    -198.938E+06    -9.78724E+06     7.69934E+03         22.8462
             884     1.96787E-03     19.5670E-03         5.96079         3.41618        -9.50258         1.52053        -6.92358         5.27745        -6.00288     32.9531E-03    -16.4638E-03    -16.4894E-03    -16.4569E-03     32.9240E-03    -16.4671E-03     2.34653E-03    -14.8168E+06    -18.4183E+06    -207.088E+06    -18.4198E+06    -207.087E+06    -14.8168E+06    -27.9408E+03         22.7286
             885     983.985E-06     19.5649E-03         8.85876         5.70517        -15.2643         3.59007        -13.1492         8.85876        -2.35938     32.9181E-03    -16.4235E-03    -16.4946E-03    -16.4813E-03     32.9081E-03    -16.4268E-03     1.29297E-03    -18.5593E+06    -19.6311E+06    -216.138E+06    -19.4573E+06    -216.135E+06    -18.7354E+06     16.7513E+03         22.6609
             886     16.7280E-03     18.7241E-03         1.22542     607.385E-03        -1.94791     346.196E-03        -1.56620         1.10490         1.06673     35.3886E-03    -15.9396E-03    -19.4489E-03    -15.2147E-03     31.6464E-03    -16.4316E-03     25.6705E-03     200.469E+06     85.5316E+06    -7.08991E+06    -7.08012E+06     200.459E+06     85.5316E+06     607.303E+03         37.7063
             887     15.7444E-03     18.6860E-03         1.68139     914.461E-03        -2.69249         1.40162        -2.61805         1.11980    -586.624E-03     37.1084E-03    -15.9807E-03    -21.1277E-03    -15.9031E-03     31.8837E-03    -15.9807E-03     33.0872E-03     168.106E+06     9.51828E+06    -32.1880E+06    -10.3130E+06     168.081E+06    -12.3317E+06     1.42492E+06         35.9300
             888     14.7601E-03     18.6557E-03         1.56510     511.809E-03        -2.14640     777.542E-03        -1.97106         1.12402    -656.863E-03     35.0230E-03    -15.8696E-03    -19.1534E-03    -16.2436E-03     32.1132E-03    -15.8696E-03     24.0004E-03     100.496E+06    -9.19027E+06    -50.6393E+06    -9.15291E+06     100.458E+06    -50.6393E+06     1.87304E+06         34.1503
             889     13.7763E-03     18.6352E-03         1.22833     161.539E-03        -1.45930    -936.191E-03    -347.327E-03         1.21409     365.876E-03     33.8904E-03    -16.0153E-03    -17.8751E-03    -16.4875E-03     32.5029E-03    -16.0153E-03     16.5234E-03     31.0767E+06    -6.55359E+06    -37.1527E+06    -6.46528E+06     30.9884E+06    -37.1527E+06     869.121E+03         32.3986
             890     12.7925E-03     18.6198E-03         1.42602     375.373E-03        -1.88635        -1.69163     194.905E-03         1.41177     512.426E-03     33.4079E-03    -16.1277E-03    -17.2801E-03    -16.5318E-03     32.6596E-03    -16.1277E-03     12.0990E-03     2.18822E+06    -9.45478E+06    -28.9274E+06    -3.63102E+06    -12.1082E+06    -20.4548E+06     896.674E+03         30.7207
             891     11.8086E-03     18.6080E-03         1.68466     297.604E-03        -2.08029        -1.95750     174.809E-03         1.68466     573.784E-03     33.2448E-03    -16.1811E-03    -17.0638E-03    -16.5356E-03     32.7167E-03    -16.1811E-03     10.2485E-03    -2.01004E+06    -12.6924E+06    -47.2921E+06    -2.09665E+06    -47.2055E+06    -12.6924E+06     1.92821E+06         29.1648
             892     10.8248E-03     18.5961E-03         1.98678     753.110E-03        -2.83312        -1.26870    -811.312E-03         1.98678         1.26290     33.1624E-03    -16.2211E-03    -16.9413E-03    -16.5122E-03     32.7334E-03    -16.2211E-03     9.17177E-03    -1.42432E+06    -6.52599E+06    -77.4875E+06    -1.49157E+06    -77.4202E+06    -6.52599E+06     2.18634E+06         27.7715
             893     9.84087E-03     18.5862E-03         2.28965         1.04155        -3.41038    -782.719E-03        -1.58611         2.28965     97.0749E-03     32.9990E-03    -16.2664E-03    -16.7326E-03    -16.4375E-03     32.7038E-03    -16.2664E-03     7.60952E-03     2.61916E+06    -1.68889E+06    -98.3607E+06    -1.52595E+06    -98.3070E+06     2.40253E+06     2.26823E+06         26.5673
             894     8.85692E-03     18.5774E-03         2.69808     351.251E-03        -3.11891        -1.91451    -853.157E-03         2.69808        -1.50481     32.8842E-03    -16.2843E-03    -16.5999E-03    -16.3574E-03     32.6417E-03    -16.2843E-03     6.89796E-03     6.72427E+06    -2.10029E+06    -112.468E+06    -2.15523E+06    -112.413E+06     6.72427E+06     2.44715E+06         25.5614
             895     7.87286E-03     18.5689E-03         3.47217     694.485E-03        -4.28739    -508.578E-03        -2.79419         3.18203        -2.22707     32.7969E-03    -16.2915E-03    -16.5054E-03    -16.2958E-03     32.5873E-03    -16.2915E-03     6.39390E-03     7.08132E+06    -3.21284E+06    -127.910E+06    -3.25474E+06    -127.868E+06     7.08132E+06     2.25420E+06         24.7479
             896     6.88877E-03     18.5611E-03         5.24578         2.03963        -7.42175         3.52226        -7.06184         3.40323        -3.39417     32.7240E-03    -16.3017E-03    -16.4223E-03    -16.2502E-03     32.5519E-03    -16.3017E-03     5.78904E-03     6.32876E+06    -5.27457E+06    -143.290E+06    -5.31028E+06    -143.254E+06     6.32876E+06     2.15326E+06         24.1094
             897     5.90466E-03     18.5540E-03         5.76728         2.76213        -8.67181         4.59828        -8.02940         3.28873        -5.35037     32.6810E-03    -16.3122E-03    -16.3688E-03    -16.2289E-03     32.5410E-03    -16.3122E-03     5.21436E-03     4.34199E+06    -7.94073E+06    -158.334E+06    -7.97602E+06    -158.299E+06     4.34199E+06     2.22663E+06         23.6219
             898     4.92053E-03     18.5477E-03         4.36588         2.46483        -6.97184         2.21325        -5.64617         3.29179        -3.29159     32.6476E-03    -16.3140E-03    -16.3336E-03    -16.2259E-03     32.5399E-03    -16.3140E-03     4.56925E-03     382.649E+03    -10.4554E+06    -171.504E+06    -10.4799E+06    -171.479E+06     382.649E+03     1.93356E+06         23.2594
             899     3.93639E-03     18.5423E-03         4.07753         1.02401        -5.27307    -300.864E-03        -3.80025         3.92959         2.21590     32.6213E-03    -16.3054E-03    -16.3159E-03    -16.2347E-03     32.5444E-03    -16.3097E-03     3.84913E-03    -5.38299E+06    -13.1641E+06    -184.151E+06    -13.1786E+06    -184.136E+06    -5.38299E+06     1.38892E+06         22.9974
             900     2.95224E-03     18.5379E-03         5.14564         2.23980        -7.70258         1.00931        -6.47208         5.14564         4.50173     32.6265E-03    -16.3057E-03    -16.3208E-03    -16.2664E-03     32.5786E-03    -16.3122E-03     3.02139E-03    -10.5886E+06    -16.1659E+06    -198.553E+06    -16.1737E+06    -198.545E+06    -10.5886E+06     947.344E+03         22.8147
             901     1.96820E-03     18.5347E-03         7.74383         4.41836        -12.5894         5.61695        -11.9471         5.90289         2.46030     32.6077E-03    -16.2976E-03    -16.3101E-03    -16.2807E-03     32.5838E-03    -16.3031E-03     2.10466E-03    -15.8659E+06    -18.6183E+06    -207.072E+06    -18.6220E+06    -207.068E+06    -15.8659E+06     528.928E+03         22.6950
             902     984.027E-06     18.5326E-03         8.85651         3.61963        -13.0622         6.58393        -12.5223         5.35232    -157.389E-03     32.6024E-03    -16.2715E-03    -16.3309E-03    -16.3194E-03     32.5942E-03    -16.2748E-03     1.17838E-03    -19.7088E+06    -20.1388E+06    -216.454E+06    -20.1413E+06    -216.452E+06    -19.7088E+06     264.305E+03         22.6260
             903     16.7295E-03     17.6908E-03         1.32599         1.06376        -2.56120         1.00883        -2.34630         1.16602     408.863E-03     35.4235E-03    -16.0232E-03    -19.4003E-03    -15.3277E-03     31.7431E-03    -16.4154E-03     25.5229E-03     199.594E+06     84.5025E+06    -6.53779E+06    -6.52585E+06     199.582E+06     84.5025E+06     980.007E+03         37.6507
             904     15.7445E-03     17.6523E-03         1.37603     860.806E-03        -2.43714     749.488E-03        -2.13620         1.18641        -1.27629     37.2001E-03    -15.9487E-03    -21.2514E-03    -16.1713E-03     32.1199E-03    -15.9487E-03     32.7064E-03     167.354E+06     8.81130E+06    -32.0753E+06    -9.44176E+06     167.329E+06    -13.7969E+06     1.01619E+06         35.8793
             905     14.7609E-03     17.6223E-03         1.31257     285.463E-03        -1.76943     42.0324E-03        -1.45690         1.24347    -631.322E-03     35.2655E-03    -15.8088E-03    -19.4567E-03    -16.6626E-03     32.4714E-03    -15.8088E-03     23.6718E-03     101.666E+06    -6.47050E+06    -51.8119E+06    -6.44132E+06     101.637E+06    -51.8119E+06     1.13740E+06         34.1070
             906     13.7772E-03     17.6016E-03         1.35384    -263.574E-03        -1.25964    -518.905E-03        -1.00431         1.35384     234.462E-03     34.0213E-03    -15.9281E-03    -18.0932E-03    -16.7965E-03     32.7246E-03    -15.9281E-03     15.9894E-03     32.3263E+06    -3.33355E+06    -37.6935E+06    -3.15513E+06     32.1479E+06    -37.6935E+06     820.224E+03         32.3639
             907     12.7937E-03     17.5866E-03         1.54719     93.1928E-03        -1.80239        -1.67515    -34.0461E-03         1.54719     450.946E-03     33.4558E-03    -16.0200E-03    -17.4358E-03    -16.7801E-03     32.8001E-03    -16.0200E-03     11.3343E-03     2.35225E+06    -9.19383E+06    -28.9824E+06    -2.22005E+06    -12.7834E+06    -20.8206E+06     1.09518E+06         30.6941
             908     11.8101E-03     17.5748E-03         1.83326     526.784E-03        -2.54064        -2.02270     8.84334E-03         1.83326         1.13450     33.2140E-03    -16.0452E-03    -17.1687E-03    -16.7277E-03     32.7729E-03    -16.0452E-03     9.36747E-03    -1.28071E+06    -13.2509E+06    -47.4045E+06    -1.35840E+06    -47.3269E+06    -13.2509E+06     1.83050E+06         29.1446
             909     10.8264E-03     17.5632E-03         2.10702     662.382E-03        -2.95739    -371.337E-03        -1.92367         2.10702         1.31010     33.0520E-03    -16.0609E-03    -16.9911E-03    -16.6497E-03     32.7106E-03    -16.0609E-03     8.15594E-03    -298.838E+03    -6.21302E+06    -76.9905E+06    -360.837E+03    -76.9285E+06    -6.21302E+06     2.15176E+06         27.7555
             910     9.84264E-03     17.5535E-03         2.27574         1.28300        -3.74074         1.15287        -3.61061         2.27574     51.8491E-03     32.8110E-03    -16.0791E-03    -16.7319E-03    -16.5110E-03     32.5902E-03    -16.0791E-03     6.54717E-03     3.44410E+06    -969.458E+03    -98.1639E+06    -230.355E+03    -98.1090E+06     2.65005E+06     2.31486E+06         26.5528
             911     8.85869E-03     17.5449E-03         2.70126         1.32743        -4.23121     901.709E-03        -3.51932         2.41509        -1.74185     32.6047E-03    -16.0727E-03    -16.5320E-03    -16.3577E-03     32.4304E-03    -16.0727E-03     5.80428E-03     7.17624E+06    -952.163E+03    -111.930E+06    -1.01241E+06    -111.870E+06     7.17624E+06     2.58040E+06         25.5462
             912     7.87464E-03     17.5365E-03         2.99827     575.880E-03        -3.78717    -742.525E-03        -2.18259         2.71209        -2.48128     32.4299E-03    -16.0572E-03    -16.3726E-03    -16.2242E-03     32.2815E-03    -16.0572E-03     5.33011E-03     7.40311E+06    -2.67193E+06    -127.137E+06    -2.73927E+06    -127.069E+06     7.40311E+06     2.85263E+06         24.7301
             913     6.89045E-03     17.5290E-03         3.25011     515.726E-03        -4.04061        -1.31766        -2.20722         3.25011        -1.54925     32.2846E-03    -16.0484E-03    -16.2362E-03    -16.1158E-03     32.1642E-03    -16.0484E-03     4.78911E-03     6.58425E+06    -5.02143E+06    -142.790E+06    -5.09712E+06    -142.714E+06     6.58425E+06     3.17562E+06         24.0880
             914     5.90617E-03     17.5220E-03         4.69423         1.76421        -6.76187         1.44625        -5.51776         3.76808        -2.89959     32.1732E-03    -16.0370E-03    -16.1362E-03    -16.0375E-03     32.0745E-03    -16.0370E-03     4.32510E-03     3.60129E+06    -7.67225E+06    -157.388E+06    -7.73563E+06    -157.325E+06     3.60129E+06     2.98328E+06         23.5964
             915     4.92184E-03     17.5158E-03         5.25387         3.25203        -8.81535         4.12626        -8.38157         3.94586        -2.94600     32.0922E-03    -16.0248E-03    -16.0674E-03    -15.9908E-03     32.0156E-03    -16.0248E-03     3.80184E-03    -935.622E+03    -10.4307E+06    -170.842E+06    -10.4721E+06    -170.800E+06    -935.622E+03     2.50911E+06         23.2298
             916     3.93747E-03     17.5104E-03         5.61870         2.95940        -8.92619         4.12735        -8.37855         3.90312     95.8616E-03     32.0391E-03    -16.0121E-03    -16.0271E-03    -15.9682E-03     31.9846E-03    -16.0164E-03     3.19981E-03    -5.99722E+06    -13.2675E+06    -183.613E+06    -13.3072E+06    -183.574E+06    -5.99722E+06     2.54242E+06         22.9641
             917     2.95310E-03     17.5060E-03         6.31772         2.81392        -9.57897         4.27544        -8.51621         3.79343         2.75117     32.0187E-03    -16.0028E-03    -16.0159E-03    -15.9697E-03     31.9848E-03    -16.0151E-03     2.50887E-03    -11.2665E+06    -16.1785E+06    -197.690E+06    -16.2104E+06    -197.658E+06    -11.2665E+06     2.26549E+06         22.7785
             918     1.96866E-03     17.5028E-03         6.14833         3.05217        -9.79736         5.47329        -9.18696         3.11682         3.12271     32.0065E-03    -15.9973E-03    -16.0092E-03    -15.9817E-03     31.9896E-03    -16.0079E-03     1.74721E-03    -16.5916E+06    -18.6683E+06    -206.125E+06    -18.6844E+06    -206.109E+06    -16.5916E+06     1.62060E+06         22.6566
             919     984.402E-06     17.5008E-03         5.68289         1.17269        -7.16674         4.25708        -5.35244     784.201E-03         4.54953     32.0174E-03    -15.9694E-03    -16.0480E-03    -16.0395E-03     32.0116E-03    -15.9721E-03     990.298E-06    -19.7255E+06    -20.1501E+06    -215.257E+06    -19.9215E+06    -215.251E+06    -19.9598E+06     754.452E+03         22.5862
             920     16.7292E-03     16.6581E-03         1.27960     631.632E-03        -2.20336     562.584E-03        -2.09487         1.24016    -287.479E-03     35.7990E-03    -16.2387E-03    -19.5603E-03    -15.7251E-03     32.1160E-03    -16.3909E-03     25.5985E-03     199.641E+06     85.0372E+06    -5.93780E+06    -5.92991E+06     199.633E+06     85.0372E+06     862.870E+03         37.5875
             921     15.7453E-03     16.6184E-03         1.30854     196.268E-03        -1.74493    -118.052E-03        -1.43061         1.30854        -1.27167     37.4431E-03    -15.8994E-03    -21.5437E-03    -16.5181E-03     32.4175E-03    -15.8994E-03     32.6592E-03     168.023E+06     10.7424E+06    -30.9269E+06    -7.45803E+06     168.015E+06    -12.7185E+06     395.756E+03         35.8214
             922     14.7619E-03     16.5884E-03         1.41607     38.0035E-03        -1.70555    -333.810E-03        -1.33374         1.41607        -1.04330     35.4907E-03    -15.7276E-03    -19.7631E-03    -17.1389E-03     32.8665E-03    -15.7276E-03     23.0180E-03     101.276E+06    -5.97321E+06    -51.6457E+06    -5.96868E+06     101.272E+06    -51.6457E+06     124.200E+03         34.0570
             923     13.7789E-03     16.5679E-03         1.54506     71.0639E-03        -1.85172    -326.991E-03        -1.45367         1.54506     381.238E-03     34.1931E-03    -15.8185E-03    -18.3745E-03    -17.2442E-03     33.0628E-03    -15.8185E-03     14.9505E-03     32.4139E+06    -4.01108E+06    -35.5698E+06    -3.74534E+06     32.1481E+06    -35.5698E+06     1.45953E+06         32.3231
             924     12.7957E-03     16.5531E-03         1.70000     295.655E-03        -2.25620    -524.048E-03        -1.43650         1.70000         1.31379     33.5128E-03    -15.8673E-03    -17.6456E-03    -17.1244E-03     32.9916E-03    -15.8673E-03     10.0988E-03     2.71199E+06    -9.52044E+06    -26.7608E+06    -2.28676E+06    -12.4150E+06    -18.8675E+06     1.84866E+06         30.6620
             925     11.8124E-03     16.5416E-03         1.87465     442.124E-03        -2.57912    -244.653E-03        -1.89234         1.87465         1.23540     33.1927E-03    -15.8419E-03    -17.3508E-03    -17.0247E-03     32.8665E-03    -15.8419E-03     8.05119E-03    -996.413E+03    -13.0232E+06    -47.1841E+06    -1.05403E+06    -47.1265E+06    -13.0232E+06     1.53326E+06         29.1197
             926     10.8290E-03     16.5303E-03         2.05768     144.493E-03        -2.48222    -41.6222E-03        -2.29610         2.05768         1.02614     32.9215E-03    -15.8154E-03    -17.1061E-03    -16.8709E-03     32.6863E-03    -15.8154E-03     6.71065E-03     126.859E+03    -5.80981E+06    -76.7877E+06     72.6917E+03    -76.7336E+06    -5.80981E+06     1.99988E+06         27.7354
             927     9.84541E-03     16.5209E-03         2.31086         1.09578        -3.71499         1.04392        -3.56252         2.21025    -578.741E-03     32.5533E-03    -15.7912E-03    -16.7621E-03    -16.6282E-03     32.4194E-03    -15.7912E-03     5.02500E-03     4.00705E+06    -597.600E+03    -97.9153E+06     255.883E+03    -97.8533E+06     3.09153E+06     2.46123E+06         26.5348
             928     8.86157E-03     16.5126E-03         2.88028         2.20405        -5.39976         2.65461        -5.21477         2.24473        -2.20460     32.2084E-03    -15.7458E-03    -16.4627E-03    -16.3651E-03     32.1109E-03    -15.7458E-03     4.26742E-03     7.73263E+06    -580.653E+03    -111.766E+06     -655.84E+03    -111.691E+06     7.73263E+06     2.87883E+06         25.5278
             929     7.87744E-03     16.5046E-03         2.82944         1.49305        -4.66217         1.11118        -3.74536         2.29450        -1.95326     31.9082E-03    -15.6928E-03    -16.2154E-03    -16.1354E-03     31.8281E-03    -15.6928E-03     3.82138E-03     7.93580E+06    -2.07594E+06    -126.877E+06    -2.17753E+06    -126.775E+06     7.93580E+06     3.54572E+06         24.7095
             930     6.89313E-03     16.4973E-03         2.66595     487.366E-03        -3.51881        -1.54228        -1.48916         2.66595        -1.63776     31.6417E-03    -15.6504E-03    -15.9913E-03    -15.9283E-03     31.5787E-03    -15.6504E-03     3.36876E-03     7.26097E+06    -3.93627E+06    -142.275E+06    -4.05528E+06    -142.156E+06     7.26097E+06     4.04390E+06         24.0639
             931     5.90864E-03     16.4906E-03         3.33131     263.647E-03        -4.00551        -1.11002        -2.63184         3.33131    -759.651E-03     31.4234E-03    -15.6113E-03    -15.8121E-03    -15.7607E-03     31.3719E-03    -15.6113E-03     3.03180E-03     4.59478E+06    -6.32433E+06    -156.278E+06    -6.44384E+06    -156.159E+06     4.59478E+06     4.16977E+06         23.5682
             932     4.92399E-03     16.4844E-03         4.15108         1.97250        -6.55438         1.70316        -6.05111         3.91715         2.44176     31.2559E-03    -15.5757E-03    -15.6802E-03    -15.6400E-03     31.2157E-03    -15.5757E-03     2.66999E-03    -235.226E+03    -9.49842E+06    -170.011E+06    -9.60282E+06    -169.907E+06    -235.226E+03     3.97620E+06         23.1975
             933     3.93926E-03     16.4792E-03         5.87192         3.72255        -10.0810         5.24643        -9.70968         3.97667         1.38145     31.1401E-03    -15.5480E-03    -15.5921E-03    -15.5630E-03     31.1110E-03    -15.5480E-03     2.26426E-03    -5.69257E+06    -12.7114E+06    -183.050E+06    -12.8008E+06    -182.961E+06    -5.69257E+06     3.82386E+06         22.9282
             934     2.95446E-03     16.4749E-03         6.62285         3.31545        -10.4623         6.33410        -10.1736         3.31545        -3.15937     31.0717E-03    -15.5262E-03    -15.5455E-03    -15.5215E-03     31.0534E-03    -15.5319E-03     1.78409E-03    -10.8291E+06    -15.5917E+06    -196.195E+06    -15.6680E+06    -196.119E+06    -10.8291E+06     3.62843E+06         22.7395
             935     1.96968E-03     16.4718E-03         4.42167         2.58145        -7.54957         3.43397        -6.59072         2.61031        -5.13254     31.0265E-03    -15.5063E-03    -15.5202E-03    -15.5026E-03     31.0173E-03    -15.5147E-03     1.25997E-03    -16.0776E+06    -18.1879E+06    -204.016E+06    -18.1811E+06    -203.975E+06    -16.1254E+06     2.56671E+06         22.6153
             936     984.744E-06     16.4697E-03         5.03470         1.93621        -7.63621         1.34525        -5.48546         3.47492         1.84861     31.0223E-03    -15.4643E-03    -15.5580E-03    -15.5521E-03     31.0191E-03    -15.4670E-03     700.766E-06    -19.3087E+06    -20.0069E+06    -213.082E+06    -19.7348E+06    -213.072E+06    -19.5908E+06     1.28691E+06         22.5435
             937     16.7302E-03     15.6239E-03         1.32458     21.6566E-03        -1.57644    -310.103E-03        -1.24468         1.32458     565.251E-03     36.3081E-03    -16.3279E-03    -19.9802E-03    -16.4169E-03     32.7777E-03    -16.3609E-03     25.3144E-03     199.870E+06     86.1399E+06    -6.44095E+06    -6.43780E+06     199.867E+06     86.1399E+06    -353.946E+03         37.5152
             938     15.7466E-03     15.5846E-03         1.43504    -377.985E-03        -1.29111    -475.839E-03        -1.19325         1.43504    -301.190E-03     37.8324E-03    -15.8282E-03    -22.0042E-03    -17.1693E-03     32.9976E-03    -15.8282E-03     32.3483E-03     168.642E+06     11.8408E+06    -30.4767E+06    -7.86026E+06     168.641E+06    -10.7742E+06     112.913E+03         35.7554
             939     14.7638E-03     15.5537E-03         1.56529    -221.575E-03        -1.60688    -462.131E-03        -1.36633         1.56529    -435.923E-03     35.7749E-03    -15.6059E-03    -20.1691E-03    -17.7205E-03     33.3264E-03    -15.6059E-03     22.2957E-03     100.620E+06    -6.45617E+06    -50.7658E+06    -6.44817E+06     100.612E+06    -50.7658E+06     661.019E+03         33.9997
             940     13.7814E-03     15.5338E-03         1.76935     536.372E-03        -2.62716     121.158E-03        -2.13354         1.69095         1.30674     34.4375E-03    -15.6418E-03    -18.7957E-03    -17.8509E-03     33.4928E-03    -15.6418E-03     13.7102E-03     31.4998E+06    -3.78878E+06    -35.0964E+06    -3.64137E+06     31.3524E+06    -35.0964E+06     1.18755E+06         32.2759
             941     12.7988E-03     15.5194E-03         1.86181         1.31236        -3.50447     984.957E-03        -3.09359         1.77833         2.50198     33.6629E-03    -15.6299E-03    -18.0330E-03    -17.6482E-03     33.2782E-03    -15.6299E-03     8.66090E-03     3.20572E+06    -8.67112E+06    -25.8898E+06    -1.26235E+06    -11.8087E+06    -18.2841E+06     1.66611E+06         30.6248
             942     11.8159E-03     15.5083E-03         1.85886     945.033E-03        -3.17276     771.624E-03        -2.99429         1.85379         1.64080     33.2058E-03    -15.5460E-03    -17.6598E-03    -17.4515E-03     32.9975E-03    -15.5460E-03     6.42846E-03    -4.15334E+03    -12.2400E+06    -46.6411E+06    -88.2966E+03    -46.5570E+06    -12.2400E+06     1.76364E+06         29.0908
             943     10.8329E-03     15.4974E-03         1.96312     620.962E-03        -2.97509     534.021E-03        -2.88815         1.96312     483.069E-03     32.7803E-03    -15.4597E-03    -17.3206E-03    -17.1900E-03     32.6497E-03    -15.4597E-03     4.86663E-03     331.479E+03    -5.07802E+06    -76.7329E+06     276.638E+03    -76.6781E+06    -5.07802E+06     2.01760E+06         27.7123
             944     9.84956E-03     15.4886E-03         2.38989         1.43016        -4.24218         1.52603        -4.00135         2.05319        -2.06955     32.2235E-03    -15.3744E-03    -16.8491E-03    -16.7936E-03     32.1680E-03    -15.3744E-03     3.07677E-03     4.30713E+06    -196.096E+03    -97.6706E+06     237.020E+03    -97.6015E+06     3.80494E+06     2.59099E+06         26.5147
             945     8.86574E-03     15.4808E-03         2.76908         2.05575        -5.27475         2.45455        -4.96022         2.05575        -1.73382     31.6961E-03    -15.2707E-03    -16.4254E-03    -16.3913E-03     31.6620E-03    -15.2707E-03     2.33243E-03     8.41707E+06    -486.657E+03    -111.812E+06    -578.042E+03    -111.721E+06     8.41707E+06     3.17713E+06         25.5080
             946     7.88165E-03     15.4732E-03         2.71385         1.69219        -4.86237         2.27615        -4.74793         2.01544     781.842E-03     31.2111E-03    -15.1621E-03    -16.0491E-03    -16.0239E-03     31.1860E-03    -15.1621E-03     1.90557E-03     8.71344E+06    -1.65714E+06    -126.875E+06    -1.77859E+06    -126.753E+06     8.71344E+06     3.89571E+06         24.6880
             947     6.89715E-03     15.4664E-03         2.39108         1.21652        -4.09308         1.04967        -3.60446         2.06932        -1.08211     30.7626E-03    -15.0686E-03    -15.6941E-03    -15.6759E-03     30.7445E-03    -15.0686E-03     1.55567E-03     8.25944E+06    -3.19260E+06    -141.949E+06    -3.34975E+06    -141.792E+06     8.25944E+06     4.64919E+06         24.0393
             948     5.91232E-03     15.4599E-03         2.42132     808.262E-03        -3.72113    -28.4653E-03        -2.79758         2.33450        -2.61630     30.3770E-03    -14.9849E-03    -15.3922E-03    -15.3775E-03     30.3624E-03    -14.9849E-03     1.36928E-03     5.95063E+06    -5.40762E+06    -155.487E+06    -5.59044E+06    -155.304E+06     5.95063E+06     5.21865E+06         23.5399
             949     4.92728E-03     15.4542E-03         2.89527         1.48921        -4.91296     586.290E-03        -3.85480         2.74002         2.08578     30.0655E-03    -14.9110E-03    -15.1545E-03    -15.1430E-03     30.0540E-03    -14.9110E-03     1.20831E-03     1.43674E+06    -8.11762E+06    -168.980E+06    -8.30879E+06    -168.789E+06     1.43674E+06     5.50203E+06         23.1655
             950     3.94199E-03     15.4491E-03         3.57511         2.48434        -6.59811         1.33079        -5.04852         3.17907         4.24002     29.8310E-03    -14.8510E-03    -14.9800E-03    -14.9715E-03     29.8225E-03    -14.8510E-03     1.05266E-03    -4.03167E+06    -11.2029E+06    -181.741E+06    -11.3782E+06    -181.566E+06    -4.03167E+06     5.38953E+06         22.8926
             951     2.95660E-03     15.4450E-03         4.58623         2.07860        -7.26215         1.42033        -5.82076         3.80311     367.690E-03     29.6783E-03    -14.8081E-03    -14.8702E-03    -14.8647E-03     29.6728E-03    -14.8081E-03     846.648E-06    -9.01973E+06    -14.0133E+06    -193.839E+06    -14.1377E+06    -193.715E+06    -9.01973E+06     4.65472E+06         22.7010
             952     1.97107E-03     15.4419E-03         5.47122         2.81553        -8.99483         2.25607        -7.81457         4.85043        -3.78437     29.5657E-03    -14.7664E-03    -14.7993E-03    -14.7963E-03     29.5627E-03    -14.7664E-03     625.521E-06    -14.2790E+06    -16.3439E+06    -201.067E+06    -16.3750E+06    -200.988E+06    -14.3269E+06     3.66104E+06         22.5746
             953     985.648E-06     15.4399E-03         7.44240         4.49993        -12.9982         4.24692        -12.0635         6.76077        -3.30256     29.4959E-03    -14.7158E-03    -14.7801E-03    -14.7791E-03     29.4948E-03    -14.7158E-03     330.662E-06    -17.6227E+06    -18.4681E+06    -210.008E+06    -17.9233E+06    -209.973E+06    -18.2026E+06     2.10338E+06         22.5014
             954     16.7306E-03     14.5892E-03         1.36728     84.0358E-03        -1.41630    -555.813E-03    -776.451E-03         1.36728         1.43579     36.9874E-03    -16.3224E-03    -20.6649E-03    -17.0851E-03     33.4075E-03    -16.3224E-03     26.1384E-03     199.447E+06     85.0660E+06    -7.54574E+06    -7.53827E+06     199.439E+06     85.0660E+06    -1.11036E+06         37.4330
             955     15.7484E-03     14.5498E-03         1.48381    -168.181E-03        -1.46741    -438.607E-03        -1.19698         1.48381     993.734E-03     38.7260E-03    -15.7378E-03    -22.9882E-03    -18.2409E-03     33.9787E-03    -15.7378E-03     32.6012E-03     168.120E+06     10.0595E+06    -30.8908E+06    -9.62968E+06     168.118E+06    -11.1988E+06     132.395E+03         35.6801
             956     14.7664E-03     14.5190E-03         1.60324     90.9617E-03        -1.99234    -199.942E-03        -1.70143         1.60324         1.38652     36.4102E-03    -15.4501E-03    -20.9601E-03    -18.6520E-03     34.1021E-03    -15.4501E-03     21.8649E-03     101.042E+06    -7.13780E+06    -49.2032E+06    -7.13194E+06     101.036E+06    -49.2032E+06     657.928E+03         33.9346
             957     13.7846E-03     14.4990E-03         1.77932     830.313E-03        -2.98121     614.606E-03        -2.68709         1.70092         1.93899     34.8522E-03    -15.4073E-03    -19.4450E-03    -18.6628E-03     34.0701E-03    -15.4073E-03     12.4422E-03     30.6392E+06    -4.35080E+06    -34.7627E+06    -4.27761E+06     30.5660E+06    -34.7627E+06     778.706E+03         32.2224
             958     12.8029E-03     14.4854E-03         2.09237         1.57874        -4.10831         1.43118        -3.61929         1.75090         3.11278     33.9385E-03    -15.3153E-03    -18.6232E-03    -18.3682E-03     33.6836E-03    -15.3153E-03     7.01897E-03     1.59577E+06    -8.76499E+06    -25.6660E+06    -2.65900E+06    -11.8065E+06    -18.3696E+06     1.31465E+06         30.5828
             959     11.8206E-03     14.4749E-03         2.40017         1.39482        -4.26212         1.55189        -3.79027         1.77126         3.16618     33.3024E-03    -15.1520E-03    -18.1504E-03    -18.0389E-03     33.1909E-03    -15.1520E-03     4.66471E-03    -1.42380E+06    -11.7470E+06    -46.0730E+06    -1.50376E+06    -45.9931E+06    -11.7470E+06     1.74092E+06         29.0587
             960     10.8382E-03     14.4645E-03         2.67273         1.35322        -4.54740         2.05435        -4.34129         1.76548         1.90557     32.6528E-03    -14.9831E-03    -17.6697E-03    -17.6165E-03     32.5996E-03    -14.9831E-03     2.78626E-03     18.3450E+03    -4.89470E+06    -76.5394E+06    -545.537E+03    -76.4834E+06    -4.38681E+06     2.04388E+06         27.6875
             961     9.85512E-03     14.4566E-03         2.62430         1.68388        -4.85729         2.31791        -4.58672         1.71970     145.931E-03     31.8614E-03    -14.8174E-03    -17.0440E-03    -17.0321E-03     31.8495E-03    -14.8174E-03     890.425E-06     5.07820E+06    -420.821E+03    -97.5076E+06    -316.699E+03    -97.4426E+06     4.90905E+06     2.50606E+06         26.4942
             962     8.87154E-03     14.4494E-03         2.17776         1.50951        -4.26146         1.68521        -3.94607         1.68667     516.776E-03     31.0923E-03    -14.6351E-03    -16.4572E-03    -16.4501E-03     31.0852E-03    -14.6351E-03     134.991E-06     9.91156E+06    -536.971E+03    -111.855E+06    -624.483E+03    -111.768E+06     9.91156E+06     3.11058E+06         25.4892
             963     7.88735E-03     14.4427E-03         2.38857         1.48178        -4.47920         2.05701        -4.32481         1.65894         1.35222     30.3529E-03    -14.4504E-03    -15.9025E-03    -15.8946E-03     30.3451E-03    -14.4504E-03    -290.870E-06     10.4860E+06    -1.35026E+06    -126.988E+06    -1.46820E+06    -126.870E+06     10.4860E+06     3.83912E+06         24.6686
             964     6.90265E-03     14.4364E-03         2.83655         1.50992        -4.94244         2.62705        -4.77793         1.55491    -239.762E-03     29.6547E-03    -14.2844E-03    -15.3703E-03    -15.3620E-03     29.6464E-03    -14.2844E-03    -530.949E-06     10.1439E+06    -2.62502E+06    -141.858E+06    -2.79322E+06    -141.690E+06     10.1439E+06     4.82208E+06         24.0177
             965     5.91747E-03     14.4306E-03         2.70894         1.37988        -4.71687         2.02665        -4.07957         1.42487        -2.97461     29.0270E-03    -14.1338E-03    -14.8932E-03    -14.8857E-03     29.0195E-03    -14.1338E-03    -545.720E-06     7.99167E+06    -4.30451E+06    -154.897E+06    -4.52202E+06    -154.680E+06     7.99167E+06     5.71066E+06         23.5152
             966     4.93181E-03     14.4252E-03         2.38759         1.38215        -4.40959         1.25889        -3.28088         1.38215     14.7207E-03     28.4995E-03    -14.0027E-03    -14.4968E-03    -14.4908E-03     28.4935E-03    -14.0027E-03    -477.274E-06     3.95383E+06    -6.39255E+06    -168.002E+06    -6.64054E+06    -167.754E+06     3.95383E+06     6.32043E+06         23.1375
             967     3.94584E-03     14.4206E-03         2.57172         1.15898        -4.40808    -91.9736E-03        -2.18500         1.59960         5.61343     28.0814E-03    -13.8929E-03    -14.1885E-03    -14.1842E-03     28.0772E-03    -13.8929E-03    -361.295E-06    -1.05500E+06    -8.68574E+06    -179.738E+06    -8.92602E+06    -179.497E+06    -1.05500E+06     6.39357E+06         22.8615
             968     2.95957E-03     14.4167E-03         3.55419     615.884E-03        -4.93386    -883.728E-03        -2.22045         2.34040         6.24529     27.7770E-03    -13.8070E-03    -13.9701E-03    -13.9676E-03     27.7746E-03    -13.8070E-03    -251.823E-06    -6.16663E+06    -11.3635E+06    -190.891E+06    -11.5471E+06    -190.707E+06    -6.16663E+06     5.64897E+06         22.6673
             969     1.97321E-03     14.4138E-03         4.78866         1.39114        -7.09136         1.19297        -5.53056         3.42604         4.85415     27.5431E-03    -13.7352E-03    -13.8079E-03    -13.8067E-03     27.5419E-03    -13.7352E-03    -137.145E-06    -11.4248E+06    -13.7567E+06    -197.589E+06    -13.8789E+06    -197.466E+06    -11.4248E+06     4.65935E+06         22.5390
             970     986.554E-06     14.4119E-03         6.41098         2.82325        -10.3104         4.37234        -9.02279         3.57425         2.16745     27.4065E-03    -13.6762E-03    -13.7303E-03    -13.7298E-03     27.4061E-03    -13.6762E-03    -73.5009E-06    -14.4249E+06    -15.3694E+06    -205.196E+06    -14.8952E+06    -205.139E+06    -14.9570E+06     2.97025E+06         22.4645
             971     16.7302E-03     13.5532E-03         1.36020     425.266E-03        -1.56105    -33.1601E-03        -1.10263         1.36020         1.47273     37.4994E-03    -16.2643E-03    -21.2351E-03    -17.7873E-03     34.0517E-03    -16.2643E-03     26.0817E-03     199.872E+06     84.4782E+06    -7.46206E+06    -7.44483E+06     199.855E+06     84.4782E+06    -606.329E+03         37.3414
             972     15.7492E-03     13.5135E-03         1.44404     403.318E-03        -2.00408     10.3829E-03        -1.61115         1.44404         1.69716     39.3558E-03    -15.6185E-03    -23.7373E-03    -19.2972E-03     34.9157E-03    -15.6185E-03     31.9052E-03     166.701E+06     7.79881E+06    -32.1156E+06    -11.0888E+06     166.686E+06    -13.2130E+06    -1.09031E+06         35.5962
             973     14.7690E-03     13.4831E-03         1.53479     419.065E-03        -2.30617     74.2779E-03        -1.96138         1.53479         1.68570     37.2064E-03    -15.2674E-03    -21.9389E-03    -19.8893E-03     35.1568E-03    -15.2674E-03     20.8312E-03     100.610E+06    -9.33350E+06    -47.0329E+06    -9.31377E+06     100.590E+06    -47.0329E+06     100.060E+03         33.8622
             974     13.7888E-03     13.4635E-03         1.61558     786.638E-03        -2.87234     651.602E-03        -2.73730         1.61558         1.06959     35.4131E-03    -15.1321E-03    -20.2811E-03    -19.6747E-03     34.8067E-03    -15.1321E-03     10.9301E-03     30.8672E+06    -7.20004E+06    -32.0076E+06    -7.13211E+06     30.7992E+06    -32.0076E+06     758.311E+03         32.1635
             975     12.8079E-03     13.4510E-03         2.65135         1.38077        -4.56931         1.93981        -4.11367         1.63667         3.03390     34.2984E-03    -14.9350E-03    -19.3633E-03    -19.2130E-03     34.1480E-03    -14.9350E-03     5.33803E-03     526.795E+03    -9.33078E+06    -25.5472E+06    -5.23775E+06    -11.6627E+06    -17.4507E+06     640.070E+03         30.5372
             976     11.8266E-03     13.4410E-03         4.08712         1.54401        -6.22884         3.44439        -5.58611         1.54401         4.77882     33.4723E-03    -14.6766E-03    -18.7958E-03    -18.7501E-03     33.4267E-03    -14.6766E-03     2.89237E-03    -3.37666E+06    -10.0132E+06    -45.8064E+06    -3.39979E+06    -45.7833E+06    -10.0132E+06     733.810E+03         29.0250
             977     10.8447E-03     13.4318E-03         4.22842         1.34971        -6.21667         3.82555        -5.81381         1.34971         4.00410     32.5697E-03    -14.4056E-03    -18.1641E-03    -18.1457E-03     32.5513E-03    -14.4056E-03     734.932E-06    -99.2508E+03    -4.50057E+06      -76.55E+06    -1.94015E+06    -76.5224E+06    -2.68722E+06     1.19021E+06         27.6631
             978     9.86213E-03     13.4249E-03         2.74212         1.17763        -4.60450         2.30403        -4.16641         1.17763         3.20934     31.5214E-03    -14.1380E-03    -17.3835E-03    -17.3681E-03     31.5061E-03    -14.1380E-03    -1.27504E-03     7.04348E+06    -963.041E+03    -97.3686E+06    -999.115E+03    -97.3325E+06     7.04348E+06     1.74981E+06         26.4761
             979     8.87870E-03     13.4188E-03         1.36402     725.316E-03        -2.81439     573.936E-03        -2.44879         1.14981         2.04737     30.4485E-03    -13.8549E-03    -16.5937E-03    -16.5643E-03     30.4192E-03    -13.8549E-03    -2.06328E-03     12.4999E+06    -701.998E+03    -111.818E+06    -751.485E+03    -111.769E+06     12.4999E+06     2.24428E+06         25.4745
             980     7.89457E-03     13.4130E-03         1.89147     743.682E-03        -3.38678         1.33441        -3.25421         1.16818     478.161E-03     29.3933E-03    -13.5725E-03    -15.8208E-03    -15.7783E-03     29.3509E-03    -13.5725E-03    -2.52413E-03     13.5967E+06    -877.821E+03    -127.224E+06    -957.723E+03    -127.145E+06     13.5967E+06     3.09713E+06         24.6548
             981     6.90963E-03     13.4078E-03         3.67989     963.963E-03        -5.41478         3.63900        -5.37389     963.963E-03     577.502E-03     28.3680E-03    -13.3123E-03    -15.0557E-03    -15.0075E-03     28.3197E-03    -13.3123E-03    -2.67399E-03     13.6036E+06    -1.46928E+06    -141.835E+06    -1.59012E+06    -141.714E+06     13.6036E+06     4.05251E+06         24.0031
             982     5.92393E-03     13.4027E-03         3.65926     528.890E-03        -4.94268         3.42027        -4.70370     528.890E-03    -45.3176E-03     27.4242E-03    -13.0745E-03    -14.3497E-03    -14.3049E-03     27.3794E-03    -13.0745E-03    -2.52308E-03     11.7390E+06    -2.26021E+06    -154.687E+06    -2.43630E+06    -154.511E+06     11.7390E+06     5.10730E+06         23.4989
             983     4.93763E-03     13.3982E-03         2.17983     174.090E-03        -3.18288         1.27163        -2.27468     174.090E-03         1.20308     26.6045E-03    -12.8643E-03    -13.7401E-03    -13.7040E-03     26.5683E-03    -12.8643E-03    -2.21877E-03     7.97454E+06    -3.28098E+06    -167.092E+06    -3.51362E+06    -166.860E+06     7.97454E+06     6.13916E+06         23.1189
             984     3.95074E-03     13.3941E-03         3.11136    -144.945E-03        -3.88823         1.48768        -2.26456    -144.945E-03         5.58835     25.9260E-03    -12.6860E-03    -13.2400E-03    -13.2147E-03     25.9007E-03    -12.6860E-03    -1.81536E-03     3.14499E+06    -5.05367E+06    -177.874E+06    -5.31876E+06    -177.609E+06     3.14499E+06     6.75669E+06         22.8406
             985     2.96347E-03     13.3907E-03         4.37738    -647.775E-03        -4.72883         2.07391        -2.23096    -842.176E-03         7.38905     25.3994E-03    -12.5444E-03    -12.8550E-03    -12.8398E-03     25.3842E-03    -12.5444E-03    -1.37506E-03    -1.75810E+06    -7.32499E+06    -187.588E+06    -7.56322E+06    -187.349E+06    -1.75810E+06     6.51721E+06         22.6444
             986     1.97578E-03     13.3880E-03         5.02941    -875.097E-03        -5.23676     665.596E-03     258.164E-03        -2.00621         5.36776     25.0059E-03    -12.4346E-03    -12.5713E-03    -12.5638E-03     24.9985E-03    -12.4346E-03    -934.130E-06    -6.33624E+06    -9.24141E+06    -193.241E+06    -9.38029E+06    -193.103E+06    -6.33624E+06     4.91645E+06         22.5146
             987     987.999E-06     13.3865E-03         8.22073        -2.61874        -6.49294        -1.81613         4.48064        -3.55545         5.72398     24.7690E-03    -12.3352E-03    -12.4338E-03    -12.4314E-03     24.7666E-03    -12.3352E-03    -499.353E-06    -9.18744E+06    -10.4229E+06    -199.593E+06    -10.1692E+06    -199.540E+06    -9.49329E+06     3.03062E+06         22.4392
             988     16.7341E-03     12.5179E-03         1.30058     493.210E-03        -1.80585     60.0434E-03        -1.37269         1.30058         1.66946     38.5135E-03    -16.1714E-03    -22.3420E-03    -18.9902E-03     35.1617E-03    -16.1714E-03     25.9887E-03     201.422E+06     86.6481E+06    -6.12234E+06    -6.10373E+06     201.403E+06     86.6481E+06     269.690E+03         37.2433
             989     15.7523E-03     12.4765E-03         1.36941     500.588E-03        -2.20686     246.416E-03        -1.95269         1.36941         1.46523     39.8515E-03    -15.4442E-03    -24.4073E-03    -20.1401E-03     35.5844E-03    -15.4442E-03     31.5589E-03     166.593E+06     9.06015E+06    -32.7324E+06    -9.84384E+06     166.575E+06    -13.8101E+06    -607.773E+03         35.5067
             990     14.7729E-03     12.4456E-03         1.69751     589.430E-03        -2.79153     729.727E-03        -2.65913         1.42481         1.17536     37.7611E-03    -15.0307E-03    -22.7304E-03    -20.9168E-03     35.9475E-03    -15.0307E-03     19.7222E-03     98.9037E+06    -9.93303E+06    -46.4556E+06    -9.91234E+06     98.8830E+06    -46.4556E+06    -273.622E+03         33.7851
             991     13.7935E-03     12.4276E-03         2.27336     982.914E-03        -3.86613         1.54238        -3.59368         1.44144         2.00759     35.9963E-03    -14.8208E-03    -21.1755E-03    -20.7151E-03     35.5359E-03    -14.8208E-03     9.49902E-03     31.9248E+06    -7.45914E+06    -27.2384E+06    -7.44015E+06     31.9058E+06    -27.2384E+06     331.272E+03         32.1013
             992     12.8137E-03     12.4158E-03         3.32047         1.29872        -5.28860         2.74657        -4.79844         1.38246         3.65493     34.7215E-03    -14.5176E-03    -20.2040E-03    -20.1187E-03     34.6363E-03    -14.5176E-03     3.95052E-03     1.28456E+06    -7.56099E+06    -23.7132E+06    -5.51533E+06    -10.7864E+06    -13.6879E+06    -456.024E+03         30.4905
             993     11.8331E-03     12.4071E-03         4.85977         1.19202        -6.77441         4.44981        -6.36444         1.19202         4.11369     33.6987E-03    -14.1524E-03    -19.5462E-03    -19.5316E-03     33.6840E-03    -14.1524E-03     1.43015E-03    -3.55462E+06    -6.40148E+06    -45.7363E+06    -3.62050E+06    -45.6704E+06    -6.40148E+06    -920.717E+03         28.9924
             994     10.8520E-03     12.3989E-03         4.61573     908.368E-03        -6.29170         4.13242        -5.80839     908.368E-03         4.18680     32.5673E-03    -13.7675E-03    -18.7998E-03    -18.7780E-03     32.5455E-03    -13.7675E-03    -1.04541E-03     1.59355E+06    -2.43998E+06    -76.9815E+06    -1.70759E+06    -76.9631E+06     842.718E+03    -529.585E+03         27.6423
             995     9.86993E-03     12.3937E-03         2.60572     690.848E-03        -4.12252         2.08820        -3.60499     690.848E-03         3.09148     31.2338E-03    -13.3809E-03    -17.8529E-03    -17.7960E-03     31.1769E-03    -13.3809E-03    -3.17767E-03     10.6607E+06    -463.397E+03    -97.5413E+06    -476.155E+03    -97.5286E+06     10.6607E+06     68.9967E+03         26.4641
             996     8.88690E-03     12.3888E-03         2.12433     319.320E-03        -3.32705         1.51670        -2.96674     566.651E-03         2.11999     29.8285E-03    -12.9804E-03    -16.8481E-03    -16.7550E-03     29.7354E-03    -12.9804E-03    -4.03422E-03     16.9354E+06     243.456E+03    -111.589E+06     228.308E+03    -111.574E+06     16.9354E+06     390.361E+03         25.4682
             997     7.90278E-03     12.3845E-03         2.45319     169.024E-03        -3.53149         1.93932        -3.26495     416.355E-03         1.87568     28.3965E-03    -12.5811E-03    -15.8154E-03    -15.6934E-03     28.2745E-03    -12.5811E-03    -4.52729E-03     18.2480E+06     878.803E+03    -127.778E+06     850.720E+03    -127.750E+06     18.2480E+06     1.06615E+06         24.6517
             998     6.91763E-03     12.3805E-03         2.76232     140.256E-03        -3.83247         2.63486        -3.70501     140.256E-03         1.16470     26.9878E-03    -12.2093E-03    -14.7785E-03    -14.6465E-03     26.8558E-03    -12.2093E-03    -4.58774E-03     18.7334E+06     1.21033E+06    -141.996E+06     1.16359E+06    -141.949E+06     18.7334E+06     2.25974E+06         24.0012
             999     5.93147E-03     12.3768E-03         3.18625    -329.624E-03        -3.81538         3.14437        -3.77350    -329.624E-03     986.647E-03     25.6651E-03    -11.8693E-03    -13.7958E-03    -13.6733E-03     25.5427E-03    -11.8693E-03    -4.29038E-03     17.2602E+06     942.783E+03    -154.835E+06     862.288E+03    -154.755E+06     17.2602E+06     3.33150E+06         23.4969
            1000     4.94435E-03     12.3732E-03         2.86413    -952.559E-03        -2.92356         2.36199        -2.42141    -952.559E-03         2.21401     24.4842E-03    -11.5637E-03    -12.9205E-03    -12.8211E-03     24.3848E-03    -11.5637E-03    -3.75367E-03     13.1036E+06     382.175E+03    -166.984E+06     228.917E+03    -166.831E+06     13.1036E+06     4.89509E+06         23.1161
            1001     3.95648E-03     12.3701E-03         3.26423        -1.16690        -3.23886         1.89150        -1.29209        -1.74094         3.83334     23.4892E-03    -11.3069E-03    -12.1822E-03    -12.1111E-03     23.4180E-03    -11.3069E-03    -3.08614E-03     9.10969E+06    -328.468E+03    -176.320E+06    -550.670E+03    -176.098E+06     9.10969E+06     6.19272E+06         22.8368
            1002     2.96790E-03     12.3673E-03         4.13005        -1.41605        -3.92438         1.67059     90.6810E-03        -2.97166         3.69087     22.6998E-03    -11.1029E-03    -11.5969E-03    -11.5530E-03     22.6559E-03    -11.1029E-03    -2.35763E-03     5.43685E+06    -1.16687E+06    -184.032E+06    -1.36414E+06    -183.835E+06     5.43685E+06     5.89378E+06         22.6397
            1003     1.97892E-03     12.3653E-03         6.73858        -2.51610        -5.42931        -1.68290         4.91044        -4.43437        -1.10814     22.1189E-03    -10.9432E-03    -11.1757E-03    -11.1542E-03     22.0974E-03    -10.9432E-03    -1.60308E-03     1.31412E+06    -2.17236E+06    -188.705E+06    -2.29354E+06    -188.584E+06     1.31412E+06     4.66523E+06         22.5092
            1004     989.535E-06     12.3638E-03         9.80357        -3.50309        -7.48979        -5.80198         9.05248        -4.43980        -2.21223     21.7343E-03    -10.7993E-03    -10.9350E-03    -10.9279E-03     21.7272E-03    -10.7993E-03    -869.007E-06    -2.33367E+06    -3.80645E+06    -194.022E+06    -3.55582E+06    -193.967E+06    -2.63952E+06     3.06957E+06         22.4335
            1005     16.7342E-03     11.4809E-03         1.19025     289.188E-03        -2.11243    -204.061E-03        -1.61919         1.19025         1.85132     39.8006E-03    -16.0848E-03    -23.7158E-03    -20.3086E-03     36.3934E-03    -16.0848E-03     26.6818E-03     201.128E+06     88.0726E+06    -7.26794E+06    -7.26080E+06     201.121E+06     88.0726E+06     272.224E+03         37.1414
            1006     15.7557E-03     11.4389E-03         1.71290     476.877E-03        -2.88082     674.133E-03        -2.60919         1.24402         1.71985     40.9198E-03    -15.2775E-03    -25.6423E-03    -21.2949E-03     36.5724E-03    -15.2775E-03     32.4361E-03     168.278E+06     11.9264E+06    -32.2124E+06    -9.38873E+06     168.273E+06    -10.8917E+06     713.859E+03         35.4148
            1007     14.7766E-03     11.4081E-03         2.80731     994.148E-03        -4.58234         2.39244        -4.39006         1.21674         2.27890     38.3877E-03    -14.7741E-03    -23.6136E-03    -21.8393E-03     36.6134E-03    -14.7741E-03     19.6076E-03     99.0978E+06    -7.36284E+06    -45.2745E+06    -7.33529E+06     99.0702E+06    -45.2745E+06    -738.762E+03         33.7071
            1008     13.7984E-03     11.3903E-03         3.61401         1.10511        -5.51377         2.99080        -4.89056         1.10511         4.30515     36.5506E-03    -14.4887E-03    -22.0618E-03    -21.6780E-03     36.1667E-03    -14.4887E-03     8.50458E-03     31.9956E+06    -4.44119E+06    -24.1838E+06    -4.39448E+06     31.9489E+06    -24.1838E+06    -856.935E+03         32.0400
            1009     12.8194E-03     11.3807E-03         3.28796     972.479E-03        -5.08829         2.56994        -4.37027     972.479E-03         4.55963     35.1785E-03    -14.0994E-03    -21.0791E-03    -21.0325E-03     35.1319E-03    -14.0994E-03     2.94186E-03     3.75381E+06    -3.35086E+06    -20.1042E+06    -2.71598E+06    -8.98537E+06    -7.99994E+06    -1.08296E+06         30.4469
            1010     11.8398E-03     11.3726E-03         2.95446     832.173E-03        -4.63645         2.66768        -4.34967     832.173E-03         2.64358     34.0023E-03    -13.6287E-03    -20.3736E-03    -20.3650E-03     33.9937E-03    -13.6287E-03     413.385E-06     18.0926E+03    -2.36781E+06    -45.1670E+06    -1.83965E+06    -44.9934E+06    -683.720E+03    -2.51554E+06         28.9655
            1011     10.8595E-03     11.3663E-03         3.59362     640.763E-03        -5.13814         3.15741        -4.70192     640.763E-03         3.50587     32.6361E-03    -13.1276E-03    -19.5085E-03    -19.4634E-03     32.5910E-03    -13.1276E-03    -2.46400E-03     6.57294E+06    -220.022E+03    -77.4944E+06    -347.457E+03    -77.3619E+06     6.56786E+06    -2.78165E+06         27.6300
            1012     9.87801E-03     11.3626E-03         4.03394     362.959E-03        -5.36954         3.64799        -4.98359     362.959E-03         3.11194     30.9949E-03    -12.6137E-03    -18.3812E-03    -18.2696E-03     30.8832E-03    -12.6137E-03    -4.61331E-03     16.0112E+06     1.70990E+06    -97.7383E+06     1.59656E+06    -97.6250E+06     16.0112E+06    -2.77454E+06         26.4635
            1013     8.89533E-03     11.3595E-03         4.21263    -26.0598E-03        -5.21350         4.03816        -5.03902    -26.0598E-03         2.25078     29.2461E-03    -12.0907E-03    -17.1554E-03    -16.9857E-03     29.0764E-03    -12.0907E-03    -5.53356E-03     23.2801E+06     3.62743E+06    -111.649E+06     3.50748E+06    -111.529E+06     23.2801E+06    -2.98882E+06         25.4763
            1014     7.91134E-03     11.3571E-03         2.95236    -446.288E-03        -3.56947         2.66969        -3.28680    -446.288E-03         2.54635     27.4193E-03    -11.5709E-03    -15.8484E-03    -15.6337E-03     27.2046E-03    -11.5709E-03    -6.03685E-03     24.9475E+06     5.09352E+06    -129.091E+06     5.02774E+06    -129.025E+06     24.9475E+06    -2.18659E+06         24.6656
            1015     6.92595E-03     11.3549E-03         1.32930    -737.805E-03        -1.68692     607.091E-03    -964.712E-03    -737.805E-03     335.580E-03     25.5951E-03    -11.0816E-03    -14.5135E-03    -14.2879E-03     25.3695E-03    -11.0816E-03    -5.96471E-03     25.3608E+06     6.00433E+06    -142.836E+06     5.97678E+06    -142.808E+06     25.3608E+06    -632.032E+03         24.0189
            1016     5.93926E-03     11.3528E-03         2.34392        -1.06944        -2.43400         1.74829        -1.83837        -1.06944    -521.699E-03     23.8914E-03    -10.6430E-03    -13.2484E-03    -13.0388E-03     23.6818E-03    -10.6430E-03    -5.52791E-03     25.4640E+06     6.01320E+06    -155.565E+06     5.99199E+06    -155.544E+06     25.4640E+06     1.01067E+06         23.5167
            1017     4.95136E-03     11.3507E-03         3.65797        -1.77825        -3.07365         2.96257        -2.37825        -1.77825         2.52786     22.3387E-03    -10.2455E-03    -12.0932E-03    -11.9221E-03     22.1676E-03    -10.2455E-03    -4.80037E-03     21.9906E+06     5.43854E+06    -167.507E+06     5.38298E+06    -167.452E+06     21.9906E+06     2.53913E+06         23.1372
            1018     3.96240E-03     11.3487E-03         4.33001        -1.94169        -3.63951    -406.806E-03         1.67135        -2.51573         2.14977     21.0021E-03    -9.90415E-03    -11.0980E-03    -10.9765E-03     20.8807E-03    -9.90415E-03    -3.89873E-03     18.0037E+06     5.65371E+06    -174.951E+06     5.56583E+06    -174.863E+06     18.0037E+06     3.34231E+06         22.8587
            1019     2.97262E-03     11.3470E-03         4.98490        -1.26641        -5.11033        -3.53499         4.77077        -2.62762        -1.68022     19.9489E-03    -9.63518E-03    -10.3137E-03    -10.2393E-03     19.8745E-03    -9.63518E-03    -2.94629E-03     14.9522E+06     6.49501E+06    -181.332E+06     6.41551E+06    -181.252E+06     14.9522E+06     3.44589E+06         22.6622
            1020     1.98210E-03     11.3455E-03         5.33797        -1.35373        -5.41646        -3.47294         4.18160        -2.14090        -3.46374     19.1688E-03    -9.42924E-03    -9.73960E-03    -9.70360E-03     19.1328E-03    -9.42924E-03    -1.97474E-03     11.0654E+06     6.83173E+06    -185.742E+06     6.76652E+06    -185.677E+06     11.0654E+06     3.30840E+06         22.5323
            1021     991.217E-06     11.3446E-03         4.91958        -1.34244        -5.21302        -2.26507         1.97163        -1.34244        -5.30236     18.6726E-03    -9.26953E-03    -9.40308E-03    -9.39111E-03     18.6606E-03    -9.26953E-03    -1.07634E-03     8.29357E+06     6.84643E+06    -188.487E+06     6.92841E+06    -188.443E+06     8.16830E+06     2.70230E+06         22.4573
            1022     16.7360E-03     10.4418E-03         1.76901     607.415E-03        -3.65640         1.05080        -3.38776         1.05699         1.72065     40.6872E-03    -15.9982E-03    -24.6891E-03    -21.4003E-03     37.3985E-03    -15.9982E-03     26.4921E-03     200.004E+06     86.7751E+06    -7.92195E+06    -7.92027E+06     200.003E+06     86.7751E+06     247.810E+03         37.0433
            1023     15.7575E-03     10.4002E-03         2.70580     699.298E-03        -4.57517         2.21824        -4.40102         1.01271         1.60466     41.7474E-03    -15.1352E-03    -26.6122E-03    -22.3563E-03     37.4915E-03    -15.1352E-03     32.5921E-03     170.278E+06     10.8797E+06    -28.7890E+06    -9.86505E+06     170.268E+06    -8.03390E+06    -330.927E+03         35.3275
            1024     14.7804E-03     10.3695E-03         3.07441     901.694E-03        -5.05117         2.86286        -4.83962     901.694E-03         2.48336     39.0925E-03    -14.5617E-03    -24.5308E-03    -22.7919E-03     37.3536E-03    -14.5617E-03     19.6381E-03     101.410E+06    -7.17487E+06    -40.7045E+06    -7.10553E+06     101.341E+06    -40.7045E+06    -1.90098E+06         33.6355
            1025     13.8028E-03     10.3527E-03         3.26259     757.874E-03        -5.06545         2.82347        -4.62634     757.874E-03         2.43668     37.0468E-03    -14.1909E-03    -22.8559E-03    -22.5057E-03     36.6966E-03    -14.1909E-03     7.98128E-03     31.0533E+06    -4.57417E+06    -21.6803E+06    -4.36011E+06     30.8393E+06    -21.6803E+06    -2.18431E+06         31.9870
            1026     12.8246E-03     10.3447E-03         3.16573     605.736E-03        -4.75565         2.60279        -4.19272     605.736E-03         2.81886     35.6366E-03    -13.7223E-03    -21.9143E-03    -21.8852E-03     35.6075E-03    -13.7223E-03     2.39226E-03     5.95387E+06    -2.09823E+06    -15.9789E+06    -2.20361E+06    -7.19173E+06    -2.72795E+06    -2.34826E+06         30.4137
            1027     11.8459E-03     10.3378E-03         1.97297     492.558E-03        -3.45598         1.34327        -2.82627     492.558E-03         3.17116     34.3099E-03    -13.1589E-03    -21.1510E-03    -21.1396E-03     34.2985E-03    -13.1589E-03    -176.118E-06     6.55195E+06     283.417E+03    -43.5331E+06    -228.518E+03    -43.0080E+06     6.53878E+06    -4.30147E+06         28.9519
            1028     10.8663E-03     10.3335E-03         3.01110     363.719E-03        -4.41245         2.41038        -3.81173     363.719E-03         3.51603     32.6826E-03    -12.5509E-03    -20.1317E-03    -20.0667E-03     32.6176E-03    -12.5509E-03    -3.30255E-03     13.6247E+06     2.66757E+06    -77.5668E+06     2.13869E+06    -77.0379E+06     13.6247E+06    -6.12190E+06         27.6339
            1029     9.88543E-03     10.3319E-03         5.42166     17.5134E-03        -6.53658         5.11509        -6.23001     17.5134E-03         3.52595     30.7502E-03    -11.9222E-03    -18.8280E-03    -18.6810E-03     30.6032E-03    -11.9222E-03    -5.34807E-03     22.5045E+06     5.86104E+06    -97.7693E+06     5.28738E+06    -97.1956E+06     22.5045E+06    -7.24308E+06         26.4821
            1030     8.90307E-03     10.3309E-03         4.43821    -501.185E-03        -5.10095         4.30024        -4.96298    -501.185E-03         2.23157     28.6552E-03    -11.2945E-03    -17.3607E-03    -17.1451E-03     28.4397E-03    -11.2945E-03    -6.24549E-03     30.2889E+06     8.29704E+06    -113.041E+06     7.81074E+06    -112.555E+06     30.2889E+06    -7.31924E+06         25.5066
            1031     7.91913E-03     10.3308E-03         2.48389    -974.808E-03        -2.72674         2.37316        -2.61600    -974.808E-03     793.892E-03     26.4753E-03    -10.6767E-03    -15.7987E-03    -15.5341E-03     26.2107E-03    -10.6767E-03    -6.65995E-03     32.8698E+06     9.56865E+06    -130.973E+06     9.24618E+06    -130.650E+06     32.8698E+06     -6.3047E+06         24.7050
            1032     6.93351E-03     10.3308E-03         2.26297        -1.39760        -2.12803         1.61763        -1.48269        -1.39760    -426.075E-03     24.2925E-03    -10.0913E-03    -14.2012E-03    -13.9330E-03     24.0243E-03    -10.0913E-03    -6.40325E-03     33.4828E+06     10.7582E+06    -144.887E+06     10.5619E+06    -144.690E+06     33.4828E+06    -4.84754E+06         24.0649
            1033     5.94629E-03     10.3306E-03         3.32220        -1.78000        -2.82822     240.465E-03     253.516E-03        -1.78000        -1.10876     22.2654E-03    -9.57261E-03    -12.6928E-03    -12.4478E-03     22.0204E-03    -9.57261E-03    -5.83216E-03     35.4257E+06     11.6775E+06    -157.564E+06     11.5936E+06    -157.481E+06     35.4257E+06    -2.61829E+06         23.5678
            1034     4.95767E-03     10.3304E-03         4.32253        -2.04828        -3.62587        -1.04436         1.74102        -2.04828         1.16607     20.4118E-03    -9.10409E-03    -11.3077E-03    -11.1100E-03     20.2141E-03    -9.10409E-03    -4.98426E-03     34.1349E+06     12.1258E+06    -167.570E+06     12.0795E+06    -167.524E+06     34.1349E+06    -1.47268E+06         23.1922
            1035     3.96774E-03     10.3299E-03         4.68157        -2.07995        -4.00154        -2.62889         3.30893        -2.07995         2.06899     18.7966E-03    -8.69047E-03    -10.1061E-03    -9.97031E-03     18.6608E-03    -8.69047E-03    -3.93758E-03     28.9032E+06     12.8359E+06    -174.811E+06     12.7923E+06    -174.768E+06     28.9032E+06    -1.31535E+06         22.9169
            1036     2.97671E-03     10.3293E-03         4.86571        -1.52840        -4.84753        -4.42424         4.44241        -1.52840    -409.657E-03     17.5292E-03    -8.36206E-03    -9.16717E-03    -9.08542E-03     17.4475E-03    -8.36206E-03    -2.92310E-03     24.1237E+06     13.7635E+06    -181.122E+06     13.7372E+06    -181.096E+06     24.1237E+06    -239.996E+03         22.7230
            1037     1.98495E-03     10.3288E-03         2.96334    -739.343E-03        -3.93320        -1.96336     993.501E-03    -739.343E-03     115.342E-03     16.5954E-03    -8.11630E-03    -8.47913E-03    -8.43945E-03     16.5557E-03    -8.11630E-03    -1.94759E-03     20.0199E+06     14.3528E+06    -184.345E+06     14.3372E+06    -184.329E+06     20.0199E+06     422.291E+03         22.5953
            1038     992.566E-06     10.3283E-03         3.67368        -1.60428        -3.68433         1.12122    -748.954E-03        -1.98721         1.87925     16.0029E-03    -7.93601E-03    -8.06685E-03    -8.05357E-03     15.9896E-03    -7.93601E-03    -1.05717E-03     17.3839E+06     14.7040E+06    -185.648E+06     14.8130E+06    -185.631E+06     17.2586E+06     380.399E+03         22.5217
            1039     16.7377E-03     9.40322E-03         2.94427     919.153E-03        -5.68759         2.82308        -5.56640     919.153E-03         1.05776     41.7005E-03    -15.9241E-03    -25.7764E-03    -22.4867E-03     38.4108E-03    -15.9241E-03     26.3086E-03     200.569E+06     87.8701E+06    -6.76121E+06    -6.75912E+06     200.567E+06     87.8701E+06     123.072E+03         36.9618
            1040     15.7600E-03     9.36033E-03         2.91931     795.587E-03        -5.24208         2.83284        -5.15561     795.587E-03    -274.353E-03     42.3820E-03    -15.0046E-03    -27.3774E-03    -23.0526E-03     38.0572E-03    -15.0046E-03     33.1216E-03     171.752E+06     11.2149E+06    -26.4310E+06    -8.97504E+06     171.737E+06    -6.22527E+06    -1.24986E+06         35.2578
            1041     14.7830E-03     9.33029E-03         1.94041     694.161E-03        -4.01030         1.73702        -3.80691     694.161E-03    -364.848E-03     39.5695E-03    -14.4016E-03    -25.1679E-03    -23.4785E-03     37.8801E-03    -14.4016E-03     19.4825E-03     103.110E+06    -8.48709E+06    -34.5838E+06    -8.41005E+06     103.033E+06    -34.5838E+06    -2.46789E+06         33.5825
            1042     13.8063E-03     9.31473E-03         2.46286     600.529E-03        -4.31583         2.23497        -4.08795     600.529E-03        -1.48748     37.4233E-03    -13.9670E-03    -23.4563E-03    -23.1313E-03     37.0983E-03    -13.9670E-03     7.70164E-03     32.7758E+06    -7.31153E+06    -16.4387E+06    -6.14912E+06     31.6041E+06    -16.4294E+06    -4.09062E+06         31.9542
            1043     12.8289E-03     9.30812E-03         3.84013     426.943E-03        -5.44968         3.45073        -5.06027     426.943E-03         1.07683     35.9427E-03    -13.4212E-03    -22.5215E-03    -22.4959E-03     35.9171E-03    -13.4212E-03     2.30227E-03     10.1610E+06    -2.18327E+06    -14.9100E+06    -2.22925E+06    -5.98720E+06     1.28418E+06    -6.16380E+06         30.4028
            1044     11.8508E-03     9.30275E-03         3.88324     185.460E-03        -5.19688         3.22729        -4.54093     185.460E-03         4.00738     34.4150E-03    -12.8005E-03    -21.6145E-03    -21.6023E-03     34.4028E-03    -12.8005E-03    -196.696E-06     14.0215E+06     3.66292E+06    -42.6188E+06     1.89773E+06    -40.8536E+06     14.0215E+06    -7.90061E+06         28.9627
            1045     10.8717E-03     9.30071E-03         2.99281    -58.2450E-03        -4.08937         2.54923        -3.64579    -58.2450E-03         2.61563     32.5394E-03    -12.1237E-03    -20.4157E-03    -20.3556E-03     32.4793E-03    -12.1237E-03    -3.21999E-03     21.1770E+06     6.47947E+06    -76.6503E+06     5.07853E+06    -75.2494E+06     21.1770E+06    -10.4579E+06         27.6649
            1046     9.89108E-03     9.30136E-03         3.01553    -335.489E-03        -3.90310         2.88013        -3.76770    -335.489E-03         1.89856     30.3646E-03    -11.4308E-03    -18.9338E-03    -18.8052E-03     30.2360E-03    -11.4308E-03    -4.97045E-03     29.6291E+06     9.42137E+06    -98.5352E+06     7.90071E+06    -97.0145E+06     29.6291E+06    -12.4611E+06         26.5308
            1047     8.90880E-03     9.30304E-03         3.24345    -704.137E-03        -3.82801         3.08505        -3.66961    -704.137E-03         2.05423     28.0211E-03    -10.7477E-03    -17.2734E-03    -17.0926E-03     27.8403E-03    -10.7477E-03    -5.64347E-03     37.6261E+06     11.6607E+06    -115.993E+06     10.3989E+06    -114.731E+06     37.6261E+06    -12.2620E+06         25.5701
            1048     7.92467E-03     9.30541E-03         3.24874        -1.17787        -3.44002         3.08236        -3.27364        -1.17787     189.501E-03     25.6341E-03    -10.0802E-03    -15.5539E-03    -15.3401E-03     25.4203E-03    -10.0802E-03    -5.86690E-03     41.6170E+06     13.3177E+06    -133.311E+06     12.3704E+06    -132.364E+06     41.6170E+06    -11.4126E+06         24.7807
            1049     6.93877E-03     9.30799E-03         2.81117        -1.28903        -2.90103         2.47453        -2.11118        -1.74224    -543.202E-03     23.2723E-03    -9.44649E-03    -13.8258E-03    -13.6186E-03     23.0651E-03    -9.44649E-03    -5.47453E-03     42.8963E+06     14.7874E+06    -148.112E+06     14.0622E+06    -147.387E+06     42.8963E+06    -10.3886E+06         24.1506
            1050     5.95114E-03     9.31008E-03         4.15718        -1.60694        -3.94605        -1.84440         2.50874        -2.06015        -1.27804     21.0428E-03    -8.87408E-03    -12.1687E-03    -11.9884E-03     20.8625E-03    -8.87408E-03    -4.81830E-03     43.8534E+06     16.3696E+06    -160.875E+06     15.8814E+06    -160.387E+06     43.8534E+06    -8.55076E+06         23.6619
            1051     4.96189E-03     9.31193E-03         5.61543        -1.73400        -5.35583        -5.19030         5.44989        -1.73400        -1.92146     19.0359E-03    -8.36021E-03    -10.6757E-03    -10.5361E-03     18.8963E-03    -8.36021E-03    -3.99348E-03     42.3996E+06     17.5324E+06    -168.902E+06     17.2292E+06    -168.599E+06     42.3996E+06    -6.88889E+06         23.2934
            1052     3.97124E-03     9.31318E-03         4.08496        -1.29462        -4.37455        -2.05894         1.76935        -1.29462         1.41796     17.3178E-03    -7.90883E-03    -9.40899E-03    -9.31632E-03     17.2252E-03    -7.90883E-03    -3.07513E-03     36.5172E+06     17.0009E+06    -176.774E+06     16.8238E+06    -176.597E+06     36.5172E+06    -5.53661E+06         23.0238
            1053     2.97948E-03     9.31396E-03         3.57202        -1.57918        -3.57343     701.699E-03    -703.111E-03        -1.57918         4.00744     15.9245E-03    -7.53297E-03    -8.39151E-03    -8.33699E-03     15.8700E-03    -7.53297E-03    -2.23960E-03     28.7143E+06     15.6527E+06    -183.064E+06     15.5440E+06    -182.955E+06     28.7143E+06    -4.17193E+06         22.8343
            1054     1.98681E-03     9.31433E-03         5.09191        -2.14575        -4.56969        -1.39681         1.91903        -2.14575         1.28304     14.8845E-03    -7.24576E-03    -7.63871E-03    -7.61234E-03     14.8581E-03    -7.24576E-03    -1.47317E-03     22.1898E+06     15.1865E+06    -185.048E+06     15.1261E+06    -184.988E+06     22.1898E+06    -2.86975E+06         22.7097
            1055     993.651E-06     9.31459E-03         5.92850        -2.01471        -5.58583        -2.90796         2.99409        -1.75817         2.70453     14.2157E-03    -7.04414E-03    -7.17154E-03    -7.16307E-03     14.2072E-03    -7.04414E-03    -766.877E-06     17.4634E+06     13.8722E+06    -187.066E+06     14.4295E+06    -187.047E+06     16.8871E+06    -1.85117E+06         22.6377
            1056     16.7386E-03     8.36357E-03         3.04520     843.014E-03        -5.91946         2.95738        -5.83165     843.014E-03    -658.764E-03     42.8745E-03    -15.9219E-03    -26.9526E-03    -23.5546E-03     39.4766E-03    -15.9219E-03     26.2798E-03     201.883E+06     93.0393E+06    -6.88814E+06    -6.88453E+06     201.879E+06     93.0393E+06    -440.108E+03         36.9139
            1057     15.7614E-03     8.32010E-03         2.11070     743.199E-03        -4.59198         1.99447        -4.47576     743.199E-03        -1.52987     43.2756E-03    -14.9444E-03    -28.3312E-03    -23.7660E-03     38.7103E-03    -14.9444E-03     34.3787E-03     172.694E+06     15.0234E+06    -26.4494E+06    -9.66664E+06     172.679E+06    -1.74421E+06    -1.54008E+06         35.2229
            1058     14.7854E-03     8.29059E-03         2.41311     652.673E-03        -4.64282         2.24806        -4.47776     652.673E-03        -1.73564     39.9466E-03    -14.2970E-03    -25.6496E-03    -23.9427E-03     38.2397E-03    -14.2970E-03     19.7153E-03     105.065E+06    -8.37046E+06    -29.7102E+06    -8.19645E+06     104.891E+06    -29.7102E+06    -3.16586E+06         33.5658
            1059     13.8087E-03     8.27646E-03         3.41409     504.509E-03        -5.37280         3.19853        -5.15724     504.509E-03    -975.966E-03     37.5586E-03    -13.8291E-03    -23.7294E-03    -23.3990E-03     37.2281E-03    -13.8291E-03     7.89269E-03     38.7086E+06    -5.63057E+06    -12.0235E+06    -4.51552E+06     35.7727E+06    -10.2027E+06    -7.39840E+06         31.9591
            1060     12.8317E-03     8.27121E-03         3.83924     286.750E-03        -5.47909         3.47874        -5.11860     286.750E-03         2.05280     35.8335E-03    -13.2549E-03    -22.5786E-03    -22.5395E-03     35.7944E-03    -13.2549E-03     2.91360E-03     16.6576E+06     1.59243E+06    -17.3754E+06    -198.116E+03    -4.77785E+06     5.85060E+06    -11.4502E+06         30.4308
            1061     11.8535E-03     8.26789E-03         4.60931    -14.9882E-03        -5.89163         4.33279        -5.61511    -14.9882E-03         2.67093     34.0892E-03    -12.6361E-03    -21.4531E-03    -21.4363E-03     34.0724E-03    -12.6361E-03     812.202E-06     20.5465E+06     7.88037E+06    -44.1776E+06     3.75212E+06    -40.0494E+06     20.5465E+06    -12.9473E+06         29.0139
            1062     10.8742E-03     8.26807E-03         3.17810    -346.313E-03        -4.10576         3.01666        -3.94432    -346.313E-03         1.41661     32.0081E-03    -11.9671E-03    -20.0410E-03    -20.0131E-03     31.9802E-03    -11.9671E-03    -1.81865E-03     28.3905E+06     9.42932E+06    -75.7796E+06     6.62352E+06    -72.9737E+06     28.3905E+06    -14.9809E+06         27.7381
            1063     9.89326E-03     8.27147E-03         1.20788    -552.940E-03        -1.98952     559.843E-03        -1.34148    -552.940E-03     74.3005E-03     29.6934E-03    -11.2974E-03    -18.3960E-03    -18.3403E-03     29.6377E-03    -11.2974E-03    -2.89480E-03     36.3487E+06     11.5974E+06    -99.8351E+06     8.71786E+06    -96.9556E+06     36.3487E+06    -17.5106E+06         26.6241
            1064     8.91057E-03     8.27568E-03         3.01538    -782.645E-03        -3.66166         2.38401        -3.03029    -782.645E-03     627.087E-03     27.3936E-03    -10.6428E-03    -16.7507E-03    -16.6791E-03     27.3219E-03    -10.6428E-03    -2.98985E-03     43.5135E+06     13.8253E+06    -119.626E+06     11.1193E+06    -116.920E+06     43.5135E+06    -18.4726E+06         25.6811
            1065     7.92617E-03     8.28087E-03         3.53199    -996.809E-03        -3.98846         3.37396        -3.58279        -1.24444     844.278E-03     25.1562E-03    -10.0006E-03    -15.1556E-03    -15.0749E-03     25.0755E-03    -10.0006E-03    -2.92175E-03     47.9712E+06     16.3043E+06    -136.997E+06     14.0286E+06    -134.722E+06     47.9712E+06    -18.1319E+06         24.9071
            1066     6.94003E-03     8.28581E-03         2.58746    -922.670E-03        -3.15914    -343.268E-03     472.440E-03        -1.62352    -559.278E-03     22.9358E-03    -9.38676E-03    -13.5490E-03    -13.4743E-03     22.8610E-03    -9.38676E-03    -2.62196E-03     50.6026E+06     18.1959E+06    -152.729E+06     16.4079E+06    -150.941E+06     50.6026E+06    -16.9991E+06         24.2905
            1067     5.95217E-03     8.29052E-03         3.36885        -1.14306        -3.73972        -3.05039         3.13273        -1.59627        -1.43551     20.7573E-03    -8.80231E-03    -11.9550E-03    -11.8936E-03     20.6959E-03    -8.80231E-03    -2.22511E-03     48.3307E+06     18.5468E+06    -165.837E+06     17.2930E+06    -164.584E+06     48.3307E+06    -14.8287E+06         23.8136
            1068     4.96270E-03     8.29431E-03         3.31560        -1.24006        -3.63717        -3.30897         3.02219        -1.27486        -2.28408     18.7781E-03    -8.26477E-03    -10.5134E-03    -10.4687E-03     18.7335E-03    -8.26477E-03    -1.74211E-03     42.5835E+06     17.5507E+06    -173.622E+06     16.7833E+06    -172.855E+06     42.5835E+06    -11.7907E+06         23.4552
            1069     3.97195E-03     8.29741E-03         3.18604    -993.568E-03        -3.82826        -1.38289     775.467E-03        -1.02836        -1.19282     17.0916E-03    -7.80182E-03    -9.28976E-03    -9.26101E-03     17.0628E-03    -7.80182E-03    -1.27884E-03     36.6540E+06     15.7984E+06    -180.556E+06     15.3561E+06    -180.114E+06     36.6540E+06    -9.05034E+06         23.1934
            1070     2.98008E-03     8.29957E-03         3.27920        -1.46378        -3.46603         1.41109        -1.59792        -1.46378     990.351E-03     15.6706E-03    -7.40268E-03    -8.26791E-03    -8.25160E-03     15.6543E-03    -7.40268E-03    -871.358E-06     27.6370E+06     13.6281E+06    -186.103E+06     13.3410E+06    -185.816E+06     27.6370E+06    -7.40153E+06         23.0094
            1071     1.98729E-03     8.30115E-03         4.54777        -2.11998        -3.94174        -1.01621         1.75676        -2.25449    -660.973E-03     14.5771E-03    -7.08879E-03    -7.48830E-03    -7.48063E-03     14.5694E-03    -7.08879E-03    -550.561E-06     18.0405E+06     11.8035E+06    -189.189E+06     11.6502E+06    -189.035E+06     18.0405E+06    -5.25984E+06         22.8883
            1072     993.739E-06     8.30196E-03         5.41892        -1.40690        -5.74610        -4.23094         3.39881    -901.951E-03        -4.19008     13.8783E-03    -6.87430E-03    -7.00396E-03    -7.00174E-03     13.8760E-03    -6.87430E-03    -244.281E-06     12.6677E+06     10.1791E+06    -190.971E+06     10.7166E+06    -190.932E+06     12.0914E+06    -2.24017E+06         22.8183
            1073     16.7374E-03     7.32306E-03         2.29646     587.317E-03        -4.83124         1.94944        -4.73553     838.620E-03    -470.714E-03     44.1602E-03    -16.0163E-03    -28.1439E-03    -24.4767E-03     40.4930E-03    -16.0163E-03     26.6515E-03     203.228E+06     97.4800E+06    -7.45389E+06    -7.44888E+06     203.223E+06     97.4800E+06    -544.404E+03         36.9231
            1074     15.7616E-03     7.27867E-03         2.91138     741.648E-03        -5.47874         2.82710        -5.39446     741.648E-03    -30.0443E-03     44.4583E-03    -14.9952E-03    -29.4631E-03    -24.4675E-03     39.4628E-03    -14.9952E-03     36.3828E-03     173.756E+06     18.0926E+06    -26.6674E+06    -10.9920E+06     173.717E+06     2.45551E+06    -2.25721E+06         35.2463
            1075     14.7857E-03     7.25087E-03         3.90092     565.858E-03        -6.16938         3.87980        -6.14826     565.858E-03    -369.646E-03     40.3862E-03    -14.2883E-03    -26.0979E-03    -24.2613E-03     38.5496E-03    -14.2883E-03     20.7722E-03     109.207E+06    -9.36447E+06    -30.1658E+06    -8.87506E+06     108.717E+06    -30.1658E+06    -5.63781E+06         33.6087
            1076     13.8094E-03     7.23785E-03         3.64761     339.595E-03        -5.60457         3.57864        -5.53561     339.595E-03     594.349E-03     37.3034E-03    -13.8233E-03    -23.4801E-03    -23.0687E-03     36.8920E-03    -13.8233E-03     9.01720E-03     46.4169E+06    -4.42699E+06    -14.2169E+06    -4.43079E+06     41.7950E+06    -9.59119E+06    -11.5733E+06         32.0241
            1077     12.8316E-03     7.23514E-03         2.69859     131.379E-03        -4.35040         2.55955        -4.21135     131.379E-03         1.70978     35.1228E-03    -13.3092E-03    -21.8135E-03    -21.6992E-03     35.0085E-03    -13.3092E-03     4.82623E-03     20.9413E+06     4.86821E+06    -21.4412E+06    -264.833E+03    -3.22322E+06     7.85632E+06    -16.3997E+06         30.5193
            1078     11.8526E-03     7.23338E-03         2.49428    -60.5936E-03        -3.87839         2.33470        -3.71881    -60.5936E-03     398.109E-03     33.1778E-03    -12.7790E-03    -20.3987E-03    -20.3108E-03     33.0899E-03    -12.7790E-03     3.58170E-03     22.5480E+06     10.8398E+06    -47.6708E+06     3.45377E+06    -40.2848E+06     22.5480E+06    -18.4007E+06         29.1262
            1079     10.8722E-03     7.23640E-03         2.85149    -293.524E-03        -3.97892         2.65719        -3.78463    -293.524E-03     186.163E-03     30.9784E-03    -12.2333E-03    -18.7451E-03    -18.6971E-03     30.9304E-03    -12.2333E-03     1.70643E-03     31.4528E+06     12.1437E+06    -76.5838E+06     7.00794E+06    -71.4480E+06     31.4528E+06    -20.3623E+06         27.8734
            1080     9.88999E-03     7.24234E-03         2.88673    -563.943E-03        -3.77141         2.17548        -3.06016    -563.943E-03        -1.04992     28.9470E-03    -11.7119E-03    -17.2352E-03    -17.1595E-03     28.8714E-03    -11.7119E-03     1.81131E-03     39.5066E+06     14.6502E+06    -101.600E+06     9.86058E+06    -96.8101E+06     39.5066E+06    -22.9123E+06         26.7811
            1081     8.90616E-03     7.24899E-03         3.42254    -809.973E-03        -4.12362         1.16479        -1.86587    -809.973E-03        -2.39458     27.2700E-03    -11.1984E-03    -16.0717E-03    -15.9786E-03     27.1770E-03    -11.1984E-03     2.25266E-03     45.4970E+06     16.3873E+06    -123.187E+06     11.7864E+06    -118.586E+06     45.4970E+06    -24.7611E+06         25.8582
            1082     7.92116E-03     7.25625E-03         2.46077    -742.344E-03        -3.28382     119.673E-03    -695.088E-03    -989.979E-03    -171.699E-03     25.6273E-03    -10.6728E-03    -14.9545E-03    -14.8639E-03     25.5367E-03    -10.6728E-03     2.29261E-03     48.7649E+06     17.6060E+06    -142.177E+06     13.4633E+06    -138.034E+06     48.7649E+06    -25.1714E+06         25.1026
            1083     6.93506E-03     7.26345E-03         1.81912    -780.257E-03        -2.61947        -1.52524     972.523E-03        -1.02789     18.0060E-03     23.9083E-03    -10.1507E-03    -13.7576E-03    -13.6741E-03     23.8248E-03    -10.1507E-03     2.20850E-03     51.0617E+06     17.5797E+06    -159.632E+06     14.3781E+06    -156.430E+06     51.0617E+06    -23.2901E+06         24.5027
            1084     5.94766E-03     7.27038E-03         1.65954    -969.671E-03        -2.30986        -1.29556     645.240E-03    -969.671E-03    -825.333E-03     22.1303E-03    -9.61387E-03    -12.5165E-03    -12.4436E-03     22.0575E-03    -9.61387E-03     2.03243E-03     46.7776E+06     15.6302E+06    -173.278E+06     13.5389E+06    -171.187E+06     46.7776E+06    -19.5126E+06         24.0406
            1085     4.95891E-03     7.27623E-03     551.525E-03    -970.233E-03        -1.19214    -400.158E-03    -205.663E-03        -1.00503        -1.11848     20.3600E-03    -9.07997E-03    -11.2801E-03    -11.2223E-03     20.3023E-03    -9.07997E-03     1.81103E-03     37.3118E+06     13.0399E+06    -180.471E+06     11.7374E+06    -179.169E+06     37.3118E+06    -15.6111E+06         23.6944
            1086     3.96889E-03     7.28095E-03         2.25392    -852.733E-03        -3.02213        -2.32190         1.58848    -887.526E-03        -3.23900     18.7046E-03    -8.60458E-03    -10.1001E-03    -10.0615E-03     18.6661E-03    -8.60458E-03     1.46417E-03     28.4436E+06     10.7660E+06    -185.913E+06     9.94618E+06    -185.093E+06     28.4436E+06    -12.4686E+06         23.4420
            1087     2.97774E-03     7.28467E-03         2.53179    -278.245E-03        -3.94999        -2.87599         1.45779    -278.245E-03        -2.31915     17.2933E-03    -8.20720E-03    -9.08608E-03    -9.06285E-03     17.2701E-03    -8.20720E-03     1.13455E-03     19.5666E+06     8.36413E+06    -191.448E+06     7.90070E+06    -190.985E+06     19.5666E+06    -9.40845E+06         23.2647
            1088     1.98569E-03     7.28730E-03         3.03844    -1.77869E-03        -4.79350         1.01058        -2.63112    -136.293E-03    -183.352E-03     16.2261E-03    -7.89518E-03    -8.33094E-03    -8.31944E-03     16.2146E-03    -7.89518E-03     774.420E-06     11.6752E+06     5.55132E+06    -195.144E+06     5.34748E+06    -194.940E+06     11.6752E+06    -6.20907E+06         23.1480
            1089     993.095E-06     7.28895E-03         5.67018    -13.0987E-03        -7.11154         1.85645    -602.053E-03        -2.70886        -2.44778     15.4772E-03    -7.65466E-03    -7.82252E-03    -7.81891E-03     15.4736E-03    -7.65466E-03     402.531E-06     6.73020E+06     4.00388E+06    -196.273E+06     3.92583E+06    -196.195E+06     6.73020E+06    -3.37798E+06         23.0806
            1090     16.7343E-03     6.28192E-03         1.96098     503.155E-03        -4.36737         1.60322        -4.26091     754.458E-03         1.09413     45.5924E-03    -16.2404E-03    -29.3521E-03    -25.2331E-03     41.4734E-03    -16.2404E-03     27.7412E-03     204.649E+06     98.2865E+06    -7.59401E+06    -7.58952E+06     204.644E+06     98.2865E+06    -188.709E+03         37.0200
            1091     15.7582E-03     6.23625E-03         3.59968     634.084E-03        -6.05986         3.55685        -6.01702     634.084E-03     622.454E-03     45.7262E-03    -15.2088E-03    -30.5174E-03    -24.9167E-03     40.1255E-03    -15.2088E-03     38.9223E-03     175.619E+06     18.2480E+06    -25.1722E+06    -11.9386E+06     175.578E+06     5.05583E+06    -2.29694E+06         35.3583
            1092     14.7834E-03     6.21052E-03         3.40811     445.262E-03        -5.65129         3.30023        -5.54341     445.262E-03    -667.117E-03     40.3424E-03    -14.4746E-03    -25.8678E-03    -23.7882E-03     38.2628E-03    -14.4746E-03     22.3902E-03     115.691E+06    -12.7383E+06    -35.3059E+06    -11.9444E+06     114.897E+06    -35.3059E+06    -7.55018E+06         33.7405
            1093     13.8063E-03     6.20008E-03         2.43762     286.838E-03        -4.45481         2.06557        -4.08276     286.838E-03        -1.71100     36.1460E-03    -14.0740E-03    -22.0720E-03    -21.3675E-03     35.4415E-03    -14.0740E-03     12.0438E-03     54.5848E+06    -11.0851E+06    -24.1167E+06    -8.77597E+06     48.6195E+06    -20.4606E+06    -15.6634E+06         32.1770
            1094     12.8270E-03     6.20035E-03         2.00857     164.916E-03        -3.82990         1.70082        -3.52215     164.916E-03        -1.37694     33.7835E-03    -13.7564E-03    -20.0272E-03    -19.3661E-03     33.1224E-03    -13.7564E-03     10.4988E-03     22.5282E+06    -1.56675E+06    -27.6283E+06    -4.45815E+06    -1.44032E+06    -768.385E+03    -21.3969E+06         30.6943
            1095     11.8459E-03     6.20022E-03         1.08596     72.4060E-03        -2.73724     878.710E-03        -2.52999     72.4060E-03        -1.17942     32.2515E-03    -13.4563E-03    -18.7952E-03    -18.0442E-03     31.5005E-03    -13.4563E-03     10.7999E-03     17.2723E+06     9.23423E+06    -52.8532E+06    -14.6625E+03    -40.3956E+06     14.0636E+06    -24.5171E+06         29.3243
            1096     10.8630E-03     6.20640E-03         2.28755    -52.4365E-03        -3.78491         1.93967        -3.43704    -52.4365E-03        -2.15961     30.5372E-03    -13.1621E-03    -17.3751E-03    -16.7684E-03     29.9305E-03    -13.1621E-03     9.29209E-03     24.1280E+06     13.2768E+06    -80.1228E+06     4.56889E+06    -71.3015E+06     24.0145E+06    -26.8405E+06         28.0951
            1097     9.87834E-03     6.21417E-03         3.73984    -334.942E-03        -4.95838         3.48061        -4.69916    -334.942E-03        -2.02348     29.4398E-03    -12.8917E-03    -16.5481E-03    -15.8788E-03     28.7705E-03    -12.8917E-03     9.88061E-03     32.7373E+06     15.3308E+06    -105.083E+06     8.06450E+06    -97.8168E+06     32.7373E+06    -28.4158E+06         27.0261
            1098     8.89351E-03     6.22194E-03         3.30333    -547.275E-03        -4.34127    -202.509E-03    -835.435E-03    -547.275E-03        -2.15650     28.7112E-03    -12.6041E-03    -16.1071E-03    -15.4654E-03     28.0695E-03    -12.6041E-03     9.84794E-03     39.0575E+06     16.3724E+06    -127.009E+06     9.82500E+06    -120.462E+06     39.0575E+06    -29.8072E+06         26.1259
            1099     7.90845E-03     6.23068E-03         2.16183    -408.620E-03        -3.40085        -3.01172         1.77269    -408.620E-03        -1.57232     27.8224E-03    -12.2743E-03    -15.5481E-03    -14.9826E-03     27.2569E-03    -12.2743E-03     9.21472E-03     42.1106E+06     16.1149E+06    -148.131E+06     10.2475E+06    -142.264E+06     42.1106E+06    -30.3280E+06         25.3914
            1100     6.92270E-03     6.23940E-03         1.71092    -261.877E-03        -3.12922    -125.259E-03        -1.29305    -261.877E-03        -1.10769     26.8100E-03    -11.9151E-03    -14.8949E-03    -14.4076E-03     26.3227E-03    -11.9151E-03     8.46800E-03     43.9563E+06     14.0964E+06    -168.749E+06     9.64412E+06    -164.297E+06     43.9563E+06    -27.9168E+06         24.8105
            1101     5.93632E-03     6.24792E-03         1.69593    -418.127E-03        -2.94608         1.27512        -2.52526    -418.127E-03        -2.04109     25.6464E-03    -11.4926E-03    -14.1537E-03    -13.7613E-03     25.2540E-03    -11.4926E-03     7.49749E-03     39.9637E+06     11.2635E+06    -182.565E+06     8.35052E+06    -179.652E+06     39.9637E+06    -23.3627E+06         24.3650
            1102     4.94928E-03     6.25537E-03     763.543E-03    -613.150E-03        -1.83923    -116.907E-03    -958.784E-03    -613.150E-03        -1.96888     24.2425E-03    -11.0137E-03    -13.2287E-03    -12.9358E-03     23.9495E-03    -11.0137E-03     6.32939E-03     29.6729E+06     8.44763E+06    -188.445E+06     6.58006E+06    -186.578E+06     29.6729E+06    -18.9154E+06         24.0325
            1103     3.96118E-03     6.26192E-03         1.58504    -516.511E-03        -2.75634        -1.71408     542.769E-03    -516.511E-03        -1.44068     22.7149E-03    -10.5560E-03    -12.1589E-03    -11.9667E-03     22.5227E-03    -10.5560E-03     4.95480E-03     19.6579E+06     5.26045E+06    -193.465E+06     4.15533E+06    -192.360E+06     19.6579E+06    -14.5690E+06         23.7909
            1104     2.97195E-03     6.26704E-03         1.82621     140.099E-03        -3.69170        -2.90765         1.04215     140.099E-03     159.209E-03     21.3162E-03    -10.1655E-03    -11.1506E-03    -11.0402E-03     21.2057E-03    -10.1655E-03     3.63096E-03     11.9606E+06     2.22866E+06    -198.824E+06     1.65321E+06    -198.249E+06     11.9606E+06    -10.5681E+06         23.6217
            1105     1.98186E-03     6.27076E-03         2.99164     847.985E-03        -5.65097    -554.512E-03        -2.30780         1.05097     62.0858E-03     20.1999E-03    -9.84780E-03    -10.3521E-03    -10.2998E-03     20.1476E-03    -9.84780E-03     2.39489E-03     5.73964E+06     18.8692E+03    -201.373E+06    -259.298E+03    -201.094E+06     5.73964E+06    -7.27295E+06         23.5106
            1106     991.222E-06     6.27297E-03         6.28186         1.98520        -9.89332         2.17736        -4.52706     723.444E-03         3.36786     19.3804E-03    -9.60075E-03    -9.77960E-03    -9.76415E-03     19.3649E-03    -9.60075E-03     1.16861E-03     74.0892E+03    -2.14758E+06    -202.987E+06    -2.26027E+06    -202.875E+06     74.0892E+03    -4.51884E+06         23.4467
            1107     16.7270E-03     5.23930E-03         2.24599     618.406E-03        -4.74432         1.81262        -4.31095     618.406E-03        -1.12370     47.1116E-03    -16.6653E-03    -30.4463E-03    -25.6957E-03     42.3610E-03    -16.6653E-03     29.7007E-03     206.111E+06     99.3986E+06    -8.32681E+06    -8.32063E+06     206.104E+06     99.3986E+06     525.287E+03         37.2423
            1108     15.7526E-03     5.19284E-03         2.36477     547.691E-03        -4.76692         1.65309        -4.05524     547.691E-03        -2.51139     46.7993E-03    -15.6748E-03    -31.1245E-03    -24.7702E-03     40.4451E-03    -15.6748E-03     41.6615E-03     177.715E+06     20.1585E+06    -23.1467E+06    -13.3235E+06     177.690E+06     10.3600E+06    -1.60899E+06         35.5961
            1109     14.7762E-03     5.17090E-03         1.75523     487.983E-03        -4.08164         1.25778        -3.58418     487.983E-03        -2.29799     39.0700E-03    -14.9843E-03    -24.0856E-03    -21.7048E-03     36.6892E-03    -14.9843E-03     23.7112E-03     123.660E+06    -14.6163E+06    -40.0988E+06    -13.8950E+06     122.939E+06    -40.0988E+06    -7.39920E+06         33.9967
            1110     13.7959E-03     5.16495E-03         1.54088     457.554E-03        -3.80803     620.752E-03        -2.88790     457.554E-03        -3.57350     33.8848E-03    -14.7584E-03    -19.1263E-03    -17.8347E-03     32.5931E-03    -14.7584E-03     16.0398E-03     62.8208E+06    -18.4834E+06    -38.7181E+06    -13.4461E+06     56.9417E+06    -37.8763E+06    -17.0316E+06         32.4512
            1111     12.8116E-03     5.16865E-03         1.66110     438.596E-03        -3.84417     780.409E-03        -2.96348     438.596E-03        -3.47356     32.2372E-03    -14.7637E-03    -17.4736E-03    -15.8183E-03     30.5819E-03    -14.7637E-03     17.2551E-03     23.8384E+06    -17.8692E+06    -38.4548E+06    -11.8683E+06     960.625E+03    -21.5780E+06    -25.4549E+06         30.9880
            1112     11.8264E-03     5.16867E-03         2.19211     359.649E-03        -4.23578         1.91940        -3.96307     359.649E-03        -2.49463     31.6447E-03    -14.6509E-03    -16.9937E-03    -14.9508E-03     29.7732E-03    -14.8224E-03     18.3766E-03     12.1752E+06    -7.81585E+06    -59.1881E+06    -7.31886E+06    -39.6941E+06    -7.81585E+06    -30.4683E+06         29.6402
            1113     10.8415E-03     5.17721E-03         2.55582     204.945E-03        -4.39913         2.14247        -3.98578     204.945E-03        -3.17168     31.3762E-03    -14.7232E-03    -16.6530E-03    -14.7055E-03     29.6001E-03    -14.8946E-03     17.7415E-03     12.8356E+06     1.39555E+06    -86.4223E+06    -2.33208E+06    -73.0934E+06     3.23432E+06    -32.8635E+06         28.4349
            1114     9.85655E-03     5.18507E-03         1.93193     38.0786E-03        -3.60970         1.02962        -2.73558     66.2721E-03        -1.51276     32.0096E-03    -14.9456E-03    -17.0640E-03    -15.0990E-03     30.0446E-03    -14.9456E-03     18.9137E-03     17.5460E+06     7.91095E+06    -111.038E+06     1.58309E+06    -100.841E+06     13.6768E+06    -33.5588E+06         27.3909
            1115     8.87184E-03     5.19325E-03         1.86443     27.1732E-03        -3.55041    -694.150E-03        -1.02003     55.3667E-03     542.095E-03     32.2522E-03    -14.9239E-03    -17.3283E-03    -15.5611E-03     30.4850E-03    -14.9239E-03     18.1006E-03     21.8400E+06     11.7428E+06    -132.049E+06     4.01526E+06    -123.576E+06     21.0950E+06    -33.8067E+06         26.5154
            1116     7.88716E-03     5.20248E-03         2.24471     238.969E-03        -4.17418        -2.12985     200.383E-03     238.969E-03        -2.50679     32.0421E-03    -14.8336E-03    -17.2085E-03    -15.7550E-03     30.5886E-03    -14.8336E-03     16.4897E-03     25.2921E+06     11.7604E+06    -154.738E+06     4.62175E+06    -147.599E+06     25.2921E+06    -33.5561E+06         25.8037
            1117     6.90262E-03     5.21198E-03         2.41990     429.285E-03        -4.58674    -695.727E-03        -1.50549     463.668E-03        -4.65505     31.7375E-03    -14.6931E-03    -17.0444E-03    -15.8453E-03     30.5384E-03    -14.6931E-03     14.9648E-03     29.1807E+06     9.57202E+06    -178.769E+06     4.15697E+06    -173.354E+06     29.1807E+06    -31.2350E+06         25.2433
            1118     5.91819E-03     5.22103E-03         2.82762     392.667E-03        -4.97886         1.77392        -3.95955     427.050E-03        -3.88686     31.1755E-03    -14.4522E-03    -16.7233E-03    -15.8021E-03     30.2542E-03    -14.4522E-03     13.0481E-03     27.8925E+06     6.73701E+06    -192.930E+06     3.07042E+06    -189.263E+06     27.8925E+06    -26.6028E+06         24.8156
            1119     4.93348E-03     5.22978E-03         2.57570     127.927E-03        -4.48579         1.91912        -3.82921     127.927E-03        -2.25548     30.2378E-03    -14.1111E-03    -16.1268E-03    -15.4643E-03     29.5754E-03    -14.1111E-03     10.9197E-03     19.7579E+06     3.57970E+06    -198.139E+06     1.31262E+06    -195.871E+06     19.7579E+06    -21.0685E+06         24.4979
            1120     3.94828E-03     5.23752E-03         1.32155    -184.672E-03        -2.95657     845.462E-03        -2.48048    -184.672E-03     683.248E-03     29.0930E-03    -13.7464E-03    -15.3466E-03    -14.9099E-03     28.6563E-03    -13.7464E-03     8.67635E-03     12.2896E+06     543.473E+03    -202.796E+06    -705.999E+03    -201.546E+06     12.2896E+06    -15.6300E+06         24.2681
            1121     2.96238E-03     5.24417E-03     863.936E-03    -248.137E-03        -2.40945    -645.869E-03    -899.645E-03    -248.137E-03    -55.7333E-03     27.8545E-03    -13.3898E-03    -14.4647E-03    -14.2125E-03     27.6023E-03    -13.3898E-03     6.42013E-03     5.46121E+06    -2.32986E+06    -206.236E+06    -2.97549E+06    -205.590E+06     5.46121E+06    -11.3464E+06         24.1079
            1122     1.97558E-03     5.24888E-03         1.78842     704.882E-03        -4.17438        -3.45053     861.584E-03     907.870E-03        -2.73109     26.6805E-03    -13.0877E-03    -13.5928E-03    -13.4727E-03     26.5604E-03    -13.0877E-03     4.26482E-03    -2.29023E+06    -5.49408E+06    -208.880E+06    -5.81215E+06    -208.562E+06    -2.29023E+06    -7.75105E+06         24.0033
            1123     987.913E-06     5.25213E-03         6.01687         2.86188        -11.0035        -1.71585        -6.11779         5.70890        -2.10534     25.9213E-03    -12.9034E-03    -13.0179E-03    -12.9780E-03     25.8817E-03    -12.9036E-03     2.28791E-03    -7.09699E+06    -8.36459E+06    -210.473E+06    -7.92241E+06    -210.382E+06    -7.63022E+06    -3.79488E+06         23.9431
            1124     16.7168E-03     4.19572E-03         1.82796     626.226E-03        -4.33461     901.629E-03        -3.40828     626.226E-03        -3.82532     48.4140E-03    -17.3428E-03    -31.0712E-03    -25.5793E-03     42.9221E-03    -17.3428E-03     33.6335E-03     207.471E+06     100.063E+06    -9.05404E+06    -9.02796E+06     207.445E+06     100.063E+06     1.70724E+06         37.6340
            1125     15.7409E-03     4.14840E-03         1.58018     641.675E-03        -4.09332     25.4849E-03        -2.53863     641.675E-03        -5.01167     46.8670E-03    -16.4666E-03    -30.4004E-03    -23.3769E-03     39.8435E-03    -16.4666E-03     43.4916E-03     179.518E+06     22.6958E+06    -21.4805E+06    -14.4303E+06     179.503E+06     15.6611E+06    -955.282E+03         36.0026
            1126     14.7635E-03     4.13370E-03         1.17006     668.882E-03        -3.69517     158.338E-03        -2.69602     681.453E-03        -3.49707     36.5239E-03    -15.6429E-03    -20.8811E-03    -17.5849E-03     33.5086E-03    -15.9237E-03     25.2347E-03     130.904E+06    -16.3179E+06    -49.6035E+06    -15.9660E+06     130.552E+06    -49.6035E+06    -5.32576E+06         34.4177
            1127     13.7775E-03     4.13509E-03         1.14085     696.725E-03        -3.66083     433.296E-03        -2.96584     709.296E-03        -2.71708     32.5206E-03    -15.4979E-03    -17.0227E-03    -13.7035E-03     29.6913E-03    -15.9878E-03     22.2120E-03     71.4984E+06    -21.3061E+06    -60.1958E+06    -16.7471E+06     66.9394E+06    -60.1958E+06    -15.1102E+06         32.8864
            1128     12.7903E-03     4.13755E-03         1.37528     717.845E-03        -3.87994     743.075E-03        -3.24773     717.845E-03        -2.58953     32.5123E-03    -15.8158E-03    -16.6965E-03    -12.8647E-03     29.2211E-03    -16.3564E-03     23.9989E-03     27.1641E+06    -31.8305E+06    -52.2209E+06    -15.8628E+06     5.74714E+06    -46.7716E+06    -26.8475E+06         31.4419
            1129     11.8025E-03     4.14040E-03         2.56777     646.480E-03        -4.94937         2.31201        -4.69361     646.480E-03        -2.68140     32.5276E-03    -15.6038E-03    -16.9238E-03    -12.6156E-03     29.3691E-03    -16.7535E-03     23.6814E-03     10.9665E+06    -36.4635E+06    -66.0207E+06    -13.6464E+06    -39.1055E+06    -38.7658E+06    -33.8656E+06         30.1163
            1130     10.8134E-03     4.14720E-03         2.15439     126.513E-03        -3.97238         1.47473        -3.69835     532.143E-03        -1.99131     33.2614E-03    -15.8574E-03    -17.4040E-03    -13.2853E-03     30.4700E-03    -17.1848E-03     22.7284E-03     6.57261E+06    -28.5607E+06    -92.6460E+06    -10.1766E+06    -75.8968E+06    -28.5607E+06    -36.5115E+06         28.9354
            1131     9.82680E-03     4.15398E-03     848.230E-03     170.128E-03        -2.70717        -1.74670    -546.060E-03     603.952E-03        -1.08578     34.9981E-03    -16.7375E-03    -18.2606E-03    -14.6825E-03     32.2544E-03    -17.5719E-03     23.3405E-03     6.77896E+06    -17.7701E+06    -117.675E+06    -5.92213E+06    -104.974E+06    -17.7701E+06    -37.4250E+06         27.9169
            1132     8.84227E-03     4.16076E-03         1.18766     801.885E-03        -3.70254        -1.20135        -1.34172     830.079E-03        -1.25015     36.1855E-03    -17.3610E-03    -18.8244E-03    -15.8997E-03     33.7703E-03    -17.8706E-03     22.3790E-03     8.02415E+06    -8.75475E+06    -138.842E+06    -2.38706E+06    -128.843E+06    -8.34222E+06    -36.6722E+06         27.0664
            1133     7.85913E-03     4.17013E-03         2.38331     962.379E-03        -5.06323     551.313E-03        -3.23123     962.379E-03        -3.73241     37.0098E-03    -17.9032E-03    -19.1066E-03    -16.9118E-03     34.9994E-03    -18.0876E-03     20.8040E-03     8.95909E+06    -3.23981E+06    -162.098E+06    -1.18432E+06    -154.510E+06    -684.604E+03    -34.7478E+06         26.3779
            1134     6.87648E-03     4.17905E-03         2.30659     770.370E-03        -4.82864    -272.997E-03        -2.55732         1.07864        -5.17901     37.6222E-03    -18.2212E-03    -19.4010E-03    -17.7224E-03     35.9436E-03    -18.2212E-03     19.2363E-03     9.82363E+06    -771.527E+03    -187.778E+06    -2.19314E+06    -182.027E+06     5.49428E+06    -32.4870E+06         25.8380
            1135     5.89448E-03     4.18824E-03         2.09303     831.180E-03        -4.77267     885.418E-03        -3.93056         1.19668        -3.08547     37.7859E-03    -18.2434E-03    -19.5425E-03    -18.2569E-03     36.5003E-03    -18.2434E-03     16.9253E-03     9.41625E+06    -390.448E+03    -204.179E+06    -3.61770E+06    -200.133E+06     8.59752E+06    -28.2917E+06         25.4281
            1136     4.91270E-03     4.19733E-03         3.19041     959.133E-03        -6.05509         3.02571        -5.94762         1.01636        -1.16316     37.5517E-03    -18.1487E-03    -19.4030E-03    -18.4823E-03     36.6310E-03    -18.1487E-03     14.3034E-03     6.28622E+06    -2.64439E+06    -209.583E+06    -5.03793E+06    -207.190E+06     6.28622E+06    -21.8076E+06         25.1253
            1137     3.93087E-03     4.20585E-03         2.63032     574.953E-03        -5.15225         2.43482        -4.95675     574.953E-03        -1.12321     37.0300E-03    -17.9776E-03    -19.0524E-03    -18.4417E-03     36.4193E-03    -17.9776E-03     11.5668E-03     229.328E+03    -6.06727E+06    -212.305E+06    -7.29880E+06    -211.073E+06     229.328E+03    -15.6760E+06         24.9076
            1138     2.94887E-03     4.21321E-03         1.57746     270.666E-03        -3.77299     647.920E-03        -2.84345     270.666E-03        -2.18807     36.2998E-03    -17.7853E-03    -18.5145E-03    -18.1529E-03     35.9382E-03    -17.7853E-03     8.77580E-03    -5.90430E+06    -9.58991E+06    -214.000E+06    -10.1937E+06    -213.396E+06    -5.90430E+06    -10.8262E+06         24.7567
            1139     1.96634E-03     4.21935E-03         2.99462     330.926E-03        -5.25711    -181.699E-03        -2.08080     330.926E-03        -2.61280     35.5874E-03    -17.6433E-03    -17.9442E-03    -17.7640E-03     35.4073E-03    -17.6433E-03     6.07543E-03    -9.44203E+06    -12.6686E+06    -216.755E+06    -12.9171E+06    -216.507E+06    -9.44203E+06    -6.85037E+06         24.6583
            1140     983.193E-06     4.22310E-03         7.57983     897.304E-03        -10.3712     563.035E-03        -2.82480     367.730E-03        -7.17178     35.1933E-03    -17.5477E-03    -17.6456E-03    -17.5772E-03     35.1251E-03    -17.5479E-03     3.60617E-03    -12.0598E+06    -15.6027E+06    -218.221E+06    -15.1498E+06    -218.141E+06    -12.5931E+06    -3.73710E+06         24.6020
            1141     16.6987E-03     3.14739E-03     929.108E-03     220.081E-03        -3.04703    -450.400E-03        -2.16463     717.185E-03        -2.07385     48.7962E-03    -18.2945E-03    -30.5017E-03    -24.3365E-03     42.6310E-03    -18.2945E-03     38.8887E-03     208.112E+06     95.2818E+06    -8.34645E+06    -8.29078E+06     208.056E+06     95.2818E+06     2.55485E+06         38.2442
            1142     15.7257E-03     3.10501E-03         1.19450     389.856E-03        -3.41949    -974.867E-03        -1.66949     809.219E-03        -3.86411     44.6849E-03    -17.0159E-03    -27.6691E-03    -19.8555E-03     37.5063E-03    -17.6508E-03     42.5171E-03     180.452E+06     19.9174E+06    -18.1406E+06    -14.0486E+06     180.410E+06     15.8670E+06     1.06596E+06         36.6245
            1143     14.7394E-03     3.10382E-03         1.42314     817.830E-03        -4.05577    -361.237E-03        -2.36240     908.835E-03        -4.67454     34.3148E-03    -15.6400E-03    -18.6749E-03    -12.8006E-03     30.2185E-03    -17.4179E-03     27.5353E-03     137.767E+06    -16.4325E+06    -55.1075E+06    -16.2456E+06     137.580E+06    -55.1075E+06    -2.12667E+06         35.0488
            1144     13.7490E-03     3.10576E-03         2.13813     919.490E-03        -4.85656         1.46905        -4.20005     932.061E-03        -3.15986     33.4337E-03    -15.6794E-03    -17.7543E-03    -11.1278E-03     28.8821E-03    -17.7543E-03     28.4074E-03     80.6656E+06    -18.5734E+06    -81.7342E+06    -15.1014E+06     77.1936E+06    -81.7342E+06    -13.0639E+06         33.5304
            1145     12.7599E-03     3.10705E-03         2.14691     865.852E-03        -4.76495         2.07027        -4.68831     865.852E-03        -1.20846     34.5008E-03    -16.1261E-03    -18.3747E-03    -11.8052E-03     30.1800E-03    -18.3747E-03     28.2478E-03     30.8294E+06    -31.4840E+06    -75.0864E+06    -13.1446E+06     12.4900E+06    -75.0864E+06    -24.4388E+06         32.1054
            1146     11.7714E-03     3.11067E-03         2.06547     863.576E-03        -4.65274    -205.798E-03        -2.38148     863.576E-03        -1.37216     35.1413E-03    -16.1502E-03    -18.9911E-03    -12.4727E-03     31.4638E-03    -18.9911E-03     26.3818E-03     10.3366E+06    -54.4223E+06    -79.1324E+06    -12.9270E+06    -38.2050E+06    -72.0862E+06    -32.0911E+06         30.8027
            1147     10.7847E-03     3.11549E-03         1.88836     610.119E-03        -4.21601        -2.24068    -534.441E-03         1.05760        -1.93751     36.3714E-03    -16.7490E-03    -19.6224E-03    -13.7350E-03     33.3575E-03    -19.6224E-03     24.4943E-03     4.40536E+06    -63.2376E+06    -97.5648E+06    -11.8887E+06    -78.6731E+06    -65.8352E+06    -36.2039E+06         29.6466
            1148     9.79876E-03     3.12002E-03         1.66040     926.012E-03        -4.29614        -1.98034        -1.10288         1.37349        -3.38820     37.7691E-03    -17.5277E-03    -20.2414E-03    -14.9997E-03     35.2412E-03    -20.2414E-03     23.0233E-03     2.61398E+06    -56.8819E+06    -121.857E+06    -10.0227E+06    -109.220E+06    -56.8819E+06    -37.3334E+06         28.6528
            1149     8.81359E-03     3.12529E-03         2.21338         1.62225        -5.55842     103.529E-03        -3.44857         1.62225        -4.71239     39.1353E-03    -18.2851E-03    -20.8502E-03    -16.1699E-03     37.0201E-03    -20.8502E-03     21.5134E-03     1.34215E+06    -46.7888E+06    -145.587E+06    -8.33569E+06    -135.909E+06    -46.7888E+06    -36.0909E+06         27.8255
            1150     7.82998E-03     3.13254E-03         3.12797         1.64126        -6.50074         2.61823        -5.99100         1.64126        -2.52727     40.9456E-03    -19.4715E-03    -21.4742E-03    -17.7372E-03     39.1677E-03    -21.4305E-03     20.3059E-03    -420.945E+03    -35.1038E+06    -169.559E+06    -7.21859E+06    -162.762E+06    -35.1038E+06    -32.8817E+06         27.1583
            1151     6.84868E-03     3.14022E-03         3.07625         1.24572        -6.09354         2.31208        -5.60326         1.51960        -2.18769     42.7172E-03    -20.6204E-03    -22.0968E-03    -19.2844E-03     41.2109E-03    -21.9265E-03     19.1729E-03    -2.90989E+06    -24.6827E+06    -194.829E+06    -7.81274E+06    -189.926E+06    -24.6827E+06    -30.0374E+06         26.6374
            1152     5.86857E-03     3.14851E-03         1.96522     874.878E-03        -4.71256     24.6768E-03        -3.48819         1.59106        -3.12567     43.9948E-03    -21.3802E-03    -22.6146E-03    -20.4940E-03     42.8103E-03    -22.3163E-03     17.3273E-03    -5.73364E+06    -16.9604E+06    -214.652E+06    -10.0608E+06    -211.121E+06    -16.1639E+06    -26.6052E+06         26.2438
            1153     4.88950E-03     3.15702E-03         2.26410     902.000E-03        -5.18764     254.472E-03        -4.15693         1.88092        -2.27520     44.8592E-03    -21.9314E-03    -22.9278E-03    -21.4127E-03     43.9910E-03    -22.5783E-03     15.0210E-03    -8.39088E+06    -14.9978E+06    -221.342E+06    -12.6942E+06    -219.236E+06    -12.8013E+06    -20.6060E+06         25.9549
            1154     3.91117E-03     3.16539E-03         3.75653         1.37843        -7.22719         2.88095        -6.88824         1.91506        -1.78920     45.3227E-03    -22.2646E-03    -23.0582E-03    -21.9972E-03     44.7403E-03    -22.7431E-03     12.3671E-03    -12.3666E+06    -15.5572E+06    -221.648E+06    -14.8514E+06    -220.637E+06    -14.0836E+06    -14.1332E+06         25.7487
            1155     2.93298E-03     3.17302E-03         4.66607         1.25646        -8.04227         4.42796        -7.80416         1.25646     225.609E-03     45.5601E-03    -22.4857E-03    -23.0744E-03    -22.3258E-03     45.2094E-03    -22.8837E-03     9.59833E-03    -15.4524E+06    -16.8185E+06    -222.162E+06    -16.8237E+06    -221.723E+06    -15.8857E+06    -9.19832E+06         25.6064
            1156     1.95494E-03     3.17929E-03         5.07412    -644.018E-03        -6.54297         4.82973        -6.29857    -644.018E-03    -790.357E-03     45.9090E-03    -22.8203E-03    -23.0888E-03    -22.6991E-03     45.7234E-03    -23.0242E-03     6.98292E-03    -15.8962E+06    -18.7495E+06    -223.351E+06    -18.6580E+06    -223.180E+06    -16.1584E+06    -5.66397E+06         25.5141
            1157     977.433E-06     3.18290E-03         8.56848        -2.86608        -7.32620     924.507E-03         2.39487        -4.94318        -1.53848     46.1917E-03    -23.0265E-03    -23.1653E-03    -23.0658E-03     46.1182E-03    -23.0524E-03     4.21448E-03    -17.8139E+06    -22.5022E+06    -225.475E+06    -20.8479E+06    -225.411E+06    -19.5322E+06    -3.39070E+06         25.4618
            1158     16.6800E-03     2.09441E-03     994.069E-03    -130.966E-03        -2.57665    -264.890E-03        -2.22846     779.801E-03    -297.486E-03     48.2100E-03    -19.5680E-03    -28.6420E-03    -21.7399E-03     41.3079E-03    -19.5680E-03     43.0122E-03     208.372E+06     89.8248E+06    -6.90813E+06    -6.77679E+06     208.240E+06     89.8248E+06     3.81384E+06         39.1252
            1159     15.6985E-03     2.06991E-03     892.253E-03    -188.183E-03        -2.39833        -1.70112    -885.400E-03     892.253E-03        -1.80702     41.2499E-03    -17.0313E-03    -24.2186E-03    -15.7316E-03     34.9790E-03    -19.2474E-03     37.6351E-03     183.715E+06     21.1961E+06    -12.4021E+06    -10.4435E+06     183.579E+06     19.3731E+06     3.38349E+06         37.5138
            1160     14.7087E-03     2.07569E-03         1.33667     674.112E-03        -3.73808    -952.274E-03        -1.81556         1.04054        -3.99158     34.6303E-03    -15.3286E-03    -19.3017E-03    -11.0554E-03     30.3571E-03    -19.3017E-03     27.8223E-03     143.518E+06    -10.8132E+06    -51.1567E+06    -10.6557E+06     143.361E+06    -51.1567E+06    -1.60975E+06         35.9455
            1161     13.7186E-03     2.07460E-03         2.40653         1.05934        -5.19191         1.30911        -4.13507         1.09992        -4.37135     35.6334E-03    -15.9179E-03    -19.7154E-03    -11.8085E-03     31.5239E-03    -19.7154E-03     27.5085E-03     87.1567E+06    -9.59933E+06    -94.7365E+06    -7.69192E+06     85.2493E+06    -94.7365E+06    -9.69872E+06         34.4428
            1162     12.7304E-03     2.07466E-03         2.25603     558.946E-03        -4.50900         1.27115        -4.05011         1.08493        -2.07861     36.1925E-03    -15.8239E-03    -20.3686E-03    -12.6881E-03     33.0566E-03    -20.3686E-03     24.2290E-03     33.1803E+06    -21.2945E+06    -103.138E+06     -7.0784E+06     18.9642E+06    -103.138E+06    -18.1946E+06         33.0378
            1163     11.7432E-03     2.07720E-03         1.85721     621.405E-03        -4.15150        -2.54963    -359.214E-03         1.23596    -817.647E-03     37.3141E-03    -16.2341E-03    -21.0800E-03    -13.7264E-03     34.8064E-03    -21.0800E-03     22.1256E-03     8.99409E+06    -52.6693E+06    -103.421E+06    -7.27994E+06    -36.3953E+06    -103.421E+06    -25.1652E+06         31.7564
            1164     10.7571E-03     2.07898E-03         2.12684     915.987E-03        -4.74704        -4.28724     916.820E-03         1.66621        -2.35030     38.9303E-03    -17.1265E-03    -21.8039E-03    -15.0522E-03     36.8561E-03    -21.8039E-03     20.6509E-03     2.80441E+06    -83.3821E+06    -108.761E+06    -8.17244E+06    -80.0068E+06    -101.160E+06    -29.4132E+06         30.6222
            1165     9.77319E-03     2.08258E-03         2.62147         1.39859        -5.74255    -386.677E-03        -3.39606         2.06024        -3.31796     40.2430E-03    -17.6811E-03    -22.5619E-03    -16.0147E-03     38.5766E-03    -22.5619E-03     18.9129E-03    -1.03951E+06    -91.8874E+06    -124.664E+06    -9.79583E+06    -113.654E+06    -94.1406E+06    -30.7115E+06         29.6495
            1166     8.78921E-03     2.08688E-03         3.38107         2.13973        -7.21688         2.89049        -6.72630         2.13973        -2.57428     41.6488E-03    -18.2671E-03    -23.3817E-03    -16.9140E-03     40.2956E-03    -23.3817E-03     17.4287E-03    -4.82460E+06    -83.9685E+06    -149.552E+06    -11.3822E+06    -142.995E+06    -83.9685E+06    -29.3993E+06         28.8416
            1167     7.80619E-03     2.09113E-03         3.38281         1.90303        -7.01415         3.01639        -6.77946         2.03475    -887.436E-03     43.7045E-03    -19.4521E-03    -24.2524E-03    -18.3496E-03     42.6020E-03    -24.2524E-03     16.2026E-03    -7.86316E+06    -70.7274E+06    -175.365E+06    -12.4497E+06    -170.778E+06    -70.7274E+06    -26.7024E+06         28.1926
            1168     6.82483E-03     2.09640E-03         2.98481         1.53043        -6.30459         2.34229        -6.07435         1.94271    -928.127E-03     46.1781E-03    -21.0668E-03    -25.1112E-03    -20.1676E-03     45.2789E-03    -25.1112E-03     15.0748E-03    -10.2749E+06    -56.7678E+06    -200.384E+06    -13.3919E+06    -197.267E+06    -56.7678E+06    -23.6047E+06         27.6879
            1169     5.84566E-03     2.10248E-03         2.42844         1.08511        -5.41368     340.728E-03        -4.29513         2.05428        -2.90975     48.5916E-03    -22.6766E-03    -25.9150E-03    -21.9619E-03     47.8769E-03    -25.9150E-03     13.8166E-03    -13.1801E+06    -42.8668E+06    -222.233E+06    -15.3453E+06    -220.068E+06    -42.8668E+06    -20.6470E+06         27.3080
            1170     4.86827E-03     2.10931E-03         2.46373     930.717E-03        -5.46432    -222.955E-03        -4.31065         2.46373        -3.23003     50.7492E-03    -24.1320E-03    -26.6172E-03    -23.5912E-03     50.2084E-03    -26.6172E-03     12.3320E-03    -16.5969E+06    -32.6075E+06    -231.235E+06    -17.9410E+06    -229.891E+06    -32.6075E+06    -16.4404E+06         27.0310
            1171     3.89237E-03     2.11616E-03         3.93344         1.86392        -8.01064         2.89100        -7.81260         2.70833    -796.834E-03     52.5946E-03    -25.3802E-03    -27.2144E-03    -25.0109E-03     52.2253E-03    -27.2144E-03     10.3513E-03    -19.6039E+06    -27.0182E+06    -230.446E+06    -20.2519E+06    -229.798E+06    -27.0182E+06    -11.1778E+06         26.8349
            1172     2.91773E-03     2.12306E-03         6.20819         1.98925        -10.4312         6.15035        -10.3734         1.98925         1.18304     54.2295E-03    -26.5012E-03    -27.7283E-03    -26.2778E-03     54.0061E-03    -27.7283E-03     8.18116E-03    -21.8989E+06    -24.3131E+06    -229.432E+06    -22.1497E+06    -229.182E+06    -24.3131E+06    -6.82682E+06         26.7006
            1173     1.94412E-03     2.12793E-03         5.34715    -361.628E-03        -7.00343         3.92070        -6.35172     413.111E-03    -451.067E-03     55.6850E-03    -27.5541E-03    -28.1309E-03    -27.4308E-03     55.5617E-03    -28.1309E-03     6.12233E-03    -23.0166E+06    -24.4664E+06    -228.749E+06    -24.1057E+06    -228.658E+06    -23.4692E+06    -4.00741E+06         26.6146
            1174     971.850E-06     2.13029E-03         7.00482        -2.24270        -6.79057        -1.34505        -1.08070     397.289E-03     183.406E-03     56.6187E-03    -28.2084E-03    -28.4103E-03    -28.2119E-03     56.5720E-03    -28.3601E-03     3.52451E-03    -24.2121E+06    -27.5407E+06    -230.722E+06    -25.8487E+06    -230.696E+06    -25.9304E+06    -1.80085E+06         26.5663
            1175     16.6518E-03     1.04325E-03         1.64803     474.932E-03        -3.45376         1.13334        -3.35274     888.595E-03    -893.433E-03     49.5616E-03    -20.8501E-03    -28.7115E-03    -22.3721E-03     43.5287E-03    -21.1566E-03     41.1598E-03     209.719E+06     89.3562E+06    -3.66271E+06    -3.55689E+06     209.614E+06     89.3562E+06     2.82590E+06         40.3369
            1176     15.6694E-03     1.04025E-03         1.80997     232.938E-03        -3.56813     534.099E-03        -2.95333     894.012E-03    -648.471E-03     40.3726E-03    -18.2155E-03    -22.1571E-03    -15.7404E-03     36.6605E-03    -20.9201E-03     27.6498E-03     186.512E+06     26.5371E+06    -10.1716E+06    -5.35122E+06     186.411E+06     21.8175E+06     2.15609E+06         38.7347
            1177     14.6799E-03     1.04136E-03         1.39151     681.225E-03        -3.68268    -922.798E-03        -1.65637     969.221E-03        -1.33706     37.5160E-03    -16.5453E-03    -20.9707E-03    -14.1734E-03     35.1441E-03    -20.9707E-03     20.4316E-03     146.472E+06    -4.19654E+06    -49.8899E+06    -4.14774E+06     146.424E+06    -49.8899E+06    -1.04636E+06         37.1773
            1178     13.6957E-03     1.03878E-03         2.33806         1.13371        -5.09970        -2.76341    -38.8229E-03         1.17430        -2.98666     37.6479E-03    -16.3846E-03    -21.2633E-03    -14.5976E-03     35.8609E-03    -21.2633E-03     17.2918E-03     90.8258E+06    -2.22255E+06    -100.459E+06    -1.75559E+06     90.3588E+06    -100.459E+06    -4.52284E+06         35.6911
            1179     12.7100E-03     1.03930E-03         2.61481     706.046E-03        -4.97313        -3.30905     154.657E-03         1.50212        -2.93829     37.5683E-03    -15.7573E-03    -21.8110E-03    -14.6025E-03     36.4135E-03    -21.8110E-03     13.8614E-03     33.5183E+06    -10.3320E+06    -120.139E+06    -843.197E+03     24.0294E+06    -120.139E+06    -9.60680E+06         34.3022
            1180     11.7243E-03     1.03958E-03         2.29656     946.803E-03        -4.90900        -1.57973        -1.91735         1.83144        -1.14902     38.4524E-03    -15.9430E-03    -22.5093E-03    -15.0604E-03     37.5697E-03    -22.5093E-03     12.2490E-03     5.03703E+06    -41.7060E+06    -125.854E+06    -1.92297E+06    -34.7460E+06    -125.854E+06    -14.0898E+06         33.0364
            1181     10.7397E-03     1.04006E-03         3.28557         1.33829        -6.29382     467.318E-03        -4.18395         2.04666    -925.354E-03     39.6991E-03    -16.4084E-03    -23.2907E-03    -15.6963E-03     38.9869E-03    -23.2907E-03     11.2422E-03    -633.016E+03    -84.2869E+06    -127.009E+06    -4.77096E+06    -80.1490E+06    -127.009E+06    -16.3520E+06         31.9174
            1182     9.75493E-03     1.04179E-03         3.36498     979.252E-03        -6.02132         1.49293        -5.32229         2.15228    -90.2469E-03     41.3652E-03    -17.2035E-03    -24.1617E-03    -16.6258E-03     40.7875E-03    -24.1617E-03     10.3891E-03    -5.17227E+06    -111.341E+06    -131.324E+06    -8.46294E+06    -116.915E+06    -122.459E+06    -17.2209E+06         30.9590
            1183     8.77210E-03     1.04452E-03         3.05868     886.791E-03        -5.63236         1.60870        -5.51571         2.22012     954.686E-03     43.4381E-03    -18.3231E-03    -25.1150E-03    -17.8280E-03     42.9429E-03    -25.1150E-03     9.93055E-03    -9.56584E+06    -112.238E+06    -150.674E+06    -12.0313E+06    -148.209E+06    -112.238E+06    -16.6753E+06         30.1651
            1184     7.79005E-03     1.04687E-03         2.71906         1.13456        -5.57290         1.28484        -5.32353         2.31941        -1.23071     45.6865E-03    -19.5445E-03    -26.1420E-03    -19.1353E-03     45.2772E-03    -26.1420E-03     9.31471E-03    -13.5602E+06    -98.3454E+06    -178.400E+06    -15.3129E+06    -176.647E+06    -98.3454E+06    -15.1797E+06         29.5293
            1185     6.80929E-03     1.04910E-03         2.60556         1.75253        -6.16552         1.68336        -5.92862         2.43783        -1.08235     48.2437E-03    -21.0125E-03    -27.2311E-03    -20.6988E-03     47.9299E-03    -27.2311E-03     8.35350E-03    -16.7559E+06    -82.5417E+06    -204.064E+06    -17.9318E+06    -202.888E+06    -82.5417E+06    -13.2806E+06         29.0369
            1186     5.83026E-03     1.05226E-03         3.30253         1.89630        -7.13798         2.60283        -7.02240         2.48041    -104.823E-03     51.2000E-03    -22.8492E-03    -28.3508E-03    -22.6083E-03     50.9591E-03    -28.3508E-03     7.54155E-03    -19.2158E+06    -65.7558E+06    -226.401E+06    -19.9972E+06    -225.620E+06    -65.7558E+06    -11.5607E+06         28.6677
            1187     4.85338E-03     1.05599E-03         3.13915         1.81507        -7.02687         2.33281        -6.89021         2.48476        -1.21732     54.3801E-03    -24.9430E-03    -29.4371E-03    -24.7564E-03     54.1935E-03    -29.4371E-03     6.85695E-03    -21.4100E+06    -49.9116E+06    -237.855E+06    -21.9082E+06    -237.356E+06    -49.9116E+06    -9.32259E+06         28.4004
            1188     3.87880E-03     1.06009E-03         2.98695         1.42293        -6.61160         1.17491        -6.06750         2.69088        -1.38303     57.5730E-03    -27.1620E-03    -30.4111E-03    -27.0339E-03     57.4449E-03    -30.4111E-03     5.80695E-03    -23.7378E+06    -38.5900E+06    -237.287E+06    -23.9700E+06    -237.055E+06    -38.5900E+06    -6.00292E+06         28.2131
            1189     2.90661E-03     1.06418E-03         4.59363     461.707E-03        -7.29430         1.06631        -6.54947         3.24420        -1.83738     60.5240E-03    -29.3186E-03    -31.2054E-03    -29.2407E-03     60.4461E-03    -31.2054E-03     4.68503E-03    -25.6876E+06    -31.5627E+06    -233.943E+06    -25.7767E+06    -233.854E+06    -31.5627E+06    -3.64538E+06         28.0867
            1190     1.93686E-03     1.06676E-03         5.27162         1.46198        -8.92265         1.75870        -8.16601         4.21827     548.031E-03     62.7318E-03    -30.9614E-03    -31.7704E-03    -30.9174E-03     62.6878E-03    -31.7704E-03     3.59397E-03    -25.8414E+06    -28.5615E+06    -232.592E+06    -27.4550E+06    -232.558E+06    -26.9813E+06    -2.43575E+06         28.0065
            1191     968.029E-06     1.06804E-03         7.23093         3.29790        -12.8179         3.61340        -11.9412         6.03875        -2.29819     63.9755E-03    -31.8330E-03    -32.1426E-03    -31.8933E-03     63.9600E-03    -32.0668E-03     1.92151E-03    -28.0577E+06    -30.3201E+06    -234.029E+06    -30.2625E+06    -234.017E+06    -28.1268E+06    -738.979E+03         27.9617
            1192     983.741E-06     57.7828E-03         10.6746        -2.59618        -7.34116        -5.14156         8.62201        -2.74319    -116.892E-03     33.5460E-03    -16.7301E-03    -16.8159E-03    -16.8037E-03     33.5338E-03    -16.7301E-03     1.44770E-03    -18.2606E+06    -19.8950E+06    -226.325E+06    -19.6800E+06    -226.324E+06    -18.4768E+06    -38.8144E+03         22.6019
            1193     1.96735E-03     57.7850E-03         17.0144        -5.23005        -10.7504        -10.3743         16.6382        -5.23005         4.25995     33.5935E-03    -16.7830E-03    -16.8105E-03    -16.7698E-03     33.5581E-03    -16.7883E-03     2.60788E-03    -13.2086E+06    -17.6063E+06    -220.054E+06    -17.6075E+06    -220.053E+06    -13.2086E+06     255.578E+03         22.6441
            1194     2.95103E-03     57.7884E-03         17.5601        -6.61592        -9.78976        -9.33651         17.4096        -6.91864         2.31322     33.5819E-03    -16.7778E-03    -16.8041E-03    -16.7170E-03     33.5125E-03    -16.7955E-03     3.69868E-03    -7.88121E+06    -15.0037E+06    -211.299E+06    -15.0045E+06    -211.298E+06    -7.88121E+06    -82.2246E+03         22.7191
            1195     3.93475E-03     57.7927E-03         10.9555        -2.97771        -6.75833        -1.72863         9.64611        -6.69800         4.82230     33.5400E-03    -16.7585E-03    -16.7815E-03    -16.6443E-03     33.4251E-03    -16.7808E-03     4.77062E-03    -3.05309E+06    -12.4856E+06    -196.906E+06    -12.4861E+06    -196.905E+06    -3.05309E+06    -187.599E+03         22.8364
            1196     4.91852E-03     57.7982E-03         7.42214        -1.14311        -5.06899         4.97556         1.30347        -5.06899         6.51336     33.5341E-03    -16.7592E-03    -16.7749E-03    -16.6002E-03     33.3693E-03    -16.7690E-03     5.73425E-03     2.49085E+06    -9.94465E+06    -183.641E+06    -9.94491E+06    -183.641E+06     2.49085E+06    -24.2712E+03         23.0110
            1197     5.90240E-03     57.8047E-03         8.15291        -2.71290        -4.22286         6.86522        -2.42685        -3.22121         7.22388     33.5183E-03    -16.7509E-03    -16.7674E-03    -16.5531E-03     33.3039E-03    -16.7509E-03     6.54059E-03     6.97076E+06    -7.43303E+06    -168.867E+06    -7.43339E+06    -168.867E+06     6.97076E+06    -54.2034E+03         23.2652
            1198     6.88620E-03     57.8118E-03         7.80502        -1.74062        -4.84636         7.18667        -4.22801        -1.74062         4.61573     33.4647E-03    -16.7144E-03    -16.7502E-03    -16.4845E-03     33.1989E-03    -16.7144E-03     7.27764E-03     8.60768E+06    -5.05881E+06    -151.919E+06    -5.05984E+06    -151.918E+06     8.60768E+06    -265.691E+03         23.6308
            1199     7.87016E-03     57.8197E-03         6.99998    -632.203E-03        -5.19794         6.84847        -5.04642    -632.203E-03         1.76150     33.4234E-03    -16.6739E-03    -16.7495E-03    -16.4285E-03     33.1024E-03    -16.6739E-03     7.99208E-03     9.37582E+06    -2.87122E+06    -135.150E+06    -2.87355E+06    -135.147E+06     9.37582E+06    -439.296E+03         24.1485
            1200     8.85407E-03     57.8283E-03         5.49792     128.229E-03        -4.53641         5.33671        -4.37521     128.229E-03         1.59272     33.3710E-03    -16.6333E-03    -16.7378E-03    -16.3721E-03     33.0054E-03    -16.6333E-03     8.52807E-03     9.55933E+06    -1.27550E+06    -118.592E+06    -1.27752E+06    -118.590E+06     9.55933E+06    -316.697E+03         24.8665
            1201     9.83815E-03     57.8373E-03         5.17846     642.405E-03        -4.79358         5.07967        -4.69478     642.405E-03     586.159E-03     33.3253E-03    -16.5749E-03    -16.7504E-03    -16.3163E-03     32.8912E-03    -16.5749E-03     9.26626E-03     5.47871E+06    -231.042E+03    -103.235E+06    -233.235E+03    -103.233E+06     5.47871E+06    -118.586E+03         25.8341
            1202     10.8222E-03     57.8475E-03         5.40834         1.06369        -5.48578         5.38079        -5.45823         1.06369    -152.110E-03     33.3251E-03    -16.4863E-03    -16.8388E-03    -16.2557E-03     32.7420E-03    -16.4863E-03     10.7171E-03     999.723E+03    -3.70943E+06    -81.2499E+06     283.637E+03    -81.2471E+06    -2.99616E+06     124.418E+03         27.0911
            1203     11.8064E-03     57.8594E-03         3.68050         1.19267        -3.88470         3.21858        -3.57172         1.34160    -534.727E-03     33.2446E-03    -16.3951E-03    -16.8495E-03    -16.1639E-03     32.5590E-03    -16.3951E-03     11.6401E-03     76.9194E+03    -9.92766E+06    -50.3159E+06     71.2281E+03    -50.3102E+06    -9.92766E+06     357.784E+03         28.6537
            1204     12.7905E-03     57.8715E-03         1.86612     942.615E-03        -1.74139     819.828E-03        -1.15231         1.39984        -1.47837     33.2523E-03    -16.3021E-03    -16.9502E-03    -16.0450E-03     32.3471E-03    -16.3021E-03     13.2666E-03     1.72393E+06    -6.47705E+06    -26.8436E+06    -423.425E+03    -15.0104E+06    -16.1630E+06     501.249E+03         30.5010
            1205     13.7750E-03     57.8868E-03         1.97113         1.04192        -1.82207     709.378E-03    -874.473E-03         1.35607        -2.87612     33.5800E-03    -16.1399E-03    -17.4401E-03    -15.8826E-03     32.0226E-03    -16.1399E-03     17.3781E-03     28.0176E+06    -1.77683E+06    -33.0568E+06    -1.72253E+06     27.9633E+06    -33.0568E+06     221.314E+03         32.5675
            1206     14.7592E-03     57.9073E-03         2.14699         1.28546        -2.05471    -50.5172E-03     136.938E-03         1.29132        -3.03364     34.7498E-03    -15.9391E-03    -18.8108E-03    -15.7157E-03     31.6548E-03    -15.9391E-03     24.6232E-03     97.3766E+06    -4.87649E+06    -49.2684E+06    -4.86886E+06     97.3690E+06    -49.2684E+06     364.347E+03         34.7478
            1207     15.7444E-03     57.9376E-03         3.16500         1.13844        -2.64386        -2.49384         3.01498         1.13844        -1.15485     36.9612E-03    -16.0201E-03    -20.9410E-03    -15.5231E-03     31.5433E-03    -16.0201E-03     33.5450E-03     165.772E+06     11.4346E+06    -30.6229E+06    -7.80905E+06     165.756E+06    -11.3633E+06     970.691E+03         36.9174
            1208     16.7285E-03     57.9766E-03         4.22844     912.849E-03        -3.10260        -3.08302         4.20886     912.849E-03     109.843E-03     35.2530E-03    -15.8740E-03    -19.3790E-03    -14.9772E-03     31.4310E-03    -16.4539E-03     25.7152E-03     199.670E+06     86.5792E+06    -6.25134E+06    -6.23592E+06     199.655E+06     86.5792E+06     157.278E+03         38.9651
            1209     983.633E-06     58.8160E-03         16.6211        -5.99380        -9.32710        -6.38776         16.0232        -8.33522        -1.39157     33.5987E-03    -16.7442E-03    -16.8545E-03    -16.8421E-03     33.5863E-03    -16.7442E-03     1.49302E-03    -18.1886E+06    -20.2200E+06    -226.038E+06    -20.1721E+06    -226.036E+06    -18.2383E+06    -150.868E+03         22.5974
            1210     1.96725E-03     58.8180E-03         13.9419        -3.51663        -9.15351        -5.42719         13.6802        -6.98129         3.35563     33.6112E-03    -16.7891E-03    -16.8222E-03    -16.7676E-03     33.5765E-03    -16.8089E-03     2.58218E-03    -13.3778E+06    -17.7038E+06    -220.302E+06    -17.7050E+06    -220.301E+06    -13.3778E+06    -389.949E+03         22.6390
            1211     2.95096E-03     58.8213E-03         11.4547        -2.76635        -7.37650        -3.82235         11.3304        -6.19615         1.70321     33.5675E-03    -16.7640E-03    -16.8035E-03    -16.6949E-03     33.4984E-03    -16.8035E-03     3.68860E-03    -8.27965E+06    -14.9815E+06    -211.248E+06    -14.9836E+06    -211.246E+06    -8.27965E+06    -541.213E+03         22.7131
            1212     3.93475E-03     58.8257E-03         8.28613        -1.65232        -5.25409    -950.770E-03         7.58458        -5.25409         2.58581     33.5568E-03    -16.7647E-03    -16.7920E-03    -16.6572E-03     33.4416E-03    -16.7843E-03     4.77795E-03    -3.54833E+06    -12.5634E+06    -197.170E+06    -12.5651E+06    -197.168E+06    -3.54833E+06    -445.095E+03         22.8290
            1213     4.91853E-03     58.8312E-03         6.38523    -887.627E-03        -4.07075         2.29124         3.20636        -4.07075         4.89486     33.5540E-03    -16.7706E-03    -16.7833E-03    -16.6155E-03     33.3900E-03    -16.7745E-03     5.72194E-03     2.08975E+06    -10.1798E+06    -183.694E+06    -10.1805E+06    -183.693E+06     2.08975E+06    -237.924E+03         23.0015
            1214     5.90227E-03     58.8376E-03         7.03914        -1.74657        -3.83286         5.50182        -1.30044        -2.74167         5.53685     33.5038E-03    -16.7455E-03    -16.7583E-03    -16.5348E-03     33.2911E-03    -16.7562E-03     6.51247E-03     6.99366E+06    -7.43117E+06    -168.416E+06    -7.43282E+06    -168.414E+06     6.99366E+06    -386.379E+03         23.2529
            1215     6.88621E-03     58.8448E-03         8.10973        -1.39110        -5.28263         7.84942        -5.02232        -1.39110         2.61672     33.4583E-03    -16.7113E-03    -16.7470E-03    -16.4746E-03     33.1928E-03    -16.7181E-03     7.27318E-03     8.92701E+06    -4.79890E+06    -151.592E+06    -4.80206E+06    -151.589E+06     8.92701E+06    -656.896E+03         23.6148
            1216     7.87009E-03     58.8526E-03         7.06588    -275.035E-03        -5.44297         6.98005        -5.35714    -275.035E-03         1.34521     33.4313E-03    -16.6764E-03    -16.7549E-03    -16.4332E-03     33.1096E-03    -16.6764E-03     8.00090E-03     9.38500E+06    -3.02621E+06    -135.252E+06    -3.02984E+06    -135.248E+06     9.38500E+06    -624.391E+03         24.1284
            1217     8.85409E-03     58.8613E-03         5.28545     441.141E-03        -4.46542         5.12995        -4.30992     441.141E-03         1.34696     33.3677E-03    -16.6357E-03    -16.7321E-03    -16.3672E-03     33.0029E-03    -16.6357E-03     8.51799E-03     9.46320E+06    -1.78361E+06    -118.839E+06    -1.78626E+06    -118.836E+06     9.46320E+06    -383.455E+03         24.8423
            1218     9.83807E-03     58.8702E-03         5.34883     914.715E-03        -5.08271         5.12782        -4.86169     914.715E-03        -1.07775     33.3106E-03    -16.5761E-03    -16.7344E-03    -16.3021E-03     32.8782E-03    -16.5761E-03     9.24432E-03     5.31891E+06    -992.651E+03    -103.345E+06    -994.989E+03    -103.343E+06     5.31891E+06    -255.197E+03         25.8069
            1219     10.8222E-03     58.8804E-03         4.44816         1.11944        -4.44376         4.14217        -4.27631         1.25797        -1.78132     33.3266E-03    -16.4862E-03    -16.8404E-03    -16.2569E-03     32.7431E-03    -16.4862E-03     10.7197E-03     319.865E+03    -4.42873E+06    -81.3685E+06    -736.534E+03    -81.3604E+06     -3.3804E+06    -316.974E+03         27.0635
            1220     11.8063E-03     58.8923E-03         2.82503         1.11109        -2.80008         1.64425        -1.90676         1.39855        -2.50342     33.2512E-03    -16.3957E-03    -16.8555E-03    -16.1708E-03     32.5665E-03    -16.3957E-03     11.6334E-03    -933.345E+03    -10.3043E+06    -50.5160E+06    -943.698E+03    -50.5056E+06    -10.3043E+06    -40.5874E+03         28.6298
            1221     12.7906E-03     58.9044E-03         2.59296         1.24361        -2.62855         1.01708        -1.20161         1.39254        -4.36175     33.2497E-03    -16.3052E-03    -16.9446E-03    -16.0454E-03     32.3506E-03    -16.3052E-03     13.2231E-03     978.487E+03    -7.73419E+06    -27.0025E+06    -2.04948E+06    -15.3224E+06    -16.3864E+06     380.700E+03         30.4857
            1222     13.7748E-03     58.9197E-03         3.01083         1.37749        -3.06909         1.39658        -1.45483         1.37749        -5.12115     33.5823E-03    -16.1507E-03    -17.4316E-03    -15.9128E-03     32.0635E-03    -16.1507E-03     17.1810E-03     28.3596E+06    -4.43789E+06    -32.2759E+06    -4.41625E+06     28.3380E+06    -32.2759E+06     568.097E+03         32.5652
            1223     14.7597E-03     58.9400E-03         2.43697         1.29102        -2.25302     270.032E-03    -136.098E-03         1.34104        -3.89410     34.7754E-03    -15.9484E-03    -18.8270E-03    -15.7504E-03     31.6988E-03    -15.9484E-03     24.5190E-03     97.0434E+06    -7.09478E+06    -49.3842E+06    -7.08930E+06     97.0379E+06    -49.3842E+06     646.854E+03         34.7611
            1224     15.7437E-03     58.9706E-03         2.43799         1.17662        -1.92654        -1.25352         1.71495         1.22664        -2.02000     36.7721E-03    -16.0188E-03    -20.7533E-03    -15.4259E-03     31.4446E-03    -16.0188E-03     33.1909E-03     165.340E+06     10.5500E+06    -30.8050E+06    -7.68655E+06     165.326E+06    -12.5536E+06     788.158E+03         36.9459
            1225     16.7299E-03     59.0090E-03         3.41420         1.06201        -2.42656        -1.92509         2.91273         1.06201    -868.339E-03     35.0805E-03    -15.9131E-03    -19.1675E-03    -14.9486E-03     31.4005E-03    -16.4519E-03     25.0708E-03     200.197E+06     86.3241E+06    -5.83190E+06    -5.80420E+06     200.169E+06     86.3241E+06     930.637E+03         39.0045
            1226     983.622E-06     59.8490E-03         22.5960        -8.70176        -12.1841        -7.75628         21.6505        -12.1841        -2.76634     33.6026E-03    -16.7541E-03    -16.8485E-03    -16.8211E-03     33.5895E-03    -16.7683E-03     1.54896E-03    -18.2186E+06    -20.6193E+06    -225.347E+06    -19.9432E+06    -225.345E+06    -18.8962E+06    -121.390E+03         22.5927
            1227     1.96728E-03     59.8511E-03         11.7947        -2.32757        -8.02274    -240.243E-03         9.70737        -8.02274         2.01837     33.5789E-03    -16.7744E-03    -16.8045E-03    -16.7397E-03     33.5433E-03    -16.8036E-03     2.61844E-03    -14.0561E+06    -18.0090E+06    -219.828E+06    -18.0125E+06    -219.825E+06    -14.0561E+06    -773.466E+03         22.6339
            1228     2.95101E-03     59.8542E-03         6.35143    -195.157E-03        -4.76223         3.09569         3.06059        -4.76223     337.091E-03     33.5852E-03    -16.7735E-03    -16.8117E-03    -16.7172E-03     33.5139E-03    -16.7966E-03     3.74649E-03    -9.13745E+06    -15.7454E+06    -211.119E+06    -15.7500E+06    -211.115E+06    -9.13745E+06    -906.890E+03         22.7071
            1229     3.93471E-03     59.8587E-03         6.05269        -1.32126        -3.31693     83.7074E-03         4.38248        -3.05169         2.20581     33.5904E-03    -16.7784E-03    -16.8120E-03    -16.6874E-03     33.4740E-03    -16.7865E-03     4.81376E-03    -4.40004E+06    -13.5564E+06    -197.447E+06    -13.5594E+06    -197.444E+06    -4.40004E+06    -680.575E+03         22.8217
            1230     4.91841E-03     59.8642E-03         5.50961        -1.23128        -2.72294    -540.449E-03         4.55354        -2.45769         2.83936     33.5485E-03    -16.7613E-03    -16.7871E-03    -16.6087E-03     33.3854E-03    -16.7767E-03     5.70578E-03     980.737E+03    -11.0574E+06    -183.592E+06    -11.0603E+06    -183.589E+06     980.737E+03    -635.316E+03         22.9921
            1231     5.90231E-03     59.8705E-03         5.35549        -1.00216        -2.75148         3.64763    -243.075E-03        -1.80270         3.31509     33.4883E-03    -16.7321E-03    -16.7562E-03    -16.5192E-03     33.2754E-03    -16.7562E-03     6.51261E-03     6.07425E+06    -8.28257E+06    -168.021E+06    -8.28741E+06    -168.017E+06     6.07425E+06    -847.151E+03         23.2407
            1232     6.88619E-03     59.8777E-03         6.35871    -854.545E-03        -3.94822         5.97079        -3.56029    -854.545E-03         2.59455     33.4584E-03    -16.7123E-03    -16.7461E-03    -16.4708E-03     33.1918E-03    -16.7210E-03     7.28793E-03     8.69449E+06    -5.91815E+06    -151.600E+06    -5.92247E+06    -151.596E+06     8.69449E+06    -721.516E+03         23.5989
            1233     7.87013E-03     59.8856E-03         6.16244    -901.204E-06        -4.68044         5.79938        -4.31737    -901.204E-06         2.15249     33.4235E-03    -16.6787E-03    -16.7448E-03    -16.4240E-03     33.1027E-03    -16.6787E-03     7.99027E-03     9.16934E+06    -4.14325E+06    -135.398E+06    -4.14488E+06    -135.396E+06     9.16934E+06    -372.440E+03         24.1082
            1234     8.85405E-03     59.8942E-03         5.92675     655.158E-03        -5.19441         5.90342        -5.17108     655.158E-03     252.341E-03     33.3521E-03    -16.6358E-03    -16.7164E-03    -16.3527E-03     32.9885E-03    -16.6358E-03     8.50135E-03     9.10311E+06    -2.85714E+06    -118.888E+06    -2.85842E+06    -118.887E+06     9.10311E+06    -247.515E+03         24.8179
            1235     9.83814E-03     59.9032E-03         4.42482         1.06584        -4.20443         3.82192        -3.62039         1.08470        -1.58455     33.3205E-03    -16.5763E-03    -16.7442E-03    -16.3119E-03     32.8882E-03    -16.5763E-03     9.24669E-03     4.98537E+06    -2.14018E+06    -103.392E+06    -2.14155E+06    -103.390E+06     4.98537E+06    -165.777E+03         25.7795
            1236     10.8221E-03     59.9132E-03         2.09085         1.04260        -1.87919     742.120E-03    -687.840E-03         1.19998        -2.02923     33.3408E-03    -16.4868E-03    -16.8539E-03    -16.2695E-03     32.7564E-03    -16.4868E-03     10.7298E-03    -936.860E+03    -5.34545E+06    -81.0674E+06    -2.39118E+06    -81.0608E+06    -3.89777E+06    -265.379E+03         27.0356
            1237     11.8063E-03     59.9254E-03         2.71627         1.03351        -2.46616         1.06633    -954.745E-03         1.17204        -3.87694     33.2496E-03    -16.3978E-03    -16.8518E-03    -16.1690E-03     32.5669E-03    -16.3978E-03     11.6173E-03    -3.07301E+06    -11.0532E+06    -51.0221E+06    -3.08975E+06    -51.0054E+06    -11.0532E+06    -295.399E+03         28.6055
            1238     12.7905E-03     59.9372E-03         3.91183         1.20671        -3.78307         2.30546        -2.17670         1.20671        -6.14099     33.2685E-03    -16.3052E-03    -16.9633E-03    -16.0615E-03     32.3667E-03    -16.3052E-03     13.2405E-03     149.713E+03    -8.96554E+06    -28.7241E+06    -3.81794E+06    -16.1002E+06    -17.6219E+06     543.268E+03         30.4699
            1239     13.7748E-03     59.9527E-03         3.42260         1.25462        -3.26376         1.50093        -1.34209         1.25462        -5.80030     33.6601E-03    -16.1486E-03    -17.5115E-03    -15.9929E-03     32.1415E-03    -16.1486E-03     17.2197E-03     29.0659E+06    -5.04774E+06    -33.7492E+06    -4.90217E+06     28.9203E+06    -33.7492E+06     585.850E+03         32.5626
            1240     14.7588E-03     59.9728E-03         2.12284         1.11240        -1.73675     384.036E-03    -117.319E-03         1.23177        -3.43045     34.8197E-03    -15.9474E-03    -18.8723E-03    -15.7931E-03     31.7406E-03    -15.9474E-03     24.5330E-03     97.0401E+06    -6.67412E+06    -51.1917E+06    -6.66651E+06     97.0325E+06    -51.1917E+06     221.523E+03         34.7744
            1241     15.7440E-03     60.0037E-03         1.61995         1.05206        -1.06752     248.031E-03     185.025E-03         1.17144        -2.30853     36.8716E-03    -16.0232E-03    -20.8484E-03    -15.4329E-03     31.4561E-03    -16.0232E-03     33.4825E-03     163.527E+06     9.89608E+06    -33.8465E+06    -9.34824E+06     163.501E+06    -14.5763E+06     1.03768E+06         36.9745
            1242     16.7274E-03     60.0420E-03         2.01494         1.05587        -1.34773    -85.4207E-03     702.978E-03         1.10552        -1.94725     35.1380E-03    -15.8581E-03    -19.2799E-03    -14.8770E-03     31.3366E-03    -16.4595E-03     25.6062E-03     200.410E+06     86.1690E+06    -6.95931E+06    -6.92096E+06     200.372E+06     86.1690E+06     1.33648E+06         39.0444
            1243     983.620E-06     60.8820E-03         15.5749        -5.42021        -8.57698        -4.15027         12.6316        -6.90363        -4.79418     33.5374E-03    -16.7311E-03    -16.8063E-03    -16.7771E-03     33.5247E-03    -16.7476E-03     1.49763E-03    -17.9287E+06    -19.7671E+06    -224.792E+06    -19.0928E+06    -224.788E+06    -18.6063E+06    -671.859E+03         22.5878
            1244     1.96740E-03     60.8840E-03         7.83455        -1.88591        -4.39104     484.019E-03         5.38551        -4.31193         1.09877     33.5539E-03    -16.7583E-03    -16.7956E-03    -16.7425E-03     33.5178E-03    -16.7752E-03     2.63457E-03    -14.2924E+06    -18.0075E+06    -219.194E+06    -18.0109E+06    -219.191E+06    -14.2924E+06    -680.614E+03         22.6286
            1245     2.95106E-03     60.8873E-03         5.84880    -725.512E-03        -3.62589         3.43704     225.858E-03        -2.16550         1.65320     33.6173E-03    -16.7851E-03    -16.8322E-03    -16.7595E-03     33.5451E-03    -16.7856E-03     3.77338E-03    -9.43395E+06    -16.4002E+06    -210.859E+06    -16.4029E+06    -210.856E+06    -9.43395E+06    -555.727E+03         22.7011
            1246     3.93468E-03     60.8918E-03         6.03478    -656.191E-03        -3.84802         2.11575     264.539E-03    -849.720E-03         6.19045     33.5918E-03    -16.7772E-03    -16.8146E-03    -16.6896E-03     33.4746E-03    -16.7850E-03     4.82904E-03    -4.74875E+06    -14.3545E+06    -197.378E+06    -14.3572E+06    -197.375E+06    -4.74875E+06    -631.353E+03         22.8143
            1247     4.91846E-03     60.8972E-03         4.33333    -163.088E-03        -2.55184     291.853E-03         1.72448    -397.925E-03         3.78589     33.5249E-03    -16.7490E-03    -16.7758E-03    -16.5876E-03     33.3601E-03    -16.7724E-03     5.73226E-03     416.909E+03    -11.8680E+06    -183.276E+06    -11.8733E+06    -183.271E+06     416.909E+03    -947.692E+03         22.9827
            1248     5.90228E-03     60.9035E-03         3.56671     6.47193E-03        -1.90656     826.663E-03         1.06833    -228.365E-03         3.03818     33.4930E-03    -16.7333E-03    -16.7597E-03    -16.5253E-03     33.2762E-03    -16.7509E-03     6.57151E-03     5.26737E+06    -9.51224E+06    -168.051E+06    -9.51791E+06    -168.045E+06     5.26737E+06    -901.998E+03         23.2285
            1249     6.88616E-03     60.9107E-03         4.08904     26.1416E-03        -2.48027         2.22141    -612.644E-03     26.1416E-03         3.74535     33.4725E-03    -16.7182E-03    -16.7543E-03    -16.4826E-03     33.2027E-03    -16.7201E-03     7.33371E-03     8.14296E+06    -7.48453E+06    -151.975E+06    -7.48706E+06    -151.972E+06     8.14296E+06    -489.133E+03         23.5831
            1250     7.87006E-03     60.9185E-03         4.36251     399.053E-03        -3.19945         3.76438        -2.60131     399.053E-03         2.29792     33.4118E-03    -16.6788E-03    -16.7330E-03    -16.4121E-03     33.0909E-03    -16.6788E-03     7.98998E-03     8.77592E+06    -5.75394E+06    -135.393E+06    -5.75434E+06    -135.392E+06     8.77592E+06    -196.021E+03         24.0881
            1251     8.85410E-03     60.9271E-03         4.36786     779.738E-03        -3.69895         3.80571        -3.13680     779.738E-03    -785.624E-03     33.3421E-03    -16.6340E-03    -16.7082E-03    -16.3443E-03     32.9783E-03    -16.6340E-03     8.50133E-03     8.55425E+06    -4.31664E+06    -118.850E+06    -4.31689E+06    -118.850E+06     8.55425E+06    -41.9009E+03         24.7935
            1252     9.83810E-03     60.9360E-03         2.62586     957.888E-03        -2.21921         1.57749        -1.18969     976.742E-03        -1.43865     33.3286E-03    -16.5750E-03    -16.7536E-03    -16.3184E-03     32.8934E-03    -16.5750E-03     9.27768E-03     4.54936E+06    -3.40294E+06    -103.407E+06    -3.40340E+06    -103.406E+06     4.54936E+06     32.1774E+03         25.7518
            1253     10.8222E-03     60.9463E-03         1.68932     957.163E-03        -1.30544     360.150E-03     4.87349E-03     976.016E-03        -2.08778     33.3536E-03    -16.4857E-03    -16.8679E-03    -16.2794E-03     32.7652E-03    -16.4857E-03     10.7706E-03    -1.48728E+06    -6.31356E+06    -81.0457E+06    -3.42236E+06    -81.0438E+06    -4.38043E+06     199.638E+03         27.0073
            1254     11.8062E-03     60.9581E-03         2.85336     957.737E-03        -2.44883         1.24341    -838.885E-03     957.737E-03        -4.11316     33.2576E-03    -16.3982E-03    -16.8595E-03    -16.1725E-03     32.5707E-03    -16.3982E-03     11.6544E-03    -4.38559E+06    -11.4427E+06    -50.9596E+06    -4.39466E+06    -50.9505E+06    -11.4427E+06     48.9742E+03         28.5807
            1255     12.7905E-03     60.9703E-03         3.42577     994.249E-03        -3.01053         1.68975        -1.27451     994.249E-03        -5.49636     33.2860E-03    -16.2977E-03    -16.9883E-03    -16.0730E-03     32.3706E-03    -16.2977E-03     13.3387E-03    -818.493E+03    -9.31839E+06     -30.707E+06    -4.80445E+06    -16.4236E+06    -19.6158E+06    -511.761E+03         30.4537
            1256     13.7747E-03     60.9856E-03         3.33972         1.03146        -2.92670         1.42370        -1.01068         1.03146        -5.69201     33.6748E-03    -16.1459E-03    -17.5289E-03    -15.9830E-03     32.1288E-03    -16.1459E-03     17.3753E-03     29.1407E+06    -5.72763E+06    -34.5664E+06    -5.34382E+06     28.7569E+06    -34.5664E+06     20.3779E+03         32.5598
            1257     14.7594E-03     61.0061E-03         2.87224     991.336E-03        -2.40685         1.64977        -1.25374         1.06069        -3.98425     34.8409E-03    -15.9547E-03    -18.8862E-03    -15.7981E-03     31.7528E-03    -15.9547E-03     24.6007E-03     96.4167E+06    -8.88637E+06    -50.7285E+06    -8.85155E+06     96.3819E+06    -50.7285E+06     1.05767E+06         34.7879
            1258     15.7436E-03     61.0359E-03         2.11529         1.02238        -1.73185         1.55900        -1.24492         1.09174        -1.66124     36.8440E-03    -16.0230E-03    -20.8210E-03    -15.3896E-03     31.4126E-03    -16.0230E-03     33.4975E-03     163.189E+06     8.23904E+06    -34.1534E+06    -10.8172E+06     163.153E+06    -15.0617E+06     1.34529E+06         37.0038
            1259     16.7303E-03     61.0754E-03         1.50510     902.923E-03        -1.11684     772.347E-03    -577.007E-03         1.09584    -500.736E-03     35.1302E-03    -15.9015E-03    -19.2288E-03    -14.8625E-03     31.3200E-03    -16.4576E-03     25.5425E-03     201.220E+06     86.4144E+06    -6.99694E+06    -6.96591E+06     201.189E+06     86.4144E+06     775.748E+03         39.0852
            1260     983.755E-06     61.9149E-03         9.31974         1.64580        -9.53511         3.52186        -3.54172         1.45029        -10.9938     33.5064E-03    -16.7130E-03    -16.7934E-03    -16.7794E-03     33.4947E-03    -16.7153E-03     1.41560E-03    -17.5742E+06    -18.8521E+06    -224.252E+06    -18.8558E+06    -224.248E+06    -17.5742E+06    -494.155E+03         22.5829
            1261     1.96741E-03     61.9170E-03         4.66692         1.14539        -4.31923         1.50366        -2.31269         2.30212    -400.981E-03     33.5763E-03    -16.7654E-03    -16.8109E-03    -16.7727E-03     33.5404E-03    -16.7677E-03     2.61968E-03    -14.3472E+06    -18.2244E+06    -219.270E+06    -18.2257E+06    -219.268E+06    -14.3472E+06    -72.1633E+03         22.6234
            1262     2.95100E-03     61.9204E-03         4.71391     188.518E-03        -3.31515    -26.8158E-03    -198.526E-03         1.81261         3.60057     33.5927E-03    -16.7736E-03    -16.8191E-03    -16.7367E-03     33.5208E-03    -16.7841E-03     3.76533E-03    -9.41332E+06    -16.4275E+06    -210.736E+06    -16.4275E+06    -210.736E+06    -9.41332E+06    -94.6921E+03         22.6951
            1263     3.93473E-03     61.9248E-03         4.89185         1.28538        -4.48121         1.85786        -1.71908         1.55725         6.51279     33.5403E-03    -16.7529E-03    -16.7873E-03    -16.6472E-03     33.4234E-03    -16.7762E-03     4.81470E-03    -4.50773E+06    -14.1808E+06    -196.942E+06    -14.1820E+06    -196.941E+06    -4.50773E+06    -308.034E+03         22.8070
            1264     4.91854E-03     61.9302E-03         3.41869         1.44357        -3.16678         2.07001        -2.02235         1.64783         2.78199     33.5057E-03    -16.7432E-03    -16.7625E-03    -16.5800E-03     33.3402E-03    -16.7602E-03     5.74320E-03     460.889E+03    -12.3097E+06    -182.924E+06    -12.3127E+06    -182.921E+06     460.889E+03    -503.173E+03         22.9734
            1265     5.90240E-03     61.9364E-03         2.85557         1.29779        -2.45112    -874.405E-03         1.07460         1.50205         2.20809     33.5022E-03    -16.7362E-03    -16.7660E-03    -16.5425E-03     33.2828E-03    -16.7404E-03     6.61036E-03     4.77467E+06    -10.4970E+06    -168.213E+06    -10.4994E+06    -168.211E+06     4.77467E+06    -455.405E+03         23.2164
            1266     6.88624E-03     61.9436E-03         3.07778         1.13370        -2.52450        -1.37690         1.93018         1.13370         2.42873     33.4741E-03    -16.7124E-03    -16.7617E-03    -16.4905E-03     33.2029E-03    -16.7124E-03     7.35588E-03     7.48334E+06    -8.52038E+06    -152.319E+06    -8.52097E+06    -152.318E+06     7.48334E+06    -238.358E+03         23.5674
            1267     7.87014E-03     61.9515E-03         3.08184     901.848E-03        -2.39473    -30.8364E-03     717.943E-03     901.848E-03     431.738E-03     33.4044E-03    -16.6729E-03    -16.7315E-03    -16.4100E-03     33.0828E-03    -16.6729E-03     7.99671E-03     8.34295E+06    -6.73091E+06    -135.294E+06    -6.73104E+06    -135.293E+06     8.34295E+06    -54.9971E+03         24.0680
            1268     8.85411E-03     61.9600E-03         3.06446     770.226E-03        -2.36275    -572.545E-03         1.27426     770.226E-03    -689.279E-03     33.3457E-03    -16.6283E-03    -16.7174E-03    -16.3493E-03     32.9776E-03    -16.6283E-03     8.55121E-03     7.99319E+06    -5.24971E+06    -118.892E+06    -5.24985E+06    -118.891E+06     7.99319E+06     71.2697E+03         24.7690
            1269     9.83813E-03     61.9690E-03         2.48704     662.761E-03        -1.75266     47.5024E-03     686.878E-03     662.761E-03        -1.99670     33.3270E-03    -16.5692E-03    -16.7578E-03    -16.3182E-03     32.8874E-03    -16.5692E-03     9.32547E-03     3.90577E+06    -4.19444E+06    -103.339E+06    -4.19485E+06    -103.339E+06     3.90577E+06     182.304E+03         25.7240
            1270     10.8222E-03     61.9791E-03         2.67926     688.378E-03        -2.01167         1.99858        -1.33099     688.378E-03        -3.20742     33.3449E-03    -16.4810E-03    -16.8640E-03    -16.2707E-03     32.7517E-03    -16.4810E-03     10.8110E-03    -1.80201E+06    -6.90149E+06    -81.4496E+06    -3.86806E+06    -81.4466E+06    -4.83845E+06     404.995E+03         26.9787
            1271     11.8063E-03     61.9912E-03         3.23739     776.284E-03        -2.65267         1.52513    -940.405E-03     776.284E-03        -4.76603     33.2691E-03    -16.3945E-03    -16.8746E-03    -16.1826E-03     32.5771E-03    -16.3945E-03     11.6998E-03    -4.22959E+06    -11.2577E+06    -50.3032E+06    -4.23300E+06    -50.2998E+06    -11.2577E+06     349.483E+03         28.5554
            1272     12.7905E-03     62.0030E-03         3.05738     801.860E-03        -2.46641     722.563E-03    -131.592E-03     801.860E-03        -5.42219     33.2887E-03    -16.2943E-03    -16.9944E-03    -16.0699E-03     32.3642E-03    -16.2943E-03     13.4003E-03    -1.20830E+06    -10.3385E+06    -30.0386E+06    -6.08660E+06    -15.6145E+06    -19.8842E+06    -456.465E+03         30.4371
            1273     13.7748E-03     62.0188E-03         3.13984     818.010E-03        -2.54994         1.43254    -842.644E-03     818.010E-03        -5.12830     33.6421E-03    -16.1459E-03    -17.4962E-03    -15.9503E-03     32.0962E-03    -16.1459E-03     17.3759E-03     27.2605E+06    -9.14780E+06    -35.5470E+06    -8.86350E+06     26.9762E+06    -35.5470E+06    -23.2681E+03         32.5568
            1274     14.7592E-03     62.0386E-03         3.46671     890.448E-03        -3.01422         2.50101        -2.04853     890.448E-03        -4.25679     34.8220E-03    -15.9590E-03    -18.8630E-03    -15.8010E-03     31.7600E-03    -15.9590E-03     24.4963E-03     96.1185E+06    -10.5083E+06    -49.9298E+06    -10.4768E+06     96.0870E+06    -49.9298E+06     1.11699E+06         34.8014
            1275     15.7440E-03     62.0695E-03         3.02823     995.675E-03        -2.82356         2.76399        -2.55931     995.675E-03        -2.04543     36.8852E-03    -16.0294E-03    -20.8558E-03    -15.5037E-03     31.5331E-03    -16.0294E-03     33.3179E-03     164.117E+06     8.78039E+06    -33.1354E+06    -10.5546E+06     164.104E+06    -13.7877E+06     434.113E+03         37.0333
            1276     16.7275E-03     62.1072E-03         1.85814     683.304E-03        -1.59601         1.12986        -1.23445         1.05003    -434.248E-03     35.0935E-03    -15.8290E-03    -19.2645E-03    -14.8720E-03     31.3345E-03    -16.4625E-03     25.4582E-03     201.217E+06     86.2063E+06    -7.32127E+06    -7.31238E+06     201.208E+06     86.2063E+06    -109.962E+03         39.1262
            1277     983.688E-06     62.9478E-03         11.6740         6.90841        -17.2531         7.85559        -14.7094         8.18314        -13.2138     33.5443E-03    -16.7167E-03    -16.8276E-03    -16.8154E-03     33.5321E-03    -16.7167E-03     1.44811E-03    -18.9607E+06    -20.0829E+06    -224.398E+06    -20.0115E+06    -224.397E+06    -19.0332E+06     192.720E+03         22.5782
            1278     1.96727E-03     62.9501E-03         7.20582         3.33556        -9.08004         3.13762        -8.72512         7.04884        -1.75170     33.5797E-03    -16.7707E-03    -16.8090E-03    -16.7591E-03     33.5438E-03    -16.7847E-03     2.62390E-03    -14.6613E+06    -18.3648E+06    -219.393E+06    -18.3653E+06    -219.393E+06    -14.6613E+06     127.483E+03         22.6182
            1279     2.95102E-03     62.9533E-03         5.16694         1.16152        -4.69488    -304.278E-03        -3.22908         5.16694     95.0456E-03     33.5369E-03    -16.7481E-03    -16.7888E-03    -16.6805E-03     33.4658E-03    -16.7853E-03     3.74048E-03    -9.56735E+06    -16.4602E+06    -210.872E+06    -16.4604E+06    -210.872E+06    -9.56735E+06     49.5837E+03         22.6891
            1280     3.93483E-03     62.9577E-03         4.00438         1.11758        -3.38033     143.294E-03        -2.20754         3.80587         1.78642     33.4965E-03    -16.7306E-03    -16.7659E-03    -16.6158E-03     33.3818E-03    -16.7659E-03     4.76961E-03    -4.51318E+06    -14.3427E+06    -196.774E+06    -14.3431E+06    -196.774E+06    -4.51318E+06     122.542E+03         22.7997
            1281     4.91862E-03     62.9631E-03         3.33836         1.58005        -3.14774     982.173E-03        -2.35134         3.13985         1.72870     33.4992E-03    -16.7385E-03    -16.7607E-03    -16.5847E-03     33.3354E-03    -16.7507E-03     5.70952E-03     954.914E+03    -11.9335E+06    -182.767E+06    -11.9339E+06    -182.766E+06     954.914E+03     179.551E+03         22.9643
            1282     5.90242E-03     62.9694E-03         2.92829         1.93873        -3.12876    -947.598E-03     54.6052E-03         2.63126         1.18106     33.4989E-03    -16.7326E-03    -16.7662E-03    -16.5483E-03     33.2810E-03    -16.7326E-03     6.58997E-03     5.20932E+06    -9.72174E+06    -168.137E+06    -9.72262E+06    -168.137E+06     5.20932E+06     154.467E+03         23.2045
            1283     6.88625E-03     62.9766E-03         3.69567         1.70582        -3.71513        -3.31883         3.04522         1.95997        -1.31744     33.4468E-03    -16.7021E-03    -16.7447E-03    -16.4759E-03     33.1780E-03    -16.7021E-03     7.31989E-03     7.27627E+06    -7.99632E+06    -152.280E+06    -7.99692E+06    -152.280E+06     7.27627E+06     72.3334E+03         23.5518
            1284     7.87021E-03     62.9843E-03         4.84791         1.23827        -4.49897        -4.31293         4.66187         1.23827        -1.80178     33.3912E-03    -16.6624E-03    -16.7289E-03    -16.4069E-03     33.0693E-03    -16.6624E-03     7.99859E-03     8.07094E+06    -6.42333E+06    -135.389E+06    -6.42389E+06    -135.388E+06     8.07094E+06     171.326E+03         24.0481
            1285     8.85418E-03     62.9929E-03         4.16224     676.192E-03        -3.37525        -3.19722         3.98421     676.192E-03    -862.644E-03     33.3464E-03    -16.6198E-03    -16.7267E-03    -16.3567E-03     32.9765E-03    -16.6198E-03     8.57334E-03     7.92146E+06    -5.03257E+06    -118.834E+06    -5.03328E+06    -118.833E+06     7.92146E+06     222.941E+03         24.7446
            1286     9.83822E-03     63.0018E-03         3.36551     412.302E-03        -2.41502    -537.091E-03         1.48758     412.302E-03        -3.23621     33.3264E-03    -16.5614E-03    -16.7651E-03    -16.3226E-03     32.8839E-03    -16.5614E-03     9.35579E-03     3.67652E+06    -4.08522E+06    -103.332E+06    -4.08621E+06    -103.331E+06     3.67652E+06     265.705E+03         25.6960
            1287     10.8222E-03     63.0121E-03         3.15099     415.752E-03        -2.26219         1.58225    -693.446E-03     415.752E-03        -4.12259     33.3379E-03    -16.4754E-03    -16.8625E-03    -16.2698E-03     32.7452E-03    -16.4754E-03     10.8093E-03    -2.05621E+06    -6.62973E+06    -81.6136E+06    -3.83738E+06    -81.6107E+06    -4.85140E+06     419.862E+03         26.9497
            1288     11.8064E-03     63.0240E-03         3.20579     524.000E-03        -2.43984         1.92037        -1.15442     524.000E-03        -4.09157     33.2584E-03    -16.3879E-03    -16.8705E-03    -16.1735E-03     32.5614E-03    -16.3879E-03     11.7386E-03    -4.39805E+06    -11.4574E+06    -50.0432E+06    -4.41074E+06    -50.0306E+06    -11.4574E+06     498.547E+03         28.5297
            1289     12.7905E-03     63.0362E-03         3.42346     614.977E-03        -2.72919         1.53817    -843.903E-03     614.977E-03        -5.31858     33.2829E-03    -16.2934E-03    -16.9895E-03    -16.0694E-03     32.3629E-03    -16.2934E-03     13.3847E-03    -1.51198E+06    -9.84043E+06    -27.9910E+06    -5.55780E+06    -15.0239E+06    -18.7617E+06     514.038E+03         30.4200
            1290     13.7749E-03     63.0513E-03         3.31423     693.147E-03        -2.71623         1.93569        -1.33769     693.147E-03        -4.97575     33.6628E-03    -16.1366E-03    -17.5262E-03    -15.9692E-03     32.1057E-03    -16.1366E-03     17.4199E-03     26.4406E+06    -7.19639E+06    -36.2080E+06    -7.16634E+06     26.4106E+06    -36.2080E+06     142.454E+03         32.5533
            1291     14.7592E-03     63.0721E-03         2.95009     778.766E-03        -2.51331         2.06475        -1.62798     778.766E-03        -3.77947     34.8314E-03    -15.9454E-03    -18.8860E-03    -15.7934E-03     31.7387E-03    -15.9454E-03     24.6368E-03     96.0392E+06    -9.27980E+06    -51.4765E+06    -9.27774E+06     96.0372E+06    -51.4765E+06    -228.494E+03         34.8148
            1292     15.7437E-03     63.1017E-03         2.51614     844.224E-03        -2.32766         1.70225        -1.51377     844.224E-03        -2.97034     36.9515E-03    -16.0238E-03    -20.9277E-03    -15.4554E-03     31.4792E-03    -16.0238E-03     33.6751E-03     164.868E+06     8.70967E+06    -31.9515E+06    -9.84247E+06     164.865E+06    -13.3967E+06    -37.6957E+03         37.0633
            1293     16.7296E-03     63.1414E-03         2.27164     656.670E-03        -2.17669         1.40522        -1.53373     880.134E-03        -1.52358     35.2543E-03    -15.9036E-03    -19.3507E-03    -14.9202E-03     31.3741E-03    -16.4539E-03     25.8807E-03     201.018E+06     85.6635E+06    -6.88753E+06    -6.88438E+06     201.015E+06     85.6635E+06    -266.127E+03         39.1682
            1294     983.607E-06     63.9809E-03         12.5483         8.74718        -20.1369         7.94821        -18.3057         11.5161        -7.81933     33.5707E-03    -16.7386E-03    -16.8321E-03    -16.8045E-03     33.5577E-03    -16.7532E-03     1.50757E-03    -19.3806E+06    -20.4505E+06    -224.715E+06    -20.1934E+06    -224.714E+06    -19.6383E+06     144.948E+03         22.5735
            1295     1.96731E-03     63.9830E-03         8.40618         3.81615        -10.7415         3.10329        -10.0286         8.40618    -650.014E-03     33.5376E-03    -16.7517E-03    -16.7859E-03    -16.7166E-03     33.5011E-03    -16.7845E-03     2.65420E-03    -15.6356E+06    -19.1806E+06    -219.626E+06    -19.1818E+06    -219.625E+06    -15.6356E+06     263.692E+03         22.6131
            1296     2.95104E-03     63.9863E-03         6.44484         2.99206        -7.84006         2.62685        -7.47484         6.44484        -2.38152     33.5135E-03    -16.7393E-03    -16.7742E-03    -16.6680E-03     33.4422E-03    -16.7742E-03     3.74432E-03    -10.5606E+06    -17.4351E+06    -211.140E+06    -17.4364E+06    -211.138E+06    -10.5606E+06     348.319E+03         22.6833
            1297     3.93479E-03     63.9906E-03         5.28755         1.20303        -4.83853         1.09176        -4.72726         5.28755     149.837E-03     33.4887E-03    -16.7313E-03    -16.7574E-03    -16.6189E-03     33.3741E-03    -16.7552E-03     4.76744E-03    -5.60190E+06    -15.1498E+06    -196.923E+06    -15.1501E+06    -196.922E+06    -5.60190E+06     224.074E+03         22.7926
            1298     4.91862E-03     63.9960E-03         4.21185         1.16060        -3.66336        -1.35076        -1.15199         4.21185         2.70449     33.4883E-03    -16.7342E-03    -16.7542E-03    -16.5829E-03     33.3243E-03    -16.7414E-03     5.71331E-03    -98.5090E+03    -12.4766E+06    -182.753E+06    -12.4770E+06    -182.753E+06    -98.5090E+03     203.817E+03         22.9553
            1299     5.90244E-03     64.0024E-03         3.29902         2.37940        -3.95243        -2.63372         1.18465         3.17505         2.03050     33.4647E-03    -16.7215E-03    -16.7432E-03    -16.5244E-03     33.2479E-03    -16.7235E-03     6.57097E-03     4.60607E+06    -9.77006E+06    -167.890E+06    -9.77079E+06    -167.889E+06     4.60607E+06     272.715E+03         23.1927
            1300     6.88636E-03     64.0095E-03         4.25097         1.97436        -4.57141        -4.26020         3.68560         2.22852        -1.61272     33.4102E-03    -16.6893E-03    -16.7210E-03    -16.4518E-03     33.1431E-03    -16.6913E-03     7.29143E-03     7.03137E+06    -7.40018E+06    -152.095E+06    -7.40135E+06    -152.093E+06     7.03137E+06     347.766E+03         23.5363
            1301     7.87030E-03     64.0173E-03         5.76170         1.34472        -5.56982        -5.38161         5.57349         1.34472        -1.96527     33.3776E-03    -16.6514E-03    -16.7262E-03    -16.4039E-03     33.0553E-03    -16.6514E-03     8.00139E-03     7.94552E+06    -5.58400E+06    -135.532E+06    -5.58529E+06    -135.531E+06     7.94552E+06     329.772E+03         24.0282
            1302     8.85427E-03     64.0258E-03         4.28486     697.087E-03        -3.56790        -3.40488         4.12184     697.087E-03        -1.73726     33.3408E-03    -16.6109E-03    -16.7299E-03    -16.3613E-03     32.9722E-03    -16.6109E-03     8.55845E-03     8.12591E+06    -4.08194E+06    -118.749E+06    -4.08339E+06    -118.747E+06     8.12591E+06     329.635E+03         24.7201
            1303     9.83826E-03     64.0348E-03         2.72081     399.709E-03        -1.84206        -1.01308         1.89182     399.709E-03        -2.49277     33.3217E-03    -16.5537E-03    -16.7680E-03    -16.3253E-03     32.8790E-03    -16.5537E-03     9.35556E-03     3.88945E+06    -3.10140E+06    -103.328E+06    -3.10339E+06    -103.326E+06     3.88945E+06     406.797E+03         25.6679
            1304     10.8224E-03     64.0450E-03         2.06228     324.086E-03        -1.18152     195.118E-03     685.641E-03     324.086E-03        -2.48697     33.3436E-03    -16.4688E-03    -16.8748E-03    -16.2832E-03     32.7520E-03    -16.4688E-03     10.8051E-03    -1.67076E+06    -5.98158E+06    -81.5379E+06    -2.95914E+06    -81.5346E+06    -4.69646E+06     473.757E+03         26.9204
            1305     11.8064E-03     64.0569E-03         2.30579     381.505E-03        -1.50186         1.89347        -1.08954     381.505E-03        -1.76655     33.2539E-03    -16.3809E-03    -16.8730E-03    -16.1788E-03     32.5596E-03    -16.3809E-03     11.7155E-03    -3.51512E+06    -11.6596E+06    -50.0764E+06    -3.52927E+06    -50.0622E+06    -11.6596E+06     621.320E+03         28.5035
            1306     12.7907E-03     64.0690E-03         3.23217     526.580E-03        -2.58647         2.65888        -2.01318     526.580E-03        -2.92101     33.2646E-03    -16.2893E-03    -16.9753E-03    -16.0590E-03     32.3483E-03    -16.2893E-03     13.3567E-03    -554.596E+03    -9.42581E+06    -27.5226E+06    -4.31226E+06    -14.8822E+06    -18.3086E+06     486.757E+03         30.4023
            1307     13.7748E-03     64.0844E-03         3.09450     655.682E-03        -2.58879         1.97188        -1.46616     655.682E-03        -4.02926     33.6394E-03    -16.1314E-03    -17.5079E-03    -15.9574E-03     32.0888E-03    -16.1314E-03     17.3742E-03     27.0492E+06    -5.93220E+06    -35.7519E+06    -5.92525E+06     27.0422E+06    -35.7519E+06     65.2770E+03         32.5495
            1308     14.7595E-03     64.1046E-03         2.04762     677.466E-03        -1.62815         1.03253    -648.184E-03     712.590E-03        -2.84066     34.8316E-03    -15.9399E-03    -18.8917E-03    -15.8272E-03     31.7671E-03    -15.9399E-03     24.5454E-03     96.4544E+06    -8.48687E+06    -51.5265E+06    -8.48316E+06     96.4507E+06    -51.5265E+06    -556.248E+03         34.8281
            1309     15.7442E-03     64.1351E-03         1.21613     679.572E-03    -937.762E-03     507.328E-03    -264.085E-03     714.696E-03        -1.53383     36.7951E-03    -16.0259E-03    -20.7692E-03    -15.4709E-03     31.4968E-03    -16.0259E-03     33.1052E-03     165.116E+06     9.35053E+06    -31.8530E+06    -9.74437E+06     165.110E+06    -12.7521E+06    -964.225E+03         37.0933
            1310     16.7288E-03     64.1732E-03         1.88887     706.077E-03        -1.88953     715.921E-03    -716.582E-03     706.077E-03     304.593E-03     35.0827E-03    -15.9095E-03    -19.1732E-03    -14.9123E-03     31.3676E-03    -16.4552E-03     25.2792E-03     200.487E+06     85.5511E+06    -7.22343E+06    -7.22091E+06     200.484E+06     85.5511E+06    -424.504E+03         39.2105
            1311     983.640E-06     65.0139E-03         11.5071         6.14286        -16.4470         7.93384        -14.3679         7.63703        -4.48609     33.5265E-03    -16.7246E-03    -16.8019E-03    -16.7746E-03     33.5137E-03    -16.7391E-03     1.49250E-03    -19.8323E+06    -20.9869E+06    -225.557E+06    -20.8038E+06    -225.555E+06    -20.0175E+06     435.308E+03         22.5688
            1312     1.96739E-03     65.0160E-03         8.66018         5.16577        -12.5789         5.85442        -12.0021         7.39475     789.270E-03     33.5010E-03    -16.7372E-03    -16.7638E-03    -16.7049E-03     33.4651E-03    -16.7601E-03     2.62713E-03    -16.7126E+06    -19.9704E+06    -220.145E+06    -19.9732E+06    -220.142E+06    -16.7126E+06     638.724E+03         22.6081
            1313     2.95110E-03     65.0192E-03         6.71092         4.68639        -10.0283         4.52832        -9.81349         6.65419        -1.78883     33.4957E-03    -16.7406E-03    -16.7551E-03    -16.6696E-03     33.4247E-03    -16.7551E-03     3.73372E-03    -11.5638E+06    -17.9062E+06    -211.400E+06    -17.9085E+06    -211.397E+06    -11.5638E+06     562.274E+03         22.6776
            1314     3.93488E-03     65.0235E-03         5.78366         1.89263        -6.24839         1.65467        -6.01044         5.78366     896.799E-03     33.4832E-03    -16.7346E-03    -16.7486E-03    -16.6258E-03     33.3665E-03    -16.7406E-03     4.80857E-03    -6.64143E+06    -15.6556E+06    -196.738E+06    -15.6567E+06    -196.737E+06    -6.64143E+06     247.564E+03         22.7857
            1315     4.91862E-03     65.0290E-03         4.61371     617.847E-03        -3.69919        -1.91797        -1.16337         4.61371         1.58219     33.4694E-03    -16.7278E-03    -16.7416E-03    -16.5746E-03     33.3024E-03    -16.7278E-03     5.76556E-03    -1.52312E+06    -13.3465E+06    -182.489E+06    -13.3472E+06    -182.489E+06    -1.52312E+06    -168.865E+03         22.9465
            1316     5.90247E-03     65.0353E-03         3.85694         2.06455        -4.34343        -4.02779         2.26036         3.34549         2.09533     33.4292E-03    -16.7094E-03    -16.7198E-03    -16.5010E-03     33.2124E-03    -16.7114E-03     6.56874E-03     3.53024E+06    -10.6730E+06    -167.817E+06    -10.6737E+06    -167.816E+06     3.53024E+06    -103.669E+03         23.1812
            1317     6.88639E-03     65.0424E-03         4.19754         2.23234        -4.88997        -4.74484         4.05241         2.23234     363.364E-03     33.3928E-03    -16.6792E-03    -16.7137E-03    -16.4450E-03     33.1262E-03    -16.6812E-03     7.28220E-03     6.58284E+06    -7.80948E+06    -152.010E+06    -7.81139E+06    -152.008E+06     6.58284E+06     16.7671E+03         23.5211
            1318     7.87034E-03     65.0502E-03         4.12558         1.42269        -4.10200        -3.56385         3.58744         1.42269        -1.86589     33.3699E-03    -16.6421E-03    -16.7279E-03    -16.4064E-03     33.0484E-03    -16.6421E-03     7.99200E-03     7.75612E+06    -5.03552E+06    -135.374E+06    -5.03760E+06    -135.372E+06     7.75612E+06    -103.552E+03         24.0085
            1319     8.85431E-03     65.0587E-03         3.02789     940.256E-03        -2.67398        -2.16961         2.52352     940.256E-03        -1.85234     33.3324E-03    -16.6030E-03    -16.7294E-03    -16.3624E-03     32.9654E-03    -16.6030E-03     8.53901E-03     8.12845E+06    -2.93565E+06    -118.861E+06    -2.93679E+06    -118.860E+06     8.12845E+06     52.1355E+03         24.6956
            1320     9.83835E-03     65.0677E-03         2.05357     666.406E-03        -1.54563        -1.42114         1.92908     666.406E-03    -989.585E-03     33.3200E-03    -16.5474E-03    -16.7725E-03    -16.3324E-03     32.8799E-03    -16.5474E-03     9.32907E-03     4.13511E+06    -1.77580E+06    -103.320E+06    -1.77816E+06    -103.318E+06     4.13511E+06     368.406E+03         25.6395
            1321     10.8224E-03     65.0779E-03         1.17761     439.566E-03    -524.198E-03    -411.908E-03     981.741E-03     523.144E-03    -785.875E-03     33.3489E-03    -16.4635E-03    -16.8854E-03    -16.2956E-03     32.7591E-03    -16.4635E-03     10.7887E-03    -739.961E+03    -5.27458E+06    -81.3943E+06    -1.56325E+06     -81.391E+06    -4.45458E+06     464.312E+03         26.8907
            1322     11.8065E-03     65.0899E-03         1.54003     422.558E-03    -906.597E-03         1.03979    -489.934E-03     506.136E-03        -1.03079     33.2685E-03    -16.3778E-03    -16.8907E-03    -16.2012E-03     32.5790E-03    -16.3778E-03     11.6805E-03    -1.87664E+06    -11.2910E+06    -50.0923E+06    -1.88125E+06    -50.0877E+06    -11.2910E+06     418.626E+03         28.4766
            1323     12.7905E-03     65.1019E-03         2.52376     594.769E-03        -2.06861         2.26097        -1.80583     594.769E-03        -1.55900     33.2525E-03    -16.2897E-03    -16.9628E-03    -16.0538E-03     32.3435E-03    -16.2897E-03     13.2963E-03     609.769E+03    -8.47754E+06    -27.1958E+06    -2.75588E+06    -14.8478E+06    -17.4599E+06     478.689E+03         30.3839
            1324     13.7752E-03     65.1173E-03         2.14054     693.866E-03        -1.79297         1.63217        -1.28461     693.866E-03        -1.76957     33.6472E-03    -16.1273E-03    -17.5199E-03    -15.9822E-03     32.1094E-03    -16.1273E-03     17.3153E-03     27.6840E+06    -4.50007E+06    -35.7968E+06    -4.47514E+06     27.6591E+06    -35.7968E+06     192.289E+03         32.5451
            1325     14.7592E-03     65.1377E-03         1.38102     691.640E-03        -1.04529     656.695E-03    -356.086E-03     726.763E-03    -313.804E-03     34.9204E-03    -15.9386E-03    -18.9818E-03    -15.9170E-03     31.8555E-03    -15.9386E-03     24.5752E-03     96.9343E+06    -7.41333E+06    -51.9372E+06    -7.41049E+06     96.9314E+06    -51.9372E+06    -434.316E+03         34.8410
            1326     15.7435E-03     65.1681E-03         1.19609     673.198E-03    -879.331E-03     126.388E-03     155.251E-03     708.322E-03         1.05184     36.9246E-03    -16.0352E-03    -20.8895E-03    -15.6107E-03     31.6458E-03    -16.0352E-03     33.1453E-03     164.701E+06     9.12532E+06    -31.9166E+06    -9.70203E+06     164.695E+06    -13.0841E+06    -828.670E+03         37.1232
            1327     16.7283E-03     65.2064E-03         2.04619     638.997E-03        -1.83887        -1.13058         1.33790     638.997E-03         1.79821     35.0166E-03    -15.7752E-03    -19.2414E-03    -14.8341E-03     31.2993E-03    -16.4652E-03     25.4343E-03     200.001E+06     85.1675E+06    -6.67743E+06    -6.67444E+06     199.998E+06     85.1675E+06    -543.563E+03         39.2530
            1328     983.751E-06     66.0468E-03         9.38406         2.85759        -11.1997         6.41397        -8.22958         2.85759        -5.50947     33.4520E-03    -16.6807E-03    -16.7713E-03    -16.7589E-03     33.4396E-03    -16.6807E-03     1.46027E-03    -21.8803E+06    -23.2239E+06    -226.883E+06    -23.0171E+06    -226.880E+06    -22.0892E+06     440.368E+03         22.5644
            1329     1.96737E-03     66.0489E-03         8.61614         5.35810        -13.0840         8.26670        -12.7345         5.35810     379.386E-03     33.4829E-03    -16.7313E-03    -16.7516E-03    -16.7121E-03     33.4476E-03    -16.7355E-03     2.60485E-03    -17.5694E+06    -20.9345E+06    -220.764E+06    -20.9362E+06    -220.762E+06    -17.5694E+06     429.807E+03         22.6034
            1330     2.95113E-03     66.0521E-03         6.61021         4.16888        -9.86004         4.68719        -9.64880         5.88066        -2.36673     33.4814E-03    -16.7345E-03    -16.7469E-03    -16.6704E-03     33.4110E-03    -16.7406E-03     3.71636E-03    -12.1501E+06    -18.3237E+06    -211.496E+06    -18.3253E+06    -211.494E+06    -12.1501E+06     186.596E+03         22.6721
            1331     3.93490E-03     66.0564E-03         5.12588         1.11834        -5.15120     726.756E-03        -4.75962         5.12588         1.33705     33.4661E-03    -16.7257E-03    -16.7404E-03    -16.6195E-03     33.3504E-03    -16.7309E-03     4.78628E-03    -6.43167E+06    -15.4221E+06    -196.140E+06    -15.4240E+06    -196.138E+06    -6.43167E+06    -74.9603E+03         22.7790
            1332     4.91873E-03     66.0619E-03         4.01029     191.719E-03        -2.98500        -1.58575        -1.20753         4.01029         1.04563     33.4432E-03    -16.7131E-03    -16.7302E-03    -16.5571E-03     33.2785E-03    -16.7214E-03     5.72329E-03    -594.743E+03    -12.7689E+06    -182.068E+06    -12.7700E+06    -182.067E+06    -594.743E+03    -357.462E+03         22.9379
            1333     5.90257E-03     66.0682E-03         3.34632     942.240E-03        -2.98657        -2.87898         1.22213         2.95884     614.293E-03     33.4208E-03    -16.6985E-03    -16.7223E-03    -16.5017E-03     33.2052E-03    -16.7035E-03     6.54900E-03     3.98857E+06    -10.1476E+06    -167.820E+06    -10.1510E+06    -167.817E+06     3.98857E+06    -494.878E+03         23.1699
            1334     6.88646E-03     66.0752E-03         3.14047         1.36413        -3.18870        -2.63513         1.82189         2.12916    -346.374E-03     33.3999E-03    -16.6727E-03    -16.7273E-03    -16.4605E-03     33.1332E-03    -16.6727E-03     7.28582E-03     6.61565E+06    -7.13506E+06    -151.593E+06    -7.14224E+06    -151.586E+06     6.61565E+06    -843.864E+03         23.5061
            1335     7.87037E-03     66.0831E-03         2.51113         1.01400        -2.27541        -1.33551     979.768E-03         1.60546        -2.50308     33.3706E-03    -16.6362E-03    -16.7345E-03    -16.4141E-03     33.0503E-03    -16.6362E-03     7.97860E-03     7.77478E+06    -4.39451E+06    -135.198E+06    -4.40251E+06    -135.190E+06     7.77478E+06    -938.319E+03         23.9889
            1336     8.85436E-03     66.0916E-03         1.89853     737.798E-03        -1.49596    -953.343E-03     794.650E-03         1.29907        -1.49870     33.3358E-03    -16.5983E-03    -16.7374E-03    -16.3717E-03     32.9701E-03    -16.5983E-03     8.52484E-03     8.03550E+06    -2.27081E+06    -118.961E+06    -2.27573E+06    -118.956E+06     8.03550E+06    -629.476E+03         24.6712
            1337     9.83834E-03     66.1006E-03         1.83683     817.042E-03        -1.61137        -1.32550         1.30992         1.05808        -1.37779     33.3280E-03    -16.5446E-03    -16.7834E-03    -16.3463E-03     32.8909E-03    -16.5446E-03     9.30135E-03     4.22731E+06    -742.118E+03    -103.495E+06    -745.263E+03    -103.492E+06     4.22731E+06    -198.659E+03         25.6110
            1338     10.8224E-03     66.1108E-03         1.43974     781.772E-03        -1.24393    -831.806E-03     944.038E-03     865.350E-03        -1.81787     33.3526E-03    -16.4621E-03    -16.8905E-03    -16.3025E-03     32.7646E-03    -16.4621E-03     10.7702E-03     225.422E+03    -4.40207E+06    -81.3354E+06    -102.175E+03    -81.3326E+06    -4.07724E+06     196.423E+03         26.8605
            1339     11.8064E-03     66.1228E-03         1.38752     680.198E-03        -1.11941     97.5129E-03     87.0263E-03     763.776E-03        -2.25974     33.2674E-03    -16.3761E-03    -16.8913E-03    -16.2046E-03     32.5807E-03    -16.3761E-03     11.6575E-03    -535.361E+03    -11.1312E+06    -50.2433E+06    -539.622E+03    -50.2390E+06    -11.1312E+06     396.532E+03         28.4491
            1340     12.7907E-03     66.1348E-03         1.66514     715.213E-03        -1.43272     928.147E-03    -726.121E-03     745.606E-03        -2.05110     33.2924E-03    -16.2905E-03    -17.0019E-03    -16.0994E-03     32.3900E-03    -16.2905E-03     13.2588E-03     1.63681E+06    -7.70471E+06    -26.9843E+06    -1.39547E+06    -14.6134E+06    -17.0434E+06     335.837E+03         30.3648
            1341     13.7748E-03     66.1502E-03         1.63254     751.317E-03        -1.41155         1.54135        -1.35075     781.710E-03    -614.059E-03     33.6748E-03    -16.1308E-03    -17.5439E-03    -16.0074E-03     32.1382E-03    -16.1308E-03     17.3113E-03     28.1267E+06    -2.80864E+06    -35.1736E+06    -2.78856E+06     28.1066E+06    -35.1736E+06    -21.2607E+03         32.5400
            1342     14.7594E-03     66.1708E-03         1.54002     810.253E-03        -1.32324     795.843E-03    -579.061E-03     810.253E-03     692.910E-03     34.8982E-03    -15.9351E-03    -18.9631E-03    -15.8384E-03     31.7735E-03    -15.9351E-03     24.7615E-03     96.8192E+06    -5.46595E+06    -52.3176E+06    -5.46416E+06     96.8174E+06    -52.3176E+06     18.0215E+03         34.8538
            1343     15.7439E-03     66.2013E-03         2.31929     745.153E-03        -1.98128        -1.35153         1.68955     745.153E-03         1.97291     36.9496E-03    -16.0232E-03    -20.9265E-03    -15.5337E-03     31.5569E-03    -16.0232E-03     33.4973E-03     164.891E+06     9.88293E+06    -31.6429E+06    -7.81560E+06     164.889E+06    -13.9425E+06     106.736E+03         37.1539
            1344     16.7288E-03     66.2393E-03         3.14585     591.286E-03        -2.54803        -2.37947         2.97729     591.286E-03         1.91452     35.1034E-03    -15.8227E-03    -19.2807E-03    -14.9060E-03     31.3636E-03    -16.4575E-03     25.3969E-03     199.850E+06     84.8016E+06    -5.92562E+06    -5.92431E+06     199.848E+06     84.8016E+06    -216.614E+03         39.2966
            1345     983.722E-06     67.0797E-03         6.98727         2.81072        -9.41740         3.25985        -5.68998         2.81072        -8.71255     33.4270E-03    -16.6731E-03    -16.7539E-03    -16.7355E-03     33.4149E-03    -16.6794E-03     1.45661E-03    -22.3779E+06    -23.3986E+06    -227.645E+06    -23.1902E+06    -227.645E+06    -22.5867E+06    -74.5418E+03         22.5601
            1346     1.96747E-03     67.0818E-03         5.91718         3.38459        -8.82416         4.79607        -7.70305         3.38459        -1.47331     33.4505E-03    -16.7141E-03    -16.7364E-03    -16.6951E-03     33.4155E-03    -16.7204E-03     2.58772E-03    -18.4377E+06    -21.7617E+06    -221.136E+06    -21.7627E+06    -221.135E+06    -18.4377E+06    -219.206E+03         22.5988
            1347     2.95115E-03     67.0849E-03         4.68956         2.90342        -7.13730         3.65706        -6.92024         3.71886    -481.113E-03     33.4736E-03    -16.7282E-03    -16.7454E-03    -16.6740E-03     33.4022E-03    -16.7282E-03     3.73860E-03    -12.6867E+06    -19.1265E+06    -210.927E+06    -19.1332E+06    -210.920E+06    -12.6867E+06    -806.676E+03         22.6668
            1348     3.93490E-03     67.0894E-03         3.39822         1.30545        -4.08794     915.856E-03        -3.68936         3.38923         1.49920     33.4552E-03    -16.7201E-03    -16.7351E-03    -16.6165E-03     33.3399E-03    -16.7234E-03     4.78184E-03    -6.74695E+06    -15.8879E+06    -195.825E+06    -15.8960E+06    -195.816E+06    -6.74695E+06    -1.04487E+06         22.7726
            1349     4.91870E-03     67.0947E-03         2.73748     913.551E-03        -2.86997    -597.028E-03        -1.35939         2.73748         1.95858     33.4309E-03    -16.7086E-03    -16.7223E-03    -16.5520E-03     33.2689E-03    -16.7169E-03     5.67397E-03    -358.120E+03    -12.5330E+06    -181.982E+06    -12.5368E+06    -181.979E+06    -358.120E+03    -700.015E+03         22.9296
            1350     5.90261E-03     67.1010E-03         2.43451         1.14266        -2.66279    -273.847E-03        -1.00382         2.19204     578.330E-03     33.4211E-03    -16.6935E-03    -16.7276E-03    -16.5097E-03     33.2082E-03    -16.6985E-03     6.50712E-03     4.30231E+06    -9.30148E+06    -167.227E+06    -9.31128E+06    -167.218E+06     4.30231E+06    -1.06632E+06         23.1588
            1351     6.88646E-03     67.1082E-03         2.55481         1.16766        -2.74892         1.22135        -2.18049         1.93268        -1.29121     33.4031E-03    -16.6673E-03    -16.7359E-03    -16.4721E-03     33.1393E-03    -16.6673E-03     7.24660E-03     6.44665E+06    -6.56790E+06    -150.993E+06    -6.58611E+06    -150.975E+06     6.44665E+06    -1.59268E+06         23.4913
            1352     7.87040E-03     67.1159E-03         2.22824         1.21130        -2.48273     536.456E-03        -1.38242         1.80276        -2.42179     33.3757E-03    -16.6335E-03    -16.7422E-03    -16.4249E-03     33.0584E-03    -16.6335E-03     7.94146E-03     7.54508E+06    -4.41549E+06    -134.916E+06    -4.43558E+06    -134.896E+06     7.54508E+06    -1.59365E+06         23.9695
            1353     8.85434E-03     67.1245E-03         1.66446         1.03549        -1.76615    -715.090E-03     52.1288E-03         1.59676        -2.18839     33.3433E-03    -16.5974E-03    -16.7459E-03    -16.3815E-03     32.9789E-03    -16.5974E-03     8.51048E-03     7.81301E+06    -2.52587E+06    -118.723E+06    -2.54571E+06    -118.703E+06     7.81301E+06    -1.44436E+06         24.6467
            1354     9.83834E-03     67.1335E-03         1.74992         1.12441        -1.98414    -732.014E-03     256.754E-03         1.36545        -2.61674     33.3416E-03    -16.5448E-03    -16.7968E-03    -16.3606E-03     32.9054E-03    -16.5448E-03     9.29484E-03     3.86940E+06    -825.749E+03    -103.790E+06    -840.937E+03    -103.774E+06     3.86940E+06    -1.13617E+06         25.5822
            1355     10.8223E-03     67.1437E-03         1.65630         1.04994        -1.84144    -639.785E-03     324.130E-03         1.18046        -2.90702     33.3588E-03    -16.4634E-03    -16.8954E-03    -16.3108E-03     32.7742E-03    -16.4634E-03     10.7414E-03     181.418E+03    -4.40722E+06    -81.9026E+06     123.386E+03    -81.8959E+06    -4.35594E+06    -441.186E+03         26.8298
            1356     11.8065E-03     67.1558E-03         1.44785     902.522E-03        -1.49458    -594.337E-03     417.099E-03         1.03303        -2.41444     33.2718E-03    -16.3791E-03    -16.8927E-03    -16.2112E-03     32.5902E-03    -16.3791E-03     11.6147E-03     12.8138E+03    -10.9698E+06    -50.6056E+06     4.49856E+03    -50.5973E+06    -10.9698E+06     347.005E+03         28.4210
            1357     12.7905E-03     67.1678E-03         1.55427     886.276E-03        -1.55705    -414.895E-03     381.730E-03     916.669E-03        -2.56923     33.2952E-03    -16.2925E-03    -17.0027E-03    -16.0944E-03     32.3870E-03    -16.2925E-03     13.2919E-03     2.49465E+06    -7.51717E+06    -27.1191E+06    -1.07629E+06    -14.2038E+06    -16.8615E+06     323.690E+03         30.3450
            1358     13.7749E-03     67.1833E-03         1.98910     812.752E-03        -1.84934     187.756E-03    -78.3861E-03     843.145E-03        -2.33909     33.6652E-03    -16.1337E-03    -17.5316E-03    -15.9791E-03     32.1127E-03    -16.1337E-03     17.3985E-03     28.6492E+06    -3.02309E+06    -34.7108E+06    -3.01898E+06     28.6451E+06    -34.7108E+06    -218.531E+03         32.5345
            1359     14.7592E-03     67.2034E-03         2.04940     782.424E-03        -1.76821    -279.235E-03     560.429E-03     782.424E-03    -554.892E-03     34.7933E-03    -15.9304E-03    -18.8629E-03    -15.7419E-03     31.6723E-03    -15.9304E-03     24.7040E-03     96.1752E+06    -5.56397E+06    -52.8245E+06    -5.56134E+06     96.1725E+06    -52.8245E+06    -5.76739E+03         34.8666
            1360     15.7441E-03     67.2342E-03         2.44712     668.655E-03        -1.85776        -1.69313         2.28248     668.655E-03         1.64238     36.8156E-03    -16.0102E-03    -20.8055E-03    -15.3995E-03     31.4096E-03    -16.0102E-03     33.4453E-03     164.571E+06     10.4512E+06    -32.4273E+06    -7.50525E+06     164.566E+06    -14.4659E+06     756.767E+03         37.1850
            1361     16.7289E-03     67.2724E-03         2.81706     525.479E-03        -1.84652        -1.70446         2.67500     525.479E-03         1.55708     35.2110E-03    -15.9623E-03    -19.2486E-03    -15.0183E-03     31.4666E-03    -16.4483E-03     25.3435E-03     200.157E+06     85.0936E+06    -6.17213E+06    -6.16753E+06     200.152E+06     85.0936E+06     705.555E+03         39.3411
            1362     983.671E-06     68.1126E-03         4.50384         1.79642        -6.49462         1.34423        -3.33500         1.79642        -9.88701     33.4409E-03    -16.6820E-03    -16.7589E-03    -16.7372E-03     33.4290E-03    -16.6918E-03     1.44473E-03    -22.3482E+06    -22.9650E+06    -227.621E+06    -22.7689E+06    -227.620E+06    -22.5459E+06    -294.851E+03         22.5561
            1363     1.96742E-03     68.1146E-03         2.59590         1.37697        -4.08765     625.436E-03        -2.11719         1.37697        -3.14162     33.4319E-03    -16.7090E-03    -16.7229E-03    -16.6779E-03     33.3972E-03    -16.7194E-03     2.57075E-03    -18.7042E+06    -21.3087E+06    -220.338E+06    -21.3185E+06    -220.329E+06    -18.7042E+06    -1.16290E+06         22.5944
            1364     2.95120E-03     68.1179E-03         2.24654         1.13128        -3.39108     832.299E-03        -1.97684         1.13128         2.15823     33.4462E-03    -16.7145E-03    -16.7317E-03    -16.6548E-03     33.3756E-03    -16.7209E-03     3.71979E-03    -13.0769E+06    -19.1907E+06    -210.085E+06    -19.2077E+06    -210.068E+06    -13.0769E+06    -1.68426E+06         22.6618
            1365     3.93495E-03     68.1223E-03         1.98896     744.747E-03        -2.63362     829.644E-03        -1.77347         1.04392         1.72088     33.4311E-03    -16.7060E-03    -16.7251E-03    -16.6043E-03     33.3160E-03    -16.7118E-03     4.77232E-03    -7.93894E+06    -16.6722E+06    -195.687E+06    -16.6942E+06    -195.665E+06    -7.93894E+06    -1.86599E+06         22.7664
            1366     4.91876E-03     68.1276E-03         3.16683     810.791E-03        -3.68942         2.21398        -3.04209         1.11630     429.011E-03     33.4357E-03    -16.7047E-03    -16.7310E-03    -16.5673E-03     33.2720E-03    -16.7047E-03     5.70616E-03    -2.01962E+06    -13.2175E+06    -181.870E+06    -13.2443E+06    -181.843E+06    -2.01962E+06    -1.93761E+06         22.9215
            1367     5.90254E-03     68.1339E-03         4.42832         1.42026        -5.42156         3.91468        -4.91426         1.42660    -153.249E-03     33.4333E-03    -16.6929E-03    -16.7404E-03    -16.5261E-03     33.2191E-03    -16.6929E-03     6.53081E-03     3.47803E+06    -9.55883E+06    -166.492E+06    -9.58609E+06    -166.465E+06     3.47803E+06    -1.96720E+06         23.1480
            1368     6.88646E-03     68.1411E-03         3.54955         1.75346        -4.77289         3.46308        -4.68642         1.75346    -814.933E-03     33.4089E-03    -16.6672E-03    -16.7417E-03    -16.4783E-03     33.1455E-03    -16.6672E-03     7.24277E-03     6.13851E+06    -7.06798E+06    -150.492E+06    -7.09615E+06    -150.463E+06     6.13851E+06    -2.00135E+06         23.4767
            1369     7.87034E-03     68.1489E-03         2.34763         1.76770        -3.50089         1.56026        -2.80221         1.85639        -1.44345     33.3875E-03    -16.6344E-03    -16.7532E-03    -16.4370E-03     33.0714E-03    -16.6344E-03     7.92946E-03     7.12025E+06    -5.18194E+06    -134.353E+06    -5.21661E+06    -134.318E+06     7.12025E+06    -2.08401E+06         23.9501
            1370     8.85431E-03     68.1574E-03         1.80984         1.35234        -2.49542     16.4466E-03        -1.09183         1.74213        -2.67520     33.3563E-03    -16.6002E-03    -16.7561E-03    -16.3936E-03     32.9937E-03    -16.6002E-03     8.49134E-03     7.39184E+06    -3.35077E+06    -118.407E+06    -3.38751E+06    -118.370E+06     7.39184E+06    -2.03697E+06         24.6222
            1371     9.83829E-03     68.1664E-03         1.87978         1.27639        -2.43734     177.779E-03        -1.03644         1.57750        -3.45889     33.3498E-03    -16.5487E-03    -16.8011E-03    -16.3666E-03     32.9153E-03    -16.5487E-03     9.27647E-03     3.29189E+06    -2.06966E+06    -103.877E+06    -2.10009E+06    -103.847E+06     3.29189E+06    -1.74619E+06         25.5531
            1372     10.8223E-03     68.1767E-03         1.73489     932.834E-03        -1.92697     236.492E-03    -950.236E-03         1.45450        -2.46243     33.3669E-03    -16.4669E-03    -16.9000E-03    -16.3190E-03     32.7859E-03    -16.4669E-03     10.7116E-03    -871.548E+03    -5.81236E+06    -82.6120E+06    -1.36269E+06    -82.5861E+06    -5.34716E+06    -1.33913E+06         26.7987
            1373     11.8063E-03     68.1887E-03         1.76514     773.336E-03        -1.75831        -1.27218     757.345E-03         1.29500        -1.51089     33.2724E-03    -16.3836E-03    -16.8888E-03    -16.2066E-03     32.5901E-03    -16.3836E-03     11.6198E-03    -1.04345E+06    -11.6928E+06    -51.5823E+06    -1.06054E+06    -51.5652E+06    -11.6928E+06    -317.664E+03         28.3922
            1374     12.7906E-03     68.2008E-03         2.72200         1.05996        -2.93501        -2.32174         2.10872         1.05996        -3.22226     33.2521E-03    -16.2958E-03    -16.9563E-03    -16.0539E-03     32.3497E-03    -16.2958E-03     13.2477E-03     2.52498E+06    -8.29552E+06    -27.6699E+06    -2.02306E+06    -14.2755E+06    -17.1419E+06     791.838E+03         30.3246
            1375     13.7750E-03     68.2160E-03         3.37033     814.480E-03        -3.23118        -2.40886         2.54801     814.480E-03        -3.88254     33.5992E-03    -16.1419E-03    -17.4573E-03    -15.9189E-03     32.0608E-03    -16.1419E-03     17.2893E-03     29.6148E+06    -4.80006E+06    -33.3296E+06    -4.69261E+06     29.5074E+06    -33.3296E+06     656.291E+03         32.5286
            1376     14.7594E-03     68.2367E-03         3.04884     606.819E-03        -2.52883        -2.05911         2.57912     606.819E-03    -746.962E-03     34.8009E-03    -15.9405E-03    -18.8604E-03    -15.7846E-03     31.7251E-03    -15.9405E-03     24.5586E-03     96.0210E+06    -8.11267E+06    -51.6507E+06    -8.10763E+06     96.0159E+06    -51.6507E+06    -119.984E+03         34.8792
            1377     15.7440E-03     68.2665E-03         2.29849     470.777E-03        -1.37127    -824.544E-03         1.75176     470.777E-03     581.728E-03     36.7532E-03    -16.0132E-03    -20.7400E-03    -15.4071E-03     31.4203E-03    -16.0132E-03     33.1840E-03     163.463E+06     8.66781E+06    -33.3418E+06    -9.48125E+06     163.457E+06    -15.1871E+06     390.303E+03         37.2160
            1378     16.7293E-03     68.3056E-03         1.97711     407.714E-03    -628.664E-03    -145.786E-03         1.49424     407.714E-03    -8.80258E-03     35.1411E-03    -15.9921E-03    -19.1490E-03    -14.9593E-03     31.4067E-03    -16.4474E-03     25.3537E-03     200.301E+06     84.5700E+06    -6.98444E+06    -6.97759E+06     200.294E+06     84.5700E+06     1.11497E+06         39.3858
            1379     983.724E-06     69.1454E-03         4.23994    -609.469E-03        -4.27917    -604.260E-03     565.037E-03    -609.469E-03        -7.25712     33.4347E-03    -16.6768E-03    -16.7579E-03    -16.7425E-03     33.4228E-03    -16.6804E-03     1.43602E-03    -22.9475E+06    -23.8538E+06    -226.605E+06    -23.6629E+06    -226.599E+06    -23.1452E+06    -886.456E+03         22.5523
            1380     1.96742E-03     69.1475E-03         3.46117    -922.003E-03        -3.16865        -2.16118         2.45370    -922.003E-03        -2.00236     33.4435E-03    -16.7134E-03    -16.7301E-03    -16.6887E-03     33.4085E-03    -16.7198E-03     2.58592E-03    -18.9096E+06    -22.0408E+06    -218.576E+06    -22.0601E+06    -218.556E+06    -18.9096E+06    -1.86658E+06         22.5903
            1381     2.95113E-03     69.1508E-03         2.93652    -801.538E-03        -2.63147        -1.64097         2.44150        -1.29701         1.40100     33.4315E-03    -16.7103E-03    -16.7211E-03    -16.6405E-03     33.3617E-03    -16.7211E-03     3.70020E-03    -13.5009E+06    -19.4854E+06    -209.379E+06    -19.5176E+06    -209.347E+06    -13.5009E+06    -2.36706E+06         22.6570
            1382     3.93497E-03     69.1551E-03         3.13423    -544.720E-03        -2.95061         1.53783    -858.739E-03        -1.04019         3.04385     33.4203E-03    -16.7007E-03    -16.7196E-03    -16.5979E-03     33.3066E-03    -16.7087E-03     4.74175E-03    -8.29985E+06    -16.5477E+06    -195.211E+06    -16.5886E+06    -195.170E+06    -8.29985E+06    -2.61004E+06         22.7604
            1383     4.91877E-03     69.1605E-03         5.29542    -225.295E-03        -5.31175         4.76254        -4.77887    -225.295E-03     891.059E-03     33.4366E-03    -16.7004E-03    -16.7362E-03    -16.5737E-03     33.2741E-03    -16.7004E-03     5.68410E-03    -2.79117E+06    -13.8028E+06    -181.254E+06    -13.8575E+06    -181.199E+06    -2.79117E+06    -2.98757E+06         22.9136
            1384     5.90261E-03     69.1669E-03         6.16917     719.747E-03        -6.97820         6.13086        -6.93988     719.747E-03        -1.10097     33.4410E-03    -16.6913E-03    -16.7498E-03    -16.5371E-03     33.2283E-03    -16.6913E-03     6.50907E-03     2.45229E+06    -11.0608E+06    -166.073E+06    -11.1180E+06    -166.015E+06     2.45229E+06    -2.93773E+06         23.1374
            1385     6.88642E-03     69.1740E-03         4.79108         1.39469        -6.12088         4.58934        -5.91913         1.39469        -1.38314     33.4218E-03    -16.6699E-03    -16.7519E-03    -16.4898E-03     33.1597E-03    -16.6699E-03     7.22522E-03     5.61523E+06    -8.19686E+06    -150.107E+06    -8.24358E+06    -150.060E+06     5.61523E+06    -2.54038E+06         23.4623
            1386     7.87034E-03     69.1818E-03         3.32772         1.61296        -4.70913         3.00852        -4.47862         1.70165        -1.61221     33.4012E-03    -16.6379E-03    -16.7633E-03    -16.4475E-03     33.0854E-03    -16.6379E-03     7.92684E-03     6.59557E+06    -5.97016E+06    -133.900E+06    -6.01554E+06    -133.854E+06     6.59557E+06    -2.38601E+06         23.9309
            1387     8.85422E-03     69.1904E-03         2.66495         1.41079        -3.69586         2.12326        -3.54396         1.80058        -1.34072     33.3800E-03    -16.6046E-03    -16.7754E-03    -16.4130E-03     33.0176E-03    -16.6046E-03     8.49372E-03     6.55130E+06    -4.52372E+06    -118.378E+06    -4.56450E+06    -118.337E+06     6.55130E+06    -2.14653E+06         24.5976
            1388     9.83818E-03     69.1994E-03         2.28738         1.47053        -3.25446     810.445E-03        -2.07863         1.77163        -3.23680     33.3594E-03    -16.5542E-03    -16.8052E-03    -16.3724E-03     32.9266E-03    -16.5542E-03     9.26030E-03     2.39769E+06    -3.63618E+06    -103.709E+06    -3.66961E+06    -103.676E+06     2.39769E+06    -1.82385E+06         25.5239
            1389     10.8222E-03     69.2096E-03         1.91888         1.08988        -2.38863    -276.595E-03    -741.195E-03         1.63792        -2.96248     33.3648E-03    -16.4712E-03    -16.8936E-03    -16.3132E-03     32.7844E-03    -16.4712E-03     10.7036E-03    -2.67529E+06    -7.54098E+06    -82.4799E+06    -3.63031E+06    -82.4405E+06    -6.62529E+06    -1.72556E+06         26.7671
            1390     11.8063E-03     69.2216E-03         1.99447     876.653E-03        -2.15659        -1.61610     905.937E-03         1.42469        -1.94458     33.2654E-03    -16.3863E-03    -16.8791E-03    -16.2011E-03     32.5874E-03    -16.3863E-03     11.5819E-03    -3.96188E+06    -13.7626E+06    -52.7857E+06    -3.99767E+06    -52.7500E+06    -13.7626E+06    -1.16656E+06         28.3628
            1391     12.7905E-03     69.2337E-03         3.60107         1.11985        -3.90469        -3.51202         3.20840         1.11985        -2.87506     33.2509E-03    -16.2980E-03    -16.9529E-03    -16.0602E-03     32.3583E-03    -16.2980E-03     13.1749E-03     593.282E+03    -10.2741E+06    -29.6134E+06    -4.25264E+06    -15.8664E+06    -19.1752E+06     649.473E+03         30.3033
            1392     13.7747E-03     69.2491E-03         5.11072     749.389E-03        -4.89777        -4.61696         4.82991     749.389E-03        -2.98726     33.6028E-03    -16.1558E-03    -17.4469E-03    -15.9393E-03     32.0951E-03    -16.1558E-03     17.1302E-03     30.5803E+06    -5.50519E+06    -32.0941E+06    -5.31534E+06     30.3904E+06    -32.0941E+06     1.40262E+06         32.5219
            1393     14.7593E-03     69.2692E-03         4.33135     428.417E-03        -3.58325        -3.37326         4.12137     428.417E-03        -1.08882     34.8258E-03    -15.9552E-03    -18.8706E-03    -15.8298E-03     31.7850E-03    -15.9552E-03     24.4154E-03     97.0181E+06    -7.86781E+06    -50.3352E+06    -7.85909E+06     97.0094E+06    -50.3352E+06     349.291E+03         34.8912
            1394     15.7437E-03     69.3001E-03         2.54549     261.648E-03        -1.35664    -858.463E-03         2.04732     261.648E-03    -415.198E-03     36.7833E-03    -16.0189E-03    -20.7645E-03    -15.5299E-03     31.5487E-03    -16.0189E-03     32.9455E-03     162.055E+06     7.36715E+06    -34.8842E+06    -10.1021E+06     162.052E+06    -17.4125E+06     118.597E+03         37.2468
            1395     16.7285E-03     69.3375E-03         2.27796     215.492E-03    -611.442E-03     29.9417E-03         1.63658     215.492E-03     242.895E-03     35.0062E-03    -15.8556E-03    -19.1506E-03    -14.8669E-03     31.3233E-03    -16.4564E-03     25.3358E-03     200.146E+06     83.2982E+06    -7.50437E+06    -7.50168E+06     200.143E+06     83.2982E+06     598.509E+03         39.4307
            1396     983.732E-06     70.1783E-03         7.45275        -2.54662        -5.95100        -4.13347         5.63522        -2.54662        -5.29382     33.4238E-03    -16.6694E-03    -16.7544E-03    -16.7421E-03     33.4115E-03    -16.6694E-03     1.46303E-03    -22.5868E+06    -23.5587E+06    -224.953E+06    -23.5661E+06    -224.946E+06    -22.5868E+06    -1.06069E+06         22.5487
            1397     1.96741E-03     70.1804E-03         6.87025        -2.68440        -5.11946        -4.14602         6.71876        -3.50635        -1.78318     33.4425E-03    -16.7122E-03    -16.7303E-03    -16.6931E-03     33.4076E-03    -16.7145E-03     2.58911E-03    -18.7903E+06    -22.2671E+06    -216.699E+06    -22.2912E+06    -216.675E+06    -18.7903E+06    -2.05733E+06         22.5864
            1398     2.95118E-03     70.1836E-03         4.59714        -1.73009        -3.72422    -401.013E-03         2.74846        -3.20462     126.104E-03     33.4512E-03    -16.7176E-03    -16.7336E-03    -16.6590E-03     33.3810E-03    -16.7221E-03     3.70730E-03    -13.4840E+06    -19.9158E+06    -208.117E+06    -19.9619E+06    -208.071E+06    -13.4840E+06    -2.89183E+06         22.6524
            1399     3.93491E-03     70.1880E-03         5.31516        -1.30913        -4.81444         4.26111        -3.10780        -1.96172         3.65548     33.4513E-03    -16.7140E-03    -16.7373E-03    -16.6213E-03     33.3375E-03    -16.7162E-03     4.74901E-03    -8.21310E+06    -17.1783E+06    -194.379E+06    -17.2431E+06    -194.314E+06    -8.21310E+06    -3.33033E+06         22.7546
            1400     4.91870E-03     70.1934E-03         5.77239    -611.443E-03        -5.89213         5.10993        -5.22967    -611.443E-03         4.35379     33.4517E-03    -16.7095E-03    -16.7422E-03    -16.5807E-03     33.2902E-03    -16.7095E-03     5.66775E-03    -2.88261E+06    -14.5290E+06    -180.378E+06    -14.6045E+06    -180.302E+06    -2.88261E+06    -3.48909E+06         22.9060
            1401     5.90249E-03     70.1998E-03         3.90843     251.626E-03        -4.72550         3.74973        -4.56680     251.626E-03     968.292E-03     33.4458E-03    -16.6975E-03    -16.7483E-03    -16.5375E-03     33.2350E-03    -16.6975E-03     6.48078E-03     1.74606E+06    -11.9684E+06    -165.542E+06    -12.0528E+06    -165.458E+06     1.74606E+06    -3.57090E+06         23.1270
            1402     6.88637E-03     70.2069E-03         4.76747     808.995E-03        -5.93120         4.57565        -5.73937     808.995E-03        -1.76833     33.4297E-03    -16.6750E-03    -16.7547E-03    -16.4946E-03     33.1696E-03    -16.6750E-03     7.19873E-03     4.57743E+06    -9.30384E+06    -150.089E+06    -9.37911E+06    -150.013E+06     4.57743E+06    -3.22369E+06         23.4480
            1403     7.87023E-03     70.2147E-03         5.79448         1.33760        -7.27216         5.55343        -7.03112         1.33760        -2.98077     33.4135E-03    -16.6431E-03    -16.7705E-03    -16.4550E-03     33.0980E-03    -16.6431E-03     7.92410E-03     5.59623E+06    -6.96298E+06    -133.907E+06    -7.01431E+06    -133.855E+06     5.59623E+06    -2.54608E+06         23.9118
            1404     8.85417E-03     70.2234E-03         4.34953         1.73952        -6.01397         4.27456        -5.93901         1.73952        -1.31287     33.3895E-03    -16.6094E-03    -16.7801E-03    -16.4171E-03     33.0264E-03    -16.6094E-03     8.50233E-03     5.53727E+06    -5.37922E+06    -118.365E+06    -5.41895E+06    -118.326E+06     5.53727E+06    -2.11585E+06         24.5731
            1405     9.83808E-03     70.2324E-03         2.58840         1.70609        -4.00401     854.365E-03        -2.39437         1.83049        -2.55659     33.3661E-03    -16.5580E-03    -16.8081E-03    -16.3751E-03     32.9331E-03    -16.5580E-03     9.26421E-03     1.30133E+06    -4.51171E+06    -103.592E+06    -4.54351E+06    -103.561E+06     1.30133E+06    -1.77240E+06         25.4944
            1406     10.8221E-03     70.2425E-03         2.20678         1.34338        -3.05871        -1.80442     671.198E-03         1.62467        -4.01659     33.3703E-03    -16.4751E-03    -16.8952E-03    -16.3129E-03     32.7880E-03    -16.4751E-03     10.7202E-03    -3.85081E+06    -8.40294E+06    -82.1041E+06    -4.67360E+06    -82.0778E+06    -7.60641E+06    -1.32613E+06         26.7351
            1407     11.8062E-03     70.2546E-03         2.35668         1.16231        -2.87084        -2.22052         1.54947         1.31920        -3.37537     33.2746E-03    -16.3888E-03    -16.8858E-03    -16.2071E-03     32.5959E-03    -16.3888E-03     11.5899E-03    -5.65643E+06    -15.3676E+06    -53.0884E+06    -5.69523E+06    -53.0496E+06    -15.3676E+06    -1.18224E+06         28.3327
            1408     12.7903E-03     70.2666E-03         3.47584         1.00848        -3.69453        -3.15970         2.94101         1.00848        -3.21697     33.2741E-03    -16.2900E-03    -16.9841E-03    -16.0821E-03     32.3721E-03    -16.2900E-03     13.2406E-03    -1.61625E+06    -12.1425E+06    -33.1396E+06    -5.97361E+06    -17.5981E+06    -23.3266E+06    -808.883E+03         30.2814
            1409     13.7747E-03     70.2820E-03         5.14937     658.388E-03        -4.85661        -4.58098         4.87375     658.388E-03        -2.77090     33.6866E-03    -16.1584E-03    -17.5282E-03    -15.9993E-03     32.1578E-03    -16.1584E-03     17.2823E-03     30.4865E+06    -5.80605E+06    -33.7712E+06    -5.56231E+06     30.2427E+06    -33.7712E+06     146.471E+03         32.5145
            1410     14.7588E-03     70.3024E-03         4.71889     332.566E-03        -3.87921        -3.77689         4.61656     332.566E-03        -1.81025     34.8369E-03    -15.9647E-03    -18.8722E-03    -15.8089E-03     31.7737E-03    -15.9647E-03     24.4971E-03     97.4293E+06    -7.16393E+06    -50.3740E+06    -7.15310E+06     97.4185E+06    -50.3740E+06     897.132E+03         34.9030
            1411     15.7436E-03     70.3327E-03         3.29374     129.607E-03        -1.96396        -1.91252         3.24230     129.607E-03    -415.327E-03     36.8772E-03    -16.0193E-03    -20.8579E-03    -15.5077E-03     31.5270E-03    -16.0193E-03     33.3170E-03     161.604E+06     7.41816E+06    -35.9469E+06    -9.51126E+06     161.598E+06    -19.0109E+06     749.031E+03         37.2782
            1412     16.7283E-03     70.3712E-03         3.74245     11.2657E-03        -1.99941        -1.71769         3.46072     11.2657E-03         1.77232     35.0913E-03    -15.7886E-03    -19.3027E-03    -14.8663E-03     31.3279E-03    -16.4616E-03     25.5255E-03     200.633E+06     83.2794E+06    -6.67377E+06    -6.67234E+06     200.632E+06     83.2794E+06    -32.9479E+03         39.4766
            1413     983.710E-06     71.2112E-03         12.4144        -5.53656        -7.97031        -6.82175         11.8976        -6.16828        -3.03632     33.4181E-03    -16.6689E-03    -16.7492E-03    -16.7308E-03     33.4059E-03    -16.6751E-03     1.45768E-03    -22.4119E+06    -23.3475E+06    -223.093E+06    -23.2010E+06    -223.087E+06    -22.5646E+06    -861.018E+03         22.5453
            1414     1.96745E-03     71.2133E-03         8.25391        -3.06933        -6.30290        -2.25947         6.79226        -5.65111        -3.91702     33.4357E-03    -16.7061E-03    -16.7296E-03    -16.6883E-03     33.4006E-03    -16.7123E-03     2.58938E-03    -18.7612E+06    -22.0513E+06    -214.849E+06    -22.0767E+06    -214.824E+06    -18.7612E+06    -2.09984E+06         22.5826
            1415     2.95114E-03     71.2165E-03         4.53639        -1.61994        -4.09986         2.72943    -185.730E-03        -3.72711        -1.20678     33.4780E-03    -16.7235E-03    -16.7545E-03    -16.6842E-03     33.4077E-03    -16.7235E-03     3.71390E-03    -13.6307E+06    -20.1126E+06    -206.469E+06    -20.1628E+06    -206.419E+06    -13.6307E+06    -3.01831E+06         22.6478
            1416     3.93488E-03     71.2210E-03         4.88771        -1.69119        -4.36224         4.55948        -3.87690        -1.84830         1.37366     33.4804E-03    -16.7232E-03    -16.7571E-03    -16.6428E-03     33.3661E-03    -16.7232E-03     4.76165E-03    -8.72275E+06    -17.8465E+06    -192.991E+06    -17.9214E+06    -192.916E+06    -8.72275E+06    -3.58546E+06         22.7489
            1417     4.91863E-03     71.2264E-03         4.36504    -601.527E-03        -4.84813         3.85342        -4.33651    -601.527E-03         4.03025     33.4768E-03    -16.7185E-03    -16.7582E-03    -16.5958E-03     33.3144E-03    -16.7185E-03     5.68642E-03    -3.66388E+06    -15.3024E+06    -179.341E+06    -15.3999E+06    -179.243E+06    -3.66388E+06    -3.95439E+06         22.8984
            1418     5.90244E-03     71.2328E-03         2.87993     57.0495E-03        -3.87961         2.62351        -3.62318     57.0495E-03         2.32223     33.4563E-03    -16.7056E-03    -16.7507E-03    -16.5395E-03     33.2451E-03    -16.7056E-03     6.48771E-03     714.942E+03    -12.5257E+06    -165.016E+06    -12.6340E+06    -164.908E+06     714.942E+03    -4.03133E+06         23.1167
            1419     6.88627E-03     71.2398E-03         3.47545     475.906E-03        -4.67415         3.35369        -4.55239     475.906E-03    -646.790E-03     33.4336E-03    -16.6812E-03    -16.7524E-03    -16.4909E-03     33.1721E-03    -16.6812E-03     7.21710E-03     3.28255E+06    -9.98861E+06    -150.281E+06    -10.0880E+06    -150.182E+06     3.28255E+06    -3.70805E+06         23.4339
            1420     7.87016E-03     71.2477E-03         5.23538     929.100E-03        -6.63538         4.91888        -6.31888     929.100E-03        -3.12008     33.4257E-03    -16.6491E-03    -16.7766E-03    -16.4586E-03     33.1077E-03    -16.6491E-03     7.95648E-03     4.46926E+06    -7.72048E+06    -134.138E+06    -7.79380E+06    -134.065E+06     4.46926E+06    -3.00743E+06         23.8927
            1421     8.85403E-03     71.2563E-03         4.71000         1.33977        -6.23472         4.31844        -5.84316         1.33977        -2.97898     33.3884E-03    -16.6147E-03    -16.7737E-03    -16.4097E-03     33.0244E-03    -16.6147E-03     8.51309E-03     4.67330E+06    -5.82840E+06    -118.309E+06    -5.87910E+06    -118.258E+06     4.67330E+06    -2.37380E+06         24.5485
            1422     9.83804E-03     71.2654E-03         2.82922         1.38066        -4.10685         1.60666        -3.00868         1.50505        -2.86204     33.3592E-03    -16.5620E-03    -16.7972E-03    -16.3633E-03     32.9253E-03    -16.5620E-03     9.27164E-03     572.391E+03    -4.63500E+06    -103.601E+06    -4.67277E+06    -103.563E+06     572.391E+03    -1.92340E+06         25.4648
            1423     10.8220E-03     71.2755E-03         2.62034         1.24118        -3.51168        -1.71168     695.945E-03         1.36558        -3.86131     33.3716E-03    -16.4787E-03    -16.8930E-03    -16.3077E-03     32.7864E-03    -16.4787E-03     10.7466E-03    -3.67279E+06    -8.52281E+06    -82.4859E+06    -4.16907E+06    -82.4650E+06    -8.04735E+06    -1.22278E+06         26.7027
            1424     11.8061E-03     71.2876E-03         3.77492         1.02861        -4.23155        -3.60041         3.14378         1.02861        -4.21955     33.2736E-03    -16.3923E-03    -16.8813E-03    -16.1968E-03     32.5891E-03    -16.3923E-03     11.6381E-03    -4.26435E+06    -14.9703E+06    -52.3253E+06    -4.30487E+06    -52.2848E+06    -14.9703E+06    -1.10941E+06         28.3021
            1425     12.7904E-03     71.2994E-03         4.11772     681.740E-03        -4.06107        -3.19073         3.24738     681.740E-03        -4.80375     33.2982E-03    -16.2826E-03    -17.0155E-03    -16.0994E-03     32.3820E-03    -16.2826E-03     13.3485E-03    -1.28506E+06    -11.8236E+06    -34.3916E+06    -5.06443E+06    -17.2389E+06    -25.1970E+06    -2.01680E+06         30.2589
            1426     13.7744E-03     71.3150E-03         4.05924     433.522E-03        -3.58067        -2.19104         2.66961     433.522E-03        -4.64550     33.6839E-03    -16.1508E-03    -17.5331E-03    -15.9658E-03     32.1166E-03    -16.1508E-03     17.4829E-03     28.7663E+06    -7.06971E+06    -36.7703E+06    -6.60558E+06     28.3022E+06    -36.7703E+06    -1.12341E+06         32.5068
            1427     14.7591E-03     71.3355E-03         4.38239     240.657E-03        -3.51048        -2.60747         3.47938     240.657E-03        -3.05529     34.8160E-03    -15.9704E-03    -18.8455E-03    -15.7803E-03     31.7507E-03    -15.9704E-03     24.5411E-03     96.7567E+06    -8.89534E+06    -50.3611E+06    -8.88835E+06     96.7497E+06    -50.3611E+06     704.857E+03         34.9150
            1428     15.7437E-03     71.3653E-03         5.26257     21.2585E-03        -3.91436        -3.82984         5.17805     21.2585E-03    -985.518E-03     36.8110E-03    -16.0237E-03    -20.7873E-03    -15.3968E-03     31.4205E-03    -16.0237E-03     33.3516E-03     163.018E+06     7.63509E+06    -34.7699E+06    -9.62409E+06     163.011E+06    -17.5036E+06     471.409E+03         37.3102
            1429     16.7289E-03     71.4045E-03         5.40117    -200.444E-03        -3.56514        -3.46226         5.29829    -200.444E-03         1.15346     35.1410E-03    -15.9144E-03    -19.2266E-03    -14.8809E-03     31.3395E-03    -16.4585E-03     25.4941E-03     201.042E+06     83.5701E+06    -6.62358E+06    -6.62130E+06     201.040E+06     83.5701E+06    -424.228E+03         39.5237
            1430     983.676E-06     72.2440E-03         11.6577        -4.97881        -7.70488        -4.50065         10.6771        -7.20251        -1.33580     33.4352E-03    -16.6805E-03    -16.7546E-03    -16.7365E-03     33.4232E-03    -16.6867E-03     1.43448E-03    -23.0392E+06    -24.1550E+06    -221.442E+06    -23.7245E+06    -221.434E+06    -23.4769E+06    -985.981E+03         22.5419
            1431     1.96743E-03     72.2461E-03         4.96458        -1.74420        -4.56186     563.328E-03         2.65705        -4.56186        -2.92291     33.4574E-03    -16.7158E-03    -16.7416E-03    -16.6998E-03     33.4223E-03    -16.7225E-03     2.59140E-03    -19.3617E+06    -22.7911E+06    -212.641E+06    -22.8174E+06    -212.614E+06    -19.3617E+06    -2.01239E+06         22.5788
            1432     2.95110E-03     72.2495E-03         3.06774        -1.33368        -3.13911         1.77041    -623.195E-03        -2.55227        -1.08183     33.4926E-03    -16.7328E-03    -16.7598E-03    -16.6893E-03     33.4225E-03    -16.7332E-03     3.71251E-03    -14.3273E+06    -20.8070E+06    -204.717E+06    -20.8663E+06    -204.658E+06    -14.3273E+06    -3.24595E+06         22.6434
            1433     3.93482E-03     72.2539E-03         2.63698        -1.40379        -2.59789         1.10158    -963.429E-03        -1.50285    -56.3799E-03     33.4963E-03    -16.7303E-03    -16.7659E-03    -16.6512E-03     33.3815E-03    -16.7303E-03     4.76885E-03    -9.78587E+06    -18.3754E+06    -191.406E+06    -18.4651E+06    -191.316E+06    -9.78587E+06    -3.89373E+06         22.7433
            1434     4.91856E-03     72.2594E-03         3.03989    -759.171E-03        -3.57175         2.34053        -2.77333    -858.231E-03         1.32629     33.4874E-03    -16.7255E-03    -16.7619E-03    -16.5991E-03     33.3247E-03    -16.7255E-03     5.69560E-03    -4.67110E+06    -15.6061E+06    -178.052E+06    -15.7234E+06    -177.935E+06    -4.67110E+06    -4.32361E+06         22.8910
            1435     5.90233E-03     72.2657E-03         4.52761    -163.658E-03        -5.55435         4.35684        -5.38357    -163.658E-03     871.025E-03     33.4629E-03    -16.7130E-03    -16.7499E-03    -16.5379E-03     33.2509E-03    -16.7130E-03     6.49924E-03    -232.932E+03    -12.9487E+06    -164.554E+06    -13.0786E+06    -164.424E+06    -232.932E+03    -4.42091E+06         23.1065
            1436     6.88621E-03     72.2728E-03         3.20459     388.357E-03        -4.62068         3.01576        -4.44229     398.798E-03    -340.836E-03     33.4465E-03    -16.6881E-03    -16.7585E-03    -16.4948E-03     33.1829E-03    -16.6881E-03     7.24894E-03     2.24812E+06    -10.6228E+06    -150.204E+06    -10.7473E+06    -150.080E+06     2.24812E+06    -4.15490E+06         23.4199
            1437     7.87007E-03     72.2807E-03         2.18047     604.704E-03        -3.51326         1.11030        -2.45353     615.145E-03        -2.79773     33.4311E-03    -16.6559E-03    -16.7753E-03    -16.4557E-03     33.1116E-03    -16.6559E-03     7.97612E-03     3.45544E+06    -8.50920E+06    -134.288E+06    -8.62317E+06    -134.174E+06     3.45544E+06    -3.75111E+06         23.8738
            1438     8.85400E-03     72.2894E-03         2.83684     700.588E-03        -3.92028         1.75451        -2.83794     700.588E-03        -2.98198     33.3866E-03    -16.6213E-03    -16.7652E-03    -16.4018E-03     33.0231E-03    -16.6213E-03     8.50647E-03     3.96219E+06    -6.36833E+06    -118.428E+06    -6.45575E+06    -118.341E+06     3.96219E+06    -3.07523E+06         24.5239
            1439     9.83793E-03     72.2982E-03         2.56347     820.127E-03        -3.44718         2.17032        -3.05403     820.127E-03        -2.64280     33.3528E-03    -16.5679E-03    -16.7849E-03    -16.3515E-03     32.9195E-03    -16.5679E-03     9.26283E-03     211.747E+03    -4.67524E+06    -103.668E+06    -4.73554E+06    -103.608E+06     211.747E+03    -2.41834E+06         25.4350
            1440     10.8220E-03     72.3085E-03         2.21256     831.505E-03        -2.81888    -243.172E-03    -363.153E-03     831.505E-03        -2.60247     33.3512E-03    -16.4831E-03    -16.8681E-03    -16.2854E-03     32.7685E-03    -16.4831E-03     10.7210E-03    -3.53073E+06    -8.61125E+06    -83.0409E+06    -3.87425E+06    -82.9895E+06    -8.31913E+06    -1.94104E+06         26.6699
            1441     11.8061E-03     72.3204E-03         3.55351     613.798E-03        -3.72245        -3.28640         3.11745     613.798E-03        -3.42967     33.2657E-03    -16.3971E-03    -16.8686E-03    -16.1857E-03     32.5828E-03    -16.3971E-03     11.6219E-03    -3.53091E+06    -14.3389E+06    -51.4998E+06    -3.62002E+06    -51.4107E+06    -14.3389E+06    -1.80148E+06         28.2708
            1442     12.7902E-03     72.3325E-03         4.53389     305.013E-03        -4.18969        -3.36877         3.71298     305.013E-03        -4.82665     33.2933E-03    -16.2939E-03    -16.9994E-03    -16.0889E-03     32.3827E-03    -16.2939E-03     13.3116E-03    -1.44535E+06    -11.0330E+06    -32.0037E+06    -4.74407E+06    -16.4040E+06    -23.3339E+06    -1.86796E+06         30.2357
            1443     13.7747E-03     72.3479E-03         4.12940     100.224E-03        -3.42646        -1.52794         2.23088     100.224E-03        -6.06021     33.6111E-03    -16.1597E-03    -17.4514E-03    -15.9076E-03     32.0673E-03    -16.1597E-03     17.3274E-03     26.6581E+06    -7.54740E+06    -36.0927E+06    -7.21259E+06     26.3233E+06    -36.0927E+06    -891.311E+03         32.4987
            1444     14.7591E-03     72.3682E-03         4.15647    -23.4869E-03        -3.15437        -1.75068         2.75278    -23.4869E-03        -4.38423     34.8114E-03    -15.9757E-03    -18.8357E-03    -15.7550E-03     31.7307E-03    -15.9757E-03     24.5700E-03     96.5241E+06    -9.19475E+06    -49.3605E+06    -9.19127E+06     96.5206E+06    -49.3605E+06    -189.402E+03         34.9269
            1445     15.7434E-03     72.3986E-03         5.31535    -204.072E-03        -3.90993        -3.81953         5.22495    -204.072E-03        -1.58847     36.7928E-03    -16.0313E-03    -20.7615E-03    -15.4771E-03     31.5084E-03    -16.0313E-03     33.0819E-03     164.597E+06     7.98123E+06    -33.4835E+06    -9.55573E+06     164.590E+06    -15.9401E+06    -802.590E+03         37.3425
            1446     16.7288E-03     72.4363E-03         5.36871    -412.813E-03        -3.44760        -3.39947         5.32057    -412.813E-03    -15.7042E-03     35.0623E-03    -15.9166E-03    -19.1457E-03    -14.9026E-03     31.3620E-03    -16.4594E-03     25.3346E-03     200.662E+06     82.4114E+06    -7.04473E+06    -7.04055E+06     200.658E+06     82.4114E+06    -737.950E+03         39.5711
            1447     983.719E-06     73.2770E-03         7.03354     623.196E-03        -9.12948     454.036E-03        -2.34569     418.907E-03        -1.67277     33.4835E-03    -16.6943E-03    -16.7892E-03    -16.7771E-03     33.4714E-03    -16.6943E-03     1.45342E-03    -23.6913E+06    -25.6835E+06    -219.912E+06    -25.4155E+06    -219.895E+06    -23.9763E+06    -1.04981E+06         22.5384
            1448     1.96729E-03     73.2791E-03         2.58331     688.685E-03        -4.75971    -753.852E-03    -944.405E-03     210.536E-03        -1.34681     33.5043E-03    -16.7430E-03    -16.7612E-03    -16.7255E-03     33.4690E-03    -16.7434E-03     2.59863E-03    -20.0124E+06    -23.1239E+06    -210.081E+06    -23.1603E+06    -210.045E+06    -20.0124E+06    -2.38234E+06         22.5750
            1449     2.95104E-03     73.2824E-03         2.59893    -339.928E-03        -3.70579        -2.89056         1.87418    -430.405E-03     505.450E-03     33.5166E-03    -16.7519E-03    -16.7646E-03    -16.6942E-03     33.4465E-03    -16.7523E-03     3.71237E-03    -14.9724E+06    -20.8197E+06    -202.600E+06    -20.8874E+06    -202.532E+06    -14.9724E+06    -3.44066E+06         22.6389
            1450     3.93474E-03     73.2869E-03         2.35940    -873.250E-03        -2.92049        -2.06928         1.60725    -972.309E-03     544.556E-03     33.5033E-03    -16.7395E-03    -16.7638E-03    -16.6448E-03     33.3893E-03    -16.7446E-03     4.75396E-03    -10.4693E+06    -18.5868E+06    -189.745E+06    -18.6998E+06    -189.632E+06    -10.4693E+06    -4.35869E+06         22.7377
            1451     4.91847E-03     73.2923E-03         1.99019    -817.139E-03        -2.59150     992.723E-03        -1.49497    -916.199E-03     685.792E-03     33.4739E-03    -16.7255E-03    -16.7484E-03    -16.5775E-03     33.3112E-03    -16.7337E-03     5.69003E-03    -5.68101E+06    -16.1352E+06    -176.975E+06    -16.2756E+06    -176.834E+06    -5.68101E+06    -4.73937E+06         22.8836
            1452     5.90232E-03     73.2987E-03         3.13363    -440.748E-03        -4.05429         2.97751        -3.89817    -440.748E-03    -764.170E-03     33.4652E-03    -16.7152E-03    -16.7500E-03    -16.5330E-03     33.2514E-03    -16.7184E-03     6.52673E-03    -1.29870E+06    -13.7529E+06    -163.892E+06    -13.8995E+06    -163.745E+06    -1.29870E+06    -4.67898E+06         23.0965
            1453     6.88612E-03     73.3058E-03         2.71981    -1.30440E-03        -3.90799         2.36867        -3.56729     9.13577E-03        -1.51677     33.4665E-03    -16.6934E-03    -16.7731E-03    -16.5072E-03     33.2006E-03    -16.6934E-03     7.28118E-03     1.15438E+06    -11.4373E+06    -149.595E+06    -11.5972E+06    -149.435E+06     1.15438E+06    -4.66568E+06         23.4060
            1454     7.86996E-03     73.3137E-03         1.87914     163.502E-03        -2.94951     192.206E-03        -1.27301     173.942E-03        -3.41175     33.4335E-03    -16.6606E-03    -16.7729E-03    -16.4531E-03     33.1137E-03    -16.6606E-03     7.98025E-03     2.12084E+06    -9.15336E+06    -134.189E+06    -9.32157E+06    -134.021E+06     2.12084E+06    -4.55453E+06         23.8549
            1455     8.85387E-03     73.3223E-03         1.91418     135.111E-03        -2.60034    -505.092E-03    -181.064E-03     135.111E-03        -2.31719     33.3783E-03    -16.6248E-03    -16.7536E-03    -16.3894E-03     33.0142E-03    -16.6248E-03     8.51196E-03     2.57523E+06    -6.99169E+06    -118.646E+06    -7.14738E+06    -118.490E+06     2.57523E+06    -4.10978E+06         24.4993
            1456     9.83786E-03     73.3313E-03         1.78620     99.9474E-03        -2.08673     210.629E-03    -511.156E-03     99.9474E-03        -1.01963     33.3528E-03    -16.5701E-03    -16.7827E-03    -16.3497E-03     32.9198E-03    -16.5701E-03     9.26053E-03    -653.485E+03    -5.44631E+06    -103.708E+06    -5.18772E+06    -103.577E+06    -1.04290E+06    -3.50417E+06         25.4050
            1457     10.8219E-03     73.3414E-03         1.39533     106.979E-03        -1.42684     298.145E-03    -329.658E-03     106.979E-03    -911.179E-03     33.3506E-03    -16.4861E-03    -16.8645E-03    -16.2872E-03     32.7733E-03    -16.4861E-03     10.6722E-03    -3.68702E+06    -9.34337E+06    -83.0594E+06    -3.93956E+06    -82.9337E+06    -9.21654E+06    -3.06847E+06         26.6366
            1458     11.8060E-03     73.3534E-03         2.32500     74.3837E-03        -2.09204    -733.558E-03     966.510E-03     74.3837E-03        -2.61148     33.2650E-03    -16.3977E-03    -16.8673E-03    -16.1858E-03     32.5834E-03    -16.3977E-03     11.6101E-03    -3.60026E+06    -15.6312E+06    -51.4948E+06    -3.76135E+06    -51.3337E+06    -15.6312E+06    -2.63044E+06         28.2389
            1459     12.7902E-03     73.3654E-03         3.93214    -38.1687E-03        -3.43396        -1.93870         2.43687    -38.1687E-03        -5.21092     33.2841E-03    -16.3023E-03    -16.9819E-03    -16.0816E-03     32.3839E-03    -16.3023E-03     13.2454E-03    -1.83848E+06    -11.4213E+06    -30.5530E+06    -4.32899E+06    -16.5410E+06    -22.9428E+06    -1.82344E+06         30.2116
            1460     13.7743E-03     73.3808E-03         4.77899    -206.906E-03        -3.96513        -2.75369         3.56755    -206.906E-03        -5.25657     33.6065E-03    -16.1618E-03    -17.4447E-03    -15.9350E-03     32.0968E-03    -16.1618E-03     17.1416E-03     26.0444E+06    -5.46310E+06    -36.5882E+06    -5.14247E+06     25.7238E+06    -36.5882E+06    -1.32971E+06         32.4898
            1461     14.7589E-03     73.4010E-03         4.57269    -387.249E-03        -3.45010        -2.86607         3.98867    -387.249E-03        -2.44808     34.7618E-03    -15.9686E-03    -18.7932E-03    -15.7208E-03     31.6894E-03    -15.9686E-03     24.4814E-03     96.6136E+06    -6.84550E+06    -51.1487E+06    -6.81672E+06     96.5848E+06    -51.1487E+06    -1.10321E+06         34.9383
            1462     15.7439E-03     73.4317E-03         3.68127    -449.731E-03        -2.32215        -2.03817         3.47444    -526.883E-03    -921.052E-03     36.8495E-03    -16.0297E-03    -20.8198E-03    -15.5203E-03     31.5500E-03    -16.0297E-03     33.1776E-03     164.446E+06     7.55544E+06    -33.4866E+06    -8.78087E+06     164.440E+06    -17.1442E+06    -883.923E+03         37.3749
            1463     16.7278E-03     73.4696E-03         3.72051    -537.678E-03        -1.98776        -1.71302         3.52293    -614.829E-03    -852.931E-03     35.1058E-03    -15.8417E-03    -19.2641E-03    -14.9375E-03     31.3982E-03    -16.4606E-03     25.4340E-03     200.166E+06     81.1569E+06    -6.64065E+06    -6.63652E+06     200.162E+06     81.1569E+06    -702.930E+03         39.6192
            1464     983.619E-06     74.3100E-03         7.46286         4.22613        -13.6852         2.87489        -12.3339         7.46286        -3.38730     33.5307E-03    -16.7208E-03    -16.8100E-03    -16.7974E-03     33.5182E-03    -16.7208E-03     1.48665E-03    -23.1902E+06    -26.1132E+06    -217.781E+06    -24.7402E+06    -217.762E+06    -24.5819E+06    -1.20887E+06         22.5347
            1465     1.96732E-03     74.3121E-03         3.65758         1.47915        -6.65984        -2.79161        -2.31012         3.57862        -4.05232     33.5469E-03    -16.7632E-03    -16.7837E-03    -16.7479E-03     33.5111E-03    -16.7632E-03     2.62355E-03    -20.9689E+06    -23.9416E+06    -207.263E+06    -23.9960E+06    -207.209E+06    -20.9689E+06    -2.91818E+06         22.5712
            1466     2.95091E-03     74.3155E-03         2.64619     726.251E-03        -4.85180        -4.33217         1.76714         1.08567        -1.06015     33.5520E-03    -16.7653E-03    -16.7867E-03    -16.7097E-03     33.4812E-03    -16.7714E-03     3.73280E-03    -15.9817E+06    -21.4590E+06    -200.253E+06    -21.5547E+06    -200.157E+06    -15.9817E+06    -4.02905E+06         22.6344
            1467     3.93461E-03     74.3199E-03         2.39278    -123.656E-03        -3.76187        -2.60511         1.23603    -123.656E-03        -1.12344     33.5000E-03    -16.7374E-03    -16.7626E-03    -16.6259E-03     33.3864E-03    -16.7604E-03     4.74886E-03    -11.1216E+06    -18.6600E+06    -188.053E+06    -18.7924E+06    -187.920E+06    -11.1216E+06    -4.70926E+06         22.7321
            1468     4.91843E-03     74.3253E-03         1.48751    -498.842E-03        -2.51350        -1.18521     159.218E-03    -498.842E-03     58.6092E-03     33.4704E-03    -16.7248E-03    -16.7456E-03    -16.5630E-03     33.3086E-03    -16.7456E-03     5.67275E-03    -6.06562E+06    -16.4361E+06    -175.998E+06    -16.5923E+06    -175.842E+06    -6.06562E+06    -4.98447E+06         22.8763
            1469     5.90223E-03     74.3316E-03         1.78541    -625.115E-03        -2.62203        -1.32648     489.859E-03    -625.115E-03    -373.596E-03     33.4748E-03    -16.7216E-03    -16.7532E-03    -16.5346E-03     33.2601E-03    -16.7255E-03     6.54030E-03    -2.05805E+06    -14.0623E+06    -162.927E+06    -14.2418E+06    -162.748E+06    -2.05805E+06    -5.12577E+06         23.0865
            1470     6.88605E-03     74.3388E-03         2.03571    -629.303E-03        -2.67418    -301.727E-03    -305.043E-03    -660.996E-03        -1.59830     33.4701E-03    -16.6969E-03    -16.7732E-03    -16.5063E-03     33.2032E-03    -16.6969E-03     7.29652E-03     17.9839E+03    -11.3456E+06    -148.620E+06    -11.5609E+06    -148.404E+06     17.9839E+03    -5.39392E+06         23.3922
            1471     7.86989E-03     74.3466E-03         2.31740    -510.401E-03        -2.80524         1.04198        -1.49812    -542.095E-03        -3.86751     33.4324E-03    -16.6627E-03    -16.7697E-03    -16.4498E-03     33.1125E-03    -16.6627E-03     7.98173E-03     888.857E+03    -8.86546E+06    -133.715E+06    -9.10816E+06    -133.473E+06     888.857E+03    -5.46460E+06         23.8361
            1472     8.85382E-03     74.3553E-03         2.39764    -448.896E-03        -2.63060    -442.530E-03     209.576E-03    -448.896E-03        -2.40153     33.3780E-03    -16.6252E-03    -16.7528E-03    -16.3872E-03     33.0123E-03    -16.6252E-03     8.52908E-03     1.14578E+06    -6.77841E+06    -118.466E+06    -7.03068E+06    -118.214E+06     1.14578E+06    -5.26553E+06         24.4747
            1473     9.83779E-03     74.3642E-03         2.22972    -526.248E-03        -2.05725        -1.96537         2.13784    -526.248E-03    -570.623E-03     33.3553E-03    -16.5695E-03    -16.7858E-03    -16.3511E-03     32.9205E-03    -16.5695E-03     9.28047E-03    -1.55073E+06    -6.08144E+06    -103.697E+06    -5.26808E+06    -103.444E+06    -2.61754E+06    -4.93937E+06         25.3748
            1474     10.8218E-03     74.3744E-03         1.83707    -474.457E-03        -1.43875    -772.532E-03         1.30836    -611.969E-03    -630.950E-03     33.3684E-03    -16.4865E-03    -16.8819E-03    -16.3034E-03     32.7899E-03    -16.4865E-03     10.6860E-03    -3.54569E+06    -10.4761E+06    -82.8537E+06    -3.83501E+06    -82.5644E+06    -10.4761E+06    -4.63924E+06         26.6029
            1475     11.8059E-03     74.3862E-03         2.33281    -433.344E-03        -1.80010     772.653E-03    -102.426E-03    -570.856E-03        -2.94039     33.2811E-03    -16.3974E-03    -16.8837E-03    -16.1971E-03     32.5945E-03    -16.3974E-03     11.6557E-03    -2.54440E+06    -17.1005E+06    -52.1802E+06    -2.88293E+06    -51.8417E+06    -17.1005E+06    -3.92086E+06         28.2062
            1476     12.7900E-03     74.3985E-03         3.65942    -491.228E-03        -2.93991     318.588E-03     400.918E-03    -491.228E-03        -6.11571     33.2634E-03    -16.3051E-03    -16.9583E-03    -16.0527E-03     32.3578E-03    -16.3051E-03     13.2805E-03    -595.716E+03    -11.8969E+06    -30.8641E+06    -2.77107E+06    -17.2334E+06    -23.3523E+06    -2.75563E+06         30.1869
            1477     13.7744E-03     74.4137E-03         4.06462    -515.645E-03        -3.24697        -1.89136         2.70900    -515.645E-03        -4.13393     33.6459E-03    -16.1511E-03    -17.4948E-03    -15.9613E-03     32.1124E-03    -16.1511E-03     17.2788E-03     26.4568E+06    -4.82682E+06    -39.2827E+06    -4.17789E+06     25.8079E+06    -39.2827E+06    -2.13875E+06         32.4803
            1478     14.7587E-03     74.4340E-03         4.35908    -656.338E-03        -3.31749        -3.24399         4.28557    -656.338E-03    -479.194E-03     34.8285E-03    -15.9588E-03    -18.8698E-03    -15.8087E-03     31.7675E-03    -15.9588E-03     24.5111E-03     96.2849E+06    -6.97394E+06    -54.7157E+06    -6.93219E+06     96.2431E+06    -54.7157E+06    -1.47723E+06         34.9494
            1479     15.7432E-03     74.4643E-03         3.44357    -709.083E-03        -2.27930        -2.00119         3.24261    -786.235E-03    -403.461E-03     36.7727E-03    -16.0340E-03    -20.7387E-03    -15.4080E-03     31.4420E-03    -16.0340E-03     33.1804E-03     164.025E+06     6.98423E+06    -33.3827E+06    -8.63595E+06     164.020E+06    -17.7570E+06    -841.335E+03         37.4075
            1480     16.7290E-03     74.5031E-03         2.53024    -682.323E-03        -1.26503    -517.170E-03         1.92119    -821.136E-03    -497.183E-03     35.0845E-03    -15.9011E-03    -19.1834E-03    -14.8860E-03     31.3473E-03    -16.4613E-03     25.3254E-03     199.793E+06     80.9330E+06    -6.27366E+06    -6.26991E+06     199.789E+06     80.9330E+06    -487.293E+03         39.6683
            1481     983.623E-06     75.3430E-03         7.18503         1.29644        -10.2287         1.69412        -6.39053         2.94917        -4.54827     33.5813E-03    -16.7504E-03    -16.8309E-03    -16.8183E-03     33.5687E-03    -16.7504E-03     1.48009E-03    -24.0948E+06    -27.0209E+06    -215.141E+06    -25.6483E+06    -215.122E+06    -25.4865E+06    -1.76913E+06         22.5311
            1482     1.96723E-03     75.3453E-03         4.54386     324.465E-03        -6.57803    -18.1995E-03        -3.53575         1.84425        -6.66755     33.5721E-03    -16.7746E-03    -16.7975E-03    -16.7515E-03     33.5363E-03    -16.7848E-03     2.62753E-03    -21.8160E+06    -24.3666E+06    -204.115E+06    -24.4293E+06    -204.052E+06    -21.8160E+06    -3.12786E+06         22.5672
            1483     2.95087E-03     75.3485E-03         2.59321     744.733E-03        -4.94908    -512.822E-03        -2.20246         1.10415        -4.17219     33.5514E-03    -16.7567E-03    -16.7948E-03    -16.6961E-03     33.4809E-03    -16.7847E-03     3.72564E-03    -17.0802E+06    -22.6088E+06    -197.751E+06    -22.7368E+06    -197.623E+06    -17.0802E+06    -4.66658E+06         22.6299
            1484     3.93459E-03     75.3529E-03         1.96240     575.288E-03        -4.16148        -1.50369    -695.393E-03     575.288E-03        -2.33962     33.4998E-03    -16.7321E-03    -16.7677E-03    -16.6180E-03     33.3857E-03    -16.7677E-03     4.75621E-03    -12.6468E+06    -20.2583E+06    -186.499E+06    -20.4220E+06    -186.335E+06    -12.6468E+06    -5.19685E+06         22.7265
            1485     4.91834E-03     75.3583E-03         2.51585    -41.9023E-03        -4.08536        -3.63507         2.06557    -41.9023E-03     365.155E-03     33.4920E-03    -16.7330E-03    -16.7590E-03    -16.5773E-03     33.3287E-03    -16.7515E-03     5.70052E-03    -7.53723E+06    -17.4747E+06    -174.611E+06    -17.6728E+06    -174.413E+06    -7.53723E+06    -5.51303E+06         22.8689
            1486     5.90213E-03     75.3646E-03         3.43544    -691.465E-03        -4.24720        -4.18254         3.37078    -691.465E-03     814.013E-03     33.4916E-03    -16.7308E-03    -16.7607E-03    -16.5441E-03     33.2757E-03    -16.7316E-03     6.56038E-03    -3.32306E+06    -14.2197E+06    -161.531E+06    -14.4837E+06    -161.267E+06    -3.32306E+06    -6.15206E+06         23.0765
            1487     6.88596E-03     75.3718E-03         3.07913        -1.08202        -3.31713        -2.93660         2.73029        -1.11372    -749.932E-03     33.4595E-03    -16.7018E-03    -16.7578E-03    -16.4915E-03     33.1933E-03    -16.7018E-03     7.28602E-03    -1.10083E+06    -11.1568E+06    -147.567E+06    -11.4780E+06    -147.246E+06    -1.10083E+06    -6.55746E+06         23.3785
            1488     7.86983E-03     75.3797E-03         2.96889        -1.21500        -2.80956        -1.23630         1.42733        -1.24669        -2.94652     33.4234E-03    -16.6656E-03    -16.7578E-03    -16.4390E-03     33.1046E-03    -16.6656E-03     7.96643E-03    -48.2228E+03    -8.53070E+06    -132.910E+06    -8.88648E+06    -132.555E+06    -48.2228E+03    -6.59326E+06         23.8174
            1489     8.85373E-03     75.3882E-03         2.68091        -1.03532        -2.41008    -775.395E-03         1.23801        -1.22710        -1.77166     33.3816E-03    -16.6275E-03    -16.7541E-03    -16.3884E-03     33.0159E-03    -16.6275E-03     8.52974E-03     454.691E+03    -6.17884E+06    -117.762E+06    -6.57380E+06    -117.367E+06     454.691E+03    -6.56796E+06         24.4501
            1490     9.83770E-03     75.3972E-03         2.52411    -970.023E-03        -2.05029        -1.42189         2.14505        -1.21936        -1.34227     33.3503E-03    -16.5714E-03    -16.7789E-03    -16.3427E-03     32.9140E-03    -16.5714E-03     9.29528E-03    -1.54981E+06    -6.13985E+06    -103.661E+06    -4.78581E+06    -103.250E+06    -3.31549E+06    -6.33144E+06         25.3444
            1491     10.8217E-03     75.4073E-03         2.19688    -749.108E-03        -1.72396        -1.06002         2.01216        -1.22833        -1.18563     33.3696E-03    -16.4869E-03    -16.8827E-03    -16.2985E-03     32.7854E-03    -16.4869E-03     10.7370E-03    -3.47083E+06    -11.2597E+06    -82.4102E+06    -3.96342E+06    -81.9176E+06    -11.2597E+06    -6.08651E+06         26.5689
            1492     11.8058E-03     75.4193E-03         2.03048    -480.714E-03        -1.68538     370.835E-03     656.197E-03        -1.16264        -2.09602     33.2756E-03    -16.3999E-03    -16.8756E-03    -16.1849E-03     32.5849E-03    -16.3999E-03     11.6888E-03    -3.13266E+06    -17.8298E+06    -53.0200E+06    -3.79775E+06    -52.3549E+06    -17.8298E+06    -5.52369E+06         28.1730
            1493     12.7900E-03     75.4313E-03         3.07708    -783.112E-03        -2.35750     567.839E-03     412.007E-03        -1.04338        -4.82221     33.2327E-03    -16.3091E-03    -16.9236E-03    -16.0156E-03     32.3247E-03    -16.3091E-03     13.2864E-03    -445.792E+03    -12.9861E+06    -32.2788E+06    -3.81199E+06    -18.3055E+06    -23.5932E+06    -4.10247E+06         30.1615
            1494     13.7744E-03     75.4465E-03         3.42595    -966.955E-03        -2.48796    -325.976E-03         1.26396    -966.955E-03        -4.97625     33.6397E-03    -16.1491E-03    -17.4905E-03    -15.9390E-03     32.0881E-03    -16.1491E-03     17.3707E-03     26.6899E+06    -5.51821E+06    -39.7500E+06    -4.59152E+06     25.7632E+06    -39.7500E+06    -2.78252E+06         32.4703
            1495     14.7589E-03     75.4672E-03         3.35604    -951.903E-03        -2.44505    -911.683E-03         1.82268    -951.903E-03        -2.66656     34.8911E-03    -15.9506E-03    -18.9405E-03    -15.8444E-03     31.7950E-03    -15.9506E-03     24.6845E-03     95.5138E+06    -6.51931E+06    -56.3087E+06    -6.45877E+06     95.4533E+06    -56.3087E+06    -1.93036E+06         34.9606
            1496     15.7433E-03     75.4973E-03         2.75227    -859.299E-03        -1.96354        -1.13644         2.02881    -962.929E-03        -1.17152     36.8449E-03    -16.0342E-03    -20.8108E-03    -15.4700E-03     31.5042E-03    -16.0342E-03     33.2632E-03     163.722E+06     8.12036E+06    -34.1690E+06    -7.99263E+06     163.711E+06    -18.0444E+06    -929.112E+03         37.4408
            1497     16.7280E-03     75.5353E-03         1.87458    -789.816E-03        -1.27473    -392.249E-03         1.15739    -955.108E-03     688.319E-03     35.0879E-03    -15.8896E-03    -19.1983E-03    -14.8789E-03     31.3451E-03    -16.4661E-03     25.4089E-03     199.340E+06     81.0950E+06    -6.22967E+06    -6.22609E+06     199.337E+06     81.0950E+06    -23.1720E+03         39.7183
            1498     983.551E-06     76.3762E-03         6.45082        -1.87983        -6.12133        -1.73663         3.11531        -2.92903        -2.31963     33.6226E-03    -16.7657E-03    -16.8569E-03    -16.8400E-03     33.6098E-03    -16.7698E-03     1.49336E-03    -26.0481E+06    -28.8934E+06    -211.897E+06    -28.1541E+06    -211.866E+06    -26.8180E+06    -1.95684E+06         22.5274
            1499     1.96713E-03     76.3783E-03         4.59165    -335.419E-03        -6.07977         3.40657        -4.04181        -1.18830        -3.91269     33.5757E-03    -16.7740E-03    -16.8017E-03    -16.7405E-03     33.5396E-03    -16.7991E-03     2.63906E-03    -23.1618E+06    -26.1843E+06    -201.050E+06    -26.2619E+06    -200.972E+06    -23.1618E+06    -3.61726E+06         22.5632
            1500     2.95084E-03     76.3816E-03         3.96895     417.805E-03        -6.18774         3.17960        -5.39839     417.805E-03        -3.48849     33.5320E-03    -16.7436E-03    -16.7883E-03    -16.6734E-03     33.4618E-03    -16.7883E-03     3.71703E-03    -18.5879E+06    -24.0432E+06    -195.098E+06    -24.1759E+06    -194.966E+06    -18.5879E+06    -4.69484E+06         22.6252
            1501     3.93455E-03     76.3859E-03         2.35513     742.372E-03        -4.84282    -333.935E-03        -2.15376     742.372E-03    -629.448E-03     33.5075E-03    -16.7367E-03    -16.7708E-03    -16.6266E-03     33.3929E-03    -16.7663E-03     4.76587E-03    -14.6415E+06    -21.8416E+06    -184.382E+06    -22.0562E+06    -184.168E+06    -14.6415E+06    -5.79544E+06         22.7208
            1502     4.91830E-03     76.3913E-03         3.37214     148.673E-03        -5.17128        -4.44107         2.64194     148.673E-03         2.96371     33.5152E-03    -16.7451E-03    -16.7701E-03    -16.5989E-03     33.3498E-03    -16.7510E-03     5.73959E-03    -9.79720E+06    -18.7741E+06    -172.627E+06    -19.0921E+06    -172.309E+06    -9.79720E+06    -6.88075E+06         22.8616
            1503     5.90204E-03     76.3977E-03         5.10597    -734.788E-03        -5.89537        -5.82507         5.03567    -734.788E-03     529.159E-03     33.5028E-03    -16.7351E-03    -16.7678E-03    -16.5507E-03     33.2857E-03    -16.7351E-03     6.58114E-03    -5.09660E+06    -15.2786E+06    -159.730E+06    -15.7066E+06    -159.302E+06    -5.09660E+06    -7.75944E+06         23.0666
            1504     6.88584E-03     76.4048E-03         5.30993        -1.41215        -5.22752        -4.93223         5.01463        -1.41215        -2.20188     33.4582E-03    -16.7071E-03    -16.7510E-03    -16.4849E-03     33.1920E-03    -16.7071E-03     7.28485E-03    -2.42391E+06    -11.9749E+06    -146.434E+06    -12.4808E+06    -145.928E+06    -2.42391E+06    -8.16394E+06         23.3649
            1505     7.86974E-03     76.4126E-03         5.29000        -1.81817        -4.56599        -4.23296         4.95697        -1.81817        -3.37042     33.4135E-03    -16.6692E-03    -16.7443E-03    -16.4248E-03     33.0940E-03    -16.6692E-03     7.97184E-03    -1.19567E+06    -8.93369E+06    -131.949E+06    -9.49931E+06    -131.383E+06    -1.19567E+06    -8.23633E+06         23.7988
            1506     8.85367E-03     76.4212E-03         3.84606        -1.62671        -3.05552        -2.26629         3.41968        -1.98956        -1.10166     33.3682E-03    -16.6294E-03    -16.7388E-03    -16.3724E-03     33.0018E-03    -16.6294E-03     8.53576E-03    -474.908E+03    -6.23086E+06    -117.025E+06    -6.84418E+06    -116.411E+06    -474.908E+03    -8.15490E+06         24.4255
            1507     9.83765E-03     76.4301E-03         2.42679        -1.12805        -1.91782    -63.3426E-03         1.36209        -1.91782     28.0748E-03     33.3430E-03    -16.5719E-03    -16.7710E-03    -16.3342E-03     32.9062E-03    -16.5719E-03     9.29868E-03    -1.75946E+06    -6.44234E+06    -103.239E+06    -4.76506E+06    -102.581E+06    -4.09485E+06    -7.96612E+06         25.3139
            1508     10.8217E-03     76.4403E-03         1.84461    -591.339E-03        -1.74209     198.386E-03         1.05489        -1.74209    -465.006E-03     33.3504E-03    -16.4850E-03    -16.8654E-03    -16.2785E-03     32.7635E-03    -16.4850E-03     10.7570E-03    -2.99693E+06    -12.1399E+06    -82.3695E+06    -3.69189E+06    -81.6746E+06    -12.1399E+06    -7.30111E+06         26.5344
            1509     11.8058E-03     76.4522E-03         1.87615    -624.510E-03        -1.63932    -410.288E-03         1.63121        -1.60860        -1.31127     33.2397E-03    -16.3963E-03    -16.8433E-03    -16.1559E-03     32.5523E-03    -16.3963E-03     11.6539E-03    -2.86202E+06    -18.6729E+06    -53.3314E+06    -3.78830E+06    -52.4051E+06    -18.6729E+06    -6.49760E+06         28.1392
            1510     12.7901E-03     76.4641E-03         2.75079        -1.25179        -1.85753    -880.835E-03         2.06085        -1.53854        -2.73756     33.2499E-03    -16.2950E-03    -16.9549E-03    -16.0437E-03     32.3388E-03    -16.2950E-03     13.3054E-03     425.491E+03    -14.5947E+06    -35.1435E+06    -3.88786E+06    -18.9589E+06    -26.4659E+06    -5.96900E+06         30.1353
            1511     13.7744E-03     76.4795E-03         3.13128        -1.31993        -2.17483    -310.268E-03         1.42530        -1.47853        -4.29923     33.6381E-03    -16.1345E-03    -17.5036E-03    -15.9494E-03     32.0839E-03    -16.1345E-03     17.3961E-03     26.9980E+06    -6.38610E+06    -42.7742E+06    -4.01171E+06     24.6236E+06    -42.7742E+06    -4.41722E+06         32.4598
            1512     14.7588E-03     76.5000E-03         2.97854        -1.22403        -2.19060         1.33558    -415.539E-03        -1.35614        -4.01432     34.7942E-03    -15.9401E-03    -18.8540E-03    -15.7679E-03     31.7081E-03    -15.9401E-03     24.5969E-03     94.1493E+06    -6.16372E+06    -58.1000E+06    -6.06405E+06     94.0497E+06    -58.1000E+06    -2.24046E+06         34.9717
            1513     15.7437E-03     76.5303E-03         2.59881        -1.08018        -2.09755         1.75578        -1.15089        -1.18381        -2.39742     36.8447E-03    -16.0198E-03    -20.8249E-03    -15.4829E-03     31.5027E-03    -16.0198E-03     33.2756E-03     162.248E+06     7.10298E+06    -35.7737E+06    -8.34635E+06     162.240E+06    -20.3164E+06    -360.469E+03         37.4747
            1514     16.7285E-03     76.5686E-03         1.69728    -856.189E-03        -1.61961     591.947E-03    -320.704E-03        -1.04976    -595.292E-03     35.1649E-03    -15.9001E-03    -19.2648E-03    -14.9349E-03     31.3937E-03    -16.4588E-03     25.6268E-03     198.984E+06     80.1149E+06    -6.69847E+06    -6.69713E+06     198.983E+06     80.1149E+06     450.267E+03         39.7693
            1515     983.575E-06     77.4094E-03         5.47029     467.891E-03        -7.97046        -1.88103    -477.558E-03     326.305E-03         2.11513     33.5952E-03    -16.7571E-03    -16.8382E-03    -16.8202E-03     33.5821E-03    -16.7618E-03     1.52745E-03    -26.8414E+06    -29.1729E+06    -208.397E+06    -27.9139E+06    -208.364E+06    -28.1335E+06    -2.08623E+06         22.5236
            1516     1.96720E-03     77.4115E-03         2.68207     148.525E-03        -4.68916         1.08269        -2.54298    -398.275E-03    -897.377E-03     33.5528E-03    -16.7669E-03    -16.7859E-03    -16.7306E-03     33.5166E-03    -16.7859E-03     2.64359E-03    -24.3324E+06    -28.0278E+06    -197.875E+06    -27.5902E+06    -197.791E+06    -24.8546E+06    -3.68372E+06         22.5591
            1517     2.95081E-03     77.4146E-03         2.60326     24.6575E-03        -4.48967         1.52940        -3.58805     196.896E-03     7.58275E-03     33.5356E-03    -16.7529E-03    -16.7827E-03    -16.6857E-03     33.4647E-03    -16.7790E-03     3.73480E-03    -20.3096E+06    -25.6935E+06    -192.249E+06    -25.8611E+06    -192.081E+06    -20.3096E+06    -5.16826E+06         22.6206
            1518     3.93454E-03     77.4190E-03         2.19155     210.149E-03        -4.13559        -1.43949    -504.552E-03     210.149E-03     700.638E-03     33.5267E-03    -16.7506E-03    -16.7761E-03    -16.6477E-03     33.4102E-03    -16.7625E-03     4.80625E-03    -16.0475E+06    -22.5692E+06    -181.065E+06    -22.8773E+06    -180.757E+06    -16.0475E+06    -6.82560E+06         22.7151
            1519     4.91821E-03     77.4244E-03         3.39743    -376.038E-03        -4.65121        -4.12081         2.86703    -376.038E-03         1.68835     33.5251E-03    -16.7511E-03    -16.7739E-03    -16.6067E-03     33.3578E-03    -16.7511E-03     5.77437E-03    -11.1106E+06    -19.2403E+06    -169.788E+06    -19.7364E+06    -169.292E+06    -11.1106E+06    -8.53049E+06         22.8543
            1520     5.90198E-03     77.4308E-03         5.59522        -1.14231        -5.92813        -5.77873         5.44582        -1.14231        -1.75543     33.5033E-03    -16.7368E-03    -16.7665E-03    -16.5477E-03     33.2845E-03    -16.7368E-03     6.60638E-03    -6.37559E+06    -15.8982E+06    -157.761E+06    -16.5475E+06    -157.112E+06    -6.37559E+06    -9.50724E+06         23.0568
            1521     6.88579E-03     77.4379E-03         6.90304        -1.84083        -6.36983        -6.15169         6.68491        -1.84083        -3.18224     33.4621E-03    -16.7099E-03    -16.7522E-03    -16.4848E-03     33.1947E-03    -16.7099E-03     7.30228E-03    -3.48198E+06    -12.5680E+06    -144.996E+06    -13.3403E+06    -144.223E+06    -3.48198E+06    -10.0084E+06         23.3513
            1522     7.86965E-03     77.4456E-03         6.16868        -2.30281        -4.96173        -4.71187         5.91882        -2.30281        -3.00839     33.4124E-03    -16.6710E-03    -16.7414E-03    -16.4197E-03     33.0907E-03    -16.6710E-03     7.99712E-03    -2.30309E+06    -9.38206E+06    -130.805E+06    -10.2746E+06    -129.912E+06    -2.30309E+06    -10.2867E+06         23.7802
            1523     8.85360E-03     77.4542E-03         4.40765        -2.11372        -3.18714        -2.53207         4.09903        -2.46017    -474.745E-03     33.3614E-03    -16.6295E-03    -16.7319E-03    -16.3645E-03     32.9940E-03    -16.6295E-03     8.54698E-03    -1.66370E+06    -6.40809E+06    -116.282E+06    -7.40227E+06    -115.288E+06    -1.66370E+06    -10.2983E+06         24.4009
            1524     9.83760E-03     77.4631E-03         2.96229        -1.34185        -2.37810    -605.047E-03         2.22549        -2.37810         1.44251     33.3368E-03    -16.5721E-03    -16.7647E-03    -16.3281E-03     32.9002E-03    -16.5721E-03     9.29419E-03    -2.23247E+06    -6.73958E+06    -102.675E+06    -5.01897E+06    -101.651E+06    -4.97754E+06    -9.92122E+06         25.2832
            1525     10.8216E-03     77.4732E-03         2.15367    -610.596E-03        -2.19258     21.5665E-03         1.52151        -2.19258     126.455E-03     33.3311E-03    -16.4840E-03    -16.8471E-03    -16.2628E-03     32.7468E-03    -16.4840E-03     10.7317E-03    -2.27404E+06    -13.0242E+06    -82.8373E+06    -3.39825E+06    -81.7131E+06    -13.0242E+06    -9.24924E+06         26.4996
            1526     11.8058E-03     77.4851E-03         2.26791    -825.909E-03        -2.06797    -604.567E-03         2.01585        -2.03725        -1.45353     33.2335E-03    -16.3957E-03    -16.8378E-03    -16.1572E-03     32.5529E-03    -16.3957E-03     11.5952E-03    -769.538E+03    -18.8307E+06    -54.0535E+06    -2.13841E+06    -52.6846E+06    -18.8307E+06    -8.14115E+06         28.1048
            1527     12.7900E-03     77.4971E-03         2.52245        -1.16477        -1.95965    -539.421E-03         1.86637        -1.92893        -1.90873     33.2676E-03    -16.2945E-03    -16.9730E-03    -16.0657E-03     32.3602E-03    -16.2945E-03     13.2797E-03     1.65353E+06    -14.7872E+06    -35.6437E+06    -2.83630E+06    -19.2047E+06    -26.7364E+06    -6.80990E+06         30.1084
            1528     13.7744E-03     77.5125E-03         1.95577    -802.718E-03        -1.80402     297.373E-03     855.678E-03        -1.80402        -1.71002     33.6280E-03    -16.1317E-03    -17.4963E-03    -15.9506E-03     32.0823E-03    -16.1317E-03     17.3499E-03     25.4562E+06    -8.50525E+06    -44.8436E+06    -5.70273E+06     22.6537E+06    -44.8436E+06    -5.17134E+06         32.4484
            1529     14.7588E-03     77.5328E-03         1.95734    -744.222E-03        -1.96658         1.26267    -380.601E-03        -1.63553        -1.96546     34.7892E-03    -15.9373E-03    -18.8519E-03    -15.7733E-03     31.7106E-03    -15.9373E-03     24.5607E-03     91.9076E+06    -8.56020E+06    -60.4836E+06    -8.39524E+06     91.7427E+06    -60.4836E+06     -2.6918E+06         34.9824
            1530     15.7434E-03     77.5631E-03         2.49596        -1.09576        -2.36309         2.20286        -1.73500        -1.43076        -1.87494     36.7169E-03    -16.0104E-03    -20.7066E-03    -15.4026E-03     31.4129E-03    -16.0104E-03     33.0927E-03     160.424E+06     4.50897E+06    -37.0659E+06    -9.52488E+06     160.418E+06    -23.0253E+06    -518.918E+03         37.5087
            1531     16.7287E-03     77.6015E-03         2.31770        -1.13678        -2.38493         2.07488        -2.05217        -1.22672        -1.41926     35.0783E-03    -15.9485E-03    -19.1298E-03    -14.8943E-03     31.3423E-03    -16.4480E-03     25.4727E-03     198.757E+06     78.5991E+06    -6.84870E+06    -6.84797E+06     198.756E+06     78.5991E+06     345.533E+03         39.8214
            1532     983.574E-06     78.4426E-03         4.66274         2.89599        -9.92520         2.24011        -8.45883         3.85226     14.2375E-03     33.5361E-03    -16.7271E-03    -16.8091E-03    -16.7928E-03     33.5236E-03    -16.7308E-03     1.49071E-03    -28.9134E+06    -30.8063E+06    -204.242E+06    -29.9715E+06    -204.194E+06    -29.7965E+06    -2.72642E+06         22.5198
            1533     1.96720E-03     78.4446E-03         2.38449         1.54447        -5.96792        -1.72079        -2.41370         2.09552        -1.81141     33.5236E-03    -16.7556E-03    -16.7679E-03    -16.7253E-03     33.4881E-03    -16.7627E-03     2.60942E-03    -25.6619E+06    -28.8047E+06    -194.503E+06    -28.3916E+06    -194.394E+06    -26.1841E+06    -4.09571E+06         22.5550
            1534     2.95088E-03     78.4478E-03         2.76095     230.930E-03        -4.74422        -4.03631         1.88080     403.168E-03         2.26081     33.5488E-03    -16.7638E-03    -16.7850E-03    -16.7107E-03     33.4778E-03    -16.7671E-03     3.73718E-03    -21.1329E+06    -25.8601E+06    -188.574E+06    -26.1016E+06    -188.332E+06    -21.1329E+06    -6.09940E+06         22.6159
            1535     3.93447E-03     78.4521E-03         4.64151    -867.438E-03        -5.41292        -5.08457         4.31316    -867.438E-03         2.85240     33.5383E-03    -16.7595E-03    -16.7788E-03    -16.6616E-03     33.4211E-03    -16.7595E-03     4.82031E-03    -16.7201E+06    -23.0416E+06    -177.196E+06    -23.4851E+06    -176.752E+06    -16.7201E+06    -8.14297E+06         22.7095
            1536     4.91820E-03     78.4575E-03         4.55396        -1.65656        -4.34973        -4.20227         4.40651        -1.65656     192.451E-03     33.5170E-03    -16.7495E-03    -16.7675E-03    -16.5988E-03     33.3483E-03    -16.7495E-03     5.79772E-03    -11.9956E+06    -19.9220E+06    -166.237E+06    -20.6023E+06    -165.557E+06    -11.9956E+06    -9.86653E+06         22.8471
            1537     5.90194E-03     78.4638E-03         4.10217        -1.65212        -3.81632        -3.12459         3.76949        -2.01117        -1.51115     33.4941E-03    -16.7342E-03    -16.7599E-03    -16.5398E-03     33.2739E-03    -16.7342E-03     6.62636E-03    -7.56303E+06    -16.6049E+06    -155.335E+06    -17.5142E+06    -154.425E+06    -7.56303E+06    -11.1214E+06         23.0471
            1538     6.88574E-03     78.4709E-03         5.29874        -1.87225        -4.64630        -3.95969         4.97119        -2.23130    -390.716E-03     33.4559E-03    -16.7070E-03    -16.7489E-03    -16.4798E-03     33.1869E-03    -16.7070E-03     7.32364E-03    -4.64922E+06    -13.1275E+06    -143.063E+06    -14.2525E+06    -141.938E+06    -4.64922E+06    -11.9518E+06         23.3380
            1539     7.86962E-03     78.4786E-03         5.76212        -2.46115        -4.36782        -4.15590         5.55020        -2.46115    -325.877E-03     33.4193E-03    -16.6690E-03    -16.7503E-03    -16.4268E-03     33.0958E-03    -16.6690E-03     8.02209E-03    -3.34522E+06    -9.65719E+06    -129.264E+06    -11.0241E+06    -127.897E+06    -3.34522E+06    -12.6010E+06         23.7619
            1540     8.85354E-03     78.4872E-03         5.18228        -2.43163        -3.68792        -3.33050         5.00025        -2.60701     391.008E-03     33.3725E-03    -16.6292E-03    -16.7433E-03    -16.3740E-03     33.0032E-03    -16.6292E-03     8.57039E-03    -2.67750E+06    -6.57138E+06    -115.321E+06    -8.08738E+06    -113.805E+06    -2.67750E+06    -12.6768E+06         24.3764
            1541     9.83750E-03     78.4960E-03         4.20353        -2.02918        -3.00415        -2.34546         4.14954        -2.63389     786.379E-03     33.3321E-03    -16.5730E-03    -16.7590E-03    -16.3226E-03     32.8957E-03    -16.5730E-03     9.29327E-03    -2.70757E+06    -7.34613E+06    -102.483E+06    -5.65658E+06    -100.948E+06    -5.93154E+06    -12.1121E+06         25.2524
            1542     10.8216E-03     78.5061E-03         3.27227        -1.51647        -2.56012        -1.19748         2.95327        -2.56012         1.10764     33.3316E-03    -16.4856E-03    -16.8460E-03    -16.2637E-03     32.7492E-03    -16.4856E-03     10.7132E-03    -2.46593E+06    -13.8618E+06    -82.9658E+06    -4.13645E+06    -81.2952E+06    -13.8618E+06    -11.3275E+06         26.4643
            1543     11.8057E-03     78.5180E-03         2.37963    -741.018E-03        -2.40673    -137.628E-03         1.77624        -2.40673     552.125E-03     33.2507E-03    -16.4001E-03    -16.8506E-03    -16.1709E-03     32.5710E-03    -16.4001E-03     11.5917E-03    -1.76594E+06    -19.8872E+06    -55.6704E+06    -3.85131E+06    -53.5850E+06    -19.8872E+06    -10.1131E+06         28.0696
            1544     12.7899E-03     78.5300E-03         1.92638    -524.999E-03        -2.18683         1.13831     263.071E-03        -2.18683        -1.26469     33.2598E-03    -16.3058E-03    -16.9540E-03    -16.0486E-03     32.3544E-03    -16.3058E-03     13.2619E-03     544.069E+03    -15.3373E+06    -36.3763E+06    -3.78524E+06    -20.9171E+06    -26.4672E+06    -7.51551E+06         30.0805
            1545     13.7743E-03     78.5453E-03         2.02350    -888.704E-03        -1.96241         1.91137    -815.645E-03        -1.92333    -747.100E-03     33.6245E-03    -16.1453E-03    -17.4793E-03    -15.9428E-03     32.0881E-03    -16.1453E-03     17.3005E-03     23.9023E+06    -7.68627E+06    -43.3373E+06    -4.71814E+06     20.9342E+06    -43.3373E+06    -5.04842E+06         32.4364
            1546     14.7588E-03     78.5656E-03         1.60337    -829.930E-03        -1.72834         1.21759    -483.232E-03        -1.68926     267.281E-03     34.8169E-03    -15.9392E-03    -18.8777E-03    -15.7890E-03     31.7282E-03    -15.9392E-03     24.5938E-03     89.5663E+06    -8.11356E+06    -61.4677E+06    -7.91755E+06     89.3703E+06    -61.4677E+06    -3.05557E+06         34.9928
            1547     15.7434E-03     78.5962E-03         1.57552        -1.07845        -1.67691     960.852E-03    -627.099E-03        -1.51358     907.964E-03     36.7604E-03    -16.0075E-03    -20.7529E-03    -15.4751E-03     31.4826E-03    -16.0075E-03     33.0670E-03     158.943E+06     3.46240E+06    -38.8370E+06    -9.98958E+06     158.929E+06    -25.3706E+06    -1.28494E+06         37.5429
            1548     16.7284E-03     78.6338E-03         2.46178        -1.34006        -2.68230         1.88923        -2.10976        -1.34006         1.68552     35.0278E-03    -15.8675E-03    -19.1604E-03    -14.8750E-03     31.3271E-03    -16.4521E-03     25.4142E-03     198.542E+06     77.7663E+06    -6.99470E+06    -6.99103E+06     198.538E+06     77.7663E+06    -306.221E+03         39.8739
            1549     983.632E-06     79.4756E-03         6.72857     669.542E-03        -9.61092         1.47257        -4.59988     914.508E-03        -7.67128     33.4958E-03    -16.7062E-03    -16.7895E-03    -16.7742E-03     33.4834E-03    -16.7092E-03     1.47256E-03    -30.3592E+06    -32.4176E+06    -199.237E+06    -31.9532E+06    -199.181E+06    -30.8794E+06    -2.67538E+06         22.5160
            1550     1.96724E-03     79.4777E-03         4.26424     500.410E-03        -6.77811        -1.00574        -1.75309     745.376E-03        -4.55835     33.5178E-03    -16.7453E-03    -16.7725E-03    -16.7338E-03     33.4821E-03    -16.7483E-03     2.61406E-03    -27.3364E+06    -30.3519E+06    -190.106E+06    -30.3788E+06    -189.920E+06    -27.4956E+06    -5.23828E+06         22.5509
            1551     2.95080E-03     79.4809E-03         5.38170    -640.574E-03        -6.44835        -6.27597         5.20932    -640.574E-03     499.994E-03     33.5447E-03    -16.7593E-03    -16.7854E-03    -16.7129E-03     33.4734E-03    -16.7605E-03     3.74508E-03    -22.2777E+06    -27.1668E+06    -184.300E+06    -27.5327E+06    -183.934E+06    -22.2777E+06    -7.42313E+06         22.6113
            1552     3.93447E-03     79.4853E-03         7.24801        -2.08236        -6.55042        -6.05046         6.74805        -2.08236         3.48656     33.5306E-03    -16.7547E-03    -16.7759E-03    -16.6574E-03     33.4133E-03    -16.7558E-03     4.82332E-03    -17.4937E+06    -23.8983E+06    -173.162E+06    -24.5042E+06    -172.557E+06    -17.4937E+06    -9.36755E+06         22.7039
            1553     4.91817E-03     79.4906E-03         5.44660        -2.65783        -4.05604        -3.41258         4.80314        -2.65783         2.91793     33.5178E-03    -16.7486E-03    -16.7691E-03    -16.6013E-03     33.3500E-03    -16.7486E-03     5.78359E-03    -12.4095E+06    -20.7210E+06    -162.579E+06    -21.5997E+06    -161.701E+06    -12.4095E+06    -11.0640E+06         22.8400
            1554     5.90192E-03     79.4970E-03         3.60904        -2.08634        -2.66906        -1.62283         3.12645        -2.64998         1.80930     33.4847E-03    -16.7328E-03    -16.7519E-03    -16.5342E-03     33.2670E-03    -16.7328E-03     6.58845E-03    -8.12133E+06    -17.1678E+06    -151.930E+06    -18.3946E+06    -150.704E+06    -8.12133E+06    -12.6857E+06         23.0375
            1555     6.88575E-03     79.5039E-03         3.61056        -1.94526        -2.74053        -1.71825         3.15279        -2.50977         1.07963     33.4485E-03    -16.7031E-03    -16.7454E-03    -16.4780E-03     33.1810E-03    -16.7031E-03     7.30076E-03    -5.72782E+06    -13.3584E+06    -140.384E+06    -14.9777E+06    -138.765E+06    -5.72782E+06    -14.1502E+06         23.3248
            1556     7.86959E-03     79.5117E-03         5.60649        -2.51806        -4.07089        -3.54107         5.07754        -2.51893        -1.71693     33.4192E-03    -16.6657E-03    -16.7536E-03    -16.4313E-03     33.0969E-03    -16.6657E-03     8.00777E-03    -4.49486E+06    -9.75645E+06    -127.345E+06    -11.7152E+06    -125.386E+06    -4.49486E+06    -14.9563E+06         23.7436
            1557     8.85348E-03     79.5201E-03         6.11691        -2.65823        -4.36292        -3.99445         5.74844        -2.65823    -932.569E-03     33.3702E-03    -16.6262E-03    -16.7440E-03    -16.3753E-03     33.0015E-03    -16.6262E-03     8.56327E-03    -3.95293E+06    -6.70518E+06    -114.320E+06    -8.81161E+06    -112.134E+06    -4.03159E+06    -15.1021E+06         24.3519
            1558     9.83749E-03     79.5291E-03         4.72463        -2.49020        -3.11275        -2.66015         4.51109        -2.72927         1.60219     33.3305E-03    -16.5701E-03    -16.7604E-03    -16.3249E-03     32.8951E-03    -16.5701E-03     9.28424E-03    -3.53423E+06    -8.15652E+06    -102.484E+06    -6.34724E+06    -100.292E+06    -7.53578E+06    -14.4531E+06         25.2215
            1559     10.8215E-03     79.5390E-03         4.15515        -2.26562        -2.74866        -1.37495         3.18232        -2.66650         3.92065     33.3387E-03    -16.4833E-03    -16.8554E-03    -16.2707E-03     32.7540E-03    -16.4833E-03     10.7324E-03    -2.66845E+06    -15.5500E+06    -83.4215E+06    -4.88022E+06    -81.2097E+06    -15.5500E+06    -13.0888E+06         26.4286
            1560     11.8057E-03     79.5510E-03         2.65063    -931.870E-03        -2.58635    -40.6177E-03         1.67722        -2.50419         2.91701     33.2557E-03    -16.3973E-03    -16.8584E-03    -16.1741E-03     32.5714E-03    -16.3973E-03     11.6317E-03    -1.70151E+06    -21.8382E+06    -56.8561E+06    -4.35949E+06    -54.1981E+06    -21.8382E+06    -11.5420E+06         28.0337
            1561     12.7898E-03     79.5628E-03         1.81558    -417.868E-03        -2.25363         1.57188    -174.164E-03        -2.25363    -646.762E-03     33.2611E-03    -16.2945E-03    -16.9666E-03    -16.0558E-03     32.3502E-03    -16.2945E-03     13.3002E-03     1.51233E+06    -18.7231E+06    -40.1034E+06    -3.94333E+06    -23.0108E+06    -30.3601E+06    -9.91299E+06         30.0517
            1562     13.7743E-03     79.5782E-03         2.79991        -1.51452        -2.16981         2.71142        -1.65606        -1.93977    -434.140E-03     33.6526E-03    -16.1464E-03    -17.5062E-03    -15.9652E-03     32.1116E-03    -16.1464E-03     17.3405E-03     23.1771E+06    -9.30715E+06    -44.9605E+06    -4.01002E+06     17.8800E+06    -44.9605E+06    -6.52088E+06         32.4235
            1563     14.7586E-03     79.5985E-03         2.85455        -1.53495        -2.31958         2.47736        -1.84225        -1.63509         1.85176     34.7796E-03    -15.9440E-03    -18.8356E-03    -15.7706E-03     31.7146E-03    -15.9440E-03     24.4911E-03     87.4415E+06    -6.40158E+06    -61.7610E+06    -6.21335E+06     87.2533E+06    -61.7610E+06    -2.87223E+06         35.0028
            1564     15.7434E-03     79.6289E-03         1.83439        -1.15918        -1.91542         1.22935        -1.05793        -1.41162         2.25361     36.8299E-03    -15.9985E-03    -20.8314E-03    -15.4895E-03     31.4879E-03    -15.9985E-03     33.2699E-03     158.155E+06     3.43213E+06    -40.1205E+06    -8.76350E+06     158.141E+06    -27.9109E+06    -1.38973E+06         37.5776
            1565     16.7279E-03     79.6674E-03         1.45452        -1.11662        -2.02207     616.335E-03        -1.03157        -1.26893         2.58929     35.0844E-03    -15.7893E-03    -19.2951E-03    -14.8747E-03     31.3244E-03    -16.4497E-03     25.5165E-03     197.983E+06     76.2390E+06    -6.91786E+06    -6.91295E+06     197.978E+06     76.2390E+06    -768.469E+03         39.9274
            1566     983.595E-06     80.5088E-03         11.2392        -3.38626        -9.82924        -6.17251         7.58247        -3.38626        -8.66319     33.4771E-03    -16.6904E-03    -16.7867E-03    -16.7740E-03     33.4643E-03    -16.6904E-03     1.49856E-03    -30.6927E+06    -33.4038E+06    -194.121E+06    -31.9028E+06    -194.057E+06    -32.2580E+06    -2.78796E+06         22.5123
            1567     1.96720E-03     80.5108E-03         9.06382        -3.03119        -7.76862        -3.53516         6.34051        -4.54134        -6.11465     33.5104E-03    -16.7391E-03    -16.7713E-03    -16.7329E-03     33.4743E-03    -16.7414E-03     2.63073E-03    -28.4477E+06    -31.0319E+06    -184.324E+06    -31.1005E+06    -184.097E+06    -28.6070E+06    -5.70113E+06         22.5469
            1568     2.95081E-03     80.5141E-03         6.13400        -1.65552        -5.95159        -2.39811         4.95813        -4.03314        -2.39357     33.5259E-03    -16.7513E-03    -16.7746E-03    -16.6992E-03     33.4540E-03    -16.7548E-03     3.75972E-03    -23.4744E+06    -28.6431E+06    -179.240E+06    -29.1405E+06    -178.742E+06    -23.4744E+06    -8.48219E+06         22.6067
            1569     3.93448E-03     80.5183E-03         5.30056        -1.46544        -5.02539        -1.41720         3.73654        -3.50961     120.490E-03     33.5294E-03    -16.7499E-03    -16.7794E-03    -16.6607E-03     33.4119E-03    -16.7511E-03     4.82967E-03    -18.7748E+06    -25.6017E+06    -168.756E+06    -26.4278E+06    -167.930E+06    -18.7748E+06    -10.7205E+06         22.6985
            1570     4.91812E-03     80.5238E-03         4.11156        -1.75144        -3.38890        -1.35844         3.40957        -3.07991         3.53835     33.5203E-03    -16.7461E-03    -16.7742E-03    -16.6082E-03     33.3543E-03    -16.7461E-03     5.75319E-03    -13.6275E+06    -21.9315E+06    -158.624E+06    -23.1524E+06    -157.403E+06    -13.6275E+06    -12.7169E+06         22.8330
            1571     5.90185E-03     80.5299E-03         5.53520        -2.57516        -3.88578        -3.19506         5.20082        -2.93150         2.10950     33.4834E-03    -16.7305E-03    -16.7528E-03    -16.5371E-03     33.2676E-03    -16.7305E-03     6.55726E-03    -9.25541E+06    -17.7926E+06    -147.900E+06    -19.5179E+06    -146.174E+06    -9.25541E+06    -14.7243E+06         23.0282
            1572     6.88564E-03     80.5371E-03         5.98156        -2.78463        -4.03768        -3.45320         5.60253        -2.99009        -1.64512     33.4460E-03    -16.7005E-03    -16.7455E-03    -16.4791E-03     33.1796E-03    -16.7005E-03     7.28607E-03    -6.99504E+06    -13.6332E+06    -137.046E+06    -15.8877E+06    -134.792E+06    -6.99504E+06    -16.4259E+06         23.3118
            1573     7.86950E-03     80.5447E-03         5.34769        -2.39783        -3.76629        -1.87886         4.02304        -2.96061        -4.84587     33.4086E-03    -16.6621E-03    -16.7465E-03    -16.4250E-03     33.0871E-03    -16.6621E-03     7.99562E-03    -6.02889E+06    -9.76008E+06    -125.136E+06    -12.5009E+06    -122.395E+06    -6.02889E+06    -17.4528E+06         23.7256
            1574     8.85344E-03     80.5532E-03         4.32709        -1.63623        -3.50852    -971.022E-03         2.94820        -2.79483        -2.24759     33.3600E-03    -16.6228E-03    -16.7372E-03    -16.3699E-03     32.9928E-03    -16.6228E-03     8.54513E-03    -5.18848E+06    -6.62878E+06    -113.170E+06    -9.34460E+06    -110.131E+06    -5.51192E+06    -17.6956E+06         24.3275
            1575     9.83739E-03     80.5620E-03         3.68230        -1.89053        -2.63162        -1.10284         2.88039        -2.61740         2.76169     33.3255E-03    -16.5665E-03    -16.7589E-03    -16.3255E-03     32.8920E-03    -16.5665E-03     9.26179E-03    -3.53500E+06    -9.18663E+06    -102.565E+06    -6.63530E+06    -99.4645E+06    -9.18663E+06    -17.1646E+06         25.1904
            1576     10.8215E-03     80.5720E-03         4.03018        -2.33489        -2.55607        -1.01848         2.63061        -2.47292         5.19624     33.3304E-03    -16.4795E-03    -16.8509E-03    -16.2653E-03     32.7448E-03    -16.4795E-03     10.7378E-03    -1.55003E+06    -17.3539E+06    -84.9562E+06    -4.58348E+06    -81.9227E+06    -17.3539E+06    -15.5232E+06         26.3925
            1577     11.8055E-03     80.5838E-03         2.88578        -1.34909        -2.39089    -38.2219E-03         1.49276        -2.30873         3.87587     33.2526E-03    -16.3947E-03    -16.8579E-03    -16.1710E-03     32.5658E-03    -16.3947E-03     11.6530E-03     186.166E+03    -22.9280E+06    -58.1087E+06    -3.39190E+06    -54.5306E+06    -22.9280E+06    -13.5761E+06         27.9971
            1578     12.7899E-03     80.5957E-03         1.85036    -602.924E-03        -2.08481         1.17707     70.3679E-03        -2.08481     916.131E-03     33.2829E-03    -16.2926E-03    -16.9902E-03    -16.0804E-03     32.3731E-03    -16.2926E-03     13.3022E-03     3.22400E+06    -21.0460E+06    -41.2414E+06    -3.32063E+06    -24.0459E+06    -31.6969E+06    -12.0257E+06         30.0221
            1579     13.7740E-03     80.6110E-03         2.45360        -1.28243        -2.00611         2.11217        -1.13197        -1.81514         1.03634     33.6707E-03    -16.1431E-03    -17.5276E-03    -15.9739E-03     32.1169E-03    -16.1431E-03     17.4047E-03     21.2147E+06    -12.0402E+06    -48.0296E+06    -4.34848E+06     13.5230E+06    -48.0296E+06    -8.67728E+06         32.4098
            1580     14.7585E-03     80.6315E-03         2.98394        -1.53241        -2.34187         2.55811        -1.91342        -1.53503         2.58839     34.7670E-03    -15.9362E-03    -18.8308E-03    -15.7734E-03     31.7095E-03    -15.9362E-03     24.4858E-03     84.3139E+06    -6.45148E+06    -65.2738E+06    -5.92827E+06     83.7907E+06    -65.2738E+06    -4.02492E+06         35.0124
            1581     15.7432E-03     80.6614E-03         1.98759        -1.15272        -1.94443         1.60749        -1.41202        -1.30503         2.06981     36.7544E-03    -15.9819E-03    -20.7725E-03    -15.3652E-03     31.3470E-03    -15.9819E-03     33.3730E-03     157.126E+06     2.15766E+06    -41.0056E+06    -7.50764E+06     157.112E+06    -31.3261E+06    -1.18643E+06         37.6126
            1582     16.7287E-03     80.7006E-03     908.139E-03        -1.01154        -1.39911     477.674E-03    -816.335E-03        -1.16385     950.914E-03     35.0721E-03    -15.8334E-03    -19.2387E-03    -14.8144E-03     31.2474E-03    -16.4330E-03     25.5599E-03     197.426E+06     73.9828E+06    -5.90796E+06    -5.90623E+06     197.425E+06     73.9828E+06    -555.882E+03         39.9823
            1583     983.630E-06     81.5419E-03         16.1365        -6.73889        -11.1675        -10.9263         15.8952        -6.73889    -681.721E-03     33.4872E-03    -16.6904E-03    -16.7967E-03    -16.7697E-03     33.4744E-03    -16.7048E-03     1.49522E-03    -32.7353E+06    -36.6223E+06    -188.618E+06    -35.3016E+06    -188.533E+06    -34.1414E+06    -3.26012E+06         22.5087
            1584     1.96715E-03     81.5440E-03         15.4226        -6.39570        -10.4810        -8.02073         15.2407        -8.67402        -3.13644     33.4835E-03    -16.7244E-03    -16.7591E-03    -16.7061E-03     33.4472E-03    -16.7411E-03     2.63806E-03    -29.7449E+06    -33.0704E+06    -178.284E+06    -33.3364E+06    -178.018E+06    -29.7449E+06    -6.02535E+06         22.5430
            1585     2.95083E-03     81.5472E-03         8.03148        -1.83935        -7.33270    -223.965E-03         6.41610        -7.33270        -2.18450     33.5227E-03    -16.7467E-03    -16.7761E-03    -16.7013E-03     33.4504E-03    -16.7490E-03     3.77247E-03    -24.7705E+06    -30.1830E+06    -173.069E+06    -30.7847E+06    -172.467E+06    -24.7705E+06    -9.04446E+06         22.6023
            1586     3.93438E-03     81.5516E-03         3.61509     605.625E-03        -5.21788         2.28582         1.93489        -5.21788        -1.59129     33.5293E-03    -16.7472E-03    -16.7820E-03    -16.6647E-03     33.4119E-03    -16.7472E-03     4.82850E-03    -20.2633E+06    -26.8832E+06    -163.442E+06    -27.9675E+06    -162.358E+06    -20.2633E+06    -11.9778E+06         22.6931
            1587     4.91807E-03     81.5569E-03         4.02769    -847.015E-03        -3.96114    -693.085E-03         3.87376        -3.96114     389.893E-03     33.5068E-03    -16.7409E-03    -16.7658E-03    -16.6004E-03     33.3414E-03    -16.7409E-03     5.74241E-03    -15.3767E+06    -22.9918E+06    -153.766E+06    -24.6918E+06    -152.066E+06    -15.3767E+06    -14.6606E+06         22.8262
            1588     5.90180E-03     81.5632E-03         6.25413        -2.36955        -4.55244        -3.23146         6.17366        -3.61007    -143.904E-03     33.4788E-03    -16.7253E-03    -16.7535E-03    -16.5369E-03     33.2622E-03    -16.7253E-03     6.56888E-03    -10.8619E+06    -18.5575E+06    -143.468E+06    -20.9981E+06    -141.028E+06    -10.8619E+06    -17.1395E+06         23.0189
            1589     6.88560E-03     81.5701E-03         5.70592        -1.73709        -4.56539        -2.60563         5.52687        -3.51779        -1.42722     33.4434E-03    -16.6977E-03    -16.7457E-03    -16.4783E-03     33.1760E-03    -16.6977E-03     7.30006E-03    -8.23638E+06    -14.0160E+06    -133.565E+06    -17.1685E+06    -130.413E+06    -8.23638E+06    -19.0272E+06         23.2990
            1590     7.86946E-03     81.5778E-03         3.48829    -745.762E-03        -3.34981     94.3683E-03         2.54295        -3.24460        -1.59480     33.4065E-03    -16.6597E-03    -16.7467E-03    -16.4241E-03     33.0839E-03    -16.6597E-03     8.00902E-03    -7.26981E+06    -9.73673E+06    -122.605E+06    -13.5176E+06    -118.824E+06    -7.26981E+06    -20.1963E+06         23.7077
            1591     8.85335E-03     81.5862E-03         2.19848    -49.6611E-03        -2.81742         1.09555         1.05327        -2.81742     166.050E-03     33.3551E-03    -16.6217E-03    -16.7333E-03    -16.3670E-03     32.9887E-03    -16.6217E-03     8.53482E-03    -5.55829E+06    -7.09917E+06    -111.925E+06    -10.1384E+06    -107.760E+06    -6.68436E+06    -20.5075E+06         24.3032
            1592     9.83735E-03     81.5950E-03         2.29258    -550.968E-03        -2.45591     423.333E-03         1.31728        -2.45491         2.24036     33.3187E-03    -16.5656E-03    -16.7531E-03    -16.3199E-03     32.8855E-03    -16.5656E-03     9.25506E-03    -3.03815E+06    -10.4418E+06    -102.398E+06    -7.30415E+06    -98.1318E+06    -10.4418E+06    -20.0699E+06         25.1593
            1593     10.8213E-03     81.6049E-03         3.20100        -1.58583        -2.36892     587.304E-03     841.816E-03        -2.18287         3.98918     33.3267E-03    -16.4786E-03    -16.8481E-03    -16.2655E-03     32.7440E-03    -16.4786E-03     10.7142E-03    -529.783E+03    -18.9034E+06    -86.7935E+06    -4.99653E+06    -82.3267E+06    -18.9034E+06    -18.9424E+06         26.3560
            1594     11.8056E-03     81.6168E-03         3.27208        -1.63502        -2.39005         1.35162    -188.222E-03        -1.91639         4.51384     33.2479E-03    -16.3921E-03    -16.8558E-03    -16.1686E-03     32.5607E-03    -16.3921E-03     11.6544E-03     1.90958E+06    -24.6703E+06    -60.6697E+06    -3.07166E+06    -55.6884E+06    -24.6703E+06    -16.5983E+06         27.9597
            1595     12.7897E-03     81.6287E-03         2.53456        -1.09796        -2.16252         1.07819    -135.862E-03        -1.66825         3.59247     33.2785E-03    -16.2977E-03    -16.9807E-03    -16.0709E-03     32.3687E-03    -16.2977E-03     13.3088E-03     3.88479E+06    -23.0391E+06    -41.3874E+06    -2.97598E+06    -25.6357E+06    -31.9301E+06    -13.3975E+06         29.9916
            1596     13.7741E-03     81.6439E-03         2.52290        -1.19503        -2.00672     218.611E-03     596.945E-03        -1.49441         3.26952     33.6360E-03    -16.1466E-03    -17.4895E-03    -15.9338E-03     32.0804E-03    -16.1466E-03     17.3923E-03     18.8816E+06    -13.8968E+06    -49.0966E+06    -4.83868E+06     9.82350E+06    -49.0966E+06    -9.88319E+06         32.3955
            1597     14.7586E-03     81.6643E-03         2.38594        -1.25105        -1.83119     561.640E-03     105.179E-03        -1.36311         2.83182     34.8046E-03    -15.9250E-03    -18.8796E-03    -15.7959E-03     31.7209E-03    -15.9250E-03     24.6109E-03     80.7271E+06    -7.96794E+06    -69.3002E+06    -7.06446E+06     79.8236E+06    -69.3002E+06    -6.14038E+06         35.0218
            1598     15.7432E-03     81.6944E-03         2.45514        -1.09860        -2.15332         1.54782        -1.13655        -1.20805         3.43798     36.6817E-03    -15.9684E-03    -20.7132E-03    -15.4112E-03     31.3796E-03    -15.9684E-03     33.0666E-03     154.843E+06    -606.326E+03    -43.1198E+06    -8.01243E+06     154.759E+06    -35.6298E+06    -2.37960E+06         37.6478
            1599     16.7284E-03     81.7326E-03         2.21897        -1.03963        -2.23566         1.60727        -1.62395        -1.03963         2.58397     34.9174E-03    -15.8146E-03    -19.1027E-03    -14.7586E-03     31.1840E-03    -16.4254E-03     25.3650E-03     196.605E+06     71.4848E+06    -5.44203E+06    -5.44101E+06     196.604E+06     71.4848E+06    -236.927E+03         40.0377
            1600     983.459E-06     82.5751E-03         17.9159        -8.06243        -11.2732        -9.10516         17.5423        -9.85683         1.83742     33.5080E-03    -16.7124E-03    -16.7956E-03    -16.7689E-03     33.4956E-03    -16.7267E-03     1.46398E-03    -33.6457E+06    -37.4799E+06    -182.735E+06    -36.2427E+06    -182.643E+06    -34.9750E+06    -3.18111E+06         22.5052
            1601     1.96723E-03     82.5771E-03         14.8296        -6.59894        -9.53462        -6.79358         14.4311        -8.94143    -239.480E-03     33.4884E-03    -16.7317E-03    -16.7566E-03    -16.7053E-03     33.4523E-03    -16.7469E-03     2.63081E-03    -31.0026E+06    -34.1356E+06    -171.750E+06    -34.4783E+06    -171.407E+06    -31.0026E+06    -6.60422E+06         22.5392
            1602     2.95070E-03     82.5805E-03         11.0334        -4.29299        -7.72580        -3.67113         10.4101        -7.72438        -1.44804     33.5199E-03    -16.7499E-03    -16.7700E-03    -16.6966E-03     33.4473E-03    -16.7507E-03     3.77569E-03    -26.0798E+06    -30.9865E+06    -166.327E+06    -31.7785E+06    -165.535E+06    -26.0798E+06    -10.0938E+06         22.5980
            1603     3.93438E-03     82.5848E-03         7.84853        -2.13877        -6.43510        -1.51001         7.21834        -6.43368         1.74243     33.5129E-03    -16.7467E-03    -16.7662E-03    -16.6493E-03     33.3960E-03    -16.7467E-03     4.81973E-03    -21.1703E+06    -26.9571E+06    -157.066E+06    -28.3876E+06    -155.635E+06    -21.1703E+06    -13.3778E+06         22.6879
            1604     4.91802E-03     82.5901E-03         6.34947        -1.48660        -5.41750        -1.34884         6.21171        -5.41750         1.27474     33.4957E-03    -16.7388E-03    -16.7569E-03    -16.5922E-03     33.3310E-03    -16.7388E-03     5.72856E-03    -15.8849E+06    -22.4959E+06    -147.846E+06    -24.7738E+06    -145.568E+06    -15.8849E+06    -16.5650E+06         22.8195
            1605     5.90176E-03     82.5962E-03         5.88085        -1.72466        -4.54029         1.17774         2.97846        -4.54029    -185.976E-03     33.4696E-03    -16.7232E-03    -16.7464E-03    -16.5314E-03     33.2545E-03    -16.7232E-03     6.54709E-03    -11.2722E+06    -17.9168E+06    -138.400E+06    -21.1730E+06    -135.144E+06    -11.2722E+06    -19.4022E+06         23.0099
            1606     6.88554E-03     82.6033E-03         4.74575        -1.53005        -3.60127         2.88924     326.464E-03        -3.60127         1.01601     33.4416E-03    -16.6967E-03    -16.7449E-03    -16.4792E-03     33.1758E-03    -16.6967E-03     7.27656E-03    -8.72261E+06    -13.5026E+06    -129.755E+06    -17.7017E+06    -125.556E+06    -8.72261E+06    -21.5968E+06         23.2863
            1607     7.86939E-03     82.6108E-03         3.31817    -774.331E-03        -2.95455     772.101E-03         1.72176        -2.90458         1.75221     33.4078E-03    -16.6586E-03    -16.7491E-03    -16.4278E-03     33.0864E-03    -16.6586E-03     7.99423E-03    -7.54413E+06    -9.99843E+06    -119.903E+06    -14.4151E+06    -114.878E+06    -8.15293E+06    -22.9202E+06         23.6900
            1608     8.85329E-03     82.6193E-03         2.91183    -746.308E-03        -2.60501    -468.679E-03         2.58422        -2.55503         1.75768     33.3442E-03    -16.6198E-03    -16.7244E-03    -16.3602E-03     32.9800E-03    -16.6198E-03     8.50796E-03    -5.51907E+06    -8.22551E+06    -110.472E+06    -11.2747E+06    -104.918E+06    -8.02326E+06    -23.4030E+06         24.2790
            1609     9.83726E-03     82.6279E-03         2.72514    -752.126E-03        -2.48010         1.28713     464.720E-03        -2.25894         2.25302     33.3119E-03    -16.5634E-03    -16.7484E-03    -16.3156E-03     32.8790E-03    -16.5634E-03     9.24997E-03    -2.70456E+06    -12.0030E+06    -102.229E+06    -8.38342E+06    -96.5498E+06    -12.0030E+06    -23.0221E+06         25.1280
            1610     10.8213E-03     82.6380E-03         3.73356        -1.26425        -3.01382         3.09127        -1.78235        -1.85344         3.64899     33.3365E-03    -16.4768E-03    -16.8597E-03    -16.2771E-03     32.7539E-03    -16.4768E-03     10.7177E-03    -50.0664E+03    -20.6036E+06    -87.5026E+06    -6.22998E+06    -81.3227E+06    -20.6036E+06    -22.2457E+06         26.3191
            1611     11.8053E-03     82.6495E-03         3.82156        -1.44446        -2.93735         2.85850        -1.97429        -1.44446         4.63323     33.2464E-03    -16.3904E-03    -16.8559E-03    -16.1696E-03     32.5600E-03    -16.3904E-03     11.6468E-03     2.28894E+06    -27.3697E+06    -64.6304E+06    -4.73532E+06    -57.6061E+06    -27.3697E+06    -20.2620E+06         27.9216
            1612     12.7898E-03     82.6617E-03         2.84010        -1.17943        -2.17243     901.240E-03    -233.564E-03        -1.17943         4.21233     33.2471E-03    -16.3028E-03    -16.9443E-03    -16.0379E-03     32.3407E-03    -16.3028E-03     13.2766E-03     4.51523E+06    -26.0366E+06    -44.1825E+06    -3.47384E+06    -29.0908E+06    -33.1392E+06    -15.7486E+06         29.9600
            1613     13.7740E-03     82.6767E-03         2.72463        -1.08523        -2.09107    -866.870E-03         1.50043        -1.08523         3.96749     33.5985E-03    -16.1480E-03    -17.4505E-03    -15.9224E-03     32.0704E-03    -16.1480E-03     17.2403E-03     18.9879E+06    -14.6500E+06     -49.607E+06    -3.16401E+06     7.50186E+06     -49.607E+06    -11.7663E+06         32.3801
            1614     14.7586E-03     82.6970E-03         2.57936    -944.099E-03        -2.05334    -589.564E-03         1.22503        -1.05355         3.78413     34.8335E-03    -15.9141E-03    -18.9194E-03    -15.8070E-03     31.7210E-03    -15.9141E-03     24.6845E-03     77.5671E+06    -6.73625E+06    -72.3617E+06    -4.86630E+06     75.6972E+06    -72.3617E+06    -7.95032E+06         35.0308
            1615     15.7430E-03     82.7277E-03         3.20085    -849.108E-03        -2.80282         1.23319    -725.707E-03    -958.557E-03         5.24536     36.7794E-03    -15.9587E-03    -20.8208E-03    -15.5415E-03     31.5002E-03    -15.9587E-03     33.1112E-03     151.118E+06    -1.73184E+06    -45.3748E+06    -7.48907E+06     151.004E+06    -39.5029E+06    -3.20876E+06         37.6833
            1616     16.7278E-03     82.7651E-03         3.15771    -802.978E-03        -2.83764         1.81621        -1.49614    -802.978E-03         4.80449     34.8898E-03    -15.7308E-03    -19.1590E-03    -14.7691E-03     31.1926E-03    -16.4235E-03     25.4464E-03     195.468E+06     68.8496E+06    -5.84784E+06    -5.84323E+06     195.464E+06     68.8496E+06    -371.910E+03         40.0938
            1617     983.645E-06     83.6083E-03         16.9702        -7.00925        -11.1156        -7.48719         15.8669        -9.53428        -5.08384     33.5381E-03    -16.7210E-03    -16.8171E-03    -16.8050E-03     33.5260E-03    -16.7210E-03     1.45150E-03    -34.6507E+06    -37.2829E+06    -175.912E+06    -35.9011E+06    -175.743E+06    -36.2015E+06    -4.33973E+06         22.5017
            1618     1.96697E-03     83.6105E-03         11.3559        -4.88551        -7.59040        -3.92171         10.3921        -7.59040        -3.30770     33.5375E-03    -16.7582E-03    -16.7793E-03    -16.7377E-03     33.5019E-03    -16.7642E-03     2.61101E-03    -31.4556E+06    -33.7031E+06    -164.438E+06    -33.9546E+06    -163.965E+06    -31.6771E+06    -7.56173E+06         22.5355
            1619     2.95070E-03     83.6137E-03         12.8618        -5.95866        -7.78510        -6.69755         12.4899        -6.67426        -3.04139     33.5186E-03    -16.7512E-03    -16.7674E-03    -16.6809E-03     33.4469E-03    -16.7660E-03     3.75324E-03    -26.4434E+06    -30.3088E+06    -159.015E+06    -31.3829E+06    -157.941E+06    -26.4434E+06    -11.4510E+06         22.5938
            1620     3.93427E-03     83.6181E-03         13.0014        -5.77750        -7.78276        -6.63430         12.7474        -6.67191         2.84101     33.4975E-03    -16.7404E-03    -16.7571E-03    -16.6287E-03     33.3825E-03    -16.7538E-03     4.77823E-03    -21.2989E+06    -26.2007E+06    -149.991E+06    -28.1554E+06    -148.036E+06    -21.2989E+06    -15.2119E+06         22.6828
            1621     4.91798E-03     83.6233E-03         7.96018        -2.12288        -6.13699    -839.770E-03         6.67707        -6.13699         3.63737     33.4805E-03    -16.7320E-03    -16.7486E-03    -16.5766E-03     33.3176E-03    -16.7410E-03     5.69394E-03    -15.9360E+06    -21.5273E+06    -141.190E+06    -24.5577E+06    -138.160E+06    -15.9360E+06    -18.6247E+06         22.8129
            1622     5.90167E-03     83.6295E-03         5.39544    -756.288E-03        -4.86725         4.00401     635.138E-03        -4.86725    -230.687E-03     33.4616E-03    -16.7193E-03    -16.7423E-03    -16.5244E-03     33.2481E-03    -16.7237E-03     6.52131E-03    -11.4337E+06    -16.8415E+06    -132.980E+06    -20.9742E+06    -128.848E+06    -11.4337E+06    -21.4066E+06         23.0009
            1623     6.88549E-03     83.6363E-03         5.24270        -1.84692        -3.56664         4.29252    -896.752E-03        -3.56664        -1.39101     33.4446E-03    -16.6969E-03    -16.7477E-03    -16.4828E-03     33.1797E-03    -16.6969E-03     7.26471E-03    -9.05792E+06    -12.5182E+06    -125.237E+06    -17.7505E+06    -120.005E+06    -9.05792E+06    -23.6181E+06         23.2738
            1624     7.86929E-03     83.6440E-03         4.93942        -1.96457        -3.14612         2.31803     203.711E-03        -2.69301        -1.39805     33.4013E-03    -16.6586E-03    -16.7427E-03    -16.4240E-03     33.0827E-03    -16.6586E-03     7.96178E-03    -7.58615E+06    -9.72767E+06    -116.722E+06    -14.8394E+06    -110.366E+06    -8.82992E+06    -25.3541E+06         23.6723
            1625     8.85321E-03     83.6522E-03         4.69180        -1.97952        -2.91356         1.41143     566.376E-03        -2.17909     982.680E-03     33.3349E-03    -16.6184E-03    -16.7165E-03    -16.3548E-03     32.9732E-03    -16.6184E-03     8.47657E-03    -4.91621E+06    -9.20877E+06    -108.750E+06    -12.0442E+06    -101.622E+06    -9.20877E+06    -26.1899E+06         24.2548
            1626     9.83720E-03     83.6610E-03         3.63971        -1.57934        -2.29042         2.13840    -589.549E-03        -1.77890         3.68477     33.3087E-03    -16.5618E-03    -16.7469E-03    -16.3151E-03     32.8769E-03    -16.5618E-03     9.23992E-03    -1.76211E+06    -13.3765E+06    -101.853E+06    -9.21296E+06    -94.4019E+06    -13.3765E+06    -26.2030E+06         25.0966
            1627     10.8212E-03     83.6707E-03         3.82877        -1.38587        -2.72143         2.81917        -1.71183        -1.38587         4.29768     33.3264E-03    -16.4746E-03    -16.8518E-03    -16.2677E-03     32.7423E-03    -16.4746E-03     10.7259E-03     782.234E+03    -22.1697E+06    -88.0808E+06    -7.10218E+06    -80.1964E+06    -22.1697E+06    -25.1455E+06         26.2817
            1628     11.8054E-03     83.6827E-03         3.01081    -840.699E-03        -2.43388         1.97971        -1.18007        -1.06341         3.78652     33.2450E-03    -16.3874E-03    -16.8576E-03    -16.1691E-03     32.5565E-03    -16.3874E-03     11.6655E-03     2.84287E+06    -29.6061E+06    -67.3890E+06    -6.15106E+06    -58.3950E+06    -29.6061E+06    -23.2636E+06         27.8826
            1629     12.7894E-03     83.6942E-03         1.96538    -644.140E-03        -1.53413     871.615E-03    -217.654E-03    -866.854E-03         2.47492     33.2460E-03    -16.2933E-03    -16.9528E-03    -16.0383E-03     32.3315E-03    -16.2933E-03     13.3285E-03     6.82970E+06    -31.4052E+06    -49.3104E+06    -4.33620E+06    -32.4968E+06    -37.0528E+06    -20.4646E+06         29.9274
            1630     13.7740E-03     83.7097E-03         2.54403    -739.003E-03        -1.95166     858.411E-03    -266.039E-03    -739.003E-03         2.88556     33.6278E-03    -16.1435E-03    -17.4843E-03    -15.9520E-03     32.0956E-03    -16.1435E-03     17.2872E-03     20.2455E+06    -18.6730E+06    -52.1035E+06    -2.39858E+06     3.97111E+06    -52.1035E+06    -15.5467E+06         32.3637
            1631     14.7583E-03     83.7296E-03         2.91739    -637.974E-03        -2.37058     435.692E-03     111.115E-03    -637.974E-03         4.12914     34.7682E-03    -15.9187E-03    -18.8495E-03    -15.7233E-03     31.6420E-03    -15.9187E-03     24.6756E-03     72.4457E+06    -6.86338E+06    -73.3120E+06    -4.34891E+06     69.9312E+06    -73.3120E+06    -8.97316E+06         35.0392
            1632     15.7434E-03     83.7606E-03         3.12662    -581.322E-03        -2.63630    -289.947E-03     780.263E-03    -581.322E-03         4.33643     36.7944E-03    -15.9408E-03    -20.8536E-03    -15.4126E-03     31.3535E-03    -15.9408E-03     33.5583E-03     146.197E+06    -4.34453E+06    -45.8397E+06    -7.03764E+06     146.061E+06    -43.0104E+06    -3.21583E+06         37.7195
            1633     16.7282E-03     83.7983E-03         2.70573    -543.050E-03        -2.22014     125.011E-03     360.574E-03    -543.050E-03         3.47669     35.0580E-03    -15.7675E-03    -19.2905E-03    -14.8614E-03     31.2626E-03    -16.4012E-03     25.6090E-03     194.810E+06     65.9356E+06    -5.98303E+06    -5.97850E+06     194.806E+06     65.9356E+06    -546.672E+03         40.1516
            1634     983.412E-06     84.6419E-03         13.7143        -4.76973        -10.0204        -8.24384         12.6684        -5.50036        -9.08918     33.5668E-03    -16.7336E-03    -16.8332E-03    -16.8161E-03     33.5542E-03    -16.7380E-03     1.49527E-03    -34.3238E+06    -36.5174E+06    -167.035E+06    -35.9131E+06    -166.740E+06    -35.2228E+06    -5.84768E+06         22.4983
            1635     1.96708E-03     84.6438E-03         12.7027        -5.56112        -7.94833        -5.97952         11.8644        -6.69169        -6.95632     33.5731E-03    -16.7716E-03    -16.8016E-03    -16.7559E-03     33.5370E-03    -16.7811E-03     2.63330E-03    -30.6196E+06    -32.8960E+06    -156.597E+06    -33.4000E+06    -155.871E+06    -30.8411E+06    -9.20202E+06         22.5318
            1636     2.95047E-03     84.6470E-03         12.4097        -5.34343        -7.77314        -6.33975         12.1223        -6.48937        -2.42827     33.5532E-03    -16.7619E-03    -16.7913E-03    -16.6982E-03     33.4815E-03    -16.7833E-03     3.75669E-03    -25.4059E+06    -28.7492E+06    -150.769E+06    -30.2331E+06    -149.285E+06    -25.4059E+06    -13.0913E+06         22.5895
            1637     3.93420E-03     84.6513E-03         11.1599        -4.14530        -7.41604        -5.05310         10.9582        -6.30661     593.402E-03     33.4985E-03    -16.7314E-03    -16.7670E-03    -16.6165E-03     33.3835E-03    -16.7670E-03     4.77531E-03    -20.3923E+06    -24.3947E+06    -142.278E+06    -26.9970E+06    -139.675E+06    -20.3923E+06    -17.1061E+06         22.6776
            1638     4.91783E-03     84.6566E-03         7.24254        -1.82441        -5.63347    -512.453E-03         5.93058        -5.63347     598.463E-03     33.4701E-03    -16.7219E-03    -16.7482E-03    -16.5592E-03     33.3074E-03    -16.7482E-03     5.68890E-03    -15.2798E+06    -19.8456E+06    -134.377E+06    -23.6958E+06    -130.527E+06    -15.2798E+06    -20.5186E+06         22.8062
            1639     5.90165E-03     84.6626E-03         5.20343    -663.069E-03        -4.62398         1.30086         3.23950        -4.62398        -1.23386     33.4667E-03    -16.7208E-03    -16.7459E-03    -16.5256E-03     33.2533E-03    -16.7277E-03     6.52007E-03    -11.1226E+06    -15.2804E+06    -127.300E+06    -20.4056E+06    -122.175E+06    -11.1226E+06    -23.2977E+06         22.9920
            1640     6.88536E-03     84.6696E-03         4.65145    -919.900E-03        -3.72022         2.01437         1.71719        -3.72022        -2.68148     33.4478E-03    -16.7002E-03    -16.7476E-03    -16.4843E-03     33.1845E-03    -16.7002E-03     7.24418E-03    -8.87416E+06    -10.7854E+06    -120.360E+06    -17.1697E+06    -113.975E+06    -8.87416E+06    -25.5833E+06         23.2613
            1641     7.86923E-03     84.6770E-03         6.04700        -1.56819        -4.40669         5.35678        -2.48332        -2.80134        -2.75470     33.3927E-03    -16.6620E-03    -16.7308E-03    -16.4150E-03     33.0770E-03    -16.6620E-03     7.92274E-03    -6.48342E+06    -8.71512E+06    -112.826E+06    -14.3076E+06    -105.136E+06    -8.58032E+06    -27.4375E+06         23.6547
            1642     8.85312E-03     84.6854E-03         7.01253        -1.82756        -5.11689         6.49483        -4.59919        -1.82756     900.606E-03     33.3338E-03    -16.6206E-03    -16.7132E-03    -16.3527E-03     32.9733E-03    -16.6206E-03     8.46231E-03    -2.84224E+06    -9.23232E+06    -106.400E+06    -11.6282E+06    -97.6136E+06    -9.23232E+06    -28.8087E+06         24.2305
            1643     9.83709E-03     84.6939E-03         4.38743        -1.13110        -3.22015         3.46252        -2.29523        -1.13110         3.99966     33.3061E-03    -16.5629E-03    -16.7433E-03    -16.3114E-03     32.8742E-03    -16.5629E-03     9.23967E-03     208.535E+03    -13.8048E+06    -100.887E+06    -9.14742E+06    -91.5312E+06    -13.8048E+06    -29.2542E+06         25.0648
            1644     10.8212E-03     84.7038E-03         3.44306    -849.683E-03        -2.53686     168.967E-03     737.237E-03    -849.683E-03         4.85451     33.3145E-03    -16.4749E-03    -16.8396E-03    -16.2563E-03     32.7312E-03    -16.4749E-03     10.7169E-03     2.90475E+06    -22.9691E+06    -89.1685E+06    -6.99152E+06    -79.2722E+06    -22.9691E+06    -28.4251E+06         26.2436
            1645     11.8053E-03     84.7154E-03         2.72697    -555.539E-03        -2.08582    -275.712E-03         1.13957    -778.252E-03         3.71177     33.2289E-03    -16.3872E-03    -16.8417E-03    -16.1555E-03     32.5427E-03    -16.3872E-03     11.6423E-03     6.11658E+06     -29.986E+06    -69.3524E+06    -5.02330E+06    -58.2125E+06     -29.986E+06    -26.5389E+06         27.8427
            1646     12.7897E-03     84.7273E-03         2.18087    -441.991E-03        -1.59612         1.66178    -854.316E-03    -664.705E-03         1.92893     33.2432E-03    -16.2892E-03    -16.9540E-03    -16.0418E-03     32.3310E-03    -16.2892E-03     13.3115E-03     9.66535E+06    -34.8517E+06    -51.7588E+06    -4.47557E+06    -33.7898E+06    -38.6798E+06    -24.2801E+06         29.8936
            1647     13.7739E-03     84.7422E-03         2.86845    -467.851E-03        -2.18156         2.43340        -1.74651    -467.851E-03         2.41059     33.6074E-03    -16.1381E-03    -17.4693E-03    -15.9156E-03     32.0537E-03    -16.1381E-03     17.3818E-03     18.4712E+06    -25.8995E+06    -55.8351E+06    -5.29747E+06    -2.13076E+06    -55.8351E+06    -19.2993E+06         32.3463
            1648     14.7585E-03     84.7628E-03         2.31355    -323.992E-03        -1.71681     748.478E-03    -151.740E-03    -323.992E-03         2.64356     34.6782E-03    -15.9186E-03    -18.7596E-03    -15.6702E-03     31.5888E-03    -15.9186E-03     24.5480E-03     66.6209E+06    -10.3084E+06    -75.4449E+06    -5.93620E+06     62.2487E+06    -75.4449E+06    -11.1753E+06         35.0472
            1649     15.7435E-03     84.7922E-03         2.21514    -307.238E-03        -1.57207        -1.07445         1.71753    -307.238E-03         1.60748     36.7070E-03    -15.9263E-03    -20.7807E-03    -15.3140E-03     31.2403E-03    -15.9263E-03     33.5342E-03     141.081E+06    -6.74464E+06    -46.4662E+06    -7.22416E+06     140.868E+06    -45.7735E+06    -3.96354E+06         37.7560
            1650     16.7289E-03     84.8321E-03         2.28947    -353.083E-03        -1.65653        -1.25612         1.88906    -353.083E-03         1.38095     35.0767E-03    -15.8002E-03    -19.2764E-03    -14.8770E-03     31.2564E-03    -16.3795E-03     25.4258E-03     193.448E+06     63.3096E+06    -6.60361E+06    -6.59795E+06     193.443E+06     63.3096E+06    -764.467E+03         40.2105
            1651     983.587E-06     85.6751E-03         9.98005        -3.08376        -7.63224        -6.24150         8.58931        -3.08376        -5.87542     33.5814E-03    -16.7481E-03    -16.8334E-03    -16.8160E-03     33.5684E-03    -16.7525E-03     1.50966E-03    -30.2192E+06    -32.7764E+06    -156.329E+06    -31.9163E+06    -155.980E+06    -31.4289E+06    -5.83103E+06         22.4947
            1652     1.96694E-03     85.6773E-03         13.7431        -5.45652        -8.90347        -8.64799         13.4876        -5.45652        -3.28969     33.5725E-03    -16.7755E-03    -16.7970E-03    -16.7497E-03     33.5361E-03    -16.7864E-03     2.64936E-03    -27.7696E+06    -30.2114E+06    -147.293E+06    -30.7053E+06    -146.267E+06    -28.3018E+06    -10.6766E+06         22.5279
            1653     2.95058E-03     85.6804E-03         11.4049        -4.31160        -7.45312        -5.58511         11.3807        -6.15538    -900.522E-03     33.5664E-03    -16.7712E-03    -16.7953E-03    -16.7070E-03     33.4942E-03    -16.7873E-03     3.76864E-03    -23.2425E+06    -26.2275E+06    -142.003E+06    -28.1959E+06    -140.035E+06    -23.2425E+06    -14.7475E+06         22.5850
            1654     3.93406E-03     85.6846E-03         7.01217        -1.74302        -5.54948        -1.49635         6.76549        -5.54948        -1.73857     33.5148E-03    -16.7432E-03    -16.7716E-03    -16.6270E-03     33.3987E-03    -16.7716E-03     4.80289E-03    -18.6636E+06    -22.0665E+06    -134.010E+06    -25.3310E+06    -130.746E+06    -18.6636E+06    -18.6448E+06         22.6722
            1655     4.91785E-03     85.6897E-03         6.09547        -1.53863        -4.68989        -1.20879         5.76563        -4.68989        -2.41182     33.4884E-03    -16.7319E-03    -16.7565E-03    -16.5709E-03     33.3240E-03    -16.7532E-03     5.71966E-03    -14.0285E+06    -17.4110E+06    -127.467E+06     -22.158E+06    -122.720E+06    -14.0285E+06    -22.2328E+06         22.7994
            1656     5.90149E-03     85.6959E-03         5.54184        -1.47094        -4.04626    -560.816E-03         4.63172        -4.04626     248.316E-03     33.4834E-03    -16.7308E-03    -16.7525E-03    -16.5354E-03     33.2688E-03    -16.7334E-03     6.54109E-03    -9.97337E+06    -12.5979E+06    -121.123E+06    -18.7964E+06    -114.924E+06    -9.97337E+06    -25.0912E+06         22.9828
            1657     6.88530E-03     85.7027E-03         4.82712        -1.23444        -3.42271         2.70803     781.164E-03        -3.31922     769.413E-03     33.4462E-03    -16.7056E-03    -16.7406E-03    -16.4786E-03     33.1841E-03    -16.7056E-03     7.22691E-03    -6.98657E+06    -9.01692E+06    -115.278E+06    -15.7609E+06    -107.605E+06    -7.91542E+06    -27.5537E+06         23.2485
            1658     7.86910E-03     85.7102E-03         5.65081        -1.68418        -3.70095         5.61034        -2.96245        -2.38222     293.042E-03     33.3871E-03    -16.6661E-03    -16.7211E-03    -16.4067E-03     33.0727E-03    -16.6661E-03     7.90393E-03    -3.68403E+06    -7.76986E+06    -108.705E+06    -12.9055E+06    -99.5446E+06    -7.70836E+06    -29.5434E+06         23.6368
            1659     8.85306E-03     85.7183E-03         6.30588        -1.45074        -4.54072         6.23166        -4.46650        -1.45074         1.42583     33.3331E-03    -16.6245E-03    -16.7086E-03    -16.3488E-03     32.9733E-03    -16.6245E-03     8.45429E-03     1.44935E+03    -8.32648E+06    -103.108E+06    -10.4206E+06    -92.6861E+06    -8.32648E+06    -31.0340E+06         24.2058
            1660     9.83704E-03     85.7270E-03         4.67674    -781.416E-03        -3.53210         4.02592        -2.88128    -781.416E-03         2.85351     33.3106E-03    -16.5666E-03    -16.7440E-03    -16.3144E-03     32.8810E-03    -16.5666E-03     9.21594E-03     2.90989E+06    -13.2725E+06    -99.2138E+06    -8.34916E+06    -87.9547E+06    -13.2725E+06    -31.9418E+06         25.0325
            1661     10.8211E-03     85.7366E-03         3.53971    -490.453E-03        -2.66289     586.717E-03     290.109E-03    -490.453E-03         4.42209     33.3163E-03    -16.4791E-03    -16.8372E-03    -16.2586E-03     32.7377E-03    -16.4791E-03     10.6748E-03     5.69337E+06    -22.8579E+06    -89.7230E+06    -6.62094E+06    -77.4087E+06    -22.8579E+06    -31.8658E+06         26.2047
            1662     11.8053E-03     85.7484E-03         2.93354    -421.102E-03        -2.06523    -19.6683E-03     887.977E-03    -421.102E-03         3.97682     33.2279E-03    -16.3929E-03    -16.8351E-03    -16.1547E-03     32.5476E-03    -16.3929E-03     11.5926E-03     8.67588E+06    -30.1368E+06    -72.0318E+06    -5.30702E+06    -58.0489E+06    -30.1368E+06    -30.3361E+06         27.8015
            1663     12.7894E-03     85.7599E-03         2.60675    -344.329E-03        -1.74941         1.08374    -226.401E-03    -344.329E-03         2.56937     33.2248E-03    -16.3031E-03    -16.9217E-03    -16.0263E-03     32.3294E-03    -16.3031E-03     13.1901E-03     11.1457E+06    -36.3159E+06    -52.1118E+06    -4.56097E+06    -35.2863E+06    -37.4346E+06    -26.7369E+06         29.8582
            1664     13.7740E-03     85.7752E-03         2.76424    -255.247E-03        -1.92967     591.750E-03     242.818E-03    -255.247E-03         2.44295     33.5437E-03    -16.1484E-03    -17.3953E-03    -15.8776E-03     32.0260E-03    -16.1484E-03     17.1583E-03     17.1058E+06    -29.7238E+06    -55.8048E+06    -5.26486E+06    -7.35308E+06    -55.8048E+06    -21.7229E+06         32.3274
            1665     14.7587E-03     85.7949E-03         1.73889    -118.279E-03    -930.630E-03    -34.5580E-03     941.996E-03    -217.453E-03         1.31156     34.6892E-03    -15.9206E-03    -18.7686E-03    -15.7481E-03     31.6687E-03    -15.9206E-03     24.3043E-03     60.4607E+06    -14.4765E+06    -78.5734E+06    -7.54209E+06     53.5264E+06    -78.5734E+06    -14.3965E+06         35.0541
            1666     15.7433E-03     85.8254E-03         1.51992    -107.403E-03    -626.873E-03    -85.2660E-03         1.07749    -206.577E-03     731.044E-03     36.6567E-03    -15.9242E-03    -20.7325E-03    -15.3529E-03     31.2771E-03    -15.9242E-03     33.2427E-03     134.636E+06    -9.11086E+06    -50.2867E+06    -9.12497E+06     134.148E+06    -49.7845E+06    -5.92873E+06         37.7918
            1667     16.7283E-03     85.8639E-03         2.29527    -219.233E-03        -1.20061    -848.292E-03         1.94295    -219.233E-03     937.123E-03     34.9582E-03    -15.7828E-03    -19.1754E-03    -14.7497E-03     31.1234E-03    -16.3737E-03     25.6106E-03     191.615E+06     62.6426E+06    -8.29275E+06    -6.73962E+06     191.601E+06     61.1036E+06    -1.37521E+06         40.2695
            1668     983.380E-06     86.7087E-03         8.09145        -2.09159        -6.22870        -4.26920         6.13195        -2.09159        -1.87862     33.5882E-03    -16.7496E-03    -16.8386E-03    -16.8182E-03     33.5757E-03    -16.7575E-03     1.47285E-03    -26.7371E+06    -30.4700E+06    -145.000E+06    -29.0001E+06    -144.598E+06    -28.6095E+06    -6.01785E+06         22.4906
            1669     1.96705E-03     86.7106E-03         10.4908        -3.75653        -6.98010        -6.07386         9.58458        -3.75653     502.335E-03     33.5538E-03    -16.7652E-03    -16.7885E-03    -16.7313E-03     33.5173E-03    -16.7860E-03     2.64483E-03    -24.1546E+06    -27.3429E+06    -136.444E+06    -27.9973E+06    -135.257E+06    -24.6868E+06    -11.1063E+06         22.5235
            1670     2.95048E-03     86.7139E-03         8.66451        -3.05354        -5.69162        -4.10737         8.32338        -4.29667        -2.22681     33.5456E-03    -16.7646E-03    -16.7810E-03    -16.6925E-03     33.4734E-03    -16.7810E-03     3.76789E-03    -20.2870E+06    -23.4740E+06    -132.703E+06    -25.8667E+06    -130.310E+06    -20.2870E+06    -15.7249E+06         22.5801
            1671     3.93421E-03     86.7179E-03         5.69937        -1.76131        -4.01293        -1.33355         5.18932        -3.93063     588.322E-03     33.5350E-03    -16.7594E-03    -16.7756E-03    -16.6523E-03     33.4194E-03    -16.7671E-03     4.79311E-03    -15.9663E+06    -18.8032E+06    -125.248E+06    -22.7895E+06    -121.262E+06    -15.9663E+06    -20.0283E+06         22.6663
            1672     4.91772E-03     86.7231E-03         5.33668        -1.90657        -3.44346        -1.00987         4.35768        -3.36116         1.85095     33.5232E-03    -16.7516E-03    -16.7716E-03    -16.6027E-03     33.3584E-03    -16.7557E-03     5.73049E-03    -11.5660E+06    -13.7837E+06    -120.021E+06    -19.5438E+06    -114.261E+06    -11.5660E+06    -23.9381E+06         22.7919
            1673     5.90150E-03     86.7292E-03         4.37501        -1.41670        -2.81363     815.106E-03         2.14321        -2.81363         1.55051     33.4891E-03    -16.7368E-03    -16.7523E-03    -16.5355E-03     33.2740E-03    -16.7386E-03     6.54970E-03    -7.44883E+06    -9.34591E+06    -114.890E+06    -16.3541E+06    -107.499E+06    -7.83135E+06    -26.9064E+06         22.9730
            1674     6.88520E-03     86.7360E-03         3.56641        -1.04504        -2.22832         3.14314    -725.264E-03        -2.12483     182.669E-03     33.4412E-03    -16.7074E-03    -16.7338E-03    -16.4697E-03     33.1788E-03    -16.7091E-03     7.23069E-03    -3.80412E+06    -6.53598E+06    -109.662E+06    -13.3154E+06    -100.711E+06    -5.97576E+06    -29.3019E+06         23.2351
            1675     7.86909E-03     86.7433E-03         3.22065        -1.19857        -1.60287         2.57896    -673.402E-03        -1.48634    -453.988E-03     33.3932E-03    -16.6691E-03    -16.7241E-03    -16.4099E-03     33.0789E-03    -16.6691E-03     7.90369E-03    -125.022E+03    -6.03341E+06    -104.190E+06    -10.7612E+06    -93.5536E+06    -6.03341E+06    -31.4605E+06         23.6182
            1676     8.85296E-03     86.7515E-03         3.24320    -996.979E-03        -1.67520         1.70170    -57.1833E-03        -1.07350     389.616E-03     33.3410E-03    -16.6277E-03    -16.7133E-03    -16.3540E-03     32.9817E-03    -16.6277E-03     8.44959E-03     3.49207E+06    -6.89495E+06    -99.4093E+06    -8.53458E+06    -87.3826E+06    -6.89495E+06    -33.0277E+06         24.1804
            1677     9.83696E-03     86.7599E-03         3.88948    -744.452E-03        -2.48719         2.72840        -1.32610    -744.452E-03         2.44589     33.3175E-03    -16.5702E-03    -16.7473E-03    -16.3177E-03     32.8879E-03    -16.5702E-03     9.21692E-03     6.23247E+06    -12.0764E+06    -96.4827E+06    -6.80642E+06    -83.4438E+06    -12.0764E+06    -34.1684E+06         24.9992
            1678     10.8210E-03     86.7697E-03         4.46831    -377.677E-03        -3.36409         3.86642        -2.76220    -377.677E-03         3.73901     33.3275E-03    -16.4832E-03    -16.8443E-03    -16.2665E-03     32.7497E-03    -16.4832E-03     10.6701E-03     8.57801E+06    -22.2621E+06    -88.9174E+06    -5.85194E+06    -74.4875E+06    -22.2621E+06    -34.5276E+06         26.1645
            1679     11.8051E-03     86.7811E-03         3.22528    -86.2784E-03        -2.37055         2.23662        -1.38189    -86.2784E-03         2.69974     33.2379E-03    -16.3955E-03    -16.8424E-03    -16.1589E-03     32.5544E-03    -16.3955E-03     11.6200E-03     11.0899E+06    -30.7394E+06    -73.9422E+06    -5.33187E+06    -57.5205E+06    -30.7394E+06    -33.4085E+06         27.7586
            1680     12.7894E-03     86.7930E-03         2.59407    -25.6806E-03        -1.74183        -1.03683         1.88907    -25.6806E-03         1.40158     33.2285E-03    -16.3078E-03    -16.9207E-03    -16.0257E-03     32.3334E-03    -16.3078E-03     13.1952E-03     12.9646E+06    -38.5485E+06    -55.7894E+06    -4.89792E+06    -37.9255E+06    -38.5498E+06    -29.9879E+06         29.8209
            1681     13.7738E-03     86.8075E-03         2.88124    -117.032E-03        -1.82826        -1.64458         2.69756    -117.032E-03         1.57420     33.6023E-03    -16.1693E-03    -17.4329E-03    -15.9310E-03     32.1004E-03    -16.1693E-03     17.0942E-03     16.6259E+06    -32.6271E+06    -56.0094E+06    -5.28437E+06    -12.1525E+06    -54.5737E+06    -23.8190E+06         32.3065
            1682     14.7582E-03     86.8279E-03         1.94801    -66.8678E-03    -827.201E-03    -56.0681E-03         1.27605    -166.042E-03         1.49785     34.7523E-03    -15.9389E-03    -18.8135E-03    -15.7737E-03     31.7126E-03    -15.9389E-03     24.3694E-03     54.4000E+06    -16.4129E+06    -79.0851E+06    -7.64473E+06     45.6318E+06    -79.0851E+06    -16.2707E+06         35.0593
            1683     15.7430E-03     86.8578E-03         1.98837    -43.4081E-03    -706.166E-03     410.274E-03     971.108E-03    -142.582E-03         1.99753     36.6820E-03    -15.9143E-03    -20.7677E-03    -15.3834E-03     31.2977E-03    -15.9143E-03     33.2978E-03     127.591E+06    -10.2778E+06    -55.6230E+06    -9.39124E+06     126.705E+06    -55.6230E+06    -8.76269E+06         37.8270
            1684     16.7286E-03     86.8963E-03         2.44619    -124.691E-03    -759.774E-03    -184.781E-03         1.87120    -124.691E-03         1.57271     34.8639E-03    -15.6604E-03    -19.2035E-03    -14.6516E-03     31.0119E-03    -16.3603E-03     25.8222E-03     188.744E+06     61.2145E+06    -11.4142E+06    -6.69889E+06     188.647E+06     56.5962E+06    -3.01157E+06         40.3289
            1685     983.587E-06     87.7422E-03         6.51617        -1.02835        -5.18529        -3.71551         5.08323        -1.06519     753.695E-03     33.5776E-03    -16.7554E-03    -16.8222E-03    -16.8019E-03     33.5652E-03    -16.7633E-03     1.45848E-03    -21.0798E+06    -25.3449E+06    -133.106E+06    -23.7955E+06    -132.639E+06    -23.0963E+06    -6.72625E+06         22.4855
            1686     1.96694E-03     87.7442E-03         6.51478        -1.99400        -4.15198    -608.434E-03         3.00807        -2.03083     575.225E-03     33.5510E-03    -16.7669E-03    -16.7841E-03    -16.7331E-03     33.5153E-03    -16.7821E-03     2.62155E-03    -18.5939E+06    -21.5909E+06    -125.342E+06    -22.2162E+06    -124.041E+06    -19.2702E+06    -11.2722E+06         22.5180
            1687     2.95065E-03     87.7472E-03         4.79062        -1.27982        -3.33003     21.4669E-03         1.58447        -1.42517        -2.87622     33.5503E-03    -16.7703E-03    -16.7800E-03    -16.6992E-03     33.4792E-03    -16.7800E-03     3.73773E-03    -14.6967E+06    -17.1431E+06    -122.300E+06    -19.7695E+06    -119.572E+06    -14.7988E+06    -16.4724E+06         22.5739
            1688     3.93409E-03     87.7515E-03         4.17564        -1.02068        -2.99694        -1.12752         2.45156        -1.16603         4.22507     33.5472E-03    -16.7668E-03    -16.7804E-03    -16.6630E-03     33.4323E-03    -16.7693E-03     4.77972E-03    -10.5228E+06    -12.4780E+06    -115.723E+06    -17.0696E+06    -111.029E+06    -10.6249E+06    -21.3086E+06         22.6592
            1689     4.91781E-03     87.7565E-03         4.10724    -899.003E-03        -3.02543        -1.10008         2.42542        -1.14254         5.64639     33.5389E-03    -16.7617E-03    -16.7773E-03    -16.6135E-03     33.3751E-03    -16.7617E-03     5.71455E-03    -6.28898E+06    -7.87054E+06    -111.776E+06    -14.3608E+06    -105.132E+06    -6.44355E+06    -25.3711E+06         22.7832
            1690     5.90138E-03     87.7625E-03         3.56888    -662.934E-03        -2.62593    -288.613E-03         1.62999        -1.06136    -307.738E-03     33.4937E-03    -16.7424E-03    -16.7513E-03    -16.5353E-03     33.2795E-03    -16.7442E-03     6.53560E-03    -2.67189E+06    -4.19259E+06    -108.445E+06    -11.7141E+06    -100.043E+06    -3.55248E+06    -28.4417E+06         22.9618
            1691     6.88527E-03     87.7692E-03         3.50635    -568.739E-03        -2.51944    -185.152E-03         1.53820    -934.877E-03        -3.66074     33.4401E-03    -16.7095E-03    -16.7306E-03    -16.4666E-03     33.1779E-03    -16.7112E-03     7.22835E-03     956.712E+03    -2.48725E+06    -103.737E+06    -9.14721E+06    -93.6331E+06    -2.48725E+06    -30.8734E+06         23.2204
            1692     7.86902E-03     87.7766E-03         3.00538    -552.176E-03        -1.84065    -250.478E-03         1.70298    -839.944E-03        -3.26608     33.3982E-03    -16.6700E-03    -16.7282E-03    -16.4129E-03     33.0829E-03    -16.6700E-03     7.91643E-03     5.18104E+06    -2.90296E+06    -98.8608E+06    -6.74438E+06    -86.9354E+06    -2.90296E+06    -33.0843E+06         23.5983
            1693     8.85297E-03     87.7845E-03         2.94251    -673.549E-03        -1.49523     155.705E-03         1.36810    -750.072E-03    -200.059E-03     33.3505E-03    -16.6276E-03    -16.7229E-03    -16.3601E-03     32.9877E-03    -16.6276E-03     8.49054E-03     8.60886E+06    -4.38692E+06    -95.2741E+06    -4.80593E+06    -81.8593E+06    -4.38692E+06    -34.8225E+06         24.1535
            1694     9.83689E-03     87.7931E-03         3.34926    -576.547E-03        -1.85490         1.83057    -336.210E-03    -576.547E-03         3.44003     33.3169E-03    -16.5688E-03    -16.7481E-03    -16.3137E-03     32.8825E-03    -16.5688E-03     9.26867E-03     10.7430E+06    -10.1227E+06    -92.9697E+06    -3.63659E+06    -78.5901E+06    -10.1227E+06    -35.8227E+06         24.9643
            1695     10.8210E-03     87.8026E-03         4.45171    -285.505E-03        -3.16806         3.41866        -2.13501    -285.505E-03         4.10769     33.3347E-03    -16.4816E-03    -16.8530E-03    -16.2666E-03     32.7482E-03    -16.4816E-03     10.7484E-03     12.7669E+06    -20.7175E+06    -86.7281E+06    -3.21729E+06    -70.7439E+06    -20.7175E+06    -36.4594E+06         26.1224
            1696     11.8051E-03     87.8142E-03         3.21038    -32.1178E-03        -2.14284         2.00782    -940.281E-03    -32.1178E-03         1.87807     33.2452E-03    -16.3921E-03    -16.8532E-03    -16.1631E-03     32.5552E-03    -16.3921E-03     11.6778E-03     14.8923E+06    -30.4237E+06    -74.4657E+06    -3.23761E+06    -56.3357E+06    -30.4237E+06    -35.8059E+06         27.7135
            1697     12.7894E-03     87.8255E-03         2.31088     38.0643E-03        -1.24708    -317.009E-03         1.38081     38.0643E-03     104.615E-03     33.2482E-03    -16.3059E-03    -16.9423E-03    -16.0383E-03     32.3443E-03    -16.3059E-03     13.2599E-03     15.8394E+06    -39.1523E+06    -59.4736E+06    -3.54859E+06    -40.0857E+06    -39.1523E+06    -32.8294E+06         29.7812
            1698     13.7737E-03     87.8406E-03         2.62360    -2.75792E-03        -1.43550    -784.226E-03         1.97232    -2.75792E-03         1.05973     33.6655E-03    -16.1626E-03    -17.5029E-03    -15.9690E-03     32.1316E-03    -16.1626E-03     17.2886E-03     18.3362E+06    -35.5223E+06    -61.2285E+06    -3.56173E+06    -17.6918E+06    -57.1611E+06    -27.2696E+06         32.2833
            1699     14.7583E-03     87.8603E-03         2.32240    -39.8384E-03    -942.067E-03    -407.437E-03         1.78777    -39.8384E-03         1.83897     34.7751E-03    -15.9314E-03    -18.8437E-03    -15.7980E-03     31.7294E-03    -15.9314E-03     24.4345E-03     51.2702E+06    -17.0688E+06    -81.9291E+06    -3.97305E+06     38.1744E+06    -81.9291E+06    -19.1459E+06         35.0631
            1700     15.7434E-03     87.8903E-03         2.54321    -51.4688E-03    -902.331E-03    -140.736E-03         1.78162    -51.4688E-03         2.53071     36.7169E-03    -15.8912E-03    -20.8257E-03    -15.4055E-03     31.2967E-03    -15.8912E-03     33.4065E-03     120.977E+06    -7.27441E+06    -61.2942E+06    -5.88202E+06     119.585E+06    -61.2942E+06    -10.4627E+06         37.8618
            1701     16.7278E-03     87.9292E-03         2.77970    -59.4887E-03    -761.445E-03    -314.815E-03         2.33307    -59.4887E-03         2.26651     34.7845E-03    -15.5155E-03    -19.2690E-03    -14.5626E-03     30.8903E-03    -16.3277E-03     25.8881E-03     184.168E+06     60.5405E+06    -16.7376E+06    -5.80510E+06     184.034E+06     49.7421E+06    -4.03464E+06         40.3887
            1702     983.408E-06     88.7757E-03         6.58245    -713.697E-03        -4.80357    -11.3705E-03         2.23126        -1.15471        -2.24848     33.5638E-03    -16.7445E-03    -16.8193E-03    -16.8071E-03     33.5516E-03    -16.7445E-03     1.46015E-03    -12.7066E+06    -16.3852E+06    -120.547E+06    -14.7542E+06    -119.986E+06    -14.8984E+06    -7.09866E+06         22.4784
            1703     1.96711E-03     88.7777E-03         5.78424     415.969E-03        -5.42717         4.20494        -3.81104     379.134E-03        -2.04571     33.5816E-03    -16.7824E-03    -16.7993E-03    -16.7636E-03     33.5468E-03    -16.7833E-03     2.58861E-03    -11.0877E+06    -12.7739E+06    -114.182E+06    -13.5847E+06    -112.663E+06    -11.7956E+06    -12.0594E+06         22.5105
            1704     2.95046E-03     88.7807E-03         3.79035     889.624E-03        -4.11129         2.73230        -3.70634         1.54273        -1.82498     33.5793E-03    -16.7867E-03    -16.7926E-03    -16.7183E-03     33.5092E-03    -16.7909E-03     3.71240E-03    -6.82778E+06    -8.41127E+06    -111.103E+06    -11.4238E+06    -107.956E+06    -6.96162E+06    -17.4054E+06         22.5657
            1705     3.93422E-03     88.7849E-03         2.69311     449.495E-03        -2.68938    -303.693E-03    -765.309E-03         1.52223         1.54553     33.5489E-03    -16.7666E-03    -16.7823E-03    -16.6549E-03     33.4345E-03    -16.7797E-03     4.76800E-03    -2.34445E+06    -4.37646E+06    -105.478E+06    -9.03289E+06    -100.158E+06    -3.00768E+06    -22.4557E+06         22.6498
            1706     4.91772E-03     88.7900E-03         2.83565     630.225E-03        -3.02994        -1.48215     868.227E-03         1.04985         1.02974     33.5306E-03    -16.7574E-03    -16.7731E-03    -16.5983E-03     33.3684E-03    -16.7701E-03     5.68599E-03     1.78155E+06    -131.273E+03    -103.116E+06    -6.61126E+06    -95.9207E+06     1.06586E+06    -26.3248E+06         22.7722
            1707     5.90156E-03     88.7959E-03         3.39556     543.539E-03        -3.48858        -2.59560         2.50258     543.539E-03        -1.94441     33.5000E-03    -16.7464E-03    -16.7536E-03    -16.5381E-03     33.2874E-03    -16.7493E-03     6.51163E-03     5.02184E+06     2.60163E+06    -101.181E+06    -4.47246E+06    -92.2673E+06     3.18216E+06    -29.2966E+06         22.9483
            1708     6.88520E-03     88.8026E-03         4.34588     53.0922E-03        -3.80851        -3.25368         3.79104     53.0922E-03        -2.71046     33.4368E-03    -16.7095E-03    -16.7273E-03    -16.4638E-03     33.1734E-03    -16.7095E-03     7.24282E-03     8.58047E+06     2.79845E+06    -97.1167E+06    -2.44614E+06    -86.0901E+06     2.79845E+06    -32.2531E+06         23.2032
            1709     7.86915E-03     88.8097E-03         3.70322    -275.972E-03        -2.65109        -1.85600         2.90813    -275.972E-03        -1.95119     33.3864E-03    -16.6654E-03    -16.7210E-03    -16.4014E-03     33.0668E-03    -16.6654E-03     7.96716E-03     12.3293E+06     1.64713E+06    -93.1993E+06    -588.797E+03    -80.2812E+06     1.64713E+06    -34.5531E+06         23.5759
            1710     8.85301E-03     88.8178E-03         2.67942    -327.246E-03        -1.38665     442.583E-03     850.185E-03    -327.246E-03     341.375E-03     33.3390E-03    -16.6220E-03    -16.7169E-03    -16.3487E-03     32.9707E-03    -16.6220E-03     8.55231E-03     14.8432E+06    -210.319E+03    -90.2305E+06     576.645E+03    -75.9639E+06    -210.319E+03    -35.9795E+06         24.1242
            1711     9.83705E-03     88.8260E-03         2.40761    -214.134E-03        -1.08553         1.11888     203.201E-03    -214.134E-03         2.44293     33.3140E-03    -16.5614E-03    -16.7526E-03    -16.3104E-03     32.8717E-03    -16.5614E-03     9.34953E-03     16.7001E+06    -6.55056E+06    -88.8937E+06     1.26012E+06    -73.4537E+06    -6.55056E+06    -37.2960E+06         24.9269
            1712     10.8210E-03     88.8357E-03         3.39243    -141.869E-03        -2.06698    -64.9470E-03         1.39040    -141.869E-03         4.19878     33.3310E-03    -16.4750E-03    -16.8560E-03    -16.2599E-03     32.7349E-03    -16.4750E-03     10.8371E-03     18.5652E+06    -17.3019E+06    -83.7131E+06     1.47443E+06    -66.6223E+06    -17.3019E+06    -38.0926E+06         26.0777
            1713     11.8053E-03     88.8469E-03         3.07331    -122.555E-03        -1.70090     251.170E-03         1.12124    -122.555E-03         3.29674     33.2573E-03    -16.3852E-03    -16.8721E-03    -16.1729E-03     32.5581E-03    -16.3852E-03     11.7573E-03     19.9308E+06    -27.9543E+06    -73.6454E+06     915.331E+03    -54.6299E+06    -27.9543E+06    -37.5754E+06         27.6655
            1714     12.7894E-03     88.8585E-03         2.12500    -38.4550E-03    -808.231E-03         1.75904    -442.267E-03    -38.4550E-03     714.350E-03     33.2673E-03    -16.2980E-03    -16.9693E-03    -16.0518E-03     32.3499E-03    -16.2980E-03     13.3617E-03     20.4569E+06    -37.9695E+06    -61.3801E+06     284.630E+03    -41.2078E+06    -37.9695E+06    -35.1971E+06         29.7384
            1715     13.7739E-03     88.8731E-03         1.90438     123.437E-03    -671.006E-03         1.03146     260.300E-03     65.0477E-03     595.712E-03     33.6705E-03    -16.1451E-03    -17.5254E-03    -15.9659E-03     32.1110E-03    -16.1451E-03     17.4322E-03     21.6432E+06    -38.3750E+06    -65.0773E+06    -877.692E+03    -21.8625E+06    -59.0688E+06    -30.8000E+06         32.2575
            1716     14.7584E-03     88.8932E-03         2.23643     133.351E-03    -858.923E-03    -691.342E-03         2.12724     74.9619E-03         1.04866     34.8427E-03    -15.9186E-03    -18.9240E-03    -15.8691E-03     31.7877E-03    -15.9186E-03     24.5320E-03     47.4453E+06    -21.2722E+06    -85.2212E+06    -3.24472E+06     29.4179E+06    -85.2212E+06    -22.6155E+06         35.0650
            1717     15.7428E-03     88.9227E-03         2.97343     18.1093E-03        -1.24803        -1.02762         2.75303     18.1093E-03         1.68093     36.6748E-03    -15.8670E-03    -20.8078E-03    -15.3806E-03     31.2476E-03    -15.8670E-03     33.3889E-03     112.636E+06    -7.57959E+06    -67.2236E+06    -5.48814E+06     110.545E+06    -67.2236E+06    -12.0412E+06         37.8958
            1718     16.7291E-03     88.9616E-03         3.63588    -49.6722E-03        -1.50773        -1.25413         3.38229    -49.6722E-03         2.03557     34.6078E-03    -15.4328E-03    -19.1751E-03    -14.4203E-03     30.7069E-03    -16.2866E-03     25.7889E-03     179.163E+06     59.3806E+06    -21.1376E+06    -4.57634E+06     178.990E+06     42.9917E+06    -4.32159E+06         40.4489
            1719     983.685E-06     89.8095E-03         6.99675         2.28899        -7.86085         3.13587        -3.97079         2.25981        -7.27571     33.5792E-03    -16.7303E-03    -16.8488E-03    -16.8280E-03     33.5670E-03    -16.7390E-03     1.47401E-03    -3.03724E+06    -7.32366E+06    -107.566E+06    -5.67986E+06    -106.987E+06    -5.25991E+06    -6.98112E+06         22.4680
            1720     1.96692E-03     89.8113E-03         5.96449         3.18536        -7.96043         5.10918        -7.10512         3.18536        -5.83129     33.5875E-03    -16.7800E-03    -16.8075E-03    -16.7633E-03     33.5519E-03    -16.7887E-03     2.60485E-03    -1.95582E+06    -3.49827E+06    -101.952E+06    -4.60418E+06    -100.107E+06    -2.69467E+06    -12.9416E+06         22.4996
            1721     2.95067E-03     89.8144E-03         4.22087         1.86074        -5.11707         2.18536        -4.67910         3.45829        -2.76319     33.5903E-03    -16.7894E-03    -16.8009E-03    -16.7245E-03     33.5188E-03    -16.7944E-03     3.75359E-03     2.86678E+06     731.370E+03    -99.4175E+06    -2.13049E+06    -95.6952E+06     2.00632E+06    -18.7773E+06         22.5539
            1722     3.93405E-03     89.8184E-03         2.83534     586.413E-03        -2.58164    -471.551E-03        -1.52368         2.83534        -2.27741     33.5473E-03    -16.7649E-03    -16.7824E-03    -16.6493E-03     33.4317E-03    -16.7824E-03     4.79142E-03     7.14342E+06     4.94598E+06    -95.1495E+06     508.766E+03    -89.3224E+06     5.75356E+06    -23.4822E+06         22.6368
            1723     4.91794E-03     89.8235E-03         2.38557         1.51595        -3.18256    -404.474E-03        -1.04390         2.16733        -4.13966     33.5207E-03    -16.7491E-03    -16.7716E-03    -16.5864E-03     33.3580E-03    -16.7716E-03     5.69579E-03     10.7648E+06     8.93337E+06    -94.5329E+06     2.66362E+06    -87.0677E+06     9.56929E+06    -26.9161E+06         22.7573
            1724     5.90150E-03     89.8293E-03         2.70654         1.35027        -3.37366    -923.191E-03    -89.9054E-03         1.69624        -1.63059     33.4804E-03    -16.7314E-03    -16.7490E-03    -16.5197E-03     33.2674E-03    -16.7477E-03     6.51245E-03     14.7075E+06     11.0416E+06    -93.1384E+06     4.86558E+06    -83.8770E+06     11.6221E+06    -30.0245E+06         22.9309
            1725     6.88547E-03     89.8358E-03         3.26568     854.557E-03        -3.36974        -2.78321         2.33318         1.20053     587.043E-03     33.4107E-03    -16.6943E-03    -16.7164E-03    -16.4432E-03     33.1439E-03    -16.7007E-03     7.28471E-03     17.8772E+06     10.2249E+06    -89.5088E+06     6.43206E+06    -78.0636E+06     10.2249E+06    -33.0917E+06         23.1820
            1726     7.86924E-03     89.8430E-03         3.50399     683.526E-03        -3.26276        -3.17126         3.41250     683.526E-03     487.875E-03     33.3610E-03    -16.6537E-03    -16.7073E-03    -16.3811E-03     33.0348E-03    -16.6537E-03     8.04599E-03     20.2223E+06     8.13588E+06    -87.0468E+06      6.9788E+06    -73.8033E+06     8.13588E+06    -35.2452E+06         23.5494
            1727     8.85328E-03     89.8509E-03         3.51161     310.855E-03        -2.70905        -2.18636         2.98892     310.855E-03     409.174E-03     33.3112E-03    -16.6088E-03    -16.7024E-03    -16.3260E-03     32.9348E-03    -16.6088E-03     8.64138E-03     22.0126E+06     5.92907E+06    -84.5659E+06     7.35332E+06    -69.9065E+06     5.92907E+06    -36.6954E+06         24.0908
            1728     9.83723E-03     89.8592E-03         3.57615     84.8571E-03        -2.42465        -1.73175         2.88325     84.8571E-03         1.62263     33.2946E-03    -16.5457E-03    -16.7490E-03    -16.2948E-03     32.8404E-03    -16.5457E-03     9.47030E-03     23.4001E+06    -1.02058E+06    -83.7252E+06     7.39330E+06    -67.7184E+06    -1.02058E+06    -38.1713E+06         24.8855
            1729     10.8214E-03     89.8686E-03         3.50629    -59.0281E-03        -2.11835        -1.24855         2.63649    -59.0281E-03         3.68647     33.3251E-03    -16.4615E-03    -16.8636E-03    -16.2539E-03     32.7154E-03    -16.4615E-03     10.9622E-03     24.5482E+06    -12.0802E+06    -80.1080E+06     6.77340E+06    -62.3331E+06    -12.0802E+06    -39.2482E+06         26.0289
            1730     11.8054E-03     89.8799E-03         2.73025    -106.947E-03        -1.27366     24.7291E-03         1.43186    -106.947E-03         3.04117     33.2460E-03    -16.3745E-03    -16.8715E-03    -16.1561E-03     32.5306E-03    -16.3745E-03     11.8890E-03     25.0509E+06    -23.1363E+06    -72.0936E+06     5.63462E+06    -52.6773E+06    -23.1363E+06    -38.7951E+06         27.6136
            1731     12.7898E-03     89.8912E-03         2.40931    -68.6419E-03    -957.072E-03     774.837E-03     677.397E-03    -68.6419E-03     771.743E-03     33.2717E-03    -16.2858E-03    -16.9859E-03    -16.0474E-03     32.3332E-03    -16.2858E-03     13.5190E-03     24.5128E+06    -34.4808E+06    -61.8814E+06     3.81227E+06    -41.1809E+06    -34.4808E+06    -36.7965E+06         29.6920
            1732     13.7741E-03     89.9058E-03         2.05728     55.7200E-03    -659.040E-03     974.152E-03     482.481E-03    -2.66911E-03    -411.347E-03     33.6946E-03    -16.1323E-03    -17.5623E-03    -15.9651E-03     32.0974E-03    -16.1323E-03     17.6396E-03     23.8329E+06    -39.3520E+06    -65.2096E+06     1.39260E+06    -24.9266E+06    -57.1948E+06    -32.7496E+06         32.2286
            1733     14.7587E-03     89.9258E-03         1.81531     128.406E-03    -353.867E-03     304.176E-03         1.24734     38.3238E-03    -100.686E-03     34.8741E-03    -15.9054E-03    -18.9687E-03    -15.8178E-03     31.7232E-03    -15.9054E-03     24.9030E-03     42.4028E+06    -24.1598E+06    -85.3959E+06    -1.84648E+06     20.0895E+06    -85.3959E+06    -24.8502E+06         35.0651
            1734     15.7437E-03     89.9555E-03         3.48755     26.1151E-03        -1.71787        -1.59612         3.39749    -5.57751E-03     892.173E-03     36.7179E-03    -15.8234E-03    -20.8946E-03    -15.4070E-03     31.2303E-03    -15.8234E-03     33.6331E-03     103.346E+06    -8.48320E+06    -73.7881E+06    -5.13760E+06     99.9999E+06    -73.7881E+06    -14.0108E+06         37.9296
            1735     16.7283E-03     89.9932E-03         4.67972    -126.537E-03        -2.53420        -2.44648         4.59201    -126.537E-03         1.27428     34.5698E-03    -15.3554E-03    -19.2144E-03    -14.4353E-03     30.6681E-03    -16.2329E-03     25.8380E-03     173.480E+06     57.3242E+06    -26.8419E+06    -4.69397E+06     173.243E+06     35.4125E+06    -5.02661E+06         40.5099
            1736     983.302E-06     90.8429E-03         8.48069         5.24915        -12.3230         4.16316        -11.0045         8.24815        -8.05803     33.5784E-03    -16.7413E-03    -16.8372E-03    -16.8159E-03     33.5659E-03    -16.7500E-03     1.49186E-03     7.59685E+06     2.39126E+06     -94.154E+06     4.41975E+06    -93.4404E+06     4.85483E+06    -7.27950E+06         22.4521
            1737     1.96723E-03     90.8450E-03         5.69233         2.78197        -6.96993         1.75196        -5.56578         5.31820        -6.60683     33.5590E-03    -16.7659E-03    -16.7932E-03    -16.7416E-03     33.5227E-03    -16.7811E-03     2.63588E-03     9.70140E+06     6.76771E+06    -88.2029E+06     6.29198E+06    -85.9969E+06     7.97113E+06    -14.0035E+06         22.4831
            1738     2.95055E-03     90.8480E-03         4.54667         2.40701        -5.57407         1.84393        -4.52320         4.05888        -2.57627     33.5501E-03    -16.7671E-03    -16.7830E-03    -16.6996E-03     33.4778E-03    -16.7782E-03     3.77286E-03     13.6490E+06     11.1307E+06    -87.0693E+06     8.53674E+06    -82.6234E+06     11.7971E+06    -20.3171E+06         22.5364
            1739     3.93445E-03     90.8520E-03         3.81922         2.24327        -4.90414         1.72092        -4.03560         3.47302     759.266E-03     33.5298E-03    -16.7596E-03    -16.7702E-03    -16.6426E-03     33.4128E-03    -16.7702E-03     4.81686E-03     17.6121E+06     15.6118E+06    -85.7192E+06     11.1122E+06    -79.4184E+06     15.8108E+06    -24.5924E+06         22.6178
            1740     4.91789E-03     90.8569E-03         3.11716         1.85077        -3.96080     624.240E-03        -2.63648         3.01936    -951.338E-03     33.4928E-03    -16.7355E-03    -16.7572E-03    -16.5694E-03     33.3266E-03    -16.7572E-03     5.75118E-03     21.6082E+06     19.2944E+06    -85.7532E+06     13.7386E+06    -77.9390E+06     19.3498E+06    -27.7893E+06         22.7364
            1741     5.90188E-03     90.8627E-03         2.67578     906.601E-03        -2.65942     93.0248E-03        -1.74805         2.57799    -997.916E-03     33.4305E-03    -16.7000E-03    -16.7305E-03    -16.4827E-03     33.2131E-03    -16.7305E-03     6.57470E-03     25.7000E+06     21.5058E+06    -84.6484E+06     16.0540E+06    -75.0024E+06     21.5058E+06    -31.0807E+06         22.9072
            1742     6.88561E-03     90.8691E-03         2.44345         1.12454        -2.62215    -921.835E-03    -287.771E-03         2.15545        -1.18900     33.3622E-03    -16.6688E-03    -16.6933E-03    -16.4058E-03     33.0895E-03    -16.6837E-03     7.35707E-03     28.4582E+06     20.4243E+06    -81.8965E+06     17.2756E+06    -70.7140E+06     20.4243E+06    -33.2584E+06         23.1545
            1743     7.86970E-03     90.8762E-03         3.36835         1.39683        -3.70717        -3.17013         2.58851         1.63963        -1.37624     33.3127E-03    -16.6313E-03    -16.6815E-03    -16.3455E-03     32.9767E-03    -16.6313E-03     8.15850E-03     29.7764E+06     17.5008E+06    -79.7980E+06     17.1357E+06    -67.1572E+06     17.5008E+06    -34.9471E+06         23.5167
            1744     8.85360E-03     90.8840E-03         5.49565         1.00080        -5.30275        -5.17512         5.36802         1.00080     541.306E-03     33.2666E-03    -16.5826E-03    -16.6840E-03    -16.2936E-03     32.8762E-03    -16.5826E-03     8.79380E-03     30.4350E+06     14.3670E+06    -78.1089E+06     16.2817E+06    -63.9556E+06     14.3670E+06    -36.4966E+06         24.0514
            1745     9.83776E-03     90.8922E-03         6.00605     403.209E-03        -5.07490        -4.76550         5.69666     403.209E-03         2.81996     33.2540E-03    -16.5180E-03    -16.7360E-03    -16.2639E-03     32.7819E-03    -16.5180E-03     9.64882E-03     30.2828E+06     6.75417E+06    -77.4725E+06     14.8663E+06     -62.056E+06     6.75417E+06    -37.6992E+06         24.8381
            1746     10.8218E-03     90.9017E-03         3.95030     52.9684E-03        -2.61385        -2.02011         3.35656     52.9684E-03         3.05415     33.2945E-03    -16.4352E-03    -16.8593E-03    -16.2269E-03     32.6621E-03    -16.4352E-03     11.1571E-03     29.5561E+06    -4.98219E+06    -74.9284E+06     12.3291E+06    -57.7014E+06    -4.98219E+06    -38.6729E+06         25.9745
            1747     11.8060E-03     90.9127E-03         2.39828    -58.5904E-03    -934.440E-03    -495.272E-03         1.95911    -58.5904E-03         1.51315     33.2235E-03    -16.3494E-03    -16.8740E-03    -16.1374E-03     32.4868E-03    -16.3494E-03     12.0594E-03     28.8743E+06    -17.1005E+06    -69.2662E+06     9.39324E+06    -49.7851E+06    -17.1005E+06    -39.0933E+06         27.5565
            1748     12.7903E-03     90.9240E-03         2.32944    -101.187E-03    -801.098E-03    -725.539E-03         2.25388    -101.187E-03     152.066E-03     33.2593E-03    -16.2572E-03    -17.0021E-03    -16.0342E-03     32.2913E-03    -16.2572E-03     13.7207E-03     27.8097E+06    -30.3478E+06    -61.5009E+06     7.05353E+06    -40.7447E+06    -30.3478E+06    -37.6689E+06         29.6412
            1749     13.7748E-03     90.9385E-03         2.77414    -141.910E-03        -1.13850    -563.589E-03         2.19923    -141.910E-03    -704.843E-03     33.6921E-03    -16.1037E-03    -17.5883E-03    -15.9627E-03     32.0665E-03    -16.1037E-03     17.8128E-03     26.4141E+06    -39.5304E+06    -64.0544E+06     4.51359E+06    -27.3653E+06    -54.3190E+06    -34.1321E+06         32.1968
            1750     14.7594E-03     90.9582E-03         2.63794    -133.268E-03    -887.505E-03    -264.166E-03         2.04630    -164.961E-03        -1.09009     34.8131E-03    -15.8854E-03    -18.9277E-03    -15.7694E-03     31.6548E-03    -15.8854E-03     24.9075E-03     38.1810E+06    -25.8826E+06    -82.9063E+06     1.07848E+06     11.2199E+06    -82.9063E+06    -26.6650E+06         35.0643
            1751     15.7443E-03     90.9877E-03         3.10950    -82.1977E-03        -1.21915        -1.03519         3.04598    -202.637E-03    -47.5661E-03     36.6752E-03    -15.7670E-03    -20.9082E-03    -15.3879E-03     31.1549E-03    -15.7670E-03     33.7106E-03     93.1988E+06    -8.32864E+06    -79.2494E+06    -3.54772E+06     88.4179E+06    -79.2494E+06    -15.1078E+06         37.9649
            1752     16.7300E-03     91.0259E-03         4.14964    -193.544E-03        -1.95049        -1.84437         4.13227    -282.290E-03     327.915E-03     34.5867E-03    -15.3345E-03    -19.2522E-03    -14.5112E-03     30.6674E-03    -16.1562E-03     25.8538E-03     166.932E+06     55.1251E+06    -33.9065E+06    -4.92838E+06     166.639E+06     26.4395E+06    -5.43008E+06         40.5743
            1753     983.867E-06     91.8768E-03         9.30576         5.28605        -13.0531         5.06986        -12.7040         9.17285        -3.82323     33.5556E-03    -16.7441E-03    -16.8115E-03    -16.7949E-03     33.5430E-03    -16.7481E-03     1.48464E-03     22.7940E+06     16.7063E+06    -79.4259E+06     19.3647E+06    -78.5247E+06     19.2344E+06    -8.49062E+06         22.4279
            1754     1.96697E-03     91.8785E-03         6.26768         2.84457        -7.54117         2.18980        -6.75350         6.13478        -3.96617     33.5192E-03    -16.7496E-03    -16.7696E-03    -16.7224E-03     33.4826E-03    -16.7602E-03     2.64619E-03     23.6184E+06     20.2241E+06    -73.8747E+06     20.2649E+06    -71.3676E+06     21.0705E+06    -14.9836E+06         22.4581
            1755     2.95096E-03     91.8816E-03         5.15522         3.06271        -6.63434         2.75347        -5.97890         4.80902    -898.577E-03     33.4841E-03    -16.7312E-03    -16.7529E-03    -16.6603E-03     33.4110E-03    -16.7507E-03     3.78862E-03     26.2720E+06     23.4877E+06    -73.8452E+06     21.1991E+06    -69.0817E+06     23.7972E+06    -21.0246E+06         22.5103
            1756     3.93436E-03     91.8855E-03         4.76229         3.91414        -7.25824         3.97714        -6.97504         4.41609         2.55443     33.4438E-03    -16.7080E-03    -16.7358E-03    -16.5886E-03     33.3244E-03    -16.7358E-03     4.85933E-03     29.9491E+06     26.3875E+06    -76.0873E+06     22.9661E+06    -69.2479E+06     26.5312E+06    -25.9139E+06         22.5900
            1757     4.91842E-03     91.8904E-03         4.02612         2.00340        -4.79943     630.935E-03        -3.42696         4.02612         1.79773     33.3890E-03    -16.6770E-03    -16.7120E-03    -16.5048E-03     33.2168E-03    -16.7120E-03     5.84295E-03     33.6446E+06     29.0017E+06    -76.9386E+06     25.2035E+06    -68.4975E+06     29.0017E+06    -29.2653E+06         22.7064
            1758     5.90208E-03     91.8960E-03         3.39344     992.010E-03        -3.21555        -2.16129     91.3980E-03         3.23980        -2.40530     33.3293E-03    -16.6461E-03    -16.6832E-03    -16.4195E-03     33.1027E-03    -16.6832E-03     6.70180E-03     36.7904E+06     31.3667E+06    -76.2217E+06     26.8519E+06    -66.2832E+06     31.3667E+06    -31.9677E+06         22.8744
            1759     6.88624E-03     91.9023E-03         2.69207         1.60929        -3.14335        -1.00086    -379.557E-03         2.53843        -4.10507     33.2723E-03    -16.6227E-03    -16.6496E-03    -16.3475E-03     32.9872E-03    -16.6396E-03     7.51004E-03     39.0609E+06     30.8808E+06    -75.2318E+06     28.0783E+06    -64.2492E+06     30.8808E+06    -33.6495E+06         23.1179
            1760     7.87014E-03     91.9093E-03         2.61437         1.56036        -3.00379        -1.77481     898.386E-03         2.04737        -2.28365     33.2244E-03    -16.5869E-03    -16.6375E-03    -16.2860E-03     32.8730E-03    -16.5869E-03     8.33123E-03     40.1221E+06     28.4294E+06    -72.7952E+06     28.4616E+06    -61.1346E+06     28.4294E+06    -34.3365E+06         23.4750
            1761     8.85439E-03     91.9170E-03         4.75729         1.46078        -4.94930        -4.82167         4.62967         1.46078     636.734E-03     33.1851E-03    -16.5378E-03    -16.6474E-03    -16.2374E-03     32.7752E-03    -16.5378E-03     8.99751E-03     39.6716E+06     25.2832E+06    -71.1021E+06     27.1696E+06    -58.6002E+06     25.2832E+06    -34.9700E+06         24.0032
            1762     9.83841E-03     91.9252E-03         6.05272     807.674E-03        -5.50181        -5.32627         5.87718     807.674E-03         1.45866     33.1844E-03    -16.4719E-03    -16.7125E-03    -16.2149E-03     32.6868E-03    -16.4719E-03     9.89387E-03     37.8539E+06     17.1049E+06    -70.5143E+06     24.4131E+06    -57.0735E+06     17.1049E+06    -35.6372E+06         24.7826
            1763     10.8227E-03     91.9345E-03         5.31941     315.393E-03        -4.22595        -3.83745         4.93091     315.393E-03         2.56768     33.2466E-03    -16.3903E-03    -16.8563E-03    -16.1930E-03     32.5833E-03    -16.3903E-03     11.4183E-03     35.6536E+06     5.02504E+06    -67.9730E+06     20.7091E+06    -53.0285E+06     5.02504E+06    -36.2682E+06         25.9128
            1764     11.8068E-03     91.9457E-03         4.20367     25.5675E-03        -2.79284        -2.45584         3.86667     25.5675E-03         2.58233     33.2074E-03    -16.3055E-03    -16.9019E-03    -16.1334E-03     32.4389E-03    -16.3055E-03     12.3144E-03     33.8285E+06    -8.05471E+06    -63.1575E+06     16.1992E+06    -45.5283E+06    -8.05471E+06    -37.2335E+06         27.4934
            1765     12.7912E-03     91.9566E-03         3.41370    -139.325E-03        -1.82789        -1.75389         3.33970    -139.325E-03         1.05182     33.2781E-03    -16.2081E-03    -17.0700E-03    -16.0665E-03     32.2746E-03    -16.2081E-03     13.9797E-03     31.4788E+06    -24.8136E+06    -59.2244E+06     11.5948E+06    -39.3404E+06    -24.8136E+06    -37.4714E+06         29.5865
            1766     13.7756E-03     91.9712E-03         4.42765    -283.177E-03        -2.64503        -2.52871         4.31133    -283.177E-03    -276.424E-03     33.7189E-03    -16.0625E-03    -17.6564E-03    -16.0023E-03     32.0647E-03    -16.0625E-03     17.9951E-03     27.8668E+06    -39.1751E+06    -61.3652E+06     7.10221E+06    -29.5884E+06    -50.1873E+06    -34.3793E+06         32.1640
            1767     14.7600E-03     91.9907E-03         4.68943    -438.498E-03        -2.65472        -2.54605         4.58076    -438.498E-03        -1.76005     34.8635E-03    -15.8648E-03    -18.9987E-03    -15.8492E-03     31.7140E-03    -15.8648E-03     24.9235E-03     33.6067E+06    -28.5588E+06    -78.5319E+06     1.79629E+06     3.25154E+06    -78.5319E+06    -27.3290E+06         35.0661
            1768     15.7450E-03     92.0198E-03         2.93027    -6.79646E-03        -1.19329    -609.137E-03         2.85975    -520.432E-03    -719.823E-03     36.6000E-03    -15.7057E-03    -20.8943E-03    -15.3805E-03     31.0862E-03    -15.7057E-03     33.6439E-03     82.8243E+06    -9.11530E+06    -84.6818E+06    -2.50592E+06     76.2149E+06    -84.6818E+06    -16.2855E+06         38.0068
            1769     16.7302E-03     92.0580E-03         2.51965     291.856E-03    -805.099E-03     26.9501E-03         2.49577    -516.309E-03    -38.9950E-03     34.4365E-03    -15.2824E-03    -19.1541E-03    -14.4464E-03     30.5120E-03    -16.0656E-03     25.7795E-03     159.237E+06     53.5208E+06    -40.6829E+06    -3.70320E+06     158.863E+06     16.9152E+06    -5.61109E+06         40.6489
            1770     983.289E-06     92.9102E-03         7.53568         5.35784        -11.2785         5.39961        -10.8195         7.03493         1.54006     33.4858E-03    -16.7116E-03    -16.7742E-03    -16.7573E-03     33.4730E-03    -16.7157E-03     1.48688E-03     40.7530E+06     34.2569E+06    -63.0918E+06     37.1953E+06    -62.1801E+06     36.9029E+06    -8.82673E+06         22.3917
            1771     1.96754E-03     92.9123E-03         6.80369         5.40599        -10.6273         5.93205        -10.5097         6.15997        -1.30645     33.4254E-03    -16.7038E-03    -16.7216E-03    -16.6699E-03     33.3878E-03    -16.7179E-03     2.67940E-03     40.1577E+06     35.8694E+06    -59.3963E+06     36.6879E+06    -56.8907E+06     36.8338E+06    -15.1236E+06         22.4211
            1772     2.95083E-03     92.9151E-03         5.85751         3.65130        -7.94683         3.37670        -7.52925         5.71454        -2.28343     33.3564E-03    -16.6616E-03    -16.6948E-03    -16.5873E-03     33.2800E-03    -16.6926E-03     3.86203E-03     42.2782E+06     37.7207E+06    -60.3677E+06     37.3095E+06    -55.5648E+06     37.8865E+06    -21.4105E+06         22.4719
            1773     3.93503E-03     92.9190E-03         4.90713         2.41072        -5.74002         1.56369        -4.89298         4.90713        -1.63712     33.2841E-03    -16.6162E-03    -16.6679E-03    -16.4906E-03     33.1585E-03    -16.6679E-03     4.97170E-03     44.7113E+06     39.6865E+06    -64.7214E+06     37.8604E+06    -57.8704E+06     39.6865E+06    -26.3812E+06         22.5498
            1774     4.91866E-03     92.9236E-03         4.19566         2.04065        -4.76768     781.701E-03        -3.46325         4.15018    -830.061E-03     33.2005E-03    -16.5709E-03    -16.6295E-03    -16.3880E-03     33.0175E-03    -16.6295E-03     6.00087E-03     46.6480E+06     40.1300E+06    -67.5168E+06     38.0395E+06    -58.9083E+06     40.1300E+06    -29.9902E+06         22.6639
            1775     5.90295E-03     92.9292E-03         3.65896         1.90017        -4.18271    -763.673E-03        -1.31974         3.45983        -3.27740     33.1354E-03    -16.5466E-03    -16.5888E-03    -16.3016E-03     32.8904E-03    -16.5888E-03     6.94358E-03     48.2058E+06     40.8877E+06    -68.1392E+06     38.3660E+06    -58.2995E+06     40.8877E+06    -32.2954E+06         22.8289
            1776     6.88682E-03     92.9353E-03         3.40675         1.86938        -3.96850        -2.25758     814.337E-03         2.75088        -3.03974     33.0930E-03    -16.5292E-03    -16.5638E-03    -16.2383E-03     32.7818E-03    -16.5435E-03     7.81948E-03     48.7007E+06     40.0432E+06    -68.6680E+06     38.1405E+06    -58.1078E+06     40.0432E+06    -33.5062E+06         23.0688
            1777     7.87117E-03     92.9423E-03         2.85354         1.85025        -3.39432        -2.69351         1.90852         2.09446    -796.016E-03     33.0538E-03    -16.4872E-03    -16.5666E-03    -16.1785E-03     32.6658E-03    -16.4872E-03     8.72251E-03     48.2784E+06     36.6842E+06    -67.3118E+06     37.4071E+06    -56.4405E+06     36.6842E+06    -33.7075E+06         23.4212
            1778     8.85522E-03     92.9500E-03         2.73991         1.39246        -2.80366        -2.70221         2.47294         1.55797    -362.118E-03     33.0339E-03    -16.4376E-03    -16.5963E-03    -16.1404E-03     32.5780E-03    -16.4376E-03     9.45835E-03     47.2071E+06     33.6771E+06    -65.2386E+06     36.2712E+06    -54.3028E+06     33.6771E+06    -33.2782E+06         23.9435
            1779     9.83966E-03     92.9580E-03         3.94302     935.446E-03        -3.51309        -3.31496         3.57938         1.10096    -20.9034E-03     33.0704E-03    -16.3747E-03    -16.6957E-03    -16.1444E-03     32.5192E-03    -16.3747E-03     10.3900E-03     45.4225E+06     26.1964E+06    -64.0847E+06     34.1648E+06    -52.8270E+06     26.1964E+06    -33.1881E+06         24.7167
            1780     10.8238E-03     92.9674E-03         5.35647     661.612E-03        -4.60309        -4.20211         4.95549     661.612E-03         2.81746     33.1874E-03    -16.2998E-03    -16.8876E-03    -16.1616E-03     32.4614E-03    -16.2998E-03     11.9339E-03     42.7555E+06     14.7925E+06    -61.1487E+06     30.6064E+06    -48.9997E+06     14.7925E+06    -33.2341E+06         25.8424
            1781     11.8082E-03     92.9783E-03         6.04826     246.008E-03        -4.86389        -4.49858         5.68295     246.008E-03         3.69633     33.2026E-03    -16.2277E-03    -16.9749E-03    -16.1457E-03     32.3734E-03    -16.2277E-03     12.7894E-03     39.5867E+06     2.88207E+06    -55.2428E+06     25.4972E+06    -41.1533E+06     2.88207E+06    -33.5616E+06         27.4247
            1782     12.7925E-03     92.9894E-03         6.25130    -120.057E-03        -4.65869        -4.53811         6.13071    -120.057E-03         1.98990     33.3313E-03    -16.1368E-03    -17.1945E-03    -16.1266E-03     32.2634E-03    -16.1368E-03     14.4405E-03     35.0241E+06    -15.4847E+06    -52.7659E+06     18.7539E+06    -36.4956E+06    -15.4847E+06    -33.9305E+06         29.5307
            1783     13.7767E-03     93.0038E-03         6.11081    -422.038E-03        -4.20656        -4.09015         5.99440    -422.038E-03     601.780E-03     33.8262E-03    -16.0021E-03    -17.8241E-03    -16.0970E-03     32.0992E-03    -16.0021E-03     18.4369E-03     28.2797E+06    -36.4149E+06    -55.7640E+06     11.0071E+06    -31.5768E+06    -43.3295E+06    -31.9942E+06         32.1368
            1784     14.7614E-03     93.0231E-03         5.34791    -638.024E-03        -3.20460        -3.11147         5.25477    -638.024E-03    -596.770E-03     35.0200E-03    -15.8243E-03    -19.1956E-03    -15.9708E-03     31.7952E-03    -15.8243E-03     25.3057E-03     29.4969E+06    -29.4335E+06    -72.2844E+06     3.61048E+06    -3.54702E+06    -72.2844E+06    -25.8599E+06         35.0820
            1785     15.7458E-03     93.0522E-03         3.92112    -322.796E-03        -2.05387        -1.50725         3.79938    -747.686E-03     199.277E-03     36.6738E-03    -15.6383E-03    -21.0354E-03    -15.5073E-03     31.1456E-03    -15.6383E-03     33.7707E-03     72.9184E+06    -10.7767E+06    -87.7628E+06    -3.34558E+06     65.4873E+06    -87.7628E+06    -16.5492E+06         38.0717
            1786     16.7317E-03     93.0894E-03         3.03310    -44.3718E-03        -1.32945    -354.109E-03         2.77718    -763.791E-03         1.55078     34.3015E-03    -15.1612E-03    -19.1403E-03    -14.3869E-03     30.3566E-03    -15.9697E-03     25.9811E-03     150.668E+06     48.7650E+06    -46.9767E+06    -5.35458E+06     150.096E+06     7.71532E+06    -6.73335E+06         40.7537
            1787     984.146E-06     93.9442E-03         7.15553         5.72449        -11.4093         5.06933        -10.3863         6.78769         3.71931     33.2114E-03    -16.5702E-03    -16.6411E-03    -16.6268E-03     33.1971E-03    -16.5702E-03     1.57064E-03       51.32E+06       44.78E+06    -46.8105E+06     47.3167E+06    -45.8876E+06     47.8603E+06    -8.48142E+06         22.3393
            1788     1.96727E-03     93.9456E-03         6.33151         5.25199        -9.98910         5.39246        -9.61876         5.82069        -2.53730     33.1507E-03    -16.5640E-03    -16.5866E-03    -16.5249E-03     33.1092E-03    -16.5843E-03     2.79821E-03     52.4204E+06     48.0899E+06    -44.4685E+06     48.7430E+06    -41.5897E+06     48.8885E+06    -15.8265E+06         22.3677
            1789     2.95169E-03     93.9486E-03         5.50896         3.63615        -7.52703         3.29817        -7.04607         5.36598        -2.42887     33.0519E-03    -16.5042E-03    -16.5477E-03    -16.4191E-03     32.9668E-03    -16.5477E-03     4.04989E-03     54.5796E+06     48.9420E+06    -47.3196E+06     49.5383E+06    -42.2783E+06     48.9420E+06    -21.8437E+06         22.4170
            1790     3.93529E-03     93.9521E-03         4.47166         1.18412        -4.03638     100.890E-03        -2.95315         4.47166    -866.900E-03     32.9685E-03    -16.4554E-03    -16.5131E-03    -16.3145E-03     32.8276E-03    -16.5131E-03     5.23400E-03     56.5978E+06     50.1412E+06    -53.1286E+06     49.6890E+06    -46.2197E+06     50.1412E+06    -26.4673E+06         22.4931
            1791     4.91974E-03     93.9567E-03         3.72154         1.90913        -3.96504         1.20687        -3.21730         3.67607    -684.862E-03     32.8752E-03    -16.4077E-03    -16.4675E-03    -16.2002E-03     32.6676E-03    -16.4675E-03     6.34955E-03     58.3976E+06     50.2329E+06    -57.7508E+06     49.9838E+06    -49.3370E+06     50.2329E+06    -29.9085E+06         22.6049
            1792     5.90373E-03     93.9620E-03         3.36087         2.14710        -3.97157         1.96896        -3.74796         3.31539        -1.88222     32.7969E-03    -16.3829E-03    -16.4140E-03    -16.0995E-03     32.5135E-03    -16.4140E-03     7.41820E-03     58.9841E+06     49.3689E+06    -60.1899E+06     49.6441E+06    -50.8499E+06     49.3689E+06    -31.9120E+06         22.7672
            1793     6.88832E-03     93.9682E-03         3.44576         1.78825        -3.78132        -1.95697     551.383E-03         2.85828        -1.34154     32.7640E-03    -16.3586E-03    -16.4054E-03    -16.0353E-03     32.3997E-03    -16.3644E-03     8.40695E-03     58.3551E+06     48.3103E+06    -62.4295E+06     48.8122E+06    -52.8867E+06     48.3103E+06    -32.4005E+06         23.0038
            1794     7.87250E-03     93.9749E-03         3.02767         2.14921        -3.76122        -3.69315         2.95959         2.14921     30.7555E-03     32.7590E-03    -16.3051E-03    -16.4539E-03    -15.9951E-03     32.3002E-03    -16.3051E-03     9.43102E-03     56.2037E+06     44.4845E+06    -61.8792E+06     46.7749E+06    -52.4504E+06     44.4845E+06    -31.8512E+06         23.3522
            1795     8.85715E-03     93.9825E-03         1.95187         1.44125        -1.99859        -1.60156         1.38932         1.60677         1.04366     32.7827E-03    -16.2519E-03    -16.5308E-03    -15.9837E-03     32.2356E-03    -16.2519E-03     10.3095E-03     54.1537E+06     40.5484E+06    -60.0488E+06     44.4207E+06    -50.3158E+06     40.5484E+06    -31.8330E+06         23.8698
            1796     9.84136E-03     93.9906E-03         2.43679         1.12006        -2.17295        -1.60088         1.69921         1.28558         2.07622     32.8970E-03    -16.1965E-03    -16.7005E-03    -16.0403E-03     32.2368E-03    -16.1965E-03     11.3326E-03     51.5505E+06     33.3585E+06    -59.5358E+06     41.9831E+06    -49.9684E+06     33.3585E+06    -31.1090E+06         24.6386
            1797     10.8259E-03     93.9999E-03         4.87189     915.669E-03        -4.39754        -4.07929         4.55364     915.669E-03         2.91786     33.1013E-03    -16.1358E-03    -16.9655E-03    -16.1155E-03     32.2512E-03    -16.1358E-03     12.8945E-03     47.5056E+06     22.9295E+06    -55.7683E+06     37.9596E+06    -46.2223E+06     22.9295E+06    -29.7853E+06         25.7631
            1798     11.8101E-03     94.0111E-03         7.37443     414.954E-03        -6.34364        -6.17603         7.20681     414.954E-03         2.38341     33.2039E-03    -16.0845E-03    -17.1194E-03    -16.1612E-03     32.2457E-03    -16.0845E-03     13.7408E-03     43.3007E+06     12.7449E+06    -48.4472E+06     32.5820E+06    -37.7284E+06     12.7449E+06    -29.2851E+06         27.3525
            1799     12.7944E-03     94.0220E-03         7.91060    -98.1414E-03        -6.36246        -6.30371         7.85185    -98.1414E-03         1.21476     33.4026E-03    -16.0152E-03    -17.3874E-03    -16.1961E-03     32.2113E-03    -16.0152E-03     15.2900E-03     37.1862E+06    -4.83202E+06    -45.9389E+06     25.8231E+06    -34.5758E+06    -4.83202E+06    -28.3811E+06         29.4815
            1800     13.7788E-03     94.0364E-03         6.23656    -471.930E-03        -4.31269        -4.26170         6.18557    -471.930E-03         1.04835     34.0236E-03    -15.9035E-03    -18.1200E-03    -16.2600E-03     32.1636E-03    -15.9035E-03     19.2157E-03     28.1335E+06    -29.1167E+06    -47.9702E+06     16.6535E+06    -32.5325E+06    -33.0744E+06    -26.0135E+06         32.1307
            1801     14.7629E-03     94.0557E-03         4.77766    -673.074E-03        -2.74584        -2.67331         4.70513    -673.074E-03         1.24790     35.2317E-03    -15.7544E-03    -19.4773E-03    -16.1563E-03     31.9107E-03    -15.7544E-03     25.8263E-03     25.7229E+06    -27.3079E+06    -62.3424E+06     6.63142E+06    -8.21642E+06    -62.3424E+06    -22.2868E+06         35.1388
            1802     15.7479E-03     94.0844E-03         5.13376    -807.322E-03        -3.10026        -2.98498         5.01848    -807.322E-03         1.50982     36.8278E-03    -15.5774E-03    -21.2504E-03    -15.6651E-03     31.2425E-03    -15.5774E-03     34.0488E-03     65.2683E+06    -8.71567E+06    -80.6923E+06    -408.684E+03     56.9613E+06    -80.6923E+06    -15.6638E+06         38.1985
            1803     16.7324E-03     94.1212E-03         5.03007    -931.181E-03        -3.05469        -2.78818         4.76356    -931.181E-03         2.38057     34.3217E-03    -15.1071E-03    -19.2146E-03    -14.4503E-03     30.3324E-03    -15.8821E-03     26.1911E-03     142.540E+06     48.2220E+06    -44.7670E+06    -3.22412E+06     141.897E+06     7.32218E+06    -7.25231E+06         40.9369
            1804     983.634E-06     94.9771E-03         6.43966         3.67441        -8.52546         3.95613        -6.69084         4.32332    -465.752E-03     32.6923E-03    -16.3000E-03    -16.3922E-03    -16.3695E-03     32.6758E-03    -16.3063E-03     1.67763E-03     65.3502E+06     59.0235E+06    -30.8696E+06     61.7967E+06    -29.7831E+06     61.4904E+06    -8.57794E+06         22.2661
            1805     1.96840E-03     94.9790E-03         5.92303         3.63581        -7.90940         4.48320        -7.03827         4.20451        -5.30251     32.6162E-03    -16.2988E-03    -16.3174E-03    -16.2513E-03     32.5679E-03    -16.3166E-03     2.99326E-03     64.3541E+06     60.9293E+06    -28.4254E+06     61.0852E+06    -25.3417E+06     61.1144E+06    -16.1919E+06         22.2936
            1806     2.95204E-03     94.9813E-03         5.11830         3.53324        -6.98622         4.04729        -6.62068         4.23871         1.41919     32.5078E-03    -16.2344E-03    -16.2734E-03    -16.1344E-03     32.4078E-03    -16.2734E-03     4.35125E-03     65.7587E+06     59.3207E+06    -34.5444E+06     60.4728E+06    -29.2585E+06     59.3207E+06    -22.1279E+06         22.3417
            1807     3.93681E-03     94.9851E-03         4.79608         2.81359        -5.88781         2.83491        -5.16618         4.05313         4.33955     32.3800E-03    -16.1619E-03    -16.2181E-03    -15.9924E-03     32.2104E-03    -16.2181E-03     5.68075E-03     67.0565E+06     57.5802E+06    -41.5548E+06     59.9372E+06    -34.4354E+06     57.5802E+06    -26.6819E+06         22.4160
            1808     4.92091E-03     94.9892E-03         3.75863         2.30169        -4.35064     986.548E-03        -2.91320         3.63634         1.62534     32.2857E-03    -16.1237E-03    -16.1620E-03    -15.8687E-03     32.0302E-03    -16.1615E-03     6.97027E-03     67.2738E+06     56.3495E+06    -48.7911E+06     58.9996E+06    -40.5169E+06     56.3495E+06    -29.7181E+06         22.5259
            1809     5.90578E-03     94.9945E-03         3.09168         1.83148        -3.22119    -259.984E-03        -1.12973         3.09168    -280.687E-03     32.2114E-03    -16.0879E-03    -16.1235E-03    -15.7574E-03     31.8543E-03    -16.0969E-03     8.23163E-03     66.6826E+06     54.2739E+06    -52.7728E+06     57.8623E+06    -43.9525E+06     54.2739E+06    -31.0980E+06         22.6861
            1810     6.89020E-03     95.0003E-03         2.82084         2.02091        -3.24200    -468.837E-03    -522.908E-03         2.59149    -495.628E-03     32.1971E-03    -16.0393E-03    -16.1578E-03    -15.6900E-03     31.7294E-03    -16.0394E-03     9.41905E-03     64.7079E+06     52.1149E+06    -57.3201E+06     56.1408E+06    -48.7530E+06     52.1149E+06    -31.0455E+06         22.9203
            1811     7.87520E-03     95.0072E-03         2.45671         1.96868        -2.91597    -793.214E-03     117.387E-03         2.18524        -1.10829     32.2570E-03    -15.9783E-03    -16.2787E-03    -15.6822E-03     31.6605E-03    -15.9783E-03     10.6372E-03     62.2150E+06     48.5239E+06    -57.3212E+06     54.2129E+06    -49.3191E+06     48.5239E+06    -29.7700E+06         23.2659
            1812     8.85966E-03     95.0146E-03         2.30281         1.59215        -2.46581        -1.63131         1.25175         1.80871         1.06237     32.3650E-03    -15.9278E-03    -16.4372E-03    -15.7187E-03     31.6465E-03    -15.9278E-03     11.7063E-03     59.1622E+06     44.9577E+06    -54.1731E+06     51.0220E+06    -46.0329E+06     44.9577E+06    -29.1748E+06         23.7807
            1813     9.84460E-03     95.0228E-03         3.24498         1.41106        -3.27166        -2.73967         2.71298         1.41106         3.08842     32.6095E-03    -15.8870E-03    -16.7225E-03    -15.8521E-03     31.7391E-03    -15.8870E-03     12.9229E-03     54.4608E+06     37.6373E+06    -56.5028E+06     46.6839E+06    -48.7259E+06     37.6373E+06    -28.2016E+06         24.5481
            1814     10.8289E-03     95.0323E-03         5.67873     941.893E-03        -5.23101        -4.80708         5.25480     941.893E-03         3.71255     32.9710E-03    -15.8421E-03    -17.1288E-03    -16.0343E-03     31.8764E-03    -15.8421E-03     14.5822E-03     48.6988E+06     27.0070E+06    -52.2720E+06     41.6306E+06    -45.2038E+06     27.0070E+06    -25.6192E+06         25.6762
            1815     11.8134E-03     95.0435E-03         7.53209     400.293E-03        -6.53388        -6.30543         7.30364     400.293E-03         2.40656     33.2019E-03    -15.8219E-03    -17.3800E-03    -16.1714E-03     31.9933E-03    -15.8219E-03     15.4145E-03     43.0642E+06     18.8363E+06    -42.7806E+06     35.3739E+06    -35.0903E+06     18.8363E+06    -24.3478E+06         27.2820
            1816     12.7976E-03     95.0547E-03         6.95165    -84.8791E-03        -5.44355        -5.43409         6.94219    -84.8791E-03     572.532E-03     33.5827E-03    -15.7915E-03    -17.7911E-03    -16.3604E-03     32.1519E-03    -15.7915E-03     16.8325E-03     36.2942E+06     2.60465E+06    -42.0401E+06     28.6740E+06    -34.4199E+06     2.60465E+06    -23.0773E+06         29.4508
            1817     13.7817E-03     95.0689E-03         5.86744    -418.896E-03        -4.10513        -4.03913         5.80144    -418.896E-03    -107.979E-03     34.3394E-03    -15.7263E-03    -18.6131E-03    -16.5108E-03     32.2371E-03    -15.7263E-03     20.5587E-03     26.4114E+06    -21.9075E+06    -42.9153E+06     20.4418E+06    -35.2274E+06    -23.6258E+06    -18.7769E+06         32.1741
            1818     14.7658E-03     95.0888E-03         5.54258    -646.388E-03        -3.69909        -3.60939         5.45287    -646.388E-03     311.433E-03     35.6521E-03    -15.6286E-03    -20.0235E-03    -16.4943E-03     32.1229E-03    -15.6286E-03     26.8861E-03     23.2925E+06    -20.9028E+06    -50.8796E+06     9.84058E+06    -9.00629E+06    -49.3242E+06    -15.5049E+06         35.2864
            1819     15.7498E-03     95.1164E-03         6.11112    -855.240E-03        -4.36453        -4.32202         6.06862    -855.240E-03         1.05297     37.1401E-03    -15.5005E-03    -21.6396E-03    -16.0145E-03     31.5150E-03    -15.5005E-03     34.4128E-03     58.5837E+06    -6.74979E+06    -67.0390E+06    -150.566E+03     51.9844E+06    -67.0390E+06    -13.8800E+06         38.4651
            1820     16.7357E-03     95.1534E-03         5.34571        -1.04657        -3.85268        -3.76208         5.25511        -1.04657     242.678E-03     34.2789E-03    -15.0611E-03    -19.2178E-03    -14.5661E-03     30.3468E-03    -15.7807E-03     26.0211E-03     134.091E+06     44.2341E+06    -37.3574E+06    -2.91340E+06     133.233E+06     10.6480E+06    -7.29654E+06         41.3011
            1821     984.880E-06     96.0101E-03         5.11447         1.13349        -4.26063         2.70789        -1.85406         1.13349        -1.83006     31.7962E-03    -15.8625E-03    -15.9336E-03    -15.9056E-03     31.7763E-03    -15.8708E-03     1.79209E-03     76.4735E+06     70.4302E+06    -14.8109E+06     72.8908E+06    -13.7367E+06     72.9387E+06    -8.48620E+06         22.1683
            1822     1.96870E-03     96.0112E-03         5.86679         2.56363        -6.67198         5.14008        -5.94528         2.56363        -2.90188     31.6932E-03    -15.8382E-03    -15.8550E-03    -15.7779E-03     31.6330E-03    -15.8550E-03     3.28666E-03     75.0384E+06     71.0557E+06    -12.2265E+06     71.7813E+06    -9.15452E+06     71.2409E+06    -15.3135E+06         22.1951
            1823     2.95387E-03     96.0139E-03         5.02118         3.41516        -6.65267         4.66811        -6.29960         3.41516         2.89245     31.5739E-03    -15.7751E-03    -15.7988E-03    -15.6487E-03     31.4474E-03    -15.7988E-03     4.80794E-03     75.6706E+06     67.4087E+06    -21.0436E+06     70.2403E+06    -15.6133E+06     67.4087E+06    -21.9458E+06         22.2422
            1824     3.93821E-03     96.0168E-03         4.52080         3.53447        -6.24519         3.97404        -5.82510         3.66114         3.28588     31.4264E-03    -15.6988E-03    -15.7276E-03    -15.4799E-03     31.2072E-03    -15.7273E-03     6.34112E-03     75.3731E+06     63.1067E+06    -30.4778E+06     68.2864E+06    -23.3910E+06     63.1067E+06    -26.2622E+06         22.3155
            1825     4.92361E-03     96.0212E-03         3.57639         2.06894        -3.84958         1.01821        -2.67656         3.45410         1.55542     31.3103E-03    -15.6372E-03    -15.6731E-03    -15.3208E-03     30.9714E-03    -15.6506E-03     7.87926E-03     74.2832E+06     59.2684E+06    -39.9807E+06     66.1934E+06    -31.8909E+06     59.2684E+06    -29.1195E+06         22.4243
            1826     5.90841E-03     96.0259E-03         2.84664     919.605E-03        -1.99736        -1.49402     416.268E-03         2.84664     850.835E-03     31.2589E-03    -15.5693E-03    -15.6897E-03    -15.2054E-03     30.7746E-03    -15.5693E-03     9.41482E-03     71.5816E+06     54.7778E+06    -46.8446E+06     63.4762E+06    -38.7392E+06     54.7778E+06    -29.8035E+06         22.5836
            1827     6.89397E-03     96.0319E-03         2.45903         1.21008        -1.95544    -48.6791E-03    -552.589E-03         2.31493     367.536E-03     31.2953E-03    -15.4999E-03    -15.7954E-03    -15.1466E-03     30.6465E-03    -15.4999E-03     10.9030E-03     67.6937E+06     51.0371E+06    -52.2915E+06     60.1197E+06    -44.7175E+06     51.0371E+06    -29.0575E+06         22.8169
            1828     7.87893E-03     96.0383E-03         2.20385     978.200E-03        -1.61825     697.086E-03        -1.19304         2.05975        -1.23829     31.4449E-03    -15.4330E-03    -16.0119E-03    -15.1685E-03     30.6015E-03    -15.4330E-03     12.4529E-03     63.4325E+06     45.8654E+06    -54.2512E+06     56.3684E+06    -47.1871E+06     45.8654E+06    -27.8481E+06         23.1618
            1829     8.86446E-03     96.0462E-03         2.56374         1.13792        -2.25857        -1.62821         1.28812         1.78317    -794.394E-03     31.6997E-03    -15.3890E-03    -16.3106E-03    -15.2858E-03     30.6748E-03    -15.3890E-03     13.8003E-03     58.2672E+06     42.3757E+06    -50.2353E+06     51.9149E+06    -43.8830E+06     42.3757E+06    -25.2808E+06         23.6765
            1830     9.84919E-03     96.0543E-03         4.14687         1.33729        -4.11631        -3.74947         3.78003         1.33729         2.25602     32.1377E-03    -15.3767E-03    -16.7610E-03    -15.5267E-03     30.9034E-03    -15.3767E-03     15.2488E-03     51.6948E+06     37.2260E+06    -53.0125E+06     46.0586E+06    -47.3762E+06     37.2260E+06    -23.4421E+06         24.4464
            1831     10.8343E-03     96.0642E-03         5.86593     842.948E-03        -5.37436        -4.40957         4.90113     842.948E-03         5.93496     32.7484E-03    -15.3554E-03    -17.3929E-03    -15.8688E-03     31.2242E-03    -15.3554E-03     17.1299E-03     44.6931E+06     25.5567E+06    -51.1178E+06     39.8032E+06    -46.2279E+06     25.5567E+06    -20.9353E+06         25.5848
            1832     11.8184E-03     96.0756E-03         6.28620     398.786E-03        -5.35240        -4.53766         5.47145     398.786E-03         4.96100     33.2164E-03    -15.3771E-03    -17.8393E-03    -16.1945E-03     31.5716E-03    -15.3771E-03     17.9662E-03     38.4363E+06     19.6177E+06    -38.0587E+06     33.4057E+06    -33.0281E+06     19.6177E+06    -18.6431E+06         27.2195
            1833     12.8027E-03     96.0871E-03         6.20776     9.90884E-03        -4.91997        -4.80010         6.08789     9.90884E-03         1.67663     33.8716E-03    -15.4092E-03    -18.4624E-03    -16.5794E-03     31.9886E-03    -15.4092E-03     19.3975E-03     30.4547E+06     5.52274E+06    -40.1927E+06     25.8309E+06    -35.5690E+06     5.52274E+06    -17.0100E+06         29.4540
            1834     13.7863E-03     96.1020E-03         6.85196    -347.701E-03        -5.28854        -5.23318         6.79661    -347.701E-03    -358.248E-03     34.8653E-03    -15.4057E-03    -19.4597E-03    -16.9277E-03     32.3334E-03    -15.4057E-03     22.8148E-03     19.4870E+06    -20.5623E+06    -43.4058E+06     16.9455E+06    -40.8644E+06    -20.5623E+06    -11.7258E+06         32.3003
            1835     14.7701E-03     96.1210E-03         7.26721    -683.713E-03        -5.57533        -5.52466         7.21655    -683.713E-03    -674.889E-03     36.3113E-03    -15.3885E-03    -20.9228E-03    -16.9495E-03     32.3380E-03    -15.3885E-03     28.8465E-03     19.0326E+06    -16.4138E+06    -41.8929E+06     7.59785E+06    -7.79979E+06    -39.0722E+06    -8.18641E+06         35.6030
            1836     15.7536E-03     96.1503E-03         6.12681    -956.833E-03        -4.47492        -4.45908         6.11096    -956.833E-03     393.538E-03     37.8770E-03    -15.3545E-03    -22.5225E-03    -16.5855E-03     31.9400E-03    -15.3545E-03     35.8577E-03     55.0262E+06    -2.81566E+06    -48.7134E+06    -446.215E+03     52.6567E+06    -48.7134E+06    -9.23913E+06         39.0017
            1837     16.7373E-03     96.1841E-03         3.60564    -962.555E-03        -2.49023        -1.99517         3.24259        -1.09457    -724.842E-03     34.7341E-03    -15.1807E-03    -19.5534E-03    -15.1173E-03     30.7674E-03    -15.6502E-03     26.3674E-03     126.890E+06     43.1881E+06    -27.8127E+06    -3.83987E+06     126.157E+06     19.9487E+06    -6.85341E+06         42.0232
            1838     984.726E-06     97.0411E-03         5.72147         2.40270        -6.05683         2.00391        -3.79341         3.85684    -278.758E-03     30.3727E-03    -15.1400E-03    -15.2327E-03    -15.2047E-03     30.3467E-03    -15.1420E-03     2.01513E-03     84.5117E+06     78.8555E+06     683.394E+03     81.0378E+06     1.83401E+06     81.1788E+06    -8.02670E+06         22.0432
            1839     1.97068E-03     97.0430E-03         4.43374         2.34524        -4.70138         2.51347        -3.28497         2.84911    -942.814E-03     30.2427E-03    -15.1130E-03    -15.1296E-03    -15.0371E-03     30.1631E-03    -15.1260E-03     3.67697E-03     83.4232E+06     77.7878E+06     3.36830E+06     80.3594E+06     6.43209E+06     77.7878E+06    -14.6504E+06         22.0699
            1840     2.95554E-03     97.0446E-03         3.50023         2.60414        -4.12658         2.82907        -3.62508         2.77380         2.43198     30.0988E-03    -15.0434E-03    -15.0555E-03    -14.8741E-03     29.9295E-03    -15.0554E-03     5.42342E-03     82.8123E+06     72.9385E+06    -7.18861E+06     77.6288E+06    -2.00510E+06     72.9385E+06    -20.7266E+06         22.1169
            1841     3.94156E-03     97.0480E-03         3.16248         2.54412        -3.79944         2.31709        -3.13843         2.72850         2.28627     29.9578E-03    -14.9624E-03    -14.9954E-03    -14.6938E-03     29.6573E-03    -14.9635E-03     7.22908E-03     80.9622E+06     65.7452E+06    -20.0197E+06     74.2697E+06    -13.3272E+06     65.7452E+06    -24.9082E+06         22.1902
            1842     4.92689E-03     97.0513E-03         3.20557         1.79718        -3.14370         1.77283        -2.50475         2.59098         2.23676     29.8482E-03    -14.8581E-03    -14.9901E-03    -14.5142E-03     29.3723E-03    -14.8581E-03     9.09095E-03     77.4905E+06     57.3474E+06    -31.1331E+06     69.9448E+06    -23.5873E+06     57.3474E+06    -27.4218E+06         22.2995
            1843     5.91324E-03     97.0564E-03         3.06521         1.22848        -2.50649         1.47450        -2.11362         2.42632     65.3403E-03     29.8403E-03    -14.7614E-03    -15.0788E-03    -14.3886E-03     29.1500E-03    -14.7614E-03     10.9484E-03     72.1667E+06     49.7900E+06    -42.1278E+06     64.9328E+06    -34.8939E+06     49.7900E+06    -27.6138E+06         22.4596
            1844     6.89891E-03     97.0617E-03         2.56347     840.223E-03        -1.71570     491.891E-03        -1.02580         2.22190    -109.822E-03     29.9625E-03    -14.6783E-03    -15.2842E-03    -14.3435E-03     29.0218E-03    -14.6783E-03     12.8028E-03     66.0380E+06     43.8548E+06    -47.8399E+06     59.5276E+06    -41.3294E+06     43.8548E+06    -26.2590E+06         22.6944
            1845     7.88532E-03     97.0686E-03         2.55140     633.125E-03        -1.62245        -1.04550     694.786E-03         1.91279         1.40346     30.2763E-03    -14.6203E-03    -15.6560E-03    -14.4272E-03     29.0475E-03    -14.6203E-03     14.7114E-03     58.7205E+06     38.6573E+06    -51.9818E+06     53.1446E+06    -46.4059E+06     38.6573E+06    -23.7246E+06         23.0414
            1846     8.87086E-03     97.0761E-03         3.12345         1.08822        -2.79070        -2.25499         2.15904         1.51691         1.72219     30.7386E-03    -14.5855E-03    -16.1531E-03    -14.6459E-03     29.2314E-03    -14.5855E-03     16.4348E-03     49.9408E+06     33.5145E+06    -48.9812E+06     45.5820E+06    -44.6225E+06     33.5145E+06    -19.8957E+06         23.5596
            1847     9.85680E-03     97.0850E-03         3.93060         1.10106        -3.71464        -2.98348         3.19945         1.10106         3.22846     31.4507E-03    -14.6096E-03    -16.8411E-03    -15.0429E-03     29.6525E-03    -14.6096E-03     18.1768E-03     41.2177E+06     30.8672E+06    -49.8621E+06     37.7467E+06    -46.3911E+06     30.8672E+06    -16.8923E+06         24.3367
            1848     10.8416E-03     97.0949E-03         4.42501     737.655E-03        -3.91868        -2.73143         3.23776     737.655E-03         5.69098     32.4096E-03    -14.6338E-03    -17.7759E-03    -15.6034E-03     30.2372E-03    -14.6338E-03     20.3223E-03     32.9503E+06     19.8332E+06    -50.3566E+06     29.9588E+06    -47.3652E+06     19.8332E+06    -14.9819E+06         25.4930
            1849     11.8264E-03     97.1075E-03         4.33640     454.812E-03        -3.58760        -2.54680         3.29560     454.812E-03         5.12056     33.2043E-03    -14.7062E-03    -18.4981E-03    -16.1912E-03     30.8974E-03    -14.7062E-03     21.2670E-03     25.9362E+06     14.0818E+06    -35.6565E+06     22.9710E+06    -32.7055E+06     14.0960E+06    -12.8948E+06         27.1713
            1850     12.8102E-03     97.1192E-03         5.69545     161.715E-03        -4.71762        -4.25192         5.22976     161.715E-03         3.51786     34.1855E-03    -14.8314E-03    -19.3540E-03    -16.8478E-03     31.6792E-03    -14.8314E-03     22.5479E-03     17.3617E+06     4.47071E+06    -40.5208E+06     15.3611E+06    -38.5345E+06     4.48497E+06    -9.29934E+06         29.5021
            1851     13.7938E-03     97.1348E-03         8.01628    -229.932E-03        -6.74957        -6.53855         7.80526    -229.932E-03         2.59688     35.5991E-03    -14.9074E-03    -20.6917E-03    -17.5511E-03     32.4585E-03    -14.9074E-03     25.7823E-03     6.98412E+06    -22.2077E+06    -47.2662E+06     6.39095E+06    -46.6730E+06    -22.2077E+06    -4.41595E+06         32.5352
            1852     14.7762E-03     97.1546E-03         8.04957    -642.709E-03        -6.54111        -6.39882         7.90728    -642.709E-03         1.76684     37.1653E-03    -14.9973E-03    -22.1680E-03    -17.7555E-03     32.7528E-03    -14.9973E-03     30.9711E-03     16.1714E+06    -20.4932E+06    -37.0789E+06    -1.51905E+06    -5.58236E+06    -34.2993E+06    -2.80699E+06         36.1495
            1853     15.7600E-03     97.1828E-03         5.01350    -893.241E-03        -3.51352        -2.96803         4.46802    -893.241E-03         1.78442     38.6335E-03    -15.0977E-03    -23.5359E-03    -17.3718E-03     32.4694E-03    -15.0977E-03     37.0772E-03     58.5659E+06    -6.81880E+06    -32.5351E+06    -5.80808E+06     57.5552E+06    -32.5351E+06    -6.51350E+06         39.9594
            1854     16.7439E-03     97.2183E-03         2.32489    -789.777E-03        -1.25609     75.1892E-03         1.12562    -921.790E-03         1.53268     35.5285E-03    -15.3560E-03    -20.1725E-03    -16.1212E-03     31.5824E-03    -15.4612E-03     26.2676E-03     122.390E+06     44.2770E+06    -18.1259E+06    -5.65496E+06     121.830E+06     32.3668E+06    -7.01847E+06         43.3413
            1855     986.617E-06     98.0717E-03         6.70855         3.96234        -8.38908         2.48532        -5.61999         5.41648     289.176E-03     28.2576E-03    -14.0782E-03    -14.1795E-03    -14.1440E-03     28.2221E-03    -14.0782E-03     2.28428E-03     90.3459E+06     85.6013E+06     15.9427E+06     88.3041E+06     17.0306E+06     86.5552E+06    -7.29841E+06         21.8908
            1856     1.97209E-03     98.0720E-03         3.74698         2.51850        -3.96911     614.249E-03        -1.60114         3.28325        -2.89821     28.1288E-03    -14.0499E-03    -14.0789E-03    -13.9655E-03     28.0192E-03    -14.0537E-03     4.14544E-03     87.6913E+06     80.5912E+06     17.5894E+06     84.6702E+06     20.6105E+06     80.5912E+06    -13.5662E+06         21.9181
            1857     2.95912E-03     98.0744E-03         2.88479         1.90532        -2.66730     658.341E-03    -871.392E-03         2.33586         4.34402     27.9696E-03    -13.9608E-03    -14.0088E-03    -13.7685E-03     27.7331E-03    -13.9646E-03     6.15691E-03     85.5789E+06     72.8328E+06     5.32745E+06     80.7540E+06     10.1523E+06     72.8328E+06    -18.7381E+06         21.9662
            1858     3.94529E-03     98.0764E-03         3.11995         1.82616        -2.99281     514.570E-03    -445.143E-03         1.88387         5.45801     27.8460E-03    -13.8498E-03    -13.9962E-03    -13.5725E-03     27.4223E-03    -13.8498E-03     8.25155E-03     81.3385E+06     61.9067E+06    -10.0003E+06     75.2654E+06    -3.92720E+06     61.9067E+06    -22.5099E+06         22.0412
            1859     4.93266E-03     98.0803E-03         3.16536         1.72732        -3.07316         1.89424        -1.80205         1.72732         3.09806     27.8022E-03    -13.7237E-03    -14.0785E-03    -13.4007E-03     27.1243E-03    -13.7237E-03     10.4453E-03     74.3130E+06     49.0192E+06    -23.6549E+06     67.9418E+06    -17.2837E+06     49.0192E+06    -23.7006E+06         22.1530
            1860     5.91920E-03     98.0843E-03         3.40643         1.86602        -3.55386         3.36000        -3.50743         1.86602    -275.082E-03     27.8915E-03    -13.6144E-03    -14.2772E-03    -13.2833E-03     26.8977E-03    -13.6144E-03     12.6678E-03     64.6594E+06     37.3895E+06    -37.0685E+06     58.8654E+06    -31.2745E+06     37.3895E+06    -23.2014E+06         22.3165
            1861     6.90677E-03     98.0901E-03         2.76628         1.49789        -2.69008         1.81819        -2.22086         1.97676     327.418E-03     28.1723E-03    -13.5264E-03    -14.6458E-03    -13.2807E-03     26.8072E-03    -13.5264E-03     14.9178E-03     53.6823E+06     27.5956E+06    -45.3801E+06     48.7935E+06    -40.4914E+06     27.5956E+06    -20.8075E+06         22.5557
            1862     7.89340E-03     98.0965E-03         2.64999         1.30358        -2.48819        -1.11744     800.368E-03         1.78245         3.27034     28.7282E-03    -13.4886E-03    -15.2396E-03    -13.4605E-03     26.9492E-03    -13.4886E-03     17.2033E-03     41.8026E+06     21.9287E+06    -50.8968E+06     38.3746E+06    -47.4688E+06     21.9287E+06    -16.7947E+06         22.9082
            1863     8.88055E-03     98.1048E-03         3.82399         1.36306        -3.83831        -2.91058         2.89625         1.36306         4.90552     29.4871E-03    -13.4890E-03    -15.9982E-03    -13.8264E-03     27.3154E-03    -13.4890E-03     19.2902E-03     31.0731E+06     17.7052E+06    -49.1732E+06     28.7268E+06    -46.8270E+06     17.7052E+06    -12.4842E+06         23.4338
            1864     9.86648E-03     98.1138E-03         4.19173     928.271E-03        -3.89493        -3.01050         3.30730     928.271E-03         4.97205     30.5692E-03    -13.5658E-03    -17.0034E-03    -14.4402E-03     28.0060E-03    -13.5658E-03     21.3810E-03     24.9404E+06     14.3335E+06    -48.5711E+06     19.9455E+06    -47.0607E+06     17.8179E+06    -9.04147E+06         24.2232
            1865     10.8524E-03     98.1251E-03         3.46270     612.225E-03        -2.92471        -1.98792         2.52591     612.225E-03         4.45122     31.9772E-03    -13.6747E-03    -18.3025E-03    -15.3084E-03     28.9831E-03    -13.6747E-03     23.7179E-03     17.1221E+06     8.20783E+06    -48.5006E+06     11.8509E+06    -47.2710E+06     12.2494E+06    -7.57867E+06         25.4047
            1866     11.8367E-03     98.1381E-03         2.99798     413.927E-03        -2.35775        -1.48043         2.12067     413.927E-03         3.95590     33.1499E-03    -13.8300E-03    -19.3199E-03    -16.2191E-03     30.0491E-03    -13.8300E-03     24.6837E-03     11.0758E+06     1.69533E+06    -35.2299E+06     4.07261E+06    -34.0563E+06     7.52488E+06    -5.88586E+06         27.1397
            1867     12.8207E-03     98.1514E-03         4.20965     221.939E-03        -3.44928        -2.70879         3.46916     221.939E-03         4.24365     34.6057E-03    -14.0628E-03    -20.5428E-03    -17.3201E-03     31.3829E-03    -14.0628E-03     25.8275E-03     4.35214E+06    -4.40065E+06    -42.2143E+06    -1.40015E+06    -41.7345E+06     871.806E+03    -3.44588E+06         29.5938
            1868     13.8030E-03     98.1676E-03         6.17068    -48.5914E-03        -5.24685        -4.54490         5.46873    -48.5914E-03         4.98731     36.4503E-03    -14.2523E-03    -22.1980E-03    -18.4396E-03     32.6919E-03    -14.2523E-03     28.6986E-03    -4.62109E+06    -24.1051E+06    -52.0394E+06    -4.84949E+06    -51.8110E+06    -24.1051E+06     367.858E+03         32.8758
            1869     14.7852E-03     98.1890E-03         5.85923    -327.816E-03        -4.77036        -4.15943         5.24830    -327.816E-03         4.31271     38.3367E-03    -14.4781E-03    -23.8586E-03    -19.0455E-03     33.5236E-03    -14.4781E-03     33.1589E-03     17.3842E+06    -24.9531E+06    -34.1584E+06    -9.13242E+06    -2.22334E+06    -30.3715E+06     1.37249E+06         36.9235
            1870     15.7658E-03     98.2168E-03         3.80174    -484.242E-03        -2.70651        -1.90342         2.99865    -484.242E-03         3.26224     39.6898E-03    -14.7406E-03    -24.9491E-03    -18.7726E-03     33.5132E-03    -14.7406E-03     37.9521E-03     67.3633E+06    -13.2946E+06    -20.2601E+06    -12.7653E+06     66.8340E+06    -20.2601E+06    -5.12128E+06         41.3680
            1871     16.7481E-03     98.2516E-03         2.60463    -514.479E-03        -1.58000    -527.291E-03         1.55192    -514.479E-03         2.92108     36.6306E-03    -15.2336E-03    -21.3971E-03    -17.6543E-03     32.8878E-03    -15.2336E-03     25.8126E-03     119.309E+06     44.6981E+06    -12.9300E+06    -10.4486E+06     118.375E+06     43.1510E+06    -9.79384E+06         45.3808
            1872     987.149E-06     99.0981E-03         5.58029         2.68152        -5.61134         2.83006        -2.86111         2.68152         2.81113     25.3691E-03    -12.6544E-03    -12.7147E-03    -12.6662E-03     25.3206E-03    -12.6544E-03     2.50928E-03     86.6860E+06     83.8807E+06     29.4036E+06     84.3951E+06     30.7405E+06     84.8346E+06    -6.27438E+06         21.7142
            1873     1.97562E-03     99.0998E-03         3.63428         2.17048        -3.49135         1.14022        -1.25817         2.43136        -1.86438     25.2423E-03    -12.5926E-03    -12.6498E-03    -12.4994E-03     25.0920E-03    -12.5926E-03     4.60268E-03     85.9859E+06     78.6820E+06     30.2488E+06     82.9486E+06     33.2861E+06     78.6820E+06    -11.8886E+06         21.7430
            1874     2.96285E-03     99.1005E-03         2.47568         1.46935        -1.80880    -255.678E-03     622.370E-03         1.76954         2.59333     25.1396E-03    -12.4864E-03    -12.6533E-03    -12.3241E-03     24.8105E-03    -12.4864E-03     6.87842E-03     82.2474E+06     66.4630E+06     15.8272E+06     77.8125E+06     20.2621E+06     66.4630E+06    -16.1682E+06         21.7936
            1875     3.95149E-03     99.1032E-03         3.23518         1.34701        -2.72186         1.03106    -557.049E-03         1.38631         4.82937     25.0953E-03    -12.3630E-03    -12.7323E-03    -12.1396E-03     24.5026E-03    -12.3630E-03     9.25709E-03     74.2403E+06     51.1941E+06    -1.69518E+06     69.2482E+06     3.29696E+06     51.1941E+06    -18.0967E+06         21.8723
            1876     4.93920E-03     99.1058E-03         3.73035         1.43736        -3.49477         2.39507        -2.15949         1.43736         4.39004     25.1722E-03    -12.2380E-03    -12.9342E-03    -11.9895E-03     24.2275E-03    -12.2380E-03     11.7148E-03     61.9922E+06     34.6273E+06    -18.2697E+06     57.7398E+06    -14.0174E+06     34.6273E+06    -17.3120E+06         21.9890
            1877     5.92813E-03     99.1104E-03         3.22541         1.55809        -3.30076         1.85889        -1.93424         1.55809         2.82931     25.4528E-03    -12.1345E-03    -13.3183E-03    -11.9358E-03     24.0703E-03    -12.1345E-03     14.2508E-03     47.5901E+06     19.5444E+06    -33.1630E+06     44.2052E+06    -29.7780E+06     19.5444E+06    -14.6541E+06         22.1589
            1878     6.91599E-03     99.1153E-03         2.19616         1.39073        -2.16872     691.126E-03    -794.861E-03         1.52191         1.48527     26.0091E-03    -12.0761E-03    -13.9330E-03    -12.0428E-03     24.1189E-03    -12.0761E-03     16.8445E-03     31.3290E+06     8.23338E+06    -44.5265E+06     29.2052E+06    -42.4027E+06     8.23338E+06    -10.7336E+06         22.4057
            1879     7.90463E-03     99.1226E-03         1.59737         1.17130        -1.45261    -71.0908E-03     18.7058E-03         1.36844         1.47573     26.8932E-03    -12.0805E-03    -14.8127E-03    -12.3646E-03     24.4452E-03    -12.0805E-03     19.5006E-03     16.2208E+06     2.39457E+06    -51.1537E+06     14.8250E+06    -49.7579E+06     2.39457E+06    -6.58461E+06         22.7673
            1880     8.89187E-03     99.1309E-03         2.82329         1.06539        -2.66900        -1.44052         1.52884         1.13135         3.68511     28.0541E-03    -12.1504E-03    -15.9038E-03    -12.9548E-03     25.1052E-03    -12.1504E-03     21.9118E-03     8.25619E+06    -3.32525E+06    -50.2086E+06     2.90140E+06    -49.2965E+06     1.11748E+06    -3.34859E+06         23.3041
            1881     9.87927E-03     99.1412E-03         3.64949     829.822E-03        -3.33172        -2.30328         2.62105     829.822E-03         4.66016     29.5891E-03    -12.3128E-03    -17.2763E-03    -13.8555E-03     26.1682E-03    -12.3128E-03     24.3121E-03     8.24974E+06    -7.52281E+06    -48.9318E+06    -5.23219E+06    -48.3794E+06     5.40677E+06    -1.20377E+06         24.1100
            1882     10.8648E-03     99.1534E-03         3.83893     557.139E-03        -3.36118        -2.00230         2.48005     557.139E-03         5.47441     31.5064E-03    -12.5350E-03    -18.9714E-03    -15.0910E-03     27.6260E-03    -12.5350E-03     26.8419E-03     6.60784E+06    -10.4354E+06    -47.6213E+06    -10.9387E+06    -47.1180E+06     6.60784E+06    -203.173E+03         25.3219
            1883     11.8496E-03     99.1684E-03         3.96196     341.919E-03        -3.34568        -2.05040         2.66669     341.919E-03         5.35065     33.1538E-03    -12.8097E-03    -20.3440E-03    -16.4558E-03     29.2655E-03    -12.8097E-03     27.7258E-03     5.90428E+06    -14.2152E+06    -35.2106E+06    -14.5005E+06    -34.9253E+06     5.90428E+06     63.6257E+03         27.1211
            1884     12.8327E-03     99.1827E-03         3.44648     174.397E-03        -2.76508        -1.59080         2.27220     174.397E-03         4.20733     35.1513E-03    -13.1627E-03    -21.9886E-03    -18.0400E-03     31.2027E-03    -13.1627E-03     28.9639E-03     1.22749E+06    -16.1159E+06    -42.2609E+06    -15.5428E+06    -41.9247E+06     318.181E+03    -852.569E+03         29.7149
            1885     13.8143E-03     99.2017E-03         3.83362     107.784E-03        -3.15836     113.107E-03     562.155E-03     107.784E-03         3.82324     37.5208E-03    -13.4991E-03    -24.0216E-03    -19.7198E-03     33.2190E-03    -13.4991E-03     31.3738E-03    -9.60649E+06    -28.5811E+06    -56.6991E+06    -14.7287E+06    -56.4479E+06    -23.7101E+06     102.264E+03         33.2774
            1886     14.7944E-03     99.2231E-03         3.52693     121.496E-03        -2.93527     322.406E-03     269.252E-03     121.496E-03         3.37782     39.6426E-03    -13.8857E-03    -25.7568E-03    -20.6291E-03     34.5148E-03    -13.8857E-03     35.0950E-03     21.2758E+06    -23.2529E+06    -34.0737E+06    -12.1970E+06     542.237E+03    -24.3960E+06     1.23542E+06         37.8388
            1887     15.7748E-03     99.2539E-03         3.21715     87.9337E-03        -2.60163        -1.66137         2.27689     87.9337E-03         2.90770     41.1438E-03    -14.3423E-03    -26.8015E-03    -20.7706E-03     35.1129E-03    -14.3423E-03     38.6056E-03     81.1835E+06    -832.544E+03    -10.1612E+06    -7.88203E+06     80.3497E+06    -2.27787E+06    -6.23787E+06         43.0450
            1888     16.7550E-03     99.2855E-03         3.25519    -18.0650E-03        -2.54715        -2.25732         2.96536    -18.0650E-03         2.32522     38.9193E-03    -15.0331E-03    -23.8862E-03    -20.4889E-03     35.5220E-03    -15.0331E-03     25.3187E-03     117.968E+06     60.5284E+06    -4.38800E+06    -2.75542E+06     115.816E+06     61.0485E+06    -11.8444E+06         47.8963
            1889     989.800E-06     100.123E-03         4.51409         2.41221        -4.41334         1.56083        -1.46008         2.41221         5.62758     21.7483E-03    -10.8335E-03    -10.9148E-03    -10.8510E-03     21.6845E-03    -10.8335E-03     2.65651E-03     80.7258E+06     77.7387E+06     40.6570E+06     78.9790E+06     42.4038E+06     77.7387E+06    -6.17366E+06         21.5198
            1890     1.97849E-03     100.123E-03         3.61911         1.49505        -2.79331    -469.425E-03         1.29522         1.49505         2.61991     21.6600E-03    -10.7650E-03    -10.8950E-03    -10.6949E-03     21.4600E-03    -10.7650E-03     4.91049E-03     78.8195E+06     70.6851E+06     40.4800E+06     75.6997E+06     43.5998E+06     70.6851E+06    -9.83173E+06         21.5511
            1891     2.96877E-03     100.125E-03         2.61216     829.934E-03        -1.44690     67.3725E-03         1.05858     869.243E-03         1.36740     21.6556E-03    -10.6567E-03    -10.9989E-03    -10.5599E-03     21.2166E-03    -10.6567E-03     7.36360E-03     70.9780E+06     53.6477E+06     23.2579E+06     67.3319E+06     26.9040E+06     53.6477E+06    -11.2245E+06         21.6056
            1892     3.95792E-03     100.126E-03         3.27691     936.388E-03        -2.52585         2.90369        -2.19194     975.697E-03         2.42999     21.7695E-03    -10.5425E-03    -11.2270E-03    -10.4348E-03     20.9772E-03    -10.5425E-03     9.95644E-03     56.0339E+06     33.3519E+06     3.61017E+06     53.6221E+06     6.02196E+06     33.3519E+06    -9.84276E+06         21.6900
            1893     4.94839E-03     100.129E-03         3.52077         1.21619        -3.39308         2.69871        -2.70568         1.35085         3.45420     22.0759E-03    -10.4438E-03    -11.6321E-03    -10.3765E-03     20.8202E-03    -10.4438E-03     12.6353E-03     38.6934E+06     13.1718E+06    -17.0625E+06     36.4886E+06    -14.8577E+06     13.1718E+06    -6.19955E+06         21.8141
            1894     5.93768E-03     100.132E-03         2.61132         1.23238        -2.61226    -42.3067E-03    -93.2959E-03         1.36704         3.76068     22.6619E-03    -10.3876E-03    -12.2743E-03    -10.4538E-03     20.8414E-03    -10.3876E-03     15.4104E-03     19.0953E+06    -3.20149E+06    -34.3243E+06     17.4297E+06    -32.6587E+06    -3.20149E+06    -1.23944E+06         21.9930
            1895     6.92794E-03     100.138E-03         2.48612     989.878E-03        -2.32925        -1.61238         1.70228         1.05686         2.90056     23.5982E-03    -10.4016E-03    -13.1966E-03    -10.7356E-03     21.1373E-03    -10.4016E-03     18.2848E-03     1.87902E+06    -12.1810E+06    -48.1454E+06    -428.830E+03    -45.8375E+06    -12.1810E+06     3.18658E+06         22.2503
            1896     7.91666E-03     100.145E-03         2.16934     624.191E-03        -1.65008    -930.281E-03         1.31658     757.140E-03         1.75294     24.9302E-03    -10.4953E-03    -14.4350E-03    -11.2895E-03     21.7847E-03    -10.4953E-03     21.2682E-03    -6.54319E+06    -18.5966E+06    -54.7173E+06    -14.5469E+06    -51.8778E+06    -13.4323E+06     5.46999E+06         22.6240
            1897     8.90574E-03     100.155E-03         2.64335     582.575E-03        -2.11129     684.228E-03    -218.140E-03     648.543E-03         2.65419     26.5817E-03    -10.6719E-03    -15.9098E-03    -12.1699E-03     22.8418E-03    -10.6719E-03     24.0220E-03    -6.84578E+06    -22.7682E+06    -53.1897E+06    -23.6233E+06    -50.4665E+06    -8.71384E+06     5.92027E+06         23.1751
            1898     9.89266E-03     100.166E-03         3.14804     647.145E-03        -2.75194     666.086E-03    -269.982E-03     647.145E-03         4.03043     28.6308E-03    -10.9431E-03    -17.6876E-03    -13.4142E-03     24.3573E-03    -10.9431E-03     26.7635E-03    -576.950E+03    -25.8670E+06    -51.2276E+06    -28.4238E+06    -48.6707E+06    -576.950E+03     5.25754E+06         24.0002
            1899     10.8792E-03     100.181E-03         3.97820     559.169E-03        -3.55565        -1.36756         1.79012     559.169E-03         6.17125     31.1102E-03    -11.2880E-03    -19.8222E-03    -15.0590E-03     26.3470E-03    -11.2880E-03     29.6258E-03     4.72019E+06    -27.8307E+06    -47.9272E+06    -29.1084E+06    -46.6496E+06     4.72019E+06     4.16812E+06         25.2442
            1900     11.8631E-03     100.197E-03         4.62445     363.060E-03        -4.11007        -2.27396         2.78834     363.060E-03         6.64435     33.3059E-03    -11.7005E-03    -21.6054E-03    -16.9471E-03     28.6475E-03    -11.7005E-03     30.5389E-03     7.96203E+06    -21.5066E+06    -38.2400E+06    -26.7968E+06    -32.9498E+06     7.96203E+06     1.76236E+06         27.1082
            1901     12.8458E-03     100.214E-03         3.51450     233.768E-03        -2.94493    -354.528E-03     924.100E-03     233.768E-03         4.99723     35.8048E-03    -12.1994E-03    -23.6054E-03    -18.9869E-03     31.1863E-03    -12.1994E-03     31.8028E-03     4.10250E+06    -18.1392E+06    -44.3683E+06    -22.8187E+06    -39.6888E+06     4.10250E+06    -1.56740E+06         29.8380
            1902     13.8261E-03     100.236E-03         3.34948     296.171E-03        -2.91121         2.55795        -2.11968     296.171E-03         2.94900     38.8052E-03    -12.6945E-03    -26.1107E-03    -21.2250E-03     33.9195E-03    -12.6945E-03     34.2362E-03    -8.51387E+06    -28.8978E+06    -58.2771E+06    -18.0063E+06    -57.7087E+06    -19.9738E+06    -3.65192E+06         33.6776
            1903     14.8044E-03     100.260E-03         3.45196     465.324E-03        -3.17040         2.96792        -2.68636     465.324E-03         2.59661     41.2990E-03    -13.2611E-03    -28.0379E-03    -22.7072E-03     35.9683E-03    -13.2611E-03     36.9154E-03     28.0256E+06    -16.8716E+06    -32.7830E+06    -9.95754E+06     5.20006E+06    -16.8716E+06    -6.92996E+06         38.7357
            1904     15.7822E-03     100.290E-03         3.23937     548.941E-03        -2.93270     277.802E-03     28.8678E-03     548.941E-03         3.41875     43.2072E-03    -13.9645E-03    -29.2427E-03    -23.4934E-03     37.4579E-03    -13.9645E-03     39.1516E-03     91.7283E+06     17.2875E+06    -3.49947E+06    -1.59621E+06     89.8250E+06     17.2875E+06    -10.8444E+06         44.6945
            1905     16.7587E-03     100.326E-03         3.21586     486.775E-03        -2.69182        -1.72512         2.24916     486.775E-03         2.13954     41.9642E-03    -14.8611E-03    -27.1031E-03    -24.0339E-03     38.8950E-03    -14.8611E-03     24.8449E-03     114.094E+06     70.8649E+06    -901.300E+03     57.6210E+03     110.910E+06     73.0903E+06    -8.90031E+06         50.3542
            1906     991.034E-06     101.142E-03         6.92230     318.455E-03        -4.94449    -88.7612E-03         2.06657     318.455E-03         1.48538     17.5280E-03    -8.70066E-03    -8.82739E-03    -8.74769E-03     17.4483E-03    -8.70066E-03     2.66566E-03     70.4005E+06     63.5125E+06     48.4506E+06     65.1013E+06     52.0201E+06     65.2422E+06    -5.04160E+06         21.3174
            1907     1.98329E-03     101.143E-03         6.16173     411.667E-03        -4.45780         1.60055     103.378E-03     411.667E-03         2.02407     17.5578E-03    -8.65460E-03    -8.90322E-03    -8.65009E-03     17.3047E-03    -8.65460E-03     4.96868E-03     63.8005E+06     53.2063E+06     42.1602E+06     58.1994E+06     48.3043E+06     52.6633E+06    -4.76561E+06         21.3518
            1908     2.97421E-03     101.143E-03         4.82048     889.403E-03        -4.00298         1.97011        -1.15262     889.403E-03         5.48163     17.7033E-03    -8.57059E-03    -9.13274E-03    -8.57611E-03     17.1467E-03    -8.57059E-03     7.49569E-03     47.1898E+06     32.6872E+06     22.3765E+06     44.1665E+06     27.0776E+06     31.0095E+06    -1.54780E+06         21.4114
            1909     3.96650E-03     101.146E-03         3.71656     993.882E-03        -3.39019     382.862E-03    -56.4951E-03     993.882E-03         3.37870     18.0704E-03    -8.50199E-03    -9.56844E-03    -8.57673E-03     17.0787E-03    -8.50199E-03     10.1526E-03     30.0146E+06     9.61104E+06    -3.48563E+06     25.3946E+06     2.26914E+06     8.47630E+06     4.08944E+06         21.5029
            1910     4.95744E-03     101.147E-03         2.86201     701.330E-03        -2.45654     34.4289E-03     236.383E-03     835.991E-03         1.26065     18.7241E-03    -8.47627E-03    -10.2478E-03    -8.68938E-03     17.1656E-03    -8.47627E-03     12.9614E-03     12.4234E+06    -11.1785E+06    -29.7485E+06     3.71937E+06    -21.0446E+06    -11.1785E+06     10.6774E+06         21.6359
            1911     5.94942E-03     101.152E-03         1.94330     572.297E-03        -1.60649     167.870E-03     34.2822E-03     706.958E-03         1.59008     19.7342E-03    -8.51533E-03    -11.2189E-03    -8.97530E-03     17.4906E-03    -8.51533E-03     15.9604E-03    -5.53665E+06    -23.5785E+06    -49.0441E+06    -16.4592E+06    -38.1216E+06    -23.5785E+06     15.5496E+06         21.8256
            1912     6.93972E-03     101.157E-03         2.70305     561.735E-03        -2.37881    -783.225E-03         1.10747     561.735E-03         3.38825     21.1558E-03    -8.64080E-03    -12.5150E-03    -9.51081E-03     18.1516E-03    -8.64080E-03     19.1278E-03    -16.3354E+06    -28.8760E+06    -61.2590E+06    -31.3431E+06    -48.9864E+06    -26.1409E+06     16.9763E+06         22.0954
            1913     7.93054E-03     101.166E-03         2.88499     348.837E-03        -2.31234        -1.47710         2.04975     348.837E-03         3.63651     23.0027E-03    -8.85221E-03    -14.1505E-03    -10.3467E-03     19.1989E-03    -8.85221E-03     22.4730E-03    -18.1433E+06    -30.6749E+06    -63.0614E+06    -39.4926E+06    -51.8098E+06    -20.5772E+06     15.2989E+06         22.4831
            1914     8.91913E-03     101.177E-03         2.74595     235.574E-03        -2.00439     298.387E-03     443.165E-03     235.574E-03         2.43744     25.1695E-03    -9.14809E-03    -16.0214E-03    -11.5312E-03     20.6793E-03    -9.14809E-03     25.6370E-03    -10.7987E+06    -32.3289E+06    -59.2016E+06    -42.1464E+06    -49.3841E+06    -10.7987E+06     11.9535E+06         23.0500
            1915     9.90761E-03     101.190E-03         2.89198     300.306E-03        -2.21589         1.63106    -954.974E-03     300.306E-03         3.09916     27.7633E-03    -9.53531E-03    -18.2280E-03    -13.1369E-03     22.6722E-03    -9.53531E-03     28.8301E-03     20.0450E+03    -33.9895E+06    -53.3747E+06    -40.5579E+06    -46.8064E+06     20.0450E+03     8.51038E+06         23.8948
            1916     10.8932E-03     101.206E-03         3.43767     374.129E-03        -2.89922     681.961E-03    -143.515E-03     374.129E-03         4.79514     30.8353E-03    -10.0054E-03    -20.8299E-03    -15.1913E-03     25.1967E-03    -10.0054E-03     32.1927E-03     7.19260E+06    -32.3251E+06    -48.0334E+06    -36.3437E+06    -44.0148E+06     7.19260E+06     4.42612E+06         25.1693
            1917     11.8775E-03     101.227E-03         3.91695     401.851E-03        -3.46985     810.016E-03    -362.914E-03     401.851E-03         4.78348     33.5836E-03    -10.5521E-03    -23.0316E-03    -17.5283E-03     28.0804E-03    -10.5521E-03     33.4674E-03     11.3575E+06    -22.4635E+06    -36.8399E+06    -30.5809E+06    -28.7224E+06     11.3575E+06     197.472E+03         27.0907
            1918     12.8587E-03     101.246E-03         3.59945     482.331E-03        -3.32988         2.06320        -1.79362     482.331E-03         4.23094     36.6382E-03    -11.2035E-03    -25.4346E-03    -20.0742E-03     31.2778E-03    -11.2035E-03     34.8540E-03     8.18329E+06    -16.8268E+06    -43.3827E+06    -24.6070E+06    -35.6026E+06     8.18329E+06    -4.61099E+06         29.9384
            1919     13.8381E-03     101.271E-03         2.87525     610.482E-03        -2.76117         2.30418        -2.19010     610.482E-03         3.10175     40.2800E-03    -11.8616E-03    -28.4184E-03    -22.8226E-03     34.6843E-03    -11.8616E-03     37.5631E-03    -1.11744E+06    -25.9976E+06    -56.6821E+06    -16.4692E+06    -52.1953E+06    -15.1327E+06    -11.6463E+06         34.0105
            1920     14.8147E-03     101.298E-03         3.02851     735.007E-03        -2.97252         2.43489        -2.37890     735.007E-03         3.36002     43.3523E-03    -12.6151E-03    -30.7372E-03    -24.9903E-03     37.6054E-03    -12.6151E-03     39.6320E-03     35.8363E+06    -10.9500E+06    -30.9329E+06    -6.72513E+06     11.6285E+06    -10.9500E+06    -17.6645E+06         39.4880
            1921     15.7892E-03     101.331E-03         3.32852     847.415E-03        -3.16529         2.41974        -2.25650     847.415E-03         3.86990     46.2657E-03    -13.5550E-03    -32.7107E-03    -26.6972E-03     40.2522E-03    -13.5550E-03     41.8925E-03     87.7503E+06     23.1357E+06    -4.72238E+06    -2.06975E+06     85.0977E+06     23.1357E+06    -12.3224E+06         46.0659
            1922     16.7626E-03     101.368E-03         2.78420     898.646E-03        -2.24346     759.480E-03    -218.735E-03     898.646E-03         1.29488     45.6185E-03    -14.6644E-03    -30.9541E-03    -27.7135E-03     42.3779E-03    -14.6644E-03     26.4096E-03     106.439E+06     71.6935E+06    -902.708E+03    -745.506E+03     103.380E+06     74.5958E+06    -3.12203E+06         52.3550
            1923     994.129E-06     102.159E-03         10.5392        -3.70562        -4.70063    -449.808E-03         6.59328        -4.01049        -1.87027     13.0404E-03    -6.44923E-03    -6.59121E-03    -6.49734E-03     12.9466E-03    -6.44923E-03     2.49269E-03     60.3089E+06     43.7500E+06     37.9628E+06     43.5962E+06     54.1952E+06     44.2303E+06     1.86159E+06         21.1190
            1924     1.98695E-03     102.158E-03         7.06695    -744.898E-03        -4.65145         5.05645        -2.61253    -773.316E-03        -2.70755     13.2304E-03    -6.43312E-03    -6.79727E-03    -6.49792E-03     12.9310E-03    -6.43312E-03     4.69035E-03     50.4839E+06     27.9061E+06     21.2204E+06     28.9397E+06     43.3075E+06     27.3631E+06     7.48837E+06         21.1567
            1925     2.98126E-03     102.159E-03         4.46533         1.01108        -4.22066         2.97724        -2.73257         1.01108         3.46321     13.6562E-03    -6.41966E-03    -7.23651E-03    -6.58676E-03     13.0064E-03    -6.41966E-03     7.12775E-03     30.9986E+06     6.42336E+06    -4.98574E+06     9.14506E+06     18.5455E+06     4.74564E+06     15.1017E+06         21.2217
            1926     3.97405E-03     102.160E-03         3.27443         1.01657        -3.27890        -1.55651         1.55205         1.01657         4.06146     14.3534E-03    -6.44600E-03    -7.90736E-03    -6.76014E-03     13.2061E-03    -6.44600E-03     9.74004E-03     13.8511E+06    -15.0280E+06    -36.6474E+06    -12.8318E+06    -8.82984E+06    -16.1627E+06     23.2483E+06         21.3204
            1927     4.96785E-03     102.164E-03         4.11805     373.942E-03        -3.71539        -2.83471         3.23738     373.942E-03         4.36648     15.4212E-03    -6.53392E-03    -8.88729E-03    -7.08362E-03     13.6175E-03    -6.53392E-03     12.6548E-03    -1.04923E+06    -29.0515E+06    -60.5280E+06    -31.6236E+06    -29.9537E+06    -29.0515E+06     28.9840E+06         21.4628
            1928     5.95991E-03     102.167E-03         3.32251    -41.7181E-03        -2.61067        -1.16213         1.87397    -41.7181E-03         3.09651     16.9187E-03    -6.69319E-03    -10.2255E-03    -7.62982E-03     14.3230E-03    -6.69319E-03     15.8995E-03    -13.3966E+06    -33.0993E+06    -73.8643E+06    -44.2457E+06    -43.0152E+06    -33.0993E+06     29.8640E+06         21.6636
            1929     6.95257E-03     102.175E-03         2.74619    -83.1115E-03        -2.02353     706.772E-03     15.8909E-03    -83.1115E-03         2.45263     18.8365E-03    -6.93399E-03    -11.9025E-03    -8.43070E-03     15.3647E-03    -6.93399E-03     19.4091E-03     -20.278E+06    -31.8295E+06    -77.0952E+06    -50.6699E+06    -49.4384E+06    -29.0944E+06     26.7726E+06         21.9462
            1930     7.94295E-03     102.184E-03         2.56021     4.58677E-03        -1.87676     590.729E-03     92.7226E-03     4.58677E-03         2.91440     21.1751E-03    -7.25126E-03    -13.9238E-03    -9.51985E-03     16.7711E-03    -7.25126E-03     23.2133E-03    -17.9735E+06    -31.4846E+06    -71.5127E+06    -52.1380E+06    -48.6869E+06    -20.1458E+06     20.5697E+06         22.3479
            1931     8.93348E-03     102.197E-03         2.59326    -17.0023E-03        -1.79966    -997.406E-03         1.79100    -17.0023E-03         2.20200     23.8519E-03    -7.65438E-03    -16.1975E-03    -10.9914E-03     18.6458E-03    -7.65438E-03     26.9072E-03    -8.77422E+06    -32.8472E+06    -62.9437E+06    -49.6924E+06    -46.0984E+06    -8.77422E+06     14.4084E+06         22.9303
            1932     9.92101E-03     102.212E-03         2.80017    -81.9940E-03        -1.87945    -206.971E-03         1.12769    -81.9940E-03         2.68449     26.9854E-03    -8.14743E-03    -18.8379E-03    -12.9056E-03     21.0530E-03    -8.14743E-03     30.7372E-03     2.29083E+06    -31.7866E+06    -54.8680E+06    -44.6392E+06    -42.0153E+06     2.29083E+06     8.07903E+06         23.7932
            1933     10.9077E-03     102.232E-03         4.01208     45.0519E-03        -3.22772         3.13051        -2.34615     45.0519E-03         3.85565     30.6317E-03    -8.73098E-03    -21.9007E-03    -15.2936E-03     24.0245E-03    -8.73098E-03     34.8060E-03     9.56999E+06    -30.2166E+06    -45.9766E+06    -37.1510E+06    -39.0421E+06     9.56999E+06     1.60066E+06         25.0933
            1934     11.8909E-03     102.254E-03         5.07798     363.525E-03        -4.68289         4.80145        -4.40635     363.525E-03         2.56770     33.9228E-03    -9.40497E-03    -24.5178E-03    -18.0265E-03     27.4315E-03    -9.40497E-03     36.6424E-03     14.2234E+06    -19.2367E+06    -34.6895E+06    -29.4834E+06    -24.4428E+06     14.2234E+06    -2.92980E+06         27.0604
            1935     12.8723E-03     102.278E-03         4.24249     676.575E-03        -4.21589         4.09005        -4.06345     676.575E-03         1.27727     37.5754E-03    -10.2031E-03    -27.3723E-03    -21.0791E-03     31.2822E-03    -10.2031E-03     38.3969E-03     13.5027E+06    -10.3763E+06    -39.6968E+06    -21.8832E+06    -28.1899E+06     13.5027E+06    -8.88361E+06         29.9983
            1936     13.8497E-03     102.306E-03         2.84518     868.015E-03        -3.03025         2.53524        -2.72030     868.015E-03         1.11620     42.0599E-03    -11.0253E-03    -31.0346E-03    -24.5066E-03     35.5319E-03    -11.0253E-03     41.6599E-03     8.40785E+06    -20.3129E+06    -51.9792E+06    -15.2025E+06    -39.9662E+06    -8.71557E+06    -19.5304E+06         34.2451
            1937     14.8245E-03     102.338E-03         2.02686     948.824E-03        -2.19492         1.59055        -1.76184     952.047E-03         1.45299     45.5928E-03    -11.9653E-03    -33.6276E-03    -27.3331E-03     39.2983E-03    -11.9653E-03     42.8066E-03     35.9530E+06    -9.96845E+06    -34.9789E+06    -12.1653E+06     13.1395E+06    -9.96845E+06    -23.3504E+06         40.0353
            1938     15.7978E-03     102.373E-03         2.73545         1.01855        -2.71377         2.46508        -2.44663         1.02178         1.67509     49.2134E-03    -13.1116E-03    -36.1017E-03    -29.7049E-03     42.8165E-03    -13.1116E-03     44.9311E-03     73.2456E+06     18.4276E+06    -12.6502E+06    -9.66972E+06     70.2652E+06     18.4276E+06    -13.2363E+06         47.1005
            1939     16.7670E-03     102.416E-03         2.81356         1.10879        -2.35889         2.47715        -2.02248         1.10879     791.048E-03     49.2817E-03    -14.4416E-03    -34.8400E-03    -31.3143E-03     45.7559E-03    -14.4416E-03     28.2771E-03     98.7715E+06     70.1220E+06    -5.77586E+06    -5.42927E+06     95.7955E+06     72.7515E+06    -1.75000E+06         53.9253
            1940     995.364E-06     103.168E-03         9.52808    -816.711E-03        -7.36726    -285.145E-03         2.75084        -1.12158        -2.82707     8.65333E-03    -4.24707E-03    -4.40625E-03    -4.30627E-03     8.55334E-03    -4.24707E-03     2.09929E-03     44.1683E+06     7.60877E+06    -10.5253E+06    -1.28150E+06     36.1738E+06     6.35948E+06     17.9294E+06         20.9379
            1941     1.99194E-03     103.170E-03         6.37858    -624.353E-03        -4.61415    -450.751E-03         2.24360    -652.770E-03        -4.28182     9.11612E-03    -4.32277E-03    -4.79335E-03    -4.47864E-03     8.80141E-03    -4.32277E-03     4.01509E-03     40.0870E+06    -8.25122E+06    -31.9442E+06    -18.0937E+06     26.2364E+06    -8.25122E+06      28.216E+06         20.9782
            1942     2.98657E-03     103.170E-03         4.54424    -282.442E-03        -3.29606         1.64520    -397.029E-03    -282.442E-03    -139.705E-03     9.87758E-03    -4.43447E-03    -5.44311E-03    -4.75796E-03     9.19243E-03    -4.43447E-03     6.24017E-03     24.2531E+06    -22.8392E+06    -58.1465E+06    -35.8700E+06     1.97666E+06    -22.8392E+06     36.2431E+06         21.0476
            1943     3.98223E-03     103.172E-03         3.39812     200.269E-03        -2.93875         1.51566        -1.05629     200.269E-03         3.66619     10.9665E-03    -4.58746E-03    -6.37901E-03    -5.13937E-03     9.72683E-03    -4.58746E-03     8.85473E-03     7.49777E+06    -33.4597E+06    -79.2057E+06    -49.1728E+06    -22.5352E+06    -33.4597E+06     41.1248E+06         21.1525
            1944     4.97612E-03     103.175E-03         4.34049     152.126E-03        -4.01718        -1.95387         2.27718     152.126E-03         5.42692     12.4576E-03    -4.78437E-03    -7.67326E-03    -5.69369E-03     10.4781E-03    -4.78437E-03     11.9261E-03    -4.70674E+06    -38.1465E+06    -90.3822E+06    -56.8630E+06    -38.2259E+06    -38.1465E+06     41.7645E+06         21.3027
            1945     5.97068E-03     103.181E-03         4.76463    -309.870E-03        -4.04074        -3.32481         4.04869    -309.870E-03         4.65236     14.3625E-03    -5.04091E-03    -9.32163E-03    -6.45134E-03     11.4922E-03    -5.04091E-03     15.4103E-03    -13.5246E+06    -36.4931E+06    -91.6109E+06    -59.9775E+06    -45.1580E+06    -36.4931E+06     38.3019E+06         21.5131
            1946     6.96299E-03     103.188E-03         3.73661    -591.972E-03        -2.73403        -1.00602         2.00860    -591.972E-03         2.58101     16.6661E-03    -5.36497E-03    -11.3012E-03    -7.42900E-03     12.7940E-03    -5.36497E-03     19.2798E-03    -19.4420E+06    -31.7543E+06    -84.4241E+06    -59.1070E+06    -46.6788E+06    -29.8346E+06     30.8332E+06         21.8065
            1947     7.95567E-03     103.200E-03         2.66995    -518.145E-03        -1.70104         1.23057    -261.656E-03    -518.145E-03         1.72309     19.4376E-03    -5.76487E-03    -13.6727E-03    -8.71490E-03     14.4798E-03    -5.76487E-03     23.5967E-03    -17.1085E+06    -28.1566E+06    -73.2387E+06    -55.6403E+06    -43.5828E+06    -19.2808E+06     22.6360E+06         22.2203
            1948     8.94546E-03     103.214E-03         2.90332    -370.794E-03        -2.02782     462.261E-03     413.239E-03    -370.794E-03         2.26079     22.5895E-03    -6.25340E-03    -16.3361E-03    -10.4070E-03     16.6604E-03    -6.25340E-03     27.9446E-03    -7.24107E+06    -28.9915E+06    -62.0888E+06    -50.7141E+06    -40.3662E+06    -7.24107E+06     14.1075E+06         22.8156
            1949     9.93483E-03     103.233E-03         2.77742    -304.268E-03        -1.89614     199.403E-03     681.880E-03    -304.268E-03         2.46933     26.2204E-03    -6.82919E-03    -19.3912E-03    -12.5357E-03     19.3649E-03    -6.82919E-03     32.5696E-03     3.91315E+06    -28.4265E+06    -49.2541E+06    -43.2369E+06    -34.4437E+06     3.91315E+06     5.42985E+06         23.6928
            1950     10.9206E-03     103.254E-03         3.75940    -124.147E-03        -3.01484         3.34726        -2.60270    -124.147E-03         2.23190     30.4613E-03    -7.51031E-03    -22.9510E-03    -15.2274E-03     22.7377E-03    -7.51031E-03     37.5337E-03     11.8366E+06    -24.1894E+06    -43.2352E+06    -35.0646E+06    -32.3600E+06     11.8366E+06    -2.44594E+06         25.0119
            1951     11.9048E-03     103.282E-03         5.78980     254.299E-03        -5.45019         5.69357        -5.35397     254.299E-03         1.28048     34.3096E-03    -8.29661E-03    -26.0129E-03    -18.3567E-03     26.6533E-03    -8.29661E-03     40.0640E-03     17.3384E+06    -11.9625E+06    -34.7959E+06    -26.2927E+06    -20.4657E+06     17.3384E+06    -7.50035E+06         27.0113
            1952     12.8847E-03     103.309E-03         4.80755     632.528E-03        -4.86845         4.80103        -4.86193     632.528E-03    -433.245E-03     38.5521E-03    -9.21987E-03    -29.3322E-03    -21.8778E-03     31.0977E-03    -9.21987E-03     42.4094E-03     19.4313E+06    -4.93387E+03    -35.5993E+06    -17.8327E+06    -17.7716E+06     19.4313E+06    -14.1848E+06         30.0120
            1953     13.8622E-03     103.343E-03         3.24381     865.939E-03        -3.52898         3.14749        -3.43266     865.939E-03        -1.22351     44.0347E-03    -10.2080E-03    -33.8267E-03    -26.0726E-03     36.2806E-03    -10.2080E-03     46.5849E-03     14.6097E+06    -7.70334E+06    -45.8710E+06    -12.2285E+06    -27.6489E+06     912.799E+03    -23.2833E+06         34.3839
            1954     14.8345E-03     103.380E-03         2.58944     986.311E-03        -2.91861         2.44348        -2.77587     989.534E-03        -1.66768     48.3204E-03    -11.3331E-03    -36.9873E-03    -29.8676E-03     41.2007E-03    -11.3331E-03     47.0615E-03     28.8874E+06    -6.04190E+06    -32.0072E+06    -11.4614E+06     8.34152E+06    -6.04190E+06    -22.4735E+06         40.4066
            1955     15.8034E-03     103.418E-03         2.63707         1.07778        -2.86991         2.56422        -2.80027         1.08101    -930.368E-03     52.5460E-03    -12.6605E-03    -39.8854E-03    -32.8667E-03     45.5272E-03    -12.6605E-03     48.9549E-03     60.4204E+06     12.2613E+06    -17.2714E+06     -14.081E+06       57.23E+06     12.2613E+06    -12.3702E+06         47.8787
            1956     16.7715E-03     103.466E-03         2.51411         1.14498        -2.46711         1.77950        -1.73250         1.14498         1.19987     52.8958E-03    -14.2118E-03    -38.6840E-03    -34.7497E-03     48.9615E-03    -14.2118E-03     30.6179E-03     95.7232E+06     64.2908E+06    -12.3020E+06    -11.8597E+06     90.7753E+06     68.7964E+06    -3.57603E+06         55.2761
            1957     998.204E-06     104.176E-03         5.61249         1.76181        -7.02371    -631.722E-03        -2.30653         3.28884        -2.68956     4.98150E-03    -2.41353E-03    -2.56797E-03    -2.48496E-03     4.89850E-03    -2.41353E-03     1.46009E-03     6.10541E+06    -64.9967E+06    -92.1473E+06    -76.3176E+06    -5.97905E+06    -68.7419E+06     30.9538E+06         20.7867
            1958     1.99448E-03     104.176E-03         4.82587     312.686E-03        -4.59208        -3.75175         3.98554     312.686E-03        -1.53877     5.68606E-03    -2.60584E-03    -3.08023E-03    -2.79689E-03     5.40273E-03    -2.60584E-03     3.01378E-03     18.8154E+06    -57.0306E+06    -96.9689E+06    -75.3424E+06    -2.81114E+06    -57.0306E+06     44.7278E+06         20.8284
            1959     2.99203E-03     104.178E-03         5.95747    -839.510E-03        -4.58553        -1.66634         3.03827    -839.510E-03         3.90911     6.70134E-03    -2.82744E-03    -3.87390E-03    -3.20824E-03     6.03567E-03    -2.82744E-03     5.06402E-03     12.4185E+06    -51.0713E+06    -104.549E+06    -74.8044E+06    -17.3259E+06    -51.0713E+06     50.7532E+06         20.9002
            1960     3.98772E-03     104.179E-03         5.17983    -865.922E-03        -3.97395     35.0964E-03         1.17078    -865.922E-03         5.53835     8.12733E-03    -3.06768E-03    -5.05966E-03    -3.78980E-03     6.85748E-03    -3.06768E-03     7.72149E-03     334.003E+03    -48.2343E+06    -107.938E+06    -73.3799E+06    -34.2238E+06    -48.2343E+06     50.2870E+06         21.0086
            1961     4.98409E-03     104.184E-03         3.67777    -690.983E-03        -2.72469    -12.1112E-03     965.191E-03    -690.983E-03         2.43547     9.95156E-03    -3.33660E-03    -6.61496E-03    -4.52810E-03     7.86470E-03    -3.33660E-03     10.9489E-03    -8.58640E+06    -45.2015E+06    -103.866E+06    -69.1887E+06    -43.2632E+06    -45.2015E+06     45.8045E+06         21.1635
            1962     5.97832E-03     104.190E-03         3.44613    -593.160E-03        -2.70087        -1.09671         1.91385    -665.029E-03         1.73126     12.1259E-03    -3.64952E-03    -8.47643E-03    -5.40116E-03     9.05067E-03    -3.64952E-03     14.6473E-03    -13.9212E+06    -39.4828E+06    -93.5790E+06    -62.3229E+06    -45.1773E+06    -39.4828E+06     38.8240E+06         21.3797
            1963     6.97308E-03     104.200E-03         3.65503    -741.429E-03        -2.77551        -2.34726         3.29865    -813.297E-03         2.58458     14.7047E-03    -4.02397E-03    -10.6807E-03    -6.47563E-03     10.4996E-03    -4.02397E-03     18.8456E-03    -15.4250E+06    -32.1774E+06    -81.1021E+06    -56.0757E+06    -42.3711E+06    -30.2577E+06     31.0440E+06         21.6801
            1964     7.96522E-03     104.212E-03         3.56777    -944.984E-03        -2.47018        -1.26071         2.35830    -944.984E-03         2.39731     17.8208E-03    -4.47517E-03    -13.3456E-03    -7.87118E-03     12.3463E-03    -4.47517E-03     23.6916E-03    -13.3534E+06    -26.1635E+06    -67.3280E+06    -50.7409E+06    -37.7676E+06    -18.3363E+06     22.0945E+06         22.1016
            1965     8.95732E-03     104.230E-03         3.50761    -823.114E-03        -2.51128         1.84642    -850.083E-03    -823.114E-03         1.96288     21.3381E-03    -5.00980E-03    -16.3283E-03    -9.66072E-03     14.6705E-03    -5.00980E-03     28.7242E-03    -5.62865E+06    -23.0384E+06    -53.5757E+06    -44.5496E+06    -32.0645E+06    -5.62865E+06     12.6448E+06         22.7048
            1966     9.94599E-03     104.250E-03         3.45383    -502.050E-03        -2.73926         3.13485        -2.42028    -502.050E-03     68.8906E-03     25.4323E-03    -5.63928E-03    -19.7930E-03    -11.9499E-03     17.5892E-03    -5.63928E-03     34.2144E-03     6.22132E+06    -19.1231E+06    -43.8978E+06    -38.0454E+06    -24.9756E+06     6.22132E+06     2.19091E+06         23.5903
            1967     10.9337E-03     104.277E-03         3.12246    -187.274E-03        -2.68017         2.89225        -2.44996    -187.274E-03        -1.09833     30.2703E-03    -6.38750E-03    -23.8828E-03    -14.9078E-03     21.2953E-03    -6.38750E-03     40.2310E-03     15.3884E+06    -15.4556E+06    -38.3827E+06    -29.5201E+06    -24.3182E+06     15.3884E+06    -6.87974E+06         24.9200
            1968     11.9168E-03     104.308E-03         4.09406     104.192E-03        -3.87518         3.91412        -3.69524     104.192E-03    -635.213E-03     34.6708E-03    -7.25305E-03    -27.4178E-03    -18.3888E-03     25.6418E-03    -7.25305E-03     43.6660E-03     20.6780E+06    -6.31007E+06    -31.8668E+06    -21.5241E+06    -16.6528E+06     20.6780E+06    -11.9663E+06         26.9387
            1969     12.8978E-03     104.341E-03         4.61216     412.053E-03        -4.68531         4.59088        -4.66403     412.053E-03    -783.271E-03     39.5871E-03    -8.26860E-03    -31.3185E-03    -22.3932E-03     30.6618E-03    -8.26860E-03     46.9861E-03     23.9748E+06     7.22258E+06    -29.8038E+06    -15.9939E+06    -6.58735E+06     23.9748E+06    -17.3250E+06         29.9834
            1970     13.8733E-03     104.379E-03         4.31006     685.246E-03        -4.61965         4.21090        -4.52049     685.246E-03        -1.41186     46.0804E-03    -9.39174E-03    -36.6886E-03    -27.2626E-03     36.6543E-03    -9.39174E-03     52.5120E-03     19.5659E+06     857.734E+03    -42.1806E+06    -11.8816E+06    -17.4991E+06     7.62375E+06    -26.1011E+06         34.4500
            1971     14.8449E-03     104.425E-03         3.98996     899.375E-03        -4.48049         3.85847        -4.34901     899.375E-03        -1.67620     51.1618E-03    -10.6768E-03    -40.4850E-03    -32.0053E-03     42.6820E-03    -10.6768E-03     52.8703E-03     20.0396E+06    -4.39115E+06    -32.8730E+06    -9.50690E+06    -3.32648E+06    -4.39115E+06    -21.8091E+06         40.6818
            1972     15.8123E-03     104.465E-03         2.67844     861.549E-03        -3.07859         2.12508        -2.68836         1.02468        -1.21238     56.4206E-03    -12.1432E-03    -44.2774E-03    -36.0890E-03     48.2322E-03    -12.1432E-03     55.0207E-03     52.1692E+06     5.48137E+06    -10.5185E+06    -7.55546E+06     49.5648E+06     5.12276E+06    -9.72666E+06         48.5583
            1973     16.7746E-03     104.521E-03         1.63139     851.154E-03        -1.92993    -321.924E-03    -139.749E-03         1.01428     336.525E-03     57.2946E-03    -13.9177E-03    -43.3770E-03    -38.7187E-03     52.6364E-03    -13.9177E-03     34.9597E-03     96.6735E+06     54.0821E+06    -4.28651E+06    -3.38605E+06     87.7395E+06     62.1157E+06    -5.38482E+06         56.5453
            1974     997.909E-06     105.179E-03         5.37694    -501.145E-03        -5.17866     690.734E-03        -2.01948         1.02589     741.544E-03     2.89045E-03    -1.40282E-03    -1.48763E-03    -1.42704E-03     2.83697E-03    -1.40992E-03     892.221E-06    -46.2083E+06    -139.010E+06    -156.131E+06    -142.451E+06    -53.3091E+06    -145.589E+06     22.8561E+06         20.6764
            1975     1.99707E-03     105.181E-03         3.40224     695.947E-03        -4.22640     48.9139E-03    -873.073E-03     695.947E-03    -561.720E-03     3.31989E-03    -1.50168E-03    -1.81820E-03    -1.59443E-03     3.10322E-03    -1.50879E-03     1.99269E-03    -20.9382E+06    -116.678E+06    -140.801E+06    -121.973E+06    -36.5733E+06    -119.871E+06     38.4035E+06         20.7179
            1976     2.99437E-03     105.182E-03         5.57442    -215.891E-03        -5.52010        -4.72041         4.77473    -215.891E-03         4.95822     4.33671E-03    -1.70098E-03    -2.63573E-03    -2.03742E-03     3.73840E-03    -1.70098E-03     3.85602E-03    -11.9926E+06    -94.5012E+06    -127.427E+06    -102.196E+06    -36.8653E+06    -94.8599E+06     46.3376E+06         20.7894
            1977     3.99249E-03     105.186E-03         7.42850        -1.41106        -5.94450        -4.96565         6.44965        -1.41106         6.20289     5.91824E-03    -1.95838E-03    -3.95986E-03    -2.71933E-03     4.67771E-03    -1.95838E-03     6.50897E-03    -13.1245E+06    -74.7858E+06    -114.862E+06    -85.7318E+06    -42.2546E+06    -74.7858E+06     45.8815E+06         20.8977
            1978     4.98851E-03     105.190E-03         4.45272        -1.30736        -3.15403    -963.678E-03         2.73241        -1.77739         2.68643     7.88993E-03    -2.25127E-03    -5.63866E-03    -3.52250E-03     5.77377E-03    -2.25127E-03     9.79879E-03    -16.3523E+06    -60.3945E+06    -99.0469E+06    -70.4551E+06    -44.9441E+06    -60.3945E+06     39.0076E+06         21.0528
            1979     5.98516E-03     105.199E-03         2.40225    -812.248E-03        -1.64109         1.23898     187.201E-03        -1.47727     278.084E-03     10.2106E-03    -2.58402E-03    -7.62657E-03    -4.43551E-03     7.01953E-03    -2.58402E-03     13.6481E-03    -17.9592E+06    -48.5156E+06    -85.0716E+06    -58.3155E+06    -44.7153E+06    -48.5156E+06     32.7212E+06         21.2695
            1980     6.97949E-03     105.209E-03         2.51503    -701.662E-03        -1.98063    -91.4255E-03         1.10553        -1.18136         1.48102     12.9711E-03    -2.97407E-03    -9.99703E-03    -5.54482E-03     8.51888E-03    -2.97407E-03     18.1369E-03    -16.6316E+06    -34.8586E+06    -70.7068E+06    -48.2758E+06    -39.0626E+06    -34.8586E+06     26.3589E+06         21.5709
            1981     7.97408E-03     105.224E-03         3.35927    -865.153E-03        -2.71738        -1.81786         2.74447        -1.14987         2.24622     16.3118E-03    -3.43733E-03    -12.8745E-03    -6.95139E-03     10.3887E-03    -3.43733E-03     23.4540E-03    -10.4436E+06    -24.5993E+06    -54.7856E+06    -39.3066E+06    -31.2791E+06    -19.2428E+06     18.7673E+06         21.9933
            1982     8.96565E-03     105.243E-03         3.89359        -1.12247        -2.98676     187.049E-03     719.778E-03        -1.12247    -112.469E-03     20.1040E-03    -3.98592E-03    -16.1181E-03    -8.75993E-03     12.7459E-03    -3.98592E-03     29.1217E-03    -490.867E+03    -17.7888E+06    -41.4448E+06    -32.1586E+06    -23.9458E+06    -3.62004E+06     10.0318E+06         22.5971
            1983     9.95687E-03     105.268E-03         4.66452    -824.679E-03        -4.06189         3.85852        -3.25589    -824.679E-03        -2.39523     24.6227E-03    -4.63446E-03    -19.9882E-03    -11.1486E-03     15.7831E-03    -4.63446E-03     35.5351E-03     10.8536E+06    -7.82367E+06    -33.5736E+06    -26.5702E+06    -14.8271E+06     10.8536E+06     1.28523E+06         23.4824
            1984     10.9438E-03     105.296E-03         4.31091    -408.055E-03        -4.05698         3.90901        -3.65508    -408.055E-03        -2.67975     29.9673E-03    -5.40250E-03    -24.5648E-03    -14.2461E-03     19.6486E-03    -5.40250E-03     42.6759E-03     19.8945E+06    -1.49613E+06    -33.6210E+06    -22.2121E+06    -12.9051E+06     19.8945E+06    -10.1605E+06         24.8126
            1985     11.9291E-03     105.334E-03         3.14838    -109.644E-03        -3.10925         2.66398        -2.62485    -109.644E-03        -2.93675     34.9036E-03    -6.30366E-03    -28.5999E-03    -18.0006E-03     24.3043E-03    -6.30366E-03     47.2435E-03     23.2843E+06     1.74587E+06    -32.2853E+06    -15.4670E+06    -15.0725E+06     23.2843E+06    -15.5493E+06         26.8393
            1986     12.9089E-03     105.370E-03         4.27011     142.835E-03        -4.38051         4.06431        -4.17470     142.835E-03        -2.10925     40.5364E-03    -7.36298E-03    -33.1734E-03    -22.4342E-03     29.7972E-03    -7.36298E-03     51.9456E-03     26.4695E+06     13.2449E+06    -25.3069E+06    -12.0754E+06     13.4509E+03     26.4695E+06    -16.0543E+06         29.9153
            1987     13.8856E-03     105.417E-03         5.62573     457.470E-03        -6.02370         5.51798        -5.91595     457.470E-03        -2.03712     48.0670E-03    -8.58313E-03    -39.4839E-03    -27.9483E-03     36.5314E-03    -8.58313E-03     59.1394E-03     20.5212E+06     10.4175E+06    -35.9729E+06    -13.8204E+06    -4.84300E+06     13.6293E+06    -24.4952E+06         34.4755
            1988     14.8556E-03     105.468E-03         4.09882     723.103E-03        -4.75804         3.80703        -4.46626     723.103E-03        -1.90120     53.9783E-03    -9.99480E-03    -43.9835E-03    -33.7308E-03     43.7256E-03    -9.99480E-03     59.6192E-03     17.4398E+06    -3.40347E+06    -39.5406E+06    -9.90551E+06    -12.1953E+06    -3.40347E+06    -26.7415E+06         40.9271
            1989     15.8206E-03     105.517E-03         1.78079     628.531E-03        -2.38556     267.498E-03        -1.03540     791.659E-03        -1.28453     60.3674E-03    -11.6360E-03    -48.7313E-03    -39.1745E-03     50.8105E-03    -11.6360E-03     61.6693E-03     49.1079E+06     5.30673E+06    -16.5920E+06    -3.45813E+06     36.3326E+06     4.94811E+06    -13.7804E+06         49.2933
            1990     16.7820E-03     105.578E-03         1.13879     543.017E-03        -1.74189        -1.15480     388.574E-03     706.144E-03        -1.20476     62.1209E-03    -13.6468E-03    -48.4741E-03    -43.0867E-03     56.7335E-03    -13.6468E-03     39.2495E-03     92.1056E+06     55.1421E+06    -7.19581E+06    -6.39805E+06     84.5528E+06     61.8972E+06    -2.71613E+06         57.9703
            1991     998.560E-06     106.182E-03         6.42815        -1.97013        -5.22975         1.45879    -39.5324E-03        -2.19099        -2.82812     2.51609E-03    -1.22548E-03    -1.29061E-03    -1.21161E-03     2.49068E-03    -1.27907E-03     529.917E-06    -78.1009E+06    -162.370E+06    -170.218E+06    -164.141E+06    -79.3933E+06    -167.154E+06     6.66835E+06         20.6143
            1992     1.99645E-03     106.182E-03         4.24419    -487.637E-03        -4.68439    -965.290E-03     525.089E-03    -487.637E-03        -1.22399     2.49563E-03    -1.18755E-03    -1.30807E-03    -1.16373E-03     2.37410E-03    -1.21037E-03     1.21532E-03    -58.1825E+06    -148.943E+06    -157.316E+06    -145.545E+06    -62.5500E+06    -156.346E+06     14.5236E+06         20.6541
            1993     2.99591E-03     106.186E-03         4.65530    -828.456E-03        -4.36984        -3.78414         4.30642        -1.06527         2.67455     3.06615E-03    -1.23834E-03    -1.82781E-03    -1.39788E-03     2.63622E-03    -1.23834E-03     2.69683E-03    -42.1243E+06    -125.712E+06    -141.715E+06    -121.139E+06    -51.3629E+06    -137.050E+06     21.6221E+06         20.7228
            1994     3.99349E-03     106.189E-03         6.03967        -1.56187        -4.90993        -4.01555         5.38210        -1.79868         4.44637     4.33584E-03    -1.35309E-03    -2.98275E-03    -1.92605E-03     3.27914E-03    -1.35309E-03     5.11223E-03    -36.1681E+06    -97.9087E+06    -128.632E+06    -95.3806E+06    -48.6331E+06    -118.695E+06     23.2325E+06         20.8274
            1995     4.99181E-03     106.196E-03         5.17885        -1.66282        -3.78992        -2.70199         4.56096        -2.13285         4.30257     6.17988E-03    -1.56379E-03    -4.61609E-03    -2.64805E-03     4.21184E-03    -1.56379E-03     8.32285E-03    -32.7023E+06    -76.5899E+06    -109.168E+06    -73.4752E+06    -46.2639E+06    -98.7209E+06     21.6129E+06         20.9779
            1996     5.98804E-03     106.204E-03         3.54728        -1.32333        -2.56678    -607.283E-03         2.33374        -2.06930         2.45686     8.53943E-03    -1.88572E-03    -6.65370E-03    -3.54457E-03     5.43030E-03    -1.88572E-03     12.2479E-03    -28.3542E+06    -59.6485E+06    -85.2376E+06    -55.8315E+06    -44.3954E+06    -73.0134E+06     18.2363E+06         21.1893
            1997     6.98468E-03     106.217E-03         2.38941        -1.07109        -1.76025     949.108E-03     369.211E-03        -1.76025         2.12955     11.3865E-03    -2.26234E-03    -9.12417E-03    -4.62620E-03     6.88854E-03    -2.26234E-03     16.9621E-03    -22.0640E+06    -43.9125E+06    -61.9411E+06    -40.6475E+06    -37.7752E+06    -49.4949E+06     15.4760E+06         21.4844
            1998     7.97882E-03     106.232E-03         2.45462        -1.04054        -1.98851     494.459E-03     384.877E-03        -1.45377     940.028E-03     14.8342E-03    -2.70314E-03    -12.1311E-03    -5.96559E-03     8.66873E-03    -2.70314E-03     22.6347E-03    -14.5962E+06    -27.1118E+06    -42.2375E+06    -29.9293E+06    -26.5736E+06    -27.4426E+06     11.7440E+06         21.8996
            1999     8.97306E-03     106.255E-03         2.80371        -1.25440        -2.21206     238.395E-03     353.256E-03        -1.25440        -2.20349     18.8364E-03    -3.23267E-03    -15.6037E-03    -7.72823E-03     10.9609E-03    -3.23267E-03     28.9093E-03    -2.32455E+06    -11.9203E+06    -28.2381E+06    -20.7881E+06    -16.1298E+06    -5.56517E+06     5.04668E+06         22.4944
            2000     9.96369E-03     106.281E-03         2.91399    -914.598E-03        -2.61989         1.94502        -1.53978        -1.02574        -2.25917     23.7012E-03    -3.86119E-03    -19.8401E-03    -10.1071E-03     13.9683E-03    -3.86119E-03     36.2541E-03     12.9000E+06    -714.886E+03    -20.8172E+06    -12.9370E+06    -8.57395E+06     12.8788E+06    -900.268E+03         23.3685
            2001     10.9535E-03     106.317E-03         3.74941    -581.885E-03        -3.74096         3.52656        -3.40696    -693.031E-03    -862.490E-03     29.4433E-03    -4.60571E-03    -24.8376E-03    -13.2115E-03     17.8172E-03    -4.60571E-03     44.4974E-03     25.4401E+06     12.4080E+06    -22.5794E+06    -10.2268E+06     55.4125E+03     25.4401E+06    -7.59735E+06         24.6865
            2002     11.9382E-03     106.356E-03         3.69249    -361.437E-03        -3.78306         3.29035        -3.38092    -361.437E-03        -2.19610     34.9234E-03    -5.49794E-03    -29.4255E-03    -17.1680E-03     22.6660E-03    -5.49794E-03     50.4247E-03     26.7745E+06     12.8204E+06    -33.3088E+06    -10.8248E+06    -9.66360E+06     26.7745E+06    -17.2615E+06         26.7078
            2003     12.9205E-03     106.401E-03         3.94479    -89.2297E-03        -4.21080         3.37682        -3.64283    -89.2297E-03        -3.61192     41.2669E-03    -6.56170E-03    -34.7052E-03    -22.0336E-03     28.5953E-03    -6.56170E-03     56.5832E-03     28.5890E+06     15.7684E+06    -23.3699E+06    -4.41130E+06    -3.19022E+06     28.5890E+06    -16.9794E+06         29.8071
            2004     13.8964E-03     106.452E-03         4.53720     154.451E-03        -5.00195         3.80667        -4.27142     154.451E-03        -4.08618     49.7681E-03    -7.84873E-03    -41.9194E-03    -28.1031E-03     35.9519E-03    -7.84873E-03     65.5185E-03     29.2392E+06     23.3424E+06    -14.4744E+06    -2.74996E+06     11.9980E+06     28.8592E+06    -16.7799E+06         34.4664
            2005     14.8666E-03     106.515E-03         2.86039     318.164E-03        -3.52491         2.23482        -2.89934     318.164E-03        -3.02804     56.9393E-03    -9.33914E-03    -47.6002E-03    -35.2670E-03     44.6062E-03    -9.33914E-03     66.9542E-03     14.2270E+06    -803.926E+03    -39.2693E+06    -13.7269E+06    -12.1722E+06     52.8147E+03    -25.2489E+06         41.1961
            2006     15.8298E-03     106.568E-03         1.59224     354.375E-03        -2.34130     531.115E-03        -1.28018     354.375E-03        -1.51218     64.7311E-03    -11.1459E-03    -53.5853E-03    -42.4313E-03     53.5772E-03    -11.1459E-03     69.1290E-03     34.0688E+06    -3.89842E+06    -38.1384E+06    -19.1392E+06     15.0696E+06    -3.89842E+06    -20.2887E+06         50.1645
            2007     16.7849E-03     106.643E-03         1.45080     337.864E-03        -2.30574     401.058E-03        -1.25599     337.864E-03        -1.25209     66.8651E-03    -13.4047E-03    -53.4604E-03    -47.2392E-03     60.6439E-03    -13.4047E-03     44.3633E-03     86.8396E+06     55.6271E+06    -9.83379E+06    -7.71900E+06     77.6853E+06     62.6666E+06    -4.28208E+06         59.8531
            2008     997.786E-06     107.184E-03         6.69470        -1.67602        -6.50485        -3.85942         3.97350        -1.60025        -3.91403     3.23964E-03    -1.59071E-03    -1.64893E-03    -1.59430E-03     3.23451E-03    -1.64022E-03     147.138E-06    -79.9949E+06    -150.855E+06    -155.580E+06    -152.020E+06    -80.8805E+06    -153.530E+06    -4.73034E+06         20.6031
            2009     1.99640E-03     107.186E-03         6.23682        -2.52473        -4.91673        -4.14261         5.95264        -3.01468     385.922E-03     3.22733E-03    -1.60240E-03    -1.62493E-03    -1.56857E-03     3.19155E-03    -1.62298E-03     570.718E-06    -66.6393E+06    -138.101E+06    -148.555E+06    -143.092E+06    -67.8911E+06    -142.312E+06    -5.80187E+06         20.6402
            2010     2.99390E-03     107.187E-03         4.17898        -1.76652        -3.40505        -1.55813         3.61829        -3.05276         3.14039     3.28666E-03    -1.55180E-03    -1.73486E-03    -1.53122E-03     3.09933E-03    -1.56812E-03     1.58696E-03    -55.0914E+06    -124.589E+06    -143.533E+06    -126.585E+06    -57.2870E+06    -139.341E+06    -5.74435E+06         20.7045
            2011     3.99298E-03     107.192E-03         3.26266        -1.18417        -2.84177    -603.854E-03         2.40457        -2.56400         2.13167     3.79665E-03    -1.50602E-03    -2.29063E-03    -1.67589E-03     3.19639E-03    -1.52050E-03     3.40709E-03    -48.1843E+06    -110.041E+06    -136.823E+06    -107.235E+06    -50.9905E+06    -136.823E+06    -5.10032E+06         20.8028
            2012     4.99069E-03     107.198E-03         3.73075        -1.39544        -3.01035        -1.36242         2.92247        -2.23509         2.29873     5.02127E-03    -1.55366E-03    -3.46762E-03    -2.09901E-03     3.65266E-03    -1.55366E-03     6.13129E-03    -42.1643E+06    -94.1208E+06    -128.904E+06    -88.7102E+06    -47.5748E+06    -128.904E+06    -4.37977E+06         20.9449
            2013     5.98897E-03     107.210E-03         4.31692        -1.74821        -3.21467        -2.26274         3.77390        -2.15713         3.26460     6.96582E-03    -1.69675E-03    -5.26908E-03    -2.76659E-03     4.46334E-03    -1.69675E-03     9.84402E-03    -34.9663E+06    -76.3902E+06    -112.082E+06    -68.4793E+06    -42.8771E+06    -112.082E+06    -5.44391E+06         21.1458
            2014     6.98522E-03     107.222E-03         3.52288        -1.60591        -2.65816        -1.13496         2.49187        -2.09810         3.10019     9.69238E-03    -1.96350E-03    -7.72888E-03    -3.71735E-03     5.68085E-03    -1.96350E-03     14.6616E-03    -24.6639E+06    -62.0347E+06    -86.2276E+06    -47.9205E+06    -38.7782E+06    -86.2276E+06    -5.27516E+06         21.4279
            2015     7.98176E-03     107.241E-03         3.27395        -1.44800        -2.71354         2.14713        -1.24734        -1.78737         1.06364     13.1662E-03    -2.35025E-03    -10.8159E-03    -4.95339E-03     7.30364E-03    -2.35025E-03     20.6104E-03    -13.6071E+06    -37.4833E+06    -52.2003E+06    -27.3453E+06    -25.2586E+06    -50.6868E+06    -3.72501E+06         21.8271
            2016     8.97551E-03     107.264E-03         2.94937        -1.32283        -2.60031         2.67849        -2.32944        -1.32283        -1.26717     17.2804E-03    -2.83223E-03    -14.4481E-03    -6.58268E-03     9.41491E-03    -2.83223E-03     27.3952E-03    -4.76375E+06    -10.9970E+06    -27.2207E+06    -13.5099E+06    -12.3150E+06    -17.1565E+06    -3.50703E+06         22.4021
            2017     9.96910E-03     107.295E-03         1.71655    -901.438E-03        -1.80882     755.491E-03    -736.615E-03        -1.01258        -1.98771     22.3640E-03    -3.39854E-03    -18.9655E-03    -8.80769E-03     12.2062E-03    -3.39854E-03     35.5763E-03     10.2284E+06     1.97561E+06    -17.0838E+06    -6.32302E+06    -5.36617E+06     6.80939E+06    -4.78854E+06         23.2517
            2018     10.9586E-03     107.331E-03         2.47009    -699.784E-03        -2.64458         1.69856        -1.76190    -810.930E-03    -706.190E-03     28.4209E-03    -4.07634E-03    -24.3445E-03    -11.7824E-03     15.8587E-03    -4.07634E-03     44.9182E-03     23.8790E+06     10.7743E+06    -10.9522E+06    -3.76919E+06     3.59131E+06     23.8790E+06    -3.98937E+06         24.5418
            2019     11.9466E-03     107.379E-03         3.49030    -540.477E-03        -3.73973         3.35679        -3.60622    -540.477E-03    -571.881E-03     34.5414E-03    -4.92498E-03    -29.6164E-03    -15.8913E-03     20.8163E-03    -4.92498E-03     52.5173E-03     35.3791E+06     21.8135E+06    -18.4532E+06    -4.30381E+06     7.66412E+06     35.3791E+06    -12.3570E+06         26.5400
            2020     12.9281E-03     107.427E-03         2.96366    -297.895E-03        -3.39003         2.09978        -2.52615    -297.895E-03        -3.34785     41.7751E-03    -5.96343E-03    -35.8117E-03    -21.3732E-03     27.3367E-03    -5.96343E-03     60.3260E-03     32.2138E+06     21.7498E+06    -31.1747E+06    -2.65864E+06    -6.76631E+06     32.2138E+06    -22.2550E+06         29.6473
            2021     13.9060E-03     107.489E-03         2.15834    -207.383E-03        -2.66201     281.853E-03    -785.522E-03    -207.383E-03        -3.54160     51.0405E-03    -7.25495E-03    -43.7855E-03    -27.9068E-03     35.1617E-03    -7.25495E-03     70.7575E-03     40.2807E+06     30.6572E+06    -14.7690E+06     5.21274E+06     14.2729E+06     36.6832E+06    -16.8254E+06         34.4061
            2022     14.8764E-03     107.558E-03         1.90128    -187.000E-03        -2.46742     718.071E-03        -1.28422    -187.000E-03        -1.26202     59.3141E-03    -8.80091E-03    -50.5132E-03    -35.7321E-03     44.5330E-03    -8.80091E-03     74.4766E-03     23.3480E+06     13.5963E+06    -29.4413E+06    -4.47890E+06    -2.47109E+06     14.4530E+06    -14.2529E+06         41.4599
            2023     15.8364E-03     107.628E-03         2.36760    -114.136E-03        -3.10936         2.28361        -3.02537    -114.136E-03    -245.982E-03     69.4759E-03    -10.6674E-03    -58.8086E-03    -44.9153E-03     55.5826E-03    -10.6674E-03     79.6073E-03     27.8325E+06    -1.27795E+06    -35.0664E+06    -8.31643E+06     4.08139E+06    -4.27679E+06    -15.3611E+06         51.2383
            2024     16.7909E-03     107.706E-03         2.38404     2.74649E-03        -3.30133         2.35773        -3.27502     2.74649E-03    -359.950E-03     72.4412E-03    -13.0849E-03    -59.3563E-03    -51.6018E-03     64.6867E-03    -13.0849E-03     52.0670E-03     78.3441E+06     48.2938E+06    -11.5674E+06    -6.39230E+06     71.2251E+06     50.2376E+06    -6.24001E+06         62.3354
            2025     997.618E-06     108.189E-03         8.23067        -2.79780        -7.24699        -6.36817         7.05523        -2.50117         4.30018     4.77223E-03    -2.36291E-03    -2.40932E-03    -2.38812E-03     4.77117E-03    -2.38305E-03    -152.947E-06    -66.3872E+06    -124.262E+06    -131.071E+06    -128.483E+06    -68.2510E+06    -124.987E+06    -10.3565E+06         20.6393
            2026     1.99439E-03     108.189E-03         8.04998        -3.98358        -5.45389        -4.62723         7.71327        -4.47352         3.18707     4.86633E-03    -2.41512E-03    -2.45121E-03    -2.44343E-03     4.86342E-03    -2.41998E-03     36.7026E-06    -54.9664E+06    -117.549E+06    -125.454E+06    -121.432E+06    -58.6046E+06    -117.933E+06    -14.8947E+06         20.6738
            2027     2.99207E-03     108.192E-03         5.64513        -2.73089        -4.17811        -2.01965         4.91254        -4.15676         4.32467     4.90546E-03    -2.42531E-03    -2.48015E-03    -2.42923E-03     4.87086E-03    -2.44163E-03     639.832E-06    -46.2282E+06    -109.261E+06    -124.602E+06    -114.408E+06    -52.2654E+06    -113.418E+06    -19.8445E+06         20.7334
            2028     3.98900E-03     108.195E-03         3.44275        -1.12155        -3.38989    -83.1791E-03         2.40438        -3.38989         2.39976     4.97202E-03    -2.40612E-03    -2.56590E-03    -2.36868E-03     4.79319E-03    -2.42451E-03     1.86654E-03    -39.0586E+06    -105.936E+06    -120.134E+06    -105.989E+06    -47.2084E+06    -111.932E+06    -22.5980E+06         20.8245
            2029     4.98695E-03     108.203E-03         2.31610    -598.761E-03        -2.68776     243.589E-03         1.47375        -2.68776         1.28474     5.36164E-03    -2.37818E-03    -2.98346E-03    -2.40151E-03     4.78359E-03    -2.38208E-03     3.82449E-03    -32.3288E+06    -100.320E+06    -118.447E+06    -94.9925E+06    -43.1304E+06    -112.973E+06    -25.2749E+06         20.9564
            2030     5.98419E-03     108.212E-03         3.04043        -1.15253        -2.87460        -1.29936         2.62721        -2.31455         2.18714     6.38060E-03    -2.35889E-03    -4.02171E-03    -2.64083E-03     4.99972E-03    -2.35889E-03     6.73135E-03    -25.2227E+06    -91.4227E+06    -120.368E+06    -84.4213E+06    -38.8423E+06    -113.750E+06    -27.6336E+06         21.1435
            2031     6.98219E-03     108.228E-03         2.99334        -1.33652        -2.70029    -865.284E-03         1.96204        -2.14023         1.09644     8.33526E-03    -2.44505E-03    -5.89021E-03    -3.20025E-03     5.64530E-03    -2.44505E-03     10.9740E-03    -15.8995E+06    -83.1642E+06    -108.355E+06    -70.2748E+06    -35.3692E+06    -101.775E+06    -30.2779E+06         21.4077
            2032     7.97828E-03     108.246E-03         2.75995        -1.26147        -2.61524         1.89948        -1.20121        -1.81503     274.972E-03     11.2163E-03    -2.62825E-03    -8.58810E-03    -4.05706E-03     6.68530E-03    -2.62825E-03     16.5713E-03    -6.80480E+06    -66.8995E+06    -85.0876E+06    -49.8897E+06    -28.0392E+06    -80.8630E+06    -28.9794E+06         21.7837
            2033     8.97466E-03     108.274E-03         2.69811        -1.20537        -2.69463         2.63788        -2.47911        -1.36067    -50.3359E-03     15.0915E-03    -2.92708E-03    -12.1644E-03    -5.35654E-03     8.28362E-03    -2.92708E-03     23.5897E-03     440.641E+03    -40.4267E+06    -55.9817E+06    -28.0284E+06    -16.1432E+06    -51.7962E+06    -20.5233E+06         22.3287
            2034     9.96793E-03     108.304E-03         2.18325        -1.02277        -2.31554         1.35113        -1.48342        -1.02277        -1.96231     20.2301E-03    -3.39066E-03    -16.8394E-03    -7.34059E-03     10.7312E-03    -3.39066E-03     32.3651E-03     9.00837E+06    -11.7817E+06    -29.5814E+06    -11.3829E+06    -6.07072E+06    -14.9011E+06    -13.4900E+06         23.1399
            2035     10.9607E-03     108.347E-03         2.32441    -834.900E-03        -2.57174     755.809E-03        -1.00313    -834.900E-03        -2.90561     26.5244E-03    -3.99091E-03    -22.5335E-03    -10.1380E-03     14.1289E-03    -3.99091E-03     42.6312E-03     23.7038E+06     8.22842E+06    -11.9751E+06     2.49518E+06    -213.201E+03     17.6751E+06    -9.52799E+06         24.3834
            2036     11.9489E-03     108.396E-03         2.38345    -677.708E-03        -2.71431         1.52500        -1.85585    -677.708E-03        -2.04795     33.2027E-03    -4.73484E-03    -28.4679E-03    -14.1026E-03     18.8375E-03    -4.73484E-03     52.0775E-03     40.6924E+06     24.3426E+06    -1.51612E+06     6.65194E+06     16.1745E+06     40.6924E+06    -5.66020E+06         26.3350
            2037     12.9339E-03     108.456E-03         1.61873    -538.523E-03        -2.07879         1.06399        -1.52406    -538.523E-03        -1.59099     41.5865E-03    -5.69996E-03    -35.8866E-03    -20.0328E-03     25.7327E-03    -5.69996E-03     62.4295E-03     43.6700E+06     30.1524E+06    -21.9157E+06    -3.95041E+06     12.1871E+06     43.6700E+06    -16.3853E+06         29.4210
            2038     13.9104E-03     108.520E-03     882.317E-03    -494.223E-03        -1.45530    -529.991E-03    -42.9886E-03    -494.223E-03    -494.694E-03     51.8040E-03    -6.91850E-03    -44.8855E-03    -27.1146E-03     34.0331E-03    -6.91850E-03     74.8357E-03     36.8192E+06     25.8955E+06    -35.2194E+06    -7.22416E+06     1.49775E+06     33.2217E+06    -22.2613E+06         34.2569
            2039     14.8817E-03     108.604E-03         1.03857    -491.937E-03        -1.70673     22.1649E-03    -690.330E-03    -491.937E-03     674.325E-03     60.7376E-03    -8.45296E-03    -52.2846E-03    -34.9274E-03     43.3803E-03    -8.45296E-03     81.1663E-03     31.9940E+06     21.1464E+06    -22.5946E+06     7.58921E+06    -3.95302E+06     26.9096E+06    -12.4132E+06         41.6263
            2040     15.8473E-03     108.680E-03         1.95673    -422.417E-03        -2.80817         1.81424        -2.66567    -422.417E-03         1.03441     73.8941E-03    -10.3429E-03    -63.5512E-03    -46.7812E-03     57.1241E-03    -10.3429E-03     89.8411E-03     31.1202E+06     5.98836E+06    -18.3448E+06     4.93352E+06     6.78896E+06     7.04132E+06    -7.51719E+06         52.3219
            2041     16.7968E-03     108.783E-03         2.17676    -303.509E-03        -3.30836         2.06790        -3.19950    -303.509E-03     848.442E-03     77.1912E-03    -12.8320E-03    -64.3592E-03    -55.3732E-03     68.2052E-03    -12.8320E-03     56.0407E-03     57.7079E+06     36.6999E+06    -7.16599E+06    -3.63402E+06     57.0547E+06     33.8211E+06    -2.88231E+06         65.2599
            2042     996.146E-06     109.194E-03         9.57119        -4.26777        -6.84312        -3.51163         8.07274        -6.10081         6.09092     6.95112E-03    -3.44808E-03    -3.50304E-03    -3.48318E-03     6.94836E-03    -3.46519E-03    -325.822E-06    -47.7140E+06    -95.5463E+06    -102.543E+06    -98.9912E+06    -50.2786E+06    -96.5333E+06    -10.1409E+06         20.7129
            2043     1.99278E-03     109.195E-03         7.51611        -4.15044        -4.99598        -4.09146         7.12544        -4.66428         1.78580     7.12144E-03    -3.51029E-03    -3.61115E-03    -3.60692E-03     7.11721E-03    -3.51029E-03    -382.444E-06    -38.8997E+06    -94.6765E+06    -102.751E+06    -96.2070E+06    -45.0595E+06    -95.0606E+06    -18.5222E+06         20.7455
            2044     2.98862E-03     109.197E-03         5.68388        -2.78370        -4.24071        -2.41109         5.28992        -4.21935         3.09696     7.37265E-03    -3.60379E-03    -3.76886E-03    -3.76479E-03     7.36858E-03    -3.60379E-03    -96.1591E-06    -31.1683E+06    -87.8299E+06    -101.965E+06    -92.7128E+06    -40.0368E+06    -88.2140E+06    -23.2504E+06         20.8015
            2045     3.98467E-03     109.202E-03         4.14113        -1.47023        -3.95760    -780.193E-03         3.06186        -3.56837         4.36996     7.55420E-03    -3.68678E-03    -3.86742E-03    -3.83368E-03     7.52436E-03    -3.69068E-03     648.425E-06    -24.2488E+06    -83.0491E+06    -102.870E+06    -90.0042E+06    -37.1144E+06    -83.0491E+06    -28.8955E+06         20.8863
            2046     4.98046E-03     109.208E-03         4.02234        -1.79587        -3.49014        -1.29614         3.07770        -3.04523         3.95886     7.63951E-03    -3.72341E-03    -3.91609E-03    -3.77284E-03     7.50015E-03    -3.72731E-03     1.97034E-03    -17.7703E+06    -82.6541E+06    -103.176E+06    -86.8142E+06    -34.1324E+06    -82.6541E+06    -33.5223E+06         21.0085
            2047     5.97688E-03     109.219E-03         3.39015        -1.72734        -2.91493     239.770E-03         1.14137        -2.63325         1.62179     8.00052E-03    -3.75472E-03    -4.24580E-03    -3.79248E-03     7.54721E-03    -3.75472E-03     3.99652E-03    -10.0967E+06    -79.7162E+06    -102.266E+06     -82.701E+06    -29.6619E+06    -79.7162E+06    -37.4228E+06         21.1815
            2048     6.97261E-03     109.233E-03         2.73063        -1.50271        -2.52554         2.08705        -1.28912        -2.09556    -362.624E-03     8.86052E-03    -3.79214E-03    -5.06838E-03    -3.90209E-03     7.69423E-03    -3.79214E-03     7.07620E-03    -3.54678E+06    -76.4011E+06    -104.150E+06    -80.3117E+06    -27.3847E+06    -76.4011E+06    -42.5577E+06         21.4260
            2049     7.96924E-03     109.255E-03         1.79600        -1.29080        -1.84217     929.778E-03    -633.244E-03        -1.63350    -161.177E-03     10.4259E-03    -3.82537E-03    -6.60051E-03    -4.17079E-03     7.99617E-03    -3.82537E-03     11.4052E-03     1.40415E+06    -75.6461E+06    -105.100E+06    -76.5423E+06    -26.0630E+06    -76.7369E+06    -45.7388E+06         21.7747
            2050     8.96483E-03     109.279E-03         1.61262        -1.20034        -1.67473     719.152E-03    -625.973E-03        -1.35563    -15.0700E-03     13.1429E-03    -3.92066E-03    -9.22222E-03    -4.79867E-03     8.71933E-03    -3.92066E-03     17.4935E-03     4.00795E+06    -63.8425E+06    -96.5551E+06    -64.8872E+06    -22.4500E+06    -69.0525E+06    -42.2195E+06         22.2826
            2051     9.96080E-03     109.316E-03         1.65960        -1.11590        -1.74481         1.40835        -1.49317        -1.11628        -1.49866     17.4748E-03    -4.17356E-03    -13.3013E-03    -6.09696E-03     10.2705E-03    -4.17356E-03     25.9652E-03     10.5276E+06    -36.1782E+06    -70.3788E+06    -44.3110E+06    -11.4211E+06    -40.2973E+06    -33.2483E+06         23.0438
            2052     10.9533E-03     109.357E-03         2.10718    -937.306E-03        -2.29601     361.881E-03    -550.327E-03    -937.685E-03        -3.55315     23.4668E-03    -4.57226E-03    -18.8945E-03    -8.33299E-03     12.9052E-03    -4.57226E-03     36.6332E-03     20.4326E+06    -10.1487E+06    -44.6023E+06    -22.9092E+06    -3.87993E+06    -7.52918E+06    -25.6202E+06         24.2229
            2053     11.9448E-03     109.415E-03         2.00799    -859.220E-03        -2.23345    -138.682E-03    -86.7809E-03    -859.220E-03        -3.80470     30.5333E-03    -5.15539E-03    -25.3779E-03    -11.9421E-03     17.0975E-03    -5.15539E-03     47.7566E-03     35.2820E+06     13.2017E+06    -18.6715E+06    -1.21441E+06     5.04451E+06     25.9821E+06    -14.4361E+06         26.0995
            2054     12.9311E-03     109.476E-03         1.07688    -792.209E-03        -1.45895     569.874E-03    -951.950E-03    -792.209E-03    -856.284E-03     39.6452E-03    -5.97598E-03    -33.6692E-03    -17.6195E-03     23.5955E-03    -5.97598E-03     60.5940E-03     50.4811E+06     33.8715E+06    -7.36333E+06     4.23233E+06     22.2758E+06     50.4811E+06    -624.875E+03         29.1257
            2055     13.9115E-03     109.557E-03     893.672E-03    -707.232E-03        -1.47259     715.117E-03        -1.29403    -707.232E-03     315.773E-03     50.4074E-03    -7.04243E-03    -43.3650E-03    -24.6618E-03     31.7042E-03    -7.04243E-03     74.8894E-03     43.1079E+06     31.0772E+06    -29.7450E+06    -12.3053E+06     13.6375E+06     43.1079E+06    -9.47090E+06         33.9695
            2056     14.8848E-03     109.640E-03     614.740E-03    -646.843E-03        -1.41915     141.858E-03    -946.267E-03    -646.843E-03    -238.798E-03     61.4646E-03    -8.45639E-03    -53.0082E-03    -33.7452E-03     42.2016E-03    -8.45639E-03     85.3987E-03     27.7502E+06     18.0136E+06    -40.4056E+06    -15.1977E+06    -7.19427E+06     27.7502E+06    -24.0677E+06         41.5793
            2057     15.8474E-03     109.739E-03     715.293E-03    -620.320E-03        -1.74696    -12.4034E-03        -1.01926    -620.320E-03    -228.911E-03     77.0008E-03    -10.2167E-03    -66.7842E-03    -45.3793E-03     55.5960E-03    -10.2167E-03     101.782E-03     20.5695E+06    -4.80644E+06    -33.2230E+06    -8.42956E+06    -8.37862E+06    -651.782E+03    -9.28456E+06         53.0010
            2058     16.7923E-03     109.860E-03         1.12909    -586.246E-03        -2.33858     644.407E-03        -1.85390    -586.246E-03     859.701E-03     82.0483E-03    -12.6547E-03    -69.3935E-03    -56.5684E-03     69.2231E-03    -12.6547E-03     69.9914E-03     57.6051E+06     24.9928E+06    -11.4008E+06      68.285E+03     46.0160E+06     25.1128E+06     1.84422E+06         68.0004
            2059     995.288E-06     110.203E-03         11.4170        -4.54987        -8.32173        -4.73737         10.3382        -7.05540     306.219E-03     9.68869E-03    -4.81006E-03    -4.87863E-03    -4.87425E-03     9.68431E-03    -4.81006E-03    -473.467E-06    -29.2140E+06    -70.6828E+06    -76.5865E+06    -72.5444E+06    -32.2690E+06    -71.6699E+06    -10.5423E+06         20.8072
            2060     1.98989E-03     110.203E-03         7.02762        -3.22940        -5.26556        -2.73466         6.53287        -5.26556     21.6317E-03     10.0354E-03    -4.92227E-03    -5.11313E-03    -5.10362E-03     10.0259E-03    -4.92227E-03    -753.803E-06    -22.7604E+06    -68.6306E+06    -79.1758E+06    -73.1725E+06    -28.7637E+06    -68.6306E+06    -17.0831E+06         20.8389
            2061     2.98463E-03     110.207E-03         4.91564        -2.13730        -4.21881        -1.72646         4.50480        -4.21881        -1.51181     10.4505E-03    -5.05398E-03    -5.39655E-03    -5.38629E-03     10.4403E-03    -5.05398E-03    -757.133E-06    -18.2525E+06    -67.8762E+06    -82.7096E+06    -73.0322E+06    -27.9299E+06    -67.8762E+06    -22.9478E+06         20.8928
            2062     3.97890E-03     110.211E-03         4.49058        -2.02816        -3.91732        -1.31391         3.38710        -3.52809         2.17281     10.9013E-03    -5.21913E-03    -5.68215E-03    -5.67545E-03     10.8946E-03    -5.21913E-03    -441.943E-06    -11.4797E+06    -62.3641E+06    -85.3405E+06    -72.4819E+06    -24.3383E+06    -62.3641E+06    -27.9737E+06         20.9736
            2063     4.97286E-03     110.218E-03         4.63878        -2.63641        -3.48245    -900.022E-03         2.45748        -3.03754         5.07909     11.3177E-03    -5.38840E-03    -5.92929E-03    -5.91087E-03     11.2993E-03    -5.38840E-03     293.492E-06    -5.19702E+06    -57.6357E+06    -90.6624E+06    -74.0678E+06    -21.7917E+06    -57.6357E+06    -33.7210E+06         21.0887
            2064     5.96660E-03     110.228E-03         3.42949        -2.15302        -2.79659         1.14536    -150.563E-03        -2.51491         2.19707     11.6131E-03    -5.52491E-03    -6.08816E-03    -6.00653E-03     11.5314E-03    -5.52491E-03     1.67341E-03    -1.41021E+06    -56.2567E+06    -92.9982E+06    -73.7868E+06    -20.6216E+06    -56.2567E+06    -37.2214E+06         21.2501
            2065     6.96053E-03     110.244E-03         2.26076        -1.43002        -2.36162         1.89863        -1.49788        -1.93163     709.274E-03     12.0022E-03    -5.65471E-03    -6.34752E-03    -6.05164E-03     11.7063E-03    -5.65471E-03     3.73876E-03     3.47512E+06    -51.4997E+06    -95.2561E+06    -73.9913E+06    -17.7897E+06    -51.4997E+06    -40.2251E+06         21.4766
            2066     7.95417E-03     110.262E-03         1.81625        -1.32924        -1.90826     732.364E-03    -638.176E-03        -1.51544     94.7090E-03     12.6766E-03    -5.77646E-03    -6.90018E-03    -6.11485E-03     11.8913E-03    -5.77646E-03     6.69576E-03     6.53200E+06    -47.3875E+06    -101.684E+06    -78.2438E+06    -16.9081E+06    -47.3875E+06    -44.2570E+06         21.7986
            2067     8.94814E-03     110.290E-03         1.66819        -1.30874        -1.65575    -138.618E-03     151.059E-03        -1.30874    -525.533E-03     13.9321E-03    -5.87681E-03    -8.05529E-03    -6.23948E-03     12.1163E-03    -5.87681E-03     11.0262E-03     6.77103E+06    -47.7868E+06    -108.970E+06    -82.2661E+06    -19.9332E+06    -47.7868E+06    -48.4271E+06         22.2677
            2068     9.94163E-03     110.323E-03         1.52108        -1.19733        -1.46158    -260.256E-03     320.134E-03        -1.19771        -1.28415     16.3623E-03    -5.99242E-03    -10.3698E-03    -6.57813E-03     12.5706E-03    -5.99242E-03     17.7357E-03     9.87107E+06    -43.0073E+06    -104.699E+06    -79.2713E+06    -15.5569E+06    -43.0073E+06    -47.1204E+06         22.9736
            2069     10.9362E-03     110.372E-03         1.76404        -1.06440        -1.74819    -40.1627E-03     100.003E-03        -1.10839        -2.81145     20.4893E-03    -6.20080E-03    -14.2885E-03    -7.65439E-03     13.8552E-03    -6.20080E-03     26.8057E-03     14.4793E+06    -26.5906E+06    -91.6391E+06    -70.3974E+06    -6.76245E+06    -26.5906E+06    -42.0870E+06         24.0764
            2070     11.9280E-03     110.426E-03         1.84160        -1.00330        -1.93503    -503.791E-03     453.972E-03        -1.04691        -3.35163     26.5945E-03    -6.56507E-03    -20.0294E-03    -10.1564E-03     16.7215E-03    -6.56507E-03     37.8605E-03     16.8567E+06    -9.83135E+06    -76.3078E+06    -55.2239E+06    -9.31692E+06    -4.74159E+06    -34.2070E+06         25.8560
            2071     12.9167E-03     110.500E-03         1.28204    -906.354E-03        -1.55609    -311.436E-03     141.346E-03        -1.01031        -1.59562     35.1587E-03    -7.14356E-03    -28.0151E-03    -14.3014E-03     21.4449E-03    -7.14356E-03     52.0614E-03     31.4763E+06     13.5605E+06    -47.2606E+06    -28.1219E+06    -459.399E+03     26.3576E+06    -13.9077E+06         28.7751
            2072     13.9006E-03     110.581E-03         1.12449    -840.839E-03        -1.69266     707.205E-03        -1.17142    -944.797E-03    -930.523E-03     46.0803E-03    -7.98280E-03    -38.0975E-03    -20.8200E-03     28.8028E-03    -7.98280E-03     67.9548E-03     53.5006E+06     40.6831E+06    -29.1027E+06    -10.9769E+06     23.7971E+06     52.2609E+06     6.65275E+06         33.5537
            2073     14.8777E-03     110.682E-03         1.04673    -863.954E-03        -1.75548     615.508E-03        -1.32426    -863.954E-03        -1.31998     58.9153E-03    -9.11500E-03    -49.8003E-03    -29.7249E-03     38.8399E-03    -9.11500E-03     84.1997E-03     40.9339E+06     35.0588E+06    -45.0052E+06    -25.2069E+06     16.5002E+06     39.6942E+06    -5.38723E+06         41.1817
            2074     15.8417E-03     110.792E-03     645.414E-03    -829.857E-03        -1.49077    -436.580E-03    -408.774E-03    -829.857E-03    -582.858E-03     73.3817E-03    -10.4998E-03    -62.8819E-03    -37.9591E-03     48.4589E-03    -10.4998E-03     105.198E-03     22.3151E+06    -3.71014E+06    -71.2203E+06    -28.6091E+06    -21.0609E+06    -2.94526E+06    -27.3809E+06         53.0646
            2075     16.8153E-03     110.920E-03     604.450E-03    -826.968E-03        -1.79083    -379.222E-03    -807.161E-03    -826.968E-03     115.762E-03     84.6251E-03    -12.5802E-03    -72.0449E-03    -54.8142E-03     67.3945E-03    -12.5802E-03     88.7912E-03     64.7505E+06     13.7115E+06    -41.4058E+06    -5.18302E+06     30.5689E+06     11.6703E+06    -12.1864E+06         69.5913
            2076     993.374E-06     111.213E-03         11.3716        -4.47738        -8.42040        -6.41658         10.0403        -5.14987     653.088E-03     13.0718E-03    -6.46267E-03    -6.60911E-03    -6.55378E-03     13.0669E-03    -6.51314E-03    -579.319E-06    -13.7452E+06    -46.1622E+06    -52.1654E+06    -48.3722E+06    -16.3057E+06    -47.3949E+06    -7.90448E+06         20.9000
            2077     1.98681E-03     111.216E-03         7.55934        -2.97136        -5.95675        -3.21922         7.11926        -5.26880        -1.16327     13.5386E-03    -6.63117E-03    -6.90747E-03    -6.89602E-03     13.5272E-03    -6.63117E-03    -954.231E-06    -10.1568E+06    -47.5276E+06    -55.8426E+06    -51.3980E+06    -14.6013E+06    -47.5276E+06    -13.2793E+06         20.9317
            2078     2.97946E-03     111.219E-03         5.43821        -2.56861        -4.37666        -2.09851         4.96811        -4.37666        -1.82222     14.1863E-03    -6.82932E-03    -7.35700E-03    -7.34007E-03     14.1694E-03    -6.82932E-03    -1.20443E-03    -7.56719E+06    -46.4905E+06    -62.8366E+06    -54.9157E+06    -15.4880E+06    -46.4905E+06    -19.2349E+06         20.9852
            2079     3.97178E-03     111.224E-03         4.66901        -2.54721        -3.66964        -1.04514         3.16694        -3.66964     297.467E-03     14.9582E-03    -7.07038E-03    -7.88782E-03    -7.87114E-03     14.9415E-03    -7.07038E-03    -1.22071E-03    -3.85528E+06    -43.9600E+06    -68.1774E+06    -58.0453E+06    -13.9873E+06    -43.9600E+06    -23.3964E+06         21.0642
            2080     4.96351E-03     111.231E-03         3.80575        -1.83848        -3.69720         2.34197        -1.24761        -2.82430         2.79498     15.8170E-03    -7.35605E-03    -8.46093E-03    -8.45013E-03     15.8062E-03    -7.35605E-03    -949.812E-06     1.67486E+06    -37.9415E+06    -71.9942E+06    -60.3860E+06    -9.93333E+06    -37.9415E+06    -26.7067E+06         21.1754
            2081     5.95435E-03     111.243E-03         2.67127        -1.58468        -2.87439         1.62493        -1.41124        -2.00149         2.53967     16.5809E-03    -7.64846E-03    -8.93242E-03    -8.92152E-03     16.5700E-03    -7.64846E-03    -291.558E-06     2.88248E+06    -35.3248E+06    -79.4457E+06    -64.4623E+06    -12.1010E+06    -35.3248E+06    -31.4794E+06         21.3291
            2082     6.94530E-03     111.257E-03         1.15883        -1.05410        -1.76996    -452.891E-03     398.294E-03        -1.61063         1.79657     17.2014E-03    -7.91839E-03    -9.28297E-03    -9.25030E-03     17.1687E-03    -7.91839E-03     911.736E-06     3.90821E+06    -33.9336E+06    -82.5616E+06    -67.8031E+06    -10.8502E+06    -33.9336E+06    -32.2204E+06         21.5423
            2083     7.93553E-03     111.278E-03         1.50974        -1.19980        -1.78605    -138.804E-03     105.262E-03        -1.44256     796.782E-03     17.9262E-03    -8.19913E-03    -9.72703E-03    -9.59362E-03     17.7927E-03    -8.19913E-03     2.72696E-03     6.01205E+06    -28.4380E+06    -87.2684E+06    -73.0389E+06    -8.21747E+06    -28.4380E+06    -32.8701E+06         21.8428
            2084     8.92560E-03     111.303E-03         1.70871        -1.27070        -1.66152    -705.998E-03     809.755E-03        -1.32727    -585.268E-03     18.8998E-03    -8.47649E-03    -10.4233E-03    -10.0244E-03     18.5009E-03    -8.47649E-03     5.35097E-03     6.94882E+06    -25.9647E+06    -97.2673E+06    -80.7299E+06    -9.58858E+06    -25.9647E+06    -37.3189E+06         22.2783
            2085     9.91550E-03     111.340E-03         2.17697        -1.28952        -1.95352        -1.14522         1.36868        -1.28952        -2.29665     20.1378E-03    -8.74340E-03    -11.3944E-03    -10.3191E-03     19.0625E-03    -8.74340E-03     9.12614E-03     6.93666E+06    -26.8613E+06    -107.737E+06    -88.5231E+06    -12.2771E+06    -26.8613E+06    -42.3844E+06         22.9333
            2086     10.9049E-03     111.383E-03         1.70316    -942.433E-03        -1.75862    -309.619E-03     556.453E-03        -1.24473        -2.60364     21.7482E-03    -9.02265E-03    -12.7255E-03    -10.4074E-03     19.4300E-03    -9.02265E-03     14.8182E-03     9.97530E+06    -21.5110E+06    -111.927E+06    -94.4104E+06    -7.54122E+06    -21.5110E+06    -41.5783E+06         23.9616
            2087     11.8945E-03     111.444E-03         1.10500    -696.760E-03        -1.42116    -340.319E-03     500.022E-03        -1.17263        -1.43966     24.6251E-03    -9.30007E-03    -15.3250E-03    -10.9401E-03     20.2401E-03    -9.30007E-03     23.0124E-03     4.70163E+06    -20.4878E+06    -117.072E+06    -101.621E+06    -10.7494E+06    -20.4878E+06    -39.8594E+06         25.6382
            2088     12.8837E-03     111.514E-03         1.32867    -863.412E-03        -1.67227        -1.08240         1.01633        -1.14094    -820.883E-03     30.2584E-03    -9.69607E-03    -20.5623E-03    -12.9653E-03     22.6614E-03    -9.69607E-03     34.7381E-03     3.00861E+06    -14.7917E+06    -110.939E+06    -94.9061E+06    -19.1115E+06    -8.70404E+06    -37.4660E+06         28.4285
            2089     13.8716E-03     111.607E-03         1.25329    -973.195E-03        -1.63379    -729.215E-03     508.115E-03        -1.13260    -316.683E-03     38.5044E-03    -10.2415E-03    -28.2629E-03    -16.6294E-03     26.8709E-03    -10.2415E-03     50.0141E-03     21.8704E+06     7.98069E+06    -85.8020E+06    -64.1687E+06    -5.85051E+06     14.0683E+06    -16.8185E+06         33.0606
            2090     14.8507E-03     111.714E-03         1.02823        -1.03444        -1.55240     218.010E-03    -686.739E-03        -1.08988    -28.7947E-03     48.8728E-03    -10.9617E-03    -37.9112E-03    -21.4916E-03     32.4533E-03    -10.9617E-03     67.9269E-03     48.4435E+06     37.2772E+06    -46.0167E+06    -26.1299E+06     27.8947E+06     37.9392E+06     8.09733E+06         40.5737
            2091     15.8324E-03     111.834E-03         1.04576        -1.02387        -1.52761     332.841E-03    -814.684E-03        -1.02387         1.45538     62.7288E-03    -11.9292E-03    -50.7996E-03    -29.9773E-03     41.9065E-03    -11.9292E-03     87.6937E-03     49.6211E+06     22.6272E+06    -61.0124E+06    -33.7798E+06     21.7265E+06     23.2892E+06    -13.6278E+06         52.2317
            2092     16.7932E-03     111.966E-03         1.49266    -949.652E-03        -1.72573     550.215E-03    -783.285E-03    -949.652E-03         1.71193     77.3150E-03    -13.3408E-03    -63.9742E-03    -44.8874E-03     58.2282E-03    -13.3408E-03     93.2129E-03     54.0304E+06    -21.9919E+06    -104.092E+06    -62.8992E+06     14.8789E+06    -24.0331E+06    -47.0743E+06         69.6583
            2093     991.736E-06     112.229E-03         7.13139        -3.08800        -5.99604        -3.86360         5.90281        -3.99185         1.37594     17.0547E-03    -8.43353E-03    -8.62121E-03    -8.56768E-03     17.0517E-03    -8.48400E-03    -505.235E-06    -4.14022E+06    -23.3297E+06    -27.0503E+06    -24.1608E+06    -5.52600E+06    -24.8335E+06    -3.80208E+06         20.9681
            2094     1.98274E-03     112.231E-03         6.65337        -2.94361        -5.21385        -3.76835         6.15605        -3.89179        -1.90472     17.5955E-03    -8.63118E-03    -8.96434E-03    -8.95686E-03     17.5880E-03    -8.63118E-03    -834.350E-06    -2.33958E+06    -24.8729E+06    -31.7917E+06    -29.0155E+06    -4.84465E+06    -25.1440E+06    -8.00232E+06         21.0003
            2095     2.97365E-03     112.235E-03         5.32736        -2.46189        -4.28031        -2.40153         4.63288        -3.64619         1.91379     18.5365E-03    -8.89712E-03    -9.63936E-03    -9.62677E-03     18.5239E-03    -8.89712E-03    -1.13893E-03    -1.64865E+06    -21.9607E+06    -38.3951E+06    -34.5286E+06    -5.51519E+06    -21.9607E+06    -11.0403E+06         21.0540
            2096     3.96344E-03     112.241E-03         3.06307        -1.80553        -3.06731    -163.638E-03         1.42118        -3.06731         1.56487     19.6948E-03    -9.23379E-03    -10.4610E-03    -10.4452E-03     19.6790E-03    -9.23379E-03    -1.34241E-03    -387.476E+03    -20.7742E+06    -45.9953E+06    -40.6720E+06    -5.71078E+06    -20.7742E+06    -14.3889E+06         21.1329
            2097     4.95239E-03     112.250E-03         2.65249        -1.44175        -3.20627         1.30878    -970.945E-03        -2.33337         1.18146     20.9987E-03    -9.62449E-03    -11.3743E-03    -11.3589E-03     20.9834E-03    -9.62449E-03    -1.39123E-03     1.32455E+06    -20.2031E+06    -53.2089E+06    -47.6191E+06    -4.26525E+06    -20.2031E+06    -16.1887E+06         21.2425
            2098     5.94068E-03     112.262E-03         2.58000        -1.64880        -2.98639     958.642E-03        -1.27109        -1.74274         1.60461     22.5006E-03    -10.0873E-03    -12.4133E-03    -12.4003E-03     22.4876E-03    -10.0873E-03    -1.33789E-03     3.14050E+06    -15.9760E+06    -62.1124E+06    -55.6124E+06    -3.35950E+06    -15.9760E+06    -18.3544E+06         21.3924
            2099     6.92707E-03     112.278E-03         1.95136        -1.40002        -2.28612    -554.041E-03     274.203E-03        -1.45494     88.5493E-03     24.0098E-03    -10.5831E-03    -13.4267E-03    -13.4149E-03     23.9980E-03    -10.5831E-03    -1.07991E-03     1.72239E+06    -14.3932E+06    -71.9003E+06    -64.7597E+06    -5.41821E+06    -14.3932E+06    -20.5354E+06         21.5979
            2100     7.91361E-03     112.298E-03         2.15510        -1.35037        -2.12902        -1.64681         1.72947        -1.40693    -309.661E-03     25.6055E-03    -11.0962E-03    -14.5094E-03    -14.4937E-03     25.5899E-03    -11.0962E-03    -571.367E-06     2.10949E+06    -13.6425E+06    -77.4643E+06    -71.3307E+06    -4.02420E+06    -13.6425E+06    -20.7159E+06         21.8850
            2101     8.89822E-03     112.327E-03         1.62337        -1.04969        -1.70240        -1.30790         1.59708        -1.41791    -102.443E-03     27.5078E-03    -11.6743E-03    -15.8335E-03    -15.7921E-03     27.4664E-03    -11.6743E-03     183.951E-06     4.73705E+06    -10.6955E+06    -87.0168E+06    -80.4900E+06    -2.96845E+06    -9.51680E+06    -22.1237E+06         22.2981
            2102     9.88109E-03     112.361E-03         1.62940    -827.751E-03        -1.80392    -546.999E-03     917.577E-03        -1.37286        -1.93918     29.2607E-03    -12.2801E-03    -16.9806E-03    -16.8914E-03     29.1715E-03    -12.2801E-03     1.25804E-03     4.94220E+06    -9.99534E+06    -98.1890E+06    -90.4493E+06    -3.97627E+06    -8.81663E+06    -24.3795E+06         22.9173
            2103     10.8629E-03     112.408E-03         1.39111    -714.791E-03        -1.69699    -331.239E-03     599.341E-03        -1.28877        -2.10518     30.3377E-03    -12.8567E-03    -17.4810E-03    -17.1846E-03     30.0413E-03    -12.8567E-03     3.26496E-03     837.242E+03    -14.3052E+06    -109.737E+06    -102.621E+06    -6.54490E+06    -14.0383E+06    -25.3458E+06         23.8914
            2104     11.8456E-03     112.463E-03     800.631E-03    -701.298E-03        -1.22922    -495.390E-03     580.896E-03        -1.21540    -123.763E-03     31.4979E-03    -13.4264E-03    -18.0715E-03    -17.2998E-03     30.7261E-03    -13.4264E-03     6.59712E-03     5.22158E+06    -11.4809E+06    -116.708E+06    -109.209E+06    -2.54436E+06    -11.2140E+06    -26.8734E+06         25.4872
            2105     12.8283E-03     112.538E-03         1.20308    -900.865E-03        -1.47693        -1.03464         1.04024        -1.18031     490.283E-03     32.9679E-03    -13.9762E-03    -18.9917E-03    -17.2784E-03     31.2546E-03    -13.9762E-03     12.0901E-03    -2.84240E+06    -13.4527E+06    -129.709E+06    -120.151E+06    -12.3997E+06    -13.4527E+06    -31.1359E+06         28.1661
            2106     13.8072E-03     112.628E-03         1.21136        -1.01700        -1.51997        -1.30302         1.15572        -1.17832     490.818E-03     33.9177E-03    -13.8378E-03    -20.0799E-03    -15.7254E-03     30.1178E-03    -14.3924E-03     21.4343E-03    -2.75624E+06    -25.5204E+06    -142.025E+06    -128.116E+06    -16.6649E+06    -25.5204E+06    -39.9204E+06         32.6555
            2107     14.7965E-03     112.737E-03         1.41591        -1.11971        -1.59532    -973.049E-03     849.087E-03        -1.17515         1.42614     39.9007E-03    -14.3036E-03    -25.5971E-03    -18.3222E-03     33.1804E-03    -14.8581E-03     33.9348E-03     11.9941E+06    -23.8194E+06    -132.532E+06    -112.458E+06    -8.08061E+06    -23.8194E+06    -28.1293E+06         39.9806
            2108     15.7766E-03     112.863E-03         1.87008        -1.12514        -2.11360     356.832E-03    -600.345E-03        -1.12514         2.29410     49.5695E-03    -15.6724E-03    -33.8970E-03    -25.0948E-03     40.7672E-03    -15.6724E-03     44.5179E-03     55.5811E+06    -2.11658E+06    -111.918E+06    -100.366E+06     44.0289E+06    -2.11658E+06    -9.52348E+06         51.1075
            2109     16.7482E-03     113.022E-03         2.46804    -916.884E-03        -1.95099         1.70886        -1.10262        -1.00608         1.41592     48.3102E-03    -10.0887E-03    -38.2215E-03    -21.2713E-03     37.5575E-03    -16.2862E-03     50.2484E-03     63.6614E+06    -58.8016E+06    -158.203E+06    -124.518E+06     29.9759E+06    -58.8016E+06    -10.1780E+06         67.4487


