********************************************************************************
Field Output Report, written Mon Apr 21 02:03:42 2025

Source 1
---------

   ODB: F:/Abaqus_calc/Vel_20/odb/Correct/1020_2a_32_rd_150_cal_10_v_20_f_025.odb
   Step: Step-1
   Frame: Increment   4096992: Step Time =   0.5175

Loc 1 : Nodal values from source 1

Output sorted by column "Nodal Label".

Field Output reported at nodes for region: DIE_2A_32_D0_36-1.Region_1
   Computation algorithm: EXTRAPOLATE_COMPUTE_AVERAGE
   Averaged at nodes
   Averaging regions: ODB_REGIONS

      Node Label  COORD.Magnitude     COORD.COOR1     COORD.COOR2
                          @Loc 1          @Loc 1          @Loc 1
------------------------------------------------------------------
               1     167.583E-03     22.6170E-03     166.050E-03


Field Output reported at nodes for region: DIE_2A_32_D0_36-1.Region_2
   Computation algorithm: EXTRAPOLATE_COMPUTE_AVERAGE
   Averaged at nodes
   Averaging regions: ODB_REGIONS

      Node Label  COORD.Magnitude     COORD.COOR1     COORD.COOR2
                          @Loc 1          @Loc 1          @Loc 1
------------------------------------------------------------------
               1     167.583E-03     22.6170E-03     166.050E-03


Field Output reported at nodes for part: WIRE_1-1
   Computation algorithm: EXTRAPOLATE_COMPUTE_AVERAGE
   Averaged at nodes
   Averaging regions: ODB_REGIONS

      Node Label  COORD.Magnitude     COORD.COOR1     COORD.COOR2    PE.Max. Prin    PE.Mid. Prin    PE.Min. Prin         PE.PE11         PE.PE22         PE.PE33         PE.PE12            PEEQ         S.Mises     S.Max. Prin     S.Mid. Prin     S.Min. Prin           S.S11           S.S22           S.S33           S.S12
                          @Loc 1          @Loc 1          @Loc 1          @Loc 1          @Loc 1          @Loc 1          @Loc 1          @Loc 1          @Loc 1          @Loc 1          @Loc 1          @Loc 1          @Loc 1          @Loc 1          @Loc 1          @Loc 1          @Loc 1          @Loc 1          @Loc 1
----------------------------------------------------------------------------------------------------------------------------------------------------------------------------------------------------------------------------------------------------------------------------------------------------------------------------------
               1     60.4921E-03     17.7113E-03     57.8412E-03     236.363E-03    -17.0875E-03    -219.319E-03    -41.4326E-03     58.4770E-03    -17.0875E-03     444.591E-03     719.176E-03     208.638E+06     234.368E+06     145.855E+06    -3.93368E+06    -3.93239E+06     234.367E+06     145.855E+06     51.5935E+03
               2     56.6484E-03    -45.5582E-09     56.6484E-03     34.2932E-03    -17.0279E-03    -17.2652E-03    -17.2606E-03     34.2886E-03    -17.0279E-03     942.528E-06     34.8247E-03     187.135E+06     1.72020E+06    -1.99144E+06    -187.240E+06    -763.067E+03    -187.235E+06     487.547E+03    -876.664E+03
               3     975.593E-09     974.568E-09    -44.7035E-09     50.8735E-03    -25.1842E-03    -25.6899E-03    -25.6898E-03     50.8734E-03    -25.1842E-03    -189.558E-06     52.5634E-03     179.352E+06    -27.0775E+06    -29.7015E+06    -207.727E+06    -29.8106E+06    -207.618E+06    -27.0775E+06    -4.40605E+06
               4     17.6093E-03     17.6093E-03    -44.7035E-09     165.521E-03    -18.5586E-03    -147.310E-03    -124.752E-03     142.963E-03    -18.5586E-03     161.840E-03     231.412E-03     179.841E+06     219.967E+06     121.764E+06     12.4048E+06     13.1512E+06     219.221E+06     121.764E+06     12.4247E+06
               5     115.872E-03     17.3790E-03     114.562E-03     14.4079E-03     12.0665E-03    -26.4825E-03     13.0922E-03     13.3822E-03    -26.4825E-03     2.32337E-03     26.6558E-03     116.013E+06     28.7089E+06    -14.9992E+06    -102.809E+06     28.6950E+06    -14.9854E+06    -102.809E+06     778.335E+03
               6     113.140E-03     3.43893E-06     113.140E-03     21.8767E-03    -10.2837E-03    -11.5933E-03    -11.5856E-03     21.8690E-03    -10.2837E-03    -1.01730E-03     21.8995E-03     40.2685E+06     28.2105E+06     24.0554E+06    -13.9744E+06     22.4505E+06    -12.3695E+06     28.2105E+06    -7.64578E+06
               7     59.7211E-03     16.7240E-03     57.3317E-03     230.598E-03    -16.9753E-03    -213.642E-03    -43.9756E-03     60.9317E-03    -16.9753E-03     431.599E-03     627.036E-03     197.554E+06     217.697E+06     108.829E+06    -8.31090E+06    -8.30983E+06     217.696E+06     108.829E+06     110.009E+03
               8     59.0213E-03     15.7392E-03     56.8840E-03     143.983E-03    -16.6391E-03    -127.342E-03    -32.5150E-03     49.1560E-03    -16.6391E-03     257.287E-03     335.070E-03     170.773E+06     167.071E+06     29.6705E+06    -21.2862E+06    -12.5147E+06     167.010E+06     20.9595E+06     218.542E+03
               9     58.6687E-03     14.7557E-03     56.7828E-03     49.1469E-03    -16.3268E-03    -32.8194E-03    -17.3200E-03     33.6475E-03    -16.3268E-03     59.9486E-03     111.024E-03     131.674E+06     88.7097E+06    -11.0650E+06    -55.1151E+06    -10.9280E+06     88.5727E+06    -55.1151E+06    -2.96188E+03
              10     58.4047E-03     13.7705E-03     56.7582E-03     34.4906E-03    -16.3205E-03    -18.1635E-03    -16.1894E-03     32.5165E-03    -16.3205E-03     19.5733E-03     75.2781E-03     82.2012E+06     24.1812E+06    -7.61578E+06    -68.2856E+06    -5.84823E+06     22.4137E+06    -68.2856E+06    -688.850E+03
              11     58.1653E-03     12.7873E-03     56.7422E-03     33.6322E-03    -16.5009E-03    -17.1469E-03    -16.2513E-03     32.7366E-03    -16.5009E-03     13.2231E-03     59.6463E-03     45.5206E+06     2.34384E+06    -17.0553E+06    -47.0459E+06    -1.05360E+06    -18.3177E+06    -42.3861E+06     530.076E+03
              12     57.9451E-03     11.8023E-03     56.7305E-03     33.5760E-03    -16.6356E-03    -16.9813E-03    -16.3591E-03     32.9538E-03    -16.6356E-03     11.1426E-03     53.8984E-03     51.3719E+06     27.6612E+03    -27.9861E+06    -57.7705E+06    -263.139E+03    -57.4797E+06    -27.9861E+06     1.82432E+06
              13     57.7418E-03     10.8189E-03     56.7192E-03     33.7893E-03    -16.7107E-03    -17.1204E-03    -16.5225E-03     33.1915E-03    -16.7107E-03     10.9627E-03     50.2276E-03     76.8772E+06    -147.383E+03    -22.1627E+06    -85.3045E+06    -164.039E+03    -85.2879E+06    -22.1627E+06     878.700E+03
              14     57.5540E-03     9.83473E-03     56.7075E-03     33.8973E-03    -16.8003E-03    -17.1212E-03    -16.6162E-03     33.3923E-03    -16.8003E-03     10.0689E-03     46.5239E-03     97.4570E+06     1.42074E+06    -10.1013E+06    -101.080E+06     1.41100E+06    -101.071E+06    -10.1013E+06     187.283E+03
              15     57.3850E-03     8.85155E-03     56.6982E-03     33.9303E-03    -16.8734E-03    -17.0607E-03    -16.6590E-03     33.5285E-03    -16.8734E-03     9.01252E-03     43.5329E-03     117.620E+06     2.16011E+06    -3.41154E+06    -118.131E+06     2.13037E+06    -118.101E+06    -3.41154E+06    -300.178E+03
              16     57.2319E-03     7.86736E-03     56.6886E-03     33.9732E-03    -16.9323E-03    -17.0452E-03    -16.6983E-03     33.6329E-03    -16.9389E-03     8.29164E-03     41.2363E-03     135.765E+06     3.25301E+06    -317.717E+03    -134.246E+06     2.27031E+06    -134.195E+06     614.093E+03     428.198E+03
              17     57.0973E-03     6.88391E-03     56.6808E-03     34.0709E-03    -16.9967E-03    -17.0788E-03    -16.7808E-03     33.7865E-03    -17.0103E-03     7.60206E-03     39.4714E-03     150.511E+06     6.58555E+06     3.46414E+06    -145.456E+06     3.42836E+06    -145.421E+06     6.58555E+06     1.51698E+06
              18     56.9791E-03     5.90008E-03     56.6729E-03     34.1787E-03    -17.0503E-03    -17.1317E-03    -16.8879E-03     33.9424E-03    -17.0579E-03     6.93110E-03     38.0395E-03     162.458E+06     7.35726E+06     3.69643E+06    -156.896E+06     3.68749E+06    -156.887E+06     7.35726E+06     1.06808E+06
              19     56.8789E-03     4.91693E-03     56.6660E-03     34.2234E-03    -17.0789E-03    -17.1456E-03    -16.9552E-03     34.0442E-03    -17.0901E-03     6.04052E-03     36.8388E-03     171.128E+06     5.17714E+06     3.07312E+06    -166.990E+06     3.14027E+06    -166.987E+06     5.10708E+06     462.664E+03
              20     56.7967E-03     3.93308E-03     56.6604E-03     34.3163E-03    -17.1072E-03    -17.2098E-03    -17.0722E-03     34.1894E-03    -17.1179E-03     5.07845E-03     35.9752E-03     179.512E+06     4.00258E+06     2.66714E+06    -176.172E+06     2.96527E+06    -176.168E+06     3.70049E+06     275.745E+03
              21     56.7325E-03     2.95019E-03     56.6557E-03     34.3726E-03    -17.1241E-03    -17.2481E-03    -17.1686E-03     34.2930E-03    -17.1241E-03     4.01171E-03     35.3203E-03     185.740E+06     3.73561E+06     2.25838E+06    -182.738E+06     3.02819E+06    -182.731E+06     2.95826E+06     447.363E+03
              22     56.6859E-03     1.96679E-03     56.6517E-03     34.2617E-03    -17.0868E-03    -17.1742E-03    -17.0982E-03     34.2227E-03    -17.1238E-03     2.73574E-03     34.7590E-03     188.680E+06     4.03228E+06     1.71493E+06    -185.792E+06     2.25530E+06    -185.787E+06     3.48697E+06     396.922E+03
              23     56.6583E-03     983.221E-06     56.6498E-03     34.2415E-03    -17.0433E-03    -17.1989E-03    -17.1497E-03     34.2292E-03    -17.0803E-03     1.47577E-03     34.6827E-03     189.479E+06     3.12838E+06    -270.212E+03    -188.023E+06     343.809E+03    -188.021E+06     2.51206E+06    -344.946E+03
              24     55.6151E-03     63.2920E-09     55.6151E-03     34.0849E-03    -17.0150E-03    -17.0690E-03    -17.0646E-03     34.0805E-03    -17.0150E-03     920.111E-06     34.5397E-03     186.953E+06    -44.5124E+03    -2.55692E+06    -188.241E+06    -1.33704E+06    -188.228E+06    -1.27716E+06    -1.38664E+06
              25     54.5807E-03     23.6056E-09     54.5807E-03     34.1043E-03    -16.9564E-03    -17.1474E-03    -17.1426E-03     34.0994E-03    -16.9564E-03     980.490E-06     34.6656E-03     186.392E+06    -783.236E+03    -3.56297E+06    -188.550E+06    -2.07488E+06    -188.538E+06    -2.28321E+06    -810.501E+03
              26     53.5480E-03     259.267E-09     53.5480E-03     33.9706E-03    -16.8639E-03    -17.1065E-03    -17.0152E-03     33.9677E-03    -16.9524E-03     764.709E-06     34.6457E-03     186.254E+06    -354.397E+03    -3.82318E+06    -188.318E+06    -2.32534E+06    -188.315E+06    -1.85437E+06     602.659E+03
              27     52.5130E-03    -404.318E-09     52.5130E-03     33.6000E-03    -16.7449E-03    -16.8527E-03    -16.7612E-03     33.5969E-03    -16.8333E-03     786.078E-06     34.1923E-03     187.159E+06     2.84617E+06    -2.89006E+06    -187.109E+06     859.289E+03    -187.091E+06    -921.243E+03     1.64348E+06
              28     51.4818E-03     393.113E-09     51.4818E-03     33.8044E-03    -16.8361E-03    -16.9673E-03    -16.9643E-03     33.8014E-03    -16.8361E-03     770.912E-06     34.3237E-03     187.791E+06     7.30250E+06    -1.23353E+06    -184.609E+06     2.47522E+06    -184.550E+06     3.53509E+06    -704.682E+03
              29     50.4466E-03    -106.946E-09     50.4466E-03     34.0197E-03    -16.8948E-03    -17.1246E-03    -17.1204E-03     34.0155E-03    -16.8948E-03     901.371E-06     34.5271E-03     186.806E+06     4.32209E+06    -3.99801E+06    -186.503E+06    -492.607E+03    -186.456E+06     770.603E+03    -1.35588E+06
              30     49.4131E-03     290.638E-09     49.4131E-03     33.6331E-03    -16.7084E-03    -16.9241E-03    -16.8191E-03     33.6258E-03    -16.8062E-03     1.20451E-03     34.1141E-03     187.104E+06     2.87156E+06    -2.69561E+06    -186.949E+06     842.110E+03    -186.935E+06    -679.927E+03    -354.300E+03
              31     48.3802E-03    -459.318E-09     48.3802E-03     32.9514E-03    -16.3909E-03    -16.5598E-03    -16.4579E-03     32.9472E-03    -16.4887E-03     712.064E-06     33.4429E-03     188.586E+06     2.53818E+06    -2.82069E+06    -188.667E+06     510.538E+03    -188.655E+06    -805.007E+03    -514.786E+03
              32     47.3488E-03     559.645E-09     47.3488E-03     32.8716E-03    -16.3125E-03    -16.5583E-03    -16.5553E-03     32.8686E-03    -16.3125E-03     611.110E-06     33.3875E-03     188.000E+06     3.15735E+06    -4.54916E+06    -188.575E+06    -1.21117E+06    -188.570E+06    -185.836E+03     979.464E+03
              33     46.3158E-03    -159.078E-09     46.3158E-03     33.4986E-03    -16.6049E-03    -16.8931E-03    -16.7746E-03     33.4936E-03    -16.7185E-03     992.274E-06     34.0115E-03     188.341E+06     8.35628E+06    -676.028E+03    -184.338E+06     3.98757E+06    -184.332E+06      3.6873E+06     68.5352E+03
              34     45.2814E-03    -124.231E-09     45.2814E-03     33.6125E-03    -16.6735E-03    -16.9383E-03    -16.8216E-03     33.6094E-03    -16.7871E-03     785.255E-06     34.1218E-03     187.424E+06     5.36769E+06    -3.86627E+06    -186.503E+06      800.47E+03    -186.500E+06     698.710E+03    -438.810E+03
              35     44.2494E-03     485.153E-09     44.2494E-03     33.5175E-03    -16.6661E-03    -16.8507E-03    -16.8459E-03     33.5127E-03    -16.6661E-03     949.908E-06     34.0220E-03     186.548E+06     3.17363E+06    -4.07935E+06    -186.888E+06    -1.39724E+06    -186.882E+06     485.625E+03    -722.208E+03
              36     43.2155E-03    -457.536E-09     43.2155E-03     33.6225E-03    -16.7808E-03    -16.8408E-03    -16.8348E-03     33.6166E-03    -16.7808E-03     1.08513E-03     34.1625E-03     186.706E+06     1.13645E+06    -3.42381E+06    -187.806E+06    -751.780E+03    -187.791E+06    -1.55156E+06    -1.71080E+06
              37     42.1818E-03     535.476E-09     42.1818E-03     33.3212E-03    -16.5738E-03    -16.7468E-03    -16.7422E-03     33.3166E-03    -16.5738E-03     958.921E-06     33.8215E-03     185.838E+06    -193.001E+03    -4.08960E+06    -187.949E+06    -2.08692E+06    -187.927E+06    -2.21735E+06     83.7867E+03
              38     41.1503E-03    -273.358E-09     41.1503E-03     33.3380E-03    -16.5378E-03    -16.8003E-03    -16.7970E-03     33.3348E-03    -16.5378E-03     779.889E-06     33.8529E-03     186.003E+06     3.28037E+06    -780.994E+03    -184.720E+06     1.23052E+06    -184.707E+06     1.25602E+06     705.979E+03
              39     40.1168E-03     532.487E-09     40.1168E-03     33.8035E-03    -16.8185E-03    -16.9850E-03    -16.9329E-03     33.8019E-03    -16.8690E-03     568.664E-06     34.3959E-03     186.509E+06     718.453E+03    -2.52688E+06    -187.391E+06    -1.31984E+06    -187.390E+06    -489.864E+03    -381.253E+03
              40     39.0829E-03    -645.082E-09     39.0829E-03     33.8910E-03    -16.8724E-03    -17.0198E-03    -16.8677E-03     33.8863E-03    -17.0198E-03     910.755E-06     34.4447E-03     186.557E+06     664.549E+03    -952.586E+03    -186.694E+06     663.598E+03    -186.693E+06    -952.586E+03     251.589E+03
              41     38.0487E-03     444.543E-09     38.0487E-03     33.7809E-03    -16.7779E-03    -17.0038E-03    -16.9009E-03     33.7749E-03    -16.8748E-03     1.08972E-03     34.2293E-03     186.773E+06     1.45268E+06     351.410E+03    -185.868E+06     1.45136E+06    -185.867E+06     351.410E+03     103.053E+03
              42     37.0165E-03    -200.933E-09     37.0165E-03     33.7404E-03    -16.6870E-03    -17.0530E-03    -17.0507E-03     33.7381E-03    -16.6870E-03     609.401E-06     34.1444E-03     187.083E+06     624.169E+03    -1.21186E+06    -187.370E+06    -529.162E+03    -187.360E+06    -68.2786E+03     739.576E+03
              43     35.9829E-03     687.251E-09     35.9829E-03     33.7218E-03    -16.6944E-03    -17.0264E-03    -16.9297E-03     33.7201E-03    -16.7893E-03     530.853E-06     34.1347E-03     186.247E+06    -242.814E+03    -1.88183E+06    -187.303E+06    -1.89240E+06    -187.293E+06    -242.814E+03     595.646E+03
              44     34.9493E-03    -866.816E-09     34.9493E-03     33.7819E-03    -16.8294E-03    -16.9510E-03    -16.8530E-03     33.7788E-03    -16.9244E-03     783.511E-06     34.2235E-03     186.932E+06     3.35364E+06     1.89896E+06    -184.301E+06     2.85569E+06    -184.299E+06     2.39440E+06     17.8178E+03
              45     33.9154E-03     908.851E-09     33.9154E-03     33.8481E-03    -16.8106E-03    -17.0365E-03    -17.0341E-03     33.8458E-03    -16.8106E-03     675.132E-06     34.3598E-03     186.179E+06     3.93073E+06     775.536E+03    -183.803E+06     1.71727E+06    -183.785E+06     2.97149E+06    -863.316E+03
              46     32.8831E-03    -484.643E-09     32.8831E-03     34.0140E-03    -16.8787E-03    -17.1351E-03    -17.0726E-03     34.0087E-03    -16.9358E-03     956.481E-06     34.4820E-03     186.581E+06     1.60788E+06    -3.51176E+06    -187.479E+06    -606.231E+03    -187.461E+06    -1.31580E+06    -782.727E+03
              47     31.8472E-03     327.431E-09     31.8472E-03     34.0606E-03    -16.9502E-03    -17.1105E-03    -17.0478E-03     34.0549E-03    -17.0073E-03     1.01000E-03     34.4758E-03     185.904E+06     2.74405E+06    -2.87715E+06    -185.906E+06     44.3936E+03    -185.904E+06    -179.636E+03     560.278E+03
              48     30.8154E-03    -86.5051E-09     30.8154E-03     33.7866E-03    -16.7406E-03    -17.0464E-03    -17.0449E-03     33.7851E-03    -16.7406E-03     545.400E-06     34.2615E-03     184.912E+06     1.87447E+06    -1.80059E+06    -184.841E+06    -826.900E+03    -184.837E+06     896.925E+03    -459.285E+03
              49     29.7820E-03     475.991E-09     29.7820E-03     33.7321E-03    -16.6737E-03    -17.0590E-03    -16.8742E-03     33.7299E-03    -16.8564E-03     633.623E-06     34.2056E-03     185.608E+06    -939.816E+03    -2.36746E+06    -187.257E+06    -944.089E+03    -187.253E+06    -2.36746E+06    -822.211E+03
              50     28.7476E-03    -838.594E-09     28.7476E-03     33.6651E-03    -16.6929E-03    -16.9745E-03    -16.7889E-03     33.6621E-03    -16.8756E-03     776.567E-06     34.0941E-03     185.020E+06    -2.16729E+06    -3.85915E+06    -188.026E+06    -2.16790E+06    -188.026E+06    -3.85915E+06    -198.262E+03
              51     27.7148E-03     1.01862E-06     27.7148E-03     33.4403E-03    -16.6046E-03    -16.8378E-03    -16.8341E-03     33.4367E-03    -16.6046E-03     843.530E-06     33.9120E-03     183.877E+06    -842.725E+03    -3.23129E+06    -185.903E+06    -1.98969E+06    -185.903E+06    -2.08449E+06     154.545E+03
              52     26.6821E-03    -737.031E-09     26.6821E-03     33.2821E-03    -16.5251E-03    -16.7565E-03    -16.6569E-03     33.2797E-03    -16.6223E-03     538.917E-06     33.7957E-03     183.408E+06    -1.46890E+06    -3.47850E+06    -185.873E+06    -2.61622E+06    -185.873E+06    -2.33170E+06    -65.1686E+03
              53     25.6492E-03     541.327E-09     25.6492E-03     33.4635E-03    -16.5467E-03    -16.9182E-03    -16.8172E-03     33.4597E-03    -16.6440E-03     678.699E-06     33.9784E-03     181.947E+06     257.510E+03    -3.04315E+06    -183.312E+06    -2.18282E+06    -183.310E+06    -605.284E+03    -614.012E+03
              54     24.6152E-03     29.1575E-09     24.6152E-03     33.3351E-03    -16.3733E-03    -16.9627E-03    -16.6418E-03     33.3294E-03    -16.6885E-03     1.06171E-03     33.8090E-03     181.338E+06     2.25064E+06    -4.12631E+06    -182.187E+06    -192.475E+03    -182.182E+06    -1.68845E+06    -974.737E+03
              55     23.5826E-03    -698.484E-09     23.5826E-03     32.5510E-03    -15.9939E-03    -16.5554E-03    -16.2380E-03     32.5489E-03    -16.3091E-03     561.094E-06     32.9786E-03     182.997E+06     1.48442E+06    -4.79842E+06    -184.568E+06    -919.502E+03    -184.508E+06    -2.45467E+06     1.72602E+06
              56     22.5518E-03     1.22189E-06     22.5518E-03     32.2100E-03    -15.8970E-03    -16.3133E-03    -16.3085E-03     32.2053E-03    -15.8970E-03     786.173E-06     32.6346E-03     183.039E+06     1.56363E+06    -1.06126E+06    -182.765E+06    -1.11833E+06    -182.708E+06     1.56363E+06     2.20199E+06
              57     21.5187E-03    -888.582E-09     21.5187E-03     32.1142E-03    -15.9453E-03    -16.1692E-03    -16.1102E-03     32.1092E-03    -15.9993E-03     857.862E-06     32.5395E-03     181.504E+06     87.8424E+03    -1.29897E+06    -182.104E+06    -193.515E+03    -182.104E+06    -1.01783E+06    -188.411E+03
              58     20.4883E-03     772.026E-09     20.4883E-03     31.6675E-03    -15.7594E-03    -15.9077E-03    -15.8523E-03     31.6661E-03    -15.8134E-03     497.289E-06     32.0891E-03     179.596E+06    -916.766E+03    -2.83026E+06    -181.462E+06    -1.72478E+06    -181.462E+06    -2.02244E+06    -69.5059E+03
              59     19.4564E-03    -571.181E-09     19.4564E-03     30.8425E-03    -15.3219E-03    -15.5205E-03    -15.4147E-03     30.8410E-03    -15.4262E-03     514.344E-06     31.2283E-03     178.234E+06    -387.969E+03    -3.19310E+06    -180.005E+06    -1.19706E+06    -180.003E+06    -2.38528E+06    -282.452E+03
              60     18.4270E-03     341.413E-09     18.4270E-03     29.7475E-03    -14.7340E-03    -15.0132E-03    -14.9082E-03     29.7469E-03    -14.8383E-03     327.795E-06     30.0689E-03     179.095E+06     1.25769E+06    -2.12562E+06    -179.504E+06    -142.313E+03    -179.490E+06    -739.622E+03     735.189E+03
              61     17.3979E-03     23.9788E-09     17.3979E-03     28.4472E-03    -14.1229E-03    -14.3245E-03    -14.3243E-03     28.4469E-03    -14.1229E-03     195.328E-06     28.8208E-03     177.735E+06     405.455E+03    -1.79002E+06    -178.416E+06    -1.01541E+06    -178.381E+06    -404.022E+03     2.46157E+06
              62     16.3714E-03     19.5507E-09     16.3714E-03     27.0606E-03    -13.4924E-03    -13.5690E-03    -13.5687E-03     27.0603E-03    -13.4924E-03    -70.7941E-06     27.5110E-03     174.984E+06     3.93584E+06     2.73286E+06    -171.646E+06     3.52023E+06    -171.624E+06     3.12637E+06     1.39004E+06
              63     15.3450E-03     84.6725E-09     15.3450E-03     25.4084E-03    -12.6321E-03    -12.7770E-03    -12.7762E-03     25.4076E-03    -12.6321E-03    -340.308E-06     25.8217E-03     176.051E+06     8.22410E+06     7.38921E+06    -168.243E+06     7.38540E+06    -168.239E+06     8.22410E+06     577.966E+03
              64     14.3217E-03     109.681E-09     14.3217E-03     23.1177E-03    -11.4854E-03    -11.6325E-03    -11.5775E-03     23.1148E-03    -11.5375E-03    -587.425E-06     23.4876E-03     175.810E+06     7.01350E+06     6.14228E+06    -169.230E+06     6.13615E+06    -169.224E+06     7.01350E+06     1.03008E+06
              65     13.3001E-03    -210.786E-09     13.3001E-03     20.3765E-03    -10.1261E-03    -10.2500E-03    -10.1927E-03     20.3712E-03    -10.1782E-03    -797.962E-06     20.6925E-03     174.033E+06     12.2119E+06     9.33927E+06    -163.231E+06     11.7744E+06    -163.223E+06     9.76910E+06    -240.134E+03
              66     12.2819E-03     315.912E-09     12.2819E-03     17.5325E-03    -8.71033E-03    -8.82288E-03    -8.77669E-03     17.5270E-03    -8.75105E-03    -759.068E-06     17.8370E-03     175.087E+06     21.2750E+06     16.4822E+06    -156.159E+06     18.8751E+06    -156.109E+06     18.8322E+06     1.28180E+06
              67     11.2664E-03    -370.080E-09     11.2664E-03     15.0791E-03    -7.49022E-03    -7.59052E-03    -7.54220E-03     15.0715E-03    -7.53094E-03    -813.272E-06     15.5631E-03     176.084E+06     26.3658E+06     23.2623E+06    -151.245E+06     23.9655E+06    -151.194E+06     25.6122E+06     1.25797E+06
              68     10.2538E-03     468.783E-09     10.2538E-03     13.3595E-03    -6.61683E-03    -6.74347E-03    -6.73481E-03     13.3509E-03    -6.61683E-03    -833.273E-06     14.0761E-03     177.506E+06     27.5832E+06     26.8233E+06    -150.300E+06     27.5588E+06    -150.275E+06     26.8233E+06     581.109E+03
              69     9.24134E-03    -343.486E-09     9.24134E-03     12.2916E-03    -6.04656E-03    -6.24559E-03    -6.10736E-03     12.2854E-03    -6.17853E-03    -677.281E-06     13.2338E-03     177.351E+06     24.7424E+06     24.2390E+06    -152.859E+06     24.7182E+06    -152.835E+06     24.2390E+06     601.667E+03
              70     8.23076E-03     67.4946E-09     8.23076E-03     12.2057E-03    -6.02443E-03    -6.18181E-03    -6.02165E-03     12.2030E-03    -6.18181E-03    -222.645E-06     13.4001E-03     176.866E+06     18.3401E+06     17.5720E+06    -158.908E+06     18.0541E+06    -158.893E+06     17.8431E+06    -1.61140E+06
              71     7.21816E-03    -115.290E-09     7.21816E-03     13.3525E-03    -6.64605E-03    -6.70695E-03    -6.67970E-03     13.3507E-03    -6.67147E-03     347.881E-06     14.7536E-03     178.036E+06     11.9473E+06     9.79984E+06    -167.148E+06     9.74717E+06    -167.095E+06     11.9473E+06    -2.86361E+06
              72     6.20556E-03     205.469E-09     6.20556E-03     15.8741E-03    -7.89259E-03    -7.98171E-03    -7.92011E-03     15.8661E-03    -7.94622E-03     841.985E-06     17.4406E-03     179.899E+06     7.60044E+06     4.17399E+06    -173.987E+06     5.67563E+06    -173.939E+06     6.05033E+06    -2.63948E+06
              73     5.18818E-03    -346.958E-09     5.18818E-03     20.4398E-03    -10.1250E-03    -10.3148E-03    -10.2468E-03     20.4255E-03    -10.1787E-03     1.32419E-03     22.1725E-03     181.063E+06     5.58097E+06     2.59892E+06    -176.954E+06     4.14374E+06    -176.949E+06     4.03087E+06    -619.101E+03
              74     4.16604E-03     617.754E-09     4.16604E-03     26.8209E-03    -13.2415E-03    -13.5800E-03    -13.5663E-03     26.8072E-03    -13.2415E-03     1.46987E-03     28.6891E-03     180.545E+06    -2.60311E+06    -4.75707E+06    -184.214E+06    -4.79766E+06    -184.174E+06    -2.60311E+06    -1.83967E+06
              75     3.13655E-03    -222.046E-09     3.13655E-03     34.3018E-03    -17.0042E-03    -17.2969E-03    -17.1944E-03     34.2895E-03    -17.0944E-03     1.58900E-03     35.9942E-03     180.450E+06    -9.86245E+06    -13.5202E+06    -192.103E+06    -10.6251E+06    -192.063E+06    -12.7982E+06    -2.02067E+06
              76     2.09824E-03    -21.9828E-09     2.09824E-03     42.1855E-03    -20.9190E-03    -21.2641E-03    -20.9103E-03     42.1767E-03    -21.2641E-03     1.41380E-03     43.6518E-03     180.224E+06    -15.6537E+06    -18.9945E+06    -197.511E+06    -15.6548E+06    -197.510E+06    -18.9945E+06    -403.938E+03
              77     1.05219E-03    -521.356E-09     1.05219E-03     48.4787E-03    -23.9851E-03    -24.4927E-03    -24.2357E-03     48.4764E-03    -24.2399E-03     451.200E-06     50.0451E-03     180.266E+06    -24.1963E+06    -25.9133E+06    -205.312E+06    -25.5638E+06    -205.257E+06    -24.6013E+06    -2.50040E+06
              78     974.425E-06     974.425E-06    -44.7035E-09     50.2239E-03    -24.8148E-03    -25.4086E-03    -25.0659E-03     50.2222E-03    -25.1558E-03     406.992E-06     51.6846E-03     179.852E+06    -21.0476E+06    -24.8688E+06    -202.777E+06    -24.9250E+06    -202.720E+06    -21.0476E+06    -2.58507E+06
              79     1.95032E-03     1.95032E-03    -44.7035E-09     48.5591E-03    -23.7158E-03    -24.8420E-03    -23.7098E-03     48.5531E-03    -24.8420E-03     1.28428E-03     49.5532E-03     180.430E+06    -16.0083E+06    -19.4241E+06    -198.117E+06    -19.4260E+06    -198.115E+06    -16.0083E+06    -552.386E+03
              80     2.92715E-03     2.92715E-03    -44.7035E-09     46.3021E-03    -22.1129E-03    -24.1859E-03    -22.0998E-03     46.2890E-03    -24.1859E-03     1.85940E-03     47.0921E-03     181.376E+06    -16.6153E+06    -21.8181E+06    -200.514E+06    -17.5307E+06    -200.505E+06    -20.9115E+06    -1.06043E+06
              81     3.90656E-03     3.90656E-03    -44.7035E-09     43.8185E-03    -20.3993E-03    -23.4082E-03    -20.3799E-03     43.7990E-03    -23.4082E-03     2.22989E-03     44.5261E-03     181.843E+06    -15.7455E+06    -28.7163E+06    -203.686E+06    -15.7761E+06    -203.655E+06    -28.7163E+06    -2.33646E+06
              82     4.88736E-03     4.88736E-03    -44.7035E-09     41.2883E-03    -18.6901E-03    -22.5806E-03    -18.6645E-03     41.2627E-03    -22.5806E-03     2.46618E-03     41.9103E-03     181.876E+06    -13.0751E+06    -35.1601E+06    -204.939E+06    -13.2075E+06    -204.806E+06    -35.1601E+06    -4.71773E+06
              83     5.86986E-03     5.86986E-03    -44.7035E-09     38.7610E-03    -17.0413E-03    -21.7071E-03    -17.0059E-03     38.7256E-03    -21.7071E-03     2.79700E-03     39.3822E-03     182.431E+06    -8.48118E+06    -45.5333E+06    -206.369E+06    -8.68891E+06    -206.162E+06    -45.5333E+06    -6.40278E+06
              84     6.85430E-03     6.85430E-03    -44.7035E-09     36.3155E-03    -15.5390E-03    -20.7792E-03    -15.4944E-03     36.2710E-03    -20.7792E-03     3.03296E-03     37.0320E-03     173.866E+06    -3.18821E+06    -63.3983E+06    -198.520E+06    -3.51251E+06    -198.196E+06    -63.3983E+06    -7.75797E+06
              85     7.83989E-03     7.83989E-03    -44.7035E-09     33.9859E-03    -14.1655E-03    -19.8365E-03    -14.1084E-03     33.9288E-03    -19.8365E-03     3.29712E-03     35.0145E-03     156.094E+06     1.93844E+06    -83.7812E+06    -177.123E+06     1.53727E+06    -176.721E+06    -83.7812E+06    -8.45997E+06
              86     8.82699E-03     8.82699E-03    -44.7035E-09     31.8073E-03    -12.9057E-03    -18.9127E-03    -12.8364E-03     31.7380E-03    -18.9127E-03     3.51365E-03     33.2473E-03     139.437E+06     5.93953E+06    -103.922E+06    -148.701E+06     5.45348E+06    -148.215E+06    -103.922E+06    -8.49946E+06
              87     9.81533E-03     9.81533E-03    -44.7035E-09     29.7931E-03    -11.7406E-03    -18.0576E-03    -11.6701E-03     29.7227E-03    -18.0576E-03     3.41743E-03     31.6892E-03     125.993E+06     8.55450E+06    -105.911E+06    -126.410E+06     8.02236E+06    -114.810E+06    -116.979E+06    -8.10066E+06
              88     10.8052E-03     10.8052E-03    -44.7035E-09     27.7922E-03    -10.5204E-03    -17.2746E-03    -10.4363E-03     27.7082E-03    -17.2746E-03     3.56031E-03     30.3011E-03     116.793E+06     10.0771E+06    -75.9581E+06    -120.255E+06      9.5849E+06    -75.4659E+06    -120.255E+06    -6.38462E+06
              89     11.7946E-03     11.7946E-03    -44.7035E-09     26.1210E-03    -9.59752E-03    -16.5245E-03    -9.49944E-03     26.0229E-03    -16.5245E-03     3.73829E-03     29.5396E-03     119.960E+06     11.3790E+06    -25.1838E+06    -119.388E+06     10.3249E+06    -24.1298E+06    -119.388E+06    -4.60482E+06
              90     12.7884E-03     12.7884E-03    -44.7035E-09     25.0457E-03    -9.18531E-03    -15.8644E-03    -9.02462E-03     24.8850E-03    -15.8644E-03     4.57132E-03     29.8606E-03     140.408E+06     42.7682E+06     6.44474E+06    -110.532E+06     10.1445E+06     39.0685E+06    -110.532E+06    -4.16958E+06
              91     13.7745E-03     13.7745E-03    -44.7035E-09     24.6098E-03    -9.13615E-03    -15.4671E-03    -8.93863E-03     24.4123E-03    -15.4671E-03     5.13513E-03     30.4808E-03     150.108E+06     98.4357E+06     5.19978E+06    -70.2990E+06     5.54734E+06     98.0881E+06    -70.2990E+06     500.712E+03
              92     14.7732E-03     14.7732E-03    -44.7035E-09     28.4627E-03    -12.3300E-03    -16.1269E-03    -12.3158E-03     27.7133E-03    -15.3917E-03     10.3686E-03     37.9046E-03     149.596E+06     137.295E+06     6.48475E+06    -25.5723E+06    -5.62986E+06     136.850E+06    -13.0122E+06     7.94250E+06
              93     15.7436E-03     15.7436E-03    -44.7035E-09     31.2056E-03    -14.9893E-03    -16.2192E-03    -13.6425E-03     29.1236E-03    -15.4840E-03     18.8651E-03     47.7467E-03     153.896E+06     160.647E+06     34.0385E+06    -9.41811E+06    -8.57208E+06     159.801E+06     34.0385E+06    -2.00095E+06
              94     16.7254E-03     16.7254E-03    -44.7035E-09     97.8134E-03    -16.5588E-03    -81.4291E-03    -68.2377E-03     85.1168E-03    -17.0535E-03     91.8099E-03     140.888E-03     167.146E+06     195.011E+06     88.9151E+06     3.33905E+06     4.26180E+06     194.088E+06     88.9151E+06    -715.629E+03
              95     17.6998E-03     17.6529E-03     1.28822E-03     181.313E-03    -17.9126E-03    -163.707E-03    -119.642E-03     137.247E-03    -17.9126E-03     223.870E-03     319.898E-03     182.636E+06     208.549E+06     106.068E+06    -2.29113E+06    -1.91748E+06     208.175E+06     106.068E+06     6.42835E+06
              96     17.8413E-03     17.6703E-03     2.46458E-03     209.924E-03    -17.1936E-03    -192.870E-03    -106.952E-03     124.006E-03    -17.1936E-03     327.962E-03     459.735E-03     190.347E+06     205.321E+06     109.334E+06    -13.4316E+06    -13.4310E+06     205.320E+06     109.334E+06     337.335E+03
              97     18.0475E-03     17.6857E-03     3.59536E-03     234.501E-03    -16.7931E-03    -217.776E-03    -99.6938E-03     116.418E-03    -16.7931E-03     397.100E-03     544.728E-03     191.144E+06     219.477E+06     128.023E+06      -37.23E+03     213.308E+03     219.227E+06     128.023E+06     5.31132E+06
              98     18.3164E-03     17.6975E-03     4.72137E-03     252.697E-03    -16.2874E-03    -236.499E-03    -100.403E-03     116.601E-03    -16.2874E-03     438.393E-03     598.489E-03     194.851E+06     217.603E+06     129.704E+06    -5.27254E+06    -4.98932E+06     217.319E+06     129.704E+06     3.24710E+06
              99     18.6360E-03     17.7038E-03     5.82015E-03     260.676E-03    -16.0237E-03    -244.685E-03    -99.2598E-03     115.251E-03    -16.0237E-03     457.548E-03     627.627E-03     195.584E+06     214.727E+06     143.005E+06    -6.56073E+06    -6.31084E+06     214.477E+06     143.005E+06     2.85429E+06
             100     19.0081E-03     17.7097E-03     6.90471E-03     256.907E-03    -15.8425E-03    -241.099E-03    -92.8315E-03     108.639E-03    -15.8425E-03     455.391E-03     640.187E-03     194.293E+06     220.125E+06     144.565E+06    -450.063E+03    -228.773E+03     219.904E+06     144.565E+06     4.10202E+06
             101     19.4221E-03     17.7141E-03     7.96416E-03     252.636E-03    -15.6897E-03    -236.979E-03    -89.2668E-03     104.924E-03    -15.6897E-03     449.454E-03     652.654E-03     198.580E+06     220.065E+06     145.151E+06    -4.83733E+06    -4.82588E+06     220.054E+06     145.151E+06    -1.58940E+06
             102     19.8962E-03     17.7147E-03     9.05808E-03     256.777E-03    -15.6467E-03    -241.160E-03    -91.2349E-03     106.852E-03    -15.6467E-03     456.838E-03     667.401E-03     199.559E+06     219.353E+06     155.889E+06    -4.21615E+06    -4.20878E+06     219.346E+06     155.889E+06    -1.01988E+06
             103     20.4161E-03     17.7146E-03     10.1495E-03     258.992E-03    -15.8622E-03    -243.217E-03    -84.9663E-03     100.741E-03    -15.8622E-03     466.405E-03     679.649E-03     197.308E+06     219.198E+06     155.216E+06    -2.14583E+06    -2.13157E+06     219.183E+06     155.216E+06     1.11121E+06
             104     20.9527E-03     17.7133E-03     11.1918E-03     251.355E-03    -16.1346E-03    -235.361E-03    -73.7366E-03     89.7304E-03    -16.1346E-03     458.424E-03     687.604E-03     196.712E+06     219.314E+06     150.023E+06    -2.65076E+06    -2.63581E+06     219.299E+06     150.023E+06     1.54332E+06
             105     21.5252E-03     17.7133E-03     12.2299E-03     238.833E-03    -16.1721E-03    -222.803E-03    -68.7243E-03     84.7546E-03    -16.1721E-03     435.368E-03     685.982E-03     198.150E+06     219.491E+06     145.232E+06    -5.05552E+06    -5.04797E+06     219.483E+06     145.232E+06    -557.192E+03
             106     22.1421E-03     17.7130E-03     13.2863E-03     232.731E-03    -16.1559E-03    -216.701E-03    -68.0317E-03     84.0619E-03    -16.1559E-03     422.914E-03     685.606E-03     197.315E+06     220.437E+06     146.330E+06    -3.19678E+06    -3.17664E+06     220.417E+06     146.330E+06    -2.09318E+06
             107     22.7957E-03     17.7126E-03     14.3495E-03     232.364E-03    -16.2353E-03    -216.251E-03    -65.6536E-03     81.7664E-03    -16.2353E-03     423.674E-03     690.270E-03     197.715E+06     220.098E+06     145.157E+06    -4.12034E+06    -4.10300E+06     220.080E+06     145.157E+06    -567.442E+03
             108     23.4754E-03     17.7127E-03     15.4063E-03     234.102E-03    -16.3821E-03    -217.837E-03    -60.5601E-03     76.8257E-03    -16.3821E-03     430.498E-03     697.243E-03     197.426E+06     220.467E+06     140.785E+06    -4.33231E+06    -4.32729E+06     220.462E+06     140.785E+06     1.01406E+06
             109     24.1787E-03     17.7128E-03     16.4580E-03     236.718E-03    -16.5445E-03    -220.251E-03    -56.1520E-03     72.6187E-03    -16.5445E-03     438.433E-03     705.926E-03     198.328E+06     220.369E+06     142.282E+06    -5.07156E+06    -5.06479E+06     220.362E+06     142.282E+06    -446.285E+03
             110     24.9014E-03     17.7122E-03     17.5030E-03     239.967E-03    -16.6888E-03    -223.366E-03    -54.2300E-03     70.8316E-03    -16.6888E-03     446.132E-03     712.413E-03     200.907E+06     221.953E+06     150.400E+06    -4.91606E+06    -4.90857E+06     221.946E+06     150.400E+06    -344.069E+03
             111     25.6501E-03     17.7116E-03     18.5534E-03     242.336E-03    -16.8303E-03    -225.605E-03    -51.1345E-03     67.8659E-03    -16.8303E-03     452.521E-03     715.248E-03     200.534E+06     224.960E+06     151.170E+06    -1.95077E+06    -1.92046E+06     224.930E+06     151.170E+06     2.24269E+06
             112     26.4053E-03     17.7114E-03     19.5843E-03     239.216E-03    -16.9570E-03    -222.304E-03    -45.8550E-03     62.7669E-03    -16.9570E-03     448.543E-03     717.182E-03     200.321E+06     223.325E+06     145.897E+06    -4.14736E+06    -4.11140E+06     223.289E+06     145.897E+06     862.336E+03
             113     27.1682E-03     17.7114E-03     20.6014E-03     230.215E-03    -16.9606E-03    -213.274E-03    -43.1838E-03     60.1253E-03    -16.9606E-03     431.283E-03     713.766E-03     202.028E+06     223.290E+06     146.027E+06    -5.96604E+06    -5.95627E+06     223.280E+06     146.027E+06    -410.929E+03
             114     27.9576E-03     17.7118E-03     21.6315E-03     223.600E-03    -16.8418E-03    -206.792E-03    -43.5624E-03     60.3703E-03    -16.8418E-03     417.653E-03     707.240E-03     199.757E+06     225.194E+06     142.784E+06    -2.52227E+06    -2.51758E+06     225.189E+06     142.784E+06    -2.58656E+03
             115     28.7711E-03     17.7132E-03     22.6719E-03     225.179E-03    -16.7436E-03    -208.494E-03    -46.8077E-03     63.4927E-03    -16.7436E-03     419.390E-03     707.949E-03     201.959E+06     224.929E+06     142.952E+06    -5.03428E+06    -5.02979E+06     224.924E+06     142.952E+06    -1.01551E+06
             116     29.6065E-03     17.7115E-03     23.7244E-03     233.323E-03    -16.7642E-03    -216.652E-03    -49.5690E-03     66.2400E-03    -16.7642E-03     434.809E-03     712.870E-03     202.992E+06     224.752E+06     146.660E+06    -5.67862E+06    -5.64745E+06     224.721E+06     146.660E+06     1.32332E+06
             117     30.4632E-03     17.7127E-03     24.7844E-03     243.628E-03    -16.9281E-03    -226.797E-03    -47.0652E-03     63.8956E-03    -16.9281E-03     457.091E-03     722.359E-03     202.072E+06     226.961E+06     146.558E+06    -2.93592E+06    -2.90494E+06     226.930E+06     146.558E+06     1.34706E+06
             118     31.3021E-03     17.7119E-03     25.8091E-03     241.518E-03    -17.1004E-03    -224.481E-03    -40.5132E-03     57.5504E-03    -17.1004E-03     455.536E-03     724.038E-03     203.483E+06     227.069E+06     145.779E+06    -4.49341E+06    -4.48875E+06     227.064E+06     145.779E+06     86.8201E+03
             119     32.1330E-03     17.7122E-03     26.8106E-03     234.082E-03    -17.0228E-03    -217.125E-03    -40.3778E-03     57.3346E-03    -17.0228E-03     440.428E-03     718.889E-03     201.962E+06     226.585E+06     143.284E+06    -3.68610E+06    -3.68338E+06     226.582E+06     143.284E+06     535.079E+03
             120     33.0125E-03     17.7124E-03     27.8585E-03     235.257E-03    -16.8878E-03    -218.431E-03    -46.2038E-03     63.0299E-03    -16.8878E-03     440.330E-03     716.980E-03     204.543E+06     227.937E+06     147.718E+06    -4.45139E+06    -4.44441E+06     227.930E+06     147.718E+06    -933.735E+03
             121     33.9043E-03     17.7118E-03     28.9101E-03     239.461E-03    -16.9730E-03    -222.525E-03    -45.8549E-03     62.7903E-03    -16.9730E-03     448.991E-03     720.050E-03     204.110E+06     228.514E+06     151.303E+06    -2.90345E+06    -2.87339E+06     228.484E+06     151.303E+06     709.540E+03
             122     34.7767E-03     17.7113E-03     29.9287E-03     236.666E-03    -17.0638E-03    -219.642E-03    -42.0447E-03     59.0690E-03    -17.0638E-03     444.964E-03     720.097E-03     205.136E+06     226.692E+06     147.208E+06    -6.28205E+06    -6.22602E+06     226.636E+06     147.208E+06    -366.868E+03
             123     35.6613E-03     17.7119E-03     30.9519E-03     229.240E-03    -17.0554E-03    -212.243E-03    -40.0103E-03     57.0077E-03    -17.0554E-03     430.691E-03     714.726E-03     203.591E+06     229.735E+06     148.375E+06    -1.90551E+06    -1.76720E+06     229.596E+06     148.375E+06     1.45062E+06
             124     36.5595E-03     17.7120E-03     31.9825E-03     228.710E-03    -16.9734E-03    -211.790E-03    -42.7967E-03     59.7172E-03    -16.9734E-03     428.363E-03     713.888E-03     206.230E+06     229.137E+06     147.078E+06    -5.43508E+06    -5.20666E+06     228.909E+06     147.078E+06    -445.246E+03
             125     37.4764E-03     17.7116E-03     33.0269E-03     229.930E-03    -16.9159E-03    -213.058E-03    -45.2700E-03     62.1422E-03    -16.9159E-03     429.766E-03     711.714E-03     207.149E+06     227.474E+06     146.793E+06    -7.85292E+06    -7.62936E+06     227.251E+06     146.793E+06    -513.992E+03
             126     38.3945E-03     17.7123E-03     34.0648E-03     231.775E-03    -16.9535E-03    -214.850E-03    -43.9244E-03     60.8498E-03    -16.9535E-03     434.157E-03     715.514E-03     203.795E+06     228.862E+06     147.171E+06    -3.10304E+06    -2.94379E+06     228.702E+06     147.171E+06     722.126E+03
             127     39.3146E-03     17.7117E-03     35.0989E-03     233.110E-03    -17.0026E-03    -216.119E-03    -43.4123E-03     60.4029E-03    -17.0026E-03     437.068E-03     717.531E-03     207.215E+06     228.717E+06     149.625E+06    -6.37591E+06    -6.30075E+06     228.642E+06     149.625E+06    -1.26340E+06
             128     40.2431E-03     17.7115E-03     36.1360E-03     232.071E-03    -17.0795E-03    -215.007E-03    -41.6673E-03     58.7305E-03    -17.0795E-03     435.646E-03     715.005E-03     205.679E+06     232.025E+06     153.652E+06    -1.30089E+06    -1.28362E+06     232.008E+06     153.652E+06     1.69245E+06
             129     41.1642E-03     17.7109E-03     37.1594E-03     228.453E-03    -17.1059E-03    -211.369E-03    -39.2548E-03     56.3390E-03    -17.1059E-03     429.308E-03     714.358E-03     205.488E+06     231.706E+06     148.887E+06    -2.26197E+06    -2.26090E+06     231.705E+06     148.887E+06     142.663E+03
             130     42.0901E-03     17.7120E-03     38.1820E-03     222.510E-03    -17.0255E-03    -205.514E-03    -39.6069E-03     56.6030E-03    -17.0255E-03     417.059E-03     711.347E-03     205.840E+06     230.085E+06     146.484E+06    -4.40037E+06    -4.39359E+06     230.078E+06     146.484E+06    -1.04677E+06
             131     43.0312E-03     17.7110E-03     39.2174E-03     220.812E-03    -16.9395E-03    -203.911E-03    -41.5844E-03     58.4850E-03    -16.9395E-03     412.763E-03     708.332E-03     205.943E+06     229.452E+06     146.142E+06    -5.09275E+06    -5.08597E+06     229.446E+06     146.142E+06    -711.466E+03
             132     43.9836E-03     17.7126E-03     40.2594E-03     223.614E-03    -16.9096E-03    -206.737E-03    -42.3976E-03     59.2751E-03    -16.9096E-03     418.166E-03     708.418E-03     205.398E+06     230.813E+06     144.689E+06    -3.61421E+06    -3.61299E+06     230.811E+06     144.689E+06     505.324E+03
             133     44.9375E-03     17.7119E-03     41.2997E-03     227.126E-03    -16.9216E-03    -210.236E-03    -42.5230E-03     59.4132E-03    -16.9216E-03     425.317E-03     712.029E-03     205.787E+06     229.417E+06     143.075E+06    -5.46367E+06    -5.45448E+06     229.407E+06     143.075E+06    -641.488E+03
             134     45.8912E-03     17.7123E-03     42.3352E-03     230.731E-03    -16.9326E-03    -213.829E-03    -42.9993E-03     59.9014E-03    -16.9326E-03     432.487E-03     715.496E-03     206.043E+06     229.365E+06     143.271E+06    -5.75281E+06    -5.73034E+06     229.343E+06     143.271E+06     316.606E+03
             135     46.8564E-03     17.7124E-03     43.3796E-03     235.157E-03    -16.9807E-03    -218.185E-03    -42.9043E-03     59.8757E-03    -16.9807E-03     441.534E-03     720.823E-03     206.116E+06     232.454E+06     145.478E+06    -2.89100E+06    -2.86934E+06     232.433E+06     145.478E+06     365.121E+03
             136     47.8141E-03     17.7123E-03     44.4124E-03     237.321E-03    -17.0522E-03    -220.288E-03    -42.2960E-03     59.3284E-03    -17.0522E-03     446.182E-03     723.610E-03     206.983E+06     233.092E+06     148.659E+06    -2.75440E+06    -2.73927E+06     233.077E+06     148.659E+06     24.7677E+03
             137     48.7715E-03     17.7117E-03     45.4418E-03     235.774E-03    -17.0571E-03    -218.760E-03    -41.6330E-03     58.6464E-03    -17.0571E-03     443.334E-03     720.202E-03     206.957E+06     231.225E+06     146.029E+06    -4.71703E+06    -4.70005E+06     231.208E+06     146.029E+06    -85.8206E+03
             138     49.7302E-03     17.7122E-03     46.4690E-03     230.201E-03    -17.0267E-03    -213.215E-03    -39.1972E-03     56.1829E-03    -17.0267E-03     433.030E-03     715.583E-03     205.467E+06     231.570E+06     140.167E+06    -3.69719E+06    -3.67164E+06     231.544E+06     140.167E+06     343.058E+03
             139     50.6823E-03     17.7133E-03     47.4861E-03     228.449E-03    -16.9609E-03    -211.528E-03    -41.1134E-03     58.0349E-03    -16.9609E-03     428.603E-03     716.482E-03     206.247E+06     230.946E+06     143.794E+06    -4.39501E+06    -4.34718E+06     230.898E+06     143.794E+06    -538.807E+03
             140     51.6726E-03     17.7118E-03     48.5422E-03     235.000E-03    -16.9542E-03    -218.076E-03    -45.8209E-03     62.7442E-03    -16.9542E-03     439.876E-03     717.126E-03     207.979E+06     233.240E+06     152.511E+06    -2.99435E+06    -2.90389E+06     233.150E+06     152.511E+06     719.983E+03
             141     52.6579E-03     17.7115E-03     49.5899E-03     238.579E-03    -17.0946E-03    -221.510E-03    -41.7775E-03     58.8466E-03    -17.0946E-03     448.851E-03     719.009E-03     207.964E+06     233.295E+06     146.092E+06    -4.02232E+06    -3.96160E+06     233.234E+06     146.092E+06     2.18450E+06
             142     53.6006E-03     17.7121E-03     50.5896E-03     231.695E-03    -17.1437E-03    -214.592E-03    -37.2418E-03     54.3451E-03    -17.1437E-03     436.778E-03     718.500E-03     207.915E+06     230.946E+06     142.288E+06    -6.57671E+06    -6.57197E+06     230.941E+06     142.288E+06    -1.05263E+06
             143     54.5717E-03     17.7117E-03     51.6175E-03     226.479E-03    -17.0085E-03    -209.524E-03    -40.5255E-03     57.4807E-03    -17.0085E-03     424.809E-03     712.730E-03     207.017E+06     233.992E+06     146.109E+06    -2.44836E+06    -2.44262E+06     233.986E+06     146.109E+06    -20.4519E+03
             144     55.5635E-03     17.7127E-03     52.6647E-03     229.658E-03    -16.9360E-03    -212.775E-03    -43.8452E-03     60.7279E-03    -16.9360E-03     429.897E-03     713.505E-03     207.701E+06     233.311E+06     145.251E+06    -3.89175E+06    -3.87539E+06     233.294E+06     145.251E+06    -702.324E+03
             145     56.5479E-03     17.7115E-03     53.7026E-03     233.060E-03    -16.9728E-03    -216.135E-03    -43.7379E-03     60.6625E-03    -16.9728E-03     436.892E-03     716.978E-03     208.344E+06     232.856E+06     145.949E+06    -4.86679E+06    -4.85178E+06     232.841E+06     145.949E+06    -862.288E+03
             146     57.5308E-03     17.7128E-03     54.7362E-03     233.127E-03    -16.9859E-03    -216.187E-03    -42.9325E-03     59.8729E-03    -16.9859E-03     437.394E-03     716.546E-03     207.601E+06     233.023E+06     143.969E+06    -4.24732E+06    -4.24520E+06     233.020E+06     143.969E+06     128.282E+03
             147     58.5119E-03     17.7117E-03     55.7668E-03     232.549E-03    -16.9915E-03    -215.601E-03    -42.6799E-03     59.6282E-03    -16.9915E-03     436.316E-03     715.574E-03     207.962E+06     233.351E+06     144.188E+06    -4.32328E+06    -4.32150E+06     233.350E+06     144.188E+06     76.5665E+03
             148     59.5027E-03     17.7123E-03     56.8053E-03     234.602E-03    -17.0266E-03    -217.619E-03    -42.5451E-03     59.5280E-03    -17.0266E-03     440.548E-03     717.744E-03     208.388E+06     233.465E+06     144.841E+06    -4.58619E+06    -4.58433E+06     233.463E+06     144.841E+06     663.394E+03
             149     61.4729E-03     17.7122E-03     58.8660E-03     232.790E-03    -17.0892E-03    -215.751E-03    -39.3249E-03     56.3641E-03    -17.0892E-03     438.215E-03     717.037E-03     208.020E+06     234.462E+06     142.825E+06    -3.61223E+06    -3.61014E+06     234.459E+06     142.825E+06     179.895E+03
             150     62.4497E-03     17.7123E-03     59.8852E-03     230.123E-03    -16.9992E-03    -213.164E-03    -40.6879E-03     57.6469E-03    -16.9992E-03     432.215E-03     714.895E-03     207.914E+06     235.386E+06     141.591E+06    -2.89627E+06    -2.89389E+06     235.384E+06     141.591E+06     120.035E+03
             151     63.4557E-03     17.7124E-03     60.9335E-03     234.231E-03    -16.9417E-03    -217.327E-03    -45.2853E-03     62.1899E-03    -16.9417E-03     438.574E-03     715.720E-03     209.939E+06     234.214E+06     146.116E+06    -5.36437E+06    -5.36261E+06     234.213E+06     146.116E+06    -648.080E+03
             152     64.4584E-03     17.7112E-03     61.9774E-03     236.795E-03    -17.0061E-03    -219.833E-03    -44.6209E-03     61.5833E-03    -17.0061E-03     444.075E-03     716.630E-03     210.642E+06     233.874E+06     146.905E+06    -6.29923E+06    -6.28471E+06     233.860E+06     146.905E+06     936.356E+03
             153     65.4409E-03     17.7122E-03     62.9983E-03     233.494E-03    -17.0793E-03    -216.446E-03    -40.8823E-03     57.9307E-03    -17.0793E-03     438.954E-03     716.083E-03     208.915E+06     236.190E+06     145.633E+06    -2.72312E+06    -2.70768E+06     236.175E+06     145.633E+06     1.74549E+06
             154     66.4287E-03     17.7112E-03     64.0242E-03     228.407E-03    -17.0632E-03    -211.376E-03    -39.8110E-03     56.8421E-03    -17.0632E-03     429.030E-03     712.530E-03     208.925E+06     236.032E+06     144.001E+06    -3.10721E+06    -3.10524E+06     236.030E+06     144.001E+06     367.321E+03
             155     67.4231E-03     17.7125E-03     65.0549E-03     225.600E-03    -17.0068E-03    -208.642E-03    -40.6378E-03     57.5961E-03    -17.0068E-03     422.980E-03     710.381E-03     209.941E+06     235.476E+06     143.466E+06    -4.75746E+06    -4.75501E+06     235.473E+06     143.466E+06    -637.279E+03
             156     68.4196E-03     17.7118E-03     66.0873E-03     226.524E-03    -16.9364E-03    -209.627E-03    -42.8543E-03     59.7516E-03    -16.9364E-03     423.904E-03     710.448E-03     209.803E+06     235.842E+06     143.013E+06    -4.35174E+06    -4.34696E+06     235.838E+06     143.013E+06     6.19431E+03
             157     69.4342E-03     17.7125E-03     67.1369E-03     231.650E-03    -16.9391E-03    -214.749E-03    -44.4923E-03     61.3940E-03    -16.9391E-03     433.657E-03     713.611E-03     210.356E+06     236.651E+06     143.331E+06    -4.21295E+06    -4.20994E+06     236.648E+06     143.331E+06     273.710E+03
             158     70.4380E-03     17.7116E-03     68.1749E-03     233.110E-03    -17.0200E-03    -216.139E-03    -42.2630E-03     59.2340E-03    -17.0200E-03     437.616E-03     716.374E-03     210.850E+06     236.706E+06     143.343E+06    -4.70113E+06    -4.70053E+06     236.705E+06     143.343E+06    -299.824E+03
             159     71.4256E-03     17.7127E-03     69.1945E-03     229.967E-03    -17.0472E-03    -212.952E-03    -40.5154E-03     57.5305E-03    -17.0472E-03     431.927E-03     714.915E-03     210.776E+06     236.492E+06     144.004E+06    -4.70267E+06    -4.69842E+06     236.488E+06     144.004E+06    -751.137E+03
             160     72.4285E-03     17.7111E-03     70.2297E-03     228.079E-03    -17.0341E-03    -211.064E-03    -41.2427E-03     58.2573E-03    -17.0341E-03     427.722E-03     711.459E-03     211.831E+06     238.074E+06     146.865E+06    -4.08251E+06    -4.05266E+06     238.044E+06     146.865E+06     1.04507E+06
             161     73.4327E-03     17.7124E-03     71.2645E-03     228.267E-03    -17.0250E-03    -211.261E-03    -41.4842E-03     58.4902E-03    -17.0250E-03     428.006E-03     712.957E-03     211.866E+06     238.004E+06     145.698E+06    -4.35532E+06    -4.32922E+06     237.977E+06     145.698E+06     1.51685E+06
             162     74.4339E-03     17.7112E-03     72.2961E-03     229.987E-03    -16.9974E-03    -213.005E-03    -42.7730E-03     59.7547E-03    -16.9974E-03     430.959E-03     715.281E-03     212.348E+06     238.109E+06     144.636E+06    -4.93969E+06    -4.93885E+06     238.108E+06     144.636E+06    -41.1568E+03
             163     75.4505E-03     17.7121E-03     73.3421E-03     229.627E-03    -17.0029E-03    -212.652E-03    -41.5971E-03     58.5717E-03    -17.0029E-03     430.767E-03     713.897E-03     211.226E+06     238.686E+06     140.963E+06    -3.66610E+06    -3.66180E+06     238.682E+06     140.963E+06    -487.223E+03
             164     76.4379E-03     17.7118E-03     74.3575E-03     225.847E-03    -16.9825E-03    -208.902E-03    -40.2700E-03     57.2153E-03    -16.9825E-03     423.667E-03     713.085E-03     210.826E+06     238.467E+06     138.687E+06    -3.71765E+06    -3.71369E+06     238.463E+06     138.687E+06    -661.266E+03
             165     77.4446E-03     17.7124E-03     75.3919E-03     224.674E-03    -16.8779E-03    -207.836E-03    -43.0205E-03     59.8582E-03    -16.8779E-03     420.086E-03     710.662E-03     212.125E+06     239.114E+06     138.341E+06    -4.60049E+06    -4.60035E+06     239.114E+06     138.341E+06     161.936E+03
             166     78.4703E-03     17.7122E-03     76.4452E-03     230.509E-03    -16.8952E-03    -213.654E-03    -43.0980E-03     59.9525E-03    -16.8952E-03     432.008E-03     714.055E-03     211.513E+06     238.586E+06     132.854E+06    -4.92472E+06    -4.92343E+06     238.584E+06     132.854E+06     505.575E+03
             167     79.4798E-03     17.7126E-03     77.4809E-03     236.154E-03    -16.9942E-03    -219.161E-03    -40.7590E-03     57.7514E-03    -16.9942E-03     444.527E-03     720.194E-03     209.994E+06     239.609E+06     129.385E+06    -2.53378E+06    -2.52661E+06     239.602E+06     129.385E+06     1.22477E+06
             168     80.4799E-03     17.7122E-03     78.5067E-03     234.600E-03    -16.9942E-03    -217.619E-03    -39.5671E-03     56.5483E-03    -16.9942E-03     441.886E-03     718.218E-03     209.833E+06     239.995E+06     127.056E+06    -2.11739E+06    -2.10995E+06     239.987E+06     127.056E+06     436.172E+03
             169     81.4791E-03     17.7131E-03     79.5304E-03     231.096E-03    -16.9600E-03    -214.175E-03    -40.1272E-03     57.0478E-03    -16.9600E-03     434.530E-03     714.518E-03     211.959E+06     239.982E+06     128.704E+06    -4.41484E+06    -4.40858E+06     239.976E+06     128.704E+06    -1.18743E+06
             170     82.4879E-03     17.7118E-03     80.5639E-03     230.106E-03    -16.9069E-03    -213.221E-03    -42.3059E-03     59.1906E-03    -16.9069E-03     431.547E-03     712.525E-03     212.856E+06     241.782E+06     131.644E+06    -3.56973E+06    -3.54736E+06     241.759E+06     131.644E+06     693.298E+03
             171     83.5014E-03     17.7129E-03     81.6011E-03     231.275E-03    -16.8565E-03    -214.441E-03    -43.4501E-03     60.2844E-03    -16.8565E-03     433.476E-03     713.323E-03     212.670E+06     240.410E+06     125.776E+06    -4.96216E+06    -4.93806E+06     240.386E+06     125.776E+06     566.452E+03
             172     84.5165E-03     17.7118E-03     82.6397E-03     235.031E-03    -16.8950E-03    -218.164E-03    -43.5540E-03     60.4205E-03    -16.8950E-03     441.105E-03     716.558E-03     213.296E+06     241.443E+06     123.617E+06    -4.77431E+06    -4.75268E+06     241.421E+06     123.617E+06     464.128E+03
             173     85.5344E-03     17.7118E-03     83.6805E-03     233.385E-03    -16.9826E-03    -216.443E-03    -39.9103E-03     56.8527E-03    -16.9826E-03     439.261E-03     716.228E-03     211.637E+06     242.189E+06     120.307E+06    -2.11623E+06    -2.10076E+06     242.174E+06     120.307E+06     1.14150E+06
             174     86.5147E-03     17.7120E-03     84.6822E-03     225.320E-03    -16.9439E-03    -208.409E-03    -37.3017E-03     54.2120E-03    -16.9439E-03     423.948E-03     712.190E-03     210.545E+06     240.303E+06     113.129E+06    -2.72394E+06    -2.71622E+06     240.295E+06     113.129E+06    -1.16614E+06
             175     87.5259E-03     17.7125E-03     85.7149E-03     220.809E-03    -16.7724E-03    -204.061E-03    -40.0900E-03     56.8376E-03    -16.7724E-03     413.650E-03     705.711E-03     209.585E+06     239.367E+06     107.437E+06    -2.23681E+06    -2.22921E+06     239.359E+06     107.437E+06    -764.075E+03
             176     88.5497E-03     17.7127E-03     86.7601E-03     224.206E-03    -16.6633E-03    -207.577E-03    -41.9910E-03     58.6193E-03    -16.6633E-03     419.895E-03     707.743E-03     207.183E+06     234.832E+06     94.8834E+06    -3.09310E+06    -3.06719E+06     234.806E+06     94.8834E+06    -1.56029E+06
             177     89.5666E-03     17.7137E-03     87.7975E-03     228.367E-03    -16.6474E-03    -211.763E-03    -41.5710E-03     58.1752E-03    -16.6474E-03     428.676E-03     712.410E-03     205.581E+06     231.128E+06     85.1361E+06    -3.95581E+06    -3.91494E+06     231.087E+06     85.1361E+06     -3.0749E+06
             178     90.5829E-03     17.7132E-03     88.8341E-03     228.673E-03    -16.6272E-03    -212.085E-03    -39.5792E-03     56.1673E-03    -16.6272E-03     430.223E-03     712.723E-03     202.471E+06     226.118E+06     72.9393E+06    -3.20359E+06    -3.17778E+06     226.092E+06     72.9393E+06    -2.42417E+06
             179     91.5846E-03     17.7148E-03     89.8550E-03     227.278E-03    -16.5152E-03    -210.799E-03    -39.0793E-03     55.5584E-03    -16.5152E-03     427.726E-03     712.420E-03     198.919E+06     219.196E+06     57.3305E+06    -2.77723E+06    -2.73982E+06     219.159E+06     57.3305E+06    -2.80403E+06
             180     92.6010E-03     17.7153E-03     90.8907E-03     227.888E-03    -16.3303E-03    -211.608E-03    -41.1284E-03     57.4080E-03    -16.3303E-03     428.306E-03     711.698E-03     195.360E+06     212.561E+06     43.0640E+06    -820.035E+03    -775.008E+03     212.516E+06     43.0640E+06    -3.08842E+06
             181     93.6246E-03     17.7175E-03     91.9329E-03     231.486E-03    -16.1861E-03    -215.350E-03    -41.8774E-03     58.0136E-03    -16.1861E-03     435.524E-03     713.865E-03     191.206E+06     200.602E+06     24.2714E+06    -2.48058E+06    -2.30218E+06     200.423E+06     24.2714E+06    -5.35656E+06
             182     94.6369E-03     17.7183E-03     92.9634E-03     232.406E-03    -16.0568E-03    -216.414E-03    -40.7225E-03     56.7142E-03    -16.0568E-03     438.113E-03     715.054E-03     186.070E+06     187.671E+06     8.28332E+06    -4.25048E+06    -1.32410E+06     187.417E+06     5.61124E+06    -6.89232E+06
             183     95.6470E-03     17.7213E-03     93.9910E-03     229.699E-03    -15.8769E-03    -213.908E-03    -38.8479E-03     54.6391E-03    -15.8769E-03     433.641E-03     713.968E-03     180.207E+06     172.366E+06    -225.333E+03    -14.2966E+06     124.937E+03     172.015E+06    -14.2966E+06    -7.49954E+06
             184     96.6541E-03     17.7237E-03     95.0152E-03     223.871E-03    -15.6576E-03    -208.256E-03    -36.1729E-03     51.7880E-03    -15.6576E-03     423.076E-03     711.589E-03     174.472E+06     160.238E+06     3.49344E+06    -27.4767E+06     3.75367E+06     159.977E+06    -27.4767E+06    -5.13716E+06
             185     97.6536E-03     17.7292E-03     96.0307E-03     218.158E-03    -15.3769E-03    -202.783E-03    -37.4842E-03     52.8584E-03    -15.3769E-03     411.080E-03     707.762E-03     171.785E+06     166.396E+06     8.13340E+06    -15.3911E+06     8.54623E+06     165.983E+06    -15.3911E+06     5.29659E+06
             186     98.6744E-03     17.7325E-03     97.0680E-03     217.097E-03    -15.2231E-03    -201.876E-03    -42.0889E-03     57.3106E-03    -15.2231E-03     406.999E-03     701.702E-03     178.778E+06     189.201E+06     33.4495E+06    -3.46508E+06     1.49919E+06     188.190E+06     29.4959E+06     13.7619E+06
             187     99.7093E-03     17.7359E-03     98.1193E-03     219.033E-03    -15.4111E-03    -203.622E-03    -41.1522E-03     56.5633E-03    -15.4111E-03     411.163E-03     702.959E-03     189.642E+06     207.469E+06     88.6534E+06    -8.69196E+06    -8.08951E+06     206.866E+06     88.6534E+06     8.15877E+06
             188     100.717E-03     17.7358E-03     99.1430E-03     219.743E-03    -15.7045E-03    -204.034E-03    -37.4141E-03     53.1232E-03    -15.7045E-03     413.989E-03     708.204E-03     194.662E+06     213.629E+06     139.447E+06    -6.27598E+06    -6.26472E+06     213.618E+06     139.447E+06     1.32119E+06
             189     101.734E-03     17.7372E-03     100.176E-03     218.646E-03    -15.8849E-03    -202.768E-03    -33.5576E-03     49.4354E-03    -15.8849E-03     413.127E-03     705.810E-03     200.662E+06     217.789E+06     163.599E+06    -4.39852E+06    -4.38707E+06     217.778E+06     163.599E+06     1.36273E+06
             190     102.741E-03     17.7366E-03     101.199E-03     220.140E-03    -16.0527E-03    -204.102E-03    -29.4796E-03     45.5170E-03    -16.0527E-03     417.547E-03     705.610E-03     206.061E+06     219.029E+06     173.918E+06    -5.69262E+06    -5.69177E+06     219.028E+06     173.918E+06     412.778E+03
             191     103.750E-03     17.7366E-03     102.223E-03     223.521E-03    -16.1856E-03    -207.327E-03    -26.6707E-03     42.8645E-03    -16.1856E-03     425.187E-03     707.137E-03     202.420E+06     213.143E+06     177.775E+06    -4.62994E+06    -4.55806E+06     213.071E+06     177.775E+06    -2.63661E+06
             192     104.757E-03     17.7366E-03     103.245E-03     229.491E-03    -16.2725E-03    -213.205E-03    -25.5839E-03     41.8702E-03    -16.2725E-03     437.526E-03     708.384E-03     198.208E+06     201.426E+06     173.824E+06    -9.04268E+06    -8.82613E+06     201.209E+06     173.824E+06    -6.63911E+06
             193     105.766E-03     17.7366E-03     104.268E-03     235.298E-03    -16.3236E-03    -218.970E-03    -26.7463E-03     43.0749E-03    -16.3236E-03     448.869E-03     702.005E-03     190.679E+06     195.842E+06     179.427E+06    -2.48878E+06    -2.34050E+06     195.694E+06     179.427E+06    -3.30185E+06
             194     106.764E-03     17.7366E-03     105.281E-03     228.609E-03    -16.2394E-03    -212.377E-03    -26.3593E-03     42.5915E-03    -16.2394E-03     435.562E-03     680.478E-03     178.980E+06     180.949E+06     169.471E+06    -3.49367E+06    -3.28881E+06     180.744E+06     169.471E+06    -3.67751E+06
             195     107.727E-03     17.7374E-03     106.257E-03     209.153E-03    -15.8609E-03    -193.302E-03    -33.1089E-03     48.9602E-03    -15.8609E-03     393.455E-03     648.880E-03     171.178E+06     170.902E+06     162.455E+06    -4.33401E+06    -3.99959E+06     167.480E+06     165.542E+06    -7.55504E+06
             196     108.733E-03     17.7371E-03     107.277E-03     195.541E-03    -15.1386E-03    -180.400E-03    -53.8902E-03     69.0313E-03    -15.1386E-03     354.162E-03     606.152E-03     172.982E+06     168.605E+06     162.184E+06    -7.49850E+06    -7.05742E+06     161.743E+06     168.605E+06    -8.48492E+06
             197     109.798E-03     17.7389E-03     108.356E-03     196.259E-03    -14.5800E-03    -181.676E-03    -72.5150E-03     87.0985E-03    -14.5800E-03     342.435E-03     563.705E-03     174.028E+06     159.754E+06     129.017E+06    -26.2139E+06    -20.8940E+06     123.697E+06     159.754E+06    -22.9286E+06
             198     110.864E-03     17.7393E-03     109.436E-03     196.612E-03    -14.3279E-03    -182.275E-03    -78.9954E-03     93.3322E-03    -14.3279E-03     337.406E-03     524.398E-03     141.200E+06     161.446E+06     105.444E+06     1.37389E+06     10.4341E+06     96.3835E+06     161.446E+06    -6.34234E+06
             199     111.910E-03     17.7421E-03     110.495E-03     187.601E-03    -13.9674E-03    -173.626E-03    -78.4274E-03     92.4027E-03    -13.9674E-03     318.258E-03     473.685E-03     126.075E+06     103.793E+06      71.837E+06    -32.4528E+06    -16.1975E+06     58.9394E+06     100.435E+06    -15.4850E+06
             200     112.963E-03     17.7422E-03     111.561E-03     164.955E-03    -13.9671E-03    -150.986E-03    -61.5460E-03     75.5148E-03    -13.9671E-03     284.047E-03     382.306E-03     99.9962E+06     41.1599E+06     29.2956E+06    -63.7943E+06    -19.6968E+06    -2.93758E+06     29.2956E+06    -34.0585E+06
             201     113.969E-03     17.7457E-03     112.579E-03     124.394E-03    -15.6744E-03    -108.720E-03    -25.6727E-03     41.3468E-03    -15.6744E-03     221.737E-03     226.285E-03     59.7185E+06     30.9269E+06     19.3309E+06    -33.5547E+06     12.0221E+06    -17.7393E+06     22.4202E+06     6.77753E+06
             202     114.922E-03     17.6716E-03     113.556E-03     57.2502E-03    -2.53593E-03    -54.7194E-03     3.82652E-03     17.9789E-03    -21.8104E-03     91.6079E-03     79.5775E-03     87.5640E+06     25.3023E+06     358.926E+03    -71.4376E+06     8.00076E+06    -13.3204E+06    -40.4567E+06     14.3325E+06
             203     115.436E-03     16.4261E-03     114.262E-03     17.9317E-03     8.96581E-03    -26.9026E-03     11.2351E-03     15.6624E-03    -26.9026E-03     7.67528E-03     28.4183E-03      94.606E+06     41.6036E+06    -5.32545E+06    -66.1541E+06     7.15519E+06     12.1993E+06    -49.2305E+06     16.5223E+06
             204     115.085E-03     15.4470E-03     114.043E-03     41.0137E-03    -10.6193E-03    -30.3983E-03    -12.0409E-03     39.2501E-03    -27.2132E-03     7.66843E-03     51.1823E-03     91.0116E+06     72.7957E+06     3.38591E+06    -29.9254E+06    -19.6577E+06     18.1931E+06     47.7207E+06     10.0444E+06
             205     114.748E-03     14.5354E-03     113.824E-03     60.2129E-03    -26.0867E-03    -34.1278E-03    -34.0573E-03     60.1424E-03    -26.0867E-03    -2.30670E-03     70.3199E-03     95.1095E+06     71.0653E+06     13.3074E+06    -35.3705E+06    -22.4034E+06     340.292E+03     71.0653E+06    -21.1217E+06
             206     114.476E-03     13.6058E-03     113.664E-03     60.5745E-03    -24.3033E-03    -36.2667E-03    -36.0101E-03     60.3179E-03    -24.3033E-03    -9.63648E-03     68.2705E-03     83.0991E+06     53.5405E+06     8.20475E+06    -40.2866E+06    -13.9238E+06    -18.1580E+06     53.5405E+06    -13.7970E+06
             207     114.254E-03     12.6583E-03     113.551E-03     60.2694E-03    -22.7291E-03    -37.5366E-03    -37.1290E-03     59.8619E-03    -22.7291E-03    -12.5944E-03     66.2670E-03     81.6712E+06     69.9994E+06     14.7274E+06    -23.4518E+06    -6.83777E+06    -1.88660E+06     69.9994E+06    -2.06589E+06
             208     114.056E-03     11.7138E-03     113.452E-03     56.9834E-03    -21.1354E-03    -35.8472E-03    -35.4969E-03     56.6331E-03    -21.1354E-03    -11.3343E-03     61.4074E-03     83.4656E+06     75.2586E+06     20.1653E+06    -20.5582E+06    -2.58183E+06     2.18890E+06     75.2586E+06    -8.02440E+06
             209     113.892E-03     10.7576E-03     113.383E-03     53.1418E-03    -19.5685E-03    -33.5733E-03    -33.3455E-03     52.9139E-03    -19.5685E-03    -8.84682E-03     56.3179E-03     77.8412E+06     71.0943E+06     11.2072E+06    -16.6465E+06     879.618E+03    -6.31890E+06     71.0943E+06    -5.44429E+06
             210     113.743E-03     9.79855E-03     113.320E-03     48.6506E-03    -18.0190E-03    -30.6284E-03    -30.4708E-03     48.4930E-03    -18.0190E-03    -7.05294E-03     50.8888E-03     63.1279E+06     60.4708E+06     6.54250E+06    -8.93875E+06    -2.50993E+06     113.685E+03     60.4708E+06    -821.428E+03
             211     113.618E-03     8.83423E-03     113.274E-03     43.2882E-03    -16.6183E-03    -26.6790E-03    -26.5737E-03     43.1829E-03    -16.6183E-03    -5.39973E-03     44.7278E-03     56.0038E+06     48.2158E+06     5.82585E+06    -14.5179E+06    -7.99562E+06    -696.467E+03     48.2158E+06    -1.54456E+06
             212     113.508E-03     7.86404E-03     113.235E-03     38.8373E-03    -15.4122E-03    -23.4329E-03    -23.3606E-03     38.7650E-03    -15.4122E-03    -4.24084E-03     39.7401E-03     49.4642E+06     42.4682E+06     5.52217E+06    -12.9927E+06    -9.74077E+06     2.27021E+06     42.4682E+06    -3.56015E+06
             213     113.417E-03     6.88916E-03     113.208E-03     34.9635E-03    -14.3110E-03    -20.6518E-03    -20.5927E-03     34.9043E-03    -14.3110E-03    -3.62409E-03     35.5157E-03     40.3810E+06     32.9634E+06     5.25015E+06    -11.8264E+06    -6.95783E+06     381.586E+03     32.9634E+06    -6.47755E+06
             214     113.338E-03     5.91203E-03     113.184E-03     31.4269E-03    -13.3856E-03    -18.0483E-03    -18.0066E-03     31.3851E-03    -13.3856E-03    -2.85865E-03     31.7343E-03     39.9893E+06     32.1442E+06     10.1606E+06    -13.7438E+06    -1.13228E+06    -2.45099E+06     32.1442E+06    -6.75475E+06
             215     113.276E-03     4.93181E-03     113.168E-03     28.2588E-03    -12.6174E-03    -15.6447E-03    -15.6173E-03     28.2313E-03    -12.6174E-03    -2.19400E-03     28.4057E-03     33.1122E+06     30.3254E+06     10.8815E+06    -7.76147E+06     3.68294E+06    -562.933E+03     30.3254E+06    -4.39401E+06
             216     113.224E-03     3.94728E-03     113.155E-03     25.7535E-03    -11.9909E-03    -13.7628E-03    -13.7393E-03     25.7300E-03    -11.9909E-03    -1.92492E-03     25.8214E-03     26.3545E+06     21.8095E+06     16.4873E+06    -6.33240E+06      8.9639E+06     1.67088E+06     21.3296E+06    -6.42683E+06
             217     113.186E-03     2.96214E-03     113.147E-03     24.3677E-03    -11.5408E-03    -12.8265E-03    -12.8096E-03     24.3509E-03    -11.5408E-03    -1.56003E-03     24.4047E-03     27.7213E+06     25.2775E+06     18.1111E+06    -4.52155E+06     16.5516E+06    -2.48215E+06     24.7976E+06    -6.54842E+06
             218     113.159E-03     1.97664E-03     113.141E-03     22.9723E-03    -11.1616E-03    -11.8103E-03    -11.8032E-03     22.9652E-03    -11.1616E-03    -962.500E-06     22.9913E-03     28.2607E+06     33.6557E+06     22.4748E+06     1.77507E+06     21.5834E+06     2.66653E+06     33.6557E+06    -3.69802E+06
             219     113.142E-03     987.483E-06     113.137E-03     21.9205E-03    -10.6298E-03    -11.2906E-03    -11.2851E-03     21.9149E-03    -10.6298E-03    -838.657E-06     21.9367E-03     36.4675E+06     30.0580E+06     23.4861E+06    -9.14440E+06     22.4990E+06    -8.15726E+06     30.0580E+06    -5.39786E+06
             220     112.116E-03    -2.16499E-06     112.116E-03     19.5934E-03    -9.07533E-03    -10.5184E-03    -9.72605E-03     19.5893E-03    -9.86363E-03    -614.778E-06     19.6391E-03     39.9558E+06     20.9693E+06     16.3476E+06    -21.0940E+06     17.4760E+06    -19.6784E+06     18.4252E+06    -7.35612E+06
             221     111.098E-03     521.299E-09     111.098E-03     15.6048E-03    -7.19177E-03    -8.41311E-03    -7.62193E-03     15.6019E-03    -7.98007E-03    -442.249E-06     15.6690E-03     25.8868E+06    -11.9030E+06    -18.8245E+06    -39.7969E+06    -16.4458E+06    -35.2541E+06    -18.8245E+06    -6.96301E+06
             222     110.085E-03     302.120E-09     110.085E-03     11.4107E-03    -5.40701E-03    -6.00348E-03    -5.83568E-03     11.4064E-03    -5.57044E-03    -549.265E-06     11.4588E-03     15.6909E+06    -50.8371E+06    -64.8018E+06    -67.4239E+06    -64.2763E+06    -53.9082E+06    -64.8783E+06    -4.28856E+06
             223     109.074E-03    -644.588E-09     109.074E-03     7.43201E-03    -3.61722E-03    -3.81469E-03    -3.64954E-03     7.43029E-03    -3.78066E-03    -216.503E-06     7.47205E-03     31.5674E+06    -67.9538E+06    -98.2733E+06    -100.596E+06    -99.9635E+06    -68.5096E+06    -98.3498E+06    -4.13921E+06
             224     108.071E-03     727.017E-09     108.071E-03     4.80582E-03    -2.36227E-03    -2.44356E-03    -2.39618E-03     4.80570E-03    -2.40953E-03    -39.8572E-06     4.84257E-03     59.5268E+06    -85.8930E+06    -144.177E+06    -146.489E+06    -145.122E+06    -87.2604E+06    -144.177E+06    -8.99519E+06
             225     107.065E-03    -839.344E-09     107.065E-03     2.72329E-03    -1.32020E-03    -1.40311E-03    -1.31676E-03     2.71985E-03    -1.40311E-03     95.4537E-06     2.74211E-03     88.2396E+06    -107.889E+06    -195.380E+06    -196.848E+06    -194.556E+06    -108.779E+06    -196.782E+06    -5.45552E+06
             226     106.065E-03     739.792E-09     106.065E-03     1.68070E-03    -800.289E-06    -880.450E-06    -838.738E-06     1.67464E-03    -835.944E-06     246.973E-06     1.68692E-03     64.4390E+06    -106.442E+06    -169.919E+06    -171.801E+06    -166.086E+06    -110.275E+06    -171.801E+06     6.35769E+06
             227     105.061E-03    -716.537E-09     105.061E-03     1.96749E-03    -945.309E-06    -1.02219E-03    -985.246E-06     1.96292E-03    -977.681E-06     228.072E-06     1.97217E-03     47.6974E+06    -40.1930E+06    -74.9229E+06    -93.3253E+06    -67.2522E+06    -65.7853E+06    -75.4036E+06     25.5307E+06
             228     104.061E-03     595.242E-09     104.061E-03     3.40640E-03    -1.67463E-03    -1.73164E-03    -1.68527E-03     3.39240E-03    -1.70700E-03     516.663E-06     3.41328E-03     72.1953E+06     45.1999E+06    -6.91815E+06    -36.7305E+06    -11.6147E+06     20.0840E+06    -6.91815E+06     30.9389E+06
             229     103.055E-03    -453.371E-09     103.055E-03     5.90452E-03    -2.90502E-03    -2.99941E-03    -2.97903E-03     5.88415E-03    -2.90502E-03     829.942E-06     5.91762E-03     84.0716E+06     96.3560E+06     19.8448E+06     7.54863E+06      11.472E+06     92.8381E+06     19.4394E+06     14.2247E+06
             230     102.049E-03     570.839E-09     102.049E-03     9.13604E-03    -4.51628E-03    -4.61965E-03    -4.55950E-03     9.10952E-03    -4.54991E-03     1.19947E-03     9.16550E-03     80.1488E+06     123.219E+06     45.2521E+06     41.1839E+06     41.9787E+06     122.829E+06     44.8466E+06    -131.421E+03
             231     101.035E-03    -625.697E-09     101.035E-03     12.7699E-03    -6.34890E-03    -6.42096E-03    -6.30273E-03     12.7237E-03    -6.42096E-03     1.87604E-03     12.8077E-03     49.4759E+06     121.515E+06     76.4807E+06     68.7315E+06     73.0951E+06     121.238E+06     72.3942E+06    -3.64629E+06
             232     100.020E-03     438.906E-09     100.020E-03     16.4841E-03    -8.13355E-03    -8.35093E-03    -8.25680E-03     16.4284E-03    -8.17198E-03     2.34378E-03     16.5198E-03     21.6260E+06     111.339E+06     97.5893E+06     87.6108E+06     93.4790E+06     108.461E+06     94.5992E+06    -3.48071E+06
             233     99.0009E-03    -65.7440E-09     99.0009E-03     20.1491E-03    -9.98323E-03    -10.1659E-03    -10.1182E-03     20.1013E-03    -9.98323E-03     2.38438E-03     20.1966E-03     19.1448E+06     111.131E+06     105.417E+06     89.8486E+06     104.937E+06     94.9470E+06     106.514E+06    -6.22281E+06
             234     97.9797E-03    -11.7842E-09     97.9797E-03     23.9841E-03    -11.9643E-03    -12.0194E-03    -11.9875E-03     23.9522E-03    -11.9643E-03     2.11204E-03     24.0417E-03     40.8126E+06     116.141E+06     109.944E+06     72.9129E+06     113.115E+06     74.3603E+06     111.524E+06    -7.23803E+06
             235     96.9526E-03     121.505E-09     96.9526E-03     27.5392E-03    -13.7187E-03    -13.8199E-03    -13.7984E-03     27.5177E-03    -13.7187E-03     1.88088E-03     27.6030E-03     62.8666E+06     117.437E+06     113.540E+06     52.7133E+06     115.253E+06     53.3182E+06     115.119E+06    -5.54283E+06
             236     95.9232E-03    -67.3379E-09     95.9232E-03     29.8617E-03    -14.8746E-03    -14.9870E-03    -14.9723E-03     29.8470E-03    -14.8746E-03     1.60575E-03     29.9246E-03     69.7918E+06     106.886E+06     103.193E+06     35.3261E+06     105.355E+06     35.4825E+06     104.568E+06    -3.29288E+06
             237     94.8922E-03     205.660E-09     94.8922E-03     31.3863E-03    -15.5545E-03    -15.8319E-03    -15.8178E-03     31.3722E-03    -15.5545E-03     1.62052E-03     31.4542E-03     79.4715E+06     95.6824E+06     94.0112E+06     15.3963E+06     94.0490E+06     15.6547E+06     95.3861E+06    -4.40644E+06
             238     93.8592E-03     203.677E-09     93.8592E-03     32.5283E-03    -16.1330E-03    -16.3957E-03    -16.3353E-03     32.5158E-03    -16.1808E-03     1.52387E-03     32.6005E-03     93.9664E+06     90.2534E+06     88.9811E+06    -4.34122E+06     88.7956E+06    -3.85952E+06     89.9572E+06    -6.68312E+06
             239     92.8273E-03    -282.889E-09     92.8273E-03     33.4393E-03    -16.6788E-03    -16.7613E-03    -16.7088E-03     33.4346E-03    -16.7267E-03     920.220E-06     33.5061E-03     107.159E+06     82.6524E+06     78.8268E+06    -26.3592E+06     81.0569E+06    -25.7399E+06     79.8030E+06    -8.15618E+06
             240     91.7924E-03     320.980E-09     91.7924E-03     34.2855E-03    -17.0768E-03    -17.2099E-03    -17.2073E-03     34.2830E-03    -17.0768E-03     715.824E-06     34.3520E-03     107.273E+06     60.6655E+06     56.2458E+06    -48.7460E+06     58.5412E+06    -48.1920E+06     57.8160E+06    -7.69571E+06
             241     90.7580E-03    -99.9029E-09     90.7580E-03     34.6473E-03    -17.2633E-03    -17.3856E-03    -17.3829E-03     34.6446E-03    -17.2633E-03     741.883E-06     34.7120E-03     106.400E+06     40.3812E+06     36.5495E+06    -67.8822E+06     38.5231E+06    -67.5944E+06     38.1197E+06    -5.25805E+06
             242     89.7220E-03     119.921E-09     89.7220E-03     34.3401E-03    -17.0654E-03    -17.2750E-03    -17.0779E-03     34.3289E-03    -17.2513E-03     1.36029E-03     34.4139E-03     111.998E+06     31.5641E+06     27.8752E+06    -82.2308E+06     30.0676E+06    -82.1618E+06     29.3027E+06    -2.11221E+06
             243     88.6875E-03    -479.852E-09     88.6875E-03     34.0733E-03    -16.8186E-03    -17.2533E-03    -17.0547E-03     34.0605E-03    -17.0044E-03     1.53861E-03     34.1460E-03     114.396E+06     22.0606E+06     19.4519E+06    -93.6167E+06     20.5530E+06    -93.5366E+06     20.8794E+06    -2.30092E+06
             244     87.6548E-03     956.232E-09     87.6548E-03     34.1798E-03    -16.9433E-03    -17.2355E-03    -17.2323E-03     34.1766E-03    -16.9433E-03     754.581E-06     34.2424E-03     118.918E+06     12.8902E+06     9.83250E+06    -107.526E+06     10.7715E+06    -107.284E+06     11.7090E+06    -5.26922E+06
             245     86.6208E-03    -837.090E-09     86.6208E-03     34.4904E-03    -17.2135E-03    -17.2770E-03    -17.2758E-03     34.4892E-03    -17.2135E-03     485.512E-06     34.5531E-03     124.556E+06     5.78502E+06     498.509E+03    -121.324E+06     3.73162E+06    -121.147E+06     2.37499E+06    -4.06913E+06
             246     85.5848E-03     834.678E-09     85.5848E-03     34.5925E-03    -17.2574E-03    -17.3355E-03    -17.3326E-03     34.5896E-03    -17.2574E-03     742.025E-06     34.6592E-03     132.122E+06     3.82793E+06    -3.11680E+06    -131.630E+06     239.745E+03    -131.576E+06     417.909E+03    -2.57911E+06
             247     84.5510E-03    -672.427E-09     84.5510E-03     34.2408E-03    -17.0394E-03    -17.2018E-03    -17.1993E-03     34.2383E-03    -17.0394E-03     653.836E-06     34.3082E-03     138.733E+06    -1.76585E+06    -7.77796E+06    -143.403E+06    -5.43397E+06    -143.269E+06    -4.24325E+06    -4.21352E+06
             248     83.5173E-03     850.475E-09     83.5173E-03     34.1019E-03    -16.9841E-03    -17.1179E-03    -17.0840E-03     34.0972E-03    -17.0134E-03     835.628E-06     34.1701E-03     139.871E+06    -9.42279E+06    -13.4844E+06    -151.279E+06    -11.1065E+06    -151.180E+06    -11.9002E+06    -3.19641E+06
             249     82.4823E-03    -890.000E-09     82.4823E-03     33.9303E-03    -16.8857E-03    -17.0430E-03    -17.0063E-03     33.9231E-03    -16.9151E-03     1.21332E-03     33.9975E-03     146.980E+06    -14.6841E+06    -17.3038E+06    -162.956E+06    -16.3284E+06    -162.896E+06    -15.7196E+06    -2.66514E+06
             250     81.4485E-03     1.12878E-06     81.4485E-03     33.4003E-03    -16.5098E-03    -16.8884E-03    -16.8838E-03     33.3956E-03    -16.5098E-03     959.739E-06     33.4713E-03     160.808E+06    -12.6825E+06    -15.1267E+06    -174.698E+06    -14.1591E+06    -174.630E+06    -13.7180E+06    -3.10835E+06
             251     80.4178E-03    -615.560E-09     80.4178E-03     33.2662E-03    -16.4145E-03    -16.8513E-03    -16.6627E-03     33.2636E-03    -16.6006E-03     703.656E-06     33.3638E-03     167.142E+06    -12.0177E+06    -15.0644E+06    -180.663E+06    -13.4714E+06    -180.617E+06    -13.6558E+06    -2.68672E+06
             252     79.3829E-03     232.117E-09     79.3829E-03     33.7921E-03    -16.7952E-03    -16.9969E-03    -16.8020E-03     33.7832E-03    -16.9812E-03     1.19978E-03     33.9190E-03     173.065E+06    -10.8050E+06    -12.6141E+06    -184.763E+06    -11.0442E+06    -184.694E+06    -12.4431E+06     116.909E+03
             253     78.3488E-03    -211.337E-09     78.3488E-03     33.7639E-03    -16.7894E-03    -16.9751E-03    -16.9669E-03     33.7557E-03    -16.7894E-03     1.02807E-03     33.9229E-03     176.857E+06    -10.2090E+06    -10.8337E+06    -187.378E+06    -10.9025E+06    -187.309E+06    -10.2090E+06     75.2755E+03
             254     77.3171E-03     556.168E-09     77.3171E-03     33.3404E-03    -16.5196E-03    -16.8209E-03    -16.8208E-03     33.3402E-03    -16.5196E-03     190.427E-06     33.5421E-03     175.301E+06    -14.5687E+06    -15.3947E+06    -190.281E+06    -15.0603E+06    -190.243E+06    -14.9411E+06    -2.36656E+06
             255     76.2849E-03    -297.905E-09     76.2849E-03     33.8005E-03    -16.7014E-03    -17.0987E-03    -16.8289E-03     33.7966E-03    -16.9673E-03     697.288E-06     34.0434E-03     178.630E+06    -9.82552E+06    -10.9953E+06    -189.037E+06    -9.83065E+06    -189.032E+06    -10.9953E+06    -747.235E+03
             256     75.2479E-03    -241.371E-09     75.2479E-03     34.2702E-03    -16.9040E-03    -17.3650E-03    -17.0902E-03     34.2612E-03    -17.1699E-03     1.35218E-03     34.6113E-03     181.726E+06    -6.71530E+06    -8.46262E+06    -189.308E+06    -7.68480E+06    -189.289E+06    -7.51268E+06     1.23361E+06
             257     74.2159E-03     632.289E-09     74.2159E-03     33.9130E-03    -16.7801E-03    -17.1329E-03    -17.1261E-03     33.9062E-03    -16.7801E-03     1.14399E-03     34.2902E-03     181.773E+06    -9.49943E+06    -10.7550E+06    -191.896E+06    -10.7759E+06    -191.875E+06    -9.49943E+06     959.000E+03
             258     73.1823E-03    -318.927E-09     73.1823E-03     33.4409E-03    -16.5523E-03    -16.8901E-03    -16.7052E-03     33.4361E-03    -16.7324E-03     969.240E-06     33.7862E-03     182.419E+06    -7.87165E+06    -8.62065E+06    -190.664E+06    -8.18006E+06    -190.661E+06    -8.31498E+06    -706.808E+03
             259     72.1494E-03    -44.2376E-09     72.1494E-03     33.6057E-03    -16.5615E-03    -17.0440E-03    -16.8579E-03     33.5997E-03    -16.7416E-03     1.10603E-03     33.9763E-03     185.437E+06    -4.72104E+06    -5.69733E+06    -190.644E+06    -5.25656E+06    -190.641E+06    -5.16437E+06    -5.42094E+03
             260     71.1156E-03     644.774E-09     71.1156E-03     33.5902E-03    -16.6361E-03    -16.9537E-03    -16.9491E-03     33.5856E-03    -16.6361E-03     948.235E-06     34.0364E-03     187.545E+06    -4.19630E+06    -4.90017E+06    -192.092E+06    -4.90141E+06    -192.091E+06    -4.19630E+06     357.763E+03
             261     70.0832E-03    -612.223E-09     70.0832E-03     32.9702E-03    -16.4254E-03    -16.5445E-03    -16.4379E-03     32.9676E-03    -16.5294E-03     716.061E-06     33.4631E-03     186.756E+06    -5.83273E+06    -7.66460E+06    -193.494E+06    -6.00408E+06    -193.494E+06    -7.49369E+06    -186.840E+03
             262     69.0507E-03     387.440E-09     69.0507E-03     32.9706E-03    -16.2942E-03    -16.6754E-03    -16.5690E-03     32.9681E-03    -16.3982E-03     700.453E-06     33.4492E-03     188.275E+06    -3.58249E+06    -7.05600E+06    -193.570E+06    -5.39562E+06    -193.570E+06    -5.24345E+06    -86.6699E+03
             263     68.0184E-03     183.211E-09     68.0184E-03     33.5493E-03    -16.6229E-03    -16.9261E-03    -16.8983E-03     33.5474E-03    -16.6489E-03     579.168E-06     34.0347E-03     188.942E+06    -402.124E+03    -3.16849E+06    -190.711E+06    -2.22213E+06    -190.704E+06    -1.35594E+06    -718.384E+03
             264     66.9849E-03    -243.013E-09     66.9849E-03     33.8764E-03    -16.8916E-03    -16.9844E-03    -16.8885E-03     33.8733E-03    -16.9844E-03     727.525E-06     34.3549E-03     189.213E+06     1.29560E+06    -586.630E+03    -188.852E+06     354.564E+03    -188.839E+06     341.784E+03    -1.54138E+06
             265     65.9498E-03     124.533E-09     65.9498E-03     33.5427E-03    -16.6604E-03    -16.8821E-03    -16.8108E-03     33.5381E-03    -16.7272E-03     957.562E-06     34.0463E-03     188.607E+06    -144.742E+03    -2.37790E+06    -189.858E+06    -1.07989E+06    -189.852E+06    -1.44948E+06    -340.649E+03
             266     64.9185E-03     164.122E-09     64.9185E-03     33.2436E-03    -16.5072E-03    -16.7380E-03    -16.6554E-03     33.2369E-03    -16.5830E-03     1.12624E-03     33.7802E-03     186.688E+06    -2.37517E+06    -4.93425E+06    -190.330E+06    -3.63444E+06    -190.325E+06    -3.67991E+06    -202.544E+03
             267     63.8849E-03    -300.713E-09     63.8849E-03     33.5845E-03    -16.6599E-03    -16.9257E-03    -16.8436E-03     33.5782E-03    -16.7357E-03     1.07476E-03     34.0012E-03     187.795E+06    -2.32527E+06    -4.92455E+06    -191.407E+06    -3.58442E+06    -191.402E+06    -3.67022E+06    -217.005E+03
             268     62.8511E-03     658.331E-09     62.8511E-03     33.8305E-03    -16.8031E-03    -17.0266E-03    -17.0168E-03     33.8207E-03    -16.8031E-03     1.30455E-03     34.3108E-03     190.642E+06    -1.86175E+06    -3.87125E+06    -193.499E+06    -2.57587E+06    -193.450E+06    -3.20669E+06     2.49225E+06
             269     61.8181E-03    -593.865E-09     61.8181E-03     33.8916E-03    -16.8872E-03    -17.0037E-03    -16.9122E-03     33.8831E-03    -16.9703E-03     1.02431E-03     34.4713E-03     189.885E+06    -1.05157E+06    -2.66540E+06    -191.738E+06    -1.79001E+06    -191.664E+06    -2.00084E+06     580.898E+03
             270     60.7849E-03     422.434E-09     60.7849E-03     34.1291E-03    -16.8720E-03    -17.2574E-03    -17.1730E-03     34.1277E-03    -16.9550E-03     455.807E-06     34.5468E-03     187.858E+06    -105.791E+03    -2.97972E+06    -189.382E+06    -2.05912E+06    -189.353E+06    -1.05506E+06    -2.09255E+06
             271     59.7510E-03     199.484E-09     59.7510E-03     34.3400E-03    -16.9216E-03    -17.4189E-03    -17.2208E-03     34.3369E-03    -17.1165E-03     797.790E-06     34.7416E-03     187.673E+06     1.02222E+06    -2.11841E+06    -188.200E+06    -931.086E+03    -188.172E+06    -193.756E+03    -2.09135E+06
             272     58.7161E-03    -599.616E-09     58.7161E-03     34.2360E-03    -17.0022E-03    -17.2341E-03    -16.9991E-03     34.2328E-03    -17.2341E-03     801.027E-06     34.7316E-03     187.472E+06     1.50348E+06    -1.28741E+06    -187.348E+06     1.43068E+06    -187.275E+06    -1.28741E+06     546.249E+03
             273     57.6830E-03     509.162E-09     57.6830E-03     34.2349E-03    -16.9885E-03    -17.2458E-03    -17.2042E-03     34.2303E-03    -17.0255E-03     950.873E-06     34.7805E-03     186.335E+06     1.03231E+06    -3.02159E+06    -187.295E+06    -1.49681E+06    -187.245E+06    -542.604E+03     1.58883E+06
             274     58.7368E-03     16.7264E-03     56.3048E-03     230.936E-03    -16.9090E-03    -214.045E-03    -44.3866E-03     61.2777E-03    -16.9090E-03     432.217E-03     627.092E-03     197.485E+06     218.145E+06     109.095E+06    -7.78536E+06    -7.78258E+06     218.143E+06     109.095E+06     192.174E+03
             275     58.0219E-03     15.7393E-03     55.8464E-03     144.427E-03    -16.5785E-03    -127.843E-03    -32.3007E-03     48.8843E-03    -16.5785E-03     258.270E-03     335.110E-03     170.734E+06     167.051E+06     30.2430E+06    -21.7227E+06    -11.8759E+06     167.003E+06     20.4441E+06    -279.020E+03
             276     57.6703E-03     14.7562E-03     55.7505E-03     48.2958E-03    -16.2907E-03    -32.0015E-03    -17.0881E-03     33.3823E-03    -16.2907E-03     58.6353E-03     110.193E-03     131.843E+06     89.5436E+06    -10.9820E+06    -55.0383E+06    -10.8150E+06     89.3766E+06    -55.0383E+06     -645.05E+03
             277     57.4010E-03     13.7719E-03     55.7244E-03     34.3391E-03    -16.2952E-03    -18.0356E-03    -16.0024E-03     32.3058E-03    -16.2952E-03     19.6531E-03     75.1466E-03     82.7077E+06     24.4071E+06    -9.68613E+06    -69.0061E+06    -7.76006E+06     22.4810E+06    -69.0061E+06    -702.861E+03
             278     57.1576E-03     12.7868E-03     55.7090E-03     33.5375E-03    -16.4867E-03    -17.0685E-03    -16.2129E-03     32.6818E-03    -16.4867E-03     12.9341E-03     59.6697E-03     44.4107E+06    -1.43967E+06    -18.8546E+06    -50.4741E+06    -5.54656E+06    -21.3046E+06    -43.9171E+06     922.865E+03
             279     56.9341E-03     11.8033E-03     55.6972E-03     33.5175E-03    -16.6264E-03    -16.9359E-03    -16.3391E-03     32.9207E-03    -16.6264E-03     10.9046E-03     53.9362E-03     48.2474E+06    -2.08886E+06    -26.7920E+06    -56.9842E+06    -2.40998E+06    -56.6631E+06    -26.7920E+06     2.31857E+06
             280     56.7268E-03     10.8188E-03     55.6856E-03     33.7220E-03    -16.6919E-03    -17.0740E-03    -16.4985E-03     33.1465E-03    -16.6919E-03     10.7512E-03     50.2233E-03     76.1512E+06     1.10834E+06    -21.2954E+06    -83.4210E+06     1.05318E+06    -83.3659E+06    -21.2954E+06     1.01225E+06
             281     56.5364E-03     9.83531E-03     55.6743E-03     33.8431E-03    -16.7806E-03    -17.0880E-03    -16.5857E-03     33.3408E-03    -16.7806E-03     10.0292E-03     46.5310E-03     98.3108E+06     2.52123E+06    -9.86344E+06    -101.137E+06     2.49789E+06    -101.113E+06    -9.86344E+06     86.6390E+03
             282     56.3636E-03     8.85108E-03     55.6643E-03     33.8847E-03    -16.8630E-03    -17.0262E-03    -16.6321E-03     33.4906E-03    -16.8630E-03     8.91878E-03     43.5384E-03     118.490E+06     2.66752E+06    -2.33849E+06    -118.219E+06     2.35338E+06    -118.196E+06    -2.04670E+06     986.672E+03
             283     56.2089E-03     7.86782E-03     55.6556E-03     33.9338E-03    -16.9154E-03    -17.0219E-03    -16.6713E-03     33.5897E-03    -16.9219E-03     8.33652E-03     41.2245E-03     135.549E+06     2.91085E+06    -817.433E+03    -134.448E+06     1.94858E+06    -134.439E+06     135.671E+03     470.196E+03
             284     56.0711E-03     6.88378E-03     55.6469E-03     34.0664E-03    -16.9753E-03    -17.0935E-03    -16.7936E-03     33.7732E-03    -16.9819E-03     7.71601E-03     39.4753E-03     149.018E+06     4.90105E+06     1.31036E+06    -145.876E+06     2.26696E+06    -145.866E+06     3.93375E+06    -252.000E+03
             285     55.9513E-03     5.90063E-03     55.6392E-03     34.1325E-03    -17.0318E-03    -17.1039E-03    -16.8675E-03     33.8967E-03    -17.0323E-03     6.91881E-03     37.9930E-03     161.326E+06     6.21895E+06     3.10764E+06    -156.636E+06     3.08906E+06    -156.617E+06     6.21895E+06     674.465E+03
             286     55.8492E-03     4.91665E-03     55.6324E-03     34.1504E-03    -17.0549E-03    -17.0992E-03    -16.9112E-03     33.9736E-03    -17.0661E-03     5.99298E-03     36.7516E-03     169.867E+06     4.53303E+06     2.96198E+06    -166.112E+06     3.02041E+06    -166.100E+06     4.46298E+06     647.901E+03
             287     55.7655E-03     3.93345E-03     55.6266E-03     34.2883E-03    -17.0879E-03    -17.2024E-03    -17.0651E-03     34.1616E-03    -17.0985E-03     5.07633E-03     35.9449E-03     179.010E+06     3.52706E+06     2.61623E+06    -175.935E+06     2.67896E+06    -175.928E+06     3.45701E+06     235.934E+03
             288     55.6996E-03     2.95002E-03     55.6214E-03     34.3413E-03    -17.1113E-03    -17.2289E-03    -17.1488E-03     34.2612E-03    -17.1113E-03     4.02321E-03     35.2890E-03     186.229E+06     4.24156E+06     1.92528E+06    -183.128E+06     2.45968E+06    -183.117E+06     3.69624E+06     434.882E+03
             289     55.6532E-03     1.96679E-03     55.6184E-03     34.2533E-03    -17.0771E-03    -17.1744E-03    -17.1163E-03     34.2126E-03    -17.0946E-03     2.82038E-03     34.7840E-03     188.248E+06     4.70693E+06     1.40760E+06    -185.164E+06     1.94249E+06    -185.154E+06     4.16162E+06     617.702E+03
             290     55.6243E-03     983.480E-06     55.6156E-03     34.1437E-03    -17.0308E-03    -17.1125E-03    -17.0811E-03     34.1298E-03    -17.0483E-03     1.55468E-03     34.5785E-03     188.309E+06     2.26360E+06    -464.675E+03    -187.392E+06     140.939E+03    -187.381E+06     1.64727E+06    -239.699E+03
             291     57.7517E-03     16.7274E-03     55.2762E-03     231.008E-03    -16.8476E-03    -214.179E-03    -45.0892E-03     61.9184E-03    -16.8476E-03     432.099E-03     626.555E-03     196.940E+06     218.118E+06     107.694E+06    -7.05350E+06    -7.04074E+06     218.105E+06     107.694E+06     504.447E+03
             292     57.0278E-03     15.7420E-03     54.8120E-03     144.987E-03    -16.5134E-03    -128.469E-03    -32.2577E-03     48.7761E-03    -16.5134E-03     259.821E-03     335.256E-03     170.531E+06     167.593E+06     28.6286E+06    -20.1047E+06    -11.8140E+06     167.544E+06     20.3869E+06     495.248E+03
             293     56.6723E-03     14.7563E-03     54.7174E-03     47.8917E-03    -16.2688E-03    -31.6200E-03    -16.5141E-03     32.7858E-03    -16.2688E-03     58.3786E-03     109.967E-03     131.053E+06     90.2910E+06    -13.3504E+06    -52.8042E+06    -13.1826E+06     90.1232E+06    -52.8042E+06    -326.195E+03
             294     56.3983E-03     13.7714E-03     54.6911E-03     34.4114E-03    -16.2803E-03    -18.1240E-03    -16.0575E-03     32.3448E-03    -16.2803E-03     19.8384E-03     75.1508E-03     81.3072E+06     23.4672E+06    -11.8731E+06    -68.1843E+06    -10.0871E+06     21.6812E+06    -68.1843E+06    -214.459E+03
             295     56.1513E-03     12.7878E-03     54.6758E-03     33.4917E-03    -16.4583E-03    -17.0473E-03    -16.1847E-03     32.6291E-03    -16.4583E-03     12.9804E-03     59.6015E-03     44.6725E+06    -2.23842E+06    -19.4260E+06    -51.3264E+06    -5.52787E+06    -22.9377E+06    -44.5252E+06     758.227E+03
             296     55.9234E-03     11.8032E-03     54.6636E-03     33.4893E-03    -16.5900E-03    -16.9400E-03    -16.3319E-03     32.8811E-03    -16.5900E-03     11.0046E-03     53.9402E-03     47.5203E+06    -1.91501E+06    -28.2583E+06    -56.2565E+06    -2.09488E+06    -56.0766E+06    -28.2583E+06     915.862E+03
             297     55.7132E-03     10.8196E-03     54.6525E-03     33.6668E-03    -16.6600E-03    -17.0502E-03    -16.4610E-03     33.0777E-03    -16.6600E-03     10.8683E-03     50.1730E-03     74.1748E+06     551.969E+03    -21.8507E+06    -81.6902E+06     478.729E+03    -81.6169E+06    -21.8507E+06     385.160E+03
             298     55.5188E-03     9.83524E-03     54.6406E-03     33.7832E-03    -16.7570E-03    -17.0548E-03    -16.5473E-03     33.2758E-03    -16.7570E-03     10.0626E-03     46.4814E-03     99.2083E+06     2.56203E+06    -10.1057E+06    -102.214E+06     2.53295E+06    -102.185E+06    -10.1057E+06     534.908E+03
             299     55.3436E-03     8.85186E-03     54.6311E-03     33.8152E-03    -16.8440E-03    -16.9806E-03    -16.5970E-03     33.4316E-03    -16.8440E-03     8.78849E-03     43.4371E-03     120.382E+06     4.05247E+06    -1.43766E+06    -118.941E+06     3.73644E+06    -118.917E+06    -1.14587E+06     1.32364E+06
             300     55.1856E-03     7.86752E-03     54.6219E-03     33.9173E-03    -16.9023E-03    -17.0215E-03    -16.6859E-03     33.5817E-03    -16.9023E-03     8.23740E-03     41.2005E-03     135.756E+06     4.62701E+06     2.40229E+06    -132.220E+06     4.32221E+06    -132.207E+06     2.69408E+06     724.605E+03
             301     55.0456E-03     6.88429E-03     54.6135E-03     34.0155E-03    -16.9506E-03    -17.0674E-03    -16.7739E-03     33.7220E-03    -16.9506E-03     7.71457E-03     39.3833E-03     149.868E+06     4.74511E+06     2.83855E+06    -146.062E+06     3.80890E+06    -146.056E+06     3.76908E+06    -447.569E+03
             302     54.9233E-03     5.90032E-03     54.6055E-03     34.1023E-03    -17.0042E-03    -17.0989E-03    -16.8658E-03     33.8692E-03    -17.0042E-03     6.86997E-03     37.9290E-03     162.343E+06     5.75427E+06     3.00894E+06    -157.940E+06     2.99410E+06    -157.925E+06     5.75427E+06     160.419E+03
             303     54.8199E-03     4.91717E-03     54.5989E-03     34.1554E-03    -17.0330E-03    -17.1245E-03    -16.9500E-03     33.9809E-03    -17.0330E-03     5.96208E-03     36.7339E-03     169.518E+06     5.39277E+06     2.80524E+06    -165.400E+06     2.78802E+06    -165.382E+06     5.39277E+06     725.823E+03
             304     54.7340E-03     3.93355E-03     54.5925E-03     34.1840E-03    -17.0581E-03    -17.1260E-03    -16.9997E-03     34.0577E-03    -17.0581E-03     5.05581E-03     35.8294E-03     179.171E+06     4.40351E+06     2.41093E+06    -175.750E+06     2.39729E+06    -175.736E+06     4.40351E+06     422.767E+03
             305     54.6677E-03     2.95009E-03     54.5881E-03     34.1943E-03    -17.0722E-03    -17.1196E-03    -17.0349E-03     34.1195E-03    -17.0822E-03     3.85528E-03     35.1294E-03     185.941E+06     4.14137E+06     1.62979E+06    -183.030E+06     1.62884E+06    -183.020E+06     4.13159E+06     236.352E+03
             306     54.6194E-03     1.96667E-03     54.5840E-03     34.1752E-03    -17.0436E-03    -17.1284E-03    -17.0543E-03     34.1379E-03    -17.0804E-03     2.71544E-03     34.7110E-03     186.080E+06     2.88174E+06     171.606E+03    -184.530E+06     171.778E+03    -184.520E+06     2.87196E+06     691.910E+03
             307     54.5913E-03     983.453E-06     54.5824E-03     34.1379E-03    -16.9885E-03    -17.1481E-03    -17.1066E-03     34.1233E-03    -17.0154E-03     1.60743E-03     34.6379E-03     186.545E+06     603.542E+03    -2.20473E+06    -187.327E+06    -1.46557E+06    -187.317E+06    -146.444E+03     204.406E+03
             308     56.7598E-03     16.7268E-03     54.2392E-03     230.955E-03    -16.8312E-03    -214.145E-03    -45.4797E-03     62.2904E-03    -16.8312E-03     431.812E-03     626.280E-03     196.909E+06     218.068E+06     108.155E+06    -7.16976E+06    -7.15440E+06     218.053E+06     108.155E+06     354.982E+03
             309     56.0381E-03     15.7423E-03     53.7815E-03     144.892E-03    -16.4740E-03    -128.416E-03    -32.2657E-03     48.7418E-03    -16.4740E-03     259.886E-03     334.930E-03     170.870E+06     167.468E+06     29.9284E+06    -21.4544E+06    -11.2180E+06     167.397E+06     19.7625E+06     650.036E+03
             310     55.6746E-03     14.7563E-03     53.6835E-03     48.0656E-03    -16.2271E-03    -31.8380E-03    -16.2281E-03     32.4558E-03    -16.2271E-03     59.1376E-03     110.372E-03     132.826E+06     91.1742E+06    -11.0149E+06    -54.6215E+06    -10.8923E+06     91.0516E+06    -54.6215E+06     547.776E+03
             311     55.3975E-03     13.7726E-03     53.6582E-03     34.3902E-03    -16.2569E-03    -18.1242E-03    -16.0558E-03     32.3218E-03    -16.2569E-03     19.9070E-03     75.2115E-03     82.2837E+06     23.9538E+06    -10.3986E+06    -68.6427E+06    -7.99410E+06     21.5493E+06    -68.6427E+06    -6.64963E+03
             312     55.1454E-03     12.7875E-03     53.6423E-03     33.5037E-03    -16.4381E-03    -17.0736E-03    -16.1741E-03     32.6042E-03    -16.4381E-03     13.2464E-03     59.6069E-03     44.1160E+06    -2.92170E+06    -20.2653E+06    -51.1331E+06    -5.05235E+06    -24.1991E+06    -45.0687E+06     193.791E+03
             313     54.9142E-03     11.8038E-03     53.6305E-03     33.4735E-03    -16.5712E-03    -16.9406E-03    -16.3115E-03     32.8444E-03    -16.5712E-03     11.1887E-03     53.9098E-03     47.0928E+06    -1.97476E+06    -28.2140E+06    -55.6097E+06    -2.15910E+06    -55.4254E+06    -28.2140E+06     370.242E+03
             314     54.6997E-03     10.8194E-03     53.6190E-03     33.7030E-03    -16.6475E-03    -17.1003E-03    -16.4948E-03     33.0975E-03    -16.6475E-03     11.0258E-03     50.2013E-03     74.1619E+06     389.984E+03    -20.5696E+06    -81.4686E+06     340.118E+03    -81.4187E+06    -20.5696E+06     59.4352E+03
             315     54.5023E-03     9.83590E-03     53.6074E-03     33.7807E-03    -16.7406E-03    -17.0689E-03    -16.5525E-03     33.2643E-03    -16.7406E-03     10.1545E-03     46.4428E-03     99.6929E+06     2.14120E+06    -9.42439E+06    -102.710E+06     2.11585E+06    -102.685E+06    -9.42439E+06     413.117E+03
             316     54.3236E-03     8.85159E-03     53.5976E-03     33.8242E-03    -16.8091E-03    -17.0235E-03    -16.6270E-03     33.4277E-03    -16.8091E-03     8.93973E-03     43.4064E-03     119.568E+06     3.90890E+06    -2.40536E+06    -118.677E+06     3.87334E+06    -118.641E+06    -2.40536E+06     120.413E+03
             317     54.1631E-03     7.86844E-03     53.5885E-03     33.9207E-03    -16.8706E-03    -17.0562E-03    -16.7159E-03     33.5804E-03    -16.8706E-03     8.29331E-03     41.1750E-03     136.752E+06     6.37049E+06     3.33337E+06    -131.858E+06     5.79882E+06    -131.819E+06     3.86565E+06     304.095E+03
             318     54.0203E-03     6.88428E-03     53.5799E-03     33.9841E-03    -16.9211E-03    -17.0666E-03    -16.7770E-03     33.6946E-03    -16.9211E-03     7.66163E-03     39.3396E-03     151.939E+06     6.73098E+06     5.77482E+06    -145.682E+06     5.76760E+06    -145.666E+06     6.72223E+06     1.04551E+06
             319     53.8961E-03     5.90095E-03     53.5721E-03     34.0531E-03    -16.9567E-03    -17.0972E-03    -16.8662E-03     33.8222E-03    -16.9567E-03     6.83518E-03     37.8451E-03     163.443E+06     6.08162E+06     3.98158E+06    -158.395E+06     3.97654E+06    -158.390E+06     6.08162E+06     338.675E+03
             320     53.7901E-03     4.91726E-03     53.5648E-03     34.0769E-03    -16.9844E-03    -17.0928E-03    -16.9186E-03     33.9026E-03    -16.9844E-03     5.95224E-03     36.6513E-03     170.410E+06     6.29587E+06     3.16823E+06    -165.651E+06     3.16142E+06    -165.644E+06     6.29587E+06     299.343E+03
             321     53.7036E-03     3.93384E-03     53.5593E-03     34.1025E-03    -17.0039E-03    -17.0985E-03    -16.9716E-03     33.9755E-03    -17.0039E-03     5.05970E-03     35.7469E-03     178.983E+06     5.44688E+06     2.64162E+06    -174.917E+06     2.62590E+06    -174.901E+06     5.44688E+06     797.725E+03
             322     53.6350E-03     2.95048E-03     53.5538E-03     34.0835E-03    -17.0061E-03    -17.0731E-03    -16.9895E-03     34.0097E-03    -17.0160E-03     3.82095E-03     35.0117E-03     185.875E+06     4.12016E+06     1.61126E+06    -182.987E+06     1.60858E+06    -182.974E+06     4.11038E+06     653.480E+03
             323     53.5872E-03     1.96695E-03     53.5511E-03     34.0275E-03    -16.9728E-03    -17.0501E-03    -16.9786E-03     33.9928E-03    -17.0095E-03     2.59100E-03     34.5752E-03     186.071E+06     2.87204E+06     496.667E+03    -184.366E+06     502.638E+03    -184.362E+06     2.86225E+06     624.179E+03
             324     53.5569E-03     983.204E-06     53.5478E-03     33.9928E-03    -16.9072E-03    -17.0857E-03    -17.0028E-03     33.9811E-03    -16.9783E-03     1.39872E-03     34.5634E-03     186.312E+06     926.579E+03    -2.03681E+06    -186.844E+06    -1.28875E+06    -186.842E+06     176.593E+03      582.16E+03
             325     55.7721E-03     16.7275E-03     53.2044E-03     230.132E-03    -16.8086E-03    -213.347E-03    -45.2590E-03     62.0436E-03    -16.8086E-03     430.277E-03     625.224E-03     197.259E+06     217.696E+06     108.524E+06    -7.68485E+06    -7.66648E+06     217.678E+06     108.524E+06    -276.787E+03
             326     55.0481E-03     15.7425E-03     52.7490E-03     144.578E-03    -16.4543E-03    -128.123E-03    -31.6950E-03     48.1495E-03    -16.4543E-03     259.623E-03     334.070E-03     170.701E+06     167.089E+06     30.2215E+06    -22.1955E+06    -10.4803E+06     166.989E+06     18.6059E+06    -16.7752E+03
             327     54.6801E-03     14.7574E-03     52.6511E-03     48.6574E-03    -16.2070E-03    -32.4470E-03    -16.2937E-03     32.5041E-03    -16.2070E-03     60.6687E-03     110.781E-03     135.112E+06     90.6633E+06    -9.82881E+06    -58.3456E+06    -9.49958E+06     90.3341E+06    -58.3456E+06     1.00152E+06
             328     54.3967E-03     13.7716E-03     52.6246E-03     34.5461E-03    -16.2644E-03    -18.2694E-03    -16.0892E-03     32.3659E-03    -16.2644E-03     20.3867E-03     75.3246E-03     80.7274E+06     23.7045E+06    -9.40166E+06    -67.4212E+06    -7.55089E+06     21.8537E+06    -67.4212E+06     2.33936E+06
             329     54.1411E-03     12.7881E-03     52.6092E-03     33.5553E-03    -16.4408E-03    -17.1214E-03    -16.2100E-03     32.6440E-03    -16.4408E-03     13.3701E-03     59.5980E-03     40.8298E+06    -3.16019E+06    -22.4224E+06    -46.9611E+06    -5.36206E+06    -22.9650E+06    -44.2166E+06     400.907E+03
             330     53.9053E-03     11.8033E-03     52.5972E-03     33.5479E-03    -16.5519E-03    -17.0344E-03    -16.3750E-03     32.8885E-03    -16.5519E-03     11.4692E-03     53.8743E-03     48.9869E+06    -1.44254E+06    -29.7295E+06    -56.1234E+06    -1.58217E+06    -55.3079E+06    -30.4054E+06    -1.42368E+06
             331     53.6872E-03     10.8199E-03     52.5856E-03     33.7663E-03    -16.6347E-03    -17.1778E-03    -16.5651E-03     33.1537E-03    -16.6347E-03     11.1052E-03     50.2068E-03     76.4678E+06     2.32712E+06    -20.6172E+06    -82.7147E+06     2.19768E+06    -82.5852E+06    -20.6172E+06    -178.464E+03
             332     53.4862E-03     9.83563E-03     52.5741E-03     33.8022E-03    -16.7174E-03    -17.1128E-03    -16.5936E-03     33.2830E-03    -16.7174E-03     10.2001E-03     46.3744E-03     100.256E+06     3.65506E+06    -10.0106E+06    -102.471E+06     3.60682E+06    -102.422E+06    -10.0106E+06     700.261E+03
             333     53.3044E-03     8.85226E-03     52.5642E-03     33.8340E-03    -16.7786E-03    -17.0604E-03    -16.6512E-03     33.4248E-03    -16.7786E-03     9.08337E-03     43.3644E-03     117.765E+06     3.78017E+06    -3.60568E+06    -117.499E+06     3.74941E+06    -117.468E+06    -3.60568E+06    -229.712E+03
             334     53.1406E-03     7.86810E-03     52.5549E-03     33.9386E-03    -16.8294E-03    -17.1132E-03    -16.7647E-03     33.5901E-03    -16.8294E-03     8.39920E-03     41.1530E-03     135.808E+06     4.41952E+06    -271.789E+03    -133.637E+06     3.56977E+06    -133.601E+06     542.769E+03    -112.767E+03
             335     52.9957E-03     6.88487E-03     52.5466E-03     33.9917E-03    -16.8771E-03    -17.1198E-03    -16.8234E-03     33.6953E-03    -16.8771E-03     7.75694E-03     39.3426E-03     150.559E+06     5.60125E+06     3.95008E+06    -145.774E+06     3.91839E+06    -145.742E+06     5.60125E+06     1.46593E+06
             336     52.8685E-03     5.90116E-03     52.5382E-03     33.9758E-03    -16.8998E-03    -17.0790E-03    -16.8426E-03     33.7394E-03    -16.8998E-03     6.90868E-03     37.7614E-03     161.992E+06     5.90747E+06     4.12528E+06    -156.966E+06     4.10595E+06    -156.946E+06     5.90747E+06     1.31566E+06
             337     52.7615E-03     4.91759E-03     52.5319E-03     33.9840E-03    -16.9177E-03    -17.0663E-03    -16.8889E-03     33.8067E-03    -16.9177E-03     5.99698E-03     36.5590E-03     170.104E+06     5.12363E+06     2.97969E+06    -166.039E+06     3.15499E+06    -166.038E+06     4.94705E+06     206.997E+03
             338     52.6722E-03     3.93407E-03     52.5251E-03     33.9768E-03    -16.9318E-03    -17.0455E-03    -16.9126E-03     33.8516E-03    -16.9395E-03     5.00697E-03     35.6127E-03     178.479E+06     4.82338E+06     2.41958E+06    -174.839E+06     2.58761E+06    -174.830E+06     4.64680E+06     429.359E+03
             339     52.6038E-03     2.95046E-03     52.5210E-03     33.9778E-03    -16.9504E-03    -17.0244E-03    -16.9404E-03     33.9015E-03    -16.9581E-03     3.91397E-03     34.9077E-03     186.500E+06     4.77151E+06     2.17794E+06    -183.005E+06     2.16625E+06    -182.993E+06     4.77151E+06     771.456E+03
             340     52.5535E-03     1.96707E-03     52.5166E-03     33.9791E-03    -16.9324E-03    -17.0427E-03    -17.0042E-03     33.9406E-03    -16.9324E-03     2.69131E-03     34.5281E-03     187.765E+06     5.48652E+06     1.88605E+06    -184.033E+06     1.88056E+06    -184.027E+06     5.48652E+06     180.566E+03
             341     52.5246E-03     983.980E-06     52.5153E-03     33.7754E-03    -16.8254E-03    -16.9495E-03    -16.8946E-03     33.7648E-03    -16.8696E-03     1.35232E-03     34.3003E-03     187.871E+06     4.69063E+06    -389.822E+03    -185.649E+06     1.48257E+06    -185.638E+06     2.80693E+06     640.725E+03
             342     54.7898E-03     16.7300E-03     52.1731E-03     229.069E-03    -16.7899E-03    -212.306E-03    -44.4352E-03     61.1989E-03    -16.7899E-03     428.542E-03     624.089E-03     196.661E+06     217.249E+06     107.306E+06    -7.49028E+06    -7.45717E+06     217.216E+06     107.306E+06    -714.259E+03
             343     54.0601E-03     15.7417E-03     51.7174E-03     145.771E-03    -16.4931E-03    -129.276E-03    -31.2376E-03     47.7319E-03    -16.4931E-03     262.128E-03     334.991E-03     170.572E+06     166.654E+06     27.2002E+06    -20.7923E+06    -12.8413E+06     166.471E+06     19.4324E+06     320.171E+03
             344     53.6853E-03     14.7552E-03     51.6178E-03     49.3522E-03    -16.2565E-03    -33.0923E-03    -16.8530E-03     33.1129E-03    -16.2565E-03     61.4413E-03     111.143E-03     134.813E+06     89.4480E+06    -13.8486E+06    -57.6399E+06    -13.3854E+06     88.9848E+06    -57.6399E+06     1.31299E+06
             345     53.3976E-03     13.7723E-03     51.5910E-03     34.6881E-03    -16.2810E-03    -18.3986E-03    -16.2307E-03     32.5202E-03    -16.2810E-03     20.3986E-03     75.3179E-03     80.8529E+06     23.4000E+06    -9.62574E+06    -67.6394E+06    -8.19537E+06     21.9696E+06    -67.6394E+06     1.64130E+06
             346     53.1376E-03     12.7873E-03     51.5761E-03     33.6608E-03    -16.4469E-03    -17.2265E-03    -16.3107E-03     32.7450E-03    -16.4469E-03     13.4381E-03     59.6058E-03     41.9222E+06     109.708E+03    -20.2756E+06    -44.1181E+06    -2.09491E+06    -19.2475E+06    -42.9417E+06     175.803E+03
             347     52.8975E-03     11.8038E-03     51.5637E-03     33.6696E-03    -16.5485E-03    -17.1626E-03    -16.4922E-03     32.9992E-03    -16.5485E-03     11.5924E-03     53.8682E-03     51.5056E+06     552.463E+03    -30.5593E+06    -56.5136E+06     404.630E+03    -55.6899E+06    -31.2352E+06    -1.50513E+06
             348     52.6752E-03     10.8196E-03     51.5521E-03     33.8152E-03    -16.6244E-03    -17.2376E-03    -16.6222E-03     33.1998E-03    -16.6244E-03     11.1413E-03     50.1389E-03     77.6958E+06     1.64877E+06    -22.5880E+06    -84.9779E+06     1.52133E+06    -84.8504E+06    -22.5880E+06    -196.564E+03
             349     52.4710E-03     9.83616E-03     51.5408E-03     33.8678E-03    -16.6968E-03    -17.1985E-03    -16.6777E-03     33.3470E-03    -16.6968E-03     10.2339E-03     46.3694E-03     99.2334E+06     3.32531E+06    -11.2461E+06    -102.160E+06     3.27376E+06    -102.108E+06    -11.2461E+06     777.300E+03
             350     52.2855E-03     8.85200E-03     51.5307E-03     33.8559E-03    -16.7601E-03    -17.1005E-03    -16.6960E-03     33.4513E-03    -16.7601E-03     9.03254E-03     43.3574E-03     118.086E+06     4.04355E+06    -2.81884E+06    -117.277E+06     4.02598E+06    -117.260E+06    -2.81884E+06     902.311E+03
             351     52.1191E-03     7.86869E-03     51.5217E-03     33.9211E-03    -16.8027E-03    -17.1203E-03    -16.7720E-03     33.5729E-03    -16.8027E-03     8.39950E-03     41.1141E-03     136.003E+06     3.60505E+06     326.893E+03    -133.968E+06     3.30843E+06    -133.953E+06     609.174E+03     780.111E+03
             352     51.9708E-03     6.88492E-03     51.5127E-03     33.9729E-03    -16.8377E-03    -17.1369E-03    -16.8369E-03     33.6728E-03    -16.8377E-03     7.79575E-03     39.3149E-03     150.279E+06     4.71359E+06     2.66208E+06    -146.580E+06     3.09920E+06    -146.552E+06     4.24898E+06     494.662E+03
             353     51.8422E-03     5.90137E-03     51.5053E-03     33.9639E-03    -16.8561E-03    -17.1104E-03    -16.8726E-03     33.7261E-03    -16.8561E-03     6.93846E-03     37.7615E-03     160.750E+06     5.89305E+06     3.78364E+06    -155.901E+06     3.75266E+06    -155.870E+06     5.89305E+06     1.20876E+06
             354     51.7320E-03     4.91790E-03     51.4977E-03     33.9198E-03    -16.8635E-03    -17.0559E-03    -16.8773E-03     33.7411E-03    -16.8635E-03     6.00547E-03     36.4832E-03     169.520E+06     5.19982E+06     3.60583E+06    -165.110E+06     3.76897E+06    -165.097E+06     5.02325E+06     724.462E+03
             355     51.6424E-03     3.93437E-03     51.4923E-03     33.8606E-03    -16.8758E-03    -16.9836E-03    -16.8519E-03     33.7366E-03    -16.8836E-03     4.98325E-03     35.4961E-03     179.478E+06     4.70393E+06     2.80541E+06    -175.711E+06     3.04267E+06    -175.706E+06     4.46241E+06    -33.2013E+03
             356     51.5715E-03     2.95071E-03     51.4870E-03     33.8455E-03    -16.8794E-03    -16.9644E-03    -16.8622E-03     33.7664E-03    -16.9025E-03     3.97505E-03     34.7798E-03     185.600E+06     4.35895E+06     2.69894E+06    -182.061E+06     2.75495E+06    -182.052E+06     4.29401E+06     178.372E+03
             357     51.5212E-03     1.96715E-03     51.4836E-03     33.8314E-03    -16.8498E-03    -16.9787E-03    -16.8781E-03     33.7898E-03    -16.9089E-03     2.82299E-03     34.3448E-03     187.377E+06     5.00757E+06     1.89859E+06    -183.886E+06     2.35063E+06    -183.878E+06     4.54769E+06    -248.360E+03
             358     51.4906E-03     983.430E-06     51.4812E-03     33.8130E-03    -16.8315E-03    -16.9807E-03    -16.9241E-03     33.8001E-03    -16.8752E-03     1.45999E-03     34.2666E-03     188.940E+06     6.67706E+06    -149.246E+03    -185.566E+06     2.16304E+06    -185.534E+06     4.33347E+06    -640.321E+03
             359     53.8133E-03     16.7286E-03     51.1470E-03     228.885E-03    -16.8799E-03    -212.031E-03    -43.9610E-03     60.8151E-03    -16.8799E-03     428.209E-03     625.229E-03     196.442E+06     216.673E+06     107.334E+06    -7.92461E+06    -7.86265E+06     216.611E+06     107.334E+06     503.036E+03
             360     53.0703E-03     15.7382E-03     50.6830E-03     146.924E-03    -16.5682E-03    -130.355E-03    -32.7740E-03     49.3432E-03    -16.5682E-03     263.358E-03     336.544E-03     171.665E+06     167.022E+06     26.1710E+06    -20.9836E+06    -14.5583E+06     166.771E+06     19.9965E+06     763.620E+03
             361     52.6921E-03     14.7567E-03     50.5835E-03     49.0320E-03    -16.2879E-03    -32.7425E-03    -17.1380E-03     33.4275E-03    -16.2879E-03     60.3818E-03     110.998E-03     134.833E+06     90.3365E+06    -12.9759E+06    -55.8536E+06    -12.6714E+06     90.0320E+06    -55.8536E+06    -361.577E+03
             362     52.4000E-03     13.7712E-03     50.5580E-03     34.7034E-03    -16.2780E-03    -18.4172E-03    -16.2525E-03     32.5387E-03    -16.2780E-03     20.4004E-03     75.1787E-03     84.0208E+06     24.3234E+06    -8.60485E+06    -70.2989E+06    -6.23055E+06     21.9491E+06    -70.2989E+06    -1.54731E+06
             363     52.1348E-03     12.7877E-03     50.5422E-03     33.8058E-03    -16.4542E-03    -17.3641E-03    -16.4469E-03     32.8886E-03    -16.4542E-03     13.4749E-03     59.7185E-03     45.0084E+06     1.68898E+06    -18.3530E+06    -46.9446E+06    -1.36806E+06    -18.8967E+06    -43.3439E+06    -297.280E+03
             364     51.8906E-03     11.8034E-03     50.5303E-03     33.7575E-03    -16.5705E-03    -17.2307E-03    -16.5761E-03     33.1029E-03    -16.5705E-03     11.4735E-03     53.9606E-03     50.3777E+06     78.0686E+03    -28.3051E+06    -56.3781E+06    -188.005E+03    -56.1120E+06    -28.3051E+06     1.40000E+06
             365     51.6644E-03     10.8199E-03     50.5187E-03     33.8711E-03    -16.6225E-03    -17.2970E-03    -16.6855E-03     33.2596E-03    -16.6225E-03     11.1189E-03     50.1574E-03     76.4378E+06    -269.281E+03    -22.8781E+06    -85.1591E+06    -298.924E+03    -85.1295E+06    -22.8781E+06     695.671E+03
             366     51.4560E-03     9.83588E-03     50.5071E-03     33.9296E-03    -16.6806E-03    -17.2741E-03    -16.7538E-03     33.4093E-03    -16.6806E-03     10.2346E-03     46.3804E-03     97.4189E+06     1.15337E+06    -12.5061E+06    -102.215E+06     1.12025E+06    -102.182E+06    -12.5061E+06    -54.1504E+03
             367     51.2674E-03     8.85270E-03     50.4973E-03     33.8966E-03    -16.7369E-03    -17.1617E-03    -16.7615E-03     33.4964E-03    -16.7369E-03     8.99668E-03     43.3623E-03     118.416E+06     3.36248E+06    -3.27981E+06    -118.189E+06     3.33152E+06    -118.158E+06    -3.27981E+06     816.633E+03
             368     51.0976E-03     7.86868E-03     50.4881E-03     33.9150E-03    -16.7778E-03    -17.1393E-03    -16.7900E-03     33.5656E-03    -16.7778E-03     8.41217E-03     41.1139E-03     136.786E+06     5.15614E+06     2.15291E+06    -133.082E+06     4.78055E+06    -133.064E+06     2.51030E+06     1.48095E+06
             369     50.9469E-03     6.88515E-03     50.4795E-03     33.9613E-03    -16.7998E-03    -17.1623E-03    -16.8703E-03     33.6693E-03    -16.7998E-03     7.68574E-03     39.2897E-03     151.182E+06     5.37566E+06     3.82561E+06    -146.574E+06     4.27476E+06    -146.559E+06     4.91104E+06     624.271E+03
             370     50.8153E-03     5.90169E-03     50.4714E-03     33.8889E-03    -16.8072E-03    -17.0830E-03    -16.8531E-03     33.6590E-03    -16.8072E-03     6.82213E-03     37.6624E-03     160.454E+06     5.21247E+06     3.71218E+06    -155.985E+06     3.69104E+06    -155.964E+06     5.21247E+06     336.838E+03
             371     50.7038E-03     4.91815E-03     50.4647E-03     33.7993E-03    -16.8175E-03    -16.9838E-03    -16.8048E-03     33.6203E-03    -16.8175E-03     5.99947E-03     36.3602E-03     168.829E+06     5.70140E+06     3.96682E+06    -163.988E+06     4.29586E+06    -163.967E+06     5.35169E+06     699.838E+03
             372     50.6118E-03     3.93442E-03     50.4587E-03     33.8119E-03    -16.8349E-03    -16.9772E-03    -16.8522E-03     33.6868E-03    -16.8349E-03     5.00446E-03     35.4448E-03     180.383E+06     5.17489E+06     3.56677E+06    -176.005E+06     3.97101E+06    -175.995E+06     4.76024E+06     481.566E+03
             373     50.5402E-03     2.95091E-03     50.4540E-03     33.7334E-03    -16.8113E-03    -16.9181E-03    -16.8069E-03     33.6556E-03    -16.8447E-03     3.92399E-03     34.6676E-03     185.438E+06     4.71524E+06     2.80847E+06    -181.665E+06     3.82884E+06    -181.659E+06     3.68847E+06     30.5503E+03
             374     50.4885E-03     1.96709E-03     50.4502E-03     33.6513E-03    -16.7615E-03    -16.8857E-03    -16.7214E-03     33.6112E-03    -16.8857E-03     2.78213E-03     34.1643E-03     186.781E+06     5.08558E+06     2.04416E+06    -183.192E+06     3.45696E+06    -183.184E+06     3.66386E+06    -624.831E+03
             375     50.4577E-03     983.380E-06     50.4482E-03     33.8466E-03    -16.8204E-03    -17.0260E-03    -16.9211E-03     33.8324E-03    -16.9112E-03     1.55282E-03     34.2940E-03     188.212E+06     4.77865E+06    -1.16183E+06    -186.318E+06     1.04541E+06    -186.289E+06     2.54302E+06    -1.16263E+06
             376     52.8245E-03     16.7188E-03     50.1090E-03     230.268E-03    -17.0230E-03    -213.263E-03    -44.3890E-03     61.3940E-03    -17.0230E-03     430.444E-03     628.363E-03     197.937E+06     217.154E+06     107.981E+06    -9.38316E+06    -9.32851E+06     217.099E+06     107.981E+06     182.673E+03
             377     52.0835E-03     15.7423E-03     49.6475E-03     145.574E-03    -16.6347E-03    -128.937E-03    -34.3591E-03     50.9960E-03    -16.6347E-03     259.850E-03     336.424E-03     171.376E+06     168.145E+06     31.3788E+06    -21.4764E+06    -11.3640E+06     167.956E+06     21.4554E+06     284.478E+03
             378     51.7015E-03     14.7553E-03     49.5513E-03     49.1135E-03    -16.2971E-03    -32.8149E-03    -16.8316E-03     33.1302E-03    -16.2971E-03     60.7584E-03     110.803E-03     133.091E+06     90.7126E+06    -10.1828E+06    -55.2748E+06    -9.93139E+06     90.4612E+06    -55.2748E+06    -1.09209E+06
             379     51.4030E-03     13.7716E-03     49.5239E-03     34.9341E-03    -16.2963E-03    -18.6301E-03    -16.4694E-03     32.7734E-03    -16.2963E-03     20.4507E-03     75.2888E-03     83.6817E+06     24.1994E+06    -9.70369E+06    -70.0128E+06    -7.80662E+06     22.3023E+06    -70.0128E+06    -1.62450E+06
             380     51.1336E-03     12.7873E-03     49.5089E-03     33.8601E-03    -16.4580E-03    -17.4141E-03    -16.5133E-03     32.9593E-03    -16.4580E-03     13.3785E-03     59.7628E-03     44.9585E+06    -1.65195E+06    -20.3168E+06    -50.6846E+06    -5.03209E+06    -22.1641E+06    -45.4572E+06    -221.076E+03
             381     50.8844E-03     11.8037E-03     49.4965E-03     33.8093E-03    -16.5707E-03    -17.2790E-03    -16.6411E-03     33.1714E-03    -16.5707E-03     11.3358E-03     54.0569E-03     48.9610E+06    -1.74362E+06    -28.8296E+06    -57.1689E+06    -2.08079E+06    -56.8317E+06    -28.8296E+06     2.34064E+06
             382     50.6544E-03     10.8198E-03     49.4853E-03     33.9253E-03    -16.6132E-03    -17.3595E-03    -16.7555E-03     33.3214E-03    -16.6132E-03     11.0638E-03     50.2217E-03     74.6850E+06     528.792E+03    -22.1764E+06    -82.5313E+06     416.637E+03    -82.4192E+06    -22.1764E+06     1.73589E+06
             383     50.4419E-03     9.83639E-03     49.4735E-03     33.9471E-03    -16.6650E-03    -17.3077E-03    -16.7865E-03     33.4259E-03    -16.6650E-03     10.2360E-03     46.4176E-03     97.6013E+06     1.58308E+06    -12.7359E+06    -102.229E+06     1.56025E+06    -102.207E+06    -12.7359E+06    -4.12791E+03
             384     50.2497E-03     8.85244E-03     49.4638E-03     33.9173E-03    -16.7076E-03    -17.2126E-03    -16.8118E-03     33.5166E-03    -16.7076E-03     9.01456E-03     43.3718E-03     117.684E+06     2.26910E+06    -5.55435E+06    -119.098E+06     2.24045E+06    -119.069E+06    -5.55435E+06    -1.52659E+03
             385     50.0769E-03     7.86912E-03     49.4547E-03     33.9761E-03    -16.7394E-03    -17.2415E-03    -16.8899E-03     33.6245E-03    -16.7394E-03     8.45025E-03     41.1953E-03     135.412E+06     3.71686E+06     336.516E+03    -133.328E+06     3.33943E+06    -133.308E+06     693.906E+03     780.444E+03
             386     49.9229E-03     6.88566E-03     49.4457E-03     33.9190E-03    -16.7560E-03    -17.1644E-03    -16.8754E-03     33.6300E-03    -16.7560E-03     7.64897E-03     39.2387E-03     150.356E+06     5.17482E+06     4.23742E+06    -145.648E+06     4.39123E+06    -145.637E+06     5.01037E+06     1.15734E+06
             387     49.7893E-03     5.90206E-03     49.4383E-03     33.7746E-03    -16.7569E-03    -17.0184E-03    -16.7915E-03     33.5477E-03    -16.7569E-03     6.76056E-03     37.5315E-03     160.046E+06     5.03583E+06     3.93160E+06    -155.559E+06     4.13687E+06    -155.552E+06     4.82341E+06     445.844E+03
             388     49.6754E-03     4.91819E-03     49.4314E-03     33.7046E-03    -16.7648E-03    -16.9445E-03    -16.7691E-03     33.5291E-03    -16.7648E-03     5.93942E-03     36.2610E-03     168.110E+06     4.27251E+06     2.94073E+06    -164.499E+06     3.49265E+06    -164.489E+06     3.71038E+06     311.299E+03
             389     49.5818E-03     3.93468E-03     49.4254E-03     33.7307E-03    -16.7836E-03    -16.9494E-03    -16.8262E-03     33.6075E-03    -16.7836E-03     4.95407E-03     35.3556E-03     179.614E+06     4.89669E+06     3.64062E+06    -175.341E+06     4.01324E+06    -175.331E+06     4.51485E+06     499.131E+03
             390     49.5088E-03     2.95106E-03     49.4207E-03     33.6762E-03    -16.7706E-03    -16.9017E-03    -16.8128E-03     33.6054E-03    -16.7887E-03     3.72786E-03     34.6053E-03     185.872E+06     6.25700E+06     3.40300E+06    -181.018E+06     4.38855E+06    -181.010E+06     5.26303E+06    -157.620E+03
             391     49.4565E-03     1.96733E-03     49.4173E-03     33.5616E-03    -16.7258E-03    -16.8333E-03    -16.7319E-03     33.5253E-03    -16.7909E-03     2.66413E-03     34.0616E-03     187.252E+06     5.79728E+06     2.18705E+06    -183.225E+06     3.12430E+06    -183.201E+06     4.83545E+06     9.73356E+03
             392     49.4243E-03     983.575E-06     49.4145E-03     33.5873E-03    -16.7081E-03    -16.8796E-03    -16.7677E-03     33.5713E-03    -16.8040E-03     1.71705E-03     34.0111E-03     188.760E+06     3.82251E+06    -330.289E+03    -186.967E+06     1.42021E+06    -186.941E+06     2.04676E+06     113.277E+03
             393     51.8269E-03     16.7200E-03     49.0557E-03     230.530E-03    -16.9640E-03    -213.577E-03    -44.1314E-03     61.0838E-03    -16.9640E-03     431.251E-03     627.861E-03     196.811E+06     217.475E+06     108.849E+06    -7.47290E+06    -7.42638E+06     217.428E+06     108.849E+06    -194.665E+03
             394     51.1029E-03     15.7397E-03     48.6186E-03     142.989E-03    -16.6070E-03    -126.380E-03    -32.1181E-03     48.7272E-03    -16.6070E-03     255.654E-03     336.271E-03     170.447E+06     166.698E+06     29.9974E+06    -22.0011E+06    -11.1545E+06     166.584E+06     19.2641E+06    -1.22537E+06
             395     50.7095E-03     14.7546E-03     48.5155E-03     49.6029E-03    -16.3097E-03    -33.2912E-03    -17.2033E-03     33.5151E-03    -16.3097E-03     60.9513E-03     111.530E-03     132.853E+06     90.9011E+06    -10.6059E+06    -55.2212E+06    -10.2363E+06     90.5315E+06    -55.2212E+06     429.888E+03
             396     50.4084E-03     13.7713E-03     48.4908E-03     34.8057E-03    -16.3049E-03    -18.4969E-03    -16.5390E-03     32.8478E-03    -16.3049E-03     19.5773E-03     75.4981E-03     81.8825E+06     23.6496E+06    -9.41113E+06    -68.1751E+06    -8.43614E+06     22.6746E+06    -68.1751E+06     645.357E+03
             397     50.1332E-03     12.7875E-03     48.4749E-03     33.8310E-03    -16.4566E-03    -17.3912E-03    -16.5062E-03     32.9460E-03    -16.4566E-03     13.2433E-03     59.9249E-03     43.8993E+06    -4.31920E+06    -21.1807E+06    -51.8267E+06    -7.00490E+06    -24.2590E+06    -46.0628E+06     744.453E+03
             398     49.8798E-03     11.8036E-03     48.4630E-03     33.8057E-03    -16.5533E-03    -17.2939E-03    -16.6696E-03     33.1814E-03    -16.5533E-03     11.2202E-03     54.1156E-03     47.0443E+06    -3.86822E+06    -31.5036E+06    -57.4777E+06    -4.19132E+06    -57.1546E+06    -31.5036E+06     804.080E+03
             399     49.6450E-03     10.8200E-03     48.4516E-03     33.9379E-03    -16.5949E-03    -17.3886E-03    -16.7930E-03     33.3423E-03    -16.5949E-03     10.9920E-03     50.2874E-03     72.7291E+06     161.009E+03    -23.0916E+06    -80.8598E+06    -22.1869E+03    -80.6767E+06    -23.0916E+06     729.188E+03
             400     49.4285E-03     9.83622E-03     48.4399E-03     33.9364E-03    -16.6547E-03    -17.3073E-03    -16.8034E-03     33.4325E-03    -16.6547E-03     10.0583E-03     46.4943E-03     98.5692E+06     2.54753E+06    -11.4623E+06    -102.112E+06     2.52405E+06    -102.088E+06    -11.4623E+06     841.631E+03
             401     49.2329E-03     8.85283E-03     48.4305E-03     33.9188E-03    -16.6892E-03    -17.2342E-03    -16.8370E-03     33.5216E-03    -16.6892E-03     8.97864E-03     43.4360E-03     118.257E+06     2.72513E+06    -5.35237E+06    -119.331E+06     2.70462E+06    -119.310E+06    -5.35237E+06     638.985E+03
             402     49.0561E-03     7.86925E-03     48.4209E-03     33.9691E-03    -16.7112E-03    -17.2625E-03    -16.9057E-03     33.6122E-03    -16.7112E-03     8.50867E-03     41.2318E-03     134.750E+06     3.07005E+06    -934.667E+03    -133.599E+06     2.52359E+06    -133.577E+06    -410.802E+03     390.895E+03
             403     48.8999E-03     6.88580E-03     48.4127E-03     33.8670E-03    -16.7253E-03    -17.1410E-03    -16.8502E-03     33.5762E-03    -16.7253E-03     7.67240E-03     39.1943E-03     148.794E+06     4.56800E+06     2.99264E+06    -145.006E+06     3.14918E+06    -144.998E+06     4.40355E+06     297.623E+03
             404     48.7633E-03     5.90204E-03     48.4048E-03     33.7721E-03    -16.7285E-03    -17.0429E-03    -16.8131E-03     33.5423E-03    -16.7285E-03     6.80127E-03     37.5503E-03     160.347E+06     6.22235E+06     4.02954E+06    -155.205E+06     4.23947E+06    -155.203E+06     6.00993E+06     140.155E+03
             405     48.6476E-03     4.91872E-03     48.3982E-03     33.7099E-03    -16.7271E-03    -16.9872E-03    -16.8126E-03     33.5352E-03    -16.7271E-03     5.92872E-03     36.2858E-03     169.552E+06     5.85894E+06     4.08901E+06    -164.566E+06     4.46810E+06    -164.562E+06     5.47574E+06     154.081E+03
             406     48.5519E-03     3.93485E-03     48.3922E-03     33.6281E-03    -16.7326E-03    -16.8973E-03    -16.7748E-03     33.5056E-03    -16.7326E-03     4.93088E-03     35.2618E-03     179.593E+06     5.65228E+06     4.03123E+06    -174.740E+06     4.22694E+06    -174.732E+06     5.44937E+06    -2.13919E+03
             407     48.4774E-03     2.95123E-03     48.3874E-03     33.5922E-03    -16.7315E-03    -16.8574E-03    -16.7862E-03     33.5211E-03    -16.7315E-03     3.73836E-03     34.5235E-03     186.158E+06     6.06380E+06     3.54500E+06    -181.330E+06     3.64448E+06    -181.315E+06     5.94894E+06     -113.53E+03
             408     48.4243E-03     1.96769E-03     48.3843E-03     33.5381E-03    -16.6701E-03    -16.8664E-03    -16.8289E-03     33.5006E-03    -16.6701E-03     2.70564E-03     34.0284E-03     187.328E+06     5.62368E+06     2.40312E+06    -183.275E+06     2.46238E+06    -183.251E+06     5.54095E+06     850.100E+03
             409     48.3915E-03     984.003E-06     48.3815E-03     33.2200E-03    -16.5066E-03    -16.7140E-03    -16.6504E-03     33.2053E-03    -16.5554E-03     1.48202E-03     33.6345E-03     189.181E+06     4.07790E+06    -460.178E+03    -187.316E+06     1.19234E+06    -187.297E+06     2.40630E+06     593.540E+03
             410     50.8731E-03     16.7368E-03     48.0411E-03     231.081E-03    -16.8179E-03    -214.281E-03    -44.2434E-03     61.0434E-03    -16.8179E-03     432.735E-03     627.253E-03     196.581E+06     217.850E+06     112.610E+06    -6.28282E+06    -6.20737E+06     217.774E+06     112.610E+06     1.01453E+06
             411     50.1172E-03     15.7384E-03     47.5819E-03     144.965E-03    -16.5301E-03    -128.436E-03    -30.8555E-03     47.3852E-03    -16.5301E-03     260.087E-03     337.021E-03     170.858E+06     167.416E+06     28.5257E+06    -20.5063E+06    -12.5316E+06     167.332E+06     20.6344E+06    -66.1076E+03
             412     49.7225E-03     14.7569E-03     47.4822E-03     48.8748E-03    -16.2953E-03    -32.5737E-03    -17.4890E-03     33.7901E-03    -16.2953E-03     59.2714E-03     111.699E-03     131.951E+06     90.2405E+06    -14.0274E+06    -53.5654E+06    -13.7238E+06     89.9369E+06    -53.5654E+06    -212.980E+03
             413     49.4148E-03     13.7718E-03     47.4569E-03     34.4377E-03    -16.3053E-03    -18.1238E-03    -16.1861E-03     32.5000E-03    -16.3053E-03     19.2364E-03     75.5810E-03     76.5245E+06     23.9602E+06    -12.1254E+06    -62.9627E+06    -9.76431E+06     21.5991E+06    -62.9627E+06     2.09560E+06
             414     49.1348E-03     12.7877E-03     47.4415E-03     33.7416E-03    -16.4619E-03    -17.2957E-03    -16.4494E-03     32.8954E-03    -16.4619E-03     12.9417E-03     60.1376E-03     38.8980E+06    -2.89773E+06    -21.8395E+06    -45.8248E+06    -6.80967E+06    -22.7224E+06    -41.0300E+06     1.92637E+06
             415     48.8761E-03     11.8038E-03     47.4293E-03     33.7166E-03    -16.5360E-03    -17.2244E-03    -16.6088E-03     33.1010E-03    -16.5360E-03     11.1276E-03     54.1440E-03     45.9134E+06    -4.12288E+06    -31.0085E+06    -56.2808E+06    -4.37744E+06    -56.0263E+06    -31.0085E+06    -530.231E+03
             416     48.6368E-03     10.8202E-03     47.4180E-03     33.9070E-03    -16.5774E-03    -17.3732E-03    -16.7866E-03     33.3204E-03    -16.5774E-03     10.9057E-03     50.3976E-03     72.3600E+06    -1.78550E+06    -23.9338E+06    -82.1052E+06    -1.86943E+06    -82.0213E+06    -23.9338E+06    -502.497E+03
             417     48.4162E-03     9.83672E-03     47.4064E-03     33.9202E-03    -16.6387E-03    -17.3044E-03    -16.8113E-03     33.4271E-03    -16.6387E-03     9.95578E-03     46.5274E-03     97.0917E+06    -24.4253E+03    -11.4429E+06    -102.134E+06    -50.1914E+03    -102.108E+06    -11.4429E+06     859.758E+03
             418     48.2166E-03     8.85294E-03     47.3969E-03     33.8826E-03    -16.6709E-03    -17.2166E-03    -16.8215E-03     33.4875E-03    -16.6709E-03     8.95059E-03     43.4484E-03     117.670E+06     2.06271E+06    -4.41113E+06    -118.696E+06     2.03885E+06    -118.672E+06    -4.41113E+06     617.305E+03
             419     48.0364E-03     7.86941E-03     47.3874E-03     33.8747E-03    -16.6971E-03    -17.1814E-03    -16.8318E-03     33.5252E-03    -16.6971E-03     8.40372E-03     41.1491E-03     136.054E+06     4.79835E+06     483.883E+03    -133.327E+06     3.89175E+06    -133.308E+06     1.37168E+06    -62.8857E+03
             420     47.8769E-03     6.88576E-03     47.3792E-03     33.8249E-03    -16.7180E-03    -17.1060E-03    -16.8241E-03     33.5430E-03    -16.7180E-03     7.54966E-03     39.1668E-03     150.014E+06     6.71256E+06     4.34849E+06    -144.468E+06     4.34394E+06    -144.464E+06     6.71256E+06    -548.220E+03
             421     47.7379E-03     5.90241E-03     47.3716E-03     33.7576E-03    -16.7178E-03    -17.0397E-03    -16.8080E-03     33.5259E-03    -16.7178E-03     6.83497E-03     37.5362E-03     161.182E+06     6.81049E+06     3.77848E+06    -155.864E+06     3.77500E+06    -155.861E+06     6.81049E+06    -502.614E+03
             422     47.6196E-03     4.91853E-03     47.3649E-03     33.6865E-03    -16.7091E-03    -16.9810E-03    -16.7975E-03     33.5029E-03    -16.7091E-03     6.07471E-03     36.2636E-03     169.249E+06     5.68665E+06     3.38334E+06    -164.698E+06     3.55171E+06    -164.696E+06     5.51587E+06     107.103E+03
             423     47.5223E-03     3.93524E-03     47.3591E-03     33.5989E-03    -16.7038E-03    -16.8961E-03    -16.7675E-03     33.4703E-03    -16.7038E-03     5.05059E-03     35.2242E-03     178.205E+06     5.17891E+06     2.70894E+06    -174.245E+06     3.47130E+06    -174.238E+06     4.41048E+06     82.0103E+03
             424     47.4466E-03     2.95128E-03     47.3547E-03     33.5528E-03    -16.6953E-03    -16.8510E-03    -16.7724E-03     33.4741E-03    -16.6953E-03     3.94953E-03     34.4876E-03     185.565E+06     4.67460E+06     2.02323E+06    -182.197E+06     2.69322E+06    -182.187E+06     3.99422E+06     120.650E+03
             425     47.3916E-03     1.96756E-03     47.3508E-03     33.4755E-03    -16.6292E-03    -16.8422E-03    -16.8013E-03     33.4346E-03    -16.6292E-03     2.77772E-03     33.9871E-03     186.267E+06     4.55813E+06     1.75958E+06    -183.076E+06     1.83289E+06    -183.067E+06     4.47540E+06     746.546E+03
             426     47.3591E-03     984.290E-06     47.3489E-03     33.1312E-03    -16.4454E-03    -16.6867E-03    -16.6746E-03     33.1190E-03    -16.4454E-03     1.33929E-03     33.5723E-03     187.796E+06     4.22978E+06    -1.49305E+06    -186.341E+06     172.470E+03    -186.335E+06     2.55818E+06     949.537E+03
             427     49.9042E-03     16.7241E-03     47.0184E-03     231.079E-03    -16.8397E-03    -214.261E-03    -44.8036E-03     61.6215E-03    -16.8397E-03     432.328E-03     628.094E-03     196.637E+06     217.577E+06     110.072E+06    -7.42063E+06    -7.37036E+06     217.527E+06     110.072E+06     650.991E+03
             428     49.1340E-03     15.7415E-03     46.5441E-03     147.425E-03    -16.5260E-03    -130.899E-03    -33.0852E-03     49.6107E-03    -16.5260E-03     264.247E-03     337.147E-03     171.309E+06     169.075E+06     30.7953E+06    -19.0857E+06    -12.5681E+06     169.040E+06     24.3127E+06     1.50846E+06
             429     48.7379E-03     14.7568E-03     46.4501E-03     48.2559E-03    -16.2611E-03    -31.9904E-03    -16.8846E-03     33.1501E-03    -16.2611E-03     58.8171E-03     110.815E-03     130.166E+06     89.1142E+06    -14.5755E+06    -52.0853E+06    -14.4779E+06     89.0166E+06    -52.0853E+06     13.0294E+03
             430     48.4231E-03     13.7722E-03     46.4232E-03     34.5438E-03    -16.2845E-03    -18.2453E-03    -16.1647E-03     32.4633E-03    -16.2845E-03     19.9255E-03     75.5929E-03     74.5875E+06     23.0387E+06    -13.5728E+06    -62.2190E+06    -10.5777E+06     20.0436E+06    -62.2190E+06    -16.1301E+03
             431     48.1378E-03     12.7883E-03     46.4080E-03     33.6615E-03    -16.4480E-03    -17.2221E-03    -16.3515E-03     32.7909E-03    -16.4480E-03     13.0949E-03     60.0297E-03     38.8842E+06     772.131E+03    -19.6579E+06    -42.8297E+06    -3.71645E+06    -20.7222E+06    -37.2769E+06     544.583E+03
             432     47.8740E-03     11.8042E-03     46.3959E-03     33.6949E-03    -16.5322E-03    -17.2059E-03    -16.5732E-03     33.0623E-03    -16.5322E-03     11.2735E-03     54.1882E-03     48.5275E+06    -686.904E+03    -26.4045E+06    -55.5734E+06    -811.012E+03    -55.4493E+06    -26.4045E+06     277.022E+03
             433     47.6296E-03     10.8204E-03     46.3842E-03     33.8606E-03    -16.5734E-03    -17.3313E-03    -16.7409E-03     33.2701E-03    -16.5734E-03     10.9301E-03     50.3754E-03     74.6411E+06    -659.176E+03    -21.0258E+06    -82.9820E+06    -668.605E+03    -82.9726E+06    -21.0258E+06     359.313E+03
             434     47.4048E-03     9.83665E-03     46.3730E-03     33.8927E-03    -16.6315E-03    -17.2862E-03    -16.7884E-03     33.3948E-03    -16.6315E-03     10.0119E-03     46.4807E-03     98.1656E+06     696.408E+03    -9.42415E+06    -101.955E+06     675.133E+03    -101.934E+06    -9.42415E+06     44.8139E+03
             435     47.2011E-03     8.85330E-03     46.3633E-03     33.8509E-03    -16.6621E-03    -17.1967E-03    -16.7908E-03     33.4451E-03    -16.6621E-03     9.06461E-03     43.4032E-03     117.504E+06     1.99048E+06    -3.23337E+06    -118.032E+06     1.96788E+06    -118.010E+06    -3.23337E+06    -247.539E+03
             436     47.0175E-03     7.86965E-03     46.3542E-03     33.8211E-03    -16.6743E-03    -17.1526E-03    -16.7935E-03     33.4620E-03    -16.6743E-03     8.51283E-03     41.0362E-03     133.842E+06     3.28017E+06    -935.033E+03    -132.602E+06     2.88445E+06    -132.570E+06    -571.103E+03    -1.06686E+06
             437     46.8545E-03     6.88604E-03     46.3458E-03     33.7637E-03    -16.7015E-03    -17.0637E-03    -16.7742E-03     33.4742E-03    -16.7015E-03     7.63605E-03     39.0471E-03     149.533E+06     5.61592E+06     2.84305E+06    -145.282E+06     3.75842E+06    -145.256E+06     4.67403E+06    -1.02242E+06
             438     46.7129E-03     5.90216E-03     46.3385E-03     33.7169E-03    -16.7156E-03    -17.0024E-03    -16.7700E-03     33.4845E-03    -16.7156E-03     6.84174E-03     37.4719E-03     161.570E+06     6.52196E+06     3.55732E+06    -156.508E+06     3.55366E+06    -156.505E+06     6.52196E+06    -2.61690E+03
             439     46.5921E-03     4.91873E-03     46.3317E-03     33.6200E-03    -16.7078E-03    -16.9160E-03    -16.7336E-03     33.4376E-03    -16.7078E-03     6.04474E-03     36.1633E-03     167.927E+06     4.60388E+06     1.68189E+06    -164.764E+06     2.52817E+06    -164.762E+06     3.75626E+06    -26.7326E+03
             440     46.4929E-03     3.93467E-03     46.3261E-03     33.6050E-03    -16.7103E-03    -16.8954E-03    -16.7669E-03     33.4765E-03    -16.7103E-03     5.05662E-03     35.2080E-03     176.963E+06     3.87189E+06     1.12959E+06    -174.446E+06     2.57285E+06    -174.443E+06     2.42662E+06     90.7350E+03
             441     46.4155E-03     2.95132E-03     46.3216E-03     33.5960E-03    -16.7067E-03    -16.8821E-03    -16.8002E-03     33.5140E-03    -16.7067E-03     4.03698E-03     34.5222E-03     184.841E+06     4.32615E+06     1.80430E+06    -181.762E+06     2.75601E+06    -181.758E+06     3.37078E+06     365.137E+03
             442     46.3596E-03     1.96778E-03     46.3179E-03     33.3943E-03    -16.6190E-03    -16.7708E-03    -16.6573E-03     33.3532E-03    -16.6915E-03     2.75592E-03     33.9090E-03     185.944E+06     3.44695E+06     1.22299E+06    -183.594E+06     1.57381E+06    -183.588E+06     3.08923E+06     248.139E+03
             443     46.3267E-03     983.436E-06     46.3162E-03     33.3800E-03    -16.5763E-03    -16.8050E-03    -16.6637E-03     33.3680E-03    -16.7056E-03     1.47069E-03     33.8304E-03     188.068E+06     5.55501E+06     18.8592E+03    -185.193E+06     2.34623E+06    -185.185E+06     3.22052E+06     212.060E+03
             444     48.9218E-03     16.7239E-03     45.9745E-03     230.700E-03    -16.8982E-03    -213.823E-03    -44.8648E-03     61.7421E-03    -16.8982E-03     431.395E-03     628.330E-03     195.687E+06     216.381E+06     106.418E+06    -7.83149E+06    -7.81511E+06     216.365E+06     106.418E+06     290.990E+03
             445     48.1601E-03     15.7429E-03     45.5144E-03     146.445E-03    -16.5439E-03    -129.900E-03    -33.7820E-03     50.3276E-03    -16.5439E-03     262.112E-03     337.394E-03     171.047E+06     168.751E+06     30.5068E+06    -19.4521E+06    -11.7922E+06     168.733E+06     22.8650E+06     871.790E+03
             446     47.7523E-03     14.7560E-03     45.4152E-03     48.6254E-03    -16.2474E-03    -32.3748E-03    -16.6754E-03     32.9259E-03    -16.2474E-03     59.8319E-03     110.546E-03     131.330E+06     90.4518E+06    -9.38083E+06    -52.3916E+06    -9.32901E+06     90.4000E+06    -52.3916E+06     757.434E+03
             447     47.4340E-03     13.7728E-03     45.3904E-03     34.7121E-03    -16.2535E-03    -18.4495E-03    -16.3235E-03     32.5861E-03    -16.2535E-03     20.3326E-03     75.5686E-03     79.5884E+06     22.7122E+06    -7.75458E+06    -66.7925E+06    -5.46556E+06     20.4232E+06    -66.7925E+06    -1.28471E+06
             448     47.1420E-03     12.7880E-03     45.3744E-03     33.7411E-03    -16.4159E-03    -17.3344E-03    -16.3887E-03     32.7954E-03    -16.4159E-03     13.6525E-03     59.7896E-03     43.7727E+06    -565.945E+03    -19.2937E+06    -48.2437E+06    -2.98186E+06    -22.1589E+06    -42.9625E+06    -691.783E+03
             449     46.8731E-03     11.8043E-03     45.3624E-03     33.7532E-03    -16.5201E-03    -17.2739E-03    -16.6003E-03     33.0796E-03    -16.5201E-03     11.6432E-03     54.0755E-03     49.0938E+06    -642.304E+03    -28.3739E+06    -56.1034E+06    -720.873E+03    -56.0249E+06    -28.3739E+06     1.43560E+06
             450     46.6238E-03     10.8205E-03     45.3508E-03     33.9048E-03    -16.5657E-03    -17.3853E-03    -16.7723E-03     33.2918E-03    -16.5657E-03     11.1422E-03     50.2558E-03     75.5045E+06     2.13641E+06    -20.4836E+06    -81.5554E+06     2.09112E+06    -81.5101E+06    -20.4836E+06     592.031E+03
             451     46.3943E-03     9.83697E-03     45.3394E-03     33.8670E-03    -16.6282E-03    -17.2676E-03    -16.7651E-03     33.3645E-03    -16.6282E-03     10.0591E-03     46.3572E-03     100.529E+06     4.23882E+06    -8.43950E+06    -101.816E+06     4.21043E+06    -101.788E+06    -8.43950E+06    -389.067E+03
             452     46.1865E-03     8.85299E-03     45.3300E-03     33.8142E-03    -16.6636E-03    -17.1597E-03    -16.7485E-03     33.4030E-03    -16.6636E-03     9.11734E-03     43.2840E-03     119.431E+06     5.16151E+06    -2.35462E+06    -117.836E+06     5.14249E+06    -117.817E+06    -2.35462E+06    -371.326E+03
             453     45.9989E-03     7.86944E-03     45.3207E-03     33.8050E-03    -16.6812E-03    -17.1285E-03    -16.7648E-03     33.4413E-03    -16.6812E-03     8.56691E-03     40.9684E-03     134.842E+06     5.31237E+06     371.108E+03    -131.902E+06     5.27796E+06    -131.868E+06     371.108E+03    -806.724E+03
             454     45.8329E-03     6.88576E-03     45.3127E-03     33.7915E-03    -16.7091E-03    -17.0824E-03    -16.7863E-03     33.4954E-03    -16.7091E-03     7.72569E-03     39.0340E-03     150.526E+06     5.22642E+06     3.07597E+06    -146.360E+06     4.15132E+06    -146.331E+06     4.12242E+06    -723.686E+03
             455     45.6880E-03     5.90232E-03     45.3051E-03     33.7478E-03    -16.7242E-03    -17.0235E-03    -16.7912E-03     33.5155E-03    -16.7242E-03     6.83921E-03     37.4686E-03     162.271E+06     6.34444E+06     3.95844E+06    -157.104E+06     3.95536E+06    -157.101E+06     6.34444E+06    -49.2623E+03
             456     45.5649E-03     4.91850E-03     45.2987E-03     33.6582E-03    -16.7214E-03    -16.9402E-03    -16.7655E-03     33.4835E-03    -16.7214E-03     5.91626E-03     36.1837E-03     169.509E+06     6.59507E+06     3.58922E+06    -164.394E+06     4.43201E+06    -164.390E+06     5.74745E+06     294.720E+03
             457     45.4636E-03     3.93500E-03     45.2930E-03     33.5965E-03    -16.7242E-03    -16.8734E-03    -16.7512E-03     33.4743E-03    -16.7242E-03     4.93589E-03     35.1946E-03     178.200E+06     4.83374E+06     2.17802E+06    -174.677E+06     3.29042E+06    -174.673E+06     3.71695E+06     278.018E+03
             458     45.3842E-03     2.95116E-03     45.2882E-03     33.5170E-03    -16.6935E-03    -16.8191E-03    -16.6927E-03     33.4394E-03    -16.7423E-03     3.90986E-03     34.4292E-03     185.082E+06     4.01296E+06     2.23759E+06    -181.949E+06     2.86203E+06    -181.947E+06     3.38606E+06     161.217E+03
             459     45.3280E-03     1.96724E-03     45.2852E-03     33.4872E-03    -16.6532E-03    -16.8311E-03    -16.6712E-03     33.4487E-03    -16.7745E-03     2.69257E-03     33.9706E-03     187.195E+06     5.32250E+06     2.88559E+06    -183.077E+06     3.23956E+06    -183.073E+06     4.96478E+06    -268.128E+03
             460     45.2939E-03     983.667E-06     45.2832E-03     33.5688E-03    -16.6639E-03    -16.9052E-03    -16.7643E-03     33.5572E-03    -16.7932E-03     1.39743E-03     33.9980E-03     188.369E+06     5.94252E+06    -325.424E+03    -185.464E+06     2.00655E+06    -185.461E+06     3.60803E+06    -569.957E+03
             461     47.9505E-03     16.7259E-03     44.9388E-03     232.467E-03    -16.9109E-03    -215.578E-03    -45.1486E-03     62.0378E-03    -16.9109E-03     434.947E-03     629.754E-03     196.409E+06     216.529E+06     108.717E+06    -7.84885E+06    -7.83626E+06     216.516E+06     108.717E+06      28.091E+03
             462     47.1820E-03     15.7393E-03     44.4793E-03     145.607E-03    -16.5505E-03    -129.054E-03    -33.1150E-03     49.6675E-03    -16.5505E-03     260.620E-03     336.926E-03     170.667E+06     167.678E+06     30.2087E+06    -20.9702E+06    -10.9266E+06     167.620E+06     20.2230E+06    -382.638E+03
             463     46.7718E-03     14.7570E-03     44.3828E-03     48.8320E-03    -16.2692E-03    -32.5596E-03    -16.8599E-03     33.1323E-03    -16.2692E-03     60.3112E-03     110.810E-03     132.735E+06     91.0614E+06    -9.75014E+06    -54.5130E+06    -9.62663E+06     90.9378E+06    -54.5130E+06    -44.9020E+03
             464     46.4448E-03     13.7712E-03     44.3562E-03     34.8591E-03    -16.2899E-03    -18.5653E-03    -16.3557E-03     32.6495E-03    -16.2899E-03     20.6600E-03     75.6643E-03     79.0788E+06     22.8657E+06    -8.68419E+06    -65.8959E+06    -7.23070E+06     21.4123E+06    -65.8959E+06     804.876E+03
             465     46.1485E-03     12.7882E-03     44.3412E-03     33.9258E-03    -16.4419E-03    -17.5002E-03    -16.5526E-03     32.9783E-03    -16.4419E-03     13.7382E-03     59.9804E-03     40.8658E+06    -3.96318E+06    -21.3908E+06    -47.8014E+06    -5.59076E+06    -23.7393E+06    -43.8253E+06     650.181E+03
             466     45.8735E-03     11.8038E-03     44.3288E-03     33.8354E-03    -16.5143E-03    -17.3626E-03    -16.6662E-03     33.1390E-03    -16.5143E-03     11.8572E-03     54.0052E-03     47.0128E+06    -2.34472E+06    -32.6117E+06    -55.6093E+06    -2.44381E+06    -55.5103E+06    -32.6117E+06    -20.4231E+03
             467     45.6188E-03     10.8204E-03     44.3169E-03     33.9422E-03    -16.5590E-03    -17.4266E-03    -16.8043E-03     33.3199E-03    -16.5590E-03     11.2314E-03     50.1986E-03     73.9825E+06     1.83158E+06    -23.9625E+06    -80.9000E+06     1.72842E+06    -80.7968E+06    -23.9625E+06    -405.201E+03
             468     45.3850E-03     9.83662E-03     44.3062E-03     33.9041E-03    -16.6278E-03    -17.2987E-03    -16.7920E-03     33.3973E-03    -16.6278E-03     10.1113E-03     46.3233E-03     99.5193E+06     3.69562E+06    -10.7994E+06    -102.072E+06     3.66924E+06    -102.046E+06    -10.7994E+06    -42.5233E+03
             469     45.1725E-03     8.85321E-03     44.2964E-03     33.8131E-03    -16.6665E-03    -17.1523E-03    -16.7438E-03     33.4046E-03    -16.6665E-03     9.08527E-03     43.2292E-03     118.094E+06     4.64740E+06    -3.55261E+06    -117.325E+06     4.63546E+06    -117.313E+06    -3.55261E+06    -293.758E+03
             470     44.9814E-03     7.86937E-03     44.2876E-03     33.7949E-03    -16.6958E-03    -17.1026E-03    -16.7491E-03     33.4414E-03    -16.6958E-03     8.44658E-03     40.9227E-03     135.250E+06     5.32533E+06     899.484E+03    -132.052E+06     5.31572E+06    -132.043E+06     899.484E+03    -69.3073E+03
             471     44.8113E-03     6.88572E-03     44.2791E-03     33.8066E-03    -16.7264E-03    -17.0789E-03    -16.7904E-03     33.5181E-03    -16.7264E-03     7.62578E-03     39.0486E-03     151.602E+06     5.80805E+06     4.56035E+06    -146.412E+06     5.39732E+06    -146.406E+06     4.96536E+06     210.849E+03
             472     44.6636E-03     5.90205E-03     44.2720E-03     33.7720E-03    -16.7378E-03    -17.0356E-03    -16.8075E-03     33.5440E-03    -16.7378E-03     6.78132E-03     37.4832E-03     162.636E+06     5.98145E+06     4.32347E+06    -157.474E+06     4.40296E+06    -157.471E+06     5.89905E+06    -148.588E+03
             473     44.5379E-03     4.91858E-03     44.2654E-03     33.7103E-03    -16.7360E-03    -16.9788E-03    -16.8025E-03     33.5340E-03    -16.7360E-03     5.94928E-03     36.2447E-03     169.894E+06     5.58703E+06     3.43124E+06    -165.371E+06     3.42767E+06    -165.367E+06     5.58703E+06     374.954E+03
             474     44.4344E-03     3.93494E-03     44.2598E-03     33.6185E-03    -16.7385E-03    -16.8821E-03    -16.7598E-03     33.4961E-03    -16.7385E-03     4.93383E-03     35.2220E-03     178.315E+06     5.36450E+06     3.26023E+06    -173.990E+06     3.52271E+06    -173.984E+06     5.09531E+06     813.089E+03
             475     44.3538E-03     2.95112E-03     44.2555E-03     33.5136E-03    -16.7061E-03    -16.8052E-03    -16.6840E-03     33.4413E-03    -16.7549E-03     3.75930E-03     34.4234E-03     184.405E+06     4.18278E+06     2.55334E+06    -181.029E+06     2.90068E+06    -181.025E+06     3.83143E+06     154.416E+03
             476     44.2957E-03     1.96725E-03     44.2520E-03     33.5296E-03    -16.6981E-03    -16.8284E-03    -16.7145E-03     33.4937E-03    -16.7760E-03     2.63851E-03     34.0132E-03     186.440E+06     3.93137E+06     1.89849E+06    -183.514E+06     1.97679E+06    -183.510E+06     3.84921E+06    -719.409E+03
             477     44.2606E-03     983.799E-06     44.2497E-03     33.5554E-03    -16.6981E-03    -16.8559E-03    -16.8130E-03     33.5416E-03    -16.7272E-03     1.54310E-03     33.9838E-03     187.685E+06     4.01270E+06    -1.13628E+06    -186.180E+06     201.742E+03    -186.174E+06     2.66869E+06    -843.566E+03
             478     46.9810E-03     16.7240E-03     43.9036E-03     233.143E-03    -16.9115E-03    -216.241E-03    -44.8556E-03     61.7577E-03    -16.9115E-03     436.492E-03     630.256E-03     196.231E+06     217.095E+06     109.719E+06    -7.00279E+06    -6.99222E+06     217.084E+06     109.719E+06    -8.58909E+03
             479     46.2102E-03     15.7418E-03     43.4462E-03     145.550E-03    -16.5772E-03    -128.970E-03    -32.6501E-03     49.2300E-03    -16.5772E-03     260.618E-03     335.681E-03     170.802E+06     166.483E+06     28.0725E+06    -21.7684E+06    -12.8583E+06     166.399E+06     19.2467E+06     52.4343E+03
             480     45.7914E-03     14.7545E-03     43.3492E-03     48.9829E-03    -16.3119E-03    -32.6687E-03    -17.1677E-03     33.4818E-03    -16.3119E-03     60.0184E-03     110.749E-03     132.481E+06     90.2500E+06    -13.4436E+06    -54.6512E+06    -13.2743E+06     90.0806E+06    -54.6512E+06     235.061E+03
             481     45.4590E-03     13.7718E-03     43.3227E-03     34.9195E-03    -16.3242E-03    -18.5894E-03    -16.4599E-03     32.7900E-03    -16.3242E-03     20.3147E-03     75.5875E-03     77.5644E+06     22.6219E+06    -11.4042E+06    -64.9313E+06    -9.47512E+06     20.6929E+06    -64.9313E+06     917.655E+03
             482     45.1556E-03     12.7871E-03     43.3073E-03     33.9736E-03    -16.4590E-03    -17.5279E-03    -16.6165E-03     33.0622E-03    -16.4590E-03     13.4880E-03     60.0431E-03     40.8722E+06    -2.66156E+06    -22.2518E+06    -46.3241E+06    -4.43738E+06    -22.8897E+06    -43.9104E+06     751.996E+03
             483     44.8755E-03     11.8041E-03     43.2952E-03     33.9204E-03    -16.5235E-03    -17.4402E-03    -16.7677E-03     33.2479E-03    -16.5235E-03     11.6715E-03     54.0691E-03     47.6608E+06    -1.37808E+06    -32.5644E+06    -54.7927E+06    -1.47314E+06    -54.1843E+06    -33.0777E+06    -636.956E+03
             484     44.6154E-03     10.8200E-03     43.2835E-03     33.9140E-03    -16.5767E-03    -17.3824E-03    -16.7812E-03     33.3127E-03    -16.5767E-03     11.0347E-03     50.1506E-03     73.8300E+06     143.840E+03    -23.8062E+06    -81.9439E+06     64.8947E+03    -81.8649E+06    -23.8062E+06    -668.953E+03
             485     44.3764E-03     9.83663E-03     43.2724E-03     33.9076E-03    -16.6436E-03    -17.2851E-03    -16.7938E-03     33.4163E-03    -16.6436E-03     9.95515E-03     46.3551E-03     98.6752E+06     2.17743E+06    -10.8204E+06    -102.200E+06     2.15761E+06    -102.180E+06    -10.8204E+06    -113.530E+03
             486     44.1596E-03     8.85282E-03     43.2632E-03     33.8682E-03    -16.6757E-03    -17.1954E-03    -16.7978E-03     33.4706E-03    -16.6757E-03     8.97115E-03     43.2947E-03     116.777E+06     3.37936E+06    -3.94003E+06    -116.875E+06     3.37651E+06    -116.873E+06    -3.94003E+06     20.3310E+03
             487     43.9642E-03     7.86935E-03     43.2542E-03     33.8273E-03    -16.6993E-03    -17.1300E-03    -16.7847E-03     33.4819E-03    -16.6993E-03     8.35237E-03     40.9628E-03     134.046E+06     3.66478E+06    -192.655E+03    -132.246E+06     3.49726E+06    -132.246E+06    -25.3729E+03     60.6595E+03
             488     43.7907E-03     6.88571E-03     43.2459E-03     33.7655E-03    -16.7310E-03    -17.0338E-03    -16.7522E-03     33.4839E-03    -16.7310E-03     7.52838E-03     39.0176E-03     150.722E+06     4.77171E+06     3.25337E+06    -146.701E+06     3.93288E+06    -146.700E+06     4.09113E+06     236.980E+03
             489     43.6396E-03     5.90205E-03     43.2386E-03     33.7397E-03    -16.7513E-03    -16.9919E-03    -16.7684E-03     33.5162E-03    -16.7513E-03     6.71043E-03     37.4686E-03     162.502E+06     6.01955E+06     3.99735E+06    -157.481E+06     4.07771E+06    -157.479E+06     5.93714E+06     478.363E+03
             490     43.5110E-03     4.91837E-03     43.2322E-03     33.6916E-03    -16.7564E-03    -16.9413E-03    -16.7695E-03     33.5199E-03    -16.7564E-03     5.86641E-03     36.2399E-03     169.833E+06     5.26813E+06     3.25046E+06    -165.562E+06     3.24938E+06    -165.561E+06     5.26813E+06     199.013E+03
             491     43.4054E-03     3.93466E-03     43.2267E-03     33.6630E-03    -16.7655E-03    -16.9005E-03    -16.7806E-03     33.5431E-03    -16.7655E-03     4.89140E-03     35.2781E-03     178.267E+06     4.98264E+06     3.03688E+06    -174.247E+06     3.03358E+06    -174.244E+06     4.98264E+06     335.593E+03
             492     43.3229E-03     2.95117E-03     43.2223E-03     33.6472E-03    -16.7651E-03    -16.8802E-03    -16.8073E-03     33.5744E-03    -16.7651E-03     3.78376E-03     34.5663E-03     183.957E+06     5.00377E+06     3.26693E+06    -179.813E+06     3.34357E+06    -179.807E+06     4.92161E+06     612.116E+03
             493     43.2638E-03     1.96765E-03     43.2191E-03     33.5094E-03    -16.7046E-03    -16.8018E-03    -16.7090E-03     33.4710E-03    -16.7590E-03     2.74625E-03     34.0102E-03     186.207E+06     3.59166E+06     2.19546E+06    -183.306E+06     2.27257E+06    -183.301E+06     3.50949E+06    -18.7329E+03
             494     43.2279E-03     983.484E-06     43.2167E-03     33.5223E-03    -16.7184E-03    -16.8028E-03    -16.7318E-03     33.5057E-03    -16.7728E-03     1.70999E-03     33.9808E-03     187.866E+06     2.02693E+06    -1.10995E+06    -187.381E+06     223.310E+03    -187.370E+06     682.931E+03    -1.14549E+06
             495     46.0212E-03     16.7279E-03     42.8734E-03     232.649E-03    -16.8607E-03    -215.792E-03    -44.5431E-03     61.4001E-03    -16.8607E-03     435.721E-03     629.935E-03     195.897E+06     216.600E+06     107.826E+06    -7.35217E+06    -7.33975E+06     216.587E+06     107.826E+06     353.671E+03
             496     45.2372E-03     15.7368E-03     42.4118E-03     145.867E-03    -16.5706E-03    -129.292E-03    -32.2092E-03     48.7837E-03    -16.5706E-03     261.334E-03     336.355E-03     170.974E+06     167.823E+06     28.3843E+06    -20.0367E+06    -12.5130E+06     167.727E+06     20.9568E+06     41.8713E+03
             497     44.8138E-03     14.7563E-03     42.3146E-03     48.5974E-03    -16.3164E-03    -32.2775E-03    -17.3635E-03     33.6834E-03    -16.3164E-03     58.6246E-03     110.458E-03     131.002E+06     90.3032E+06    -11.1737E+06    -52.1823E+06    -11.0061E+06     90.1356E+06    -52.1823E+06    -188.830E+03
             498     44.4751E-03     13.7712E-03     42.2893E-03     34.7689E-03    -16.3166E-03    -18.4470E-03    -16.4736E-03     32.7954E-03    -16.3166E-03     19.5808E-03     75.4852E-03     75.5786E+06     21.0618E+06    -9.15977E+06    -63.8587E+06    -7.25923E+06     19.1612E+06    -63.8587E+06     600.981E+03
             499     44.1653E-03     12.7878E-03     42.2734E-03     33.8508E-03    -16.4486E-03    -17.4121E-03    -16.5492E-03     32.9879E-03    -16.4486E-03     13.0908E-03     59.8286E-03     38.4981E+06    -4.00197E+06    -22.1719E+06    -44.2718E+06    -5.13091E+06    -21.5116E+06    -43.8031E+06     814.913E+03
             500     43.8787E-03     11.8035E-03     42.2612E-03     33.8138E-03    -16.5222E-03    -17.3290E-03    -16.7116E-03     33.1964E-03    -16.5222E-03     11.1605E-03     54.0448E-03     46.0839E+06    -2.64038E+06    -31.7197E+06    -53.6145E+06    -2.76741E+06    -52.9741E+06    -32.2330E+06    -538.005E+03
             501     43.6136E-03     10.8204E-03     42.2500E-03     33.8556E-03    -16.5819E-03    -17.3187E-03    -16.7526E-03     33.2895E-03    -16.5819E-03     10.7007E-03     50.1299E-03     75.0344E+06     758.805E+03    -22.1287E+06    -82.5275E+06     681.281E+03    -82.4500E+06    -22.1287E+06    -1.09248E+06
             502     43.3691E-03     9.83641E-03     42.2389E-03     33.8451E-03    -16.6467E-03    -17.2238E-03    -16.7496E-03     33.3709E-03    -16.6467E-03     9.76066E-03     46.3628E-03     99.9346E+06     2.78292E+06    -10.0513E+06    -102.758E+06     2.77184E+06    -102.746E+06    -10.0513E+06    -393.760E+03
             503     43.1476E-03     8.85298E-03     42.2296E-03     33.8519E-03    -16.6829E-03    -17.1754E-03    -16.7952E-03     33.4717E-03    -16.6829E-03     8.77355E-03     43.3359E-03     117.462E+06     3.64012E+06    -2.86548E+06    -116.928E+06     3.63783E+06    -116.926E+06    -2.86548E+06     178.448E+03
             504     42.9478E-03     7.86937E-03     42.2207E-03     33.8308E-03    -16.7124E-03    -17.1210E-03    -16.7865E-03     33.4963E-03    -16.7124E-03     8.22035E-03     41.0139E-03     135.519E+06     4.69696E+06     1.53051E+06    -132.358E+06     4.28182E+06    -132.357E+06     1.94483E+06     186.190E+03
             505     42.7706E-03     6.88572E-03     42.2127E-03     33.7624E-03    -16.7413E-03    -17.0200E-03    -16.7421E-03     33.4845E-03    -16.7413E-03     7.48540E-03     39.0523E-03     151.636E+06     5.11726E+06     3.96828E+06    -147.088E+06     4.03141E+06    -147.087E+06     5.05308E+06     281.878E+03
             506     42.6161E-03     5.90198E-03     42.2054E-03     33.7060E-03    -16.7558E-03    -16.9511E-03    -16.7262E-03     33.4811E-03    -16.7558E-03     6.72248E-03     37.4519E-03     161.769E+06     5.18551E+06     3.24747E+06    -157.541E+06     3.30898E+06    -157.538E+06     5.12133E+06     637.930E+03
             507     42.4845E-03     4.91837E-03     42.1989E-03     33.6750E-03    -16.7726E-03    -16.9050E-03    -16.7368E-03     33.5068E-03    -16.7726E-03     5.80165E-03     36.2262E-03     169.099E+06     5.44887E+06     3.15698E+06    -164.783E+06     3.15519E+06    -164.781E+06     5.44887E+06     387.912E+03
             508     42.3767E-03     3.93468E-03     42.1937E-03     33.6716E-03    -16.7845E-03    -16.8883E-03    -16.7599E-03     33.5522E-03    -16.7935E-03     4.88757E-03     35.2938E-03     178.080E+06     4.65213E+06     2.74425E+06    -174.373E+06     2.74397E+06    -174.373E+06     4.65213E+06    -94.7035E+03
             509     42.2920E-03     2.95096E-03     42.1889E-03     33.6722E-03    -16.7938E-03    -16.8749E-03    -16.7845E-03     33.5951E-03    -16.8072E-03     3.90078E-03     34.6051E-03     183.643E+06     3.91150E+06     2.33071E+06    -180.516E+06     2.63211E+06    -180.514E+06     3.60735E+06     81.5632E+03
             510     42.2319E-03     1.96724E-03     42.1861E-03     33.6857E-03    -16.7595E-03    -16.9232E-03    -16.8538E-03     33.6459E-03    -16.7892E-03     2.77344E-03     34.2124E-03     185.842E+06     4.62299E+06     2.15692E+06    -182.427E+06     2.44867E+06    -182.415E+06     4.31885E+06     924.522E+03
             511     42.1951E-03     983.772E-06     42.1837E-03     33.5137E-03    -16.6475E-03    -16.8665E-03    -16.8267E-03     33.4991E-03    -16.6728E-03     1.58787E-03     33.9703E-03     187.487E+06     2.53791E+06    -1.11505E+06    -186.738E+06    -123.496E+03    -186.717E+06     1.52573E+06     772.407E+03
             512     45.0686E-03     16.7276E-03     41.8494E-03     231.688E-03    -16.8040E-03    -214.902E-03    -45.1633E-03     61.9499E-03    -16.8040E-03     433.535E-03     628.945E-03     196.076E+06     216.491E+06     108.876E+06    -7.72178E+06    -7.70787E+06     216.478E+06     108.876E+06    -305.757E+03
             513     44.2707E-03     15.7431E-03     41.3769E-03     146.632E-03    -16.4945E-03    -130.140E-03    -32.3727E-03     48.8645E-03    -16.4945E-03     263.086E-03     337.644E-03     171.130E+06     168.890E+06     30.8379E+06    -19.7388E+06    -11.0910E+06     168.733E+06     22.3466E+06     80.7313E+03
             514     43.8392E-03     14.7558E-03     41.2813E-03     47.9153E-03    -16.2711E-03    -31.6446E-03    -16.8227E-03     33.0934E-03    -16.2711E-03     57.7007E-03     110.084E-03     128.568E+06     90.1707E+06    -13.8919E+06    -49.5714E+06    -13.7014E+06     89.9802E+06    -49.5714E+06     1.31349E+06
             515     43.4934E-03     13.7725E-03     41.2553E-03     34.4866E-03    -16.2868E-03    -18.1968E-03    -16.3095E-03     32.5992E-03    -16.2868E-03     19.0513E-03     75.4558E-03     73.4373E+06     19.2816E+06    -12.8450E+06    -62.1603E+06    -12.7877E+06     19.2243E+06    -62.1603E+06     920.817E+03
             516     43.1773E-03     12.7880E-03     41.2401E-03     33.6525E-03    -16.3929E-03    -17.2717E-03    -16.4419E-03     32.8227E-03    -16.3929E-03     12.8107E-03     59.7194E-03     39.2104E+06    -4.77224E+06    -21.0943E+06    -45.8070E+06    -6.72105E+06    -19.6141E+06    -45.3383E+06    -995.177E+03
             517     42.8842E-03     11.8046E-03     41.2275E-03     33.5744E-03    -16.4840E-03    -17.1264E-03    -16.5420E-03     32.9899E-03    -16.4840E-03     10.8110E-03     53.9606E-03     49.0547E+06     192.258E+03    -29.1280E+06    -54.7048E+06    -294.061E+03    -52.1015E+06    -31.2450E+06    -2.38408E+06
             518     42.6132E-03     10.8203E-03     41.2165E-03     33.6653E-03    -16.5581E-03    -17.1506E-03    -16.6152E-03     33.1299E-03    -16.5581E-03     10.3766E-03     50.0661E-03     77.9788E+06     2.50509E+06    -22.3041E+06    -84.4695E+06     2.43807E+06    -84.4025E+06    -22.3041E+06    -902.016E+03
             519     42.3634E-03     9.83683E-03     41.2055E-03     33.7261E-03    -16.6295E-03    -17.1232E-03    -16.6524E-03     33.2552E-03    -16.6295E-03     9.71118E-03     46.2805E-03     99.8941E+06     2.73824E+06    -11.1618E+06    -103.128E+06     2.72752E+06    -103.118E+06    -11.1618E+06     633.074E+03
             520     42.1367E-03     8.85293E-03     41.1962E-03     33.7353E-03    -16.6758E-03    -17.0672E-03    -16.6856E-03     33.3536E-03    -16.6758E-03     8.77017E-03     43.2580E-03     116.307E+06     2.95808E+06    -4.11162E+06    -116.715E+06     2.94758E+06    -116.704E+06    -4.11162E+06     195.315E+03
             521     41.9324E-03     7.86928E-03     41.1874E-03     33.7680E-03    -16.7137E-03    -17.0616E-03    -16.7258E-03     33.4322E-03    -16.7137E-03     8.22732E-03     40.9717E-03     134.766E+06     3.75610E+06     8.98069E+03    -132.808E+06     3.50209E+06    -132.802E+06     256.014E+03     319.969E+03
             522     41.7512E-03     6.88560E-03     41.1795E-03     33.7785E-03    -16.7519E-03    -17.0299E-03    -16.7518E-03     33.5004E-03    -16.7519E-03     7.48602E-03     39.0888E-03     150.937E+06     4.67075E+06     2.87675E+06    -147.143E+06     2.99546E+06    -147.131E+06     4.54006E+06     1.11372E+06
             523     41.5930E-03     5.90198E-03     41.1721E-03     33.7002E-03    -16.7642E-03    -16.9348E-03    -16.7126E-03     33.4780E-03    -16.7642E-03     6.68117E-03     37.4531E-03     160.301E+06     4.32062E+06     1.92220E+06    -157.154E+06     1.97730E+06    -157.145E+06     4.25645E+06     705.240E+03
             524     41.4586E-03     4.91816E-03     41.1658E-03     33.6418E-03    -16.7784E-03    -16.8637E-03    -16.6847E-03     33.4688E-03    -16.7845E-03     5.88779E-03     36.1921E-03     167.052E+06     3.53724E+06     1.96962E+06    -164.290E+06     1.96825E+06    -164.289E+06     3.53724E+06     23.3701E+03
             525     41.3478E-03     3.93454E-03     41.1602E-03     33.6846E-03    -16.8100E-03    -16.8760E-03    -16.7387E-03     33.5624E-03    -16.8251E-03     4.92972E-03     35.3046E-03     176.885E+06     3.64280E+06     1.74149E+06    -174.184E+06     1.74094E+06    -174.184E+06     3.64280E+06     52.5009E+03
             526     41.2618E-03     2.95074E-03     41.1562E-03     33.7400E-03    -16.8372E-03    -16.8993E-03    -16.8104E-03     33.6645E-03    -16.8505E-03     3.87809E-03     34.6656E-03     182.745E+06     3.15708E+06     612.393E+03    -180.844E+06     915.774E+03    -180.844E+06     2.85294E+06    -61.0472E+03
             527     41.1992E-03     1.96712E-03     41.1523E-03     33.7805E-03    -16.8173E-03    -16.9595E-03    -16.9162E-03     33.7417E-03    -16.8217E-03     2.72072E-03     34.3325E-03     183.771E+06     2.39950E+06    -630.917E+03    -182.855E+06    -337.207E+03    -182.844E+06     2.09536E+06     694.082E+03
             528     41.1622E-03     984.084E-06     41.1504E-03     33.5698E-03    -16.6658E-03    -16.9043E-03    -16.8924E-03     33.5580E-03    -16.6659E-03     1.40733E-03     34.0581E-03     186.389E+06     2.82550E+06    -942.572E+03    -185.408E+06     53.1100E+03    -185.392E+06     1.81333E+06     1.15172E+06
             529     44.1106E-03     16.7291E-03     40.8152E-03     230.708E-03    -16.7674E-03    -213.959E-03    -45.7181E-03     62.4673E-03    -16.7674E-03     431.281E-03     627.848E-03     195.937E+06     215.758E+06     108.043E+06    -8.32688E+06    -8.31944E+06     215.751E+06     108.043E+06    -546.754E+03
             530     43.3080E-03     15.7419E-03     40.3457E-03     147.580E-03    -16.4212E-03    -131.162E-03    -33.0013E-03     49.4185E-03    -16.4212E-03     264.968E-03     338.395E-03     171.344E+06     167.735E+06     28.6877E+06    -20.4995E+06    -13.2985E+06     167.621E+06     21.6007E+06     1.09913E+06
             531     42.8679E-03     14.7583E-03     40.2474E-03     47.8835E-03    -16.1876E-03    -31.6978E-03    -16.5170E-03     32.7028E-03    -16.1876E-03     58.2861E-03     109.934E-03     129.767E+06     90.3448E+06    -13.2195E+06    -49.8598E+06    -12.9868E+06     90.1121E+06    -49.8598E+06     2.57245E+06
             532     42.5151E-03     13.7730E-03     40.2224E-03     34.2114E-03    -16.1936E-03    -18.0140E-03    -16.1019E-03     32.2993E-03    -16.1936E-03     19.0545E-03     75.1718E-03     79.9596E+06     24.5262E+06    -8.88101E+06    -64.3962E+06    -7.50281E+06     23.1480E+06    -64.3962E+06    -502.095E+03
             533     42.1914E-03     12.7892E-03     40.2063E-03     33.4152E-03    -16.2976E-03    -17.1292E-03    -16.2908E-03     32.5769E-03    -16.2976E-03     12.8368E-03     59.5315E-03     48.8990E+06     1.73449E+06    -21.2804E+06    -50.2861E+06    -1.80873E+06    -17.7372E+06    -50.2861E+06    -4.32441E+06
             534     41.8920E-03     11.8048E-03     40.1944E-03     33.3463E-03    -16.4303E-03    -16.9558E-03    -16.3664E-03     32.7569E-03    -16.4303E-03     10.8052E-03     53.7371E-03     54.5088E+06     1.53662E+06    -30.2326E+06    -58.7743E+06     1.06089E+06    -55.2548E+06    -33.2764E+06    -2.19784E+06
             535     41.6148E-03     10.8210E-03     40.1833E-03     33.4543E-03    -16.5295E-03    -16.9703E-03    -16.4363E-03     32.9203E-03    -16.5295E-03     10.3215E-03     49.9037E-03     78.9101E+06     1.29748E+06    -22.8157E+06    -86.5781E+06     1.26482E+06    -86.5454E+06    -22.8157E+06     1.09699E+06
             536     41.3591E-03     9.83671E-03     40.1723E-03     33.5438E-03    -16.6053E-03    -16.9644E-03    -16.4877E-03     33.0671E-03    -16.6053E-03     9.73763E-03     46.1165E-03     98.6359E+06     2.50819E+06    -12.2181E+06    -102.356E+06     2.48840E+06    -102.337E+06    -12.2181E+06     947.093E+03
             537     41.1269E-03     8.85300E-03     40.1628E-03     33.6131E-03    -16.6783E-03    -16.9420E-03    -16.5627E-03     33.2338E-03    -16.6783E-03     8.71962E-03     43.1905E-03     117.248E+06     4.15268E+06    -2.66751E+06    -116.344E+06     4.13750E+06    -116.329E+06    -2.66751E+06     355.137E+03
             538     40.9180E-03     7.86912E-03     40.1542E-03     33.7062E-03    -16.7303E-03    -16.9833E-03    -16.6521E-03     33.3751E-03    -16.7303E-03     8.16173E-03     40.9546E-03     136.883E+06     4.60723E+06     538.457E+03    -134.239E+06     3.68902E+06    -134.216E+06     1.43365E+06     1.18555E+06
             539     40.7322E-03     6.88548E-03     40.1460E-03     33.7469E-03    -16.7772E-03    -16.9759E-03    -16.6971E-03     33.4681E-03    -16.7772E-03     7.48979E-03     39.0861E-03     151.069E+06     5.91564E+06     2.77026E+06    -146.693E+06     2.81319E+06    -146.670E+06     5.84913E+06     1.52467E+06
             540     40.5706E-03     5.90184E-03     40.1390E-03     33.7216E-03    -16.7971E-03    -16.9267E-03    -16.7020E-03     33.4970E-03    -16.7971E-03     6.72101E-03     37.4974E-03     160.031E+06     5.83596E+06     2.82563E+06    -155.670E+06     2.81529E+06    -155.660E+06     5.83596E+06     644.156E+03
             541     40.4329E-03     4.91814E-03     40.1326E-03     33.6861E-03    -16.8106E-03    -16.8772E-03    -16.6946E-03     33.5096E-03    -16.8167E-03     5.95112E-03     36.2428E-03     166.882E+06     3.46773E+06     2.43369E+06    -163.926E+06     2.49486E+06    -163.923E+06     3.40329E+06     99.3786E+03
             542     40.3196E-03     3.93420E-03     40.1272E-03     33.7792E-03    -16.8508E-03    -16.9302E-03    -16.8013E-03     33.6564E-03    -16.8569E-03     4.94410E-03     35.4041E-03     176.882E+06     3.62346E+06     1.70310E+06    -174.207E+06     1.76594E+06    -174.205E+06     3.55902E+06    -198.536E+03
             543     40.2310E-03     2.95081E-03     40.1226E-03     33.8479E-03    -16.8724E-03    -16.9730E-03    -16.8991E-03     33.7740E-03    -16.8724E-03     3.84371E-03     34.7767E-03     183.841E+06     4.19724E+06     889.618E+03    -181.275E+06     887.990E+03    -181.273E+06     4.19724E+06    -30.9034E+03
             544     40.1673E-03     1.96744E-03     40.1191E-03     33.7195E-03    -16.8148E-03    -16.9028E-03    -16.8146E-03     33.6809E-03    -16.8644E-03     2.72167E-03     34.2711E-03     184.617E+06     3.52201E+06     925.695E+03    -182.374E+06     923.498E+03    -182.372E+06     3.52201E+06    -61.2766E+03
             545     40.1292E-03     983.163E-06     40.1172E-03     33.7175E-03    -16.7929E-03    -16.9258E-03    -16.8393E-03     33.7059E-03    -16.8677E-03     1.32695E-03     34.2462E-03     186.456E+06     2.09412E+06    -530.203E+03    -185.655E+06     71.2289E+03    -185.652E+06     1.48996E+06    -341.742E+03
             546     43.1587E-03     16.7283E-03     39.7849E-03     229.305E-03    -16.7292E-03    -212.589E-03    -45.8539E-03     62.5693E-03    -16.7292E-03     428.366E-03     624.990E-03     195.414E+06     215.505E+06     106.596E+06    -7.73463E+06    -7.73191E+06     215.502E+06     106.596E+06     693.743E+03
             547     42.3467E-03     15.7443E-03     39.3110E-03     147.856E-03    -16.3517E-03    -131.500E-03    -33.3326E-03     49.6886E-03    -16.3517E-03     265.368E-03     337.785E-03     170.723E+06     166.866E+06     28.8371E+06    -21.7104E+06    -11.3114E+06     166.836E+06     18.4682E+06     628.404E+03
             548     41.9008E-03     14.7585E-03     39.2156E-03     47.7864E-03    -16.0921E-03    -31.6908E-03    -16.5216E-03     32.6172E-03    -16.0921E-03     58.6694E-03     109.898E-03     133.487E+06     91.3356E+06    -7.80977E+06    -54.8655E+06    -7.47688E+06     91.0027E+06    -54.8655E+06    -356.121E+03
             549     41.5387E-03     13.7742E-03     39.1884E-03     34.1141E-03    -16.1167E-03    -17.9900E-03    -15.8896E-03     32.0138E-03    -16.1167E-03     19.8414E-03     74.7212E-03     84.7334E+06     28.8171E+06    -3.98414E+06    -66.5389E+06    -2.01395E+06     26.8469E+06    -66.5389E+06    -1.47690E+06
             550     41.2087E-03     12.7896E-03     39.1738E-03     33.2440E-03    -16.2800E-03    -16.9743E-03    -16.0884E-03     32.3581E-03    -16.2800E-03     13.1504E-03     59.4667E-03     47.8767E+06     2.66987E+06    -20.3454E+06    -48.7728E+06    -1.59801E+06    -17.7101E+06    -47.1403E+06    -1.38441E+06
             551     40.9016E-03     11.8054E-03     39.1608E-03     33.2024E-03    -16.4300E-03    -16.8138E-03    -16.1787E-03     32.5673E-03    -16.4300E-03     11.1755E-03     53.6368E-03     52.3570E+06    -3.22038E+06    -31.0160E+06    -60.7170E+06    -3.33707E+06    -59.6735E+06    -31.9428E+06     316.769E+03
             552     40.6183E-03     10.8210E-03     39.1504E-03     33.3979E-03    -16.5224E-03    -16.9237E-03    -16.3532E-03     32.8274E-03    -16.5224E-03     10.6496E-03     49.8876E-03     76.9438E+06    -1.05527E+06    -21.8993E+06    -86.2024E+06    -1.08906E+06    -86.1686E+06    -21.8993E+06     899.340E+03
             553     40.3564E-03     9.83718E-03     39.1390E-03     33.4840E-03    -16.5889E-03    -16.9233E-03    -16.4246E-03     32.9853E-03    -16.5889E-03     9.94489E-03     46.0623E-03     97.3504E+06     2.47927E+06    -12.6165E+06    -101.298E+06     2.46411E+06    -101.283E+06    -12.6165E+06    -208.363E+03
             554     40.1187E-03     8.85300E-03     39.1297E-03     33.5459E-03    -16.6809E-03    -16.8720E-03    -16.4845E-03     33.1584E-03    -16.6809E-03     8.79581E-03     43.1559E-03     119.191E+06     4.24294E+06    -2.19474E+06    -117.966E+06     3.73301E+06    -117.934E+06    -1.71645E+06     941.072E+03
             555     39.9044E-03     7.86925E-03     39.1208E-03     33.6464E-03    -16.7433E-03    -16.9061E-03    -16.5751E-03     33.3154E-03    -16.7433E-03     8.14825E-03     40.9053E-03     137.748E+06     5.32578E+06     1.85351E+06    -134.123E+06     3.90992E+06    -134.081E+06     3.22698E+06     1.80498E+06
             556     39.7143E-03     6.88534E-03     39.1129E-03     33.6608E-03    -16.7827E-03    -16.8825E-03    -16.5949E-03     33.3830E-03    -16.7925E-03     7.46144E-03     38.9843E-03     151.307E+06     7.27183E+06     3.68135E+06    -145.798E+06     4.67680E+06    -145.785E+06     6.26311E+06     571.041E+03
             557     39.5484E-03     5.90142E-03     39.1056E-03     33.7172E-03    -16.8299E-03    -16.8930E-03    -16.6586E-03     33.4926E-03    -16.8396E-03     6.71688E-03     37.5103E-03     161.651E+06     7.92548E+06     4.90846E+06    -155.212E+06     4.90512E+06    -155.209E+06     7.92548E+06     503.654E+03
             558     39.4075E-03     4.91779E-03     39.0994E-03     33.8293E-03    -16.8626E-03    -16.9694E-03    -16.7920E-03     33.6520E-03    -16.8626E-03     5.97876E-03     36.4009E-03     168.412E+06     5.96708E+06     3.94732E+06    -163.443E+06     4.00367E+06    -163.435E+06     5.90264E+06     891.402E+03
             559     39.2912E-03     3.93438E-03     39.0937E-03     33.8815E-03    -16.8809E-03    -17.0011E-03    -16.8746E-03     33.7550E-03    -16.8809E-03     5.03738E-03     35.5089E-03     177.319E+06     4.61419E+06     2.51771E+06    -173.741E+06     3.04989E+06    -173.734E+06     4.07571E+06     164.334E+03
             560     39.2003E-03     2.95081E-03     39.0890E-03     33.8471E-03    -16.8946E-03    -16.9502E-03    -16.8726E-03     33.7696E-03    -16.8946E-03     3.92504E-03     34.7846E-03     184.331E+06     3.94590E+06     1.68802E+06    -181.501E+06     2.40374E+06    -181.498E+06     3.22692E+06    -497.475E+03
             561     39.1355E-03     1.96697E-03     39.0861E-03     33.7894E-03    -16.8617E-03    -16.9267E-03    -16.8387E-03     33.7509E-03    -16.9112E-03     2.71808E-03     34.3204E-03     185.762E+06     4.26135E+06     1.70404E+06    -182.764E+06     1.94509E+06    -182.760E+06     4.01642E+06    -421.451E+03
             562     39.0961E-03     983.759E-06     39.0837E-03     33.8277E-03    -16.8496E-03    -16.9803E-03    -16.8441E-03     33.8147E-03    -16.9728E-03     1.49209E-03     34.3132E-03     186.657E+06     2.92457E+06     409.404E+03    -184.975E+06     1.21562E+06    -184.973E+06     2.11601E+06    -68.7101E+03
             563     42.2112E-03     16.7312E-03     38.7538E-03     228.627E-03    -16.7451E-03    -211.901E-03    -46.0957E-03     62.8223E-03    -16.7451E-03     426.817E-03     623.654E-03     195.559E+06     216.027E+06     108.459E+06    -7.09987E+06    -7.09028E+06     216.017E+06     108.459E+06     435.002E+03
             564     41.3892E-03     15.7436E-03     38.2780E-03     148.555E-03    -16.3379E-03    -132.213E-03    -33.8748E-03     50.2172E-03    -16.3379E-03     266.603E-03     336.493E-03     171.019E+06     167.599E+06     29.9019E+06    -21.8620E+06    -9.95000E+06     167.508E+06     18.0802E+06     17.0723E+03
             565     40.9360E-03     14.7595E-03     38.1826E-03     47.8787E-03    -16.0764E-03    -31.7964E-03    -16.3882E-03     32.4705E-03    -16.0764E-03     59.3432E-03     109.631E-03     134.206E+06     91.8786E+06    -9.93296E+06    -56.0697E+06    -9.61022E+06     91.5559E+06    -56.0697E+06    -1.59195E+06
             566     40.5660E-03     13.7740E-03     38.1560E-03     34.2196E-03    -16.1172E-03    -18.0917E-03    -15.7812E-03     31.9091E-03    -16.1172E-03     20.8532E-03     74.3558E-03     83.2720E+06     26.4156E+06    -8.25983E+06    -67.4466E+06    -7.59427E+06     25.7501E+06    -67.4466E+06    -199.812E+03
             567     40.2274E-03     12.7896E-03     38.1401E-03     33.2364E-03    -16.3068E-03    -16.9399E-03    -15.9849E-03     32.2814E-03    -16.3068E-03     13.5963E-03     59.3741E-03     44.1540E+06    -648.308E+03    -19.3555E+06    -48.5553E+06    -5.03612E+06    -19.2958E+06    -44.2273E+06     2.25623E+06
             568     39.9143E-03     11.8051E-03     38.1286E-03     33.2192E-03    -16.4448E-03    -16.8155E-03    -16.1351E-03     32.5389E-03    -16.4448E-03     11.5829E-03     53.5577E-03     50.3899E+06    -2.25987E+06    -30.2929E+06    -59.0125E+06    -2.43138E+06    -58.8410E+06    -30.2929E+06     1.54020E+06
             569     39.6231E-03     10.8209E-03     38.1169E-03     33.4332E-03    -16.5194E-03    -16.9606E-03    -16.3431E-03     32.8157E-03    -16.5194E-03     11.0819E-03     49.8066E-03     76.2190E+06    -273.447E+03    -23.9782E+06    -85.1360E+06    -284.163E+03    -85.1253E+06    -23.9782E+06    -521.562E+03
             570     39.3554E-03     9.83691E-03     38.1062E-03     33.5455E-03    -16.5953E-03    -16.9769E-03    -16.4515E-03     33.0202E-03    -16.5953E-03     10.2311E-03     46.0708E-03     96.2902E+06     1.28009E+06    -14.1961E+06    -101.658E+06     1.27163E+06    -101.650E+06    -14.1961E+06    -269.711E+03
             571     39.1116E-03     8.85305E-03     38.0965E-03     33.5920E-03    -16.6815E-03    -16.9133E-03    -16.4953E-03     33.1740E-03    -16.6815E-03     9.13581E-03     43.1485E-03     119.181E+06     3.22086E+06    -4.96597E+06    -119.772E+06     2.71169E+06    -119.741E+06    -4.48768E+06     755.021E+03
             572     38.8921E-03     7.86910E-03     38.0877E-03     33.6506E-03    -16.7486E-03    -16.9037E-03    -16.5603E-03     33.3072E-03    -16.7486E-03     8.29715E-03     40.8875E-03     136.461E+06     5.40981E+06     1.50444E+06    -132.945E+06     4.43996E+06    -132.909E+06     2.43862E+06     968.777E+03
             573     38.6971E-03     6.88527E-03     38.0797E-03     33.6643E-03    -16.7907E-03    -16.8775E-03    -16.5883E-03     33.3849E-03    -16.8005E-03     7.47885E-03     38.9721E-03     149.918E+06     6.28913E+06     3.80500E+06    -144.850E+06     4.80517E+06    -144.841E+06     5.28042E+06     396.204E+03
             574     38.5272E-03     5.90148E-03     38.0726E-03     33.7420E-03    -16.8434E-03    -16.9041E-03    -16.6711E-03     33.5188E-03    -16.8531E-03     6.70168E-03     37.5118E-03     161.606E+06     6.69739E+06     4.12929E+06    -156.174E+06     4.12542E+06    -156.170E+06     6.69739E+06     511.383E+03
             575     38.3822E-03     4.91766E-03     38.0659E-03     33.8434E-03    -16.8737E-03    -16.9740E-03    -16.7953E-03     33.6687E-03    -16.8777E-03     5.92812E-03     36.4097E-03     167.517E+06     5.92823E+06     3.08830E+06    -162.990E+06     3.74620E+06    -162.981E+06     5.26174E+06     904.459E+03
             576     38.2630E-03     3.93418E-03     38.0602E-03     33.8680E-03    -16.8986E-03    -16.9718E-03    -16.8447E-03     33.7449E-03    -16.9026E-03     4.96991E-03     35.4916E-03     176.727E+06     4.68777E+06     2.80687E+06    -172.970E+06     4.05636E+06    -172.963E+06     3.43174E+06     645.367E+03
             577     38.1702E-03     2.95044E-03     38.0560E-03     33.8889E-03    -16.9372E-03    -16.9511E-03    -16.8730E-03     33.8108E-03    -16.9372E-03     3.94410E-03     34.8210E-03     184.560E+06     3.98821E+06     2.90060E+06    -181.113E+06     3.73013E+06    -181.108E+06     3.15372E+06     200.092E+03
             578     38.1031E-03     1.96711E-03     38.0523E-03     33.9363E-03    -16.9466E-03    -16.9877E-03    -16.9495E-03     33.8981E-03    -16.9466E-03     2.68940E-03     34.4459E-03     186.225E+06     4.16610E+06     2.18819E+06    -183.038E+06     2.42723E+06    -183.032E+06     3.92116E+06    -260.543E+03
             579     38.0633E-03     983.331E-06     38.0506E-03     33.8686E-03    -16.8604E-03    -17.0082E-03    -16.9473E-03     33.8561E-03    -16.9089E-03     1.52907E-03     34.2780E-03     187.034E+06     3.03815E+06     1.00766E+06    -185.001E+06     1.55523E+06    -184.998E+06     2.48751E+06    -184.968E+03
             580     41.2578E-03     16.7250E-03     37.7158E-03     228.935E-03    -16.8415E-03    -212.112E-03    -45.6947E-03     62.5184E-03    -16.8415E-03     427.461E-03     625.351E-03     195.669E+06     215.534E+06     107.981E+06    -7.79617E+06    -7.77268E+06     215.510E+06     107.981E+06    -944.616E+03
             581     40.4357E-03     15.7439E-03     37.2448E-03     148.329E-03    -16.4341E-03    -131.896E-03    -34.4693E-03     50.9017E-03    -16.4341E-03     265.741E-03     336.330E-03     170.548E+06     167.460E+06     28.3473E+06    -20.2108E+06    -11.8512E+06     167.323E+06     20.1247E+06    -632.677E+03
             582     39.9739E-03     14.7578E-03     37.1500E-03     48.4535E-03    -16.1437E-03    -32.3073E-03    -16.5934E-03     32.7395E-03    -16.1437E-03     60.2506E-03     109.530E-03     133.413E+06     91.7333E+06    -12.3284E+06    -54.0092E+06    -12.1086E+06     91.5135E+06    -54.0092E+06    -224.657E+03
             583     39.5959E-03     13.7736E-03     37.1231E-03     34.5611E-03    -16.1551E-03    -18.4001E-03    -16.0087E-03     32.1698E-03    -16.1551E-03     21.4105E-03     74.4149E-03     83.5772E+06     24.9220E+06    -10.1815E+06    -69.1302E+06    -8.60509E+06     23.3456E+06    -69.1302E+06     535.955E+03
             584     39.2493E-03     12.7890E-03     37.1073E-03     33.4069E-03    -16.3340E-03    -17.0866E-03    -16.0844E-03     32.4046E-03    -16.3340E-03     13.9436E-03     59.2171E-03     44.9997E+06    -746.544E+03    -19.9031E+06    -49.2357E+06    -3.81893E+06    -20.6728E+06    -45.3936E+06     1.73466E+06
             585     38.9285E-03     11.8048E-03     37.0955E-03     33.3810E-03    -16.4709E-03    -16.9499E-03    -16.2615E-03     32.6926E-03    -16.4709E-03     11.6854E-03     53.5759E-03     49.8178E+06    -399.526E+03    -29.1932E+06    -56.3795E+06    -583.556E+03    -56.1955E+06    -29.1932E+06     1.74333E+06
             586     38.6303E-03     10.8206E-03     37.0839E-03     33.4966E-03    -16.5426E-03    -16.9966E-03    -16.3739E-03     32.8739E-03    -16.5426E-03     11.1393E-03     49.7508E-03     76.1490E+06     740.565E+03    -23.2366E+06    -84.1067E+06     698.429E+03    -84.0646E+06    -23.2366E+06     555.228E+03
             587     38.3557E-03     9.83654E-03     37.0729E-03     33.5771E-03    -16.6219E-03    -16.9773E-03    -16.4540E-03     33.0538E-03    -16.6219E-03     10.2090E-03     46.0559E-03     97.4216E+06     1.46224E+06    -13.8210E+06    -102.528E+06     1.45796E+06    -102.524E+06    -13.8210E+06     147.170E+03
             588     38.1058E-03     8.85264E-03     37.0633E-03     33.6447E-03    -16.6980E-03    -16.9493E-03    -16.5281E-03     33.2235E-03    -16.6980E-03     9.18358E-03     43.1616E-03     118.414E+06     2.85859E+06    -5.83454E+06    -119.635E+06     2.85257E+06    -119.629E+06    -5.83454E+06    -173.335E+03
             589     37.8808E-03     7.86888E-03     37.0545E-03     33.6942E-03    -16.7657E-03    -16.9323E-03    -16.5812E-03     33.3432E-03    -16.7657E-03     8.39167E-03     40.9169E-03     135.920E+06     4.49928E+06     249.589E+03    -133.474E+06     4.03168E+06    -133.463E+06     705.485E+03    -42.6890E+03
             590     37.6808E-03     6.88509E-03     37.0465E-03     33.7809E-03    -16.8227E-03    -16.9616E-03    -16.6757E-03     33.4950E-03    -16.8227E-03     7.58403E-03     39.1162E-03     149.831E+06     5.97810E+06     4.31533E+06    -144.676E+06     4.73852E+06    -144.652E+06     5.53122E+06     957.855E+03
             591     37.5065E-03     5.90135E-03     37.0393E-03     33.8433E-03    -16.8556E-03    -16.9906E-03    -16.7602E-03     33.6130E-03    -16.8556E-03     6.81743E-03     37.6376E-03     160.829E+06     5.82185E+06     4.01026E+06    -155.900E+06     4.11692E+06    -155.882E+06     5.69733E+06     945.887E+03
             592     37.3575E-03     4.91792E-03     37.0324E-03     33.8013E-03    -16.8681E-03    -16.9367E-03    -16.7469E-03     33.6232E-03    -16.8798E-03     5.98162E-03     36.3774E-03     166.801E+06     5.08886E+06     3.03619E+06    -162.726E+06     3.82263E+06    -162.721E+06     4.29785E+06     455.650E+03
             593     37.2355E-03     3.93400E-03     37.0271E-03     33.8767E-03    -16.9111E-03    -16.9677E-03    -16.8338E-03     33.7545E-03    -16.9227E-03     4.94050E-03     35.5093E-03     176.772E+06     4.68204E+06     2.96275E+06    -172.942E+06     3.74150E+06    -172.939E+06     3.90006E+06     600.152E+03
             594     37.1397E-03     2.95056E-03     37.0223E-03     33.9716E-03    -16.9538E-03    -17.0150E-03    -16.9426E-03     33.8992E-03    -16.9538E-03     3.79700E-03     34.9033E-03     185.035E+06     4.70325E+06     3.58298E+06    -180.888E+06     3.69355E+06    -180.883E+06     4.58774E+06     936.015E+03
             595     37.0712E-03     1.96686E-03     37.0190E-03     33.9462E-03    -16.9442E-03    -16.9988E-03    -16.9631E-03     33.9105E-03    -16.9442E-03     2.61802E-03     34.4303E-03     186.262E+06     4.96893E+06     2.97303E+06    -182.280E+06     2.96753E+06    -182.274E+06     4.96893E+06     82.9562E+03
             596     37.0297E-03     983.824E-06     37.0166E-03     33.8432E-03    -16.8105E-03    -17.0318E-03    -17.0208E-03     33.8321E-03    -16.8105E-03     1.30584E-03     34.2095E-03     187.296E+06     2.88186E+06     370.008E+03    -185.657E+06     708.816E+03    -185.649E+06     2.53564E+06    -70.3183E+03
             597     40.3065E-03     16.7239E-03     36.6733E-03     229.820E-03    -16.9437E-03    -212.891E-03    -45.1761E-03     62.1051E-03    -16.9437E-03     429.365E-03     626.943E-03     195.113E+06     216.480E+06     110.573E+06    -6.31064E+06    -6.27384E+06     216.443E+06     110.573E+06     208.600E+03
             598     39.4852E-03     15.7405E-03     36.2122E-03     146.289E-03    -16.5316E-03    -129.761E-03    -34.3121E-03     50.8398E-03    -16.5316E-03     261.366E-03     335.946E-03     171.112E+06     167.260E+06     27.8796E+06    -20.6411E+06    -13.2828E+06     167.114E+06     20.6677E+06    -23.3515E+03
             599     39.0144E-03     14.7567E-03     36.1160E-03     48.5377E-03    -16.2024E-03    -32.3341E-03    -16.9269E-03     33.1305E-03    -16.2024E-03     59.6109E-03     109.414E-03     134.750E+06     91.1591E+06    -13.9045E+06    -55.4898E+06    -13.7118E+06     90.9663E+06    -55.4898E+06    -369.684E+03
             600     38.6286E-03     13.7726E-03     36.0899E-03     34.6835E-03    -16.1971E-03    -18.4846E-03    -16.2574E-03     32.4563E-03    -16.1971E-03     20.7664E-03     74.7645E-03     83.7824E+06     23.9430E+06    -10.9742E+06    -70.4284E+06    -9.36332E+06     22.3321E+06    -70.4284E+06     100.887E+03
             601     38.2739E-03     12.7884E-03     36.0743E-03     33.5743E-03    -16.3683E-03    -17.2256E-03    -16.2532E-03     32.6019E-03    -16.3683E-03     13.7985E-03     59.3067E-03     43.9467E+06    -2.22613E+06    -20.6914E+06    -49.7836E+06    -5.47285E+06    -21.4561E+06    -45.7723E+06     892.364E+03
             602     37.9448E-03     11.8044E-03     36.0619E-03     33.4910E-03    -16.5022E-03    -17.0309E-03    -16.3691E-03     32.8291E-03    -16.5022E-03     11.4749E-03     53.6984E-03     47.9117E+06    -1.85621E+06    -28.1217E+06    -55.6681E+06    -1.93532E+06    -55.5890E+06    -28.1217E+06     1.17732E+06
             603     37.6399E-03     10.8205E-03     36.0510E-03     33.5647E-03    -16.5672E-03    -17.0405E-03    -16.4324E-03     32.9566E-03    -16.5672E-03     11.0265E-03     49.8445E-03     76.0258E+06     1.73725E+06    -21.7080E+06    -83.0249E+06     1.69573E+06    -82.9833E+06    -21.7080E+06     816.217E+03
             604     37.3579E-03     9.83653E-03     36.0396E-03     33.6311E-03    -16.6411E-03    -17.0142E-03    -16.4909E-03     33.1078E-03    -16.6411E-03     10.2037E-03     46.1477E-03     99.6888E+06     3.96533E+06    -12.5769E+06    -102.729E+06     3.95532E+06    -102.719E+06    -12.5769E+06     583.895E+03
             605     37.1018E-03     8.85261E-03     36.0302E-03     33.6457E-03    -16.7150E-03    -16.9376E-03    -16.5320E-03     33.2400E-03    -16.7150E-03     9.01777E-03     43.1780E-03     118.674E+06     3.89277E+06    -5.38348E+06    -119.121E+06     3.88361E+06    -119.112E+06    -5.38348E+06     404.613E+03
             606     36.8705E-03     7.86864E-03     36.0211E-03     33.7131E-03    -16.7791E-03    -16.9378E-03    -16.5933E-03     33.3685E-03    -16.7791E-03     8.31586E-03     40.9279E-03     135.265E+06     3.48906E+06    -631.573E+03    -133.751E+06     3.45351E+06    -133.746E+06    -600.490E+03     120.002E+03
             607     36.6655E-03     6.88483E-03     36.0133E-03     33.8388E-03    -16.8362E-03    -17.0024E-03    -16.7166E-03     33.5530E-03    -16.8362E-03     7.59414E-03     39.1659E-03     149.178E+06     4.47601E+06     2.72716E+06    -145.567E+06     3.15461E+06    -145.547E+06     4.02912E+06     662.193E+03
             608     36.4859E-03     5.90143E-03     36.0055E-03     33.8654E-03    -16.8720E-03    -16.9938E-03    -16.7623E-03     33.6339E-03    -16.8720E-03     6.83337E-03     37.6742E-03     159.864E+06     5.83882E+06     3.76136E+06    -155.052E+06     3.86577E+06    -155.032E+06     5.71430E+06     939.319E+03
             609     36.3338E-03     4.91754E-03     35.9995E-03     33.8692E-03    -16.8918E-03    -16.9799E-03    -16.7907E-03     33.6877E-03    -16.8994E-03     6.05448E-03     36.4764E-03     167.191E+06     5.32520E+06     3.94369E+06    -162.550E+06     4.06201E+06    -162.544E+06     5.20068E+06     596.929E+03
             610     36.2077E-03     3.93406E-03     35.9933E-03     33.9642E-03    -16.9246E-03    -17.0400E-03    -16.9044E-03     33.8362E-03    -16.9322E-03     5.05948E-03     35.6187E-03     176.836E+06     4.78615E+06     2.92140E+06    -172.974E+06     2.91493E+06    -172.968E+06     4.78615E+06     860.092E+03
             611     36.1096E-03     2.95062E-03     35.9889E-03     33.9918E-03    -16.9346E-03    -17.0515E-03    -16.9779E-03     33.9181E-03    -16.9346E-03     3.82855E-03     34.9241E-03     182.944E+06     3.84287E+06     2.09461E+06    -179.967E+06     2.08738E+06    -179.960E+06     3.84287E+06     702.753E+03
             612     36.0391E-03     1.96730E-03     35.9854E-03     33.8872E-03    -16.9060E-03    -16.9781E-03    -16.9426E-03     33.8516E-03    -16.9060E-03     2.60735E-03     34.3553E-03     184.590E+06     3.38109E+06     1.95695E+06    -181.914E+06     1.94948E+06    -181.906E+06     3.38109E+06     461.625E+03
             613     35.9968E-03     983.329E-06     35.9833E-03     33.7704E-03    -16.7945E-03    -16.9764E-03    -16.9185E-03     33.7599E-03    -16.8420E-03     1.25016E-03     34.1272E-03     187.095E+06     1.85208E+06     66.8566E+03    -186.126E+06     56.1118E+03    -186.115E+06     1.85208E+06     674.953E+03
             614     39.3628E-03     16.7229E-03     35.6340E-03     229.924E-03    -16.9144E-03    -213.020E-03    -45.0522E-03     61.9563E-03    -16.9144E-03     429.740E-03     625.846E-03     196.009E+06     216.616E+06     113.289E+06    -6.91682E+06    -6.85497E+06     216.554E+06     113.289E+06     568.042E+03
             615     38.5398E-03     15.7418E-03     35.1783E-03     144.311E-03    -16.5205E-03    -127.792E-03    -33.0474E-03     49.5668E-03    -16.5205E-03     257.864E-03     334.339E-03     171.150E+06     167.657E+06     29.8566E+06    -20.8608E+06    -12.6846E+06     167.468E+06     21.8688E+06    -168.337E+03
             616     38.0597E-03     14.7569E-03     35.0823E-03     48.0552E-03    -16.2094E-03    -31.8429E-03    -16.8800E-03     33.0923E-03    -16.2094E-03     58.4289E-03     109.214E-03     134.572E+06     91.4618E+06    -13.5047E+06    -55.3927E+06    -13.3273E+06     91.2844E+06    -55.3927E+06     418.830E+03
             617     37.6649E-03     13.7725E-03     35.0565E-03     34.4958E-03    -16.1981E-03    -18.2984E-03    -16.2155E-03     32.4130E-03    -16.1981E-03     20.0113E-03     74.8808E-03     85.2665E+06     22.9705E+06    -11.7896E+06    -72.3936E+06    -11.1174E+06     22.2983E+06    -72.3936E+06    -234.111E+03
             618     37.3015E-03     12.7885E-03     35.0408E-03     33.5620E-03    -16.3589E-03    -17.2298E-03    -16.3188E-03     32.6511E-03    -16.3589E-03     13.3826E-03     59.3758E-03     46.5242E+06    -2.79462E+06    -22.1630E+06    -51.9834E+06    -5.72523E+06    -22.0971E+06    -49.1186E+06    -734.601E+03
             619     36.9642E-03     11.8044E-03     35.0287E-03     33.4266E-03    -16.4953E-03    -16.9767E-03    -16.3458E-03     32.7957E-03    -16.4953E-03     11.1951E-03     53.6205E-03     49.9862E+06    -730.906E+03    -30.4415E+06    -56.4937E+06    -848.549E+03    -56.1242E+06    -30.6934E+06    -56.6838E+03
             620     36.6513E-03     10.8203E-03     35.0177E-03     33.5652E-03    -16.5681E-03    -17.0374E-03    -16.4462E-03     32.9739E-03    -16.5681E-03     10.8732E-03     49.8857E-03     75.2564E+06     1.33236E+06    -23.6556E+06    -82.9964E+06     1.30685E+06    -82.9709E+06    -23.6556E+06     826.033E+03
             621     36.3622E-03     9.83627E-03     35.0065E-03     33.6498E-03    -16.6455E-03    -17.0274E-03    -16.5086E-03     33.1310E-03    -16.6455E-03     10.1618E-03     46.1998E-03     98.2029E+06     2.36988E+06    -14.0774E+06    -102.751E+06     2.34626E+06    -102.727E+06    -14.0774E+06     1.25138E+06
             622     36.0990E-03     8.85251E-03     34.9967E-03     33.6663E-03    -16.7239E-03    -16.9508E-03    -16.5516E-03     33.2670E-03    -16.7239E-03     8.94931E-03     43.2271E-03     118.141E+06     3.65885E+06    -5.13514E+06    -118.611E+06     3.64113E+06    -118.594E+06    -5.13514E+06     1.16586E+06
             623     35.8621E-03     7.86864E-03     34.9882E-03     33.7520E-03    -16.7904E-03    -16.9652E-03    -16.6233E-03     33.4100E-03    -16.7904E-03     8.29248E-03     41.0228E-03     136.068E+06     4.45694E+06     595.489E+03    -133.461E+06     4.12240E+06    -133.449E+06     917.911E+03     1.00802E+06
             624     35.6506E-03     6.88505E-03     34.9795E-03     33.8004E-03    -16.8489E-03    -16.9502E-03    -16.6630E-03     33.5132E-03    -16.8489E-03     7.60523E-03     39.1617E-03     150.170E+06     5.12071E+06     3.83614E+06    -145.686E+06     3.82833E+06    -145.678E+06     5.12071E+06     641.581E+03
             625     35.4670E-03     5.90106E-03     34.9726E-03     33.8698E-03    -16.8896E-03    -16.9823E-03    -16.7512E-03     33.6387E-03    -16.8896E-03     6.82492E-03     37.6864E-03     159.390E+06     5.84451E+06     3.13643E+06    -154.880E+06     3.12441E+06    -154.868E+06     5.84451E+06     369.680E+03
             626     35.3097E-03     4.91759E-03     34.9656E-03     33.9494E-03    -16.9134E-03    -17.0409E-03    -16.8625E-03     33.7710E-03    -16.9134E-03     6.00977E-03     36.5634E-03     166.670E+06     5.20849E+06     2.66897E+06    -162.714E+06     2.65395E+06    -162.699E+06     5.20849E+06     717.442E+03
             627     35.1807E-03     3.93412E-03     34.9600E-03     33.9838E-03    -16.9294E-03    -17.0550E-03    -16.9273E-03     33.8560E-03    -16.9294E-03     5.06822E-03     35.6370E-03     176.185E+06     4.33602E+06     2.83758E+06    -172.591E+06     2.84238E+06    -172.578E+06     4.31828E+06     918.440E+03
             628     35.0795E-03     2.95050E-03     34.9552E-03     33.9802E-03    -16.9313E-03    -17.0452E-03    -16.9691E-03     33.9041E-03    -16.9313E-03     3.88857E-03     34.9135E-03     182.316E+06     3.92658E+06     2.63635E+06    -179.029E+06     2.92409E+06    -179.023E+06     3.63297E+06     251.574E+03
             629     35.0072E-03     1.96703E-03     34.9519E-03     33.8915E-03    -16.9114E-03    -16.9796E-03    -16.9384E-03     33.8562E-03    -16.9173E-03     2.58782E-03     34.3641E-03     185.289E+06     4.51330E+06     2.09534E+06    -181.959E+06     2.36490E+06    -181.953E+06     4.23743E+06     285.305E+03
             630     34.9639E-03     983.853E-06     34.9501E-03     33.8036E-03    -16.8665E-03    -16.9380E-03    -16.8742E-03     33.7931E-03    -16.9198E-03     1.34304E-03     34.1778E-03     188.183E+06     4.57612E+06     2.01619E+06    -184.861E+06     2.48903E+06    -184.854E+06     4.09650E+06     374.065E+03
             631     38.4390E-03     16.7319E-03     34.6064E-03     230.981E-03    -16.8396E-03    -214.149E-03    -45.7107E-03     62.5421E-03    -16.8396E-03     431.728E-03     626.309E-03     196.222E+06     215.785E+06     113.805E+06    -8.15426E+06    -7.99824E+06     215.629E+06     113.805E+06     167.180E+03
             632     37.5983E-03     15.7419E-03     34.1441E-03     144.453E-03    -16.4621E-03    -127.991E-03    -32.6373E-03     49.0991E-03    -16.4621E-03     258.491E-03     333.333E-03     171.895E+06     169.463E+06     30.8383E+06    -18.8162E+06    -12.9006E+06     169.243E+06     25.1426E+06     1.39444E+06
             633     37.1100E-03     14.7574E-03     34.0495E-03     47.4989E-03    -16.1765E-03    -31.3192E-03    -16.5203E-03     32.6999E-03    -16.1765E-03     57.7567E-03     108.748E-03     134.760E+06     92.6298E+06    -13.0431E+06    -53.0337E+06    -12.9289E+06     92.5156E+06    -53.0337E+06    -15.7842E+03
             634     36.7050E-03     13.7729E-03     34.0231E-03     34.2720E-03    -16.1778E-03    -18.0913E-03    -16.0077E-03     32.1884E-03    -16.1778E-03     19.8850E-03     74.6392E-03     84.4383E+06     23.1720E+06    -7.81006E+06    -70.2827E+06    -7.23172E+06     22.5936E+06    -70.2827E+06    -790.688E+03
             635     36.3326E-03     12.7886E-03     34.0075E-03     33.4151E-03    -16.3438E-03    -17.0924E-03    -16.2182E-03     32.5409E-03    -16.3438E-03     13.0563E-03     59.2933E-03     46.8974E+06    -2.95717E+06    -20.5643E+06    -51.7280E+06    -3.96720E+06    -22.2883E+06    -48.9940E+06    -723.724E+03
             636     35.9867E-03     11.8044E-03     33.9955E-03     33.3114E-03    -16.4924E-03    -16.8650E-03    -16.2576E-03     32.7039E-03    -16.4924E-03     10.9664E-03     53.5538E-03     49.4463E+06    -3.34980E+06    -31.0149E+06    -58.0467E+06    -3.45324E+06    -57.6914E+06    -31.2668E+06     413.051E+03
             637     35.6655E-03     10.8203E-03     33.9845E-03     33.5135E-03    -16.5754E-03    -16.9829E-03    -16.4069E-03     32.9376E-03    -16.5754E-03     10.7240E-03     49.9328E-03     73.0773E+06    -2.12255E+06    -22.8157E+06    -83.1016E+06    -2.16695E+06    -83.0572E+06    -22.8157E+06     1.32578E+06
             638     35.3684E-03     9.83652E-03     33.9731E-03     33.5997E-03    -16.6509E-03    -16.9737E-03    -16.4754E-03     33.1015E-03    -16.6509E-03     9.95705E-03     46.1825E-03     96.8954E+06     412.332E+03    -13.0422E+06    -102.318E+06     391.657E+03    -102.297E+06    -13.0422E+06     788.308E+03
             639     35.0985E-03     8.85235E-03     33.9638E-03     33.6378E-03    -16.7218E-03    -16.9241E-03    -16.5275E-03     33.2412E-03    -16.7218E-03     8.91782E-03     43.2032E-03     117.191E+06     2.35823E+06    -5.53945E+06    -118.566E+06     2.34456E+06    -118.553E+06    -5.53945E+06     878.696E+03
             640     34.8543E-03     7.86879E-03     33.9544E-03     33.7386E-03    -16.7905E-03    -16.9538E-03    -16.6115E-03     33.3963E-03    -16.7905E-03     8.29210E-03     41.0222E-03     135.362E+06     4.36534E+06     134.315E+03    -133.026E+06     3.69982E+06    -133.013E+06     787.492E+03     873.705E+03
             641     34.6378E-03     6.88473E-03     33.9467E-03     33.7964E-03    -16.8545E-03    -16.9414E-03    -16.6551E-03     33.5101E-03    -16.8545E-03     7.59470E-03     39.1729E-03     150.369E+06     6.28600E+06     4.16361E+06    -145.128E+06     4.15627E+06    -145.121E+06     6.28600E+06     798.408E+03
             642     34.4479E-03     5.90118E-03     33.9387E-03     33.8939E-03    -16.8944E-03    -16.9990E-03    -16.7659E-03     33.6609E-03    -16.8944E-03     6.85545E-03     37.7216E-03     160.199E+06     7.06087E+06     3.89084E+06    -154.695E+06     3.88294E+06    -154.687E+06     7.06087E+06     310.051E+03
             643     34.2869E-03     4.91767E-03     33.9324E-03     33.9727E-03    -16.9151E-03    -17.0588E-03    -16.8790E-03     33.7928E-03    -16.9151E-03     6.03676E-03     36.5847E-03     167.871E+06     5.73037E+06     3.42540E+06    -163.276E+06     3.41267E+06    -163.263E+06     5.73037E+06     278.989E+03
             644     34.1536E-03     3.93400E-03     33.9263E-03     33.9934E-03    -16.9245E-03    -17.0686E-03    -16.9419E-03     33.8668E-03    -16.9245E-03     5.03951E-03     35.6368E-03     176.089E+06     4.47483E+06     3.54759E+06    -172.074E+06     3.55465E+06    -172.064E+06     4.45710E+06     462.829E+03
             645     34.0499E-03     2.95065E-03     33.9218E-03     33.9280E-03    -16.9120E-03    -17.0142E-03    -16.9170E-03     33.8550E-03    -16.9361E-03     3.80445E-03     34.8516E-03     182.546E+06     4.32290E+06     3.65005E+06    -178.558E+06     4.01566E+06    -178.556E+06     3.95540E+06     148.533E+03
             646     33.9754E-03     1.96708E-03     33.9184E-03     33.8965E-03    -16.9213E-03    -16.9760E-03    -16.9114E-03     33.8619E-03    -16.9514E-03     2.57347E-03     34.3762E-03     186.014E+06     5.31774E+06     2.94355E+06    -181.858E+06     3.29267E+06    -181.857E+06     4.96797E+06    -150.409E+03
             647     33.9310E-03     983.226E-06     33.9167E-03     33.8940E-03    -16.8817E-03    -17.0138E-03    -16.9973E-03     33.8835E-03    -16.8876E-03     1.31276E-03     34.3153E-03     188.103E+06     5.20817E+06     1.60615E+06    -184.660E+06     2.07659E+06    -184.651E+06     4.72855E+06    -620.155E+03
             648     37.5028E-03     16.7229E-03     33.5679E-03     229.910E-03    -16.7823E-03    -213.147E-03    -45.8750E-03     62.6387E-03    -16.7823E-03     429.532E-03     624.608E-03     196.961E+06     215.449E+06     111.819E+06    -9.90290E+06    -9.64644E+06     215.193E+06     111.819E+06     212.515E+03
             649     36.6635E-03     15.7442E-03     33.1110E-03     143.967E-03    -16.4008E-03    -127.568E-03    -32.1808E-03     48.5792E-03    -16.4008E-03     258.004E-03     332.584E-03     173.819E+06     170.004E+06     32.8571E+06    -21.5189E+06    -13.5246E+06     169.800E+06     25.0663E+06    -994.878E+03
             650     36.1654E-03     14.7587E-03     33.0169E-03     47.5433E-03    -16.1283E-03    -31.4128E-03    -16.2048E-03     32.3354E-03    -16.1283E-03     58.4480E-03     108.777E-03     134.543E+06     93.1061E+06    -10.2663E+06    -53.1996E+06    -10.2306E+06     93.0705E+06    -53.1996E+06    -814.299E+03
             651     35.7499E-03     13.7734E-03     32.9901E-03     34.2906E-03    -16.1553E-03    -18.1298E-03    -15.9514E-03     32.1121E-03    -16.1553E-03     20.2648E-03     74.6295E-03     82.4454E+06     22.1704E+06    -8.34304E+06    -69.3587E+06    -8.32198E+06     22.1494E+06    -69.3587E+06    -101.558E+03
             652     35.3673E-03     12.7891E-03     32.9741E-03     33.2405E-03    -16.3494E-03    -16.9053E-03    -16.0433E-03     32.3786E-03    -16.3494E-03     12.9106E-03     59.2061E-03     43.0608E+06    -4.73111E+06    -18.7189E+06    -50.6606E+06    -6.35812E+06    -23.1604E+06    -44.5920E+06     1.18849E+06
             653     35.0128E-03     11.8047E-03     32.9628E-03     33.2470E-03    -16.4917E-03    -16.7986E-03    -16.1892E-03     32.6376E-03    -16.4917E-03     10.9738E-03     53.5761E-03     47.5081E+06    -3.95868E+06    -28.1350E+06    -57.7013E+06    -4.14343E+06    -57.5165E+06    -28.1350E+06     1.18253E+06
             654     34.6822E-03     10.8206E-03     32.9510E-03     33.4691E-03    -16.5630E-03    -16.9534E-03    -16.3703E-03     32.8860E-03    -16.5630E-03     10.7810E-03     49.8935E-03     74.0624E+06    -955.581E+03    -21.7402E+06    -82.9205E+06    -1.01144E+06    -82.8646E+06    -21.7402E+06     16.9442E+03
             655     34.3775E-03     9.83643E-03     32.9402E-03     33.5550E-03    -16.6433E-03    -16.9393E-03    -16.4418E-03     33.0575E-03    -16.6433E-03     9.94445E-03     46.1436E-03     97.5547E+06     1.10785E+06    -11.9780E+06    -102.150E+06     1.09642E+06    -102.139E+06    -11.9780E+06     487.010E+03
             656     34.0995E-03     8.85275E-03     32.9303E-03     33.5857E-03    -16.7123E-03    -16.8830E-03    -16.4835E-03     33.1862E-03    -16.7123E-03     8.94168E-03     43.1395E-03     116.941E+06     2.45411E+06    -5.60167E+06    -118.301E+06     2.44957E+06    -118.297E+06    -5.60167E+06     234.513E+03
             657     33.8488E-03     7.86853E-03     32.9215E-03     33.7015E-03    -16.7836E-03    -16.9249E-03    -16.5832E-03     33.3598E-03    -16.7836E-03     8.27776E-03     40.9559E-03     135.499E+06     4.46406E+06    -493.212E+03    -133.408E+06     3.56628E+06    -133.404E+06     401.197E+03     322.097E+03
             658     33.6255E-03     6.88506E-03     32.9131E-03     33.8258E-03    -16.8472E-03    -16.9779E-03    -16.6928E-03     33.5408E-03    -16.8472E-03     7.58390E-03     39.1816E-03     149.897E+06     6.48737E+06     4.12411E+06    -144.573E+06     4.12029E+06    -144.569E+06     6.48737E+06     556.454E+03
             659     33.4306E-03     5.90128E-03     32.9056E-03     33.8686E-03    -16.8820E-03    -16.9832E-03    -16.7474E-03     33.6328E-03    -16.8820E-03     6.89679E-03     37.6670E-03     159.739E+06     6.80981E+06     3.95631E+06    -154.334E+06     3.95420E+06    -154.332E+06     6.80981E+06     305.919E+03
             660     33.2641E-03     4.91748E-03     32.8986E-03     33.9410E-03    -16.9077E-03    -17.0319E-03    -16.8481E-03     33.7572E-03    -16.9077E-03     6.09791E-03     36.5465E-03     167.900E+06     5.61025E+06     3.88723E+06    -163.142E+06     3.88460E+06    -163.139E+06     5.61025E+06    -82.8101E+03
             661     33.1273E-03     3.93426E-03     32.8929E-03     33.9659E-03    -16.9248E-03    -17.0403E-03    -16.9130E-03     33.8385E-03    -16.9249E-03     5.04684E-03     35.6112E-03     176.209E+06     4.56004E+06     3.82686E+06    -172.014E+06     3.82417E+06    -172.012E+06     4.56004E+06    -111.010E+03
             662     33.0204E-03     2.95059E-03     32.8883E-03     33.9115E-03    -16.9223E-03    -16.9884E-03    -16.8901E-03     33.8374E-03    -16.9465E-03     3.84290E-03     34.8347E-03     182.264E+06     4.23224E+06     3.49555E+06    -178.399E+06     3.56698E+06    -178.397E+06     4.15834E+06     291.092E+03
             663     32.9440E-03     1.96685E-03     32.8852E-03     33.9072E-03    -16.9070E-03    -17.0003E-03    -16.8948E-03     33.8698E-03    -16.9752E-03     2.68016E-03     34.3969E-03     185.031E+06     4.41714E+06     3.24960E+06    -181.194E+06     3.32247E+06    -181.193E+06     4.34325E+06     100.217E+03
             664     32.8974E-03     983.810E-06     32.8827E-03     33.9696E-03    -16.8922E-03    -17.0777E-03    -16.9919E-03     33.9564E-03    -16.9648E-03     1.50732E-03     34.3753E-03     187.366E+06     3.15655E+06    -228.941E+03    -185.872E+06     1.22374E+06    -185.863E+06     1.69471E+06    -442.876E+03
             665     36.5908E-03     16.7362E-03     32.5390E-03     228.829E-03    -16.7278E-03    -212.128E-03    -45.7347E-03     62.4364E-03    -16.7278E-03     427.479E-03     622.499E-03     196.738E+06     215.898E+06     111.871E+06    -8.65988E+06    -8.40123E+06     215.639E+06     111.871E+06    -856.201E+03
             666     35.7353E-03     15.7441E-03     32.0801E-03     144.434E-03    -16.3694E-03    -128.067E-03    -31.3209E-03     47.6879E-03    -16.3694E-03     259.614E-03     333.004E-03     171.277E+06     169.480E+06     31.8377E+06    -18.6962E+06    -11.5849E+06     169.315E+06     24.8919E+06     435.272E+03
             667     35.2242E-03     14.7573E-03     31.9839E-03     48.3429E-03    -16.1214E-03    -32.2201E-03    -16.3570E-03     32.4799E-03    -16.1214E-03     59.9510E-03     109.486E-03     136.391E+06     92.7834E+06    -13.4646E+06    -55.7299E+06    -13.8217E+06     92.7606E+06      -55.35E+06     1.31960E+06
             668     34.7986E-03     13.7739E-03     31.9566E-03     34.4157E-03    -16.1352E-03    -18.2767E-03    -16.1042E-03     32.2432E-03    -16.1352E-03     20.3366E-03     74.5773E-03     84.3852E+06     22.5784E+06    -12.1275E+06    -71.8596E+06    -11.8199E+06     22.2708E+06    -71.8596E+06     919.873E+03
             669     34.4070E-03     12.7892E-03     31.9418E-03     33.1833E-03    -16.3090E-03    -16.8888E-03    -15.9948E-03     32.2893E-03    -16.3090E-03     13.1594E-03     58.9801E-03     45.2591E+06    -3.86844E+06    -22.4575E+06    -51.9783E+06    -6.38340E+06    -23.2771E+06    -48.6437E+06     30.2275E+03
             670     34.0416E-03     11.8048E-03     31.9292E-03     33.2230E-03    -16.4554E-03    -16.8077E-03    -16.1694E-03     32.5847E-03    -16.4554E-03     11.2231E-03     53.4632E-03     52.4194E+06     44.1914E+03    -29.1040E+06    -58.6187E+06    -428.582E+03    -56.7522E+06    -30.4977E+06    -446.633E+03
             671     33.7026E-03     10.8206E-03     31.9183E-03     33.4445E-03    -16.5490E-03    -16.9411E-03    -16.3472E-03     32.8506E-03    -16.5490E-03     10.8752E-03     49.8292E-03     76.7544E+06     1.95861E+06    -21.2863E+06    -83.4952E+06     1.88355E+06    -83.4201E+06    -21.2863E+06     634.076E+03
             672     33.3886E-03     9.83675E-03     31.9067E-03     33.5176E-03    -16.6342E-03    -16.9122E-03    -16.4056E-03     33.0110E-03    -16.6342E-03     10.0271E-03     46.0761E-03     98.3384E+06     2.22729E+06    -11.7992E+06    -102.095E+06     2.21722E+06    -102.085E+06    -11.7992E+06     798.629E+03
             673     33.1030E-03     8.85254E-03     31.8974E-03     33.5666E-03    -16.7064E-03    -16.8689E-03    -16.4608E-03     33.1585E-03    -16.7064E-03     9.03337E-03     43.1162E-03     116.588E+06     2.53738E+06    -5.62495E+06    -117.906E+06     2.53021E+06    -117.899E+06    -5.62495E+06     610.805E+03
             674     32.8446E-03     7.86894E-03     31.8881E-03     33.7148E-03    -16.7622E-03    -16.9582E-03    -16.6002E-03     33.3567E-03    -16.7622E-03     8.47869E-03     40.9353E-03     133.443E+06     3.12656E+06    -2.79126E+06    -133.138E+06     2.58723E+06    -133.131E+06    -2.25868E+06     28.2697E+03
             675     32.6148E-03     6.88494E-03     31.8798E-03     33.8223E-03    -16.8234E-03    -16.9989E-03    -16.7072E-03     33.5306E-03    -16.8234E-03     7.66230E-03     39.1509E-03     148.198E+06     4.88453E+06     2.19809E+06    -144.636E+06     3.17144E+06    -144.631E+06     3.90628E+06    -246.867E+03
             676     32.4139E-03     5.90132E-03     31.8722E-03     33.8576E-03    -16.8645E-03    -16.9912E-03    -16.7556E-03     33.6220E-03    -16.8645E-03     6.89857E-03     37.6484E-03     158.904E+06     6.05690E+06     3.36798E+06    -154.173E+06     3.36385E+06    -154.169E+06     6.05690E+06     284.678E+03
             677     32.2425E-03     4.91783E-03     31.8653E-03     33.8517E-03    -16.8720E-03    -16.9794E-03    -16.7694E-03     33.6643E-03    -16.8946E-03     6.14301E-03     36.4414E-03     166.710E+06     4.99034E+06     2.85844E+06    -162.773E+06     2.85522E+06    -162.770E+06     4.99034E+06     138.983E+03
             678     32.1013E-03     3.93396E-03     31.8593E-03     33.8633E-03    -16.9034E-03    -16.9592E-03    -16.8056E-03     33.7356E-03    -16.9292E-03     5.04671E-03     35.4974E-03     175.153E+06     3.51638E+06     2.48868E+06    -172.148E+06     2.48789E+06    -172.148E+06     3.51638E+06    -123.343E+03
             679     31.9914E-03     2.95039E-03     31.8551E-03     33.9265E-03    -16.9464E-03    -16.9784E-03    -16.8815E-03     33.8497E-03    -16.9664E-03     3.91797E-03     34.8527E-03     180.859E+06     2.79044E+06     2.01283E+06    -178.456E+06     2.11113E+06    -178.454E+06     2.68990E+06     17.1679E+03
             680     31.9120E-03     1.96714E-03     31.8513E-03     33.9705E-03    -16.9423E-03    -17.0270E-03    -16.9267E-03     33.9311E-03    -17.0032E-03     2.74489E-03     34.4526E-03     184.357E+06     4.25819E+06     2.32771E+06    -181.053E+06     2.42639E+06    -181.051E+06     4.15765E+06     92.9225E+03
             681     31.8650E-03     982.920E-06     31.8498E-03     34.0249E-03    -16.9443E-03    -17.0803E-03    -16.9944E-03     34.0115E-03    -17.0169E-03     1.53648E-03     34.3942E-03     187.306E+06     4.42335E+06     50.7817E+03    -185.027E+06     1.51143E+06    -185.026E+06     2.96151E+06     365.018E+03
             682     35.6672E-03     16.7256E-03     31.5024E-03     228.803E-03    -16.8031E-03    -212.028E-03    -45.2819E-03     62.0568E-03    -16.8031E-03     427.504E-03     623.430E-03     195.115E+06     215.096E+06     111.403E+06    -7.77040E+06    -7.58538E+06     214.911E+06     111.403E+06     539.218E+03
             683     34.8122E-03     15.7422E-03     31.0495E-03     145.414E-03    -16.4330E-03    -128.981E-03    -32.7287E-03     49.1613E-03    -16.4330E-03     260.534E-03     333.248E-03     171.054E+06     169.207E+06     30.2630E+06    -17.7574E+06    -12.9403E+06     169.114E+06     25.5393E+06     1.19043E+06
             684     34.2880E-03     14.7583E-03     30.9493E-03     48.5147E-03    -16.1368E-03    -32.3749E-03    -16.8166E-03     32.9565E-03    -16.1368E-03     59.8089E-03     109.472E-03     135.799E+06     92.9283E+06    -12.9575E+06    -53.8791E+06    -13.2775E+06     92.8685E+06    -53.4992E+06     1.17771E+06
             685     33.8528E-03     13.7735E-03     30.9241E-03     34.2538E-03    -16.1276E-03    -18.1178E-03    -16.0037E-03     32.1397E-03    -16.1276E-03     20.0321E-03     74.1971E-03     84.9850E+06     24.3436E+06    -8.80371E+06    -70.9223E+06    -7.58231E+06     23.1222E+06    -70.9223E+06     578.400E+03
             686     33.4498E-03     12.7893E-03     30.9083E-03     33.2675E-03    -16.2990E-03    -16.9817E-03    -16.0750E-03     32.3607E-03    -16.2990E-03     13.2879E-03     58.9659E-03     47.5226E+06    -924.968E+03    -20.9835E+06    -51.7653E+06     -3.6395E+06    -21.3565E+06    -48.6778E+06    -985.104E+03
             687     33.0750E-03     11.8049E-03     30.8966E-03     33.2362E-03    -16.4422E-03    -16.8369E-03    -16.1809E-03     32.5801E-03    -16.4422E-03     11.3807E-03     53.3589E-03     52.1539E+06    -2.03895E+06    -31.7626E+06    -60.3972E+06    -2.45566E+06    -58.5868E+06    -33.1563E+06     -521.37E+03
             688     32.7255E-03     10.8208E-03     30.8848E-03     33.4171E-03    -16.5351E-03    -16.9311E-03    -16.3292E-03     32.8153E-03    -16.5351E-03     10.9417E-03     49.7195E-03     75.2448E+06    -292.352E+03    -23.6702E+06    -84.1783E+06    -372.075E+03    -84.0986E+06    -23.6702E+06     1.06811E+06
             689     32.4030E-03     9.83662E-03     30.8739E-03     33.4953E-03    -16.6258E-03    -16.8995E-03    -16.3928E-03     32.9886E-03    -16.6258E-03     10.0226E-03     45.9919E-03     97.6348E+06     1.92991E+06    -12.2812E+06    -101.759E+06     1.90617E+06    -101.736E+06    -12.2812E+06     1.13791E+06
             690     32.1086E-03     8.85273E-03     30.8640E-03     33.5871E-03    -16.7029E-03    -16.8909E-03    -16.4841E-03     33.1803E-03    -16.7029E-03     9.02284E-03     43.1079E-03     117.205E+06     3.29524E+06    -4.57554E+06    -117.623E+06     3.28730E+06    -117.615E+06    -4.57554E+06     829.799E+03
             691     31.8426E-03     7.86860E-03     30.8550E-03     33.7302E-03    -16.7533E-03    -16.9820E-03    -16.6275E-03     33.3757E-03    -16.7533E-03     8.43787E-03     40.9253E-03     133.301E+06     3.76282E+06    -1.13047E+06    -131.871E+06     3.66837E+06    -131.861E+06    -1.04571E+06     409.925E+03
             692     31.6054E-03     6.88518E-03     30.8463E-03     33.7952E-03    -16.8078E-03    -16.9902E-03    -16.7025E-03     33.5076E-03    -16.8078E-03     7.60675E-03     39.0994E-03     148.268E+06     4.52603E+06     1.94781E+06    -145.009E+06     2.91880E+06    -145.002E+06     3.54778E+06    -381.135E+03
             693     31.3985E-03     5.90150E-03     30.8389E-03     33.8112E-03    -16.8480E-03    -16.9638E-03    -16.7267E-03     33.5741E-03    -16.8480E-03     6.91842E-03     37.5930E-03     158.699E+06     5.55986E+06     2.99191E+06    -154.406E+06     2.98752E+06    -154.401E+06     5.55986E+06    -61.6830E+03
             694     31.2215E-03     4.91771E-03     30.8318E-03     33.7970E-03    -16.8617E-03    -16.9341E-03    -16.7243E-03     33.6097E-03    -16.8843E-03     6.12723E-03     36.3715E-03     167.007E+06     5.17276E+06     3.26443E+06    -162.779E+06     3.25885E+06    -162.774E+06     5.17276E+06     477.213E+03
             695     31.0763E-03     3.93406E-03     30.8262E-03     33.8246E-03    -16.8911E-03    -16.9332E-03    -16.7675E-03     33.6987E-03    -16.9308E-03     5.01411E-03     35.4507E-03     175.285E+06     4.19061E+06     2.32760E+06    -172.018E+06     2.32380E+06    -172.014E+06     4.19061E+06     530.417E+03
             696     30.9621E-03     2.95046E-03     30.8212E-03     33.9055E-03    -16.9342E-03    -16.9708E-03    -16.8618E-03     33.8305E-03    -16.9681E-03     3.85142E-03     34.8263E-03     179.813E+06     2.47253E+06     1.27685E+06    -177.934E+06     1.45782E+06    -177.926E+06     2.28427E+06    -364.640E+03
             697     30.8809E-03     1.96658E-03     30.8182E-03     34.0084E-03    -16.9637E-03    -17.0445E-03    -16.9899E-03     33.9706E-03    -16.9805E-03     2.70521E-03     34.4923E-03     183.212E+06     2.96335E+06     863.002E+03    -181.284E+06     1.04506E+06    -181.278E+06     2.77509E+06    -591.555E+03
             698     30.8311E-03     984.031E-06     30.8154E-03     33.9347E-03    -16.8611E-03    -17.0753E-03    -17.0631E-03     33.9226E-03    -16.8611E-03     1.34772E-03     34.3392E-03     185.922E+06     3.15049E+06    -599.136E+03    -184.615E+06    -112.416E+03    -184.613E+06     2.66171E+06    -140.968E+03
             699     34.7569E-03     16.7249E-03     30.4683E-03     227.850E-03    -16.8909E-03    -210.989E-03    -44.8345E-03     61.6959E-03    -16.8909E-03     425.583E-03     622.645E-03     194.894E+06     214.993E+06     111.398E+06    -7.74950E+06    -7.64907E+06     214.893E+06     111.398E+06     731.438E+03
             700     33.8901E-03     15.7423E-03     30.0120E-03     143.849E-03    -16.4723E-03    -127.377E-03    -33.7670E-03     50.2391E-03    -16.4723E-03     256.577E-03     331.776E-03     171.093E+06     168.595E+06     31.5500E+06    -19.6317E+06    -12.4129E+06     168.551E+06     24.3757E+06     149.030E+03
             701     33.3603E-03     14.7588E-03     29.9180E-03     48.1572E-03    -16.1322E-03    -32.0227E-03    -16.8034E-03     32.9379E-03    -16.1322E-03     59.2755E-03     109.063E-03     134.000E+06     93.2021E+06    -9.71150E+06    -52.6415E+06    -9.59671E+06     93.0873E+06    -52.6415E+06    -80.1808E+03
             702     32.9111E-03     13.7736E-03     29.8903E-03     34.2387E-03    -16.1277E-03    -18.1025E-03    -15.8892E-03     32.0255E-03    -16.1277E-03     20.4185E-03     74.0154E-03     85.4862E+06     25.1953E+06    -7.43508E+06    -70.5552E+06    -5.62346E+06     23.3837E+06    -70.5552E+06     -29.614E+03
             703     32.4980E-03     12.7892E-03     29.8757E-03     33.3282E-03    -16.3220E-03    -17.0217E-03    -16.1093E-03     32.4158E-03    -16.3220E-03     13.3318E-03     59.0385E-03     46.7487E+06    -765.444E+03    -18.4400E+06    -51.2927E+06    -2.99792E+06    -21.6959E+06    -45.8043E+06     1.42275E+06
             704     32.1118E-03     11.8049E-03     29.8632E-03     33.3202E-03    -16.4627E-03    -16.9056E-03    -16.2384E-03     32.6530E-03    -16.4627E-03     11.4979E-03     53.4562E-03     49.7690E+06    -2.36747E+06    -30.2088E+06    -58.8213E+06    -2.52218E+06    -58.6666E+06    -30.2088E+06     1.50635E+06
             705     31.7528E-03     10.8208E-03     29.8521E-03     33.4658E-03    -16.5296E-03    -16.9855E-03    -16.3674E-03     32.8477E-03    -16.5296E-03     11.0969E-03     49.7321E-03     74.5972E+06    -1.44410E+06    -24.6408E+06    -84.5113E+06    -1.53416E+06    -84.4212E+06    -24.6408E+06     405.099E+03
             706     31.4201E-03     9.83683E-03     29.8406E-03     33.5643E-03    -16.6170E-03    -16.9727E-03    -16.4634E-03     33.0550E-03    -16.6170E-03     10.0588E-03     46.0105E-03     96.3684E+06     819.180E+03    -12.4640E+06    -101.310E+06     779.054E+03    -101.270E+06    -12.4640E+06     651.630E+03
             707     31.1170E-03     8.85280E-03     29.8311E-03     33.6370E-03    -16.6850E-03    -16.9561E-03    -16.5495E-03     33.2304E-03    -16.6850E-03     9.03124E-03     43.1005E-03     116.142E+06     2.14637E+06    -4.68793E+06    -117.244E+06     2.13625E+06    -117.234E+06    -4.68793E+06     755.344E+03
             708     30.8423E-03     7.86929E-03     29.8215E-03     33.6901E-03    -16.7299E-03    -16.9650E-03    -16.6123E-03     33.3374E-03    -16.7299E-03     8.41075E-03     40.8500E-03     132.647E+06     3.24021E+06    -1.21981E+06    -131.561E+06     3.15172E+06    -131.557E+06    -1.13505E+06     408.652E+03
             709     30.5979E-03     6.88527E-03     29.8132E-03     33.7142E-03    -16.7833E-03    -16.9353E-03    -16.6462E-03     33.4251E-03    -16.7833E-03     7.62023E-03     38.9927E-03     148.537E+06     5.12765E+06     2.49324E+06    -144.692E+06     4.34848E+06    -144.688E+06     3.26813E+06     156.090E+03
             710     30.3842E-03     5.90149E-03     29.8055E-03     33.7618E-03    -16.8285E-03    -16.9368E-03    -16.7001E-03     33.5250E-03    -16.8285E-03     6.90283E-03     37.5391E-03     159.157E+06     5.38555E+06     3.48699E+06    -154.711E+06     3.70295E+06    -154.708E+06     5.16732E+06     57.4926E+03
             711     30.2017E-03     4.91783E-03     29.7986E-03     33.7841E-03    -16.8568E-03    -16.9293E-03    -16.7484E-03     33.6032E-03    -16.8568E-03     6.02502E-03     36.3430E-03     166.051E+06     3.67258E+06     2.08615E+06    -163.164E+06     2.08253E+06    -163.161E+06     3.67258E+06     541.304E+03
             712     30.0513E-03     3.93417E-03     29.7927E-03     33.8050E-03    -16.8734E-03    -16.9338E-03    -16.7973E-03     33.6824E-03    -16.8873E-03     4.94791E-03     35.4223E-03     173.782E+06     3.01722E+06     1.47606E+06    -171.529E+06     1.72912E+06    -171.525E+06     2.76008E+06     550.614E+03
             713     29.9338E-03     2.95048E-03     29.7881E-03     33.8619E-03    -16.8973E-03    -16.9668E-03    -16.8800E-03     33.7890E-03    -16.9112E-03     3.79442E-03     34.7862E-03     179.275E+06     3.42576E+06     1.56426E+06    -176.770E+06     1.89850E+06    -176.759E+06     3.08089E+06     29.7354E+03
             714     29.8491E-03     1.96735E-03     29.7842E-03     33.8691E-03    -16.8772E-03    -16.9927E-03    -16.9234E-03     33.8327E-03    -16.9102E-03     2.65514E-03     34.3829E-03     182.564E+06     2.52297E+06    -15.3155E+03    -181.293E+06     61.4804E+03    -181.282E+06     2.43524E+06    -312.038E+03
             715     29.7983E-03     983.222E-06     29.7820E-03     33.7862E-03    -16.7561E-03    -17.0311E-03    -16.8946E-03     33.7740E-03    -16.8803E-03     1.37281E-03     34.2180E-03     185.221E+06     447.625E+03    -1.88791E+06    -185.928E+06    -1.17776E+06    -185.924E+06    -266.196E+03    -665.254E+03
             716     33.8476E-03     16.7249E-03     29.4269E-03     229.812E-03    -16.8923E-03    -212.941E-03    -45.7455E-03     62.6169E-03    -16.8923E-03     429.149E-03     624.302E-03     195.127E+06     215.586E+06     113.505E+06    -7.22433E+06    -7.17396E+06     215.536E+06     113.505E+06     157.737E+03
             717     32.9805E-03     15.7438E-03     28.9801E-03     141.947E-03    -16.4586E-03    -125.490E-03    -33.0229E-03     49.4794E-03    -16.4586E-03     253.370E-03     330.406E-03     171.024E+06     169.263E+06     33.1497E+06    -19.3771E+06    -10.7969E+06     169.225E+06     24.6073E+06     404.955E+03
             718     32.4352E-03     14.7575E-03     28.8836E-03     48.1891E-03    -16.1318E-03    -32.0575E-03    -16.3769E-03     32.5084E-03    -16.1318E-03     59.5867E-03     109.140E-03     136.013E+06     92.8808E+06    -12.6909E+06    -55.7844E+06    -12.5318E+06     92.7217E+06    -55.7844E+06     283.388E+03
             719     31.9769E-03     13.7736E-03     28.8584E-03     34.4400E-03    -16.1431E-03    -18.2923E-03    -16.0855E-03     32.2332E-03    -16.1431E-03     20.5675E-03     74.3307E-03     86.2827E+06     24.2147E+06    -11.1160E+06    -72.4643E+06    -9.84971E+06     22.9484E+06    -72.4643E+06     694.337E+03
             720     31.5502E-03     12.7889E-03     28.8420E-03     33.3756E-03    -16.3296E-03    -17.0637E-03    -16.1259E-03     32.4378E-03    -16.3296E-03     13.4950E-03     59.0192E-03     46.0913E+06    -3.10410E+06    -20.7620E+06    -52.7890E+06    -5.63433E+06    -23.4615E+06    -47.5593E+06     1.82391E+06
             721     31.1538E-03     11.8048E-03     28.8307E-03     33.3948E-03    -16.4685E-03    -16.9735E-03    -16.3123E-03     32.7336E-03    -16.4685E-03     11.4641E-03     53.5663E-03     49.0756E+06    -1.52525E+06    -29.6614E+06    -57.1587E+06    -1.68660E+06    -56.9973E+06    -29.6614E+06     2.07955E+06
             722     30.7831E-03     10.8207E-03     28.8186E-03     33.5649E-03    -16.5295E-03    -17.0834E-03    -16.4606E-03     32.9421E-03    -16.5295E-03     11.1617E-03     49.7998E-03     75.4933E+06     893.639E+03    -23.8821E+06    -83.5223E+06     829.083E+03    -83.4578E+06    -23.8821E+06     730.495E+03
             723     30.4407E-03     9.83682E-03     28.8075E-03     33.6619E-03    -16.6034E-03    -17.0815E-03    -16.5625E-03     33.1429E-03    -16.6034E-03     10.1754E-03     46.0715E-03     97.4862E+06     2.06269E+06    -13.6425E+06    -102.063E+06     2.02928E+06    -102.030E+06    -13.6425E+06     680.593E+03
             724     30.1277E-03     8.85313E-03     28.7976E-03     33.6845E-03    -16.6583E-03    -17.0276E-03    -16.6109E-03     33.2677E-03    -16.6583E-03     9.15488E-03     43.1076E-03     115.022E+06     2.76796E+06    -6.54822E+06    -116.592E+06     2.75145E+06    -116.576E+06    -6.54822E+06     1.19907E+06
             725     29.8445E-03     7.86911E-03     28.7884E-03     33.6716E-03    -16.6969E-03    -16.9763E-03    -16.6192E-03     33.3144E-03    -16.6969E-03     8.45899E-03     40.8071E-03     131.085E+06     3.06554E+06    -3.39908E+06    -131.094E+06     3.05703E+06    -131.086E+06    -3.39908E+06     658.446E+03
             726     29.5921E-03     6.88542E-03     28.7799E-03     33.6745E-03    -16.7472E-03    -16.9293E-03    -16.6394E-03     33.3846E-03    -16.7472E-03     7.63062E-03     38.9283E-03     146.106E+06     2.70635E+06     199.141E+03    -144.621E+06     2.50147E+06    -144.616E+06     399.140E+03     572.658E+03
             727     29.3712E-03     5.90169E-03     28.7722E-03     33.7408E-03    -16.7914E-03    -16.9512E-03    -16.7177E-03     33.5073E-03    -16.7914E-03     6.84734E-03     37.5010E-03     157.467E+06     3.36897E+06     1.57213E+06    -154.987E+06     1.78393E+06    -154.981E+06     3.15074E+06     945.237E+03
             728     29.1828E-03     4.91805E-03     28.7654E-03     33.7605E-03    -16.8105E-03    -16.9529E-03    -16.7778E-03     33.5853E-03    -16.8105E-03     5.93368E-03     36.3191E-03     164.738E+06     2.94443E+06     988.161E+03    -162.760E+06     983.605E+03    -162.756E+06     2.94443E+06     761.155E+03
             729     29.0273E-03     3.93443E-03     28.7594E-03     33.7506E-03    -16.8132E-03    -16.9404E-03    -16.8200E-03     33.6301E-03    -16.8132E-03     4.90022E-03     35.3670E-03     171.450E+06     1.26944E+06     312.901E+03    -170.656E+06     568.846E+03    -170.654E+06     1.01229E+06     56.8998E+03
             730     28.9056E-03     2.95097E-03     28.7546E-03     33.7285E-03    -16.8177E-03    -16.9144E-03    -16.8400E-03     33.6541E-03    -16.8177E-03     3.85097E-03     34.6542E-03     177.900E+06     2.00235E+06    -119.694E+03    -176.945E+06     1.04713E+06    -176.940E+06     830.885E+03     187.913E+03
             731     28.8182E-03     1.96711E-03     28.7510E-03     33.6747E-03    -16.8030E-03    -16.8735E-03    -16.8038E-03     33.6380E-03    -16.8359E-03     2.60918E-03     34.1841E-03     182.912E+06     3.75049E+06    -430.770E+03    -181.212E+06     472.782E+03    -181.201E+06     2.83616E+06     590.495E+03
             732     28.7659E-03     983.824E-06     28.7491E-03     33.6571E-03    -16.7396E-03    -16.9179E-03    -16.7839E-03     33.6474E-03    -16.8639E-03     1.30119E-03     34.0595E-03     185.371E+06     1.05399E+06    -2.23002E+06    -185.928E+06    -1.39096E+06    -185.921E+06     208.064E+03     111.624E+03
             733     32.9426E-03     16.7244E-03     28.3814E-03     229.260E-03    -16.8019E-03    -212.479E-03    -45.0994E-03     61.8798E-03    -16.8019E-03     428.508E-03     622.888E-03     193.941E+06     214.659E+06     113.382E+06    -6.46841E+06    -6.44593E+06     214.637E+06     113.382E+06     47.1480E+03
             734     32.0788E-03     15.7435E-03     27.9497E-03     140.721E-03    -16.4368E-03    -124.288E-03    -30.7525E-03     47.1847E-03    -16.4368E-03     252.021E-03     329.456E-03     170.384E+06     167.830E+06     30.8580E+06    -19.5120E+06    -11.8171E+06     167.758E+06     23.2353E+06     693.458E+03
             735     31.5186E-03     14.7573E-03     27.8504E-03     48.8662E-03    -16.1641E-03    -32.7025E-03    -16.6806E-03     32.8444E-03    -16.1641E-03     60.5700E-03     109.787E-03     136.695E+06     93.1822E+06    -13.2737E+06    -55.8401E+06    -13.1234E+06     93.0319E+06    -55.8401E+06     1.87668E+06
             736     31.0467E-03     13.7730E-03     27.8245E-03     34.5025E-03    -16.1615E-03    -18.3394E-03    -16.2276E-03     32.3908E-03    -16.1615E-03     20.1747E-03     74.7077E-03     86.7212E+06     24.4004E+06    -12.0931E+06    -73.1077E+06    -10.7669E+06     23.0742E+06    -73.1077E+06     1.68276E+06
             737     30.6092E-03     12.7889E-03     27.8094E-03     33.4855E-03    -16.3185E-03    -17.1888E-03    -16.2605E-03     32.5572E-03    -16.3185E-03     13.4801E-03     59.1047E-03     46.7997E+06    -3.78130E+06    -23.4968E+06    -54.3277E+06    -7.11547E+06    -22.9915E+06    -51.4988E+06     710.477E+03
             738     30.1995E-03     11.8046E-03     27.7968E-03     33.4537E-03    -16.4443E-03    -17.0569E-03    -16.4048E-03     32.8016E-03    -16.4443E-03     11.3952E-03     53.5550E-03     50.1005E+06    -2.26049E+06    -32.5621E+06    -58.9358E+06    -2.51210E+06     -56.753E+06    -34.4933E+06     281.703E+03
             739     29.8186E-03     10.8208E-03     27.7859E-03     33.6256E-03    -16.5137E-03    -17.1595E-03    -16.5611E-03     33.0272E-03    -16.5137E-03     10.9584E-03     49.8030E-03     74.8852E+06     1.02233E+06    -25.7862E+06    -83.2695E+06     988.333E+03    -83.2355E+06    -25.7862E+06     1.32716E+06
             740     29.4645E-03     9.83685E-03     27.7740E-03     33.6543E-03    -16.5795E-03    -17.0977E-03    -16.5948E-03     33.1514E-03    -16.5795E-03     10.0164E-03     46.0056E-03     97.2288E+06     2.40078E+06    -15.5416E+06    -102.292E+06     2.37836E+06    -102.270E+06    -15.5416E+06     1.38543E+06
             741     29.1419E-03     8.85301E-03     27.7646E-03     33.6634E-03    -16.6376E-03    -17.0282E-03    -16.6279E-03     33.2631E-03    -16.6376E-03     8.96888E-03     43.0805E-03     115.330E+06     3.63520E+06    -6.94517E+06    -116.594E+06     3.61905E+06    -116.578E+06    -6.94517E+06     1.33212E+06
             742     28.8489E-03     7.86945E-03     27.7549E-03     33.6881E-03    -16.6854E-03    -17.0048E-03    -16.6641E-03     33.3474E-03    -16.6854E-03     8.26753E-03     40.8333E-03     132.371E+06     3.90936E+06    -1.08051E+06    -130.822E+06     3.87303E+06    -130.786E+06    -1.08051E+06     2.03541E+06
             743     28.5885E-03     6.88565E-03     27.7469E-03     33.6974E-03    -16.7257E-03    -16.9726E-03    -16.6922E-03     33.4170E-03    -16.7257E-03     7.51241E-03     38.9777E-03     147.062E+06     3.41055E+06     2.24592E+06    -144.229E+06     2.67956E+06    -144.195E+06     2.94287E+06     1.97774E+06
             744     28.3598E-03     5.90195E-03     27.7389E-03     33.7100E-03    -16.7466E-03    -16.9620E-03    -16.7299E-03     33.4779E-03    -16.7466E-03     6.82735E-03     37.4617E-03     156.653E+06     3.41728E+06     1.39516E+06    -154.235E+06     1.38156E+06    -154.222E+06     3.41728E+06     1.20755E+06
             745     28.1649E-03     4.91834E-03     27.7321E-03     33.7010E-03    -16.7603E-03    -16.9425E-03    -16.7688E-03     33.5273E-03    -16.7603E-03     5.90071E-03     36.2702E-03     165.128E+06     3.85589E+06     1.67601E+06    -162.351E+06     1.67128E+06    -162.346E+06     3.85589E+06     704.963E+03
             746     28.0039E-03     3.93475E-03     27.7261E-03     33.6610E-03    -16.7567E-03    -16.9075E-03    -16.7853E-03     33.5388E-03    -16.7567E-03     4.94458E-03     35.2882E-03     171.850E+06     2.37993E+06     1.25588E+06    -170.028E+06     1.40069E+06    -170.025E+06     2.23232E+06     482.324E+03
             747     27.8780E-03     2.95102E-03     27.7214E-03     33.5997E-03    -16.7506E-03    -16.8511E-03    -16.7750E-03     33.5236E-03    -16.7506E-03     3.86572E-03     34.5197E-03     177.419E+06     1.16804E+06    -818.300E+03    -177.231E+06     240.905E+03    -177.228E+06     106.103E+03     347.930E+03
             748     27.7875E-03     1.96746E-03     27.7178E-03     33.5382E-03    -16.7492E-03    -16.7902E-03    -16.7550E-03     33.5031E-03    -16.7492E-03     2.57136E-03     34.0558E-03     181.248E+06     1.65496E+06    -2.30294E+06    -181.533E+06    -865.581E+03    -181.527E+06     210.861E+03     783.355E+03
             749     27.7330E-03     983.545E-06     27.7156E-03     33.4804E-03    -16.6766E-03    -16.8039E-03    -16.7932E-03     33.4696E-03    -16.6766E-03     1.37049E-03     33.9130E-03     183.289E+06     415.917E+03    -3.01928E+06    -184.559E+06    -1.87397E+06    -184.553E+06    -734.744E+03     659.813E+03
             750     32.0778E-03     16.7384E-03     27.3644E-03     229.613E-03    -16.7533E-03    -212.893E-03    -44.5025E-03     61.2226E-03    -16.7533E-03     429.676E-03     623.152E-03     194.088E+06     213.930E+06     111.770E+06    -7.65285E+06    -7.63306E+06     213.910E+06     111.770E+06     703.795E+03
             751     31.1787E-03     15.7392E-03     26.9145E-03     142.974E-03    -16.4531E-03    -126.524E-03    -30.7076E-03     47.1577E-03    -16.4531E-03     256.213E-03     331.331E-03     171.356E+06     167.736E+06     29.8565E+06      -20.32E+06    -13.3506E+06     167.604E+06     23.0188E+06     1.22039E+06
             752     30.6094E-03     14.7573E-03     26.8171E-03     48.6169E-03    -16.1986E-03    -32.4183E-03    -17.3052E-03     33.5039E-03    -16.1986E-03     59.3991E-03     109.690E-03     135.391E+06     92.8971E+06    -13.3319E+06    -54.1698E+06    -13.0957E+06     92.6609E+06    -54.1698E+06     1.08746E+06
             753     30.1241E-03     13.7728E-03     26.7912E-03     34.4986E-03    -16.1795E-03    -18.3162E-03    -16.2196E-03     32.4020E-03    -16.1795E-03     19.9435E-03     74.6660E-03     84.1625E+06     24.5166E+06    -9.69439E+06    -69.8458E+06    -8.59712E+06     23.4193E+06    -69.8458E+06     2.24924E+06
             754     29.6732E-03     12.7888E-03     26.7759E-03     33.5925E-03    -16.3236E-03    -17.2884E-03    -16.4229E-03     32.7270E-03    -16.3236E-03     13.0840E-03     59.2196E-03     46.0088E+06    -2.23072E+06    -20.8738E+06    -51.7066E+06    -5.27721E+06    -20.5778E+06    -48.9561E+06     959.677E+03
             755     29.2517E-03     11.8049E-03     26.7639E-03     33.5259E-03    -16.4342E-03    -17.1435E-03    -16.5128E-03     32.8951E-03    -16.4342E-03     11.2232E-03     53.5488E-03     49.8917E+06    -3.39741E+06    -32.7436E+06    -59.8062E+06    -3.62317E+06    -57.6493E+06    -34.6747E+06     135.510E+03
             756     28.8577E-03     10.8210E-03     26.7521E-03     33.6387E-03    -16.4914E-03    -17.2004E-03    -16.6332E-03     33.0715E-03    -16.4914E-03     10.6783E-03     49.7969E-03     73.4764E+06    -2.11024E+06    -27.1177E+06    -84.5126E+06    -2.15413E+06    -84.4687E+06    -27.1177E+06     1.50101E+06
             757     28.4932E-03     9.83735E-03     26.7411E-03     33.6281E-03    -16.5501E-03    -17.1043E-03    -16.6255E-03     33.1493E-03    -16.5501E-03     9.77659E-03     45.9576E-03     94.6852E+06    -83.2065E+03    -15.0669E+06    -101.092E+06    -118.257E+03    -101.057E+06    -15.0669E+06     1.68820E+06
             758     28.1589E-03     8.85353E-03     26.7309E-03     33.5883E-03    -16.6004E-03    -16.9950E-03    -16.6200E-03     33.2133E-03    -16.6004E-03     8.67277E-03     42.9909E-03     114.307E+06     1.01853E+06    -7.20004E+06    -117.166E+06     1.00397E+06    -117.151E+06    -7.20004E+06     1.27169E+06
             759     27.8567E-03     7.86960E-03     26.7220E-03     33.6151E-03    -16.6420E-03    -16.9778E-03    -16.6568E-03     33.2941E-03    -16.6420E-03     8.02401E-03     40.7198E-03     131.823E+06     2.39031E+06    -1.51839E+06    -131.301E+06     2.19112E+06    -131.263E+06    -1.35687E+06     2.08812E+06
             760     27.5867E-03     6.88599E-03     26.7135E-03     33.6417E-03    -16.6799E-03    -16.9647E-03    -16.6979E-03     33.3749E-03    -16.6799E-03     7.31957E-03     38.8875E-03     146.658E+06     4.75032E+06     3.08871E+06    -142.726E+06     3.06223E+06    -142.679E+06     4.73033E+06     2.53042E+06
             761     27.3503E-03     5.90231E-03     26.7059E-03     33.6047E-03    -16.6901E-03    -16.9156E-03    -16.6931E-03     33.3823E-03    -16.6901E-03     6.68271E-03     37.3382E-03     156.988E+06     5.23079E+06     2.58734E+06    -153.061E+06     3.07865E+06    -153.039E+06     4.71704E+06     1.60941E+06
             762     27.1479E-03     4.91861E-03     26.6986E-03     33.5628E-03    -16.6952E-03    -16.8689E-03    -16.6955E-03     33.3894E-03    -16.6952E-03     5.88046E-03     36.1065E-03     164.997E+06     3.22704E+06     1.66768E+06    -162.542E+06     2.22199E+06    -162.535E+06     2.66611E+06     797.892E+03
             763     26.9817E-03     3.93486E-03     26.6932E-03     33.5401E-03    -16.7070E-03    -16.8339E-03    -16.7141E-03     33.4203E-03    -16.7070E-03     4.88090E-03     35.1536E-03     172.052E+06     2.65163E+06     1.26409E+06    -170.087E+06     1.44802E+06    -170.076E+06     2.45683E+06     1.15133E+06
             764     26.8507E-03     2.95119E-03     26.6880E-03     33.4942E-03    -16.7019E-03    -16.7908E-03    -16.6986E-03     33.4186E-03    -16.7184E-03     3.85558E-03     34.4111E-03     178.161E+06     2.06030E+06     103.744E+03    -177.067E+06     398.114E+03    -177.051E+06     1.75033E+06     1.54179E+06
             765     26.7575E-03     1.96751E-03     26.6851E-03     33.4778E-03    -16.6912E-03    -16.7859E-03    -16.7304E-03     33.4389E-03    -16.7078E-03     2.72854E-03     34.0003E-03     180.373E+06     1.26999E+06    -1.19285E+06    -180.319E+06    -507.608E+03    -180.312E+06     577.844E+03     958.221E+03
             766     26.7006E-03     983.949E-06     26.6824E-03     33.3862E-03    -16.6095E-03    -16.7759E-03    -16.7146E-03     33.3735E-03    -16.6582E-03     1.34087E-03     33.8494E-03     182.222E+06     6.85823E+03    -2.49575E+06    -183.452E+06    -1.53547E+06    -183.452E+06    -954.319E+03     207.227E+03
             767     31.1917E-03     16.7184E-03     26.3328E-03     230.146E-03    -16.8920E-03    -213.291E-03    -44.7628E-03     61.6179E-03    -16.8920E-03     430.265E-03     625.260E-03     194.995E+06     213.582E+06     108.002E+06    -9.39445E+06    -9.35227E+06     213.540E+06     108.002E+06    -1.96279E+03
             768     30.2891E-03     15.7422E-03     25.8769E-03     143.383E-03    -16.5183E-03    -126.868E-03    -33.4362E-03     49.9511E-03    -16.5183E-03     255.624E-03     331.670E-03     172.424E+06     168.093E+06     30.4000E+06    -22.0662E+06    -13.2954E+06     167.878E+06     21.8446E+06     357.316E+03
             769     29.7094E-03     14.7577E-03     25.7849E-03     48.1918E-03    -16.1946E-03    -31.9959E-03    -17.1296E-03     33.3255E-03    -16.1946E-03     58.4680E-03     108.883E-03     133.339E+06     91.7555E+06    -12.1282E+06    -53.9137E+06    -11.8119E+06     91.4391E+06    -53.9137E+06     1.33879E+06
             770     29.2084E-03     13.7731E-03     25.7572E-03     34.7619E-03    -16.1724E-03    -18.5828E-03    -16.5021E-03     32.6812E-03    -16.1724E-03     19.9232E-03     74.4628E-03     83.3127E+06     23.9000E+06    -8.81889E+06    -69.0342E+06    -8.36944E+06     23.4505E+06    -69.0342E+06     1.18099E+06
             771     28.7445E-03     12.7892E-03     25.7426E-03     33.6477E-03    -16.3216E-03    -17.3381E-03    -16.5306E-03     32.8402E-03    -16.3216E-03     12.6516E-03     59.1562E-03     44.5740E+06    -1.40209E+06    -17.0205E+06    -49.0914E+06    -3.81565E+06    -19.6925E+06    -44.0058E+06     1.93187E+06
             772     28.3091E-03     11.8052E-03     25.7302E-03     33.5693E-03    -16.4291E-03    -17.1878E-03    -16.6066E-03     32.9882E-03    -16.4291E-03     10.7862E-03     53.5677E-03     48.9538E+06    -2.46039E+06    -28.6291E+06    -57.8254E+06    -2.62631E+06    -57.6595E+06    -28.6291E+06     2.23005E+06
             773     27.9030E-03     10.8216E-03     25.7191E-03     33.5657E-03    -16.4551E-03    -17.1629E-03    -16.6285E-03     33.0313E-03    -16.4551E-03     10.3555E-03     49.6608E-03     74.5442E+06    -1.73993E+06    -25.3908E+06    -85.0208E+06    -1.80666E+06    -84.9541E+06    -25.3908E+06     1.72349E+06
             774     27.5255E-03     9.83770E-03     25.7075E-03     33.5769E-03    -16.5031E-03    -17.1022E-03    -16.6392E-03     33.1139E-03    -16.5031E-03     9.61178E-03     45.9053E-03     94.2161E+06    -471.426E+03    -14.3652E+06    -100.542E+06    -515.434E+03    -100.498E+06    -14.3652E+06     1.93307E+06
             775     27.1806E-03     8.85405E-03     25.6980E-03     33.5521E-03    -16.5444E-03    -17.0165E-03    -16.6537E-03     33.1893E-03    -16.5444E-03     8.52886E-03     42.9050E-03     113.570E+06     385.375E+03    -6.63195E+06    -116.529E+06     363.152E+03    -116.507E+06    -6.63195E+06     1.35273E+06
             776     26.8673E-03     7.87038E-03     25.6887E-03     33.5226E-03    -16.5655E-03    -16.9623E-03    -16.6534E-03     33.2137E-03    -16.5655E-03     7.86612E-03     40.5709E-03     130.919E+06     1.61696E+06    -3.30303E+06    -131.666E+06     1.44497E+06    -131.656E+06    -3.14151E+06     1.03609E+06
             777     26.5878E-03     6.88653E-03     25.6805E-03     33.4947E-03    -16.5929E-03    -16.9054E-03    -16.6476E-03     33.2369E-03    -16.5929E-03     7.18214E-03     38.6739E-03     145.008E+06     4.15990E+06     1.16657E+06    -142.316E+06     2.99580E+06    -142.296E+06     2.31124E+06     1.54308E+06
             778     26.3424E-03     5.90282E-03     25.6726E-03     33.4368E-03    -16.6093E-03    -16.8293E-03    -16.6205E-03     33.2280E-03    -16.6093E-03     6.45201E-03     37.1206E-03     156.113E+06     5.28759E+06     2.18530E+06    -152.352E+06     3.38639E+06    -152.323E+06     4.05740E+06     2.04820E+06
             779     26.1332E-03     4.91888E-03     25.6661E-03     33.3677E-03    -16.6222E-03    -16.7447E-03    -16.5779E-03     33.2023E-03    -16.6237E-03     5.73634E-03     35.8702E-03     164.213E+06     3.35282E+06     1.73052E+06    -161.661E+06     2.25680E+06    -161.627E+06     2.79189E+06     2.09435E+06
             780     25.9598E-03     3.93518E-03     25.6598E-03     33.3656E-03    -16.6431E-03    -16.7201E-03    -16.6020E-03     33.2489E-03    -16.6445E-03     4.78585E-03     34.9591E-03     172.152E+06     2.16493E+06     1.04139E+06    -170.542E+06     1.12276E+06    -170.517E+06     2.05771E+06     1.70114E+06
             781     25.8248E-03     2.95133E-03     25.6556E-03     33.3585E-03    -16.6500E-03    -16.7067E-03    -16.6188E-03     33.2872E-03    -16.6665E-03     3.75338E-03     34.2727E-03     177.785E+06     1.89800E+06     677.427E+03    -176.491E+06     1.03722E+06    -176.474E+06     1.52134E+06     1.61114E+06
             782     25.7269E-03     1.96729E-03     25.6515E-03     33.3546E-03    -16.6017E-03    -16.7520E-03    -16.6148E-03     33.3153E-03    -16.6995E-03     2.72566E-03     33.8480E-03     180.786E+06     3.07372E+06     1.06183E+06    -178.705E+06     1.37007E+06    -178.697E+06     2.75709E+06     992.334E+03
             783     25.6686E-03     983.725E-06     25.6497E-03     33.4197E-03    -16.5543E-03    -16.8657E-03    -16.7228E-03     33.4068E-03    -16.6843E-03     1.38718E-03     33.8569E-03     182.803E+06     2.63376E+06    -711.826E+03    -181.816E+06    -282.070E+03    -181.815E+06     2.20236E+06    -153.766E+03
             784     30.3113E-03     16.7221E-03     25.2814E-03     230.711E-03    -16.9529E-03    -213.795E-03    -44.8387E-03     61.7554E-03    -16.9529E-03     431.272E-03     626.045E-03     194.024E+06     213.608E+06     108.476E+06    -7.85023E+06    -7.77842E+06     213.536E+06     108.476E+06     384.524E+03
             785     29.4151E-03     15.7427E-03     24.8478E-03     140.693E-03    -16.5322E-03    -124.165E-03    -33.5199E-03     50.0481E-03    -16.5322E-03     250.077E-03     329.597E-03     170.977E+06     167.048E+06     28.1437E+06    -20.9819E+06    -12.8218E+06     166.823E+06     20.2081E+06     1.22529E+06
             786     28.8142E-03     14.7560E-03     24.7491E-03     48.6049E-03    -16.1651E-03    -32.4390E-03    -17.4192E-03     33.5851E-03    -16.1651E-03     58.4519E-03     108.443E-03     134.637E+06     92.0935E+06    -11.2898E+06    -54.7427E+06    -11.0391E+06     91.8428E+06    -54.7427E+06     1.25337E+06
             787     28.3022E-03     13.7738E-03     24.7244E-03     34.7207E-03    -16.1176E-03    -18.5993E-03    -16.7858E-03     32.9072E-03    -16.1176E-03     18.7326E-03     74.1437E-03     85.0801E+06     23.6678E+06    -7.27604E+06    -70.8606E+06    -6.77629E+06     23.1680E+06    -70.8606E+06     1.12345E+06
             788     27.8226E-03     12.7897E-03     24.7087E-03     33.5857E-03    -16.2517E-03    -17.3460E-03    -16.6021E-03     32.8417E-03    -16.2517E-03     12.1141E-03     58.8829E-03     45.9813E+06    -2.21609E+06    -18.4407E+06    -50.8491E+06    -3.90658E+06    -21.0914E+06    -46.5079E+06     2.20640E+06
             789     27.3738E-03     11.8062E-03     24.6969E-03     33.4323E-03    -16.3619E-03    -17.1099E-03    -16.5874E-03     32.9098E-03    -16.3619E-03     10.2146E-03     53.3624E-03     50.1881E+06    -739.987E+03    -28.2408E+06    -57.2314E+06    -935.158E+03    -57.0362E+06    -28.2408E+06     3.17101E+06
             790     26.9537E-03     10.8222E-03     24.6856E-03     33.4332E-03    -16.3858E-03    -17.0934E-03    -16.5944E-03     32.9341E-03    -16.3858E-03     9.99175E-03     49.4616E-03     76.0657E+06     1.07106E+06    -24.5196E+06    -84.3593E+06     965.426E+03    -84.2537E+06    -24.5196E+06     2.75051E+06
             791     26.5636E-03     9.83843E-03     24.6745E-03     33.4384E-03    -16.4288E-03    -17.0362E-03    -16.5993E-03     33.0015E-03    -16.4288E-03     9.31940E-03     45.7163E-03     95.9680E+06     2.51632E+06    -14.2481E+06    -100.323E+06     2.46539E+06    -100.272E+06    -14.2481E+06     2.14842E+06
             792     26.2058E-03     8.85457E-03     24.6646E-03     33.4424E-03    -16.4734E-03    -16.9753E-03    -16.6322E-03     33.0993E-03    -16.4734E-03     8.28247E-03     42.7569E-03     114.490E+06     3.00207E+06    -4.99584E+06    -115.259E+06     2.95831E+06    -115.216E+06    -4.99584E+06     2.04172E+06
             793     25.8816E-03     7.87089E-03     24.6558E-03     33.4138E-03    -16.4818E-03    -16.9354E-03    -16.6391E-03     33.1175E-03    -16.4818E-03     7.69340E-03     40.4110E-03     131.035E+06     2.91056E+06    -3.29530E+06    -131.111E+06     2.88949E+06    -131.090E+06    -3.29530E+06     1.13837E+06
             794     25.5914E-03     6.88718E-03     24.6473E-03     33.3364E-03    -16.4986E-03    -16.8418E-03    -16.5870E-03     33.0817E-03    -16.4986E-03     7.12795E-03     38.4947E-03     144.879E+06     3.27862E+06    -549.964E+03    -143.470E+06     2.79056E+06    -143.458E+06    -73.4211E+03     1.07601E+06
             795     25.3370E-03     5.90326E-03     24.6397E-03     33.3049E-03    -16.5231E-03    -16.7835E-03    -16.5819E-03     33.1032E-03    -16.5231E-03     6.31970E-03     36.9811E-03     155.801E+06     4.87917E+06     2.05981E+06    -152.311E+06     2.74249E+06    -152.278E+06     4.16273E+06     2.21652E+06
             796     25.1194E-03     4.91958E-03     24.6329E-03     33.2043E-03    -16.5379E-03    -16.6640E-03    -16.5112E-03     33.0529E-03    -16.5393E-03     5.47655E-03     35.6842E-03     164.325E+06     5.11856E+06     2.75068E+06    -160.375E+06     2.70607E+06    -160.331E+06     5.11856E+06     2.63792E+06
             797     24.9397E-03     3.93534E-03     24.6272E-03     33.1411E-03    -16.5487E-03    -16.5895E-03    -16.4792E-03     33.0322E-03    -16.5501E-03     4.60832E-03     34.7128E-03     172.481E+06     3.37712E+06     2.52354E+06    -169.528E+06     2.60962E+06    -169.502E+06     3.26503E+06     1.86301E+06
             798     24.7987E-03     2.95152E-03     24.6225E-03     33.1877E-03    -16.5709E-03    -16.6152E-03    -16.5507E-03     33.1232E-03    -16.5709E-03     3.54763E-03     34.0972E-03     178.314E+06     3.79315E+06     2.11326E+06    -175.344E+06     2.37203E+06    -175.337E+06     3.52679E+06     906.956E+03
             799     24.6976E-03     1.96791E-03     24.6191E-03     33.1375E-03    -16.5169E-03    -16.6189E-03    -16.5019E-03     33.1051E-03    -16.6015E-03     2.46971E-03     33.6360E-03     181.148E+06     5.08489E+06     1.32301E+06    -177.905E+06     1.46751E+06    -177.896E+06     4.93063E+06     887.384E+03
             800     24.6362E-03     983.411E-06     24.6165E-03     33.2029E-03    -16.4114E-03    -16.7907E-03    -16.5367E-03     33.1911E-03    -16.6535E-03     1.46999E-03     33.6180E-03     182.372E+06     3.65465E+06    -1.72791E+06    -181.342E+06     232.421E+03    -181.333E+06     1.68510E+06     72.0776E+03
             801     29.4568E-03     16.7264E-03     24.2473E-03     231.053E-03    -16.7746E-03    -214.331E-03    -45.3802E-03     62.1024E-03    -16.7746E-03     432.166E-03     624.301E-03     193.163E+06     212.935E+06     110.211E+06     -7.8103E+06    -7.73739E+06     212.862E+06     110.211E+06     1.32824E+06
             802     28.5429E-03     15.7392E-03     23.8112E-03     139.377E-03    -16.4007E-03    -122.979E-03    -31.4256E-03     47.8241E-03    -16.4007E-03     248.111E-03     328.602E-03     170.818E+06     167.813E+06     31.2187E+06    -20.5926E+06    -11.9493E+06     167.707E+06     22.6813E+06     64.8528E+03
             803     27.9333E-03     14.7599E-03     23.7152E-03     47.4946E-03    -16.0638E-03    -31.4298E-03    -17.7243E-03     33.7891E-03    -16.0638E-03     55.7089E-03     107.996E-03     135.103E+06     92.2988E+06    -11.1149E+06    -55.3451E+06    -10.9962E+06     92.1801E+06    -55.3451E+06     233.485E+03
             804     27.4039E-03     13.7747E-03     23.6903E-03     34.1046E-03    -16.0059E-03    -18.0972E-03    -16.4607E-03     32.4681E-03    -16.0059E-03     17.5345E-03     73.8105E-03     85.8573E+06     23.2662E+06    -8.58534E+06    -72.3323E+06    -7.78785E+06     22.4687E+06    -72.3323E+06     1.94297E+06
             805     26.9099E-03     12.7915E-03     23.6754E-03     33.2585E-03    -16.1540E-03    -17.1203E-03    -16.4679E-03     32.6061E-03    -16.1540E-03     11.3146E-03     58.6718E-03     46.6943E+06    -2.12965E+06    -18.8043E+06    -51.8837E+06    -4.00902E+06    -21.9502E+06    -46.8584E+06     2.41905E+06
             806     26.4457E-03     11.8071E-03     23.6636E-03     33.1238E-03    -16.2657E-03    -16.8994E-03    -16.4140E-03     32.6383E-03    -16.2657E-03     9.80402E-03     53.1084E-03     49.5687E+06    -1.36465E+06    -29.0080E+06    -57.4214E+06    -1.54102E+06    -57.2451E+06    -29.0080E+06     3.00020E+06
             807     26.0113E-03     10.8233E-03     23.6525E-03     33.2628E-03    -16.2897E-03    -17.0208E-03    -16.5539E-03     32.7960E-03    -16.2897E-03     9.64366E-03     49.3249E-03     74.9221E+06     1.67391E+06    -24.3704E+06    -82.6631E+06     1.56630E+06    -82.5555E+06    -24.3704E+06     2.78670E+06
             808     25.6072E-03     9.83943E-03     23.6413E-03     33.2716E-03    -16.3268E-03    -16.9745E-03    -16.5655E-03     32.8626E-03    -16.3268E-03     9.00452E-03     45.4992E-03     96.6818E+06     4.29132E+06    -14.4302E+06    -100.071E+06     4.23452E+06    -100.015E+06    -14.4302E+06     2.31134E+06
             809     25.2364E-03     8.85553E-03     23.6317E-03     33.2233E-03    -16.3748E-03    -16.8550E-03    -16.5382E-03     32.9065E-03    -16.3748E-03     7.92959E-03     42.5033E-03     116.282E+06     5.90719E+06    -3.98641E+06    -114.973E+06     5.84179E+06    -114.907E+06    -3.98641E+06     2.77194E+06
             810     24.8997E-03     7.87167E-03     23.6227E-03     33.1979E-03    -16.4001E-03    -16.7989E-03    -16.5323E-03     32.9313E-03    -16.4001E-03     7.27601E-03     40.1757E-03     133.331E+06     5.82010E+06    -98.7390E+03    -130.357E+06     5.04649E+06    -130.260E+06     578.125E+03     3.05972E+06
             811     24.5987E-03     6.88771E-03     23.6148E-03     33.1604E-03    -16.4115E-03    -16.7535E-03    -16.5187E-03     32.9256E-03    -16.4115E-03     6.82500E-03     38.3089E-03     146.321E+06     4.17655E+06     1.41242E+06    -143.495E+06     2.95269E+06    -143.425E+06     2.56582E+06      2.3971E+06
             812     24.3339E-03     5.90395E-03     23.6068E-03     33.0981E-03    -16.4151E-03    -16.6886E-03    -16.4956E-03     32.9052E-03    -16.4151E-03     6.16917E-03     36.7544E-03     155.198E+06     3.76013E+06     2.16150E+06    -152.229E+06     2.24730E+06    -152.207E+06     3.65279E+06     1.53586E+06
             813     24.1080E-03     4.92001E-03     23.6006E-03     33.0548E-03    -16.4202E-03    -16.6341E-03    -16.4895E-03     32.9102E-03    -16.4202E-03     5.33935E-03     35.5259E-03     163.572E+06     5.18463E+06     2.62812E+06    -159.649E+06     2.60652E+06    -159.627E+06     5.18463E+06     1.61190E+06
             814     23.9207E-03     3.93625E-03     23.5947E-03     32.9746E-03    -16.4188E-03    -16.5535E-03    -16.4512E-03     32.8723E-03    -16.4188E-03     4.47130E-03     34.5304E-03     172.081E+06     5.84000E+06     2.75889E+06    -167.752E+06     2.79085E+06    -167.732E+06     5.78794E+06     1.84130E+06
             815     23.7737E-03     2.95209E-03     23.5897E-03     32.8815E-03    -16.4175E-03    -16.4634E-03    -16.4024E-03     32.8209E-03    -16.4179E-03     3.40853E-03     33.7638E-03     177.505E+06     4.93008E+06     1.96041E+06    -174.024E+06     2.01865E+06    -174.014E+06     4.86123E+06     1.10552E+06
             816     23.6684E-03     1.96790E-03     23.5864E-03     32.8794E-03    -16.3942E-03    -16.4836E-03    -16.4496E-03     32.8490E-03    -16.3978E-03     2.40728E-03     33.3565E-03     179.817E+06     4.02817E+06     750.033E+03    -177.393E+06     755.601E+03    -177.381E+06     4.01138E+06     398.691E+03
             817     23.6046E-03     984.521E-06     23.5841E-03     32.7272E-03    -16.1821E-03    -16.5427E-03    -16.3709E-03     32.7162E-03    -16.3430E-03     1.26821E-03     33.1110E-03     182.325E+06     2.70031E+06    -2.28893E+06    -182.057E+06    -359.000E+03    -182.017E+06     730.766E+03     1.03754E+06
             818     28.6361E-03     16.7378E-03     23.2351E-03     228.991E-03    -16.5557E-03    -212.486E-03    -46.7861E-03     63.2915E-03    -16.5557E-03     427.509E-03     619.825E-03     193.602E+06     213.649E+06     111.916E+06    -7.31537E+06    -7.27644E+06     213.610E+06     111.916E+06     507.980E+03
             819     27.6877E-03     15.7477E-03     22.7732E-03     141.351E-03    -16.1660E-03    -125.187E-03    -30.8130E-03     46.9778E-03    -16.1660E-03     253.065E-03     328.235E-03     170.051E+06     167.876E+06     31.9318E+06    -19.7762E+06    -11.0971E+06     167.843E+06     23.2861E+06     463.521E+03
             820     27.0639E-03     14.7615E-03     22.6838E-03     46.2902E-03    -15.8913E-03    -30.3961E-03    -16.8399E-03     32.7339E-03    -15.8913E-03     54.6075E-03     107.193E-03     134.766E+06     91.0958E+06    -12.5260E+06    -56.3472E+06    -12.4683E+06     91.0380E+06    -56.3472E+06     1.28919E+06
             821     26.5166E-03     13.7774E-03     22.6564E-03     33.6702E-03    -15.8613E-03    -17.8054E-03    -16.0970E-03     31.9617E-03    -15.8613E-03     17.6439E-03     73.3010E-03     86.5082E+06     22.8908E+06    -9.86693E+06    -73.3975E+06    -9.21999E+06     22.2439E+06    -73.3975E+06     1.68361E+06
             822     26.0066E-03     12.7928E-03     22.6427E-03     32.7746E-03    -16.0289E-03    -16.7623E-03    -16.1494E-03     32.1617E-03    -16.0289E-03     10.8921E-03     58.1989E-03     47.0661E+06    -2.64235E+06    -18.8923E+06    -52.8898E+06    -4.54815E+06    -22.6288E+06    -47.2475E+06     2.40017E+06
             823     25.5263E-03     11.8086E-03     22.6307E-03     32.8488E-03    -16.1495E-03    -16.7457E-03    -16.2767E-03     32.3797E-03    -16.1495E-03     9.59627E-03     52.8210E-03     49.3642E+06    -912.546E+03    -28.5737E+06    -56.9544E+06    -1.07193E+06    -56.7950E+06    -28.5737E+06     2.57565E+06
             824     25.0762E-03     10.8245E-03     22.6196E-03     33.0262E-03    -16.1736E-03    -16.9022E-03    -16.4614E-03     32.5854E-03    -16.1736E-03     9.33904E-03     49.0664E-03     74.0276E+06     1.58988E+06    -23.5547E+06    -81.4990E+06     1.51003E+06    -81.4191E+06    -23.5547E+06     2.31008E+06
             825     24.6573E-03     9.84059E-03     22.6085E-03     33.0515E-03    -16.2083E-03    -16.8736E-03    -16.4907E-03     32.6686E-03    -16.2083E-03     8.69038E-03     45.2319E-03     95.9738E+06     3.55977E+06    -13.8472E+06    -99.6924E+06     3.50219E+06    -99.6348E+06    -13.8472E+06     2.25329E+06
             826     24.2723E-03     8.85674E-03     22.5988E-03     32.9698E-03    -16.2534E-03    -16.7241E-03    -16.4258E-03     32.6715E-03    -16.2534E-03     7.66528E-03     42.1860E-03     116.409E+06     4.53037E+06    -3.98776E+06    -115.837E+06     4.43773E+06    -115.744E+06    -3.98776E+06     3.13682E+06
             827     23.9228E-03     7.87267E-03     22.5903E-03     32.9428E-03    -16.2877E-03    -16.6567E-03    -16.4070E-03     32.6931E-03    -16.2877E-03     7.01723E-03     39.8953E-03     134.399E+06     5.84205E+06     2.62273E+06    -130.119E+06     5.02086E+06    -129.974E+06     3.29960E+06     4.25597E+06
             828     23.6092E-03     6.88879E-03     22.5818E-03     32.9098E-03    -16.2924E-03    -16.6207E-03    -16.4026E-03     32.6917E-03    -16.2924E-03     6.55495E-03     38.0162E-03     147.111E+06     6.14853E+06     5.06668E+06    -141.498E+06     5.15419E+06    -141.387E+06     5.95023E+06     3.65477E+06
             829     23.3340E-03     5.90469E-03     22.5746E-03     32.8296E-03    -16.2811E-03    -16.5523E-03    -16.3742E-03     32.6515E-03    -16.2811E-03     5.90645E-03     36.4169E-03     155.198E+06     4.63175E+06     3.52411E+06    -151.117E+06     3.58343E+06    -151.069E+06     4.52440E+06     2.16533E+06
             830     23.0980E-03     4.92057E-03     22.5678E-03     32.7886E-03    -16.2768E-03    -16.5122E-03    -16.3742E-03     32.6506E-03    -16.2768E-03     5.19761E-03     35.2166E-03     162.483E+06     4.15239E+06     1.76723E+06    -159.508E+06     1.74638E+06    -159.487E+06     4.15239E+06     1.39187E+06
             831     22.9029E-03     3.93667E-03     22.5621E-03     32.7429E-03    -16.2677E-03    -16.4741E-03    -16.3743E-03     32.6431E-03    -16.2677E-03     4.40236E-03     34.2828E-03     170.216E+06     5.03301E+06     1.41661E+06    -166.958E+06     1.40274E+06    -166.944E+06     5.03301E+06     1.40079E+06
             832     22.7503E-03     2.95270E-03     22.5579E-03     32.6241E-03    -16.2312E-03    -16.3911E-03    -16.3289E-03     32.5623E-03    -16.2316E-03     3.44307E-03     33.4854E-03     174.159E+06     3.43672E+06     764.804E+03    -172.034E+06     1.40290E+06    -172.025E+06     2.78965E+06     1.11467E+06
             833     22.6398E-03     1.96857E-03     22.5540E-03     32.4956E-03    -16.1593E-03    -16.3344E-03    -16.2784E-03     32.4643E-03    -16.1840E-03     2.39853E-03     32.9535E-03     178.168E+06     1.64260E+06     110.506E+03    -177.285E+06     752.823E+03    -177.280E+06     995.526E+03    -2.43427E+03
             834     22.5730E-03     984.152E-06     22.5515E-03     32.3250E-03    -16.0082E-03    -16.3172E-03    -16.2817E-03     32.3139E-03    -16.0325E-03     1.30903E-03     32.7018E-03     183.271E+06     1.76074E+06    -436.721E+03    -182.594E+06    -468.220E+03    -182.563E+06     1.76074E+06     752.850E+03
             835     27.8017E-03     16.7336E-03     22.2018E-03     227.243E-03    -16.5065E-03    -210.774E-03    -47.6369E-03     64.1058E-03    -16.5065E-03     423.502E-03     617.821E-03     192.184E+06     212.140E+06     109.024E+06    -7.54780E+06    -7.53557E+06     212.128E+06     109.024E+06     30.4676E+03
             836     26.8482E-03     15.7487E-03     21.7440E-03     143.895E-03    -16.0569E-03    -127.844E-03    -32.6144E-03     48.6654E-03    -16.0569E-03     257.927E-03     328.243E-03     169.688E+06     167.429E+06     30.6190E+06    -19.0221E+06    -11.8873E+06     167.357E+06     23.5563E+06     2.09000E+06
             837     26.2041E-03     14.7634E-03     21.6494E-03     46.4639E-03    -15.7622E-03    -30.7010E-03    -16.4036E-03     32.1666E-03    -15.7622E-03     55.8455E-03     106.361E-03     134.251E+06     91.7576E+06    -12.2356E+06    -54.2718E+06    -12.1181E+06     91.6400E+06    -54.2718E+06     2.03080E+06
             838     25.6415E-03     13.7791E-03     21.6246E-03     33.5125E-03    -15.7392E-03    -17.7658E-03    -16.0185E-03     31.7653E-03    -15.7392E-03     17.8434E-03     72.5525E-03     84.9619E+06     22.5669E+06    -8.83308E+06    -71.8520E+06    -8.10720E+06     21.8410E+06    -71.8520E+06     1.42202E+06
             839     25.1133E-03     12.7945E-03     21.6096E-03     32.5427E-03    -15.8993E-03    -16.6569E-03    -16.0300E-03     31.9157E-03    -15.8993E-03     10.9629E-03     57.5742E-03     46.5642E+06    -2.76355E+06    -18.7540E+06    -52.3689E+06    -4.27078E+06    -22.8161E+06    -46.7996E+06     1.84388E+06
             840     24.6164E-03     11.8102E-03     21.5983E-03     32.6370E-03    -16.0118E-03    -16.6736E-03    -16.2061E-03     32.1694E-03    -16.0118E-03     9.55514E-03     52.3294E-03     48.8323E+06    -1.05236E+06    -29.2432E+06    -56.5893E+06     -1.1874E+06    -56.4542E+06    -29.2432E+06     2.06280E+06
             841     24.1493E-03     10.8260E-03     21.5867E-03     32.8008E-03    -16.0346E-03    -16.8139E-03    -16.3862E-03     32.3731E-03    -16.0346E-03     9.16911E-03     48.5857E-03     73.7794E+06     1.32107E+06    -23.7363E+06    -81.4053E+06     1.23767E+06    -81.3219E+06    -23.7363E+06      2.4316E+06
             842     23.7146E-03     9.84209E-03     21.5758E-03     32.7562E-03    -16.0707E-03    -16.7137E-03    -16.3590E-03     32.4015E-03    -16.0707E-03     8.32699E-03     44.6980E-03     95.4409E+06     2.60429E+06    -13.5392E+06    -99.6635E+06     2.48998E+06    -99.5492E+06    -13.5392E+06     3.04663E+06
             843     23.3146E-03     8.85786E-03     21.5664E-03     32.6632E-03    -16.1012E-03    -16.5695E-03    -16.2891E-03     32.3828E-03    -16.1012E-03     7.40024E-03     41.6700E-03     115.026E+06     3.20007E+06    -6.07057E+06    -116.125E+06     3.06964E+06    -115.994E+06    -6.07057E+06     3.37131E+06
             844     22.9505E-03     7.87388E-03     21.5575E-03     32.6696E-03    -16.1250E-03    -16.5471E-03    -16.3079E-03     32.4304E-03    -16.1250E-03     6.83996E-03     39.4642E-03     132.473E+06     4.23337E+06     201.969E+03    -130.123E+06     4.06398E+06    -129.998E+06     247.006E+03     3.74991E+06
             845     22.6243E-03     6.88966E-03     21.5497E-03     32.6306E-03    -16.1330E-03    -16.4976E-03    -16.2967E-03     32.4297E-03    -16.1330E-03     6.25708E-03     37.6064E-03     144.554E+06     5.30822E+06     4.06303E+06    -139.859E+06     4.03407E+06    -139.739E+06     5.21726E+06     4.03399E+06
             846     22.3369E-03     5.90559E-03     21.5421E-03     32.5498E-03    -16.1198E-03    -16.4282E-03    -16.2682E-03     32.3899E-03    -16.1198E-03     5.57540E-03     36.0414E-03     154.331E+06     5.83765E+06     3.69662E+06    -149.550E+06     3.61122E+06    -149.464E+06     5.83765E+06     3.57460E+06
             847     22.0910E-03     4.92160E-03     21.5358E-03     32.4316E-03    -16.1017E-03    -16.3292E-03    -16.2070E-03     32.3094E-03    -16.1017E-03     4.85813E-03     34.7875E-03     161.709E+06     4.65684E+06     2.53069E+06    -158.104E+06     2.96558E+06    -158.064E+06     4.18140E+06     2.20394E+06
             848     21.8870E-03     3.93715E-03     21.5300E-03     32.3510E-03    -16.0857E-03    -16.2646E-03    -16.1769E-03     32.2632E-03    -16.0857E-03     4.10691E-03     33.8430E-03     168.469E+06     3.05082E+06     952.387E+03    -166.458E+06     1.88715E+06    -166.451E+06     2.10882E+06     1.03261E+06
             849     21.7272E-03     2.95297E-03     21.5256E-03     32.3001E-03    -16.0576E-03    -16.2370E-03    -16.1731E-03     32.2424E-03    -16.0639E-03     3.30888E-03     33.1529E-03     173.330E+06     2.91212E+06     1.02402E+06    -171.353E+06     2.11749E+06    -171.350E+06     1.81528E+06     591.088E+03
             850     21.6119E-03     1.96895E-03     21.5221E-03     32.1433E-03    -16.0129E-03    -16.1255E-03    -16.0553E-03     32.1118E-03    -16.0516E-03     2.39971E-03     32.6101E-03     179.126E+06     4.10632E+06     1.24670E+06    -176.426E+06     1.87250E+06    -176.421E+06     3.47604E+06     530.158E+03
             851     21.5430E-03     984.473E-06     21.5205E-03     32.0850E-03    -15.9703E-03    -16.1147E-03    -16.0427E-03     32.0725E-03    -16.0297E-03     1.39391E-03     32.4672E-03     183.656E+06     2.75187E+06     82.8316E+03    -182.217E+06     631.232E+03    -182.212E+06     2.19904E+06     369.698E+03
             852     26.9775E-03     16.7298E-03     21.1637E-03     225.193E-03    -16.5837E-03    -208.639E-03    -47.3750E-03     63.9285E-03    -16.5837E-03     419.252E-03     615.392E-03     191.458E+06     211.012E+06     106.250E+06    -7.80710E+06    -7.79319E+06     210.998E+06     106.250E+06     595.392E+03
             853     26.0178E-03     15.7492E-03     20.7096E-03     142.941E-03    -16.0536E-03    -126.900E-03    -34.3941E-03     50.4344E-03    -16.0536E-03     254.834E-03     326.081E-03     170.189E+06     166.548E+06     28.1775E+06    -20.2807E+06    -13.1348E+06     166.457E+06     21.1230E+06     1.33393E+06
             854     25.3597E-03     14.7652E-03     20.6181E-03     46.8152E-03    -15.6782E-03    -31.1384E-03    -16.8469E-03     32.5237E-03    -15.6782E-03     56.4605E-03     105.697E-03     135.774E+06     93.2540E+06    -11.5292E+06    -54.5076E+06    -11.3435E+06     93.0683E+06    -54.5076E+06     1.61993E+06
             855     24.7767E-03     13.7801E-03     20.5911E-03     33.6013E-03    -15.6365E-03    -17.9577E-03    -16.1537E-03     31.7972E-03    -15.6365E-03     18.0606E-03     71.7693E-03     85.2182E+06     23.9767E+06    -9.17955E+06    -71.4204E+06    -7.35913E+06     22.1562E+06    -71.4204E+06     1.38174E+06
             856     24.2319E-03     12.7963E-03     20.5777E-03     32.5608E-03    -15.7797E-03    -16.7959E-03    -16.1736E-03     31.9385E-03    -15.7797E-03     10.9652E-03     57.0291E-03     45.6993E+06    -1.81096E+06    -19.4875E+06    -50.9524E+06    -3.41050E+06    -23.0358E+06    -45.8046E+06     1.58692E+06
             857     23.7162E-03     11.8117E-03     20.5655E-03     32.5385E-03    -15.8705E-03    -16.7174E-03    -16.2500E-03     32.0711E-03    -15.8705E-03     9.54067E-03     51.7478E-03     49.3350E+06    -615.345E+03    -29.0132E+06    -56.5188E+06    -786.798E+03    -56.3474E+06    -29.0132E+06     2.17179E+06
             858     23.2318E-03     10.8278E-03     20.5542E-03     32.6060E-03    -15.8834E-03    -16.7727E-03    -16.3693E-03     32.2026E-03    -15.8834E-03     8.88230E-03     48.0273E-03     74.5501E+06     1.22113E+06    -23.4351E+06    -82.2555E+06     1.11298E+06    -82.1473E+06    -23.4351E+06     2.69049E+06
             859     22.7801E-03     9.84354E-03     20.5435E-03     32.4990E-03    -15.9040E-03    -16.6231E-03    -16.3045E-03     32.1804E-03    -15.9040E-03     7.84772E-03     44.1207E-03     95.9861E+06     3.26677E+06    -13.1776E+06    -99.6874E+06     3.12362E+06    -99.5442E+06    -13.1776E+06     3.44626E+06
             860     22.3639E-03     8.85949E-03     20.5343E-03     32.3848E-03    -15.9247E-03    -16.4652E-03    -16.2243E-03     32.1438E-03    -15.9247E-03     6.82768E-03     41.1583E-03     116.019E+06     4.81802E+06    -4.95976E+06    -115.723E+06     4.66106E+06    -115.566E+06    -4.95976E+06     3.74104E+06
             861     21.9843E-03     7.87504E-03     20.5254E-03     32.3514E-03    -15.9346E-03    -16.4190E-03    -16.2169E-03     32.1494E-03    -15.9346E-03     6.24275E-03     38.9492E-03     132.990E+06     4.81577E+06     595.722E+03    -130.149E+06     4.62557E+06    -130.004E+06     640.759E+03     3.95627E+06
             862     21.6436E-03     6.89113E-03     20.5173E-03     32.2787E-03    -15.9290E-03    -16.3498E-03    -16.1849E-03     32.1138E-03    -15.9290E-03     5.63593E-03     37.0938E-03     144.139E+06     5.88563E+06     4.72627E+06    -138.825E+06     4.70308E+06    -138.708E+06     5.79255E+06     3.94092E+06
             863     21.3440E-03     5.90690E-03     20.5104E-03     32.1424E-03    -15.9007E-03    -16.2390E-03    -16.1050E-03     32.0084E-03    -15.9007E-03     5.07161E-03     35.5243E-03     153.659E+06     6.37943E+06     4.38076E+06    -148.266E+06     4.75226E+06    -148.176E+06     5.91756E+06     3.69348E+06
             864     21.0862E-03     4.92249E-03     20.5036E-03     32.0183E-03    -15.8668E-03    -16.1510E-03    -16.0488E-03     31.9161E-03    -15.8668E-03     4.40915E-03     34.3012E-03     160.229E+06     5.05187E+06     3.08693E+06    -156.151E+06     4.47622E+06    -156.091E+06     3.60248E+06     2.97911E+06
             865     20.8735E-03     3.93827E-03     20.4986E-03     31.8810E-03    -15.8466E-03    -16.0354E-03    -15.9644E-03     31.8100E-03    -15.8466E-03     3.66296E-03     33.3255E-03     168.092E+06     3.91462E+06     2.22907E+06    -165.013E+06     3.65635E+06    -164.986E+06     2.46055E+06     1.94022E+06
             866     20.7053E-03     2.95373E-03     20.4936E-03     31.7057E-03    -15.8028E-03    -15.8998E-03    -15.8118E-03     31.6610E-03    -15.8460E-03     2.87865E-03     32.5335E-03     173.194E+06     2.44505E+06     955.927E+03    -171.489E+06     1.94695E+06    -171.476E+06     1.44112E+06     1.22294E+06
             867     20.5854E-03     1.96879E-03     20.4910E-03     31.7240E-03    -15.8241E-03    -15.8977E-03    -15.8214E-03     31.6991E-03    -15.8755E-03     2.12302E-03     32.1647E-03     177.728E+06     4.22998E+06     684.286E+03    -175.237E+06     1.21225E+06    -175.228E+06     3.69260E+06     927.067E+03
             868     20.5117E-03     984.381E-06     20.4881E-03     31.7498E-03    -15.8229E-03    -15.9274E-03    -15.8825E-03     31.7400E-03    -15.8580E-03     1.14702E-03     32.1153E-03     181.813E+06     2.77799E+06    -933.356E+03    -180.855E+06    -384.951E+03    -180.851E+06     2.22516E+06     437.962E+03
             869     26.1660E-03     16.7289E-03     20.1197E-03     226.169E-03    -16.6802E-03    -209.507E-03    -47.8909E-03     64.5528E-03    -16.6802E-03     420.748E-03     616.095E-03     192.448E+06     211.314E+06     109.211E+06    -8.10525E+06    -8.08906E+06     211.298E+06     109.211E+06     675.559E+03
             870     25.2033E-03     15.7495E-03     19.6765E-03     140.675E-03    -16.0642E-03    -124.621E-03    -35.3484E-03     51.4030E-03    -16.0642E-03     249.426E-03     322.962E-03     169.434E+06     166.187E+06     29.4570E+06    -20.6046E+06    -11.7972E+06     166.122E+06     20.7148E+06     1.23290E+06
             871     24.5267E-03     14.7651E-03     19.5844E-03     47.1020E-03    -15.6075E-03    -31.4969E-03    -17.4447E-03     33.0499E-03    -15.6075E-03     56.1306E-03     104.778E-03     136.511E+06     92.9677E+06    -11.7536E+06    -56.5372E+06    -11.5790E+06     92.7931E+06    -56.5372E+06     991.982E+03
             872     23.9267E-03     13.7820E-03     19.5587E-03     33.8102E-03    -15.5271E-03    -18.2859E-03    -16.6007E-03     32.1250E-03    -15.5271E-03     17.5363E-03     70.9561E-03     87.9175E+06     25.1478E+06    -9.88087E+06    -73.3712E+06    -7.52304E+06     22.7900E+06    -73.3712E+06     1.37920E+06
             873     23.3619E-03     12.7974E-03     19.5449E-03     32.5849E-03    -15.6338E-03    -16.9770E-03    -16.4148E-03     32.0227E-03    -15.6338E-03     10.4381E-03     56.3500E-03     47.4666E+06    -2.16353E+06    -21.9467E+06    -52.5746E+06    -3.61897E+06    -23.6703E+06    -49.3956E+06     1.77712E+06
             874     22.8278E-03     11.8138E-03     19.5332E-03     32.4973E-03    -15.6961E-03    -16.8536E-03    -16.4366E-03     32.0803E-03    -15.6961E-03     9.01213E-03     51.1732E-03     50.2998E+06    -599.402E+03    -31.8990E+06    -57.0030E+06    -836.118E+03    -56.7663E+06    -31.8990E+06     2.66579E+06
             875     22.3244E-03     10.8295E-03     19.5218E-03     32.4257E-03    -15.6848E-03    -16.7946E-03    -16.4516E-03     32.0827E-03    -15.6848E-03     8.16156E-03     47.3812E-03     74.0436E+06     1.01435E+06    -25.6653E+06    -82.3541E+06     834.804E+03    -82.1746E+06    -25.6653E+06     3.36399E+06
             876     21.8545E-03     9.84569E-03     19.5111E-03     32.2473E-03    -15.6838E-03    -16.5926E-03    -16.3404E-03     31.9952E-03    -15.6838E-03     6.93306E-03     43.5154E-03     94.3607E+06     2.02291E+06    -15.2324E+06    -99.4943E+06     1.88688E+06    -99.3583E+06    -15.2324E+06     3.42322E+06
             877     21.4212E-03     8.86146E-03     19.5023E-03     32.0572E-03    -15.6814E-03    -16.3803E-03    -16.1935E-03     31.8704E-03    -15.6814E-03     5.98673E-03     40.5641E-03     114.697E+06     3.01331E+06    -6.64257E+06    -116.149E+06     2.85605E+06    -115.992E+06    -6.64257E+06     3.98663E+06
             878     21.0250E-03     7.87754E-03     19.4934E-03     31.9201E-03    -15.6566E-03    -16.2697E-03    -16.1110E-03     31.7614E-03    -15.6566E-03     5.50867E-03     38.2969E-03     130.167E+06     4.46269E+06    -2.24124E+06    -128.846E+06     4.32816E+06    -128.711E+06    -2.24124E+06     3.98415E+06
             879     20.6690E-03     6.89295E-03     19.4857E-03     31.7586E-03    -15.6316E-03    -16.1320E-03    -16.0057E-03     31.6324E-03    -15.6316E-03     4.88983E-03     36.3855E-03     142.073E+06     5.50740E+06     2.45428E+06    -138.012E+06     5.29135E+06    -137.915E+06     2.57302E+06     3.69328E+06
             880     20.3550E-03     5.90854E-03     19.4785E-03     31.5906E-03    -15.6033E-03    -15.9847E-03    -15.8860E-03     31.4919E-03    -15.6033E-03     4.29914E-03     34.8481E-03     153.025E+06     5.70107E+06     4.73917E+06    -147.802E+06     5.32579E+06    -147.697E+06     5.00969E+06     3.98144E+06
             881     20.0856E-03     4.92403E-03     19.4727E-03     31.4281E-03    -15.5594E-03    -15.8675E-03    -15.7904E-03     31.3510E-03    -15.5594E-03     3.79794E-03     33.6239E-03     158.864E+06     5.40224E+06     3.60644E+06    -154.351E+06     5.15695E+06    -154.257E+06     3.75822E+06     3.82114E+06
             882     19.8615E-03     3.93943E-03     19.4669E-03     31.2710E-03    -15.5324E-03    -15.7407E-03    -15.6883E-03     31.2186E-03    -15.5324E-03     3.07951E-03     32.6639E-03     167.955E+06     4.78974E+06     3.34731E+06    -163.879E+06     4.49123E+06    -163.812E+06     3.57880E+06     3.25110E+06
             883     19.6865E-03     2.95458E-03     19.4635E-03     31.1215E-03    -15.4739E-03    -15.6480E-03    -15.5802E-03     31.0907E-03    -15.5108E-03     2.37210E-03     31.9182E-03     173.651E+06     4.28829E+06     3.08517E+06    -169.960E+06     3.60246E+06    -169.911E+06     3.72211E+06     2.80034E+06
             884     19.5587E-03     1.96978E-03     19.4593E-03     31.0367E-03    -15.4529E-03    -15.5852E-03    -15.5319E-03     31.0205E-03    -15.4899E-03     1.65136E-03     31.4349E-03     175.994E+06     3.91594E+06     810.502E+03    -173.606E+06     1.32123E+06    -173.580E+06     3.37856E+06     1.66408E+06
             885     19.4827E-03     985.089E-06     19.4578E-03     30.9308E-03    -15.4051E-03    -15.5272E-03    -15.4709E-03     30.9266E-03    -15.4573E-03     820.735E-06     31.2515E-03     179.529E+06     1.73419E+06    -1.83098E+06    -179.548E+06    -834.255E+03    -179.546E+06     735.533E+03     125.162E+03
             886     25.3614E-03     16.7235E-03     19.0664E-03     226.988E-03    -16.6787E-03    -210.336E-03    -48.2595E-03     64.9118E-03    -16.6787E-03     422.266E-03     615.804E-03     191.614E+06     210.473E+06     109.787E+06    -8.29701E+06    -8.27793E+06     210.454E+06     109.787E+06     337.672E+03
             887     24.4053E-03     15.7497E-03     18.6432E-03     136.965E-03    -16.0324E-03    -120.937E-03    -34.9845E-03     51.0124E-03    -16.0324E-03     241.560E-03     320.003E-03     169.348E+06     166.265E+06     30.6345E+06    -20.3027E+06    -12.3802E+06     166.217E+06     22.7598E+06     444.432E+03
             888     23.7098E-03     14.7668E-03     18.5499E-03     46.9353E-03    -15.5158E-03    -31.4223E-03    -18.2564E-03     33.7694E-03    -15.5158E-03     54.0531E-03     103.496E-03     134.087E+06     92.6594E+06    -11.4933E+06    -53.7097E+06    -11.2839E+06     92.4501E+06    -53.7097E+06     1.37866E+06
             889     23.0908E-03     13.7833E-03     18.5258E-03     33.6751E-03    -15.3788E-03    -18.3071E-03    -16.9859E-03     32.3540E-03    -15.3788E-03     15.4811E-03     70.2122E-03     85.8258E+06     23.9738E+06    -9.74455E+06     -71.952E+06    -8.38040E+06     22.6097E+06     -71.952E+06     1.91997E+06
             890     22.5066E-03     12.8002E-03     18.5123E-03     32.4946E-03    -15.4379E-03    -17.0945E-03    -16.6745E-03     32.0746E-03    -15.4379E-03     8.97756E-03     55.6560E-03     48.2499E+06    -2.82624E+06    -23.0382E+06    -53.7855E+06    -5.02545E+06    -23.7205E+06    -50.9039E+06     2.33628E+06
             891     21.9520E-03     11.8159E-03     18.5007E-03     32.3292E-03    -15.4592E-03    -16.9276E-03    -16.6250E-03     32.0266E-03    -15.4592E-03     7.63624E-03     50.6005E-03     49.9473E+06    -2.24107E+06    -34.4091E+06    -58.1387E+06    -2.53511E+06    -57.8446E+06    -34.4091E+06     3.10804E+06
             892     21.4290E-03     10.8325E-03     18.4894E-03     32.1776E-03    -15.4119E-03    -16.8210E-03    -16.5806E-03     31.9372E-03    -15.4119E-03     6.76927E-03     46.6781E-03     72.2526E+06    -222.077E+03    -27.3537E+06    -81.8123E+06    -441.522E+03    -81.5928E+06    -27.3537E+06     3.84691E+06
             893     20.9399E-03     9.84854E-03     18.4793E-03     31.8677E-03    -15.3826E-03    -16.5180E-03    -16.3541E-03     31.7038E-03    -15.3826E-03     5.53024E-03     42.7467E-03     93.6750E+06     1.65354E+06    -16.4365E+06    -99.4570E+06     1.46622E+06    -99.2697E+06    -16.4365E+06     4.13044E+06
             894     20.4876E-03     8.86444E-03     18.4707E-03     31.5686E-03    -15.3427E-03    -16.2325E-03    -16.1121E-03     31.4482E-03    -15.3427E-03     4.72352E-03     39.7601E-03     113.744E+06     3.16821E+06    -8.49599E+06    -115.941E+06     3.03661E+06    -115.810E+06    -8.49599E+06     3.83262E+06
             895     20.0736E-03     7.87981E-03     18.4623E-03     31.3172E-03    -15.2875E-03    -16.0335E-03    -15.9282E-03     31.2120E-03    -15.2875E-03     4.37853E-03     37.4168E-03     127.875E+06     4.04567E+06    -4.66177E+06    -127.908E+06     3.93174E+06    -127.794E+06    -4.66177E+06     3.84752E+06
             896     19.7008E-03     6.89563E-03     18.4546E-03     31.0943E-03    -15.2451E-03    -15.8523E-03    -15.7710E-03     31.0129E-03    -15.2451E-03     3.84330E-03     35.5191E-03     139.845E+06     3.90760E+06     455.488E+03    -137.581E+06     3.77578E+06    -137.449E+06     455.488E+03     4.28901E+06
             897     19.3717E-03     5.91091E-03     18.4479E-03     30.8733E-03    -15.1991E-03    -15.6722E-03    -15.6110E-03     30.8121E-03    -15.1991E-03     3.33399E-03     33.9873E-03     150.743E+06     4.11325E+06     3.49301E+06    -146.938E+06     3.63790E+06    -146.813E+06     3.84328E+06     4.31809E+06
             898     19.0883E-03     4.92611E-03     18.4417E-03     30.5955E-03    -15.1385E-03    -15.4561E-03    -15.4087E-03     30.5480E-03    -15.1385E-03     2.90292E-03     32.6757E-03     156.343E+06     3.59888E+06     2.36459E+06    -153.356E+06     3.11326E+06    -153.220E+06     2.71486E+06     4.57803E+06
             899     18.8534E-03     3.94092E-03     18.4369E-03     30.4336E-03    -15.0948E-03    -15.3395E-03    -15.3080E-03     30.4021E-03    -15.0948E-03     2.33561E-03     31.7431E-03     164.531E+06     3.09073E+06     1.79417E+06    -162.082E+06     2.60242E+06    -161.978E+06     2.17792E+06     4.01342E+06
             900     18.6681E-03     2.95599E-03     18.4325E-03     30.3451E-03    -15.0358E-03    -15.3093E-03    -15.2905E-03     30.3263E-03    -15.0358E-03     1.82769E-03     31.0941E-03     170.397E+06     3.23305E+06     2.37006E+06    -167.592E+06     2.33165E+06    -167.525E+06     3.20426E+06     3.37165E+06
             901     18.5347E-03     1.97107E-03     18.4296E-03     30.0747E-03    -14.9537E-03    -15.1212E-03    -15.1109E-03     30.0644E-03    -14.9537E-03     1.29059E-03     30.4477E-03     174.173E+06     3.20989E+06     1.82844E+06    -171.646E+06     1.78809E+06    -171.606E+06     3.20989E+06     2.31631E+06
             902     18.4537E-03     985.379E-06     18.4274E-03     29.8183E-03    -14.8274E-03    -14.9909E-03    -14.9361E-03     29.8157E-03    -14.8795E-03     617.495E-06     30.0997E-03     179.294E+06     2.40990E+06    -212.765E+03    -178.176E+06     775.323E+03    -178.166E+06     1.41124E+06     926.154E+03
             903     24.5997E-03     16.7348E-03     18.0303E-03     226.844E-03    -16.5101E-03    -210.388E-03    -49.4260E-03     65.8818E-03    -16.5101E-03     421.709E-03     612.515E-03     190.939E+06     210.880E+06     112.305E+06    -6.68093E+06    -6.65841E+06     210.857E+06     112.305E+06     1.48705E+06
             904     23.6230E-03     15.7508E-03     17.6056E-03     134.360E-03    -15.8310E-03    -118.535E-03    -34.0205E-03     49.8458E-03    -15.8310E-03     236.374E-03     316.577E-03     168.673E+06     165.589E+06     29.4687E+06    -19.6336E+06    -12.9297E+06     165.561E+06     22.7922E+06     355.141E+03
             905     22.9125E-03     14.7704E-03     17.5163E-03     45.7363E-03    -15.2946E-03    -30.4443E-03    -18.8323E-03     34.1242E-03    -15.2946E-03     50.1283E-03     101.840E-03     133.103E+06     91.8179E+06    -13.2140E+06    -52.9095E+06    -13.0443E+06     91.6482E+06    -52.9095E+06     1.02470E+06
             906     22.2727E-03     13.7875E-03     17.4923E-03     33.2122E-03    -15.1153E-03    -18.1100E-03    -17.1468E-03     32.2490E-03    -15.1153E-03     12.8132E-03     69.2347E-03     83.7205E+06     24.0048E+06    -10.8864E+06    -70.0421E+06    -9.28432E+06     22.4028E+06    -70.0421E+06     2.63181E+06
             907     21.6673E-03     12.8036E-03     17.4797E-03     32.1609E-03    -15.1430E-03    -17.0609E-03    -16.8220E-03     31.9219E-03    -15.1430E-03     6.70989E-03     54.8660E-03     46.2445E+06    -2.83218E+06    -21.9869E+06    -52.7168E+06    -5.86255E+06    -23.5497E+06    -48.1235E+06     3.15998E+06
             908     21.0916E-03     11.8204E-03     17.4681E-03     31.9499E-03    -15.1156E-03    -16.8899E-03    -16.7139E-03     31.7739E-03    -15.1156E-03     5.76183E-03     49.8125E-03     48.5447E+06    -2.94882E+06    -33.3490E+06    -57.9909E+06    -3.18324E+06    -57.7565E+06    -33.3490E+06     2.86655E+06
             909     20.5472E-03     10.8365E-03     17.4574E-03     31.6913E-03    -15.0298E-03    -16.7041E-03    -16.5759E-03     31.5631E-03    -15.0298E-03     4.86206E-03     45.7463E-03     73.3718E+06     758.661E+03    -26.2930E+06    -81.8563E+06     614.064E+03    -81.7117E+06    -26.2930E+06     3.10994E+06
             910     20.0374E-03     9.85264E-03     17.4477E-03     31.3116E-03    -14.9703E-03    -16.3639E-03    -16.2822E-03     31.2299E-03    -14.9703E-03     3.78746E-03     41.7891E-03     96.1531E+06     4.05664E+06    -14.0265E+06    -99.6467E+06     3.87866E+06    -99.4687E+06    -14.0265E+06     3.96155E+06
             911     19.5648E-03     8.86838E-03     17.4395E-03     30.9344E-03    -14.8992E-03    -16.0379E-03    -15.9854E-03     30.8819E-03    -14.8992E-03     3.02096E-03     38.8159E-03     115.620E+06     4.97799E+06    -5.02694E+06    -115.257E+06     4.78666E+06    -115.066E+06    -5.02694E+06     4.66995E+06
             912     19.1317E-03     7.88411E-03     17.4317E-03     30.5175E-03    -14.8097E-03    -15.7075E-03    -15.6630E-03     30.4730E-03    -14.8097E-03     2.77543E-03     36.3380E-03     128.970E+06     4.35931E+06    -1.95609E+06    -127.621E+06     4.17407E+06    -127.436E+06    -1.95609E+06     4.83866E+06
             913     18.7403E-03     6.89896E-03     17.4242E-03     30.1859E-03    -14.7312E-03    -15.4560E-03    -15.4199E-03     30.1497E-03    -14.7312E-03     2.46855E-03     34.3691E-03     139.870E+06     4.43565E+06     1.41244E+06    -136.881E+06     4.28759E+06    -136.733E+06     1.41244E+06     4.55767E+06
             914     18.3944E-03     5.91407E-03     17.4177E-03     29.8960E-03    -14.6634E-03    -15.2337E-03    -15.2068E-03     29.8691E-03    -14.6634E-03     2.07361E-03     32.8350E-03     151.116E+06     5.39550E+06     4.16128E+06    -146.329E+06     4.15110E+06    -146.184E+06     5.25989E+06     4.66257E+06
             915     18.0964E-03     4.92880E-03     17.4122E-03     29.5619E-03    -14.5834E-03    -14.9799E-03    -14.9601E-03     29.5420E-03    -14.5834E-03     1.78805E-03     31.5116E-03     156.965E+06     5.40055E+06     3.50496E+06    -152.501E+06     3.55753E+06    -152.340E+06     5.18662E+06     5.00163E+06
             916     17.8484E-03     3.94340E-03     17.4073E-03     29.3334E-03    -14.5112E-03    -14.8226E-03    -14.8080E-03     29.3187E-03    -14.5112E-03     1.56896E-03     30.5481E-03     163.136E+06     4.38814E+06     3.15233E+06    -159.361E+06     3.22671E+06    -159.221E+06     4.17420E+06     4.65139E+06
             917     17.6527E-03     2.95780E-03     17.4031E-03     29.1260E-03    -14.4288E-03    -14.6967E-03    -14.6875E-03     29.1168E-03    -14.4288E-03     1.19680E-03     29.8215E-03     168.235E+06     3.23928E+06     2.21451E+06    -165.504E+06     2.67718E+06    -165.426E+06     2.69832E+06     3.44560E+06
             918     17.5118E-03     1.97192E-03     17.4005E-03     28.8711E-03    -14.3472E-03    -14.5237E-03    -14.5196E-03     28.8671E-03    -14.3472E-03     758.785E-06     29.2143E-03     172.438E+06     4.12097E+06     2.29344E+06    -169.216E+06     2.80522E+06    -169.187E+06     3.58001E+06     2.07739E+06
             919     17.4269E-03     986.265E-06     17.3990E-03     28.6028E-03    -14.2203E-03    -14.3825E-03    -14.3812E-03     28.6015E-03    -14.2203E-03     388.182E-06     28.8986E-03     177.536E+06     2.97069E+06     631.362E+03    -175.717E+06     1.01287E+06    -175.694E+06     2.56595E+06     1.94068E+06
             920     23.8533E-03     16.7359E-03     16.9968E-03     226.116E-03    -16.3007E-03    -209.868E-03    -51.6962E-03     67.9446E-03    -16.3007E-03     419.231E-03     608.778E-03     191.402E+06     210.594E+06     114.193E+06    -7.39098E+06    -7.37322E+06     210.576E+06     114.193E+06     1.03845E+06
             921     22.8652E-03     15.7579E-03     16.5682E-03     133.585E-03    -15.5161E-03    -118.077E-03    -34.7354E-03     50.2435E-03    -15.5161E-03     234.437E-03     312.669E-03     168.514E+06     166.674E+06     32.1246E+06    -18.6164E+06    -11.7763E+06     166.649E+06     25.3096E+06     2.02618E+06
             922     22.1360E-03     14.7759E-03     16.4826E-03     44.2069E-03    -14.9242E-03    -29.2854E-03    -18.9164E-03     33.8379E-03    -14.9242E-03     46.2681E-03     99.3167E-03     132.233E+06     91.2999E+06    -12.9897E+06    -52.5470E+06    -12.9218E+06     91.2320E+06    -52.5470E+06     1.23159E+06
             923     21.4743E-03     13.7929E-03     16.4591E-03     32.6403E-03    -14.7081E-03    -17.9417E-03    -17.2521E-03     31.9506E-03    -14.7081E-03     10.3329E-03     67.6676E-03     83.0943E+06     23.1251E+06    -11.0915E+06    -70.0197E+06    -9.43493E+06     21.4685E+06    -70.0197E+06     1.89496E+06
             924     20.8474E-03     12.8099E-03     16.4475E-03     31.6120E-03    -14.7003E-03    -16.9419E-03    -16.8314E-03     31.5015E-03    -14.7003E-03     4.53713E-03     53.6596E-03     46.3151E+06    -2.12290E+06    -20.8907E+06    -51.9751E+06    -4.58004E+06    -23.3320E+06    -47.0766E+06     3.14708E+06
             925     20.2482E-03     11.8259E-03     16.4359E-03     31.3223E-03    -14.6343E-03    -16.7253E-03    -16.6403E-03     31.2373E-03    -14.6343E-03     3.92070E-03     48.5714E-03     48.6553E+06    -1.05393E+06    -32.1339E+06    -56.3489E+06    -1.29901E+06    -56.1039E+06    -32.1339E+06     2.58975E+06
             926     19.6816E-03     10.8423E-03     16.4259E-03     30.9993E-03    -14.5165E-03    -16.5068E-03    -16.4557E-03     30.9482E-03    -14.5165E-03     2.94678E-03     44.4973E-03     74.6084E+06     1.32106E+06    -25.1877E+06    -82.2306E+06     1.24427E+06    -82.1538E+06    -25.1877E+06     2.17183E+06
             927     19.1493E-03     9.85809E-03     16.4169E-03     30.5641E-03    -14.4235E-03    -16.1510E-03    -16.1256E-03     30.5387E-03    -14.4235E-03     1.93307E-03     40.5253E-03     97.5236E+06     3.88446E+06    -12.3846E+06    -100.586E+06     3.76192E+06    -100.463E+06    -12.3846E+06     3.41345E+06
             928     18.6547E-03     8.87381E-03     16.4089E-03     30.0866E-03    -14.3146E-03    -15.7720E-03    -15.7592E-03     30.0737E-03    -14.3146E-03     1.21321E-03     37.5399E-03     117.352E+06     5.60484E+06    -2.59498E+06    -115.571E+06     5.38631E+06    -115.353E+06    -2.59498E+06     5.07530E+06
             929     18.2004E-03     7.88882E-03     16.4019E-03     29.5569E-03    -14.1836E-03    -15.3769E-03    -15.3656E-03     29.5456E-03    -14.1836E-03     1.03965E-03     35.0513E-03     130.497E+06     6.59587E+06     1.69546E+06    -126.258E+06     6.34039E+06    -126.002E+06     1.69546E+06     5.75643E+06
             930     17.7891E-03     6.90387E-03     16.3948E-03     29.0222E-03    -14.0627E-03    -14.9629E-03    -14.9541E-03     29.0135E-03    -14.0627E-03     913.305E-06     32.9013E-03     140.760E+06     6.58388E+06     3.62620E+06    -135.592E+06     6.16654E+06    -135.412E+06     3.86381E+06     4.89356E+06
             931     17.4245E-03     5.91821E-03     16.3887E-03     28.5984E-03    -13.9686E-03    -14.6310E-03    -14.6261E-03     28.5934E-03    -13.9686E-03     673.492E-06     31.3060E-03     152.636E+06     7.18401E+06     5.73703E+06    -146.167E+06     5.69460E+06    -146.030E+06     7.08885E+06     4.55185E+06
             932     17.1099E-03     4.93242E-03     16.3835E-03     28.2447E-03    -13.8625E-03    -14.3841E-03    -14.3798E-03     28.2405E-03    -13.8625E-03     620.050E-06     30.0340E-03     157.825E+06     7.71645E+06     5.86479E+06    -151.023E+06     5.85518E+06    -150.859E+06     7.56206E+06     5.06364E+06
             933     16.8477E-03     3.94629E-03     16.3790E-03     27.8892E-03    -13.7643E-03    -14.1256E-03    -14.1213E-03     27.8850E-03    -13.7643E-03     619.099E-06     28.9963E-03     163.628E+06     6.67645E+06     5.54315E+06    -157.514E+06     5.88729E+06    -157.363E+06     6.18127E+06     4.94027E+06
             934     16.6406E-03     2.95997E-03     16.3753E-03     27.5732E-03    -13.6830E-03    -13.8905E-03    -13.8883E-03     27.5709E-03    -13.6830E-03     467.305E-06     28.1998E-03     168.492E+06     5.98841E+06     4.53008E+06    -163.227E+06     5.83465E+06    -163.128E+06     4.58515E+06     3.92514E+06
             935     16.4913E-03     1.97353E-03     16.3728E-03     27.3780E-03    -13.6258E-03    -13.7523E-03    -13.7516E-03     27.3774E-03    -13.6258E-03     220.091E-06     27.6790E-03     172.266E+06     6.17984E+06     3.82465E+06    -167.247E+06     4.83249E+06    -167.192E+06     5.11737E+06     2.87923E+06
             936     16.4011E-03     986.752E-06     16.3714E-03     27.1869E-03    -13.5504E-03    -13.6366E-03    -13.6363E-03     27.1865E-03    -13.5504E-03     9.31934E-06     27.5011E-03     175.774E+06     5.22454E+06     3.33032E+06    -171.482E+06     3.70035E+06    -171.448E+06     4.81980E+06     2.02851E+06
             937     23.1258E-03     16.7400E-03     15.9554E-03     223.845E-03    -16.0714E-03    -207.823E-03    -54.1816E-03     70.2034E-03    -16.0714E-03     413.334E-03     602.218E-03     189.907E+06     208.633E+06     109.182E+06    -8.41237E+06    -8.40071E+06     208.622E+06     109.182E+06     214.014E+03
             938     22.1301E-03     15.7636E-03     15.5322E-03     131.910E-03    -15.1434E-03    -116.775E-03    -36.3768E-03     51.5118E-03    -15.1434E-03     230.051E-03     307.434E-03     168.419E+06     167.134E+06     31.4640E+06    -16.9570E+06    -12.4109E+06     167.091E+06     26.9604E+06     1.77957E+06
             939     21.3822E-03     14.7830E-03     15.4486E-03     42.7381E-03    -14.4574E-03    -28.2829E-03    -18.9751E-03     33.4304E-03    -14.4574E-03     43.0167E-03     96.1072E-03     133.232E+06     93.4972E+06    -11.9015E+06    -50.3685E+06    -11.8212E+06     93.4169E+06    -50.3685E+06     2.10169E+06
             940     20.6988E-03     13.8005E-03     15.4268E-03     31.9540E-03    -14.1903E-03    -17.7704E-03    -17.2468E-03     31.4304E-03    -14.1903E-03     8.48342E-03     65.6336E-03     83.5976E+06     22.2766E+06    -10.6111E+06    -71.0898E+06    -8.67545E+06     20.3409E+06    -71.0898E+06     1.55584E+06
             941     20.0477E-03     12.8167E-03     15.4156E-03     30.9942E-03    -14.1499E-03    -16.8617E-03    -16.8160E-03     30.9485E-03    -14.1499E-03     2.85826E-03     52.1644E-03     44.2681E+06    -3.79638E+06    -20.4498E+06    -50.8917E+06    -4.85588E+06    -23.3170E+06    -46.9650E+06     2.23444E+06
             942     19.4253E-03     11.8333E-03     15.4050E-03     30.5944E-03    -14.0513E-03    -16.5663E-03    -16.5324E-03     30.5605E-03    -14.0513E-03     2.40026E-03     47.1429E-03     47.3497E+06    -781.830E+03    -29.7531E+06    -54.3800E+06    -1.00769E+06    -54.1541E+06    -29.7531E+06     2.21936E+06
             943     18.8337E-03     10.8490E-03     15.3950E-03     30.2437E-03    -13.8944E-03    -16.3710E-03    -16.3568E-03     30.2295E-03    -13.8944E-03     1.15914E-03     43.0945E-03     76.1925E+06     1.88271E+06    -22.1941E+06    -82.7788E+06     1.82232E+06    -82.7184E+06    -22.1941E+06     1.89888E+06
             944     18.2776E-03     9.86504E-03     15.3868E-03     29.6514E-03    -13.7507E-03    -15.9151E-03    -15.9089E-03     29.6451E-03    -13.7507E-03     47.9315E-06     39.0076E-03     99.0836E+06     3.80177E+06    -10.4619E+06    -101.538E+06     3.70708E+06    -101.444E+06    -10.4619E+06     2.98278E+06
             945     17.7590E-03     8.88018E-03     15.3793E-03     29.0381E-03    -13.5947E-03    -15.4457E-03    -15.4402E-03     29.0326E-03    -13.5947E-03    -519.104E-06     35.9831E-03     118.936E+06     5.76142E+06    -922.651E+03    -116.304E+06     5.62208E+06    -116.164E+06    -922.651E+03     4.07186E+06
             946     17.2818E-03     7.89534E-03     15.3729E-03     28.4063E-03    -13.4192E-03    -14.9904E-03    -14.9840E-03     28.3999E-03    -13.4192E-03    -709.427E-06     33.4823E-03     132.040E+06     7.93465E+06     4.95597E+06    -125.558E+06     7.73908E+06    -125.362E+06     4.95597E+06     4.97689E+06
             947     16.8486E-03     6.90955E-03     15.3666E-03     27.6814E-03    -13.2496E-03    -14.4346E-03    -14.4276E-03     27.6744E-03    -13.2496E-03    -719.209E-06     31.2175E-03     142.632E+06     10.1751E+06     7.38839E+06    -133.821E+06     9.73271E+06    -133.617E+06     7.62599E+06     5.29594E+06
             948     16.4639E-03     5.92337E-03     15.3615E-03     27.0851E-03    -13.1067E-03    -13.9802E-03    -13.9737E-03     27.0785E-03    -13.1067E-03    -707.457E-06     29.5133E-03     154.401E+06     10.2515E+06     8.06595E+06    -145.227E+06     9.62799E+06    -145.055E+06     8.51766E+06     5.10977E+06
             949     16.1304E-03     4.93677E-03     15.3563E-03     26.5993E-03    -12.9644E-03    -13.6369E-03    -13.6314E-03     26.5938E-03    -12.9644E-03    -637.948E-06     28.1858E-03     158.091E+06     8.59352E+06     7.08020E+06    -150.247E+06     8.20332E+06    -150.071E+06     7.29430E+06     5.27111E+06
             950     15.8524E-03     3.95004E-03     15.3524E-03     26.1236E-03    -12.8453E-03    -13.2800E-03    -13.2758E-03     26.1195E-03    -12.8453E-03    -544.292E-06     27.0964E-03     162.813E+06     7.33425E+06     6.19735E+06    -156.044E+06     7.14924E+06    -155.859E+06     6.19735E+06     5.42183E+06
             951     15.6325E-03     2.96265E-03     15.3492E-03     25.7063E-03    -12.7571E-03    -12.9506E-03    -12.9477E-03     25.7034E-03    -12.7571E-03    -408.004E-06     26.2466E-03     166.322E+06     6.68840E+06     4.65397E+06    -160.639E+06     6.55501E+06    -160.505E+06     4.65397E+06     4.53417E+06
             952     15.4734E-03     1.97510E-03     15.3468E-03     25.5039E-03    -12.7257E-03    -12.7793E-03    -12.7775E-03     25.5022E-03    -12.7258E-03    -339.857E-06     25.7627E-03     170.800E+06     7.95293E+06     5.56790E+06    -164.023E+06     6.96683E+06    -163.960E+06     6.49122E+06     3.12298E+06
             953     15.3774E-03     987.640E-06     15.3456E-03     25.4461E-03    -12.6823E-03    -12.7646E-03    -12.7634E-03     25.4450E-03    -12.6824E-03    -355.283E-06     25.7307E-03     176.113E+06     8.76502E+06     7.42426E+06    -168.012E+06     7.39887E+06    -167.987E+06     8.76502E+06     1.61275E+06
             954     22.4218E-03     16.7438E-03     14.9125E-03     220.516E-03    -15.7721E-03    -204.808E-03    -57.1616E-03     72.8694E-03    -15.7721E-03     404.929E-03     591.990E-03     188.625E+06     208.275E+06     105.758E+06    -7.13386E+06    -7.11432E+06     208.256E+06     105.758E+06     1.23206E+06
             955     21.4195E-03     15.7716E-03     14.4932E-03     128.640E-03    -14.6757E-03    -113.970E-03    -36.9823E-03     51.6525E-03    -14.6757E-03     223.234E-03     299.707E-03     167.592E+06     167.176E+06     28.8418E+06    -15.3092E+06    -11.4258E+06     167.111E+06     25.0236E+06     1.11259E+06
             956     20.6553E-03     14.7915E-03     14.4172E-03     41.2507E-03    -13.9327E-03    -27.3230E-03    -18.8765E-03     32.8042E-03    -13.9327E-03     40.3682E-03     93.1191E-03     134.350E+06     94.0851E+06    -12.4158E+06    -50.7786E+06    -12.1232E+06     93.7925E+06    -50.7786E+06     2.26522E+06
             957     19.9459E-03     13.8077E-03     14.3940E-03     31.3710E-03    -13.6267E-03    -17.7501E-03    -17.2776E-03     30.8986E-03    -13.6267E-03     7.42537E-03     63.6842E-03     84.2454E+06     23.3041E+06    -11.4388E+06    -71.3940E+06    -9.45536E+06     21.3207E+06    -71.3940E+06     2.78492E+06
             958     19.2719E-03     12.8251E-03     14.3849E-03     30.3582E-03    -13.5292E-03    -16.8467E-03    -16.8278E-03     30.3393E-03    -13.5292E-03     1.74775E-03     50.6783E-03     45.0379E+06    -2.88355E+06    -22.4860E+06    -50.9604E+06    -5.05016E+06    -22.0369E+06    -49.2429E+06     682.474E+03
             959     18.6232E-03     11.8408E-03     14.3743E-03     29.9864E-03    -13.3795E-03    -16.6337E-03    -16.6178E-03     29.9706E-03    -13.3795E-03     1.48855E-03     45.8251E-03     49.3537E+06    -152.704E+03    -30.5170E+06    -55.5025E+06    -187.023E+03    -54.1219E+06    -31.8633E+06     601.536E+03
             960     18.0065E-03     10.8574E-03     14.3650E-03     29.4828E-03    -13.1782E-03    -16.3314E-03    -16.3249E-03     29.4762E-03    -13.1782E-03    -229.063E-06     41.6342E-03     77.4697E+06     3.19812E+06    -21.6840E+06    -83.1904E+06     3.12025E+06    -83.1126E+06    -21.6840E+06     2.17709E+06
             961     17.4245E-03     9.87281E-03     14.3576E-03     28.7053E-03    -12.9734E-03    -15.7524E-03    -15.7360E-03     28.6889E-03    -12.9734E-03    -1.54024E-03     37.4108E-03     100.421E+06     5.02668E+06    -10.2298E+06    -101.964E+06     4.93455E+06    -101.872E+06    -10.2298E+06     2.81633E+06
             962     16.8806E-03     8.88790E-03     14.3513E-03     27.9028E-03    -12.7539E-03    -15.1526E-03    -15.1241E-03     27.8742E-03    -12.7539E-03    -2.06464E-03     34.2847E-03     119.181E+06     6.26121E+06    -1.33572E+06    -116.478E+06     6.17272E+06    -116.389E+06    -1.33572E+06     3.20473E+06
             963     16.3778E-03     7.90223E-03     14.3453E-03     27.0637E-03    -12.5128E-03    -14.5524E-03    -14.5150E-03     27.0263E-03    -12.5128E-03    -2.32030E-03     31.6402E-03     130.910E+06     7.89629E+06     2.52900E+06    -125.586E+06     7.81294E+06    -125.503E+06     2.52900E+06     3.08748E+06
             964     15.9211E-03     6.91620E-03     14.3404E-03     26.2107E-03    -12.2890E-03    -13.9232E-03    -13.8844E-03     26.1719E-03    -12.2890E-03    -2.33259E-03     29.3658E-03     141.457E+06     9.75177E+06     5.60183E+06    -133.724E+06     9.57699E+06    -133.549E+06     5.60183E+06     4.55771E+06
             965     15.5132E-03     5.92938E-03     14.3353E-03     25.4214E-03    -12.0981E-03    -13.3252E-03    -13.2906E-03     25.3869E-03    -12.0981E-03    -2.17245E-03     27.5480E-03     153.889E+06     10.5174E+06     8.43136E+06    -144.399E+06     10.2673E+06    -144.156E+06     8.43837E+06     6.09928E+06
             966     15.1597E-03     4.94214E-03     14.3315E-03     24.7048E-03    -11.9181E-03    -12.7884E-03    -12.7595E-03     24.6759E-03    -11.9181E-03    -1.94616E-03     26.0739E-03     159.063E+06     10.8264E+06     8.96442E+06    -149.157E+06     10.6105E+06    -148.948E+06     8.97143E+06     5.77184E+06
             967     14.8633E-03     3.95414E-03     14.3277E-03     24.1239E-03    -11.7718E-03    -12.3535E-03    -12.3305E-03     24.1009E-03    -11.7718E-03    -1.70804E-03     24.9511E-03     164.870E+06     11.3245E+06     9.60669E+06    -154.397E+06     11.1303E+06    -154.202E+06     9.60669E+06     5.56338E+06
             968     14.6290E-03     2.96613E-03     14.3251E-03     23.6213E-03    -11.6588E-03    -11.9636E-03    -11.9476E-03     23.6053E-03    -11.6588E-03    -1.39000E-03     24.0775E-03     168.574E+06     12.0659E+06     10.4516E+06    -157.306E+06     11.9087E+06    -157.149E+06     10.4516E+06     4.95390E+06
             969     14.4589E-03     1.97745E-03     14.3230E-03     23.2833E-03    -11.6014E-03    -11.6824E-03    -11.6741E-03     23.2751E-03    -11.6015E-03    -1.00191E-03     23.4967E-03     171.397E+06     13.2824E+06     10.7023E+06    -159.386E+06     11.6382E+06    -159.305E+06     12.2660E+06     3.33838E+06
             970     14.3556E-03     988.679E-06     14.3215E-03     23.1578E-03    -11.5412E-03    -11.6168E-03    -11.5863E-03     23.1535E-03    -11.5673E-03    -722.391E-06     23.4048E-03     175.538E+06     10.5346E+06     8.53532E+06    -165.991E+06     8.51809E+06    -165.974E+06     10.5346E+06     1.58092E+06
             971     21.7454E-03     16.7531E-03     13.8635E-03     216.944E-03    -15.4846E-03    -201.522E-03    -60.0993E-03     75.5212E-03    -15.4846E-03     395.857E-03     580.863E-03     188.200E+06     208.361E+06     107.192E+06    -5.87361E+06    -5.84367E+06     208.331E+06     107.192E+06     1.13754E+06
             972     20.7412E-03     15.7809E-03     13.4595E-03     125.335E-03    -14.2040E-03    -111.131E-03    -37.1685E-03     51.3724E-03    -14.2040E-03     216.893E-03     290.280E-03     166.452E+06     165.838E+06     28.4171E+06    -16.3851E+06    -9.85677E+06     165.685E+06     22.0425E+06     2.75368E+06
             973     19.9523E-03     14.7978E-03     13.3836E-03     40.5329E-03    -13.4155E-03    -27.1218E-03    -18.8645E-03     32.2757E-03    -13.4155E-03     39.3354E-03     90.4203E-03     133.321E+06     93.2823E+06    -11.2924E+06    -51.6885E+06    -10.9130E+06     92.9028E+06    -51.6885E+06     3.06849E+06
             974     19.2215E-03     13.8166E-03     13.3630E-03     31.0183E-03    -13.0717E-03    -17.9491E-03    -17.5289E-03     30.5982E-03    -13.0717E-03     6.75319E-03     62.0636E-03     84.8001E+06     25.7880E+06    -8.24861E+06    -69.1323E+06    -6.80675E+06     24.3461E+06    -69.1323E+06     2.33908E+06
             975     18.5203E-03     12.8322E-03     13.3543E-03     29.9105E-03    -12.9141E-03    -17.0103E-03    -16.9994E-03     29.8995E-03    -12.9141E-03     1.24618E-03     49.4858E-03     46.6116E+06    -303.508E+03    -19.4180E+06    -49.8362E+06    -2.30440E+06    -19.6267E+06    -47.6266E+06     172.009E+03
             976     17.8457E-03     11.8494E-03     13.3440E-03     29.4710E-03    -12.7054E-03    -16.7944E-03    -16.7843E-03     29.4608E-03    -12.7054E-03     946.265E-06     44.7663E-03     50.8702E+06    -123.979E+03    -30.4145E+06    -57.1748E+06    -141.663E+03    -55.8108E+06    -31.7608E+06     46.3403E+03
             977     17.2016E-03     10.8653E-03     13.3357E-03     28.8116E-03    -12.4363E-03    -16.4065E-03    -16.3891E-03     28.7942E-03    -12.4363E-03    -1.19544E-03     40.3759E-03     77.7934E+06     2.72599E+06    -21.1632E+06    -83.7542E+06     2.67154E+06    -83.6998E+06    -21.1632E+06     1.48351E+06
             978     16.5926E-03     9.88111E-03     13.3296E-03     27.8925E-03    -12.1561E-03    -15.7584E-03    -15.7120E-03     27.8462E-03    -12.1561E-03    -2.74148E-03     36.0474E-03     101.646E+06     6.27768E+06    -8.70688E+06    -101.868E+06     6.21320E+06    -101.803E+06    -8.70688E+06     2.02160E+06
             979     16.0209E-03     8.89600E-03     13.3240E-03     26.8650E-03    -11.8558E-03    -15.0126E-03    -14.9379E-03     26.7903E-03    -11.8558E-03    -3.44317E-03     32.7697E-03     121.167E+06     9.26884E+06     763.528E+03    -115.882E+06     9.22748E+06    -115.841E+06     763.528E+03     1.99777E+06
             980     15.4914E-03     7.91021E-03     13.3196E-03     25.7783E-03    -11.5512E-03    -14.2290E-03    -14.1277E-03     25.6770E-03    -11.5512E-03    -3.92651E-03     29.9286E-03     134.624E+06     11.2643E+06     6.25716E+06    -125.763E+06     10.8003E+06    -125.695E+06     6.65246E+06     2.49118E+06
             981     15.0076E-03     6.92342E-03     13.3152E-03     24.6946E-03    -11.2622E-03    -13.4334E-03    -13.3255E-03     24.5868E-03    -11.2622E-03    -3.94629E-03     27.5196E-03     145.779E+06     11.7603E+06     8.77821E+06    -135.475E+06     10.5387E+06    -135.327E+06     9.85176E+06     4.17979E+06
             982     14.5752E-03     5.93620E-03     13.3116E-03     23.6420E-03    -10.9987E-03    -12.6434E-03    -12.5474E-03     23.5459E-03    -10.9987E-03    -3.62642E-03     25.5005E-03     155.299E+06     12.5938E+06     11.1834E+06    -143.403E+06     11.3328E+06    -143.207E+06     12.2486E+06     5.36898E+06
             983     14.1982E-03     4.94787E-03     13.3082E-03     22.6745E-03    -10.7601E-03    -11.9150E-03    -11.8372E-03     22.5967E-03    -10.7601E-03    -3.18986E-03     23.8386E-03     160.499E+06     13.4844E+06     12.3813E+06    -147.560E+06     12.9297E+06    -147.392E+06     12.7682E+06     5.07402E+06
             984     13.8820E-03     3.95926E-03     13.3054E-03     21.9108E-03    -10.5638E-03    -11.3467E-03    -11.2882E-03     21.8523E-03    -10.5638E-03    -2.71988E-03     22.5958E-03     166.249E+06     14.7458E+06     12.9206E+06    -152.405E+06     14.6053E+06    -152.265E+06     12.9206E+06     4.71828E+06
             985     13.6306E-03     2.96978E-03     13.3031E-03     21.3053E-03    -10.4073E-03    -10.8976E-03    -10.8572E-03     21.2649E-03    -10.4073E-03    -2.21408E-03     21.6758E-03     169.916E+06     16.0970E+06     14.6242E+06    -154.549E+06     15.6698E+06    -154.409E+06     14.9117E+06     4.80142E+06
             986     13.4482E-03     1.98027E-03     13.3016E-03     20.7889E-03    -10.2939E-03    -10.4949E-03    -10.4737E-03     20.7678E-03    -10.2939E-03    -1.53610E-03     20.9583E-03     171.942E+06     16.9093E+06     14.5101E+06    -156.212E+06     14.4224E+06    -156.048E+06     16.8331E+06     4.98455E+06
             987     13.3372E-03     990.227E-06     13.3004E-03     20.4681E-03    -10.1897E-03    -10.2778E-03    -10.2438E-03     20.4602E-03    -10.2157E-03    -969.244E-06     20.6733E-03     174.470E+06     14.7721E+06     11.3003E+06    -161.401E+06     12.4282E+06    -161.308E+06     13.5507E+06     2.40535E+06
             988     21.0876E-03     16.7535E-03     12.8065E-03     213.357E-03    -15.3132E-03    -198.107E-03    -61.9086E-03     77.1590E-03    -15.3132E-03     387.231E-03     569.919E-03     187.666E+06     205.790E+06     105.508E+06    -7.80897E+06    -7.79138E+06     205.772E+06     105.508E+06    -185.549E+03
             989     20.0884E-03     15.7851E-03     12.4248E-03     121.556E-03    -13.8770E-03    -107.676E-03    -38.2429E-03     52.1222E-03    -13.8770E-03     208.280E-03     280.024E-03     166.180E+06     164.134E+06     26.2523E+06    -17.0997E+06    -12.1739E+06     164.007E+06     21.4542E+06     2.61036E+06
             990     19.2813E-03     14.8059E-03     12.3513E-03     40.4520E-03    -12.9937E-03    -27.4591E-03    -19.4745E-03     32.4675E-03    -12.9937E-03     38.9462E-03     87.8542E-03     131.503E+06     94.7600E+06    -9.70511E+06    -47.3938E+06    -9.53815E+06     94.5930E+06    -47.3938E+06     2.34046E+06
             991     18.5236E-03     13.8223E-03     12.3316E-03     30.9052E-03    -12.5876E-03    -18.3205E-03    -17.9051E-03     30.4898E-03    -12.5876E-03     6.63644E-03     60.7023E-03     81.5093E+06     27.7490E+06    -5.71379E+06    -63.7631E+06    -4.43770E+06     26.4729E+06    -63.7631E+06     1.00664E+06
             992     17.7980E-03     12.8407E-03     12.3242E-03     29.7380E-03    -12.3771E-03    -17.3738E-03    -17.3552E-03     29.7194E-03    -12.3771E-03     1.42116E-03     48.8682E-03     43.8548E+06     1.18811E+06    -15.2548E+06    -46.4541E+06    -1.34345E+06    -18.7638E+06    -40.4136E+06     1.28324E+06
             993     17.0948E-03     11.8567E-03     12.3146E-03     29.1779E-03    -12.0937E-03    -17.1095E-03    -17.0908E-03     29.1592E-03    -12.0937E-03     1.00380E-03     44.1533E-03     49.6683E+06     578.868E+03    -25.1144E+06    -55.7424E+06     441.503E+03    -55.6051E+06    -25.1144E+06     603.974E+03
             994     16.4225E-03     10.8736E-03     12.3070E-03     28.3936E-03    -11.7298E-03    -16.6937E-03    -16.6630E-03     28.3629E-03    -11.7298E-03    -1.84810E-03     39.4569E-03     79.7150E+06     3.69299E+06    -16.6042E+06    -83.7744E+06     3.65947E+06    -83.7409E+06    -16.6042E+06    -711.474E+03
             995     15.7843E-03     9.88926E-03     12.3022E-03     27.2619E-03    -11.3624E-03    -15.9188E-03    -15.8356E-03     27.1786E-03    -11.3624E-03    -3.72069E-03     35.0056E-03     105.097E+06     7.75077E+06    -3.19156E+06    -102.267E+06     7.73002E+06    -102.246E+06    -3.19156E+06    -316.008E+03
             996     15.1832E-03     8.90430E-03     12.2981E-03     25.9883E-03    -10.9685E-03    -15.0218E-03    -14.8884E-03     25.8550E-03    -10.9685E-03    -4.60202E-03     31.5309E-03     124.238E+06     10.5794E+06     6.36990E+06    -115.650E+06     10.5597E+06    -115.631E+06     6.37018E+06     594.587E+03
             997     14.6239E-03     7.91834E-03     12.2947E-03     24.6102E-03    -10.5767E-03    -14.0353E-03    -13.8558E-03     24.4307E-03    -10.5767E-03    -5.20629E-03     28.4302E-03     139.274E+06     13.5768E+06     11.0806E+06    -126.918E+06     11.6927E+06    -126.867E+06     12.9144E+06     2.04873E+06
             998     14.1117E-03     6.93143E-03     12.2921E-03     23.1618E-03    -10.2033E-03    -12.9600E-03    -12.7671E-03     22.9689E-03    -10.2033E-03    -5.22619E-03     25.7172E-03     151.277E+06     16.5819E+06     13.0315E+06    -136.433E+06     12.9508E+06    -136.352E+06     16.5819E+06     3.18729E+06
             999     13.6511E-03     5.94312E-03     12.2895E-03     21.7998E-03    -9.85842E-03    -11.9401E-03    -11.7683E-03     21.6280E-03    -9.85842E-03    -4.76325E-03     23.4458E-03     158.420E+06     17.3009E+06     14.8076E+06    -142.348E+06     14.7298E+06    -142.270E+06     17.3009E+06     3.28495E+06
            1000     13.2485E-03     4.95430E-03     12.2873E-03     20.6105E-03    -9.55798E-03    -11.0509E-03    -10.9114E-03     20.4711E-03    -9.55798E-03    -4.15098E-03     21.6127E-03     162.841E+06     17.1131E+06     16.2393E+06    -146.161E+06     16.2475E+06    -146.072E+06     17.0157E+06     3.61879E+06
            1001     12.9091E-03     3.96420E-03     12.2854E-03     19.6078E-03    -9.31409E-03    -10.2919E-03    -10.1891E-03     19.5051E-03    -9.31409E-03    -3.45152E-03     20.1804E-03     168.375E+06     17.9119E+06     16.1345E+06    -151.339E+06     16.8723E+06    -151.236E+06     17.0715E+06     4.06497E+06
            1002     12.6387E-03     2.97396E-03     12.2838E-03     18.8309E-03    -9.11634E-03    -9.71326E-03    -9.64690E-03     18.7645E-03    -9.11634E-03    -2.70938E-03     19.1328E-03     170.637E+06     18.6442E+06     16.5602E+06    -153.021E+06     17.1916E+06    -152.909E+06     17.9012E+06     4.27882E+06
            1003     12.4419E-03     1.98287E-03     12.2829E-03     18.2399E-03    -8.95664E-03    -9.28263E-03    -9.24666E-03     18.2040E-03    -8.95664E-03    -1.92365E-03     18.3815E-03     171.982E+06     20.1614E+06     17.8485E+06    -152.958E+06     17.7126E+06    -152.822E+06     20.1614E+06     4.28534E+06
            1004     12.3220E-03     991.541E-06     12.2820E-03     17.7576E-03    -8.79985E-03    -8.95754E-03    -8.92326E-03     17.7437E-03    -8.82021E-03    -1.12974E-03     17.9534E-03     174.975E+06     21.6701E+06     17.3647E+06    -155.415E+06     18.4803E+06    -155.309E+06     20.4487E+06     2.77709E+06
            1005     20.4589E-03     16.7532E-03     11.7429E-03     210.613E-03    -15.2730E-03    -195.413E-03    -63.2267E-03     78.4271E-03    -15.2730E-03     380.378E-03     560.500E-03     187.835E+06     205.265E+06     105.873E+06    -8.64299E+06    -8.62995E+06     205.252E+06     105.873E+06    -495.996E+03
            1006     19.4678E-03     15.7900E-03     11.3873E-03     115.520E-03    -13.6681E-03    -101.853E-03    -39.8018E-03     53.4688E-03    -13.6681E-03     193.886E-03     268.502E-03     164.987E+06     163.107E+06     27.5291E+06    -17.3311E+06    -11.8275E+06     163.091E+06     22.0417E+06    -166.045E+03
            1007     18.6399E-03     14.8096E-03     11.3190E-03     40.2981E-03    -12.6386E-03    -27.6626E-03    -20.3975E-03     33.0329E-03    -12.6386E-03     37.2137E-03     84.8444E-03     130.825E+06     96.4855E+06    -9.68260E+06    -45.3065E+06    -9.61992E+06     96.4228E+06    -45.3065E+06     388.751E+03
            1008     17.8588E-03     13.8294E-03     11.2998E-03     30.8761E-03    -12.1710E-03    -18.7109E-03    -18.3495E-03     30.5147E-03    -12.1710E-03     5.97501E-03     59.0521E-03     78.6211E+06     28.9137E+06    -8.24695E+06    -59.9596E+06    -6.06779E+06     26.7346E+06    -59.9596E+06     658.158E+03
            1009     17.1050E-03     12.8457E-03     11.2946E-03     29.6490E-03    -11.9001E-03    -17.7640E-03    -17.7398E-03     29.6248E-03    -11.9001E-03     1.45004E-03     48.1538E-03     39.6892E+06     891.682E+03    -13.9625E+06    -42.9474E+06    -1.43912E+06    -19.0404E+06    -35.5387E+06     828.578E+03
            1010     16.3733E-03     11.8638E-03     11.2844E-03     29.1589E-03    -11.5399E-03    -17.6414E-03    -17.6139E-03     29.1314E-03    -11.5399E-03     969.963E-06     43.5716E-03     49.5733E+06     3.60537E+06    -17.9379E+06    -52.3566E+06     3.42240E+06    -52.1736E+06    -17.9379E+06    -676.393E+03
            1011     15.6717E-03     10.8807E-03     11.2789E-03     28.1532E-03    -11.0808E-03    -17.0980E-03    -17.0484E-03     28.1036E-03    -11.0808E-03    -2.52464E-03     38.6195E-03     83.3843E+06     6.97344E+06    -10.7415E+06    -83.5236E+06     6.89113E+06    -83.4413E+06    -10.7415E+06    -2.58479E+06
            1012     15.0027E-03     9.89707E-03     11.2752E-03     26.7334E-03    -10.6175E-03    -16.1328E-03    -16.0143E-03     26.6149E-03    -10.6175E-03    -4.44460E-03     34.1004E-03     109.120E+06     8.99644E+06     1.19641E+06    -103.669E+06     8.93754E+06    -103.610E+06     1.19641E+06    -2.30966E+06
            1013     14.3703E-03     8.91217E-03     11.2729E-03     25.1736E-03    -10.1308E-03    -15.0434E-03    -14.8594E-03     24.9895E-03    -10.1308E-03    -5.37719E-03     30.4086E-03     126.944E+06     11.4989E+06     9.72814E+06    -116.316E+06     10.7793E+06    -116.285E+06     10.4162E+06    -1.20985E+06
            1014     13.7791E-03     7.92612E-03     11.2713E-03     23.4874E-03    -9.65440E-03    -13.8325E-03    -13.5865E-03     23.2414E-03    -9.65440E-03    -6.01337E-03     27.0570E-03     143.828E+06     17.4978E+06     13.5652E+06    -128.239E+06     13.5414E+06    -128.215E+06     17.4978E+06    -293.731E+03
            1015     13.2352E-03     6.93863E-03     11.2705E-03     21.7382E-03    -9.20363E-03    -12.5345E-03    -12.2756E-03     21.4792E-03    -9.20363E-03    -5.92448E-03     24.1299E-03     155.870E+06     22.3390E+06     16.1221E+06    -136.543E+06     16.1054E+06    -136.526E+06     22.3390E+06     607.619E+03
            1016     12.7438E-03     5.95003E-03     11.2695E-03     20.0840E-03    -8.78940E-03    -11.2933E-03    -11.0614E-03     19.8520E-03    -8.78940E-03    -5.36161E-03     21.6164E-03     162.170E+06     22.9388E+06     17.5187E+06    -141.858E+06     17.5022E+06    -141.842E+06     22.9388E+06     1.23446E+06
            1017     12.3119E-03     4.95991E-03     11.2687E-03     18.6354E-03    -8.43846E-03    -10.1932E-03    -10.0039E-03     18.4461E-03    -8.43846E-03    -4.63886E-03     19.5602E-03     167.177E+06     22.9889E+06     18.4597E+06    -146.379E+06     18.5171E+06    -146.346E+06     22.8976E+06     1.80857E+06
            1018     11.9466E-03     3.96939E-03     11.2679E-03     17.4288E-03    -8.16026E-03    -9.26581E-03    -9.13029E-03     17.2932E-03    -8.16026E-03    -3.77207E-03     17.9593E-03     172.490E+06     24.3287E+06     19.7485E+06    -150.388E+06     19.7932E+06    -150.342E+06     24.2374E+06     2.38401E+06
            1019     11.6539E-03     2.97742E-03     11.2672E-03     16.5115E-03    -7.93743E-03    -8.57335E-03    -8.49115E-03     16.4293E-03    -7.93743E-03    -2.83384E-03     16.7970E-03     175.341E+06     24.9730E+06     21.8786E+06    -151.885E+06     21.8276E+06    -151.835E+06     24.9730E+06     2.21782E+06
            1020     11.4401E-03     1.98544E-03     11.2665E-03     15.8744E-03    -7.75616E-03    -8.11732E-03    -8.07353E-03     15.8306E-03    -7.75616E-03    -2.02254E-03     16.0527E-03     176.113E+06     26.5329E+06     24.5807E+06    -150.547E+06     24.5425E+06    -150.509E+06     26.5329E+06     1.70521E+06
            1021     11.3103E-03     993.069E-06     11.2666E-03     15.3464E-03    -7.58501E-03    -7.76145E-03    -7.72220E-03     15.3275E-03    -7.60537E-03    -1.24923E-03     15.6707E-03     176.954E+06     27.4336E+06     24.5253E+06    -150.954E+06     24.8714E+06    -150.923E+06     27.0568E+06     1.32570E+06
            1022     19.8559E-03     16.7495E-03     10.6635E-03     207.635E-03    -15.1672E-03    -192.539E-03    -65.0861E-03     80.1828E-03    -15.1672E-03     372.558E-03     549.350E-03     186.725E+06     205.921E+06     110.462E+06    -6.42052E+06    -6.40630E+06     205.907E+06     110.462E+06     209.422E+03
            1023     18.8825E-03     15.7928E-03     10.3508E-03     105.565E-03    -13.4178E-03    -92.1487E-03    -39.2686E-03     52.6851E-03    -13.4178E-03     172.756E-03     254.176E-03     164.880E+06     164.104E+06     29.9565E+06    -16.5701E+06    -10.5491E+06     164.064E+06     23.9754E+06    -1.22917E+06
            1024     18.0352E-03     14.8158E-03     10.2841E-03     39.4950E-03    -12.2932E-03    -27.2080E-03    -20.7540E-03     33.0409E-03    -12.2932E-03     34.0314E-03     81.2265E-03     130.245E+06     96.0456E+06    -10.2992E+06    -45.2588E+06    -10.2247E+06     95.9711E+06    -45.2588E+06    -470.590E+03
            1025     17.2292E-03     13.8339E-03     10.2698E-03     30.7135E-03    -11.7844E-03    -18.9362E-03    -18.7216E-03     30.4989E-03    -11.7844E-03     4.40508E-03     57.2623E-03     76.5377E+06     29.5779E+06    -8.90245E+06    -57.4312E+06    -6.63553E+06     27.3110E+06    -57.4312E+06     140.968E+03
            1026     16.4480E-03     12.8525E-03     10.2641E-03     29.5815E-03    -11.4454E-03    -18.1535E-03    -18.1265E-03     29.5545E-03    -11.4454E-03     1.35696E-03     47.4612E-03     38.3745E+06     2.42397E+06    -14.5822E+06    -40.1162E+06    -1.07123E+06    -17.0708E+06    -34.1324E+06    -2.04840E+06
            1027     15.6863E-03     11.8698E-03     10.2552E-03     29.0350E-03    -11.0243E-03    -18.0346E-03    -17.9960E-03     28.9963E-03    -11.0243E-03     554.781E-06     42.9088E-03     50.0662E+06     4.47602E+06    -15.0212E+06    -50.7906E+06     4.12751E+06    -50.4421E+06    -15.0212E+06    -3.75685E+06
            1028     14.9536E-03     10.8876E-03     10.2504E-03     27.7761E-03    -10.5091E-03    -17.2881E-03    -17.2148E-03     27.7029E-03    -10.5091E-03    -3.32712E-03     37.6702E-03     85.5805E+06     7.75819E+06    -5.11251E+06    -83.3364E+06     7.58421E+06    -83.1624E+06    -5.11251E+06    -3.79097E+06
            1029     14.2525E-03     9.90368E-03     10.2494E-03     26.1501E-03    -9.97578E-03    -16.1865E-03    -16.0377E-03     26.0013E-03    -9.97578E-03    -4.97651E-03     33.1943E-03     112.881E+06     11.4432E+06     4.60370E+06    -104.634E+06     9.69197E+06    -104.490E+06     6.21105E+06    -3.86418E+06
            1030     13.5858E-03     8.91883E-03     10.2483E-03     24.3469E-03    -9.42643E-03    -14.9194E-03    -14.6984E-03     24.1260E-03    -9.42643E-03    -5.82123E-03     29.3631E-03     131.268E+06     16.6120E+06     12.4734E+06    -116.663E+06     12.6000E+06    -116.468E+06     16.2905E+06    -4.51545E+06
            1031     12.9603E-03     7.93255E-03     10.2491E-03     22.4272E-03    -8.89562E-03    -13.5299E-03    -13.2485E-03     22.1458E-03    -8.89562E-03    -6.32665E-03     25.8699E-03     150.169E+06     23.7837E+06     16.6253E+06    -129.814E+06     16.4352E+06    -129.624E+06     23.7837E+06    -4.53227E+06
            1032     12.3812E-03     6.94471E-03     10.2502E-03     20.5157E-03    -8.40343E-03    -12.1125E-03    -11.8269E-03     20.2300E-03    -8.40343E-03    -6.07837E-03     22.8684E-03     163.600E+06     30.9120E+06     19.8097E+06    -137.927E+06     19.7255E+06    -137.842E+06     30.9120E+06    -2.84535E+06
            1033     11.8557E-03     5.95543E-03     10.2513E-03     18.6695E-03    -7.94996E-03    -10.7194E-03    -10.4657E-03     18.4159E-03    -7.94996E-03    -5.43614E-03     20.2048E-03     170.575E+06     34.2152E+06     21.5546E+06    -142.295E+06     21.5177E+06    -142.258E+06     34.2152E+06    -1.55221E+06
            1034     11.3909E-03     4.96508E-03     10.2518E-03     16.9873E-03    -7.56123E-03    -9.42422E-03    -9.22628E-03     16.7893E-03    -7.56123E-03    -4.54660E-03     17.9402E-03     176.188E+06     34.4044E+06     22.5988E+06    -147.357E+06     22.5751E+06    -147.334E+06     34.4044E+06    -1.09072E+06
            1035     10.9953E-03     3.97296E-03     10.2525E-03     15.6389E-03    -7.24242E-03    -8.39575E-03    -8.26161E-03     15.5047E-03    -7.24242E-03    -3.56594E-03     16.2490E-03     178.288E+06     33.0003E+06     24.2726E+06    -149.478E+06     24.2459E+06    -149.451E+06     33.0003E+06    -877.610E+03
            1036     10.6771E-03     2.98072E-03     10.2526E-03     14.6297E-03    -6.99614E-03    -7.63397E-03    -7.55587E-03     14.5516E-03    -6.99614E-03    -2.59761E-03     15.0247E-03     179.540E+06     31.3898E+06     25.8290E+06    -150.857E+06     25.8045E+06    -150.832E+06     31.3898E+06    -1.03991E+06
            1037     10.4435E-03     1.98735E-03     10.2527E-03     13.9163E-03    -6.82686E-03    -7.09024E-03    -7.05025E-03     13.8763E-03    -6.82686E-03    -1.81175E-03     14.2377E-03     180.217E+06     31.2171E+06     27.2849E+06    -150.927E+06     27.2443E+06    -150.887E+06     31.2171E+06    -1.44965E+06
            1038     10.3011E-03     993.622E-06     10.2531E-03     13.5055E-03    -6.69069E-03    -6.81538E-03    -6.79677E-03     13.4869E-03    -6.69069E-03    -1.18135E-03     14.0383E-03     179.202E+06     29.7988E+06     27.6183E+06    -150.478E+06     27.9524E+06    -150.433E+06     29.4188E+06    -466.791E+03
            1039     19.3119E-03     16.7627E-03     9.58970E-03     202.105E-03    -14.8163E-03    -187.331E-03    -66.6605E-03     81.4344E-03    -14.8163E-03     359.978E-03     531.976E-03     187.488E+06     206.827E+06     115.330E+06    -5.95224E+06    -5.92353E+06     206.799E+06     115.330E+06    -470.989E+03
            1040     18.3422E-03     15.8010E-03     9.31476E-03     95.7043E-03    -13.0312E-03    -82.6749E-03    -35.3645E-03     48.3940E-03    -13.0312E-03     154.887E-03     238.843E-03     165.453E+06     164.195E+06     30.4037E+06    -16.6695E+06    -12.1067E+06     164.104E+06     25.9318E+06    -861.217E+03
            1041     17.4699E-03     14.8197E-03     9.25052E-03     38.5864E-03    -11.9470E-03    -26.6468E-03    -20.7905E-03     32.7301E-03    -11.9470E-03     30.9715E-03     77.8592E-03     129.272E+06     96.1124E+06    -13.4723E+06    -42.9619E+06    -13.3110E+06     95.9512E+06    -42.9619E+06    -300.324E+03
            1042     16.6401E-03     13.8398E-03     9.23859E-03     30.2029E-03    -11.4184E-03    -18.7925E-03    -18.7008E-03     30.1112E-03    -11.4184E-03     2.53693E-03     55.6158E-03     73.9082E+06     31.5208E+06    -10.5219E+06    -52.5979E+06    -9.03824E+06     30.0372E+06    -52.5979E+06    -2.81645E+06
            1043     15.8297E-03     12.8570E-03     9.23444E-03     29.2957E-03    -11.0415E-03    -18.2715E-03    -18.2398E-03     29.2639E-03    -11.0415E-03     1.37826E-03     46.9905E-03     36.4192E+06     2.42389E+06    -12.9760E+06    -37.9081E+06    -3.45715E+06    -14.9688E+06    -30.0343E+06    -5.18974E+06
            1044     15.0378E-03     11.8757E-03     9.22507E-03     28.5574E-03    -10.5884E-03    -17.9922E-03    -17.9391E-03     28.5042E-03    -10.5884E-03     273.039E-06     42.0472E-03     49.1727E+06     671.271E+03    -11.0897E+06    -51.2178E+06    -144.454E+03    -50.4021E+06    -11.0897E+06    -5.91920E+06
            1045     14.2733E-03     10.8928E-03     9.22360E-03     27.1047E-03    -10.0526E-03    -17.0736E-03    -16.9864E-03     27.0175E-03    -10.0526E-03    -3.77602E-03     36.6072E-03     86.0024E+06     5.36863E+06    -1.32766E+06    -83.6864E+06     2.99331E+06    -83.1079E+06     469.086E+03    -6.60111E+06
            1046     13.5374E-03     9.90905E-03     9.22345E-03     25.3418E-03    -9.49184E-03    -15.8624E-03    -15.7069E-03     25.1863E-03    -9.49184E-03    -5.02374E-03     32.1955E-03     114.946E+06     14.0516E+06     7.64918E+06    -103.954E+06     8.64319E+06    -103.152E+06     12.2560E+06    -8.56423E+06
            1047     12.8352E-03     8.92386E-03     9.22540E-03     23.4220E-03    -8.93324E-03    -14.4888E-03    -14.2700E-03     23.2032E-03    -8.93324E-03    -5.70625E-03     28.3274E-03     137.487E+06     23.8012E+06     16.0195E+06    -117.388E+06     15.1382E+06    -116.507E+06     23.8012E+06    -10.1137E+06
            1048     12.1716E-03     7.93696E-03     9.22785E-03     21.4494E-03    -8.40384E-03    -13.0444E-03    -12.7883E-03     21.1933E-03    -8.40384E-03    -5.91073E-03     24.9225E-03     158.979E+06     32.4083E+06     19.7425E+06    -132.494E+06     19.1466E+06    -131.898E+06     32.4083E+06    -9.18449E+06
            1049     11.5543E-03     6.94877E-03     9.23125E-03     19.4945E-03    -7.90843E-03    -11.5849E-03    -11.3452E-03     19.2548E-03    -7.90843E-03    -5.41544E-03     21.9419E-03     172.440E+06     39.6315E+06     21.7049E+06    -141.045E+06     21.3269E+06    -140.667E+06     39.6315E+06    -7.41575E+06
            1050     10.9899E-03     5.95911E-03     9.23404E-03     17.6110E-03    -7.44738E-03    -10.1624E-03    -9.96140E-03     17.4099E-03    -7.44738E-03    -4.67607E-03     19.2964E-03     178.757E+06     43.3642E+06     23.6978E+06    -144.400E+06     23.4570E+06    -144.159E+06     43.3642E+06    -5.83817E+06
            1051     10.4881E-03     4.96775E-03     9.23696E-03     15.9253E-03    -7.03685E-03    -8.88960E-03    -8.74220E-03     15.7779E-03    -7.03685E-03    -3.77053E-03     17.0834E-03     182.015E+06     41.9758E+06     24.8014E+06    -148.005E+06     24.6361E+06    -147.840E+06     41.9758E+06    -4.89795E+06
            1052     10.0576E-03     3.97575E-03     9.23840E-03     14.5127E-03    -6.69280E-03    -7.82124E-03    -7.72812E-03     14.4195E-03    -6.69280E-03    -2.82707E-03     15.3694E-03     182.136E+06      37.625E+06     25.3995E+06    -150.287E+06     25.2609E+06    -150.148E+06      37.625E+06    -4.56181E+06
            1053     9.70930E-03     2.98230E-03     9.23994E-03     13.4349E-03    -6.43378E-03    -7.00166E-03    -6.95056E-03     13.3838E-03    -6.43378E-03    -1.98134E-03     14.1052E-03     181.394E+06     33.0233E+06     25.7684E+06    -151.880E+06     25.6419E+06    -151.754E+06     33.0233E+06    -4.37501E+06
            1054     9.45204E-03     1.98859E-03     9.24049E-03     12.7427E-03    -6.27510E-03    -6.46865E-03    -6.44415E-03     12.7182E-03    -6.27510E-03    -1.30852E-03     13.3401E-03     181.240E+06     30.9135E+06     25.2504E+06    -153.088E+06     25.1382E+06    -152.976E+06     30.9135E+06    -4.15810E+06
            1055     9.29457E-03     994.433E-06     9.24122E-03     12.3958E-03    -6.13364E-03    -6.26255E-03    -6.18491E-03     12.3841E-03    -6.19962E-03    -862.835E-06     13.1803E-03     179.404E+06     27.5557E+06     24.4109E+06    -153.383E+06     24.6052E+06    -153.326E+06     27.3040E+06    -1.68267E+06
            1056     18.8246E-03     16.7775E-03     8.53710E-03     196.841E-03    -14.5257E-03    -182.331E-03    -68.3057E-03     82.8162E-03    -14.5257E-03     347.702E-03     513.421E-03     188.910E+06     206.767E+06     118.005E+06    -7.69927E+06    -7.65633E+06     206.724E+06     118.005E+06    -592.742E+03
            1057     17.8383E-03     15.8019E-03     8.27673E-03     90.3952E-03    -12.6787E-03    -77.7185E-03    -33.8804E-03     46.5571E-03    -12.6787E-03     144.394E-03     224.172E-03     165.575E+06     163.587E+06     31.8623E+06    -17.1656E+06    -14.9039E+06     163.507E+06     29.6802E+06     1.04089E+06
            1058     16.9519E-03     14.8272E-03     8.21714E-03     36.7989E-03    -11.6000E-03    -25.2029E-03    -20.3733E-03     31.9692E-03    -11.6000E-03     27.3479E-03     73.7297E-03     131.394E+06     99.4719E+06    -16.1448E+06    -41.0542E+06    -17.2142E+06     99.3476E+06    -39.8606E+06    -664.204E+03
            1059     16.0952E-03     13.8444E-03     8.20913E-03     29.2925E-03    -11.0796E-03    -18.2214E-03    -18.1664E-03     29.2375E-03    -11.0796E-03     2.13023E-03     53.3797E-03     75.4219E+06     36.1657E+06    -16.0251E+06    -49.4473E+06    -14.0759E+06     34.2165E+06    -49.4473E+06    -5.57201E+06
            1060     15.2565E-03     12.8628E-03     8.20417E-03     28.6253E-03    -10.7239E-03    -17.9226E-03    -17.8636E-03     28.5664E-03    -10.7239E-03     2.10955E-03     46.1025E-03     34.4185E+06     1.30129E+06    -13.9354E+06    -37.2821E+06    -9.81011E+06    -14.2822E+06    -25.8240E+06    -8.43460E+06
            1061     14.4333E-03     11.8798E-03     8.19695E-03     27.7167E-03    -10.2849E-03    -17.4564E-03    -17.3739E-03     27.6341E-03    -10.2849E-03     745.140E-06     40.7627E-03     49.6620E+06    -1.15263E+06    -5.68562E+06    -52.5721E+06    -4.08348E+06    -50.0872E+06    -5.23968E+06    -9.69905E+06
            1062     13.6354E-03     10.8968E-03     8.19657E-03     26.0722E-03    -9.76935E-03    -16.3259E-03    -16.2579E-03     26.0043E-03    -9.76935E-03    -3.28819E-03     35.2547E-03     88.3238E+06     6.68002E+06     3.79537E+06    -83.0314E+06     1.98761E+06    -81.1037E+06     6.56009E+06    -12.3340E+06
            1063     12.8638E-03     9.91212E-03     8.19925E-03     24.2054E-03    -9.24371E-03    -14.9761E-03    -14.8766E-03     24.1059E-03    -9.24371E-03    -3.81159E-03     31.0737E-03     117.512E+06     16.8577E+06     10.8986E+06    -103.499E+06     8.44537E+06    -101.046E+06     16.8577E+06    -16.1487E+06
            1064     12.1225E-03     8.92601E-03     8.20256E-03     22.4170E-03    -8.74808E-03    -13.6685E-03    -13.5354E-03     22.2840E-03    -8.74808E-03    -4.21915E-03     27.4451E-03     143.384E+06     27.7699E+06     15.8938E+06    -121.137E+06     13.7610E+06    -119.004E+06     27.7699E+06    -16.5138E+06
            1065     11.4191E-03     7.93866E-03     8.20808E-03     20.5997E-03    -8.28320E-03    -12.3140E-03    -12.1718E-03     20.4575E-03    -8.28320E-03    -4.13147E-03     24.2745E-03     165.707E+06     37.5968E+06     19.1510E+06    -136.547E+06     17.7037E+06    -135.100E+06     37.5968E+06    -14.5105E+06
            1066     10.7588E-03     6.94971E-03     8.21296E-03     18.8445E-03    -7.83436E-03    -11.0070E-03    -10.8895E-03     18.7270E-03    -7.83436E-03    -3.52432E-03     21.5684E-03     179.123E+06     43.6415E+06     21.9932E+06    -145.313E+06     20.9234E+06    -144.243E+06     43.6415E+06    -12.9353E+06
            1067     10.1515E-03     5.95943E-03     8.21816E-03     17.2148E-03    -7.40397E-03    -9.80871E-03    -9.71849E-03     17.1245E-03    -7.40397E-03    -2.89854E-03     19.2562E-03     183.751E+06     45.1925E+06     23.3751E+06    -148.487E+06     22.6589E+06    -147.771E+06     45.1925E+06    -10.7044E+06
            1068     9.60657E-03     4.96834E-03     8.22203E-03     15.7216E-03    -7.00250E-03    -8.72137E-03    -8.66008E-03     15.6603E-03    -7.00250E-03    -2.20817E-03     17.2499E-03     183.506E+06     42.2473E+06     23.2574E+06    -150.008E+06     22.8033E+06    -149.554E+06     42.2473E+06    -8.65876E+06
            1069     9.13610E-03     3.97582E-03     8.22565E-03     14.3794E-03    -6.65514E-03    -7.72607E-03    -7.69092E-03     14.3442E-03    -6.65514E-03    -1.56567E-03     15.5767E-03     182.741E+06     36.5314E+06     22.5634E+06    -152.771E+06     22.1744E+06    -152.382E+06     36.5314E+06    -8.04901E+06
            1070     8.75151E-03     2.98269E-03     8.22755E-03     13.2964E-03    -6.39097E-03    -6.90601E-03    -6.88841E-03     13.2788E-03    -6.39097E-03    -995.674E-06     14.2851E-03     181.898E+06     30.4672E+06     22.4836E+06    -155.275E+06     22.1563E+06    -154.947E+06     30.4672E+06    -7.40317E+06
            1071     8.46608E-03     1.98861E-03     8.22921E-03     12.6208E-03    -6.23007E-03    -6.39114E-03    -6.38164E-03     12.6138E-03    -6.23256E-03    -552.292E-06     13.5251E-03     180.748E+06     26.9388E+06     20.9834E+06    -156.711E+06     20.8161E+06    -156.544E+06     26.9388E+06    -5.22656E+06
            1072     8.28982E-03     994.351E-06     8.22997E-03     12.2984E-03    -6.10006E-03    -6.19836E-03    -6.11445E-03     12.2957E-03    -6.18124E-03    -305.685E-06     13.3644E-03     178.373E+06     22.2180E+06     18.5048E+06    -157.965E+06     18.7069E+06    -157.918E+06     21.9695E+06    -2.64838E+06
            1073     18.3521E-03     16.7633E-03     7.46929E-03     190.155E-03    -14.5254E-03    -175.649E-03    -69.9100E-03     84.4160E-03    -14.5254E-03     331.102E-03     492.024E-03     187.733E+06     204.252E+06     114.193E+06    -10.2798E+06    -10.2520E+06     204.224E+06     114.193E+06    -306.746E+03
            1074     17.3906E-03     15.8132E-03     7.23712E-03     84.6615E-03    -12.5467E-03    -72.1170E-03    -35.9212E-03     48.4657E-03    -12.5467E-03     129.654E-03     207.439E-03     164.410E+06     164.168E+06     37.6871E+06    -15.7821E+06    -15.7058E+06     164.092E+06     37.6871E+06     1.83974E+06
            1075     16.4805E-03     14.8303E-03     7.18807E-03     35.2352E-03    -11.3701E-03    -23.8682E-03    -19.4394E-03     30.8064E-03    -11.3701E-03     26.5038E-03     69.0813E-03     133.241E+06     105.098E+06    -12.2703E+06    -37.6585E+06    -16.1832E+06     105.020E+06    -33.6680E+06     470.274E+03
            1076     15.5980E-03     13.8482E-03     7.17813E-03     28.4525E-03    -10.8672E-03    -17.5969E-03    -17.4596E-03     28.3152E-03    -10.8672E-03     4.27288E-03     50.9968E-03     79.4321E+06     41.7750E+06    -17.0774E+06    -48.4651E+06    -15.4009E+06     40.0985E+06    -48.4651E+06    -5.59020E+06
            1077     14.7311E-03     12.8648E-03     7.17659E-03     27.8378E-03    -10.5412E-03    -17.3223E-03    -17.1623E-03     27.6778E-03    -10.5412E-03     4.50552E-03     44.9778E-03     39.1945E+06     5.98243E+06    -17.8126E+06    -38.8837E+06    -11.7330E+06    -11.1783E+06    -27.8026E+06    -12.5021E+06
            1078     13.8768E-03     11.8819E-03     7.16826E-03     26.5398E-03    -10.1537E-03    -16.4138E-03    -16.2634E-03     26.3894E-03    -10.1537E-03     2.74811E-03     38.9881E-03     53.4045E+06     1.31844E+06    -10.5265E+06    -56.0814E+06    -5.62223E+06    -49.5867E+06    -10.0806E+06    -16.7394E+06
            1079     13.0457E-03     10.8973E-03     7.17195E-03     24.5969E-03    -9.75739E-03    -14.8586E-03    -14.8302E-03     24.5685E-03    -9.75739E-03    -862.048E-06     33.6486E-03     89.2933E+06     8.38637E+06     3.71201E+06    -83.0444E+06     1.83746E+06    -78.2030E+06     5.41955E+06    -19.6929E+06
            1080     12.2360E-03     9.91116E-03     7.17551E-03     23.0144E-03    -9.37916E-03    -13.6474E-03    -13.6133E-03     22.9803E-03    -9.37916E-03    -577.849E-06     30.1829E-03     119.907E+06     17.3007E+06     11.6185E+06    -105.325E+06     7.16554E+06    -100.872E+06     17.3007E+06    -22.1616E+06
            1081     11.4549E-03     8.92406E-03     7.18161E-03     21.6249E-03    -9.02213E-03    -12.6032E-03    -12.5623E-03     21.5840E-03    -9.02213E-03    -819.051E-06     26.9895E-03     147.448E+06     26.6568E+06     14.4874E+06    -126.469E+06     10.7365E+06    -122.718E+06     26.6568E+06    -22.3908E+06
            1082     10.7072E-03     7.93568E-03     7.18817E-03     20.3299E-03    -8.68190E-03    -11.6468E-03    -11.6049E-03     20.2881E-03    -8.68190E-03    -562.489E-06     24.4263E-03     169.932E+06     36.3022E+06     17.2575E+06    -142.318E+06     14.3546E+06    -139.416E+06     36.3022E+06    -21.0273E+06
            1083     10.0013E-03     6.94639E-03     7.19539E-03     19.1218E-03    -8.33121E-03    -10.7905E-03    -10.7570E-03     19.0883E-03    -8.33121E-03    -259.913E-06     22.2567E-03     182.123E+06     41.4472E+06     18.8658E+06    -150.912E+06     16.7785E+06    -148.825E+06     41.4472E+06    -18.4422E+06
            1084     9.34552E-03     5.95634E-03     7.20144E-03     17.9053E-03    -7.96360E-03    -9.94127E-03    -9.91488E-03     17.8789E-03    -7.96360E-03    -63.1179E-06     20.3520E-03     185.212E+06     40.7063E+06     19.5205E+06    -154.178E+06     18.0986E+06    -152.756E+06     40.7063E+06    -15.4223E+06
            1085     8.75207E-03     4.96519E-03     7.20733E-03     16.7096E-03    -7.60628E-03    -9.10483E-03    -9.08654E-03     16.6913E-03    -7.60628E-03     156.800E-06     18.6145E-03     184.709E+06     37.8801E+06     20.3247E+06    -154.964E+06     19.3086E+06    -153.948E+06     37.8801E+06    -13.0020E+06
            1086     8.23368E-03     3.97357E-03     7.21140E-03     15.5888E-03    -7.27974E-03    -8.31032E-03    -8.29733E-03     15.5759E-03    -7.27974E-03     270.752E-06     17.1191E-03     184.016E+06     33.1894E+06     20.3832E+06    -156.880E+06     19.6514E+06    -156.148E+06     33.1894E+06    -11.1596E+06
            1087     7.80685E-03     2.98082E-03     7.21537E-03     14.5952E-03    -7.01016E-03    -7.58611E-03    -7.57831E-03     14.5874E-03    -7.01016E-03     341.850E-06     15.8821E-03     182.933E+06     27.8150E+06     18.6083E+06    -159.540E+06     18.1663E+06    -159.098E+06     27.8150E+06    -8.70217E+06
            1088     7.48577E-03     1.98759E-03     7.21708E-03     13.8309E-03    -6.81906E-03    -7.01263E-03    -7.00614E-03     13.8269E-03    -6.82155E-03     337.756E-06     15.0165E-03     180.993E+06     22.7399E+06     15.9769E+06    -161.531E+06     15.7729E+06    -161.327E+06     22.7399E+06    -5.89128E+06
            1089     7.28659E-03     993.809E-06     7.21850E-03     13.4407E-03    -6.69507E-03    -6.74576E-03    -6.72800E-03     13.4381E-03    -6.71027E-03     311.867E-06     14.7508E-03     178.938E+06     15.9879E+06     12.2068E+06    -164.802E+06     12.1154E+06    -164.711E+06     15.9879E+06    -3.80994E+06
            1090     17.9399E-03     16.7672E-03     6.37961E-03     182.911E-03    -14.6242E-03    -168.319E-03    -71.4634E-03     86.0547E-03    -14.6242E-03     312.615E-03     466.635E-03     184.799E+06     204.550E+06     114.559E+06    -6.90039E+06    -6.75950E+06     204.409E+06     114.559E+06     2.72755E+06
            1091     16.9808E-03     15.8078E-03     6.20177E-03     74.9214E-03    -12.5754E-03    -62.3861E-03    -35.4519E-03     47.9872E-03    -12.5754E-03     107.701E-03     186.443E-03     163.520E+06     164.873E+06     41.6164E+06    -16.1237E+06    -16.0394E+06     164.789E+06     41.6164E+06     2.15917E+06
            1092     16.0578E-03     14.8308E-03     6.15644E-03     34.5948E-03    -11.3434E-03    -23.2903E-03    -18.9336E-03     30.2381E-03    -11.3434E-03     26.4026E-03     65.3939E-03     142.572E+06     110.915E+06    -8.77639E+06    -44.8852E+06    -17.4855E+06     110.836E+06    -36.0969E+06     492.135E+03
            1093     15.1520E-03     13.8472E-03     6.15115E-03     27.7681E-03    -10.8520E-03    -16.9411E-03    -16.6239E-03     27.4509E-03    -10.8520E-03     7.11675E-03     48.8062E-03     93.3112E+06     49.6766E+06    -15.5932E+06    -56.9744E+06    -13.8108E+06     47.8942E+06    -56.9744E+06    -6.04624E+06
            1094     14.2571E-03     12.8638E-03     6.14718E-03     26.9009E-03    -10.6354E-03    -16.2898E-03    -15.8660E-03     26.4771E-03    -10.6354E-03     8.04686E-03     43.6839E-03     44.1663E+06     10.4187E+06    -18.6798E+06    -40.1410E+06    -10.7386E+06    -4.92310E+06    -32.7403E+06    -14.1783E+06
            1095     13.3737E-03     11.8793E-03     6.14309E-03     25.0059E-03    -10.3856E-03    -14.6472E-03    -14.3455E-03     24.7042E-03    -10.3856E-03     5.85108E-03     36.8577E-03     54.6907E+06     3.24252E+06    -18.4923E+06    -57.4172E+06    -8.11565E+06    -46.0591E+06    -18.4923E+06    -22.4936E+06
            1096     12.5077E-03     10.8922E-03     6.14825E-03     23.1640E-03    -10.1887E-03    -12.9951E-03    -12.8007E-03     22.9696E-03    -10.1887E-03     3.95869E-03     32.3645E-03     88.4350E+06     6.84865E+06    -6.47676E+06    -87.0964E+06    -2.79114E+06    -78.1961E+06    -5.73719E+06    -26.9097E+06
            1097     11.6604E-03     9.90455E-03     6.15343E-03     22.4426E-03    -10.0489E-03    -12.4041E-03    -12.1690E-03     22.2075E-03    -10.0489E-03     4.67805E-03     30.0381E-03     119.520E+06     12.9973E+06     6.60049E+06    -109.501E+06     3.05889E+06    -102.634E+06     9.67139E+06    -27.4269E+06
            1098     10.8375E-03     8.91602E-03     6.16080E-03     21.7693E-03    -9.89880E-03    -11.8756E-03    -11.6648E-03     21.5585E-03    -9.89880E-03     4.38399E-03     27.4842E-03     148.162E+06     19.6248E+06     13.0402E+06    -131.687E+06     7.34646E+06    -125.993E+06     19.6248E+06    -27.9463E+06
            1099     10.0444E-03     7.92704E-03     6.16862E-03     21.3463E-03    -9.74080E-03    -11.6097E-03    -11.3950E-03     21.1317E-03    -9.74080E-03     4.53072E-03     25.8920E-03     172.328E+06     29.6656E+06     15.2844E+06    -149.332E+06     10.7325E+06    -144.781E+06     29.6656E+06    -26.7113E+06
            1100     9.28878E-03     6.93807E-03     6.17613E-03     20.8524E-03    -9.53134E-03    -11.3234E-03    -11.1480E-03     20.6770E-03    -9.53134E-03     4.16846E-03     24.3774E-03     185.712E+06     35.9292E+06     15.9705E+06    -158.933E+06     12.7518E+06    -155.714E+06     35.9292E+06    -23.3191E+06
            1101     8.58052E-03     5.94849E-03     6.18391E-03     20.1010E-03    -9.25156E-03    -10.8490E-03    -10.7066E-03     19.9587E-03    -9.25156E-03     3.74558E-03     22.8751E-03     186.709E+06     34.6326E+06     16.0712E+06    -160.644E+06     13.7055E+06    -158.278E+06     34.6326E+06    -20.1406E+06
            1102     7.93136E-03     4.95863E-03     6.19019E-03     19.2375E-03    -8.95574E-03    -10.2816E-03    -10.1766E-03     19.1325E-03    -8.95574E-03     3.20123E-03     21.4584E-03     185.940E+06     30.8374E+06     16.2461E+06    -161.947E+06     14.4804E+06    -160.182E+06     30.8374E+06    -17.4828E+06
            1103     7.35763E-03     3.96780E-03     6.19607E-03     18.3367E-03    -8.66602E-03    -9.67055E-03    -9.59970E-03     18.2659E-03    -8.66602E-03     2.61068E-03     20.1952E-03     184.637E+06     25.9282E+06     15.3083E+06    -163.781E+06     14.2295E+06    -162.703E+06     25.9282E+06    -13.6037E+06
            1104     6.87770E-03     2.97677E-03     6.20013E-03     17.4694E-03    -8.40590E-03    -9.06427E-03    -9.01962E-03     17.4248E-03    -8.40590E-03     2.03324E-03     19.0404E-03     183.663E+06     22.5067E+06     13.5916E+06    -165.447E+06     13.0455E+06    -164.901E+06     22.5067E+06    -9.71428E+06
            1105     6.51347E-03     1.98499E-03     6.20364E-03     16.6909E-03    -8.18097E-03    -8.51061E-03    -8.48495E-03     16.6652E-03    -8.18097E-03     1.50185E-03     18.1166E-03     182.290E+06     18.4696E+06     11.4617E+06    -167.215E+06     11.2100E+06    -166.963E+06     18.4696E+06    -6.35293E+06
            1106     6.28356E-03     992.644E-06     6.20466E-03     16.1042E-03    -7.98522E-03    -8.11911E-03    -8.07975E-03     16.0917E-03    -8.01203E-03     1.04272E-03     17.5998E-03     180.653E+06     11.7175E+06     7.15220E+06    -171.171E+06     7.84451E+06    -171.088E+06     10.9424E+06    -3.55394E+06
            1107     17.5818E-03     16.7648E-03     5.29741E-03     175.390E-03    -14.7728E-03    -160.658E-03    -72.2075E-03     86.9395E-03    -14.7728E-03     293.915E-03     435.874E-03     185.642E+06     203.833E+06     114.880E+06    -8.20024E+06    -8.01862E+06     203.651E+06     114.880E+06     3.82043E+06
            1108     16.6315E-03     15.8090E-03     5.16556E-03     65.2153E-03    -12.7385E-03    -52.5424E-03    -32.9858E-03     45.6588E-03    -12.7385E-03     86.7494E-03     160.041E-03     163.459E+06     166.749E+06     42.8785E+06    -14.2201E+06    -14.1208E+06     166.649E+06     42.8785E+06     3.71116E+06
            1109     15.6874E-03     14.8267E-03     5.12492E-03     33.5592E-03    -11.5649E-03    -22.0510E-03    -18.1268E-03     29.6351E-03    -11.5649E-03     24.5862E-03     60.9599E-03     149.411E+06     114.912E+06    -10.1976E+06    -48.5958E+06    -18.9316E+06     114.845E+06    -39.7946E+06     750.736E+03
            1110     14.7614E-03     13.8432E-03     5.12492E-03     26.7502E-03    -11.1329E-03    -15.6452E-03    -14.8025E-03     25.9074E-03    -11.1329E-03     10.3115E-03     46.1697E-03     112.650E+06     58.4284E+06    -19.4069E+06    -70.3401E+06    -18.0669E+06     57.0884E+06    -70.3401E+06    -5.88615E+06
            1111     13.8388E-03     12.8571E-03     5.11938E-03     25.7310E-03    -11.0911E-03    -14.6589E-03    -13.5316E-03     24.6037E-03    -11.0911E-03     12.7078E-03     41.8178E-03     61.2935E+06     17.9084E+06    -25.9773E+06    -50.8782E+06    -14.0405E+06     3.66165E+06    -48.5683E+06    -16.5270E+06
            1112     12.9272E-03     11.8701E-03     5.11986E-03     23.6300E-03    -10.8813E-03    -12.7676E-03    -11.7630E-03     22.8524E-03    -11.1083E-03     9.96634E-03     34.6885E-03      58.027E+06     7.01622E+06    -29.9335E+06    -57.3932E+06    -8.76425E+06    -40.3579E+06    -31.1884E+06    -25.6079E+06
            1113     12.0277E-03     10.8803E-03     5.12676E-03     22.8559E-03    -10.9329E-03    -11.9460E-03    -10.7890E-03     21.9505E-03    -11.1845E-03     10.3654E-03     31.9315E-03     87.2990E+06     6.40401E+06    -22.1280E+06    -90.5254E+06    -5.13299E+06    -78.9884E+06    -22.1280E+06    -31.1500E+06
            1114     11.1425E-03     9.89071E-03     5.13111E-03     23.1517E-03    -11.1705E-03    -11.9955E-03    -10.9677E-03     22.2742E-03    -11.3207E-03     10.5582E-03     30.5102E-03     118.477E+06     8.57304E+06    -6.23833E+06    -116.003E+06    -1.38138E+06    -106.396E+06    -5.89003E+06    -32.8422E+06
            1115     10.2789E-03     8.90145E-03     5.14006E-03     23.3811E-03    -11.2941E-03    -12.0928E-03    -11.2035E-03     22.6175E-03    -11.4197E-03     10.0045E-03     29.0276E-03     145.640E+06     12.2421E+06     5.73464E+06    -136.508E+06     2.95706E+06    -128.862E+06     7.37342E+06    -32.4924E+06
            1116     9.43930E-03     7.91257E-03     5.14699E-03     23.8262E-03    -11.4668E-03    -12.3615E-03    -11.6466E-03     23.1113E-03    -11.4668E-03     9.85229E-03     28.3132E-03     172.854E+06     19.0105E+06     9.99639E+06    -158.113E+06     6.20830E+06    -151.956E+06     16.6416E+06    -31.5390E+06
            1117     8.63252E-03     6.92411E-03     5.15531E-03     23.9870E-03    -11.4370E-03    -12.5484E-03    -11.9837E-03     23.4223E-03    -11.4370E-03     8.84802E-03     27.5269E-03     188.249E+06     24.8396E+06     13.6387E+06    -168.688E+06     9.13944E+06    -164.189E+06     24.8396E+06    -28.1280E+06
            1118     7.86708E-03     5.93601E-03     5.16283E-03     23.8047E-03    -11.2908E-03    -12.5128E-03    -12.0721E-03     23.3640E-03    -11.2908E-03     7.81929E-03     26.6924E-03     188.087E+06     24.6477E+06     13.9254E+06    -168.499E+06     10.6724E+06    -165.246E+06     24.6477E+06    -24.0218E+06
            1119     7.15626E-03     4.94758E-03     5.17044E-03     23.3358E-03    -11.0967E-03    -12.2395E-03    -11.9219E-03     23.0182E-03    -11.0967E-03     6.58360E-03     25.6797E-03     187.119E+06     21.8266E+06     12.2481E+06    -169.845E+06     10.0877E+06    -167.684E+06     21.8266E+06    -19.5508E+06
            1120     6.51695E-03     3.95917E-03     5.17645E-03     22.6890E-03    -10.8766E-03    -11.8129E-03    -11.5996E-03     22.4756E-03    -10.8766E-03     5.30725E-03     24.6491E-03     185.565E+06     17.5724E+06     9.87734E+06    -171.702E+06     8.62643E+06    -170.451E+06     17.5724E+06    -14.8521E+06
            1121     5.97268E-03     2.96992E-03     5.18193E-03     21.9704E-03    -10.6522E-03    -11.3187E-03    -11.1919E-03     21.8436E-03    -10.6522E-03     4.01650E-03     23.6246E-03     184.223E+06     13.2918E+06     7.97350E+06    -173.516E+06     7.28110E+06    -172.824E+06     13.2918E+06    -11.0666E+06
            1122     5.55076E-03     1.98035E-03     5.18547E-03     21.2708E-03    -10.4499E-03    -10.8210E-03    -10.7567E-03     21.2064E-03    -10.4499E-03     2.80921E-03     22.7883E-03     183.295E+06     10.7342E+06     6.04819E+06    -174.852E+06     5.72387E+06    -174.528E+06     10.7342E+06    -7.25750E+06
            1123     5.28175E-03     990.500E-06     5.18804E-03     20.6853E-03    -10.2399E-03    -10.4453E-03    -10.3912E-03     20.6580E-03    -10.2667E-03     1.78256E-03     22.3106E-03     181.861E+06     7.62833E+06     3.77701E+06    -176.123E+06     4.47253E+06    -176.043E+06     6.85328E+06    -2.83428E+06
            1124     17.2857E-03     16.7625E-03     4.22069E-03     165.120E-03    -15.0612E-03    -150.116E-03    -70.8765E-03     85.8802E-03    -15.0612E-03     270.732E-03     396.954E-03     181.666E+06     201.019E+06     103.857E+06    -7.43447E+06    -7.16487E+06     200.750E+06     103.857E+06     4.99953E+06
            1125     16.3285E-03     15.7983E-03     4.12713E-03     57.9136E-03    -13.1384E-03    -44.8019E-03    -30.7280E-03     43.8397E-03    -13.1384E-03     69.6868E-03     132.193E-03     159.776E+06     163.508E+06     40.3180E+06    -13.4423E+06    -13.1042E+06     163.170E+06     40.3180E+06     7.28858E+06
            1126     15.3764E-03     14.8210E-03     4.09502E-03     31.2924E-03    -11.7004E-03    -19.6106E-03    -15.7831E-03     27.9354E-03    -12.1709E-03     23.1335E-03     55.4077E-03     149.114E+06     121.427E+06    -8.71949E+06    -40.3988E+06    -18.4396E+06     121.190E+06    -30.4418E+06     5.00841E+06
            1127     14.4278E-03     13.8326E-03     4.10149E-03     26.0085E-03    -11.4342E-03    -14.5906E-03    -11.6842E-03     23.5726E-03    -11.9047E-03     17.1916E-03     44.3448E-03     127.131E+06     70.9564E+06    -20.2559E+06    -72.7591E+06    -18.1655E+06     68.8659E+06    -72.7591E+06    -6.48530E+06
            1128     13.4803E-03     12.8440E-03     4.09281E-03     25.6773E-03    -11.5100E-03    -14.1884E-03    -11.0773E-03     23.0924E-03    -12.0362E-03     18.6427E-03     39.9990E-03     86.2450E+06     26.4298E+06    -27.7991E+06    -71.5460E+06    -13.5087E+06     12.1394E+06    -71.5460E+06    -19.1503E+06
            1129     12.5425E-03     11.8534E-03     4.10016E-03     23.7904E-03    -11.2761E-03    -12.5272E-03    -9.75317E-03     22.0757E-03    -12.3354E-03     14.8130E-03     33.1368E-03     67.7566E+06     8.23509E+06    -41.4964E+06    -67.1772E+06    -9.54890E+06    -36.4272E+06    -54.4624E+06    -26.4027E+06
            1130     11.6112E-03     10.8617E-03     4.10386E-03     24.3737E-03    -11.7158E-03    -12.6732E-03    -9.78572E-03     22.4436E-03    -12.6732E-03     16.0520E-03     32.3107E-03     86.0216E+06     6.45588E+06    -45.2986E+06    -90.5795E+06    -6.03566E+06    -78.0880E+06    -45.2986E+06    -32.0053E+06
            1131     10.6930E-03     9.87172E-03     4.10968E-03     25.0717E-03    -12.0471E-03    -13.0451E-03    -10.5140E-03     23.5386E-03    -13.0451E-03     14.7177E-03     31.1114E-03     116.156E+06     7.53594E+06    -30.6425E+06    -120.578E+06    -3.01572E+06    -110.026E+06    -30.6425E+06    -35.0523E+06
            1132     9.78954E-03     8.88204E-03     4.11636E-03     25.9890E-03    -12.5306E-03    -13.4692E-03    -11.2740E-03     24.6580E-03    -13.3948E-03     14.0439E-03     30.7961E-03     141.822E+06     8.74029E+06    -14.1059E+06    -142.534E+06    -80.5056E+03    -133.713E+06    -14.1059E+06    -35.2898E+06
            1133     8.90575E-03     7.89364E-03     4.12343E-03     27.0546E-03    -13.1816E-03    -13.8748E-03    -12.2439E-03     25.9061E-03    -13.6639E-03     13.4017E-03     30.8071E-03     169.276E+06     10.7882E+06    -5.17713E+06    -165.612E+06     2.81600E+06    -158.504E+06    -4.31261E+06    -34.4341E+06
            1134     8.04701E-03     6.90609E-03     4.13042E-03     27.8005E-03    -13.5767E-03    -14.2217E-03    -13.0323E-03     26.8879E-03    -13.8535E-03     12.1736E-03     30.8338E-03     186.711E+06     12.6715E+06     2.33236E+06    -178.903E+06     4.44938E+06    -173.421E+06     5.07199E+06    -31.5973E+06
            1135     7.22239E-03     5.91924E-03     4.13829E-03     28.2830E-03    -13.8408E-03    -14.4412E-03    -13.6537E-03     27.5807E-03    -13.9260E-03     10.8197E-03     30.8771E-03     187.749E+06     11.5994E+06     6.66449E+06    -178.540E+06     5.41993E+06    -174.881E+06     9.18468E+06    -25.7093E+06
            1136     6.44354E-03     4.93306E-03     4.14538E-03     28.4312E-03    -13.9103E-03    -14.5227E-03    -14.0123E-03     27.9208E-03    -13.9103E-03     9.26801E-03     30.6677E-03     187.104E+06     10.0846E+06     6.11063E+06    -178.952E+06     5.00230E+06    -176.833E+06     9.07367E+06    -19.5540E+06
            1137     5.72883E-03     3.94669E-03     4.15249E-03     28.2820E-03    -13.8323E-03    -14.4536E-03    -14.1117E-03     27.9401E-03    -13.8323E-03     7.56729E-03     30.2018E-03     185.722E+06      8.3145E+06     3.56744E+06    -179.721E+06     3.32291E+06    -178.505E+06     7.34261E+06    -14.7837E+06
            1138     5.10419E-03     2.96057E-03     4.15785E-03     27.9180E-03    -13.7114E-03    -14.2063E-03    -14.0046E-03     27.7163E-03    -13.7114E-03     5.74376E-03     29.5609E-03     184.366E+06     4.18805E+06     1.65466E+06    -181.431E+06     1.32649E+06    -180.743E+06     3.82844E+06    -11.0772E+06
            1139     4.60690E-03     1.97406E-03     4.16253E-03     27.4736E-03    -13.5865E-03    -13.8834E-03    -13.7864E-03     27.3766E-03    -13.5865E-03     3.90838E-03     28.9707E-03     184.079E+06     3.01187E+06    -267.339E+03    -182.679E+06    -266.343E+03    -182.320E+06     2.65226E+06    -7.96004E+06
            1140     4.28038E-03     986.925E-06     4.16505E-03     27.0344E-03    -13.3853E-03    -13.6489E-03    -13.6141E-03     26.9995E-03    -13.3853E-03     2.24770E-03     28.7020E-03     182.293E+06     432.535E+03    -2.84749E+06    -183.473E+06    -2.98410E+06    -183.337E+06     432.535E+03    -4.16916E+06
            1141     17.0463E-03     16.7511E-03     3.15867E-03     151.223E-03    -15.5256E-03    -135.731E-03    -69.1286E-03     84.6201E-03    -15.5256E-03     238.451E-03     347.924E-03     178.724E+06     196.999E+06     94.7073E+06    -8.23037E+06    -7.77993E+06     196.549E+06     94.7073E+06     8.10769E+06
            1142     16.0871E-03     15.7897E-03     3.07896E-03     49.1104E-03    -13.0261E-03    -36.0792E-03    -26.8084E-03     40.5552E-03    -13.7417E-03     48.3044E-03     101.615E-03     159.340E+06     161.245E+06     37.3214E+06    -16.9024E+06    -16.3593E+06     160.702E+06     37.3214E+06     9.52527E+06
            1143     15.1217E-03     14.8056E-03     3.07570E-03     27.3665E-03    -11.6160E-03    -15.7439E-03    -11.4878E-03     24.6148E-03    -13.1204E-03     18.7288E-03     46.6933E-03     149.753E+06     130.139E+06     1.33769E+06    -34.0035E+06    -13.7092E+06     129.869E+06    -18.6873E+06     4.08483E+06
            1144     14.1502E-03     13.8118E-03     3.07606E-03     26.0069E-03    -11.9269E-03    -14.0892E-03    -9.23370E-03     22.3167E-03    -13.0922E-03     22.2308E-03     41.2473E-03     136.558E+06     82.6105E+06    -10.2372E+06    -71.2662E+06    -8.68085E+06     81.0541E+06    -71.2662E+06    -5.42633E+06
            1145     13.1842E-03     12.8220E-03     3.06925E-03     25.5384E-03    -11.1800E-03    -14.3825E-03    -9.48275E-03     22.8442E-03    -13.3854E-03     18.8814E-03     35.9580E-03     105.985E+06     32.1840E+06    -19.8881E+06    -89.6096E+06    -7.67033E+06     19.9662E+06    -89.6096E+06    -15.7620E+06
            1146     12.2249E-03     11.8308E-03     3.07891E-03     25.0322E-03    -11.1729E-03    -13.8785E-03    -9.12768E-03     22.9870E-03    -13.8785E-03     16.5768E-03     32.0955E-03     83.0882E+06     9.32141E+06    -46.2352E+06    -83.8645E+06    -6.86480E+06    -34.0294E+06    -79.8841E+06    -24.4532E+06
            1147     11.2693E-03     10.8403E-03     3.07978E-03     26.5220E-03    -12.1468E-03    -14.3848E-03    -10.0578E-03     24.4330E-03    -14.3848E-03     17.2750E-03     32.3414E-03      90.049E+06     6.79006E+06    -67.5105E+06    -92.7030E+06    -4.41392E+06    -76.5677E+06    -72.4417E+06    -30.0072E+06
            1148     10.3225E-03     9.85057E-03     3.08547E-03     27.2111E-03    -12.3013E-03    -14.9191E-03    -10.7286E-03     25.6384E-03    -14.9191E-03     15.3989E-03     31.5633E-03     114.580E+06     7.59344E+06    -60.4511E+06    -121.587E+06    -1.82136E+06    -112.172E+06    -60.4511E+06    -33.3322E+06
            1149     9.38491E-03     8.86135E-03     3.09078E-03     28.6486E-03    -13.1732E-03    -15.4824E-03    -11.7850E-03     27.2603E-03    -15.4824E-03     14.9061E-03     32.1783E-03     138.785E+06     7.96137E+06    -42.1383E+06    -147.813E+06    -119.054E+03    -139.733E+06    -42.1383E+06    -34.3451E+06
            1150     8.46048E-03     7.87356E-03     3.09625E-03     30.0598E-03    -14.0794E-03    -15.9803E-03    -12.9470E-03     28.9275E-03    -15.9803E-03     13.8814E-03     32.7758E-03     163.006E+06     6.89073E+06    -29.3522E+06    -170.612E+06     349.809E+03    -164.071E+06    -29.3522E+06    -33.2187E+06
            1151     7.55333E-03     6.88678E-03     3.10243E-03     31.3586E-03    -14.9411E-03    -16.4156E-03    -14.0302E-03     30.4477E-03    -16.4156E-03     12.7797E-03     33.5909E-03     182.228E+06     4.86427E+06    -18.5913E+06    -187.703E+06    -145.548E+03    -182.693E+06    -18.5913E+06    -30.4351E+06
            1152     6.66988E-03     5.90117E-03     3.10861E-03     32.5326E-03    -15.7507E-03    -16.7801E-03    -15.0614E-03     31.8269E-03    -16.7638E-03     11.5155E-03     34.4973E-03     186.012E+06     2.02967E+06    -10.8216E+06    -189.902E+06    -1.29139E+06    -186.581E+06    -10.8216E+06    -24.7524E+06
            1153     5.82041E-03     4.91643E-03     3.11543E-03     33.5219E-03    -16.4002E-03    -17.1218E-03    -15.9833E-03     33.0019E-03    -17.0187E-03     10.0628E-03     35.3137E-03     185.584E+06     63.5014E+03    -6.34593E+06    -188.566E+06    -1.81676E+06    -186.686E+06    -6.34593E+06    -18.5048E+06
            1154     5.02110E-03     3.93283E-03     3.12158E-03     34.1881E-03    -16.8267E-03    -17.3638E-03    -16.6569E-03     33.8362E-03    -17.1817E-03     8.37756E-03     35.8475E-03     185.099E+06    -320.068E+03    -5.48112E+06    -187.937E+06    -2.15252E+06    -186.917E+06    -4.66893E+06    -13.5685E+06
            1155     4.29892E-03     2.94941E-03     3.12757E-03     34.5633E-03    -17.1273E-03    -17.4344E-03    -17.0838E-03     34.3516E-03    -17.2661E-03     6.51150E-03     36.0583E-03     184.054E+06    -1.61677E+06    -5.88453E+06    -187.754E+06    -3.94713E+06    -187.219E+06    -4.08915E+06    -9.71941E+06
            1156     3.69810E-03     1.96622E-03     3.13208E-03     34.6862E-03    -17.2567E-03    -17.4259E-03    -17.3108E-03     34.5865E-03    -17.2721E-03     4.38637E-03     36.1029E-03     183.980E+06    -4.05371E+06    -7.55087E+06    -189.752E+06    -7.44543E+06    -189.498E+06    -4.41333E+06    -6.51095E+06
            1157     3.28576E-03     983.553E-06     3.13510E-03     34.4865E-03    -17.1292E-03    -17.3563E-03    -17.2793E-03     34.4545E-03    -17.1743E-03     2.41996E-03     36.0482E-03     182.299E+06    -7.25978E+06     -11.243E+06    -191.510E+06    -9.86986E+06    -191.415E+06    -8.72765E+06    -3.51068E+06
            1158     16.8773E-03     16.7475E-03     2.08906E-03     129.666E-03    -15.9260E-03    -113.817E-03    -67.8724E-03     83.7208E-03    -15.9260E-03     184.114E-03     278.756E-03     178.729E+06     194.521E+06     95.1224E+06    -11.0256E+06    -10.7507E+06     194.246E+06     95.1224E+06     4.97705E+06
            1159     15.9126E-03     15.7812E-03     2.04076E-03     35.6506E-03    -11.2246E-03    -24.4288E-03    -17.9605E-03     32.3338E-03    -14.3760E-03     23.8452E-03     67.3983E-03     156.645E+06     167.877E+06     48.1708E+06    -4.82707E+06    -4.41827E+06     167.532E+06     48.1072E+06     7.08935E+06
            1160     14.9303E-03     14.7871E-03     2.06280E-03     25.0137E-03    -10.6546E-03    -14.3456E-03    -8.42914E-03     22.5668E-03    -14.1242E-03     16.1408E-03     38.8489E-03     147.118E+06     132.146E+06     5.77852E+06    -27.7012E+06    -2.26869E+06     132.024E+06    -19.5324E+06     2.23984E+06
            1161     13.9456E-03     13.7948E-03     2.04488E-03     26.1333E-03    -11.6436E-03    -14.4859E-03    -9.03381E-03     23.3021E-03    -14.2645E-03     19.0566E-03     36.0885E-03     145.666E+06     88.5296E+06    -4.09631E+06    -77.1005E+06    -3.99160E+06     88.4249E+06    -77.1005E+06    -1.35862E+06
            1162     12.9677E-03     12.8046E-03     2.05054E-03     24.4186E-03    -9.75092E-03    -14.6763E-03    -8.38507E-03     23.0527E-03    -14.6763E-03     13.1595E-03     31.0093E-03     123.447E+06      39.571E+06    -12.3873E+06    -100.787E+06    -2.23275E+06     29.4164E+06    -100.787E+06    -9.82053E+06
            1163     11.9878E-03     11.8108E-03     2.05227E-03     25.9537E-03    -10.6835E-03    -15.2862E-03    -9.34673E-03     24.6168E-03    -15.2862E-03     13.4320E-03     31.0558E-03     100.135E+06     11.9465E+06    -41.6359E+06    -100.506E+06     901.358E+03    -30.5907E+06    -100.506E+06    -19.4677E+06
            1164     11.0153E-03     10.8219E-03     2.05489E-03     27.5147E-03    -11.6198E-03    -15.9091E-03    -10.4156E-03     26.3105E-03    -15.9091E-03     13.0969E-03     31.4000E-03     102.581E+06     9.20299E+06    -77.9259E+06    -101.994E+06     1.98452E+06    -75.8238E+06    -96.8780E+06    -24.1330E+06
            1165     10.0450E-03     9.83174E-03     2.05903E-03     28.7997E-03    -12.2248E-03    -16.5772E-03    -11.2154E-03     27.7903E-03    -16.5772E-03     12.4465E-03     31.8271E-03     117.707E+06     8.08026E+06    -86.7427E+06    -120.807E+06     1.79478E+06    -113.798E+06    -87.4670E+06    -26.9465E+06
            1166     9.08071E-03     8.84348E-03     2.06210E-03     30.5567E-03    -13.2831E-03    -17.2765E-03    -12.3919E-03     29.6655E-03    -17.2765E-03     12.0768E-03     32.9182E-03     136.523E+06     6.62447E+06    -72.9403E+06    -149.069E+06     1.32874E+06    -143.773E+06    -72.9403E+06    -27.7266E+06
            1167     8.12313E-03     7.85598E-03     2.06611E-03     32.2533E-03    -14.2684E-03    -17.9807E-03    -13.5429E-03     31.5278E-03    -17.9807E-03     11.2765E-03     34.0524E-03     158.578E+06     4.07979E+06    -57.1829E+06    -174.653E+06    -198.469E+03    -170.375E+06    -57.1829E+06    -26.6439E+06
            1168     7.17510E-03     6.86990E-03     2.07042E-03     34.0845E-03    -15.4067E-03    -18.6666E-03    -14.8194E-03     33.4973E-03    -18.6666E-03     10.4783E-03     35.4898E-03     177.582E+06     981.313E+03    -42.8105E+06    -193.844E+06    -2.15579E+06    -190.707E+06    -42.8105E+06    -24.0088E+06
            1169     6.24012E-03     5.88491E-03     2.07529E-03     35.9005E-03    -16.6005E-03    -19.2896E-03    -16.1403E-03     35.4403E-03    -19.2896E-03     9.55476E-03     37.1071E-03     184.185E+06    -1.84178E+06    -32.2028E+06    -199.040E+06    -4.02194E+06    -196.859E+06    -32.2028E+06    -20.1475E+06
            1170     5.32461E-03     4.90154E-03     2.07999E-03     37.6665E-03    -17.8047E-03    -19.8540E-03    -17.4609E-03     37.3227E-03    -19.8540E-03     8.49299E-03     38.7935E-03     184.535E+06    -4.50200E+06    -22.3624E+06    -197.126E+06    -5.80367E+06    -195.824E+06    -22.3624E+06    -15.3939E+06
            1171     4.43948E-03     3.91931E-03     2.08519E-03     39.3068E-03    -18.9661E-03    -20.3378E-03    -18.7282E-03     39.0689E-03    -20.3378E-03     7.21345E-03     40.4899E-03     184.493E+06    -6.68507E+06    -14.5875E+06    -194.919E+06    -7.42709E+06    -194.251E+06    -14.5133E+06    -10.8130E+06
            1172     3.60588E-03     2.93843E-03     2.08998E-03     40.6491E-03    -19.9460E-03    -20.7023E-03    -19.8002E-03     40.5033E-03    -20.7023E-03     5.74073E-03     41.9595E-03     183.571E+06    -8.50632E+06    -12.6655E+06    -194.105E+06    -9.84443E+06    -193.824E+06    -11.6081E+06    -6.66882E+06
            1173     2.86713E-03     1.95879E-03     2.09370E-03     41.5751E-03    -20.6051E-03    -20.9702E-03    -20.5602E-03     41.5048E-03    -20.9449E-03     3.97287E-03     42.9265E-03     182.958E+06    -10.5153E+06    -14.7548E+06    -195.553E+06    -13.8619E+06    -195.457E+06    -11.5043E+06    -3.73291E+06
            1174     2.31435E-03     979.100E-06     2.09704E-03     42.0585E-03    -20.8814E-03    -21.1760E-03    -20.8845E-03     42.0363E-03    -21.1506E-03     2.18583E-03     43.4641E-03     181.566E+06    -13.7338E+06    -17.6715E+06    -197.226E+06    -16.0233E+06    -197.204E+06    -15.4042E+06    -1.51907E+06
            1175     16.7927E-03     16.7617E-03     1.01946E-03     107.080E-03    -16.3031E-03    -90.9387E-03    -67.7425E-03     84.1307E-03    -16.5505E-03     120.775E-03     189.150E-03     171.184E+06     195.238E+06     92.9704E+06    -1.74026E+06    -1.23210E+06     194.729E+06     92.9704E+06     1.23836E+06
            1176     15.8020E-03     15.7678E-03     1.03817E-03     29.3287E-03    -12.3975E-03    -16.9392E-03    -12.7112E-03     27.7838E-03    -15.0805E-03     15.4337E-03     49.0632E-03     153.688E+06     167.071E+06     45.7820E+06    -1.09261E+06    -539.281E+03     166.581E+06     45.7184E+06     1.33199E+06
            1177     14.8050E-03     14.7694E-03     1.02670E-03     26.6245E-03    -11.0287E-03    -15.5843E-03    -10.1547E-03     25.1615E-03    -14.9953E-03     13.6020E-03     37.4416E-03      147.39E+06     133.864E+06     4.86314E+06    -25.1384E+06    -1.14893E+06     133.596E+06    -18.8584E+06     5.65587E+06
            1178     13.8240E-03     13.7860E-03     1.02446E-03     25.3939E-03    -10.0353E-03    -15.3483E-03    -9.20734E-03     24.3445E-03    -15.1269E-03     10.5122E-03     32.1005E-03     150.253E+06     94.4177E+06    -30.4111E+03    -75.9088E+06     185.810E+03     94.2015E+06    -75.9088E+06     506.893E+03
            1179     12.8303E-03     12.7892E-03     1.02620E-03     24.5182E-03    -8.96643E-03    -15.5521E-03    -8.44837E-03     24.0002E-03    -15.5521E-03     7.54633E-03     29.6499E-03     135.858E+06     43.1499E+06    -1.33766E+06    -107.682E+06     4.94836E+06     36.8639E+06    -107.682E+06    -5.79904E+06
            1180     11.8452E-03     11.8007E-03     1.02589E-03     26.2161E-03    -10.0140E-03    -16.2068E-03    -9.52906E-03     25.7312E-03    -16.2068E-03     7.39614E-03     30.0816E-03     114.350E+06     11.9741E+06    -30.5071E+06    -114.542E+06     7.75979E+06    -26.2928E+06    -114.542E+06    -10.2961E+06
            1181     10.8575E-03     10.8087E-03     1.02818E-03     27.6942E-03    -10.7847E-03    -16.9191E-03    -10.4150E-03     27.3245E-03    -16.9191E-03     6.76950E-03     30.5260E-03     113.683E+06     10.3885E+06    -78.2991E+06    -114.468E+06     7.64703E+06    -75.5576E+06    -114.468E+06    -13.3261E+06
            1182     9.87351E-03     9.81968E-03     1.02959E-03     29.6081E-03    -11.9367E-03    -17.6776E-03    -11.5833E-03     29.2547E-03    -17.6776E-03     6.80421E-03     31.8015E-03     123.258E+06     8.69621E+06    -102.356E+06    -123.156E+06     6.45169E+06    -114.653E+06    -108.615E+06    -15.0610E+06
            1183     8.89137E-03     8.83130E-03     1.03175E-03     31.5219E-03    -13.0525E-03    -18.4788E-03    -12.7444E-03     31.2138E-03    -18.4788E-03     6.64900E-03     33.1742E-03     137.603E+06     5.74147E+06    -96.6319E+06    -148.788E+06     3.74103E+06    -146.787E+06    -96.6319E+06    -15.7245E+06
            1184     7.91197E-03     7.84415E-03     1.03373E-03     33.5417E-03    -14.2098E-03    -19.3390E-03    -13.9509E-03     33.2828E-03    -19.3390E-03     6.28727E-03     34.7634E-03     156.152E+06     2.19556E+06    -78.4159E+06    -176.665E+06     632.788E+03    -175.103E+06    -78.4159E+06    -15.0888E+06
            1185     6.93597E-03     6.85816E-03     1.03601E-03     35.7559E-03    -15.5331E-03    -20.2155E-03    -15.3233E-03     35.5460E-03    -20.2155E-03     5.84975E-03     36.6251E-03     174.694E+06    -1.60381E+06    -59.6446E+06    -197.462E+06    -2.78111E+06    -196.285E+06    -59.6446E+06    -13.7906E+06
            1186     5.96499E-03     5.87393E-03     1.03831E-03     38.0380E-03    -16.9642E-03    -21.0583E-03    -16.7996E-03     37.8735E-03    -21.0583E-03     5.36441E-03     38.7571E-03     182.780E+06    -5.64461E+06    -44.0951E+06    -204.409E+06    -6.46888E+06    -203.585E+06    -44.0951E+06    -11.5775E+06
            1187     5.00057E-03     4.89097E-03     1.04122E-03     40.3456E-03    -18.4769E-03    -21.8529E-03    -18.3531E-03     40.2218E-03    -21.8529E-03     4.78899E-03     41.0640E-03     182.965E+06    -9.33306E+06    -32.8375E+06    -202.833E+06    -9.84044E+06    -202.326E+06    -32.8375E+06    -8.87765E+06
            1188     4.04672E-03     3.90980E-03     1.04372E-03     42.6768E-03    -20.0740E-03    -22.5952E-03    -19.9881E-03     42.5909E-03    -22.5952E-03     4.14020E-03     43.5275E-03     182.827E+06    -13.0453E+06    -24.0561E+06    -201.023E+06    -13.3676E+06    -200.775E+06    -23.9819E+06    -5.67245E+06
            1189     3.11183E-03     2.93059E-03     1.04647E-03     44.8346E-03    -21.5896E-03    -23.2436E-03    -21.5359E-03     44.7809E-03    -23.2436E-03     3.37403E-03     45.8841E-03     182.205E+06    -14.9548E+06    -18.6194E+06    -198.945E+06    -15.5526E+06    -198.874E+06    -18.0919E+06    -2.83544E+06
            1190     2.21626E-03     1.95228E-03     1.04900E-03     46.6498E-03    -22.8811E-03    -23.7685E-03    -22.8530E-03     46.6217E-03    -23.7685E-03     2.41689E-03     47.8198E-03     181.354E+06    -14.3595E+06    -18.6530E+06    -197.817E+06    -17.6804E+06    -197.800E+06    -15.3485E+06    -1.42232E+06
            1191     1.43400E-03     975.910E-06     1.05070E-03     47.9745E-03    -23.7264E-03    -24.2475E-03    -23.8439E-03     47.9656E-03    -24.1211E-03     1.16137E-03     49.3714E-03     180.533E+06    -19.0082E+06    -22.7180E+06    -201.358E+06    -22.5479E+06    -201.326E+06    -19.2107E+06    -1.85635E+06
            1192     57.6919E-03     983.307E-06     57.6835E-03     34.3351E-03    -17.0669E-03    -17.2684E-03    -17.2185E-03     34.3231E-03    -17.1049E-03     1.47209E-03     34.7767E-03     189.096E+06     2.80052E+06    -975.409E+03    -188.150E+06    -224.705E+03    -188.113E+06     2.01306E+06     146.792E+03
            1193     57.7191E-03     1.96650E-03     57.6856E-03     34.3818E-03    -17.1285E-03    -17.2518E-03    -17.1601E-03     34.3415E-03    -17.1798E-03     2.77093E-03     34.8734E-03     188.771E+06     3.74900E+06     1.61536E+06    -186.072E+06     1.59946E+06    -186.056E+06     3.74900E+06    -375.753E+03
            1194     57.7650E-03     2.94971E-03     57.6896E-03     34.2699E-03    -17.0921E-03    -17.1766E-03    -17.0364E-03     34.1910E-03    -17.1534E-03     3.99648E-03     35.2100E-03     185.748E+06     2.96115E+06     1.99288E+06    -183.269E+06     2.21726E+06    -183.261E+06     2.72912E+06     340.676E+03
            1195     57.8280E-03     3.93366E-03     57.6940E-03     34.2341E-03    -17.0808E-03    -17.1526E-03    -16.9965E-03     34.1074E-03    -17.1102E-03     5.05775E-03     35.8854E-03     179.207E+06     3.48828E+06     2.17691E+06    -176.370E+06     2.39572E+06    -176.357E+06     3.25625E+06     632.678E+03
            1196     57.9090E-03     4.91662E-03     57.6999E-03     34.2778E-03    -17.0819E-03    -17.1958E-03    -17.0091E-03     34.0911E-03    -17.0819E-03     6.16753E-03     36.8989E-03     170.627E+06     4.56716E+06     2.31212E+06    -167.174E+06     2.30075E+06    -167.163E+06     4.56716E+06     842.557E+03
            1197     58.0075E-03     5.90023E-03     57.7067E-03     34.1982E-03    -17.0437E-03    -17.1560E-03    -16.9082E-03     33.9575E-03    -17.0508E-03     7.00309E-03     38.0313E-03     162.152E+06     5.16651E+06     2.45490E+06    -158.323E+06     2.43950E+06    -158.307E+06     5.16651E+06     1.25445E+06
            1198     58.1232E-03     6.88375E-03     57.7141E-03     34.0778E-03    -16.9978E-03    -17.0843E-03    -16.7855E-03     33.7861E-03    -17.0048E-03     7.69343E-03     39.4481E-03     149.922E+06     5.31240E+06     3.37415E+06    -145.568E+06     3.33232E+06    -145.526E+06     5.31240E+06     1.80759E+06
            1199     58.2562E-03     7.86749E-03     57.7225E-03     34.0365E-03    -16.9414E-03    -17.1019E-03    -16.7506E-03     33.6852E-03    -16.9414E-03     8.43600E-03     41.3046E-03     134.863E+06     4.86269E+06     781.028E+03    -131.955E+06     4.05901E+06    -131.906E+06     1.53493E+06     454.532E+03
            1200     58.4058E-03     8.85078E-03     57.7313E-03     33.9540E-03    -16.8748E-03    -17.0856E-03    -16.6714E-03     33.5398E-03    -16.8748E-03     9.14962E-03     43.5093E-03     118.504E+06     3.44498E+06    -4.37131E+06    -118.748E+06     3.40909E+06    -118.712E+06    -4.37131E+06    -565.888E+03
            1201     58.5731E-03     9.83511E-03     57.7415E-03     33.8793E-03    -16.7987E-03    -17.1070E-03    -16.5933E-03     33.3657E-03    -16.7987E-03     10.1583E-03     46.4322E-03     98.4688E+06     2.03483E+06    -11.7110E+06    -102.408E+06     1.99184E+06    -102.365E+06    -11.7110E+06     553.688E+03
            1202     58.7568E-03     10.8186E-03     57.7522E-03     33.7645E-03    -16.7089E-03    -17.1010E-03    -16.4953E-03     33.1589E-03    -16.7089E-03     11.0301E-03     50.1262E-03     76.7009E+06     686.802E+03    -22.3825E+06    -84.5992E+06     605.575E+03    -84.5180E+06    -22.3825E+06     199.946E+03
            1203     58.9577E-03     11.8032E-03     57.7641E-03     33.5982E-03    -16.6103E-03    -17.0255E-03    -16.3743E-03     32.9470E-03    -16.6103E-03     11.4031E-03     53.7748E-03     52.8363E+06     64.1070E+03    -31.0166E+06    -58.7551E+06    -39.4462E+03    -57.3714E+06    -32.2967E+06    -1.51813E+06
            1204     59.1736E-03     12.7864E-03     57.7756E-03     33.6400E-03    -16.4996E-03    -17.1487E-03    -16.2156E-03     32.7070E-03    -16.4996E-03     13.5033E-03     59.5851E-03     42.0236E+06     540.086E+03    -19.7817E+06    -44.1233E+06    -1.56478E+06    -19.2609E+06    -42.5392E+06     390.784E+03
            1205     59.4099E-03     13.7717E-03     57.7917E-03     34.8039E-03    -16.3518E-03    -18.4460E-03    -16.3234E-03     32.6814E-03    -16.3518E-03     20.3496E-03     75.3922E-03     77.4731E+06     24.1461E+06    -7.54977E+06    -63.0002E+06    -6.37162E+06     22.9680E+06    -63.0002E+06     1.99995E+06
            1206     59.6699E-03     14.7545E-03     57.8170E-03     49.4962E-03    -16.3254E-03    -33.1703E-03    -17.0827E-03     33.4086E-03    -16.3254E-03     61.1323E-03     111.374E-03     131.731E+06     89.0834E+06    -11.6854E+06    -55.2422E+06    -11.4370E+06     88.8350E+06    -55.2422E+06     617.995E+03
            1207     60.0183E-03     15.7398E-03     57.9176E-03     144.688E-03    -16.6277E-03    -128.060E-03    -33.0213E-03     49.6493E-03    -16.6277E-03     258.752E-03     335.148E-03     170.542E+06     166.687E+06     28.7321E+06    -21.5739E+06    -11.9125E+06     166.610E+06     19.1483E+06     581.998E+03
            1208     60.7161E-03     16.7226E-03     58.3679E-03     229.517E-03    -16.9743E-03    -212.568E-03    -43.8778E-03     60.8265E-03    -16.9743E-03     429.368E-03     625.822E-03     197.138E+06     218.549E+06     106.902E+06    -7.03902E+06    -7.02998E+06     218.540E+06     106.902E+06     687.329E+03
            1209     58.7259E-03     983.497E-06     58.7176E-03     34.3264E-03    -17.0696E-03    -17.2576E-03    -17.1087E-03     34.3122E-03    -17.2042E-03     1.54161E-03     34.7367E-03     189.273E+06     2.93040E+06     117.301E+03    -187.726E+06     1.49405E+06    -187.665E+06     1.49223E+06     337.518E+03
            1210     58.7528E-03     1.96641E-03     58.7199E-03     34.3749E-03    -17.1262E-03    -17.2471E-03    -17.1556E-03     34.3340E-03    -17.1767E-03     2.84353E-03     34.8575E-03     189.369E+06     3.66348E+06     1.11353E+06    -186.958E+06     1.12713E+06    -186.929E+06     3.62075E+06     351.469E+03
            1211     58.7971E-03     2.95008E-03     58.7231E-03     34.2527E-03    -17.0819E-03    -17.1687E-03    -17.0208E-03     34.1745E-03    -17.1517E-03     3.95956E-03     35.1882E-03     185.434E+06     2.64589E+06     874.278E+03    -183.664E+06     864.739E+03    -183.655E+06     2.64589E+06     472.263E+03
            1212     58.8594E-03     3.93321E-03     58.7279E-03     34.1783E-03    -17.0579E-03    -17.1196E-03    -16.9533E-03     34.0498E-03    -17.0958E-03     5.09214E-03     35.8292E-03     178.086E+06     2.28694E+06     1.37790E+06    -176.251E+06     1.46456E+06    -176.233E+06     2.18226E+06     471.665E+03
            1213     58.9391E-03     4.91712E-03     58.7336E-03     34.1948E-03    -17.0571E-03    -17.1386E-03    -16.9522E-03     34.0083E-03    -17.0571E-03     6.15490E-03     36.7978E-03     170.602E+06     3.27241E+06     2.17347E+06    -167.875E+06     2.25470E+06    -167.852E+06     3.16772E+06     983.675E+03
            1214     59.0360E-03     5.90037E-03     58.7404E-03     34.1517E-03    -17.0233E-03    -17.1297E-03    -16.8930E-03     33.9150E-03    -17.0233E-03     6.94280E-03     37.9560E-03     162.095E+06     3.99821E+06     2.74087E+06    -158.720E+06     2.71501E+06    -158.694E+06     3.99821E+06     971.516E+03
            1215     59.1496E-03     6.88393E-03     58.7477E-03     34.0642E-03    -16.9718E-03    -17.0911E-03    -16.7895E-03     33.7627E-03    -16.9718E-03     7.80998E-03     39.4133E-03     148.842E+06     5.07619E+06     2.52755E+06    -145.008E+06     4.14861E+06    -144.992E+06     3.43906E+06     6.27194E+03
            1216     59.2805E-03     7.86757E-03     58.7561E-03     34.0442E-03    -16.9189E-03    -17.1273E-03    -16.7583E-03     33.6752E-03    -16.9189E-03     8.65430E-03     41.3190E-03     134.975E+06     5.48573E+06     624.333E+03    -131.814E+06     4.99515E+06    -131.807E+06     1.10773E+06     355.364E+03
            1217     59.4280E-03     8.85149E-03     58.7651E-03     33.9762E-03    -16.8649E-03    -17.1178E-03    -16.6951E-03     33.5536E-03    -16.8649E-03     9.24846E-03     43.5661E-03     118.838E+06     3.64602E+06    -3.34355E+06    -118.486E+06     3.61924E+06    -118.460E+06    -3.34355E+06     633.764E+03
            1218     59.5917E-03     9.83480E-03     58.7746E-03     33.8922E-03    -16.7907E-03    -17.1299E-03    -16.5993E-03     33.3616E-03    -16.7907E-03     10.3215E-03     46.4884E-03     99.7403E+06     2.31558E+06    -11.2057E+06    -103.328E+06     2.24437E+06    -103.257E+06    -11.2057E+06      96.043E+03
            1219     59.7733E-03     10.8190E-03     58.7860E-03     33.7598E-03    -16.7079E-03    -17.1019E-03    -16.4952E-03     33.1531E-03    -16.7079E-03     11.0414E-03     50.2047E-03     76.0167E+06     1.19392E+06    -20.1422E+06    -82.9444E+06     1.07836E+06    -82.8289E+06    -20.1422E+06    -266.229E+03
            1220     59.9698E-03     11.8025E-03     58.7970E-03     33.5376E-03    -16.6081E-03    -16.9666E-03    -16.3031E-03     32.8740E-03    -16.6081E-03     11.4889E-03     53.8129E-03     49.1558E+06    -2.14165E+06    -29.5080E+06    -57.2339E+06    -2.27050E+06    -55.8250E+06    -30.7881E+06    -1.43935E+06
            1221     60.1837E-03     12.7876E-03     58.8095E-03     33.6084E-03    -16.4825E-03    -17.1316E-03    -16.2002E-03     32.6770E-03    -16.4825E-03     13.5366E-03     59.6854E-03     41.6505E+06    -4.68857E+06    -22.5969E+06    -49.2494E+06    -6.39135E+06    -24.1814E+06    -45.9621E+06     55.7238E+03
            1222     60.4147E-03     13.7710E-03     58.8243E-03     34.7050E-03    -16.3316E-03    -18.3660E-03    -16.1253E-03     32.4642E-03    -16.3316E-03     20.6879E-03     75.3559E-03     78.4151E+06     24.3262E+06    -9.75867E+06    -63.7674E+06    -8.65331E+06     23.2208E+06    -63.7674E+06     2.24567E+06
            1223     60.6741E-03     14.7562E-03     58.8523E-03     49.2175E-03    -16.3020E-03    -32.9127E-03    -17.0276E-03     33.3324E-03    -16.3020E-03     61.0584E-03     111.567E-03     132.471E+06     91.6362E+06    -11.3571E+06    -54.1775E+06    -11.1544E+06     91.4335E+06    -54.1775E+06     979.776E+03
            1224     61.0143E-03     15.7411E-03     58.9488E-03     145.460E-03    -16.5747E-03    -128.883E-03    -32.5090E-03     49.0857E-03    -16.5747E-03     260.530E-03     335.410E-03     170.505E+06     165.745E+06     29.6215E+06    -23.1889E+06    -12.2202E+06     165.673E+06     18.7246E+06     531.110E+03
            1225     61.7190E-03     16.7244E-03     59.4098E-03     229.123E-03    -16.8944E-03    -212.248E-03    -43.8510E-03     60.7256E-03    -16.8944E-03     428.718E-03     624.683E-03     196.906E+06     218.411E+06     106.905E+06    -7.25250E+06    -7.24338E+06     218.402E+06     106.905E+06     713.870E+03
            1226     59.7593E-03     983.039E-06     59.7512E-03     34.2575E-03    -16.9817E-03    -17.2765E-03    -17.1182E-03     34.2428E-03    -17.1253E-03     1.55821E-03     34.6221E-03     189.438E+06     1.80937E+06    -595.058E+03    -188.816E+06     27.4893E+03    -188.788E+06     1.15865E+06    -371.482E+03
            1227     59.7862E-03     1.96696E-03     59.7538E-03     34.2233E-03    -17.0776E-03    -17.1448E-03    -17.0546E-03     34.1833E-03    -17.1278E-03     2.81911E-03     34.7133E-03     190.015E+06     3.36336E+06     1.38604E+06    -187.628E+06     1.41160E+06    -187.610E+06     3.32063E+06     916.228E+03
            1228     59.8297E-03     2.94983E-03     59.7570E-03     34.2689E-03    -17.0984E-03    -17.1688E-03    -17.0789E-03     34.1916E-03    -17.1110E-03     3.93539E-03     35.2124E-03     186.901E+06     3.88366E+06     2.42720E+06    -183.737E+06     2.41964E+06    -183.730E+06     3.88366E+06     758.013E+03
            1229     59.8908E-03     3.93364E-03     59.7614E-03     34.2104E-03    -17.0668E-03    -17.1440E-03    -17.0045E-03     34.0794E-03    -17.0753E-03     5.14473E-03     35.8621E-03     178.685E+06     2.65602E+06     2.12119E+06    -176.295E+06     2.32785E+06    -176.280E+06     2.43445E+06     732.821E+03
            1230     59.9692E-03     4.91677E-03     59.7673E-03     34.1001E-03    -17.0253E-03    -17.0760E-03    -16.8872E-03     33.9152E-03    -17.0293E-03     6.12744E-03     36.6891E-03     170.021E+06     1.86914E+06     804.187E+03    -168.680E+06     1.65385E+06    -168.655E+06     994.803E+03     530.206E+03
            1231     60.0646E-03     5.90056E-03     59.7740E-03     33.9964E-03    -16.9739E-03    -17.0235E-03    -16.7826E-03     33.7595E-03    -16.9778E-03     6.92339E-03     37.7794E-03     159.396E+06     3.05448E+06     1.07563E+06    -157.315E+06     2.77747E+06    -157.296E+06     1.33380E+06    -266.490E+03
            1232     60.1763E-03     6.88422E-03     59.7812E-03     34.0097E-03    -16.9283E-03    -17.0799E-03    -16.7730E-03     33.7028E-03    -16.9283E-03     7.87697E-03     39.3430E-03     146.936E+06     4.00817E+06     310.655E+03    -144.727E+06     3.01030E+06    -144.722E+06     1.30313E+06    -602.864E+03
            1233     60.3051E-03     7.86791E-03     59.7896E-03     34.0119E-03    -16.8885E-03    -17.1243E-03    -16.7539E-03     33.6415E-03    -16.8885E-03     8.66808E-03     41.2780E-03     134.540E+06     2.94990E+06    -1.17660E+06    -133.593E+06     2.01739E+06    -133.586E+06    -251.676E+03     628.508E+03
            1234     60.4502E-03     8.85133E-03     59.7986E-03     33.9279E-03    -16.8399E-03    -17.0923E-03    -16.6738E-03     33.5094E-03    -16.8399E-03     9.19861E-03     43.5259E-03     117.003E+06     1.87447E+06    -3.18845E+06    -117.553E+06     1.85389E+06    -117.532E+06    -3.18845E+06     913.771E+03
            1235     60.6115E-03     9.83549E-03     59.8081E-03     33.8895E-03    -16.7709E-03    -17.1419E-03    -16.6111E-03     33.3587E-03    -16.7709E-03     10.3193E-03     46.5209E-03     98.7739E+06     1.42566E+06    -10.5243E+06    -102.638E+06     1.38814E+06    -102.600E+06    -10.5243E+06    -265.555E+03
            1236     60.7899E-03     10.8189E-03     59.8194E-03     33.7374E-03    -16.6794E-03    -17.1036E-03    -16.4901E-03     33.1239E-03    -16.6794E-03     11.1017E-03     50.2108E-03     75.1320E+06     164.618E+03    -21.7759E+06    -82.9587E+06     95.7250E+03    -82.8898E+06    -21.7759E+06    -632.874E+03
            1237     60.9837E-03     11.8035E-03     59.8305E-03     33.5543E-03    -16.6009E-03    -16.9930E-03    -16.3328E-03     32.8942E-03    -16.6009E-03     11.4672E-03     53.9804E-03     47.3973E+06    -2.20699E+06    -29.1058E+06    -56.1469E+06    -2.50529E+06    -55.8486E+06    -29.1058E+06     786.593E+03
            1238     61.1932E-03     12.7870E-03     59.8423E-03     33.6852E-03    -16.4651E-03    -17.2303E-03    -16.2917E-03     32.7465E-03    -16.4651E-03     13.5945E-03     59.8676E-03     45.0194E+06    -4.81693E+06    -21.2090E+06    -53.3821E+06    -6.53473E+06    -25.4701E+06    -47.4032E+06     683.075E+03
            1239     61.4223E-03     13.7716E-03     59.8585E-03     34.5436E-03    -16.2989E-03    -18.2364E-03    -16.0941E-03     32.4013E-03    -16.2989E-03     20.2569E-03     75.4962E-03     82.8326E+06     24.1614E+06    -11.6720E+06    -68.5376E+06    -10.1319E+06     22.6212E+06    -68.5376E+06    -5.48081E+03
            1240     61.6751E-03     14.7563E-03     59.8838E-03     49.3957E-03    -16.2978E-03    -33.0950E-03    -16.9298E-03     33.2305E-03    -16.2978E-03     61.3994E-03     111.935E-03     132.495E+06     92.3730E+06    -12.9054E+06    -52.8307E+06    -12.8556E+06     92.3233E+06    -52.8307E+06     1.16193E+06
            1241     62.0169E-03     15.7385E-03     59.9866E-03     144.420E-03    -16.5141E-03    -127.905E-03    -30.6674E-03     47.1824E-03    -16.5141E-03     259.486E-03     335.131E-03     170.118E+06     166.253E+06     28.4173E+06    -21.4262E+06    -12.1448E+06     166.226E+06     19.1634E+06     972.044E+03
            1242     62.7082E-03     16.7319E-03     60.4347E-03     229.753E-03    -16.8073E-03    -212.963E-03    -44.3116E-03     61.1012E-03    -16.8073E-03     429.978E-03     624.587E-03     197.617E+06     218.110E+06     108.652E+06    -7.67777E+06    -7.67688E+06     218.109E+06     108.652E+06    -310.823E+03
            1243     60.7932E-03     983.557E-06     60.7852E-03     34.1482E-03    -16.9554E-03    -17.1942E-03    -17.1131E-03     34.1361E-03    -17.0244E-03     1.31101E-03     34.5319E-03     190.112E+06     1.71239E+06    -1.83421E+06    -190.145E+06    -1.38106E+06    -190.124E+06     1.23776E+06    -605.349E+03
            1244     60.8191E-03     1.96654E-03     60.7873E-03     34.1168E-03    -17.0259E-03    -17.0919E-03    -17.0051E-03     34.0774E-03    -17.0734E-03     2.76960E-03     34.6176E-03     188.968E+06     2.81830E+06     140.415E+03    -187.469E+06     528.776E+03    -187.456E+06     2.41638E+06     418.024E+03
            1245     60.8624E-03     2.95057E-03     60.7909E-03     34.1519E-03    -17.0322E-03    -17.1181E-03    -17.0205E-03     34.0743E-03    -17.0522E-03     3.94493E-03     35.0989E-03     186.311E+06     2.65751E+06     1.93116E+06    -184.015E+06     2.32426E+06    -184.006E+06     2.25558E+06     385.678E+03
            1246     60.9223E-03     3.93342E-03     60.7952E-03     34.1813E-03    -17.0333E-03    -17.1470E-03    -17.0155E-03     34.0497E-03    -17.0333E-03     5.14997E-03     35.8311E-03     179.973E+06     3.00309E+06     2.66540E+06    -177.139E+06     2.77162E+06    -177.128E+06     2.88620E+06     1.14322E+06
            1247     60.9996E-03     4.91722E-03     60.8011E-03     34.0309E-03    -16.9877E-03    -17.0437E-03    -16.8498E-03     33.8452E-03    -16.9959E-03     6.13641E-03     36.6220E-03     170.488E+06     3.48283E+06     2.19916E+06    -167.641E+06     2.95730E+06    -167.630E+06     2.71318E+06     431.026E+03
            1248     61.0929E-03     5.90077E-03     60.8072E-03     33.9408E-03    -16.9357E-03    -17.0048E-03    -16.7571E-03     33.7013E-03    -16.9439E-03     6.95340E-03     37.7316E-03     158.759E+06     3.80808E+06     786.654E+03    -156.437E+06     2.50133E+06    -156.431E+06     2.08740E+06    -752.995E+03
            1249     61.2032E-03     6.88459E-03     60.8148E-03     33.9853E-03    -16.9086E-03    -17.0784E-03    -16.7749E-03     33.6818E-03    -16.9086E-03     7.83873E-03     39.3510E-03     148.211E+06     3.92962E+06     797.538E+03    -145.819E+06     1.85772E+06    -145.812E+06     2.86170E+06     57.0313E+03
            1250     61.3300E-03     7.86797E-03     60.8232E-03     33.9483E-03    -16.8644E-03    -17.0895E-03    -16.7269E-03     33.5857E-03    -16.8644E-03     8.56629E-03     41.2305E-03     135.501E+06     3.66815E+06    -535.306E+03    -133.870E+06     2.42816E+06    -133.845E+06     679.433E+03     203.138E+03
            1251     61.4727E-03     8.85200E-03     60.8320E-03     33.8649E-03    -16.8054E-03    -17.0645E-03    -16.6407E-03     33.4411E-03    -16.8054E-03     9.24496E-03     43.4526E-03     117.397E+06     2.64515E+06    -3.85590E+06    -117.865E+06     2.59659E+06    -117.816E+06    -3.85590E+06     280.149E+03
            1252     61.6316E-03     9.83531E-03     60.8417E-03     33.8269E-03    -16.7380E-03    -17.1122E-03    -16.5828E-03     33.2975E-03    -16.7380E-03     10.3076E-03     46.4327E-03     97.3407E+06     1.07968E+06    -10.6957E+06    -101.450E+06     1.04396E+06    -101.414E+06    -10.6957E+06     450.324E+03
            1253     61.8070E-03     10.8196E-03     60.8526E-03     33.7427E-03    -16.6462E-03    -17.1399E-03    -16.5323E-03     33.1351E-03    -16.6462E-03     11.0536E-03     50.1148E-03     73.6040E+06    -1.43994E+06    -23.3449E+06    -83.0458E+06    -1.47751E+06    -83.0082E+06    -23.3449E+06    -505.428E+03
            1254     61.9977E-03     11.8031E-03     60.8638E-03     33.6431E-03    -16.5850E-03    -17.1003E-03    -16.4489E-03     32.9918E-03    -16.5850E-03     11.4191E-03     54.0497E-03     48.9825E+06    -3.12196E+06    -29.8106E+06    -58.8663E+06    -3.37360E+06    -58.6146E+06    -29.8106E+06     943.866E+03
            1255     62.2046E-03     12.7876E-03     60.8760E-03     33.7124E-03    -16.4593E-03    -17.2673E-03    -16.3209E-03     32.7660E-03    -16.4593E-03     13.6321E-03     59.8592E-03     45.6696E+06    -2.53851E+06    -19.4095E+06    -52.2002E+06    -5.36976E+06    -23.1378E+06    -45.6407E+06     1.32272E+06
            1256     62.4294E-03     13.7714E-03     60.8916E-03     34.7091E-03    -16.2927E-03    -18.4087E-03    -16.2621E-03     32.5625E-03    -16.2927E-03     20.4144E-03     75.5676E-03     82.8368E+06     24.1016E+06    -10.5169E+06    -68.8241E+06    -9.23852E+06     22.8232E+06    -68.8241E+06    -294.902E+03
            1257     62.6793E-03     14.7551E-03     60.9179E-03     49.1986E-03    -16.2730E-03    -32.9241E-03    -16.3151E-03     32.5896E-03    -16.2730E-03     61.4871E-03     111.483E-03     131.481E+06     90.0329E+06    -11.9497E+06    -54.5274E+06    -11.8831E+06     89.9663E+06    -54.5274E+06    -35.0443E+03
            1258     63.0170E-03     15.7436E-03     61.0187E-03     142.714E-03    -16.4966E-03    -126.218E-03    -30.8505E-03     47.3471E-03    -16.4966E-03     256.264E-03     333.954E-03     170.206E+06     167.437E+06     29.7831E+06    -20.8074E+06    -10.2988E+06     167.430E+06     19.2814E+06    -191.782E+03
            1259     63.6979E-03     16.7279E-03     61.4622E-03     229.708E-03    -16.8427E-03    -212.887E-03    -44.9787E-03     61.7993E-03    -16.8427E-03     429.461E-03     624.490E-03     198.543E+06     219.196E+06     109.246E+06    -7.44481E+06    -7.43337E+06     219.185E+06     109.246E+06     10.0080E+03
            1260     61.8269E-03     983.385E-06     61.8191E-03     34.0212E-03    -16.9589E-03    -17.0627E-03    -17.0073E-03     34.0073E-03    -17.0005E-03     1.50326E-03     34.5181E-03     190.263E+06     1.27228E+06    -2.01811E+06    -190.609E+06    -1.59339E+06    -190.559E+06     797.646E+03     323.159E+03
            1261     61.8523E-03     1.96705E-03     61.8210E-03     34.0804E-03    -17.0088E-03    -17.0729E-03    -17.0209E-03     34.0444E-03    -17.0248E-03     2.63081E-03     34.6113E-03     188.110E+06     3.04127E+06    -592.201E+03    -186.855E+06    -208.868E+03    -186.837E+06     2.63934E+06    -46.3567E+03
            1262     61.8946E-03     2.95008E-03     61.8242E-03     34.0234E-03    -16.9813E-03    -17.0409E-03    -16.9303E-03     33.9447E-03    -17.0132E-03     3.94822E-03     34.9692E-03     186.029E+06     2.52706E+06     419.464E+03    -184.544E+06     812.256E+03    -184.535E+06     2.12514E+06     4.75120E+03
            1263     61.9541E-03     3.93410E-03     61.8291E-03     34.0060E-03    -16.9674E-03    -17.0374E-03    -16.8911E-03     33.8758E-03    -16.9834E-03     5.12221E-03     35.6541E-03     180.094E+06     3.15140E+06     1.55404E+06    -177.733E+06     1.54982E+06    -177.729E+06     3.15140E+06     316.401E+03
            1264     62.0296E-03     4.91733E-03     61.8344E-03     33.9767E-03    -16.9464E-03    -17.0313E-03    -16.8471E-03     33.7967E-03    -16.9507E-03     6.03384E-03     36.5601E-03     170.474E+06     5.05985E+06     2.96904E+06    -166.446E+06     2.96495E+06    -166.441E+06     5.05985E+06    -72.3904E+03
            1265     62.1217E-03     5.90114E-03     61.8408E-03     33.9951E-03    -16.9141E-03    -17.0812E-03    -16.8370E-03     33.7552E-03    -16.9184E-03     6.96410E-03     37.7850E-03     160.889E+06     5.41706E+06     2.49706E+06    -156.910E+06     3.09878E+06    -156.892E+06     4.79756E+06     147.992E+03
            1266     62.2303E-03     6.88440E-03     61.8484E-03     33.9411E-03    -16.8754E-03    -17.0681E-03    -16.7640E-03     33.6371E-03    -16.8754E-03     7.84385E-03     39.2839E-03     148.896E+06     3.97341E+06     1.29254E+06    -146.242E+06     2.80186E+06    -146.209E+06     2.43178E+06     192.204E+03
            1267     62.3550E-03     7.86841E-03     61.8566E-03     33.8497E-03    -16.8247E-03    -17.0299E-03    -16.6637E-03     33.4835E-03    -16.8247E-03     8.59050E-03     41.0952E-03     134.136E+06     2.90649E+06    -1.04555E+06    -133.149E+06     2.57531E+06    -133.107E+06    -755.740E+03    -450.347E+03
            1268     62.4956E-03     8.85186E-03     61.8655E-03     33.7895E-03    -16.7732E-03    -17.0183E-03    -16.5927E-03     33.3639E-03    -16.7732E-03     9.25488E-03     43.3419E-03     118.669E+06     2.42400E+06    -4.29927E+06    -119.452E+06     2.35867E+06    -119.387E+06    -4.29927E+06    -6.49656E+03
            1269     62.6520E-03     9.83620E-03     61.8750E-03     33.7772E-03    -16.7055E-03    -17.0946E-03    -16.5620E-03     33.2446E-03    -16.7055E-03     10.3256E-03     46.3416E-03     98.0132E+06     2.00683E+06    -10.1675E+06    -101.380E+06     1.90455E+06    -101.278E+06    -10.1675E+06     971.978E+03
            1270     62.8247E-03     10.8196E-03     61.8860E-03     33.7647E-03    -16.6238E-03    -17.1829E-03    -16.5634E-03     33.1452E-03    -16.6238E-03     11.1669E-03     50.1348E-03     73.9108E+06    -771.068E+03    -21.3470E+06    -82.5141E+06    -837.710E+03    -82.4475E+06    -21.3470E+06     1.23506E+06
            1271     63.0128E-03     11.8037E-03     61.8974E-03     33.6661E-03    -16.5469E-03    -17.1580E-03    -16.4683E-03     32.9764E-03    -16.5469E-03     11.7414E-03     54.0166E-03     50.4320E+06    -3.64043E+06    -31.5527E+06    -59.8663E+06    -3.66366E+06    -59.4111E+06    -31.9847E+06    -76.0291E+03
            1272     63.2160E-03     12.7873E-03     61.9092E-03     33.7304E-03    -16.4153E-03    -17.3284E-03    -16.3396E-03     32.7416E-03    -16.4153E-03     13.9672E-03     59.8249E-03     47.7244E+06    -1.70844E+06    -21.0372E+06    -52.5953E+06    -4.36323E+06    -22.2503E+06    -48.7275E+06    -500.364E+03
            1273     63.4382E-03     13.7719E-03     61.9253E-03     34.6833E-03    -16.2545E-03    -18.4215E-03    -16.1498E-03     32.4115E-03    -16.2545E-03     20.9106E-03     75.2875E-03     84.5424E+06     24.1792E+06    -7.79548E+06    -70.4710E+06    -6.53594E+06     22.9196E+06    -70.4710E+06     23.7462E+03
            1274     63.6846E-03     14.7565E-03     61.9514E-03     48.5181E-03    -16.2434E-03    -32.2726E-03    -16.3498E-03     32.5953E-03    -16.2434E-03     60.2982E-03     110.621E-03     132.735E+06     90.4635E+06    -10.3576E+06    -54.7154E+06    -10.2064E+06     90.3123E+06    -54.7154E+06    -1.08284E+06
            1275     64.0134E-03     15.7416E-03     62.0477E-03     143.783E-03    -16.5362E-03    -127.244E-03    -32.9514E-03     49.4896E-03    -16.5362E-03     257.118E-03     334.623E-03     170.920E+06     167.135E+06     28.7298E+06    -21.3351E+06    -12.3259E+06     167.066E+06     19.7893E+06    -852.918E+03
            1276     64.7008E-03     16.7215E-03     62.5027E-03     229.768E-03    -16.9236E-03    -212.859E-03    -45.0473E-03     61.9562E-03    -16.9236E-03     429.376E-03     625.438E-03     197.836E+06     218.526E+06     107.490E+06    -7.81295E+06    -7.79185E+06     218.504E+06     107.490E+06     1.10457E+06
            1277     62.8604E-03     983.698E-06     62.8527E-03     33.8550E-03    -16.8457E-03    -17.0087E-03    -16.9694E-03     33.8401E-03    -16.8700E-03     1.65886E-03     34.3120E-03     189.806E+06     56.8094E+03    -2.36353E+06    -190.943E+06    -1.72787E+06    -190.907E+06    -615.663E+03     1.23601E+06
            1278     62.8854E-03     1.96675E-03     62.8547E-03     33.9292E-03    -16.9192E-03    -17.0091E-03    -16.9447E-03     33.8891E-03    -16.9435E-03     2.75156E-03     34.4686E-03     187.574E+06     2.06342E+06    -865.109E+03    -186.954E+06    -879.459E+03    -186.940E+06     2.06342E+06     216.666E+03
            1279     62.9270E-03     2.95067E-03     62.8578E-03     33.9706E-03    -16.9371E-03    -17.0323E-03    -16.9334E-03     33.8877E-03    -16.9531E-03     4.06491E-03     34.9126E-03     186.126E+06     2.92924E+06    -446.666E+03    -184.862E+06    -450.819E+03    -184.858E+06     2.92924E+06     148.178E+03
            1280     62.9853E-03     3.93389E-03     62.8623E-03     33.8904E-03    -16.9135E-03    -16.9768E-03    -16.8329E-03     33.7625E-03    -16.9295E-03     5.07363E-03     35.5342E-03     179.169E+06     3.06900E+06     487.587E+03    -177.373E+06     479.776E+03    -177.365E+06     3.06900E+06    -503.478E+03
            1281     63.0600E-03     4.91792E-03     62.8679E-03     33.8847E-03    -16.8897E-03    -16.9964E-03    -16.8141E-03     33.7024E-03    -16.8897E-03     6.05619E-03     36.4566E-03     168.352E+06     2.98269E+06     999.707E+03    -166.348E+06     1.25301E+06    -166.337E+06     2.71790E+06    -487.263E+03
            1282     63.1506E-03     5.90110E-03     62.8743E-03     33.9345E-03    -16.8658E-03    -17.0687E-03    -16.8224E-03     33.6882E-03    -16.8658E-03     7.05640E-03     37.7183E-03     160.254E+06     4.45858E+06     1.46676E+06    -157.266E+06     2.32448E+06    -157.239E+06     3.57429E+06     79.5867E+03
            1283     63.2576E-03     6.88506E-03     62.8818E-03     33.8754E-03    -16.8341E-03    -17.0410E-03    -16.7328E-03     33.5672E-03    -16.8341E-03     7.88857E-03     39.2152E-03     148.965E+06     4.67270E+06     1.37373E+06    -145.913E+06     2.87070E+06    -145.868E+06     3.13106E+06     75.0893E+03
            1284     63.3801E-03     7.86852E-03     62.8898E-03     33.8126E-03    -16.7931E-03    -17.0208E-03    -16.6492E-03     33.4410E-03    -16.7931E-03     8.65135E-03     41.0590E-03     135.079E+06     2.95164E+06     72.6682E+03    -133.538E+06     2.26855E+06    -133.505E+06     722.219E+03     207.182E+03
            1285     63.5189E-03     8.85261E-03     62.8989E-03     33.7573E-03    -16.7405E-03    -17.0183E-03    -16.5936E-03     33.3326E-03    -16.7405E-03     9.24518E-03     43.3013E-03     118.195E+06     1.24862E+06    -3.79154E+06    -119.354E+06     1.21919E+06    -119.324E+06    -3.79154E+06    -124.109E+03
            1286     63.6724E-03     9.83599E-03     62.9081E-03     33.7500E-03    -16.6691E-03    -17.1027E-03    -16.5704E-03     33.2177E-03    -16.6691E-03     10.3153E-03     46.3072E-03     98.0531E+06     1.26257E+06    -11.2340E+06    -102.280E+06     1.13845E+06    -102.155E+06    -11.2340E+06    -358.873E+03
            1287     63.8434E-03     10.8203E-03     62.9198E-03     33.6904E-03    -16.6048E-03    -17.1264E-03    -16.5150E-03     33.0791E-03    -16.6048E-03     11.0790E-03     50.0728E-03     77.6188E+06     2.19772E+06    -18.5575E+06    -83.4699E+06     2.04063E+06    -83.3129E+06    -18.5575E+06     1.18178E+06
            1288     64.0278E-03     11.8041E-03     62.9303E-03     33.5776E-03    -16.5209E-03    -17.0941E-03    -16.4123E-03     32.8959E-03    -16.5209E-03     11.6509E-03     53.8781E-03     52.0765E+06     343.790E+03    -28.2052E+06    -57.2951E+06     264.809E+03    -56.7841E+06    -28.6372E+06     429.264E+03
            1289     64.2292E-03     12.7885E-03     62.9431E-03     33.6524E-03    -16.3773E-03    -17.2878E-03    -16.2964E-03     32.6610E-03    -16.3773E-03     13.9736E-03     59.6605E-03     46.8399E+06    -2.56638E+06    -21.5978E+06    -51.7898E+06    -4.32995E+06    -22.5415E+06    -49.0825E+06    -1.52997E+06
            1290     64.4469E-03     13.7722E-03     62.9582E-03     34.5034E-03    -16.2196E-03    -18.2777E-03    -16.0688E-03     32.2946E-03    -16.2196E-03     20.5988E-03     75.0202E-03     84.2162E+06     23.1845E+06    -9.18407E+06    -70.7209E+06    -8.32815E+06     22.3286E+06    -70.7209E+06    -1.05270E+06
            1291     64.6901E-03     14.7573E-03     62.9844E-03     48.7202E-03    -16.2300E-03    -32.4873E-03    -16.8774E-03     33.1103E-03    -16.2300E-03     60.1418E-03     110.441E-03     133.468E+06     91.3472E+06    -12.3615E+06    -53.9775E+06    -12.1093E+06     91.0949E+06    -53.9775E+06     85.9132E+03
            1292     65.0166E-03     15.7409E-03     63.0824E-03     145.705E-03    -16.5425E-03    -129.157E-03    -33.5687E-03     50.1163E-03    -16.5425E-03     260.524E-03     335.896E-03     170.513E+06     166.266E+06     26.9633E+06    -20.9821E+06    -13.6989E+06     166.114E+06     19.8314E+06     338.457E+03
            1293     65.7067E-03     16.7268E-03     63.5420E-03     228.815E-03    -16.9176E-03    -211.910E-03    -44.5513E-03     61.4564E-03    -16.9176E-03     427.681E-03     624.930E-03     197.346E+06     217.816E+06     106.312E+06    -8.05574E+06    -8.03660E+06     217.797E+06     106.312E+06     200.266E+03
            1294     63.8936E-03     983.362E-06     63.8860E-03     33.6032E-03    -16.7080E-03    -16.8953E-03    -16.8184E-03     33.5886E-03    -16.7702E-03     1.61636E-03     34.0003E-03     189.636E+06    -1.43174E+06    -3.01598E+06    -191.852E+06    -2.35251E+06    -191.843E+06    -2.10422E+06     606.201E+03
            1295     63.9181E-03     1.96767E-03     63.8878E-03     33.7337E-03    -16.7956E-03    -16.9354E-03    -16.8692E-03     33.6917E-03    -16.8198E-03     2.83282E-03     34.2435E-03     186.206E+06    -334.699E+03    -1.54469E+06     -187.14E+06    -1.39136E+06    -187.133E+06    -495.212E+03     759.001E+03
            1296     63.9595E-03     2.95072E-03     63.8914E-03     33.8720E-03    -16.8582E-03    -17.0106E-03    -16.9307E-03     33.7921E-03    -16.8582E-03     3.99748E-03     34.8072E-03     184.137E+06     1.50606E+06    -805.499E+03    -183.772E+06    -653.503E+03    -183.763E+06     1.34555E+06    -380.979E+03
            1297     64.0167E-03     3.93443E-03     63.8957E-03     33.8651E-03    -16.8642E-03    -17.0005E-03    -16.8729E-03     33.7376E-03    -16.8642E-03     5.05475E-03     35.4923E-03     178.731E+06     2.27217E+06     706.989E+03    -177.231E+06     693.197E+03    -177.217E+06     2.27217E+06    -947.438E+03
            1298     64.0900E-03     4.91778E-03     63.9011E-03     33.8083E-03    -16.8424E-03    -16.9671E-03    -16.7842E-03     33.6254E-03    -16.8424E-03     6.06546E-03     36.3768E-03     168.634E+06     2.99944E+06     1.33065E+06    -166.455E+06     1.58323E+06    -166.443E+06     2.73465E+06    -634.498E+03
            1299     64.1799E-03     5.90182E-03     63.9079E-03     33.7743E-03    -16.8229E-03    -16.9506E-03    -16.7087E-03     33.5324E-03    -16.8229E-03     6.97184E-03     37.5652E-03     161.326E+06     5.06671E+06     1.57490E+06    -157.972E+06     1.81243E+06    -157.945E+06     4.80192E+06     16.1621E+03
            1300     64.2847E-03     6.88517E-03     63.9149E-03     33.8042E-03    -16.7880E-03    -17.0161E-03    -16.7078E-03     33.4959E-03    -16.7880E-03     7.88120E-03     39.1417E-03     148.809E+06     4.11179E+06     1.25226E+06    -146.103E+06     1.42429E+06    -146.067E+06     3.90385E+06     344.496E+03
            1301     64.4059E-03     7.86911E-03     63.9234E-03     33.8103E-03    -16.7501E-03    -17.0629E-03    -16.6979E-03     33.4453E-03    -16.7501E-03     8.58367E-03     41.0440E-03     134.933E+06     2.39741E+06     64.6272E+03    -133.678E+06     1.72346E+06    -133.654E+06     714.178E+03     472.031E+03
            1302     64.5419E-03     8.85255E-03     63.9319E-03     33.7587E-03    -16.7048E-03    -17.0590E-03    -16.6376E-03     33.3373E-03    -16.7048E-03     9.20954E-03     43.2957E-03     117.534E+06     2.05093E+06    -3.14536E+06    -117.963E+06     2.01575E+06    -117.928E+06    -3.14536E+06    -255.982E+03
            1303     64.6941E-03     9.83665E-03     63.9419E-03     33.7353E-03    -16.6380E-03    -17.1225E-03    -16.5941E-03     33.2069E-03    -16.6380E-03     10.2880E-03     46.2922E-03     97.8767E+06     1.07032E+06    -11.8389E+06    -102.441E+06     988.327E+03    -102.359E+06    -11.8389E+06    -1.21356E+06
            1304     64.8614E-03     10.8202E-03     63.9525E-03     33.6734E-03    -16.5786E-03    -17.1363E-03    -16.5305E-03     33.0676E-03    -16.5786E-03     11.0277E-03     50.0324E-03     77.1986E+06     68.4256E+03    -20.1807E+06    -85.1064E+06    -132.693E+03    -84.9053E+06    -20.1807E+06    -982.581E+03
            1305     65.0443E-03     11.8043E-03     63.9642E-03     33.5339E-03    -16.5185E-03    -17.0518E-03    -16.3955E-03     32.8776E-03    -16.5185E-03     11.4393E-03     53.8526E-03     50.1884E+06    -127.706E+03    -25.5575E+06    -56.2634E+06    -385.588E+03    -56.0055E+06    -25.5575E+06     361.606E+03
            1306     65.2414E-03     12.7882E-03     63.9758E-03     33.4972E-03    -16.3873E-03    -17.1184E-03    -16.1809E-03     32.5597E-03    -16.3873E-03     13.5373E-03     59.5503E-03     43.1134E+06    -1.51684E+06    -17.9705E+06    -47.4488E+06    -2.82029E+06    -21.3517E+06    -42.7641E+06     66.0520E+03
            1307     65.4573E-03     13.7730E-03     63.9919E-03     34.5381E-03    -16.2170E-03    -18.3124E-03    -16.1444E-03     32.3702E-03    -16.2170E-03     20.4221E-03     75.0996E-03     80.6917E+06     22.8225E+06    -9.16399E+06    -67.2658E+06    -8.14618E+06     21.8047E+06    -67.2658E+06    -774.935E+03
            1308     65.6961E-03     14.7566E-03     64.0174E-03     48.8414E-03    -16.2048E-03    -32.6339E-03    -16.7251E-03     32.9326E-03    -16.2048E-03     60.4826E-03     110.554E-03     131.941E+06     89.6387E+06    -12.4765E+06    -54.8505E+06    -12.2407E+06     89.4029E+06    -54.8505E+06     460.635E+03
            1309     66.0210E-03     15.7421E-03     64.1168E-03     146.672E-03    -16.4825E-03    -130.188E-03    -33.1127E-03     49.5975E-03    -16.4825E-03     263.028E-03     335.741E-03     170.057E+06     166.291E+06     28.2311E+06    -21.2548E+06    -12.0548E+06     166.157E+06     19.1652E+06     804.186E+03
            1310     66.7069E-03     16.7244E-03     64.5763E-03     228.397E-03    -16.8500E-03    -211.571E-03    -44.8210E-03     61.6473E-03    -16.8500E-03     426.830E-03     623.763E-03     197.874E+06     218.606E+06     106.755E+06    -7.77695E+06    -7.75388E+06     218.583E+06     106.755E+06    -173.436E+03
            1311     64.9262E-03     984.175E-06     64.9187E-03     33.4628E-03    -16.6284E-03    -16.8350E-03    -16.7813E-03     33.4470E-03    -16.6663E-03     1.68381E-03     33.8954E-03     190.343E+06     131.659E+03    -3.22849E+06    -191.852E+06    -2.58409E+06    -191.844E+06    -520.711E+03    -388.381E+03
            1312     64.9511E-03     1.96709E-03     64.9213E-03     33.6734E-03    -16.7632E-03    -16.9078E-03    -16.8675E-03     33.6331E-03    -16.7632E-03     2.79821E-03     34.1632E-03     187.661E+06     2.07610E+06    -1.26914E+06    -187.215E+06    -11.5042E+03    -187.208E+06     811.466E+03    -375.073E+03
            1313     64.9917E-03     2.95106E-03     64.9247E-03     33.7225E-03    -16.7958E-03    -16.9235E-03    -16.8472E-03     33.6462E-03    -16.7958E-03     3.89077E-03     34.6564E-03     183.412E+06     1.77048E+06    -114.431E+03    -182.573E+06     1.14101E+06    -182.563E+06     505.852E+03    -801.108E+03
            1314     65.0480E-03     3.93455E-03     64.9289E-03     33.7749E-03    -16.8088E-03    -16.9663E-03    -16.8406E-03     33.6492E-03    -16.8088E-03     5.00975E-03     35.4013E-03     178.675E+06     2.61267E+06     1.00821E+06    -176.855E+06     995.463E+03    -176.842E+06     2.61267E+06    -1.20142E+06
            1315     65.1207E-03     4.91819E-03     64.9348E-03     33.7372E-03    -16.7988E-03    -16.9396E-03    -16.7579E-03     33.5555E-03    -16.7988E-03     6.03936E-03     36.3081E-03     169.831E+06     3.62193E+06     986.470E+03    -167.504E+06     975.485E+03    -167.493E+06     3.62193E+06    -629.432E+03
            1316     65.2083E-03     5.90164E-03     64.9406E-03     33.7155E-03    -16.7759E-03    -16.9391E-03    -16.6984E-03     33.4748E-03    -16.7759E-03     6.95051E-03     37.4980E-03     161.658E+06     4.01337E+06     1.37612E+06    -158.940E+06     1.44474E+06    -158.917E+06     3.92166E+06     130.205E+03
            1317     65.3125E-03     6.88587E-03     64.9485E-03     33.7511E-03    -16.7429E-03    -17.0102E-03    -16.7086E-03     33.4495E-03    -16.7429E-03     7.79239E-03     39.0634E-03     149.108E+06     3.46422E+06     2.15416E+06    -146.290E+06     2.53486E+06    -146.255E+06     3.04842E+06     575.406E+03
            1318     65.4314E-03     7.86918E-03     64.9565E-03     33.7681E-03    -16.7059E-03    -17.0651E-03    -16.7073E-03     33.4103E-03    -16.7059E-03     8.49221E-03     40.9542E-03     133.954E+06     2.80277E+06    -217.729E+03    -132.617E+06     2.75212E+06    -132.567E+06    -217.729E+03    -103.895E+03
            1319     65.5660E-03     8.85309E-03     64.9655E-03     33.7322E-03    -16.6651E-03    -17.0700E-03    -16.6483E-03     33.3105E-03    -16.6651E-03     9.20899E-03     43.2432E-03     116.752E+06     2.58708E+06    -4.34793E+06    -117.464E+06     2.52092E+06    -117.398E+06    -4.34793E+06    -657.279E+03
            1320     65.7152E-03     9.83659E-03     64.9748E-03     33.7258E-03    -16.6092E-03    -17.1404E-03    -16.6135E-03     33.1989E-03    -16.6092E-03     10.2781E-03     46.2697E-03     97.5240E+06     1.40131E+06    -12.1632E+06    -102.021E+06     1.34169E+06    -101.961E+06    -12.1632E+06    -532.483E+03
            1321     65.8809E-03     10.8207E-03     64.9862E-03     33.6907E-03    -16.5434E-03    -17.1889E-03    -16.5765E-03     33.0782E-03    -16.5434E-03     11.0950E-03     50.0691E-03     75.5635E+06    -957.590E+03    -23.0519E+06    -84.8260E+06    -1.08177E+06    -84.7018E+06    -23.0519E+06    -1.27183E+06
            1322     66.0604E-03     11.8043E-03     64.9972E-03     33.5356E-03    -16.4712E-03    -17.1037E-03    -16.4324E-03     32.8643E-03    -16.4712E-03     11.5765E-03     53.7834E-03     50.6342E+06    -1.84911E+06    -31.7571E+06    -57.8384E+06    -2.43306E+06    -56.9773E+06    -32.0343E+06    -1.89878E+06
            1323     66.2554E-03     12.7886E-03     65.0095E-03     33.5261E-03    -16.3553E-03    -17.1815E-03    -16.2616E-03     32.6061E-03    -16.3553E-03     13.4472E-03     59.5983E-03     45.3935E+06    -777.119E+03    -21.5539E+06    -48.7481E+06    -2.85665E+06    -21.4518E+06    -46.7707E+06    -324.069E+03
            1324     66.4670E-03     13.7727E-03     65.0244E-03     34.4600E-03    -16.2009E-03    -18.2475E-03    -16.0507E-03     32.2633E-03    -16.2009E-03     20.4237E-03     75.2132E-03     81.5391E+06     23.4589E+06    -8.25110E+06    -68.0272E+06    -6.13194E+06     21.3398E+06    -68.0272E+06     879.427E+03
            1325     66.7049E-03     14.7575E-03     65.0520E-03     48.4352E-03    -16.1835E-03    -32.2468E-03    -16.5872E-03     32.7757E-03    -16.1835E-03     59.9510E-03     110.740E-03     131.786E+06     89.2254E+06    -10.7569E+06    -55.2604E+06    -10.6138E+06     89.0823E+06    -55.2604E+06     376.856E+03
            1326     67.0225E-03     15.7433E-03     65.1472E-03     146.373E-03    -16.4312E-03    -129.941E-03    -32.2909E-03     48.7226E-03    -16.4312E-03     262.832E-03     335.737E-03     170.052E+06     166.583E+06     28.3498E+06    -21.1096E+06    -11.3555E+06     166.496E+06     18.6829E+06     317.577E+03
            1327     67.7160E-03     16.7314E-03     65.6165E-03     228.852E-03    -16.7749E-03    -212.098E-03    -45.0876E-03     61.8419E-03    -16.7749E-03     427.768E-03     623.560E-03     197.754E+06     218.767E+06     106.028E+06    -7.44668E+06    -7.42460E+06     218.745E+06     106.028E+06     237.230E+03
            1328     65.9596E-03     983.549E-06     65.9522E-03     33.5609E-03    -16.6573E-03    -16.9040E-03    -16.7815E-03     33.5465E-03    -16.7654E-03     1.57905E-03     33.9657E-03     191.813E+06     2.71811E+06    -1.08565E+06    -190.956E+06    -441.483E+03    -190.948E+06     2.06574E+06    -586.291E+03
            1329     65.9838E-03     1.96753E-03     65.9545E-03     33.5782E-03    -16.7093E-03    -16.8683E-03    -16.7540E-03     33.5387E-03    -16.7841E-03     2.76337E-03     34.0527E-03     188.665E+06     4.18121E+06    -395.308E+03    -186.721E+06     699.473E+03    -186.712E+06     3.07709E+06    -1.03227E+06
            1330     66.0236E-03     2.95104E-03     65.9577E-03     33.6150E-03    -16.7670E-03    -16.8469E-03    -16.7693E-03     33.5374E-03    -16.7670E-03     3.91015E-03     34.5462E-03     183.267E+06     2.17032E+06    -53.8116E+03    -182.193E+06     1.10786E+06    -182.188E+06     1.00346E+06    -618.420E+03
            1331     66.0798E-03     3.93468E-03     65.9625E-03     33.6012E-03    -16.7565E-03    -16.8458E-03    -16.7213E-03     33.4767E-03    -16.7565E-03     4.98067E-03     35.2286E-03     177.959E+06     1.84820E+06     474.946E+03    -176.789E+06     623.125E+03    -176.782E+06     1.69357E+06    -289.210E+03
            1332     66.1506E-03     4.91848E-03     65.9675E-03     33.6179E-03    -16.7338E-03    -16.8859E-03    -16.7038E-03     33.4359E-03    -16.7338E-03     6.02841E-03     36.1833E-03     168.697E+06     1.84865E+06     357.549E+03    -167.585E+06     432.880E+03    -167.568E+06     1.75676E+06    -621.962E+03
            1333     66.2378E-03     5.90239E-03     65.9743E-03     33.7372E-03    -16.7165E-03    -17.0210E-03    -16.7755E-03     33.4918E-03    -16.7165E-03     7.02917E-03     37.5230E-03     160.351E+06     1.48337E+06     722.346E+03    -159.246E+06     1.01531E+06    -159.230E+06     1.17500E+06    -771.311E+03
            1334     66.3397E-03     6.88542E-03     65.9814E-03     33.7455E-03    -16.6997E-03    -17.0477E-03    -16.7428E-03     33.4405E-03    -16.6997E-03     7.83640E-03     39.0568E-03     148.020E+06     2.48410E+06     894.018E+03    -146.315E+06     2.43826E+06    -146.269E+06     894.018E+03    -715.911E+03
            1335     66.4576E-03     7.86959E-03     65.9900E-03     33.7086E-03    -16.6743E-03    -17.0378E-03    -16.6786E-03     33.3494E-03    -16.6743E-03     8.50182E-03     40.8983E-03     133.566E+06     3.62924E+06    -493.895E+03    -131.935E+06     3.55693E+06    -131.863E+06    -493.895E+03    -738.793E+03
            1336     66.5897E-03     8.85313E-03     65.9985E-03     33.6989E-03    -16.6426E-03    -17.0593E-03    -16.6459E-03     33.2856E-03    -16.6426E-03     9.11755E-03     43.2181E-03     117.535E+06     3.32658E+06    -3.63561E+06    -117.524E+06     3.25798E+06    -117.456E+06    -3.63561E+06    -781.311E+03
            1337     66.7374E-03     9.83720E-03     66.0084E-03     33.7063E-03    -16.5896E-03    -17.1408E-03    -16.6179E-03     33.1834E-03    -16.5896E-03     10.2280E-03     46.2587E-03     98.9600E+06     2.66619E+06    -11.1757E+06    -102.293E+06     2.60325E+06    -102.230E+06    -11.1757E+06    -619.053E+03
            1338     66.9001E-03     10.8207E-03     66.0192E-03     33.6886E-03    -16.5208E-03    -17.2109E-03    -16.6018E-03     33.0794E-03    -16.5208E-03     11.0695E-03     50.0604E-03     76.4264E+06     1.59102E+06    -21.9836E+06    -83.4804E+06     1.50105E+06    -83.3904E+06    -21.9836E+06    -1.03120E+06
            1339     67.0776E-03     11.8048E-03     66.0307E-03     33.5293E-03    -16.4511E-03    -17.1184E-03    -16.4643E-03     32.8753E-03    -16.4511E-03     11.4289E-03     53.7526E-03     50.2018E+06    -975.680E+03    -31.4808E+06    -56.8412E+06    -1.44170E+06    -56.0980E+06    -31.7581E+06    -2.22093E+06
            1340     67.2693E-03     12.7886E-03     66.0425E-03     33.6076E-03    -16.3317E-03    -17.2911E-03    -16.3616E-03     32.6780E-03    -16.3317E-03     13.5163E-03     59.5786E-03     46.7418E+06    -2.50632E+06    -24.4734E+06    -52.6008E+06    -5.11031E+06    -24.2625E+06    -50.2076E+06    -1.71077E+06
            1341     67.4788E-03     13.7727E-03     66.0583E-03     34.4109E-03    -16.1748E-03    -18.2282E-03    -16.1263E-03     32.3091E-03    -16.1748E-03     20.0658E-03     75.1336E-03     85.2808E+06     23.3829E+06    -11.3311E+06    -72.8464E+06    -8.10552E+06     20.1573E+06    -72.8464E+06     381.940E+03
            1342     67.7113E-03     14.7579E-03     66.0835E-03     48.6056E-03    -16.1829E-03    -32.4174E-03    -16.8611E-03     33.0493E-03    -16.1829E-03     59.8213E-03     110.980E-03     133.910E+06     90.2858E+06    -10.9923E+06    -56.6397E+06    -10.8067E+06     90.1001E+06    -56.6397E+06     601.771E+03
            1343     68.0293E-03     15.7407E-03     66.1832E-03     145.107E-03    -16.4447E-03    -128.661E-03    -31.7336E-03     48.1802E-03    -16.4447E-03     260.388E-03     335.707E-03     169.823E+06     166.278E+06     27.7796E+06    -21.0582E+06    -11.3746E+06     166.183E+06     18.1905E+06     283.943E+03
            1344     68.7065E-03     16.7283E-03     66.6390E-03     229.835E-03    -16.7807E-03    -213.073E-03    -45.0555E-03     61.8180E-03    -16.7807E-03     429.815E-03     624.794E-03     197.878E+06     218.828E+06     105.549E+06    -7.47122E+06    -7.44823E+06     218.805E+06     105.549E+06     424.947E+03
            1345     66.9922E-03     983.428E-06     66.9850E-03     33.6838E-03    -16.7674E-03    -16.9172E-03    -16.7549E-03     33.6714E-03    -16.9172E-03     1.40940E-03     34.0833E-03     191.762E+06     2.12918E+06     194.102E+03    -190.592E+06     659.646E+03    -190.581E+06     1.65227E+06    -221.265E+03
            1346     67.0163E-03     1.96731E-03     66.9875E-03     33.4644E-03    -16.6440E-03    -16.8199E-03    -16.6243E-03     33.4255E-03    -16.8006E-03     2.71936E-03     33.9410E-03     187.209E+06     2.04519E+06    -99.3933E+03    -186.225E+06     257.327E+03    -186.217E+06     1.67978E+06     255.197E+03
            1347     67.0560E-03     2.95109E-03     66.9910E-03     33.4466E-03    -16.6820E-03    -16.7638E-03    -16.6325E-03     33.3684E-03    -16.7351E-03     3.91565E-03     34.3735E-03     181.931E+06     364.370E+03    -1.08154E+06    -182.282E+06    -657.423E+03    -182.278E+06    -63.7749E+03    -225.439E+03
            1348     67.1107E-03     3.93499E-03     66.9952E-03     33.4836E-03    -16.6955E-03    -16.7883E-03    -16.6628E-03     33.3580E-03    -16.6955E-03     4.99259E-03     35.1041E-03     176.039E+06    -14.8914E+03    -1.32814E+06    -176.703E+06    -250.690E+03    -176.699E+06    -1.09559E+06    -52.2043E+03
            1349     67.1811E-03     4.91878E-03     67.0008E-03     33.5868E-03    -16.6806E-03    -16.9075E-03    -16.7266E-03     33.4058E-03    -16.6806E-03     6.01403E-03     36.1496E-03     166.696E+06     1.33463E+06    -457.573E+03    -166.244E+06     547.528E+03    -166.232E+06     316.666E+03    -934.510E+03
            1350     67.2668E-03     5.90219E-03     67.0073E-03     33.6776E-03    -16.6818E-03    -16.9970E-03    -16.7547E-03     33.4353E-03    -16.6818E-03     6.97682E-03     37.4624E-03     160.187E+06     1.82325E+06     673.366E+03    -158.933E+06     1.01702E+06    -158.901E+06     1.44761E+06    -1.75272E+06
            1351     67.3679E-03     6.88632E-03     67.0150E-03     33.7045E-03    -16.6617E-03    -17.0449E-03    -16.7403E-03     33.3999E-03    -16.6617E-03     7.82844E-03     39.0017E-03     146.561E+06     1.34495E+06    -601.308E+03    -146.171E+06     1.29497E+06    -146.121E+06    -601.308E+03    -2.00760E+06
            1352     67.4833E-03     7.86954E-03     67.0228E-03     33.7069E-03    -16.6434E-03    -17.0685E-03    -16.7066E-03     33.3449E-03    -16.6434E-03     8.53627E-03     40.9106E-03     131.948E+06     1.67090E+06    -2.30313E+06    -132.212E+06     1.59621E+06    -132.138E+06    -2.30313E+06    -1.77132E+06
            1353     67.6143E-03     8.85347E-03     67.0322E-03     33.6714E-03    -16.6224E-03    -17.0542E-03    -16.6412E-03     33.2584E-03    -16.6224E-03     9.11184E-03     43.1898E-03     116.849E+06     2.22432E+06    -4.23861E+06    -117.706E+06     2.14669E+06    -117.628E+06    -4.23861E+06    -1.23869E+06
            1354     67.7591E-03     9.83694E-03     67.0413E-03     33.7056E-03    -16.5785E-03    -17.1524E-03    -16.6315E-03     33.1847E-03    -16.5785E-03     10.2089E-03     46.2806E-03     98.8703E+06     2.21537E+06    -10.3761E+06    -102.214E+06     2.11297E+06    -102.111E+06    -10.3761E+06    -1.39790E+06
            1355     67.9204E-03     10.8212E-03     67.0528E-03     33.6901E-03    -16.5126E-03    -17.2190E-03    -16.6142E-03     33.0853E-03    -16.5126E-03     11.0314E-03     50.0683E-03     76.2009E+06     1.30389E+06    -20.8824E+06    -83.0349E+06     1.16619E+06    -82.8972E+06    -20.8824E+06    -1.55414E+06
            1356     68.0949E-03     11.8046E-03     67.0639E-03     33.5449E-03    -16.4586E-03    -17.1227E-03    -16.4824E-03     32.9045E-03    -16.4586E-03     11.3149E-03     53.8250E-03     48.1987E+06    -1.24679E+06    -28.4003E+06    -56.0309E+06    -1.35478E+06    -55.9229E+06    -28.4003E+06    -784.287E+03
            1357     68.2841E-03     12.7889E-03     67.0758E-03     33.5870E-03    -16.3420E-03    -17.2579E-03    -16.3273E-03     32.6564E-03    -16.3420E-03     13.4982E-03     59.5425E-03     44.9638E+06    -3.69147E+06    -21.4288E+06    -52.5873E+06    -5.59256E+06    -25.1808E+06    -46.9342E+06    -894.643E+03
            1358     68.4908E-03     13.7731E-03     67.0916E-03     34.6135E-03    -16.1767E-03    -18.4314E-03    -16.3336E-03     32.5157E-03    -16.1767E-03     20.1915E-03     74.9822E-03     83.9867E+06     22.0845E+06    -12.0750E+06    -72.3548E+06    -9.41120E+06     19.4207E+06    -72.3548E+06    -1.30415E+06
            1359     68.7201E-03     14.7564E-03     67.1170E-03     48.9313E-03    -16.1897E-03    -32.7403E-03    -16.7686E-03     32.9596E-03    -16.1897E-03     60.4436E-03     110.777E-03     133.189E+06     89.7149E+06    -12.4490E+06    -56.1587E+06    -12.0600E+06     89.3259E+06    -56.1587E+06    -80.8716E+03
            1360     69.0357E-03     15.7427E-03     67.2168E-03     144.853E-03    -16.4784E-03    -128.374E-03    -32.6886E-03     49.1671E-03    -16.4784E-03     259.527E-03     335.131E-03     169.711E+06     166.268E+06     27.1675E+06    -20.6109E+06    -11.5523E+06     166.145E+06     18.2322E+06     813.584E+03
            1361     69.7073E-03     16.7279E-03     67.6704E-03     230.241E-03    -16.8544E-03    -213.412E-03    -45.2548E-03     62.0844E-03    -16.8544E-03     430.386E-03     625.816E-03     198.031E+06     219.122E+06     105.582E+06    -7.28304E+06    -7.26341E+06     219.102E+06     105.582E+06     242.767E+03
            1362     68.0256E-03     983.654E-06     68.0185E-03     33.5416E-03    -16.6712E-03    -16.8707E-03    -16.8170E-03     33.5296E-03    -16.7130E-03     1.34266E-03     33.9576E-03     191.276E+06     364.528E+03    -1.77233E+06    -191.969E+06    -1.30442E+06    -191.960E+06    -112.381E+03     12.2210E+03
            1363     68.0488E-03     1.96721E-03     68.0203E-03     33.4257E-03    -16.6565E-03    -16.7675E-03    -16.6441E-03     33.3842E-03    -16.7383E-03     2.79698E-03     33.9144E-03     185.720E+06     94.1201E+03    -2.01505E+06    -186.668E+06    -673.045E+03    -186.655E+06    -1.26138E+06     1.06960E+06
            1364     68.0877E-03     2.95136E-03     68.0237E-03     33.3840E-03    -16.6447E-03    -16.7371E-03    -16.6079E-03     33.3079E-03    -16.6978E-03     3.88005E-03     34.3065E-03     180.311E+06    -235.596E+03    -2.45474E+06    -181.643E+06    -1.10853E+06    -181.634E+06    -1.59110E+06     429.713E+03
            1365     68.1420E-03     3.93516E-03     68.0282E-03     33.4637E-03    -16.6719E-03    -16.7915E-03    -16.6702E-03     33.3424E-03    -16.6719E-03     4.89131E-03     35.0788E-03     174.613E+06     15.7100E+03    -1.90924E+06    -175.548E+06    -994.414E+03    -175.537E+06    -910.362E+03    -1.14512E+06
            1366     68.2115E-03     4.91870E-03     68.0339E-03     33.5545E-03    -16.6588E-03    -16.8967E-03    -16.7139E-03     33.3716E-03    -16.6588E-03     6.04107E-03     36.1111E-03     165.365E+06     745.539E+03    -1.22635E+06    -165.592E+06    -315.462E+03    -165.577E+06    -180.533E+03     -1.4842E+06
            1367     68.2961E-03     5.90257E-03     68.0405E-03     33.6553E-03    -16.6710E-03    -16.9848E-03    -16.7472E-03     33.4177E-03    -16.6710E-03     6.91354E-03     37.4337E-03     159.558E+06     2.62112E+06     177.236E+03    -158.135E+06     305.066E+03    -158.104E+06     2.46213E+06    -1.93061E+06
            1368     68.3954E-03     6.88595E-03     68.0479E-03     33.6638E-03    -16.6525E-03    -17.0128E-03    -16.7205E-03     33.3715E-03    -16.6525E-03     7.66383E-03     38.9518E-03     146.493E+06     2.25018E+06    -1.04698E+06    -145.851E+06     804.775E+03    -145.780E+06     327.329E+03    -2.65937E+06
            1369     68.5100E-03     7.86996E-03     68.0565E-03     33.6595E-03    -16.6278E-03    -17.0378E-03    -16.6847E-03     33.3064E-03    -16.6278E-03     8.42456E-03     40.8510E-03     131.672E+06     1.24811E+06    -2.61104E+06    -132.305E+06     1.16202E+06    -132.219E+06    -2.61104E+06    -2.61403E+06
            1370     68.6384E-03     8.85344E-03     68.0650E-03     33.6780E-03    -16.6084E-03    -17.0782E-03    -16.6705E-03     33.2703E-03    -16.6084E-03     9.05557E-03     43.2081E-03     116.369E+06     1.19093E+06    -4.89102E+06    -118.082E+06     1.10044E+06    -117.991E+06    -4.89102E+06    -2.07144E+06
            1371     68.7820E-03     9.83755E-03     68.0749E-03     33.7255E-03    -16.5698E-03    -17.1822E-03    -16.6686E-03     33.2120E-03    -16.5698E-03     10.1422E-03     46.3141E-03     97.0866E+06     704.408E+03    -10.7843E+06    -101.523E+06     586.336E+03    -101.405E+06    -10.7843E+06    -1.77202E+06
            1372     68.9405E-03     10.8207E-03     68.0860E-03     33.6528E-03    -16.5065E-03    -17.1848E-03    -16.5914E-03     33.0593E-03    -16.5065E-03     10.9209E-03     50.0558E-03     74.7169E+06    -799.701E+03    -21.7953E+06    -83.2638E+06    -943.584E+03    -83.1199E+06    -21.7953E+06    -1.75168E+06
            1373     69.1130E-03     11.8052E-03     68.0973E-03     33.5255E-03    -16.4549E-03    -17.1058E-03    -16.4673E-03     32.8869E-03    -16.4549E-03     11.2925E-03     53.8188E-03     48.6227E+06    -2.59658E+06    -28.9799E+06    -58.0410E+06    -2.74714E+06    -57.8904E+06    -28.9799E+06    -561.916E+03
            1374     69.2994E-03     12.7887E-03     68.1092E-03     33.6111E-03    -16.3364E-03    -17.2898E-03    -16.3881E-03     32.7094E-03    -16.3364E-03     13.3306E-03     59.5832E-03     46.9156E+06    -1.76865E+06    -19.0126E+06    -52.9260E+06    -4.41988E+06    -23.0166E+06    -46.2708E+06    -719.460E+03
            1375     69.5030E-03     13.7731E-03     68.1247E-03     34.5321E-03    -16.1718E-03    -18.3535E-03    -16.2005E-03     32.3791E-03    -16.1718E-03     20.2831E-03     74.8678E-03     83.1386E+06     21.4570E+06    -9.49996E+06    -71.6115E+06    -7.49651E+06     19.4535E+06    -71.6115E+06    -2.00319E+06
            1376     69.7311E-03     14.7577E-03     68.1516E-03     48.5162E-03    -16.1847E-03    -32.3271E-03    -16.7105E-03     32.8996E-03    -16.1847E-03     59.8750E-03     110.516E-03     130.585E+06     87.5458E+06    -11.2096E+06    -55.2235E+06    -10.8697E+06     87.2059E+06    -55.2235E+06    -804.059E+03
            1377     70.0392E-03     15.7430E-03     68.2469E-03     146.033E-03    -16.4861E-03    -129.544E-03    -33.7633E-03     50.2516E-03    -16.4861E-03     261.251E-03     336.178E-03     170.153E+06     166.624E+06     27.5014E+06    -20.8772E+06    -11.5775E+06     166.485E+06     18.3408E+06     807.240E+03
            1378     70.7167E-03     16.7213E-03     68.7113E-03     230.177E-03    -16.8817E-03    -213.309E-03    -45.3329E-03     62.2001E-03    -16.8817E-03     430.139E-03     626.242E-03     198.391E+06     218.919E+06     105.706E+06    -7.86563E+06    -7.83909E+06     218.893E+06     105.706E+06     163.476E+03
            1379     69.0586E-03     983.949E-06     69.0516E-03     33.1910E-03    -16.4505E-03    -16.7395E-03    -16.6750E-03     33.1785E-03    -16.5025E-03     1.41464E-03     33.6098E-03     190.039E+06    -2.02880E+06    -5.33001E+06    -193.695E+06    -4.50013E+06    -193.694E+06    -2.85928E+06    -128.173E+03
            1380     69.0812E-03     1.96778E-03     69.0532E-03     33.4480E-03    -16.6306E-03    -16.8140E-03    -16.7750E-03     33.4090E-03    -16.6306E-03     2.72953E-03     33.9434E-03     184.710E+06    -807.396E+03    -3.44159E+06    -186.814E+06    -2.38640E+06    -186.799E+06    -1.87714E+06    -11.6337E+03
            1381     69.1198E-03     2.95121E-03     69.0567E-03     33.4956E-03    -16.6795E-03    -16.8120E-03    -16.7368E-03     33.4204E-03    -16.6795E-03     3.84588E-03     34.4161E-03     180.388E+06     287.436E+03    -1.57726E+06    -181.021E+06    -522.901E+03    -181.005E+06    -782.304E+03    -60.6766E+03
            1382     69.1732E-03     3.93482E-03     69.0612E-03     33.5270E-03    -16.6929E-03    -16.8328E-03    -16.7109E-03     33.4050E-03    -16.6929E-03     4.91575E-03     35.1395E-03     175.147E+06     1.91237E+06    -166.544E+03    -174.259E+06    -178.842E+03    -174.247E+06     1.91237E+06    -1.06983E+06
            1383     69.2418E-03     4.91890E-03     69.0669E-03     33.5848E-03    -16.6815E-03    -16.9035E-03    -16.7288E-03     33.4101E-03    -16.6815E-03     5.91106E-03     36.1306E-03     165.659E+06     1.68548E+06    -187.626E+03    -164.896E+06    -213.152E+03    -164.871E+06     1.68548E+06    -1.99125E+06
            1384     69.3255E-03     5.90240E-03     69.0738E-03     33.6505E-03    -16.6857E-03    -16.9639E-03    -16.7379E-03     33.4244E-03    -16.6857E-03     6.73603E-03     37.4185E-03     159.124E+06     3.10343E+06     686.929E+03    -157.206E+06     656.144E+03    -157.176E+06     3.10343E+06    -2.13748E+06
            1385     69.4236E-03     6.88614E-03     69.0812E-03     33.6497E-03    -16.6697E-03    -16.9814E-03    -16.6996E-03     33.3679E-03    -16.6697E-03     7.52103E-03     38.9512E-03     146.394E+06     3.61405E+06    -360.803E+03    -144.720E+06     930.236E+03    -144.652E+06     2.25523E+06    -2.81090E+06
            1386     69.5361E-03     7.86970E-03     69.0893E-03     33.6412E-03    -16.6341E-03    -17.0126E-03    -16.6697E-03     33.2983E-03    -16.6341E-03     8.29707E-03     40.8307E-03     131.716E+06     1.79384E+06    -3.26647E+06    -132.372E+06     888.985E+03    -132.256E+06    -2.47778E+06    -3.30452E+06
            1387     69.6635E-03     8.85369E-03     69.0986E-03     33.6962E-03    -16.6138E-03    -17.0909E-03    -16.6945E-03     33.2998E-03    -16.6138E-03     8.93462E-03     43.2175E-03     116.919E+06     1.40006E+06    -4.96918E+06    -118.566E+06     1.28850E+06    -118.454E+06    -4.96918E+06    -2.90951E+06
            1388     69.8046E-03     9.83683E-03     69.1080E-03     33.7031E-03    -16.5747E-03    -17.1561E-03    -16.6576E-03     33.2047E-03    -16.5747E-03     9.98776E-03     46.2533E-03     97.5719E+06     1.00362E+06    -10.7597E+06    -101.759E+06     918.131E+03    -101.674E+06    -10.7597E+06    -1.98576E+06
            1389     69.9614E-03     10.8213E-03     69.1194E-03     33.6446E-03    -16.5113E-03    -17.1720E-03    -16.5935E-03     33.0661E-03    -16.5113E-03     10.7817E-03     50.0239E-03     75.2990E+06    -539.382E+03    -21.7743E+06    -83.8432E+06    -664.352E+03    -83.7183E+06    -21.7743E+06    -1.18769E+06
            1390     70.1310E-03     11.8046E-03     69.1304E-03     33.5534E-03    -16.4479E-03    -17.1414E-03    -16.5189E-03     32.9309E-03    -16.4479E-03     11.1587E-03     53.8437E-03     51.1772E+06    -1.30495E+06    -30.8107E+06    -58.2137E+06    -1.94477E+06    -57.5739E+06    -30.8107E+06    -2.05894E+06
            1391     70.3156E-03     12.7890E-03     69.1428E-03     33.6243E-03    -16.3313E-03    -17.3080E-03    -16.4196E-03     32.7359E-03    -16.3313E-03     13.2296E-03     59.5286E-03     48.0095E+06    -6.53920E+03    -20.4906E+06    -50.9983E+06    -2.29845E+06    -21.7803E+06    -47.4167E+06    -2.91583E+06
            1392     70.5162E-03     13.7725E-03     69.1582E-03     34.4049E-03    -16.1810E-03    -18.2149E-03    -16.1937E-03     32.3837E-03    -16.1810E-03     19.6861E-03     74.9664E-03     82.1815E+06     20.9443E+06    -7.64683E+06    -70.7870E+06    -5.37144E+06     18.6689E+06    -70.7870E+06    -1.77696E+06
            1393     70.7399E-03     14.7579E-03     69.1834E-03     48.6760E-03    -16.1947E-03    -32.4748E-03    -17.0783E-03     33.2795E-03    -16.1947E-03     59.5654E-03     110.800E-03     130.057E+06     85.8151E+06    -10.2199E+06    -56.6998E+06    -10.0279E+06     85.6231E+06    -56.6998E+06    -532.779E+03
            1394     71.0489E-03     15.7405E-03     69.2834E-03     146.412E-03    -16.4956E-03    -129.912E-03    -33.2512E-03     49.7513E-03    -16.4956E-03     262.148E-03     337.541E-03     170.139E+06     165.582E+06     27.6570E+06    -22.4723E+06    -12.0830E+06     165.458E+06     17.3912E+06    -116.769E+03
            1395     71.7256E-03     16.7311E-03     69.7469E-03     229.302E-03    -16.8745E-03    -212.435E-03    -44.7947E-03     61.6619E-03    -16.8745E-03     428.666E-03     625.713E-03     199.056E+06     219.245E+06     107.066E+06    -8.27096E+06    -8.21722E+06     219.191E+06     107.066E+06     554.127E+03
            1396     70.0907E-03     984.244E-06     70.0838E-03     33.1723E-03    -16.5141E-03    -16.6580E-03    -16.5936E-03     33.1599E-03    -16.5661E-03     1.41177E-03     33.5821E-03     188.581E+06    -3.08421E+06    -5.96176E+06    -193.083E+06    -5.13157E+06    -193.083E+06    -3.91469E+06    -109.216E+03
            1397     70.1143E-03     1.96762E-03     70.0867E-03     33.4256E-03    -16.6280E-03    -16.7952E-03    -16.7601E-03     33.3905E-03    -16.6280E-03     2.60854E-03     33.9027E-03     183.442E+06    -1.49380E+06    -3.98265E+06    -186.163E+06    -3.91579E+06     -186.15E+06    -1.57346E+06    -1.07398E+06
            1398     70.1517E-03     2.95125E-03     70.0896E-03     33.5316E-03    -16.6784E-03    -16.8501E-03    -16.7766E-03     33.4581E-03    -16.6784E-03     3.78500E-03     34.4554E-03     178.998E+06    -1.75898E+06    -2.69617E+06    -181.223E+06    -2.63968E+06    -181.199E+06    -1.83863E+06    -1.65936E+06
            1399     70.2046E-03     3.93518E-03     70.0943E-03     33.6662E-03    -16.7085E-03    -16.9575E-03    -16.8312E-03     33.5399E-03    -16.7085E-03     5.01925E-03     35.2868E-03     173.144E+06     644.084E+03    -1.05527E+06    -173.337E+06    -1.07130E+06    -173.321E+06     644.084E+03    -1.27671E+06
            1400     70.2725E-03     4.91826E-03     70.1002E-03     33.7465E-03    -16.7332E-03    -17.0132E-03    -16.8444E-03     33.5777E-03    -16.7332E-03     5.83888E-03     36.3096E-03     164.981E+06     3.36643E+06     220.621E+03    -163.155E+06     179.141E+03    -163.114E+06     3.36643E+06    -2.34587E+06
            1401     70.3548E-03     5.90209E-03     70.1068E-03     33.6629E-03    -16.7365E-03    -16.9254E-03    -16.7103E-03     33.4477E-03    -16.7365E-03     6.56599E-03     37.4313E-03     159.706E+06     4.18999E+06     1.59529E+06    -156.790E+06     1.52989E+06    -156.725E+06     4.18999E+06    -3.16956E+06
            1402     70.4518E-03     6.88586E-03     70.1144E-03     33.6328E-03    -16.7078E-03    -16.9273E-03    -16.6557E-03     33.3612E-03    -16.7078E-03     7.38296E-03     38.9329E-03     147.524E+06     4.38028E+06     2.53591E+06    -144.055E+06     2.80195E+06    -144.004E+06     4.06288E+06    -2.71352E+06
            1403     70.5628E-03     7.86966E-03     70.1226E-03     33.6910E-03    -16.6673E-03    -17.0280E-03    -16.6932E-03     33.3562E-03    -16.6673E-03     8.20127E-03     40.8932E-03     132.711E+06     3.47433E+06    -1.01959E+06    -131.406E+06     2.59347E+06    -131.314E+06    -230.908E+03    -3.09403E+06
            1404     70.6884E-03     8.85304E-03     70.1318E-03     33.6733E-03    -16.6307E-03    -17.0457E-03    -16.6474E-03     33.2751E-03    -16.6307E-03     8.94830E-03     43.1977E-03     117.215E+06     1.59950E+06    -5.56304E+06    -119.027E+06     1.46503E+06    -118.893E+06    -5.56304E+06    -3.42395E+06
            1405     70.8280E-03     9.83730E-03     70.1415E-03     33.6859E-03    -16.5847E-03    -17.1212E-03    -16.6262E-03     33.1909E-03    -16.5847E-03     9.95438E-03     46.2184E-03     98.2303E+06     1.04069E+06    -11.7247E+06    -102.766E+06     937.280E+03    -102.662E+06    -11.7247E+06    -2.75014E+06
            1406     70.9821E-03     10.8206E-03     70.1525E-03     33.7019E-03    -16.5246E-03    -17.2140E-03    -16.6350E-03     33.1229E-03    -16.5246E-03     10.7959E-03     50.0789E-03     76.8449E+06     1.39686E+06    -20.9184E+06    -83.8503E+06     1.18951E+06    -83.6430E+06    -20.9184E+06    -2.33065E+06
            1407     71.1503E-03     11.8048E-03     70.1642E-03     33.6301E-03    -16.4637E-03    -17.2049E-03    -16.5764E-03     33.0017E-03    -16.4637E-03     11.2284E-03     53.9541E-03     51.9992E+06     1.26385E+06    -29.3718E+06    -56.1966E+06     588.093E+03    -55.5209E+06    -29.3718E+06    -3.14604E+06
            1408     71.3315E-03     12.7881E-03     70.1758E-03     33.6011E-03    -16.3590E-03    -17.2580E-03    -16.3817E-03     32.7248E-03    -16.3590E-03     13.1354E-03     59.5497E-03     43.9427E+06    -1.71480E+06    -22.4737E+06    -47.9993E+06    -3.46028E+06    -22.7321E+06    -45.9955E+06    -3.19129E+06
            1409     71.5302E-03     13.7731E-03     70.1917E-03     34.6229E-03    -16.2250E-03    -18.3924E-03    -16.3634E-03     32.5939E-03    -16.2250E-03     19.7953E-03     75.1499E-03     77.5520E+06     18.8624E+06    -11.1471E+06    -68.0811E+06    -8.77934E+06     16.4946E+06    -68.0811E+06    -1.10071E+06
            1410     71.7509E-03     14.7558E-03     70.2172E-03     49.0994E-03    -16.2274E-03    -32.8697E-03    -17.0645E-03     33.2941E-03    -16.2274E-03     60.3634E-03     111.062E-03     129.195E+06     85.3088E+06    -13.0041E+06    -56.2140E+06    -12.7517E+06     85.0564E+06    -56.2140E+06    -218.200E+03
            1411     72.0577E-03     15.7419E-03     70.3172E-03     146.488E-03    -16.5105E-03    -129.976E-03    -32.8730E-03     49.3851E-03    -16.5105E-03     262.664E-03     337.255E-03     170.079E+06     165.136E+06     27.5921E+06    -22.7592E+06    -12.8339E+06     165.008E+06     17.7946E+06    -421.822E+03
            1412     72.7246E-03     16.7220E-03     70.7760E-03     229.332E-03    -16.8741E-03    -212.467E-03    -44.7959E-03     61.6610E-03    -16.8741E-03     428.736E-03     626.133E-03     198.893E+06     219.709E+06     107.764E+06    -7.81672E+06    -7.77068E+06     219.663E+06     107.764E+06     624.080E+03
            1413     71.1237E-03     983.336E-06     71.1169E-03     33.4903E-03    -16.6311E-03    -16.8588E-03    -16.7822E-03     33.4775E-03    -16.6949E-03     1.49774E-03     33.8742E-03     188.387E+06    -2.37263E+06    -4.04151E+06    -191.587E+06    -4.04471E+06    -191.584E+06    -2.37263E+06    -213.367E+03
            1414     71.1466E-03     1.96746E-03     71.1194E-03     33.4031E-03    -16.6587E-03    -16.7414E-03    -16.6359E-03     33.3673E-03    -16.7283E-03     2.61668E-03     33.8747E-03     183.313E+06    -1.00946E+06    -2.78618E+06    -185.202E+06    -2.79549E+06    -185.192E+06    -1.00946E+06    -1.02761E+06
            1415     71.1839E-03     2.95137E-03     71.1227E-03     33.6347E-03    -16.7184E-03    -16.9127E-03    -16.8340E-03     33.5619E-03    -16.7242E-03     3.79075E-03     34.5580E-03     177.896E+06    -1.51088E+06    -2.84320E+06    -180.067E+06    -2.86373E+06    -180.047E+06    -1.51088E+06    -1.70771E+06
            1416     71.2362E-03     3.93452E-03     71.1275E-03     33.7910E-03    -16.7495E-03    -17.0425E-03    -16.9211E-03     33.6695E-03    -16.7495E-03     4.93054E-03     35.4072E-03     170.378E+06    -1.09268E+06    -2.60193E+06    -172.219E+06    -2.16434E+06    -172.160E+06    -1.58871E+06    -2.70576E+06
            1417     71.3036E-03     4.91840E-03     71.1337E-03     33.7348E-03    -16.7701E-03    -16.9678E-03    -16.7978E-03     33.5648E-03    -16.7701E-03     5.84769E-03     36.2910E-03     162.556E+06     1.52441E+06    -823.869E+03    -162.184E+06    -409.242E+03    -162.103E+06     1.02838E+06    -3.32131E+06
            1418     71.3844E-03     5.90167E-03     71.1400E-03     33.7371E-03    -16.7704E-03    -16.9679E-03    -16.7477E-03     33.5170E-03    -16.7704E-03     6.65318E-03     37.5149E-03     157.857E+06     3.04923E+06     823.641E+03    -155.900E+06     731.716E+03    -155.808E+06     3.04923E+06    -3.69857E+06
            1419     71.4799E-03     6.88553E-03     71.1475E-03     33.6978E-03    -16.7342E-03    -16.9664E-03    -16.6865E-03     33.4179E-03    -16.7342E-03     7.49635E-03     38.9843E-03     145.785E+06     2.14692E+06     569.070E+03    -144.418E+06     1.53758E+06    -144.323E+06     1.08308E+06    -3.67062E+06
            1420     71.5898E-03     7.86917E-03     71.1560E-03     33.6791E-03    -16.6985E-03    -16.9843E-03    -16.6472E-03     33.3419E-03    -16.6985E-03     8.23078E-03     40.8651E-03     131.415E+06     1.94330E+06    -1.08034E+06    -130.945E+06     1.88285E+06    -130.884E+06    -1.08034E+06    -2.76709E+06
            1421     71.7135E-03     8.85321E-03     71.1650E-03     33.6724E-03    -16.6572E-03    -17.0173E-03    -16.6253E-03     33.2804E-03    -16.6572E-03     8.87359E-03     43.1824E-03     116.453E+06     1.58809E+06    -5.35711E+06    -118.132E+06     1.48719E+06    -118.031E+06    -5.35711E+06    -3.15476E+06
            1422     71.8512E-03     9.83663E-03     71.1747E-03     33.6926E-03    -16.6011E-03    -17.1107E-03    -16.6180E-03     33.1999E-03    -16.6011E-03     9.93115E-03     46.1884E-03     97.9697E+06     978.903E+03    -12.8996E+06    -103.069E+06     788.492E+03    -102.879E+06    -12.8996E+06    -3.92523E+06
            1423     72.0038E-03     10.8208E-03     71.1860E-03     33.7021E-03    -16.5403E-03    -17.2003E-03    -16.6177E-03     33.1195E-03    -16.5403E-03     10.8266E-03     50.0492E-03     75.0823E+06     250.227E+03    -21.6578E+06    -83.0098E+06    -48.1361E+03    -82.7114E+06    -21.6578E+06    -4.36491E+06
            1424     72.1692E-03     11.8042E-03     71.1973E-03     33.5992E-03    -16.4884E-03    -17.1505E-03    -16.5109E-03     32.9597E-03    -16.4884E-03     11.3164E-03     53.8804E-03     48.7370E+06    -1.05671E+06    -28.5054E+06    -56.0575E+06    -1.44249E+06    -55.6718E+06    -28.5054E+06    -3.66854E+06
            1425     72.3490E-03     12.7886E-03     71.2097E-03     33.6641E-03    -16.4036E-03    -17.2790E-03    -16.4073E-03     32.7924E-03    -16.4036E-03     13.1325E-03     59.6692E-03     39.9202E+06    -2.25535E+06    -23.2880E+06    -46.5184E+06    -4.78800E+06    -25.4494E+06    -41.8243E+06    -697.730E+03
            1426     72.5437E-03     13.7720E-03     71.2244E-03     34.6153E-03    -16.2484E-03    -18.3640E-03    -16.2312E-03     32.4825E-03    -16.2484E-03     20.1506E-03     75.0488E-03     76.0281E+06     20.2997E+06    -14.5463E+06    -66.4103E+06    -10.0495E+06     15.8029E+06    -66.4103E+06     66.0549E+03
            1427     72.7642E-03     14.7574E-03     71.2520E-03     48.9962E-03    -16.2282E-03    -32.7656E-03    -16.9617E-03     33.1923E-03    -16.2282E-03     60.6297E-03     111.017E-03     130.319E+06     86.1716E+06    -13.8215E+06    -56.6365E+06    -13.5105E+06     85.8605E+06    -56.6365E+06    -1.01283E+06
            1428     73.0645E-03     15.7413E-03     71.3487E-03     146.417E-03    -16.4871E-03    -129.930E-03    -32.6104E-03     49.0975E-03    -16.4871E-03     262.619E-03     336.772E-03     169.337E+06     164.304E+06     24.8917E+06    -22.1480E+06    -12.5574E+06     164.200E+06     15.4045E+06    -504.873E+03
            1429     73.7391E-03     16.7311E-03     71.8159E-03     230.130E-03    -16.8358E-03    -213.302E-03    -45.0709E-03     61.8988E-03    -16.8358E-03     430.308E-03     626.584E-03     198.582E+06     218.830E+06     104.428E+06    -7.91278E+06    -7.88672E+06     218.804E+06     104.428E+06     69.9255E+03
            1430     72.1571E-03     983.660E-06     72.1504E-03     33.5861E-03    -16.6162E-03    -16.9691E-03    -16.8028E-03     33.5736E-03    -16.7701E-03     1.52758E-03     33.9234E-03     186.592E+06    -3.72585E+06    -5.16765E+06    -191.034E+06    -4.95018E+06    -191.030E+06    -3.94751E+06    -481.147E+03
            1431     72.1788E-03     1.96729E-03     72.1520E-03     33.6389E-03    -16.7246E-03    -16.9096E-03    -16.8003E-03     33.5992E-03    -16.7943E-03     2.72154E-03     34.1062E-03     180.609E+06    -3.35810E+06    -4.45626E+06    -184.512E+06    -4.32716E+06    -184.509E+06    -3.49042E+06    -533.499E+03
            1432     72.2165E-03     2.95091E-03     72.1561E-03     33.7976E-03    -16.8036E-03    -16.9889E-03    -16.9037E-03     33.7195E-03    -16.8108E-03     3.95281E-03     34.7205E-03     173.903E+06    -2.85076E+06    -3.63748E+06    -177.144E+06    -3.54914E+06    -177.100E+06    -2.98307E+06    -1.76221E+06
            1433     72.2684E-03     3.93434E-03     72.1612E-03     33.7654E-03    -16.8111E-03    -16.9548E-03    -16.8347E-03     33.6467E-03    -16.8124E-03     4.87700E-03     35.3593E-03     167.467E+06    -2.08550E+06    -4.06457E+06    -170.530E+06    -2.83169E+06    -170.426E+06    -3.42236E+06    -3.87325E+06
            1434     72.3339E-03     4.91781E-03     72.1665E-03     33.6531E-03    -16.7868E-03    -16.8694E-03    -16.6965E-03     33.4802E-03    -16.7868E-03     5.87675E-03     36.1671E-03     159.410E+06    -1.69300E+06    -3.78342E+06    -162.137E+06    -2.09570E+06    -162.016E+06    -3.50180E+06    -4.23159E+06
            1435     72.4145E-03     5.90200E-03     72.1736E-03     33.7509E-03    -16.7788E-03    -16.9731E-03    -16.7462E-03     33.5240E-03    -16.7788E-03     6.76244E-03     37.4973E-03     154.116E+06     499.223E+03    -1.61804E+06    -154.659E+06    -1.27365E+06    -154.532E+06     27.2817E+03    -4.28799E+06
            1436     72.5084E-03     6.88520E-03     72.1807E-03     33.7934E-03    -16.7589E-03    -17.0359E-03    -16.7540E-03     33.5116E-03    -16.7589E-03     7.53544E-03     39.0668E-03     143.965E+06     1.01709E+06    -1.33646E+06    -144.104E+06    -490.437E+03    -143.960E+06     27.2450E+03    -4.49921E+06
            1437     72.6168E-03     7.86911E-03     72.1892E-03     33.7390E-03    -16.7229E-03    -17.0181E-03    -16.6726E-03     33.3934E-03    -16.7229E-03     8.33568E-03     40.8974E-03     130.845E+06     789.523E+03    -2.97892E+06    -131.862E+06     662.058E+03    -131.735E+06    -2.97892E+06    -4.01568E+06
            1438     72.7390E-03     8.85259E-03     72.1983E-03     33.7156E-03    -16.6835E-03    -17.0351E-03    -16.6417E-03     33.3222E-03    -16.6835E-03     8.89763E-03     43.1587E-03     114.933E+06     1.71171E+06    -5.79634E+06    -116.742E+06     1.57903E+06    -116.609E+06    -5.79634E+06    -3.77051E+06
            1439     72.8749E-03     9.83664E-03     72.2080E-03     33.6962E-03    -16.6260E-03    -17.0950E-03    -16.5977E-03     33.1989E-03    -16.6260E-03     9.96240E-03     46.1338E-03     97.0614E+06     1.43390E+06    -12.9339E+06    -101.840E+06     1.22148E+06    -101.628E+06    -12.9339E+06    -4.37926E+06
            1440     73.0254E-03     10.8201E-03     72.2193E-03     33.6425E-03    -16.5485E-03    -17.1348E-03    -16.5374E-03     33.0451E-03    -16.5485E-03     10.9484E-03     49.8959E-03     73.8345E+06    -164.032E+03    -23.9576E+06    -82.4116E+06    -504.242E+03    -82.0714E+06    -23.9576E+06    -4.87067E+06
            1441     73.1891E-03     11.8044E-03     72.2309E-03     33.5052E-03    -16.4867E-03    -17.0537E-03    -16.4051E-03     32.8566E-03    -16.4867E-03     11.3724E-03     53.6506E-03     48.8640E+06    -2.59924E+06    -31.9229E+06    -58.1935E+06    -3.00215E+06    -57.7906E+06    -31.9229E+06    -3.85270E+06
            1442     73.3659E-03     12.7881E-03     72.2427E-03     33.6214E-03    -16.3881E-03    -17.2462E-03    -16.3219E-03     32.6971E-03    -16.3881E-03     13.4717E-03     59.4069E-03     44.6629E+06    -1.86415E+06    -24.9407E+06    -51.8333E+06    -4.13427E+06    -28.8727E+06    -45.6312E+06    -1.22610E+06
            1443     73.5596E-03     13.7725E-03     72.2587E-03     34.5513E-03    -16.2181E-03    -18.3287E-03    -16.2306E-03     32.4532E-03    -16.2181E-03     20.1090E-03     74.7959E-03     81.3570E+06     22.9119E+06    -11.7393E+06    -69.7179E+06    -5.61705E+06     16.7897E+06    -69.7179E+06    -64.4606E+03
            1444     73.7742E-03     14.7569E-03     72.2833E-03     49.0901E-03    -16.1898E-03    -32.8997E-03    -16.6605E-03     32.8509E-03    -16.1898E-03     61.0259E-03     110.579E-03     132.514E+06     86.4626E+06    -10.2229E+06    -59.6578E+06    -9.89101E+06     86.1307E+06    -59.6578E+06    -163.354E+03
            1445     74.0775E-03     15.7407E-03     72.3859E-03     146.217E-03    -16.4532E-03    -129.765E-03    -32.9618E-03     49.4144E-03    -16.4532E-03     262.249E-03     336.319E-03     169.092E+06     162.802E+06     23.1492E+06    -23.9778E+06    -11.7760E+06     162.747E+06     11.0024E+06    -380.346E+03
            1446     74.7342E-03     16.7253E-03     72.8386E-03     229.581E-03    -16.8280E-03    -212.767E-03    -45.1579E-03     61.9718E-03    -16.8280E-03     429.090E-03     625.778E-03     197.929E+06     218.483E+06     99.9106E+06    -7.38410E+06    -7.36740E+06     218.466E+06     99.9106E+06    -628.730E+03
            1447     73.1900E-03     983.871E-06     73.1834E-03     33.6812E-03    -16.7015E-03    -16.9804E-03    -16.8783E-03     33.6692E-03    -16.7916E-03     1.47371E-03     33.9932E-03     183.806E+06    -6.19140E+06    -7.86805E+06    -190.827E+06    -7.64814E+06    -190.826E+06    -6.41306E+06    -480.314E+03
            1448     73.2119E-03     1.96721E-03     73.1855E-03     33.9425E-03    -16.8736E-03    -17.0657E-03    -17.0259E-03     33.9027E-03    -16.8736E-03     2.74059E-03     34.4011E-03     176.287E+06    -4.93128E+06    -7.43126E+06    -182.450E+06    -6.26436E+06    -182.419E+06    -6.12911E+06    -1.21393E+06
            1449     73.2492E-03     2.95030E-03     73.1898E-03     33.8128E-03    -16.8373E-03    -16.9730E-03    -16.8394E-03     33.7328E-03    -16.8908E-03     3.99047E-03     34.7296E-03     168.633E+06    -4.45310E+06    -6.60085E+06    -174.142E+06    -4.56064E+06     -174.05E+06    -6.58508E+06    -3.34574E+06
            1450     73.2999E-03     3.93416E-03     73.1942E-03     33.6519E-03    -16.7928E-03    -16.8602E-03    -16.6801E-03     33.5286E-03    -16.8496E-03     4.95891E-03     35.2388E-03     164.305E+06    -3.65245E+06    -5.58358E+06    -168.908E+06    -3.79689E+06    -168.780E+06    -5.56781E+06    -4.51265E+06
            1451     73.3650E-03     4.91810E-03     73.2000E-03     33.7139E-03    -16.8019E-03    -16.9124E-03    -16.7296E-03     33.5344E-03    -16.8051E-03     5.99374E-03     36.2202E-03     156.855E+06    -3.54658E+06    -5.34620E+06    -161.291E+06    -4.03479E+06    -161.149E+06    -4.99973E+06    -4.62157E+06
            1452     73.4440E-03     5.90131E-03     73.2066E-03     33.7573E-03    -16.7897E-03    -16.9668E-03    -16.7341E-03     33.5246E-03    -16.7897E-03     6.84783E-03     37.4606E-03     150.516E+06    -2.03700E+06    -4.36637E+06    -153.700E+06    -3.74064E+06    -153.478E+06    -2.88497E+06    -5.46494E+06
            1453     73.5375E-03     6.88538E-03     73.2144E-03     33.7823E-03    -16.7683E-03    -17.0152E-03    -16.7295E-03     33.4966E-03    -16.7683E-03     7.58392E-03     39.0235E-03     141.474E+06    -602.472E+03    -3.29561E+06    -143.398E+06    -2.00393E+06    -143.131E+06    -2.16068E+06    -5.94905E+06
            1454     73.6438E-03     7.86868E-03     73.2222E-03     33.8101E-03    -16.7292E-03    -17.0835E-03    -16.7270E-03     33.4537E-03    -16.7292E-03     8.47449E-03     40.9441E-03     129.049E+06     206.279E+03    -5.35239E+06    -131.492E+06    -88.9600E+03    -131.197E+06    -5.35239E+06    -6.00452E+06
            1455     73.7650E-03     8.85263E-03     73.2319E-03     33.7222E-03    -16.6914E-03    -17.0344E-03    -16.6216E-03     33.3095E-03    -16.6914E-03     9.11221E-03     43.1312E-03     113.840E+06     1.35845E+06    -8.11731E+06    -116.908E+06     1.07599E+06    -116.626E+06    -8.11731E+06    -5.55870E+06
            1456     73.8987E-03     9.83612E-03     73.2412E-03     33.6729E-03    -16.6331E-03    -17.0654E-03    -16.5463E-03     33.1538E-03    -16.6331E-03     10.1718E-03     46.1149E-03     96.1914E+06     1.96013E+06    -13.7996E+06    -100.915E+06     1.65537E+06    -100.610E+06    -13.7996E+06    -5.16880E+06
            1457     74.0475E-03     10.8204E-03     73.2527E-03     33.6185E-03    -16.5464E-03    -17.1138E-03    -16.4893E-03     32.9939E-03    -16.5464E-03     11.1868E-03     49.8742E-03     74.3936E+06     1.16286E+06    -25.2711E+06    -82.3129E+06     776.785E+03    -81.9268E+06    -25.2711E+06    -5.01788E+06
            1458     74.2088E-03     11.8041E-03     73.2640E-03     33.4699E-03    -16.4895E-03    -17.0145E-03    -16.3564E-03     32.8118E-03    -16.4895E-03     11.4512E-03     53.6826E-03     51.6492E+06    -887.590E+03    -31.6805E+06    -60.0228E+06    -1.32216E+06    -59.5882E+06    -31.6805E+06    -3.88384E+06
            1459     74.3838E-03     12.7886E-03     73.2762E-03     33.4747E-03    -16.3625E-03    -17.1212E-03    -16.1845E-03     32.5380E-03    -16.3625E-03     13.5016E-03     59.2798E-03     49.4620E+06    -2.19801E+06    -22.8986E+06    -56.7642E+06    -3.49702E+06    -29.5165E+06    -48.8473E+06    -3.71177E+06
            1460     74.5745E-03     13.7729E-03     73.2916E-03     34.5872E-03    -16.1814E-03    -18.3996E-03    -16.2337E-03     32.4213E-03    -16.1814E-03     20.4642E-03     74.8397E-03     84.2233E+06     19.9756E+06    -10.6439E+06    -74.6676E+06    -5.69689E+06     15.0286E+06    -74.6676E+06    -2.26448E+06
            1461     74.7883E-03     14.7564E-03     73.3180E-03     48.3609E-03    -16.1537E-03    -32.2059E-03    -16.1062E-03     32.2613E-03    -16.1537E-03     60.0386E-03     109.979E-03     132.043E+06     84.8540E+06    -8.81943E+06    -61.4870E+06    -8.38835E+06     84.4230E+06    -61.4870E+06     775.217E+03
            1462     75.0841E-03     15.7456E-03     73.4146E-03     148.010E-03    -16.4041E-03    -131.604E-03    -33.8451E-03     50.2509E-03    -16.4041E-03     265.759E-03     337.000E-03     169.407E+06     163.538E+06     24.8229E+06    -24.4303E+06    -9.71576E+06     163.416E+06     10.2303E+06     821.485E+03
            1463     75.7552E-03     16.7240E-03     73.8862E-03     230.379E-03    -16.7979E-03    -213.600E-03    -46.0577E-03     62.8371E-03    -16.7979E-03     430.306E-03     626.887E-03     197.745E+06     219.086E+06     99.2157E+06    -6.64728E+06    -6.63706E+06     219.076E+06     99.2157E+06    -465.905E+03
            1464     74.2229E-03     983.403E-06     74.2164E-03     34.0228E-03    -16.8831E-03    -17.1401E-03    -17.1063E-03     34.0074E-03    -16.9015E-03     1.67675E-03     34.3548E-03     181.583E+06    -6.62591E+06    -9.06332E+06    -189.412E+06    -9.08744E+06    -189.387E+06    -6.62591E+06    -294.258E+03
            1465     74.2458E-03     1.96659E-03     74.2198E-03     33.9317E-03    -16.8786E-03    -17.0540E-03    -16.9146E-03     33.8910E-03    -16.9772E-03     2.80869E-03     34.3875E-03     172.295E+06    -4.65708E+06    -9.18881E+06    -179.168E+06    -6.54389E+06    -179.091E+06    -7.37921E+06    -3.06686E+06
            1466     74.2814E-03     2.95041E-03     74.2228E-03     33.6903E-03    -16.7697E-03    -16.9220E-03    -16.7075E-03     33.6083E-03    -16.9021E-03     4.01825E-03     34.6028E-03     163.863E+06    -6.00748E+06    -9.98393E+06    -171.813E+06    -6.13769E+06    -171.683E+06    -9.98393E+06    -4.59679E+06
            1467     74.3317E-03     3.93423E-03     74.2275E-03     33.7063E-03    -16.8004E-03    -16.9057E-03    -16.7203E-03     33.5763E-03    -16.8559E-03     5.09864E-03     35.3021E-03     160.825E+06    -5.58458E+06    -7.41370E+06    -167.314E+06    -6.17499E+06    -167.158E+06    -6.97928E+06    -4.94620E+06
            1468     74.3959E-03     4.91774E-03     74.2331E-03     33.7609E-03    -16.8216E-03    -16.9393E-03    -16.7559E-03     33.5807E-03    -16.8249E-03     6.01718E-03     36.2660E-03     154.832E+06    -3.80555E+06    -5.72845E+06    -159.586E+06    -4.83845E+06    -159.334E+06    -4.94757E+06    -5.91224E+06
            1469     74.4744E-03     5.90157E-03     74.2402E-03     33.7395E-03    -16.7967E-03    -16.9442E-03    -16.7079E-03     33.5032E-03    -16.7967E-03     6.89032E-03     37.4211E-03     148.139E+06    -2.43349E+06    -4.56089E+06    -151.622E+06    -3.12974E+06    -151.272E+06    -4.21443E+06    -6.90645E+06
            1470     74.5657E-03     6.88500E-03     74.2472E-03     33.7743E-03    -16.7710E-03    -17.0055E-03    -16.7050E-03     33.4738E-03    -16.7710E-03     7.77635E-03     39.0182E-03     139.972E+06    -1.74300E+06    -3.71091E+06    -142.685E+06    -2.17755E+06    -142.250E+06    -3.71091E+06    -7.63807E+06
            1471     74.6720E-03     7.86898E-03     74.2562E-03     33.7898E-03    -16.7331E-03    -17.0595E-03    -16.6991E-03     33.4294E-03    -16.7331E-03     8.52605E-03     40.9182E-03     127.254E+06    -1.00293E+06    -6.17039E+06    -130.730E+06    -1.48845E+06    -130.244E+06    -6.17039E+06    -7.79293E+06
            1472     74.7904E-03     8.85237E-03     74.2647E-03     33.6999E-03    -16.6906E-03    -17.0120E-03    -16.5977E-03     33.2856E-03    -16.6906E-03     9.12309E-03     43.1110E-03     112.903E+06     333.046E+03    -9.16431E+06    -117.002E+06    -243.418E+03    -116.425E+06    -9.16431E+06    -7.74111E+06
            1473     74.9233E-03     9.83665E-03     74.2748E-03     33.6523E-03    -16.6288E-03    -17.0472E-03    -16.5289E-03     33.1341E-03    -16.6288E-03     10.1707E-03     46.1310E-03     95.8901E+06     1.47516E+06    -14.8819E+06    -101.318E+06     885.460E+03    -100.728E+06    -14.8819E+06    -7.28603E+06
            1474     75.0694E-03     10.8202E-03     74.2856E-03     33.6319E-03    -16.5533E-03    -17.1204E-03    -16.5066E-03     33.0181E-03    -16.5533E-03     11.0916E-03     50.0031E-03     74.9827E+06     759.408E+03    -24.7655E+06    -83.3475E+06     336.953E+03    -82.9251E+06    -24.7655E+06    -5.57580E+06
            1475     75.2295E-03     11.8044E-03     74.2976E-03     33.4912E-03    -16.5042E-03    -17.0232E-03    -16.3880E-03     32.8560E-03    -16.5042E-03     11.2568E-03     53.8522E-03     51.9887E+06    -1.18498E+06    -29.9363E+06    -60.5701E+06    -1.62342E+06    -60.1316E+06    -29.9363E+06    -4.37295E+06
            1476     75.4013E-03     12.7882E-03     74.3089E-03     33.4372E-03    -16.3809E-03    -17.0660E-03    -16.1853E-03     32.5565E-03    -16.3809E-03     13.0888E-03     59.4906E-03     46.7245E+06    -2.16537E+06    -22.4019E+06    -53.9763E+06    -3.99836E+06    -28.2808E+06    -46.2645E+06    -4.61283E+06
            1477     75.5903E-03     13.7728E-03     74.3250E-03     34.3598E-03    -16.1947E-03    -18.1567E-03    -15.9927E-03     32.1957E-03    -16.1947E-03     20.2618E-03     74.9685E-03     80.0243E+06     16.6860E+06    -12.6270E+06    -73.3682E+06    -7.82888E+06     11.8879E+06    -73.3682E+06    -3.59007E+06
            1478     75.8018E-03     14.7580E-03     74.3513E-03     47.4847E-03    -16.1688E-03    -31.3111E-03    -16.3833E-03     32.5568E-03    -16.1688E-03     57.9691E-03     109.860E-03     129.412E+06     81.7819E+06    -10.9588E+06    -60.8896E+06    -10.6107E+06     81.4337E+06    -60.8896E+06    -795.376E+03
            1479     76.0905E-03     15.7417E-03     74.4444E-03     148.295E-03    -16.3825E-03    -131.910E-03    -32.8146E-03     49.2005E-03    -16.3825E-03     266.501E-03     337.277E-03     169.240E+06     164.337E+06     24.6499E+06    -22.8505E+06    -9.62132E+06     164.160E+06     11.5978E+06     706.013E+03
            1480     76.7721E-03     16.7325E-03     74.9265E-03     230.757E-03    -16.7090E-03    -214.068E-03    -45.8918E-03     62.5811E-03    -16.7090E-03     431.368E-03     626.028E-03     198.335E+06     219.916E+06     99.4411E+06    -6.47796E+06    -6.45671E+06     219.894E+06     99.4411E+06     471.482E+03
            1481     75.2577E-03     983.183E-06     75.2513E-03     34.0479E-03    -16.8564E-03    -17.1920E-03    -16.9357E-03     34.0296E-03    -17.0944E-03     1.85755E-03     34.3502E-03     179.788E+06    -6.39950E+06    -8.83949E+06    -187.394E+06    -7.84326E+06    -187.367E+06    -7.42270E+06    -557.919E+03
            1482     75.2783E-03     1.96680E-03     75.2526E-03     33.7305E-03    -16.7559E-03    -16.9772E-03    -16.7463E-03     33.6848E-03    -16.9412E-03     2.97208E-03     34.1775E-03     167.001E+06    -7.43474E+06    -10.9392E+06    -176.151E+06    -8.73278E+06    -176.076E+06    -9.71585E+06    -3.29913E+06
            1483     75.3140E-03     2.95070E-03     75.2562E-03     33.7419E-03    -16.7833E-03    -16.9600E-03    -16.7962E-03     33.6583E-03    -16.8636E-03     4.08057E-03     34.6562E-03     158.325E+06    -8.84763E+06    -11.4192E+06    -168.430E+06    -9.60280E+06    -168.270E+06    -10.8244E+06    -4.98971E+06
            1484     75.3634E-03     3.93412E-03     75.2607E-03     33.8093E-03    -16.8499E-03    -16.9597E-03    -16.8283E-03     33.6778E-03    -16.8499E-03     5.12977E-03     35.3986E-03     156.128E+06    -7.68092E+06    -9.97297E+06    -164.936E+06    -8.72370E+06    -164.641E+06    -9.22526E+06    -6.50018E+06
            1485     75.4274E-03     4.91762E-03     75.2669E-03     33.7126E-03    -16.8243E-03    -16.8911E-03    -16.7076E-03     33.5291E-03    -16.8243E-03     6.06873E-03     36.2070E-03     150.107E+06    -5.45589E+06    -8.35462E+06    -156.985E+06    -6.59806E+06    -156.516E+06    -7.68170E+06    -8.17172E+06
            1486     75.5039E-03     5.90133E-03     75.2729E-03     33.7128E-03    -16.7982E-03    -16.9182E-03    -16.6750E-03     33.4696E-03    -16.7982E-03     6.98113E-03     37.4049E-03     145.399E+06    -3.69194E+06    -5.63787E+06    -150.051E+06    -4.47534E+06    -149.506E+06    -5.39937E+06    -8.75527E+06
            1487     75.5953E-03     6.88526E-03     75.2811E-03     33.8016E-03    -16.7765E-03    -17.0291E-03    -16.7230E-03     33.4955E-03    -16.7765E-03     7.85794E-03     39.0514E-03     138.363E+06    -2.44395E+06    -3.76270E+06    -141.461E+06    -2.99897E+06    -140.906E+06    -3.76270E+06    -8.58096E+06
            1488     75.6990E-03     7.86860E-03     75.2890E-03     33.7869E-03    -16.7382E-03    -17.0516E-03    -16.6963E-03     33.4315E-03    -16.7382E-03     8.46652E-03     40.9086E-03     125.755E+06    -1.45379E+06    -6.34992E+06    -129.536E+06    -2.19750E+06    -128.792E+06    -6.34992E+06    -9.36482E+06
            1489     75.8171E-03     8.85269E-03     75.2985E-03     33.7168E-03    -16.6915E-03    -17.0271E-03    -16.6267E-03     33.3164E-03    -16.6915E-03     8.97528E-03     43.1363E-03     111.213E+06    -349.060E+03    -10.0824E+06    -116.095E+06    -1.28567E+06    -115.158E+06    -10.0824E+06    -10.0926E+06
            1490     75.9472E-03     9.83602E-03     75.3075E-03     33.7152E-03    -16.6328E-03    -17.1053E-03    -16.6049E-03     33.2148E-03    -16.6328E-03     10.0065E-03     46.1855E-03     95.3734E+06     298.526E+03    -16.7538E+06    -102.185E+06    -670.977E+03    -101.215E+06    -16.7538E+06    -9.54033E+06
            1491     76.0926E-03     10.8202E-03     75.3193E-03     33.6991E-03    -16.5694E-03    -17.1701E-03    -16.5818E-03     33.1108E-03    -16.5694E-03     10.8769E-03     50.0995E-03     76.7197E+06     365.011E+03    -26.0557E+06    -85.8429E+06    -342.965E+03    -85.1350E+06    -26.0557E+06    -7.27573E+06
            1492     76.2498E-03     11.8038E-03     75.3306E-03     33.5306E-03    -16.5220E-03    -17.0450E-03    -16.4419E-03     32.9275E-03    -16.5220E-03     10.9784E-03     53.8874E-03     53.6684E+06    -184.969E+03    -30.7831E+06    -61.0992E+06    -731.934E+03    -60.5522E+06    -30.7831E+06    -5.17195E+06
            1493     76.4202E-03     12.7882E-03     75.3426E-03     33.5170E-03    -16.4025E-03    -17.1258E-03    -16.2915E-03     32.6828E-03    -16.4025E-03     12.7693E-03     59.6321E-03     47.1726E+06    -1.53020E+06    -23.3870E+06    -53.4763E+06    -3.37079E+06    -27.7966E+06    -47.2261E+06    -4.68739E+06
            1494     76.6057E-03     13.7722E-03     75.3576E-03     34.2986E-03    -16.2264E-03    -18.0635E-03    -16.0508E-03     32.2859E-03    -16.2264E-03     19.5467E-03     75.0405E-03     79.1203E+06     14.8981E+06    -12.0014E+06    -73.7923E+06    -7.01489E+06     9.91161E+06    -73.7923E+06    -3.96452E+06
            1495     76.8150E-03     14.7568E-03     75.3842E-03     47.9570E-03    -16.2234E-03    -31.7292E-03    -17.1569E-03     33.3847E-03    -16.2234E-03     57.8675E-03     110.307E-03     128.431E+06     79.7096E+06    -10.6142E+06    -61.5248E+06    -10.1234E+06     79.2188E+06    -61.5248E+06    -2.62672E+06
            1496     77.1034E-03     15.7412E-03     75.4795E-03     146.022E-03    -16.4786E-03    -129.542E-03    -32.3393E-03     48.8191E-03    -16.4786E-03     261.579E-03     336.218E-03     169.512E+06     164.006E+06     24.5770E+06    -23.6018E+06    -10.5562E+06     163.919E+06     11.6182E+06    -372.339E+03
            1497     77.7683E-03     16.7297E-03     75.9475E-03     230.802E-03    -16.7743E-03    -214.048E-03    -44.6574E-03     61.4109E-03    -16.7743E-03     431.986E-03     626.114E-03     198.456E+06     219.643E+06     96.8501E+06    -7.25947E+06    -7.24147E+06     219.625E+06     96.8501E+06     883.780E+03
            1498     76.2900E-03     983.419E-06     76.2837E-03     33.6881E-03    -16.6844E-03    -17.0042E-03    -16.7687E-03     33.6723E-03    -16.9041E-03     1.53158E-03     33.9361E-03     175.437E+06    -8.77591E+06    -10.9795E+06    -185.301E+06    -9.77798E+06    -185.293E+06     -9.9853E+06    -1.04283E+06
            1499     76.3116E-03     1.96754E-03     76.2862E-03     33.7127E-03    -16.7467E-03    -16.9664E-03    -16.8355E-03     33.6685E-03    -16.8334E-03     2.93514E-03     34.1588E-03     163.370E+06    -7.85248E+06    -10.0018E+06    -172.283E+06    -9.42898E+06    -172.232E+06    -8.47698E+06    -2.55588E+06
            1500     76.3466E-03     2.95057E-03     76.2895E-03     33.8787E-03    -16.8479E-03    -17.0306E-03    -16.9478E-03     33.7959E-03    -16.8479E-03     4.06269E-03     34.7932E-03     156.148E+06    -7.53446E+06    -8.59901E+06    -164.212E+06    -8.58725E+06    -164.003E+06    -7.75502E+06    -5.42059E+06
            1501     76.3959E-03     3.93394E-03     76.2945E-03     33.7831E-03    -16.8469E-03    -16.9381E-03    -16.8068E-03     33.6519E-03    -16.8469E-03     5.12514E-03     35.3661E-03     153.187E+06    -7.04157E+06    -8.86011E+06    -161.122E+06    -7.79641E+06    -160.680E+06    -8.54680E+06    -8.09385E+06
            1502     76.4580E-03     4.91781E-03     76.2997E-03     33.6899E-03    -16.8147E-03    -16.8806E-03    -16.6933E-03     33.5026E-03    -16.8147E-03     6.12410E-03     36.1976E-03     146.451E+06    -6.62903E+06    -8.40295E+06    -153.951E+06    -7.49084E+06    -153.328E+06    -8.16444E+06    -9.50836E+06
            1503     76.5345E-03     5.90151E-03     76.3067E-03     33.7637E-03    -16.7941E-03    -16.9748E-03    -16.7256E-03     33.5145E-03    -16.7941E-03     7.08019E-03     37.4913E-03     142.427E+06    -5.76203E+06    -6.76160E+06    -148.686E+06    -6.77417E+06    -147.912E+06    -6.52310E+06    -10.4304E+06
            1504     76.6240E-03     6.88492E-03     76.3140E-03     33.8044E-03    -16.7665E-03    -17.0419E-03    -16.7312E-03     33.4937E-03    -16.7665E-03     7.91542E-03     39.0566E-03     135.093E+06    -3.72056E+06    -6.68627E+06    -140.242E+06    -4.62632E+06    -139.337E+06    -6.68627E+06    -10.8320E+06
            1505     76.7274E-03     7.86883E-03     76.3229E-03     33.8044E-03    -16.7292E-03    -17.0786E-03    -16.7176E-03     33.4434E-03    -16.7292E-03     8.53705E-03     40.9296E-03     122.603E+06    -1.32576E+06     -8.8083E+06    -127.452E+06    -2.44331E+06    -126.334E+06     -8.8083E+06    -11.5172E+06
            1506     76.8430E-03     8.85209E-03     76.3314E-03     33.7852E-03    -16.6923E-03    -17.0964E-03    -16.6904E-03     33.3792E-03    -16.6923E-03     9.04959E-03     43.2067E-03     109.700E+06    -359.106E+03    -12.0290E+06    -115.407E+06    -1.59795E+06    -114.168E+06    -12.0290E+06    -11.7565E+06
            1507     76.9724E-03     9.83624E-03     76.3414E-03     33.8363E-03    -16.6394E-03    -17.2204E-03    -16.7062E-03     33.3221E-03    -16.6394E-03     10.1619E-03     46.3069E-03     93.8589E+06    -776.664E+03    -19.4331E+06    -102.330E+06    -2.00134E+06    -101.106E+06    -19.4331E+06    -10.8987E+06
            1508     77.1151E-03     10.8195E-03     76.3523E-03     33.8212E-03    -16.5844E-03    -17.2795E-03    -16.6815E-03     33.2231E-03    -16.5844E-03     10.9906E-03     50.2158E-03     77.2721E+06    -855.904E+03    -29.0627E+06    -88.0182E+06    -2.25338E+06    -86.6207E+06    -29.0627E+06    -10.1754E+06
            1509     77.2711E-03     11.8036E-03     76.3643E-03     33.6315E-03    -16.5421E-03    -17.1264E-03    -16.5192E-03     33.0242E-03    -16.5421E-03     11.0355E-03     53.9710E-03     56.1746E+06    -189.678E+03    -33.6459E+06    -63.8658E+06    -1.38772E+06    -62.6678E+06    -33.6459E+06    -7.91045E+06
            1510     77.4386E-03     12.7874E-03     76.3755E-03     33.7031E-03    -16.4433E-03    -17.2706E-03    -16.4373E-03     32.8698E-03    -16.4433E-03     12.8177E-03     59.8312E-03     47.3203E+06    -171.218E+03    -24.0946E+06    -52.2855E+06    -1.62325E+06    -28.5194E+06    -46.4086E+06    -5.29093E+06
            1511     77.6230E-03     13.7715E-03     76.3916E-03     34.6330E-03    -16.2797E-03    -18.3461E-03    -16.4168E-03     32.7037E-03    -16.2797E-03     19.3239E-03     75.3894E-03     79.2538E+06     15.3713E+06    -11.0263E+06    -73.3871E+06    -4.97698E+06     9.32204E+06    -73.3871E+06    -4.47039E+06
            1512     77.8282E-03     14.7560E-03     76.4166E-03     48.9625E-03    -16.2805E-03    -32.6799E-03    -17.6513E-03     33.9339E-03    -16.2805E-03     59.1650E-03     111.338E-03     129.933E+06     78.4444E+06    -9.90905E+06    -64.8717E+06    -9.39249E+06     77.9279E+06    -64.8717E+06    -3.55646E+06
            1513     78.1185E-03     15.7381E-03     76.5167E-03     145.109E-03    -16.5833E-03    -128.527E-03    -33.0803E-03     49.6616E-03    -16.5833E-03     259.217E-03     336.869E-03     169.668E+06     161.820E+06     21.8468E+06    -26.2054E+06    -11.1647E+06     161.696E+06     6.93099E+06    -589.186E+03
            1514     78.7661E-03     16.7208E-03     76.9709E-03     231.917E-03    -16.8953E-03    -215.025E-03    -44.0006E-03     60.8934E-03    -16.8953E-03     434.372E-03     629.025E-03     197.500E+06     218.737E+06     92.2678E+06    -6.82814E+06    -6.80284E+06     218.712E+06     92.2678E+06     1.35571E+06
            1515     77.3234E-03     984.041E-06     77.3171E-03     33.5866E-03    -16.6593E-03    -16.9280E-03    -16.9160E-03     33.5747E-03    -16.6593E-03     1.18931E-03     33.8112E-03     170.136E+06    -11.5344E+06    -13.5617E+06    -182.671E+06    -13.4024E+06    -182.644E+06    -11.7205E+06    -1.95377E+06
            1516     77.3445E-03     1.96696E-03     77.3195E-03     33.7599E-03    -16.7708E-03    -16.9905E-03    -16.9103E-03     33.7188E-03    -16.8100E-03     2.81196E-03     34.1990E-03     157.290E+06    -8.70008E+06    -11.8048E+06    -167.513E+06    -10.6896E+06    -167.387E+06    -9.94130E+06    -3.56039E+06
            1517     77.3797E-03     2.95063E-03     77.3235E-03     33.6788E-03    -16.7707E-03    -16.9099E-03    -16.7786E-03     33.5951E-03    -16.8184E-03     4.06077E-03     34.5964E-03     150.671E+06    -8.77632E+06    -10.4917E+06    -160.287E+06    -9.34033E+06    -159.977E+06    -10.2381E+06    -6.60665E+06
            1518     77.4276E-03     3.93432E-03     77.3276E-03     33.6987E-03    -16.7951E-03    -16.9039E-03    -16.7612E-03     33.5645E-03    -16.8037E-03     5.17970E-03     35.2884E-03     148.049E+06    -8.24369E+06    -8.74014E+06    -156.540E+06    -8.78106E+06    -156.007E+06    -8.73577E+06    -8.71831E+06
            1519     77.4895E-03     4.91781E-03     77.3333E-03     33.7627E-03    -16.7854E-03    -16.9806E-03    -16.7879E-03     33.5701E-03    -16.7854E-03     6.21733E-03     36.2831E-03     142.769E+06    -6.84808E+06    -8.62198E+06    -150.486E+06    -7.65262E+06    -149.681E+06    -8.62198E+06    -10.6237E+06
            1520     77.5647E-03     5.90133E-03     77.3399E-03     33.8121E-03    -16.7776E-03    -17.0391E-03    -16.7857E-03     33.5587E-03    -16.7776E-03     7.14998E-03     37.5556E-03     139.785E+06    -4.84732E+06    -7.78681E+06    -146.067E+06    -5.89068E+06    -145.024E+06    -7.78681E+06    -12.0232E+06
            1521     77.6535E-03     6.88509E-03     77.3477E-03     33.8019E-03    -16.7515E-03    -17.0510E-03    -16.7340E-03     33.4848E-03    -16.7515E-03     7.99230E-03     39.0565E-03     132.364E+06    -3.08268E+06    -8.74699E+06    -138.156E+06    -4.45540E+06    -136.783E+06    -8.74699E+06    -13.4406E+06
            1522     77.7551E-03     7.86856E-03     77.3559E-03     33.8046E-03    -16.7121E-03    -17.0940E-03    -16.7188E-03     33.4293E-03    -16.7121E-03     8.70451E-03     40.9293E-03     119.762E+06    -1.78734E+06    -11.8021E+06    -126.227E+06    -3.37346E+06    -124.641E+06    -11.8021E+06    -13.8756E+06
            1523     77.8701E-03     8.85255E-03     77.3652E-03     33.8395E-03    -16.6893E-03    -17.1540E-03    -16.7388E-03     33.4243E-03    -16.6893E-03     9.16294E-03     43.2772E-03     108.386E+06    -759.698E+03    -13.4416E+06    -114.918E+06    -2.41215E+06    -113.265E+06    -13.4416E+06    -13.5493E+06
            1524     77.9970E-03     9.83578E-03     77.3744E-03     33.9190E-03    -16.6430E-03    -17.3011E-03    -16.7662E-03     33.3841E-03    -16.6430E-03     10.3654E-03     46.4116E-03     94.5013E+06     66.7802E+03    -20.5399E+06    -102.693E+06    -1.57431E+06    -101.052E+06    -20.5399E+06    -12.7427E+06
            1525     78.1391E-03     10.8197E-03     77.3864E-03     33.9035E-03    -16.5879E-03    -17.3616E-03    -16.7462E-03     33.2881E-03    -16.5879E-03     11.1627E-03     50.2843E-03     77.1691E+06    -729.682E+03    -31.0624E+06    -88.2072E+06    -2.44174E+06    -86.4951E+06    -31.0624E+06    -11.7271E+06
            1526     78.2919E-03     11.8032E-03     77.3971E-03     33.7757E-03    -16.5316E-03    -17.2799E-03    -16.6418E-03     33.1376E-03    -16.5316E-03     11.3333E-03     54.0403E-03     59.1488E+06    -515.407E+03    -39.7562E+06    -66.2837E+06    -3.25483E+06    -63.5443E+06    -39.7562E+06    -11.6878E+06
            1527     78.4587E-03     12.7872E-03     77.4097E-03     33.9072E-03    -16.4444E-03    -17.4698E-03    -16.5877E-03     33.0251E-03    -16.4444E-03     13.2606E-03     59.9751E-03     51.9278E+06     1.46974E+06    -31.0909E+06    -55.4898E+06    -1.85978E+06    -31.3009E+06    -51.9503E+06    -9.41592E+06
            1528     78.6398E-03     13.7710E-03     77.4247E-03     35.0103E-03    -16.3163E-03    -18.6868E-03    -16.6586E-03     32.9822E-03    -16.3163E-03     19.9103E-03     75.7617E-03     79.8964E+06     16.5216E+06    -11.5724E+06    -73.6094E+06    -2.88010E+06     7.82934E+06    -73.6094E+06    -5.24502E+06
            1529     78.8442E-03     14.7542E-03     77.4514E-03     49.6614E-03    -16.2981E-03    -33.3633E-03    -17.4738E-03     33.7719E-03    -16.2981E-03     60.9802E-03     111.907E-03     130.155E+06     75.9624E+06    -8.46979E+06    -68.5013E+06    -8.02628E+06     75.5189E+06    -68.5013E+06    -1.98175E+06
            1530     79.1325E-03     15.7390E-03     77.5515E-03     145.638E-03    -16.5796E-03    -129.060E-03    -33.0768E-03     49.6546E-03    -16.5796E-03     260.619E-03     337.695E-03     169.739E+06     159.098E+06     20.2456E+06    -29.8388E+06    -10.7870E+06     158.900E+06     1.39164E+06     167.644E+03
            1531     79.7801E-03     16.7257E-03     78.0072E-03     231.247E-03    -16.8967E-03    -214.357E-03    -43.7504E-03     60.6401E-03    -16.8967E-03     433.086E-03     628.570E-03     197.160E+06     218.604E+06     89.5606E+06    -6.25633E+06    -6.22548E+06     218.573E+06     89.5606E+06     648.261E+03
            1532     78.3569E-03     983.391E-06     78.3507E-03     33.7695E-03    -16.7669E-03    -17.0039E-03    -16.9286E-03     33.7548E-03    -16.8275E-03     1.54779E-03     33.9777E-03     168.651E+06    -9.83185E+06    -11.6549E+06    -179.383E+06    -10.8497E+06    -179.297E+06    -10.7224E+06    -1.80347E+06
            1533     78.3779E-03     1.96691E-03     78.3532E-03     33.6267E-03    -16.7215E-03    -16.9074E-03    -16.7626E-03     33.5844E-03    -16.8239E-03     2.81847E-03     34.0685E-03     149.723E+06    -10.7950E+06    -14.5649E+06    -162.364E+06    -11.6034E+06    -162.176E+06    -13.9447E+06    -4.89481E+06
            1534     78.4118E-03     2.95076E-03     78.3562E-03     33.5146E-03    -16.7228E-03    -16.7941E-03    -16.6606E-03     33.4315E-03    -16.7732E-03     4.05454E-03     34.4318E-03     142.388E+06    -11.6105E+06    -14.6327E+06    -155.476E+06    -12.0964E+06    -154.995E+06    -14.6283E+06    -7.89362E+06
            1535     78.4598E-03     3.93453E-03     78.3611E-03     33.6249E-03    -16.7443E-03    -16.8806E-03    -16.7392E-03     33.4921E-03    -16.7528E-03     5.13885E-03     35.2181E-03     141.092E+06    -10.1723E+06    -12.0698E+06    -152.196E+06    -10.9821E+06    -151.391E+06    -12.0655E+06    -10.4452E+06
            1536     78.5207E-03     4.91800E-03     78.3666E-03     33.7680E-03    -16.7481E-03    -17.0204E-03    -16.8254E-03     33.5730E-03    -16.7481E-03     6.26102E-03     36.2809E-03     136.846E+06    -7.78868E+06    -10.8379E+06    -146.127E+06    -8.99673E+06    -144.919E+06    -10.8379E+06    -12.6768E+06
            1537     78.5954E-03     5.90153E-03     78.3735E-03     33.8347E-03    -16.7566E-03    -17.0791E-03    -16.8237E-03     33.5793E-03    -16.7566E-03     7.18198E-03     37.5658E-03     136.393E+06    -4.91830E+06    -9.22407E+06    -143.411E+06    -6.49894E+06    -141.830E+06    -9.22407E+06    -14.5775E+06
            1538     78.6826E-03     6.88501E-03     78.3808E-03     33.8377E-03    -16.7444E-03    -17.0913E-03    -16.7774E-03     33.5238E-03    -16.7444E-03     7.96173E-03     39.1104E-03     129.423E+06    -2.89370E+06    -8.92476E+06    -135.218E+06    -4.72239E+06    -133.389E+06    -8.92476E+06    -15.3608E+06
            1539     78.7834E-03     7.86884E-03     78.3894E-03     33.8344E-03    -16.7141E-03    -17.1202E-03    -16.7487E-03     33.4629E-03    -16.7141E-03     8.66323E-03     40.9852E-03     118.846E+06    -900.350E+03    -11.4187E+06    -124.608E+06    -3.10055E+06    -122.408E+06    -11.4187E+06    -16.2730E+06
            1540     78.8967E-03     8.85214E-03     78.3985E-03     33.8568E-03    -16.6913E-03    -17.1697E-03    -16.7533E-03     33.4404E-03    -16.6913E-03     9.17914E-03     43.3107E-03     108.933E+06     984.792E+03    -13.7392E+06    -114.538E+06    -1.39796E+06    -112.155E+06    -13.7392E+06    -16.3405E+06
            1541     79.0227E-03     9.83608E-03     78.4082E-03     33.9468E-03    -16.6488E-03    -17.3255E-03    -16.7910E-03     33.4123E-03    -16.6488E-03     10.3675E-03     46.4696E-03     96.4606E+06     1.90158E+06    -20.6382E+06    -103.514E+06    -446.011E+03    -101.166E+06    -20.6382E+06    -15.4950E+06
            1542     79.1625E-03     10.8195E-03     78.4196E-03     33.9435E-03    -16.5917E-03    -17.3977E-03    -16.7843E-03     33.3301E-03    -16.5917E-03     11.1530E-03     50.3162E-03     80.9270E+06     3.10041E+06    -30.6740E+06    -88.8619E+06     757.555E+03    -86.5190E+06    -30.6740E+06    -14.1701E+06
            1543     79.3142E-03     11.8034E-03     78.4311E-03     33.8142E-03    -16.5324E-03    -17.3161E-03    -16.6710E-03     33.1691E-03    -16.5324E-03     11.4014E-03     54.0878E-03     61.8382E+06     3.47382E+06    -39.4245E+06    -65.2834E+06     137.533E+03    -61.9471E+06    -39.4245E+06    -13.6759E+06
            1544     79.4783E-03     12.7869E-03     78.4430E-03     34.0004E-03    -16.4325E-03    -17.5739E-03    -16.6311E-03     33.0576E-03    -16.4325E-03     13.6978E-03     60.0024E-03     56.6804E+06     2.76262E+06    -35.9819E+06    -59.6546E+06    -2.78916E+06    -33.5989E+06    -56.4858E+06    -13.1274E+06
            1545     79.6584E-03     13.7708E-03     78.4590E-03     34.9877E-03    -16.3019E-03    -18.6783E-03    -16.5331E-03     32.8425E-03    -16.3019E-03     20.4848E-03     75.8437E-03     82.5136E+06     13.1473E+06    -17.1722E+06    -79.6462E+06    -5.36639E+06     1.34151E+06    -79.6462E+06    -7.56255E+06
            1546     79.8601E-03     14.7553E-03     78.4851E-03     49.4139E-03    -16.2727E-03    -33.1408E-03    -16.8977E-03     33.1707E-03    -16.2727E-03     61.3550E-03     111.446E-03     128.878E+06     71.4855E+06    -8.97583E+06    -71.5032E+06    -8.62990E+06     71.1396E+06    -71.5032E+06    -339.764E+03
            1547     80.1455E-03     15.7405E-03     78.5846E-03     146.093E-03    -16.5113E-03    -129.584E-03    -32.6012E-03     49.1110E-03    -16.5113E-03     262.105E-03     337.427E-03     169.591E+06     158.221E+06     19.5907E+06    -30.7709E+06    -10.1279E+06     158.135E+06    -966.606E+03     701.643E+03
            1548     80.7919E-03     16.7222E-03     79.0424E-03     230.088E-03    -16.8352E-03    -213.274E-03    -43.9591E-03     60.7734E-03    -16.8352E-03     430.730E-03     627.010E-03     198.139E+06     218.636E+06     89.4348E+06    -6.92905E+06    -6.91864E+06     218.625E+06     89.4348E+06    -1.06592E+06
            1549     79.3907E-03     983.297E-06     79.3846E-03     33.6332E-03    -16.7319E-03    -16.9027E-03    -16.7307E-03     33.6149E-03    -16.8856E-03     1.77184E-03     33.8293E-03     163.598E+06    -11.2060E+06    -13.0532E+06    -175.714E+06    -11.4421E+06    -175.616E+06    -12.9156E+06    -2.13882E+06
            1550     79.4104E-03     1.96731E-03     79.3860E-03     33.5168E-03    -16.6922E-03    -16.8239E-03    -16.7151E-03     33.4714E-03    -16.7555E-03     2.95454E-03     33.9656E-03     142.896E+06    -11.8195E+06    -15.5490E+06    -156.524E+06    -12.1245E+06    -156.271E+06    -15.4969E+06    -5.58268E+06
            1551     79.4447E-03     2.95079E-03     79.3899E-03     33.6087E-03    -16.7366E-03    -16.8703E-03    -16.7849E-03     33.5260E-03    -16.7393E-03     4.05338E-03     34.5201E-03     135.537E+06    -11.5344E+06    -15.4035E+06    -148.950E+06    -12.1419E+06    -148.343E+06    -15.4035E+06    -8.76920E+06
            1552     79.4915E-03     3.93426E-03     79.3941E-03     33.6550E-03    -16.7488E-03    -16.9070E-03    -16.7748E-03     33.5228E-03    -16.7488E-03     5.13017E-03     35.2552E-03     135.835E+06    -10.1641E+06    -13.1347E+06    -147.457E+06    -11.3595E+06    -146.261E+06    -13.1347E+06    -12.4321E+06
            1553     79.5525E-03     4.91805E-03     79.4003E-03     33.7113E-03    -16.7432E-03    -16.9683E-03    -16.7779E-03     33.5209E-03    -16.7432E-03     6.18411E-03     36.2448E-03     131.330E+06    -8.55914E+06    -11.8651E+06    -141.511E+06    -10.2830E+06    -139.787E+06    -11.8651E+06    -14.8927E+06
            1554     79.6257E-03     5.90149E-03     79.4067E-03     33.8261E-03    -16.7515E-03    -17.0720E-03    -16.8262E-03     33.5803E-03    -16.7515E-03     7.04469E-03     37.5721E-03     131.019E+06    -7.04247E+06    -10.1261E+06    -139.574E+06    -9.27293E+06    -137.343E+06    -10.1261E+06    -16.9130E+06
            1555     79.7123E-03     6.88510E-03     79.4144E-03     33.8909E-03    -16.7408E-03    -17.1494E-03    -16.8398E-03     33.5813E-03    -16.7408E-03     7.91055E-03     39.1719E-03     125.448E+06    -4.04586E+06    -10.9988E+06    -132.739E+06    -6.86292E+06    -129.922E+06    -10.9988E+06    -18.6116E+06
            1556     79.8116E-03     7.86831E-03     79.4228E-03     33.8649E-03    -16.7164E-03    -17.1531E-03    -16.7878E-03     33.4997E-03    -16.7164E-03     8.59789E-03     41.0312E-03     116.026E+06    -476.693E+03    -13.2341E+06    -122.295E+06    -3.77441E+06    -118.998E+06    -13.2341E+06    -19.5813E+06
            1557     79.9238E-03     8.85233E-03     79.4321E-03     33.8603E-03    -16.6978E-03    -17.1701E-03    -16.7508E-03     33.4411E-03    -16.6978E-03     9.20417E-03     43.3462E-03     108.871E+06     1.84884E+06    -15.2224E+06    -114.521E+06    -1.60164E+06    -111.071E+06    -15.2224E+06    -19.6442E+06
            1558     80.0483E-03     9.83561E-03     79.4417E-03     33.9707E-03    -16.6602E-03    -17.3366E-03    -16.8047E-03     33.4388E-03    -16.6602E-03     10.3666E-03     46.5370E-03     97.8262E+06     3.66885E+06    -20.7843E+06    -103.851E+06     209.797E+03    -100.392E+06    -20.7843E+06    -18.8182E+06
            1559     80.1865E-03     10.8195E-03     79.4532E-03     33.9470E-03    -16.6029E-03    -17.3889E-03    -16.7796E-03     33.3377E-03    -16.6029E-03     11.1190E-03     50.3266E-03     83.3604E+06     4.76715E+06    -30.8252E+06    -90.0094E+06     1.10060E+06    -86.3428E+06    -30.8252E+06    -18.1278E+06
            1560     80.3364E-03     11.8029E-03     79.4646E-03     33.7853E-03    -16.5526E-03    -17.2713E-03    -16.6331E-03     33.1471E-03    -16.5526E-03     11.3420E-03     54.1452E-03     62.9455E+06     4.60142E+06    -37.6780E+06     -66.581E+06     918.015E+03    -62.8976E+06    -37.6780E+06    -15.5442E+06
            1561     80.4987E-03     12.7872E-03     79.4765E-03     33.8667E-03    -16.4675E-03    -17.4074E-03    -16.4535E-03     32.9129E-03    -16.4675E-03     13.6955E-03     60.0282E-03     52.2040E+06     2.00269E+06    -34.1950E+06    -56.6644E+06    -2.73766E+06    -35.2279E+06    -50.8912E+06    -11.8174E+06
            1562     80.6770E-03     13.7709E-03     79.4930E-03     34.7742E-03    -16.3146E-03    -18.4498E-03    -16.3208E-03     32.6452E-03    -16.3146E-03     20.4095E-03     75.7699E-03     76.0031E+06     7.81264E+06    -22.4583E+06    -78.1028E+06    -9.50415E+06    -5.14149E+06    -78.1028E+06    -8.28350E+06
            1563     80.8750E-03     14.7555E-03     79.5176E-03     48.9214E-03    -16.2470E-03    -32.6713E-03    -16.5646E-03     32.8147E-03    -16.2470E-03     60.5734E-03     111.085E-03     126.286E+06     66.6420E+06    -13.2501E+06    -74.0054E+06    -11.9985E+06     65.3904E+06    -74.0054E+06    -3.54869E+06
            1564     81.1593E-03     15.7405E-03     79.6183E-03     146.101E-03    -16.4303E-03    -129.671E-03    -31.7594E-03     48.1890E-03    -16.4303E-03     262.742E-03     337.153E-03     169.738E+06     157.576E+06     17.7727E+06    -31.2230E+06    -9.39979E+06     157.560E+06    -4.03428E+06    -1.09134E+06
            1565     81.8072E-03     16.7306E-03     80.0781E-03     230.003E-03    -16.7499E-03    -213.266E-03    -44.4942E-03     61.2317E-03    -16.7499E-03     430.449E-03     626.099E-03     198.613E+06     219.729E+06     89.1367E+06    -5.65911E+06    -5.63610E+06     219.706E+06     89.1367E+06    -290.836E+03
            1566     80.4228E-03     984.049E-06     80.4168E-03     33.3732E-03    -16.5358E-03    -16.8382E-03    -16.7289E-03     33.3569E-03    -16.6288E-03     1.57750E-03     33.5531E-03     155.702E+06    -12.9872E+06    -15.3940E+06    -169.875E+06    -13.8405E+06    -169.778E+06    -14.6376E+06    -3.58955E+06
            1567     80.4439E-03     1.96735E-03     80.4199E-03     33.5095E-03    -16.6667E-03    -16.8439E-03    -16.7994E-03     33.4649E-03    -16.6667E-03     2.95066E-03     33.9633E-03     134.990E+06    -12.9657E+06    -16.7687E+06    -149.797E+06    -13.4537E+06    -149.361E+06    -16.7166E+06    -7.02524E+06
            1568     80.4770E-03     2.95085E-03     80.4229E-03     33.6259E-03    -16.7061E-03    -16.9200E-03    -16.8357E-03     33.5416E-03    -16.7061E-03     4.07804E-03     34.5456E-03     128.423E+06    -11.8843E+06    -16.3749E+06    -142.480E+06    -12.7287E+06    -141.636E+06    -16.3749E+06    -10.3292E+06
            1569     80.5241E-03     3.93436E-03     80.4279E-03     33.7401E-03    -16.7452E-03    -16.9952E-03    -16.8597E-03     33.6047E-03    -16.7452E-03     5.21181E-03     35.3546E-03     128.446E+06    -11.0000E+06    -13.8305E+06    -140.830E+06    -12.4781E+06    -139.352E+06    -13.8305E+06    -13.4367E+06
            1570     80.5835E-03     4.91768E-03     80.4333E-03     33.7683E-03    -16.7601E-03    -17.0077E-03    -16.8173E-03     33.5780E-03    -16.7601E-03     6.18837E-03     36.3341E-03     126.334E+06    -8.95956E+06    -12.1519E+06    -136.855E+06    -11.2675E+06    -134.547E+06    -12.1519E+06    -16.8885E+06
            1571     80.6567E-03     5.90142E-03     80.4406E-03     33.8365E-03    -16.7683E-03    -17.0659E-03    -16.8209E-03     33.5915E-03    -16.7683E-03     7.03593E-03     37.6159E-03     126.409E+06    -6.42546E+06    -10.5208E+06    -134.823E+06    -9.27436E+06    -131.974E+06    -10.5208E+06    -18.7965E+06
            1572     80.7418E-03     6.88473E-03     80.4478E-03     33.8873E-03    -16.7489E-03    -17.1392E-03    -16.8323E-03     33.5804E-03    -16.7489E-03     7.87487E-03     39.1849E-03     120.849E+06    -3.58578E+06    -12.3875E+06    -128.508E+06    -7.51169E+06    -124.582E+06    -12.3875E+06    -21.5572E+06
            1573     80.8405E-03     7.86854E-03     80.4566E-03     33.8752E-03    -16.7189E-03    -17.1619E-03    -16.7959E-03     33.5092E-03    -16.7189E-03     8.60611E-03     41.0404E-03     112.300E+06    -1.82098E+06    -16.5702E+06    -120.743E+06    -6.52543E+06    -116.038E+06    -16.5702E+06    -23.1051E+06
            1574     80.9506E-03     8.85173E-03     80.4652E-03     33.9068E-03    -16.7043E-03    -17.2070E-03    -16.7834E-03     33.4832E-03    -16.7043E-03     9.25927E-03     43.4578E-03     106.048E+06     181.027E+03    -18.0714E+06    -113.779E+06    -4.82553E+06    -108.773E+06    -18.0714E+06    -23.1533E+06
            1575     81.0743E-03     9.83572E-03     80.4755E-03     33.9697E-03    -16.6681E-03    -17.3215E-03    -16.7835E-03     33.4317E-03    -16.6681E-03     10.4219E-03     46.5648E-03     97.0425E+06      2.6502E+06    -23.7112E+06    -104.590E+06    -2.59935E+06    -99.3402E+06    -23.7112E+06    -22.9601E+06
            1576     81.2106E-03     10.8190E-03     80.4868E-03     33.9014E-03    -16.6125E-03    -17.3301E-03    -16.7252E-03     33.2965E-03    -16.6125E-03     11.0666E-03     50.3149E-03     82.7711E+06     3.16047E+06    -33.4629E+06    -91.2500E+06    -1.93579E+06    -86.1538E+06    -33.4629E+06    -21.2201E+06
            1577     81.3588E-03     11.8031E-03     80.4981E-03     33.7536E-03    -16.5617E-03    -17.2352E-03    -16.5902E-03     33.1086E-03    -16.5617E-03     11.3840E-03     54.1411E-03     63.9794E+06     1.63518E+06    -40.9397E+06    -70.9871E+06    -3.03334E+06    -66.3186E+06    -40.9397E+06    -17.6616E+06
            1578     81.5193E-03     12.7865E-03     80.5103E-03     33.7006E-03    -16.4894E-03    -17.2259E-03    -16.3177E-03     32.7924E-03    -16.4894E-03     13.3779E-03     60.0582E-03     50.7092E+06    -473.547E+03    -36.2761E+06    -57.5895E+06    -4.42655E+06    -39.6459E+06    -50.2667E+06    -11.8002E+06
            1579     81.6946E-03     13.7717E-03     80.5255E-03     34.5991E-03    -16.3331E-03    -18.2554E-03    -16.0946E-03     32.4383E-03    -16.3331E-03     20.3072E-03     75.6165E-03     71.6578E+06     7.06435E+06    -19.2132E+06    -72.9225E+06    -5.58192E+06    -6.56696E+06    -72.9225E+06    -8.64992E+06
            1580     81.8927E-03     14.7551E-03     80.5525E-03     48.4024E-03    -16.2115E-03    -32.1858E-03    -16.3748E-03     32.5914E-03    -16.2115E-03     59.9185E-03     110.757E-03     125.659E+06     63.5676E+06    -9.91909E+06    -76.8157E+06    -7.78853E+06     61.4370E+06    -76.8157E+06    -7.51184E+06
            1581     82.1696E-03     15.7421E-03     80.6476E-03     145.438E-03    -16.3799E-03    -129.056E-03    -31.5251E-03     47.9068E-03    -16.3799E-03     261.512E-03     336.200E-03     170.748E+06     155.245E+06     18.9699E+06    -36.1616E+06    -8.65486E+06     154.916E+06    -8.20800E+06    -3.13581E+06
            1582     82.8167E-03     16.7265E-03     81.1099E-03     230.426E-03    -16.7088E-03    -213.727E-03    -44.9105E-03     61.6094E-03    -16.7088E-03     431.178E-03     625.635E-03     198.984E+06     219.560E+06     86.8092E+06    -6.51368E+06    -6.48084E+06     219.527E+06     86.8092E+06     218.691E+03
            1583     81.4566E-03     983.612E-06     81.4507E-03     33.4785E-03    -16.6014E-03    -16.8756E-03    -16.8517E-03     33.4647E-03    -16.6115E-03     1.55180E-03     33.6461E-03     148.303E+06    -12.6989E+06    -14.7838E+06    -162.030E+06    -13.5993E+06    -161.865E+06    -14.0481E+06    -4.52375E+06
            1584     81.4765E-03     1.96721E-03     81.4528E-03     33.5309E-03    -16.6978E-03    -16.8334E-03    -16.7820E-03     33.4897E-03    -16.7079E-03     2.80204E-03     33.9844E-03     127.040E+06    -13.2109E+06    -16.2744E+06    -141.745E+06    -13.8019E+06    -141.185E+06    -16.2430E+06    -8.03216E+06
            1585     81.5100E-03     2.95086E-03     81.4566E-03     33.6279E-03    -16.7248E-03    -16.9041E-03    -16.8217E-03     33.5456E-03    -16.7248E-03     4.03634E-03     34.5554E-03     121.166E+06    -13.1884E+06    -17.0460E+06    -136.232E+06    -14.3797E+06    -135.041E+06    -17.0460E+06    -11.9080E+06
            1586     81.5561E-03     3.93425E-03     81.4612E-03     33.7836E-03    -16.7576E-03    -17.0249E-03    -16.8928E-03     33.6515E-03    -16.7576E-03     5.14627E-03     35.4039E-03     120.637E+06    -10.8025E+06    -14.7401E+06    -133.336E+06    -12.8772E+06    -131.261E+06    -14.7401E+06    -15.4984E+06
            1587     81.6156E-03     4.91773E-03     81.4673E-03     33.8571E-03    -16.7838E-03    -17.0712E-03    -16.8852E-03     33.6711E-03    -16.7838E-03     6.12753E-03     36.4205E-03     120.962E+06    -7.99942E+06    -12.4583E+06    -131.110E+06    -11.0006E+06    -128.109E+06    -12.4583E+06    -18.8622E+06
            1588     81.6871E-03     5.90100E-03     81.4736E-03     33.8916E-03    -16.7937E-03    -17.0963E-03    -16.8493E-03     33.6446E-03    -16.7937E-03     7.06221E-03     37.6818E-03     122.596E+06    -4.89246E+06    -11.1105E+06    -130.463E+06    -8.79595E+06    -126.559E+06    -11.1105E+06    -21.5375E+06
            1589     81.7722E-03     6.88470E-03     81.4819E-03     33.8840E-03    -16.7760E-03    -17.1080E-03    -16.8066E-03     33.5825E-03    -16.7760E-03     7.81334E-03     39.2098E-03     116.627E+06    -2.23353E+06    -11.8072E+06    -123.337E+06    -7.01303E+06    -118.558E+06    -11.8072E+06    -23.3418E+06
            1590     81.8686E-03     7.86802E-03     81.4896E-03     33.8927E-03    -16.7443E-03    -17.1520E-03    -16.7924E-03     33.5331E-03    -16.7443E-03     8.52674E-03     41.0765E-03     110.218E+06    -841.207E+03    -16.0843E+06    -117.811E+06    -6.56509E+06    -112.088E+06    -16.0843E+06    -25.1006E+06
            1591     81.9786E-03     8.85192E-03     81.4993E-03     33.9459E-03    -16.7175E-03    -17.2322E-03    -16.8040E-03     33.5178E-03    -16.7175E-03     9.31631E-03     43.5075E-03     103.644E+06     105.477E+03    -20.4799E+06    -112.262E+06    -6.36841E+06    -105.788E+06    -20.4799E+06    -26.0900E+06
            1592     82.0999E-03     9.83499E-03     81.5086E-03     33.9416E-03    -16.6789E-03    -17.2835E-03    -16.7483E-03     33.4064E-03    -16.6789E-03     10.3892E-03     46.5433E-03     94.7527E+06     747.202E+03    -27.1172E+06    -104.556E+06    -6.25471E+06    -97.5537E+06    -27.1172E+06    -26.0886E+06
            1593     82.2354E-03     10.8191E-03     81.5206E-03     33.8420E-03    -16.6139E-03    -17.2681E-03    -16.6560E-03     33.2299E-03    -16.6139E-03     11.1163E-03     50.2285E-03     82.9215E+06     943.558E+03    -38.1911E+06    -93.8354E+06    -5.90317E+06    -86.9887E+06    -38.1911E+06    -24.4201E+06
            1594     82.3812E-03     11.8025E-03     81.5313E-03     33.6671E-03    -16.5586E-03    -17.1495E-03    -16.4994E-03     33.0170E-03    -16.5586E-03     11.4100E-03     54.0412E-03     67.2797E+06     841.621E+03    -45.3058E+06    -75.6286E+06    -5.28336E+06    -69.5036E+06    -45.3058E+06    -20.5597E+06
            1595     82.5403E-03     12.7872E-03     81.5438E-03     33.7157E-03    -16.4642E-03    -17.2713E-03    -16.3533E-03     32.7977E-03    -16.4642E-03     13.4429E-03     59.9676E-03     60.8133E+06     3.32163E+06    -41.4603E+06    -65.5826E+06    -3.26572E+06    -43.5243E+06    -56.9314E+06    -17.0974E+06
            1596     82.7129E-03     13.7703E-03     81.5586E-03     34.3638E-03    -16.3194E-03    -18.0407E-03    -15.9630E-03     32.2862E-03    -16.3194E-03     19.8839E-03     75.4326E-03     76.6457E+06     9.82663E+06    -22.0430E+06    -75.9049E+06    -2.68800E+06    -9.52840E+06    -75.9049E+06    -12.2641E+06
            1597     82.9086E-03     14.7570E-03     81.5847E-03     48.1920E-03    -16.2273E-03    -31.9630E-03    -16.7339E-03     32.9629E-03    -16.2273E-03     58.9863E-03     110.502E-03     123.771E+06     62.3552E+06    -9.30499E+06    -75.9710E+06    -6.80080E+06     59.8510E+06    -75.9710E+06    -7.40550E+06
            1598     83.1838E-03     15.7406E-03     81.6810E-03     144.214E-03    -16.3958E-03    -127.819E-03    -31.8445E-03     48.2400E-03    -16.3958E-03     258.483E-03     335.216E-03     170.255E+06     150.475E+06     12.2859E+06    -39.1560E+06    -10.4946E+06     150.088E+06    -15.9892E+06    -4.13589E+06
            1599     83.8277E-03     16.7293E-03     82.1414E-03     230.958E-03    -16.7396E-03    -214.232E-03    -44.6782E-03     61.4044E-03    -16.7396E-03     432.345E-03     626.356E-03     198.267E+06     215.917E+06     79.3876E+06    -7.97512E+06    -7.88587E+06     215.828E+06     79.3876E+06    -890.409E+03
            1600     82.4899E-03     983.434E-06     82.4840E-03     33.7960E-03    -16.8308E-03    -16.9638E-03    -16.8818E-03     33.7831E-03    -16.8999E-03     1.57557E-03     33.9604E-03     137.900E+06    -14.0014E+06    -15.4615E+06    -152.621E+06    -15.1248E+06    -152.321E+06    -14.6379E+06    -5.38054E+06
            1601     82.5097E-03     1.96702E-03     82.4862E-03     33.6786E-03    -16.7980E-03    -16.8759E-03    -16.7826E-03     33.6398E-03    -16.8524E-03     2.69528E-03     34.1296E-03     119.917E+06    -12.9485E+06    -14.9980E+06    -133.866E+06    -13.7312E+06    -133.115E+06    -14.9666E+06    -9.22618E+06
            1602     82.5427E-03     2.95050E-03     82.4900E-03     33.7550E-03    -16.8274E-03    -16.9232E-03    -16.8446E-03     33.6764E-03    -16.8274E-03     3.95634E-03     34.6815E-03     114.302E+06    -11.3203E+06    -14.8939E+06    -127.362E+06    -12.8986E+06    -125.784E+06    -14.8939E+06    -13.1433E+06
            1603     82.5887E-03     3.93392E-03     82.4950E-03     33.8129E-03    -16.8224E-03    -16.9899E-03    -16.8641E-03     33.6871E-03    -16.8224E-03     5.01807E-03     35.4236E-03     114.378E+06    -8.79231E+06    -14.6267E+06    -125.947E+06    -11.6724E+06    -123.067E+06    -14.6267E+06    -17.9270E+06
            1604     82.6470E-03     4.91736E-03     82.5006E-03     33.8711E-03    -16.8236E-03    -17.0466E-03    -16.8658E-03     33.6903E-03    -16.8236E-03     6.04062E-03     36.4244E-03     115.257E+06    -6.29524E+06    -13.5345E+06    -124.987E+06    -10.2220E+06    -121.060E+06    -13.5345E+06    -21.1311E+06
            1605     82.7183E-03     5.90085E-03     82.5076E-03     33.9192E-03    -16.8260E-03    -17.0906E-03    -16.8487E-03     33.6773E-03    -16.8260E-03     6.99074E-03     37.6994E-03     117.226E+06    -4.23882E+06    -11.8804E+06    -125.082E+06    -9.17052E+06    -120.150E+06    -11.8804E+06    -23.7636E+06
            1606     82.8017E-03     6.88422E-03     82.5150E-03     33.9088E-03    -16.7997E-03    -17.1105E-03    -16.8080E-03     33.6063E-03    -16.7997E-03     7.82474E-03     39.1920E-03     112.321E+06    -1.88383E+06    -13.9294E+06    -119.676E+06    -7.87685E+06    -113.683E+06    -13.9294E+06    -25.7126E+06
            1607     82.8980E-03     7.86794E-03     82.5238E-03     33.9225E-03    -16.7690E-03    -17.1608E-03    -16.8021E-03     33.5638E-03    -16.7690E-03     8.52296E-03     41.1059E-03     106.756E+06     715.452E+03     -17.094E+06    -113.753E+06    -6.15800E+06    -106.880E+06     -17.094E+06    -27.0231E+06
            1608     83.0056E-03     8.85123E-03     82.5324E-03     33.9079E-03    -16.7370E-03    -17.1780E-03    -16.7477E-03     33.4776E-03    -16.7370E-03     9.32525E-03     43.4456E-03     102.510E+06     2.43094E+06    -21.3697E+06    -109.820E+06    -5.34333E+06    -102.045E+06    -21.3697E+06    -28.4016E+06
            1609     83.1268E-03     9.83519E-03     82.5429E-03     33.8872E-03    -16.6845E-03    -17.2262E-03    -16.6893E-03     33.3504E-03    -16.6845E-03     10.4024E-03     46.4369E-03     95.1370E+06     3.00574E+06    -29.2047E+06    -103.773E+06    -5.24286E+06    -95.5241E+06    -29.2047E+06    -28.3916E+06
            1610     83.2592E-03     10.8186E-03     82.5533E-03     33.7864E-03    -16.6086E-03    -17.2194E-03    -16.5972E-03     33.1642E-03    -16.6086E-03     11.1958E-03     50.0328E-03     85.4334E+06     2.84264E+06    -41.6293E+06    -95.1247E+06    -5.58218E+06    -86.6999E+06    -41.6293E+06    -27.3502E+06
            1611     83.4049E-03     11.8029E-03     82.5656E-03     33.6138E-03    -16.5308E-03    -17.1227E-03    -16.4641E-03     32.9553E-03    -16.5308E-03     11.4836E-03     53.7668E-03     75.8910E+06     5.29484E+06    -51.3940E+06    -79.7247E+06    -4.35843E+06    -70.0714E+06    -51.3940E+06    -26.6161E+06
            1612     83.5602E-03     12.7864E-03     82.5761E-03     33.6285E-03    -16.4330E-03    -17.2113E-03    -16.2761E-03     32.6933E-03    -16.4330E-03     13.5229E-03     59.5322E-03     69.9741E+06     6.94677E+06    -50.1950E+06    -70.2774E+06    -2.92222E+06    -47.3271E+06    -63.2763E+06    -23.0319E+06
            1613     83.7334E-03     13.7715E-03     82.5931E-03     34.5522E-03    -16.3089E-03    -18.2399E-03    -16.2398E-03     32.5522E-03    -16.3089E-03     19.7654E-03     75.1381E-03     81.1709E+06     8.99282E+06    -29.9551E+06    -81.5019E+06    -4.63565E+06    -16.3267E+06    -81.5019E+06    -15.5409E+06
            1614     83.9228E-03     14.7547E-03     82.6156E-03     48.8947E-03    -16.2214E-03    -32.6746E-03    -16.8769E-03     33.0970E-03    -16.2214E-03     59.9479E-03     110.304E-03     124.806E+06     58.3162E+06    -11.2336E+06    -82.2721E+06    -7.44322E+06     54.5258E+06    -82.2721E+06    -7.72103E+06
            1615     84.2026E-03     15.7383E-03     82.7188E-03     144.544E-03    -16.4112E-03    -128.135E-03    -33.1414E-03     49.5508E-03    -16.4112E-03     258.635E-03     335.115E-03     169.883E+06     145.902E+06     6.59917E+06    -41.6163E+06    -8.81211E+06     145.670E+06    -25.9737E+06    -3.75795E+06
            1616     84.8282E-03     16.7227E-03     83.1636E-03     230.040E-03    -16.8035E-03    -213.256E-03    -44.3923E-03     61.1762E-03    -16.8035E-03     430.362E-03     626.356E-03     197.163E+06     214.648E+06     71.1944E+06    -5.65961E+06    -5.58245E+06     214.570E+06     71.1944E+06    -1.13598E+06
            1617     83.5234E-03     983.087E-06     83.5176E-03     34.0531E-03    -16.9501E-03    -17.1030E-03    -17.0288E-03     34.0378E-03    -17.0091E-03     1.55407E-03     34.2174E-03     130.238E+06    -10.4069E+06    -12.7175E+06    -141.777E+06    -11.6059E+06    -141.370E+06    -11.9254E+06    -6.22966E+06
            1618     83.5430E-03     1.96657E-03     83.5199E-03     33.9684E-03    -16.9339E-03    -17.0335E-03    -16.9472E-03     33.9264E-03    -16.9782E-03     2.85516E-03     34.4235E-03     113.114E+06    -10.0539E+06    -13.4602E+06    -124.785E+06    -11.2375E+06    -123.601E+06    -13.4602E+06    -11.1584E+06
            1619     83.5759E-03     2.94996E-03     83.5238E-03     33.9018E-03    -16.9341E-03    -16.9665E-03    -16.8823E-03     33.8227E-03    -16.9393E-03     3.97067E-03     34.8345E-03     107.138E+06    -7.80076E+06    -14.4537E+06    -118.083E+06    -9.94613E+06    -115.938E+06    -14.4537E+06    -15.0154E+06
            1620     83.6211E-03     3.93350E-03     83.5286E-03     33.8495E-03    -16.8917E-03    -16.9571E-03    -16.8174E-03     33.7245E-03    -16.9063E-03     5.00864E-03     35.4528E-03     107.224E+06    -6.70902E+06    -14.1092E+06    -117.429E+06    -10.0987E+06    -114.039E+06    -14.1092E+06    -18.9134E+06
            1621     83.6791E-03     4.91699E-03     83.5345E-03     33.8640E-03    -16.8703E-03    -16.9931E-03    -16.8003E-03     33.6805E-03    -16.8797E-03     6.07228E-03     36.4028E-03     109.236E+06    -5.08784E+06    -13.8243E+06    -118.420E+06    -10.0375E+06    -113.471E+06    -13.8243E+06    -23.0612E+06
            1622     83.7492E-03     5.90050E-03     83.5411E-03     33.9319E-03    -16.8614E-03    -17.0693E-03    -16.8277E-03     33.6902E-03    -16.8614E-03     6.99542E-03     37.6938E-03     112.171E+06    -2.30929E+06    -13.1517E+06    -119.480E+06    -8.54266E+06    -113.246E+06    -13.1517E+06    -26.1594E+06
            1623     83.8319E-03     6.88407E-03     83.5488E-03     33.9474E-03    -16.8303E-03    -17.1178E-03    -16.8177E-03     33.6472E-03    -16.8303E-03     7.79437E-03     39.2106E-03     109.102E+06     611.062E+03    -14.4182E+06    -115.167E+06    -6.88332E+06    -107.672E+06    -14.4182E+06    -28.3440E+06
            1624     83.9266E-03     7.86748E-03     83.5571E-03     33.9247E-03    -16.7939E-03    -17.1348E-03    -16.7715E-03     33.5614E-03    -16.7939E-03     8.57523E-03     41.0708E-03     105.223E+06     3.57185E+06    -17.7739E+06    -110.618E+06    -5.14548E+06    -101.901E+06    -17.7739E+06    -30.2268E+06
            1625     84.0339E-03     8.85117E-03     83.5665E-03     33.8566E-03    -16.7574E-03    -17.1025E-03    -16.6745E-03     33.4287E-03    -16.7574E-03     9.29102E-03     43.3712E-03     102.195E+06     5.92469E+06    -21.2086E+06    -107.040E+06    -3.64070E+06    -97.4747E+06    -21.2086E+06    -31.3544E+06
            1626     84.1523E-03     9.83481E-03     83.5757E-03     33.8005E-03    -16.6949E-03    -17.1289E-03    -16.5878E-03     33.2594E-03    -16.6949E-03     10.4143E-03     46.3226E-03     98.0342E+06     7.29983E+06    -28.9873E+06    -103.449E+06    -2.56994E+06    -93.5789E+06    -28.9873E+06    -31.4828E+06
            1627     84.2848E-03     10.8188E-03     83.5876E-03     33.7066E-03    -16.6085E-03    -17.1405E-03    -16.5181E-03     33.0842E-03    -16.6085E-03     11.1811E-03     49.9072E-03     90.1362E+06     8.52436E+06    -40.8094E+06     -94.946E+06    -1.84511E+06    -84.5765E+06    -40.8094E+06    -30.9296E+06
            1628     84.4268E-03     11.8025E-03     83.5977E-03     33.5455E-03    -16.5246E-03    -17.0592E-03    -16.3727E-03     32.8590E-03    -16.5246E-03     11.6921E-03     53.6065E-03     79.9823E+06     9.24694E+06    -51.0079E+06    -80.5204E+06    -3.03277E+06    -68.2407E+06    -51.0079E+06    -30.6508E+06
            1629     84.5829E-03     12.7869E-03     83.6108E-03     33.5418E-03    -16.4175E-03    -17.1371E-03    -16.2000E-03     32.6048E-03    -16.4175E-03     13.5791E-03     59.3553E-03     75.3308E+06     7.99059E+06    -55.7947E+06    -74.8301E+06    -4.86901E+06    -51.6213E+06    -66.1439E+06    -27.6486E+06
            1630     84.7504E-03     13.7711E-03     83.6241E-03     34.7402E-03    -16.2737E-03    -18.4576E-03    -16.2109E-03     32.4935E-03    -16.2737E-03     20.7017E-03     74.9433E-03     86.5918E+06     8.68100E+06    -38.0314E+06    -87.5931E+06    -4.74539E+06    -24.6050E+06    -87.5931E+06    -19.8326E+06
            1631     84.9444E-03     14.7549E-03     83.6531E-03     48.4082E-03    -16.1538E-03    -32.2520E-03    -16.3500E-03     32.5061E-03    -16.1538E-03     60.0945E-03     109.838E-03     127.886E+06     54.4660E+06    -13.9938E+06    -90.7924E+06    -5.81845E+06     46.2906E+06    -90.7924E+06    -10.8967E+06
            1632     85.2121E-03     15.7445E-03     83.7450E-03     147.391E-03    -16.3389E-03    -131.052E-03    -34.5233E-03     50.8627E-03    -16.3389E-03     264.044E-03     336.426E-03     170.375E+06     142.501E+06     5.17646E+06    -45.4302E+06    -7.60138E+06     142.259E+06    -32.4096E+06    -3.88811E+06
            1633     85.8607E-03     16.7196E-03     84.2171E-03     229.584E-03    -16.7552E-03    -212.844E-03    -44.9798E-03     61.7198E-03    -16.7552E-03     429.141E-03     625.982E-03     196.662E+06     213.448E+06     65.6974E+06    -5.24958E+06    -5.23913E+06     213.437E+06     65.6974E+06    -1.01405E+06
            1634     84.5573E-03     983.615E-06     84.5516E-03     34.2697E-03    -17.0730E-03    -17.1966E-03    -17.1830E-03     34.2561E-03    -17.0730E-03     1.43325E-03     34.4268E-03     125.588E+06    -2.82870E+06    -6.66701E+06    -130.279E+06    -5.01262E+06    -129.862E+06    -4.89965E+06    -6.54056E+06
            1635     84.5771E-03     1.96643E-03     84.5543E-03     34.2051E-03    -17.0778E-03    -17.1301E-03    -17.0858E-03     34.1638E-03    -17.0808E-03     2.82457E-03     34.6517E-03     106.103E+06    -4.71116E+06    -9.27580E+06    -112.981E+06    -6.12257E+06    -111.570E+06    -9.27580E+06    -11.7609E+06
            1636     84.6090E-03     2.94970E-03     84.5576E-03     34.0213E-03    -16.9901E-03    -17.0345E-03    -16.9186E-03     33.9429E-03    -17.0276E-03     3.95797E-03     34.9452E-03     100.466E+06    -5.89386E+06    -13.9064E+06    -110.121E+06    -8.48581E+06    -107.529E+06    -13.9064E+06    -16.1417E+06
            1637     84.6539E-03     3.93309E-03     84.5625E-03     33.8930E-03    -16.9199E-03    -16.9729E-03    -16.7910E-03     33.7641E-03    -16.9729E-03     5.07589E-03     35.4966E-03     99.8800E+06    -4.73009E+06    -13.5326E+06    -108.704E+06    -8.77349E+06    -104.661E+06    -13.5326E+06    -19.8640E+06
            1638     84.7108E-03     4.91671E-03     84.5680E-03     33.9294E-03    -16.9185E-03    -17.0086E-03    -16.8018E-03     33.7409E-03    -16.9369E-03     6.16461E-03     36.4734E-03     103.122E+06    -1.91772E+06    -11.6295E+06    -109.536E+06    -7.98534E+06    -103.469E+06    -11.6295E+06    -24.7064E+06
            1639     84.7807E-03     5.90023E-03     84.5751E-03     33.9988E-03    -16.9126E-03    -17.0847E-03    -16.8438E-03     33.7578E-03    -16.9126E-03     6.99205E-03     37.7430E-03     108.588E+06     899.654E+03    -11.5554E+06    -113.364E+06    -7.00839E+06    -105.456E+06    -11.5554E+06    -28.9297E+06
            1640     84.8621E-03     6.88360E-03     84.5824E-03     33.9528E-03    -16.8728E-03    -17.0821E-03    -16.7855E-03     33.6562E-03    -16.8728E-03     7.74666E-03     39.2205E-03     107.197E+06     4.38714E+06    -13.2387E+06    -110.464E+06    -5.15114E+06    -100.926E+06    -13.2387E+06    -31.5560E+06
            1641     84.9560E-03     7.86725E-03     84.5910E-03     33.8632E-03    -16.8255E-03    -17.0401E-03    -16.6766E-03     33.4997E-03    -16.8255E-03     8.56256E-03     41.0192E-03     105.064E+06     7.69783E+06    -16.0853E+06    -107.158E+06    -3.19491E+06    -96.2653E+06    -16.0853E+06    -33.5617E+06
            1642     85.0614E-03     8.85092E-03     84.5997E-03     33.8073E-03    -16.7789E-03    -17.0324E-03    -16.6025E-03     33.3773E-03    -16.7789E-03     9.30374E-03     43.3292E-03     103.534E+06     9.99606E+06    -19.6147E+06    -105.060E+06    -1.67076E+06    -93.3932E+06    -19.6147E+06    -34.6802E+06
            1643     85.1792E-03     9.83470E-03     84.6096E-03     33.7395E-03    -16.7126E-03    -17.0531E-03    -16.5157E-03     33.2020E-03    -16.7126E-03     10.3658E-03     46.2927E-03     100.418E+06     11.6003E+06    -26.6508E+06    -102.128E+06    -709.459E+03    -89.8187E+06    -26.6508E+06    -35.2666E+06
            1644     85.3090E-03     10.8187E-03     84.6202E-03     33.5645E-03    -16.6086E-03    -17.0016E-03    -16.3777E-03     32.9406E-03    -16.6086E-03     11.1618E-03     49.8145E-03     94.2608E+06     12.5516E+06    -40.0091E+06    -95.5284E+06    -274.147E+03    -82.7026E+06    -40.0091E+06    -34.9060E+06
            1645     85.4509E-03     11.8029E-03     84.6318E-03     33.3768E-03    -16.5235E-03    -16.8931E-03    -16.2068E-03     32.6905E-03    -16.5235E-03     11.6533E-03     53.5234E-03     82.4749E+06     12.7973E+06    -48.2559E+06    -80.7260E+06    -661.366E+03    -67.2674E+06    -48.2559E+06    -32.7129E+06
            1646     85.6032E-03     12.7873E-03     84.6427E-03     33.5060E-03    -16.4076E-03    -17.1085E-03    -16.1539E-03     32.5514E-03    -16.4076E-03     13.6773E-03     59.4430E-03     80.2752E+06     12.4187E+06    -55.7440E+06    -75.5927E+06    -2.37434E+06    -52.5473E+06    -63.9964E+06    -30.9253E+06
            1647     85.7715E-03     13.7714E-03     84.6587E-03     34.3741E-03    -16.2375E-03    -18.1259E-03    -15.8797E-03     32.1279E-03    -16.2375E-03     20.5765E-03     74.8169E-03     90.3868E+06     9.64231E+06    -48.7990E+06    -90.9324E+06    -5.32891E+06    -33.8277E+06    -90.9324E+06    -25.0915E+06
            1648     85.9596E-03     14.7578E-03     84.6833E-03     47.8816E-03    -16.1083E-03    -31.7680E-03    -16.4648E-03     32.5784E-03    -16.1083E-03     59.0953E-03     109.754E-03     127.774E+06     51.2389E+06    -21.9445E+06    -95.4273E+06    -7.81373E+06     37.1082E+06    -95.4273E+06    -14.3263E+06
            1649     86.2280E-03     15.7392E-03     84.7794E-03     148.369E-03    -16.2288E-03    -132.139E-03    -33.3607E-03     49.5909E-03    -16.2288E-03     266.577E-03     337.264E-03     170.322E+06     137.873E+06     273.226E+03    -48.8338E+06    -8.74057E+06     137.381E+06    -39.3285E+06    -6.16791E+06
            1650     86.8818E-03     16.7321E-03     85.2554E-03     228.412E-03    -16.5864E-03    -211.838E-03    -44.7170E-03     61.2909E-03    -16.5864E-03     427.238E-03     623.411E-03     195.178E+06     209.918E+06     58.7017E+06    -5.64048E+06    -5.60337E+06     209.880E+06     58.7017E+06    -2.06171E+06
            1651     85.5920E-03     982.678E-06     85.5864E-03     34.4604E-03    -17.1919E-03    -17.2687E-03    -17.2186E-03     34.4472E-03    -17.2289E-03     1.45040E-03     34.6198E-03     117.788E+06     1.73656E+06    -2.53052E+06    -118.110E+06    -398.247E+03    -117.742E+06    -763.165E+03    -5.48940E+06
            1652     85.6109E-03     1.96622E-03     85.5883E-03     34.2635E-03    -17.1004E-03    -17.1651E-03    -17.0593E-03     34.2216E-03    -17.1643E-03     2.83535E-03     34.7138E-03     99.8469E+06    -287.859E+03    -3.22548E+06    -101.557E+06    -1.64522E+06    -100.200E+06    -3.22548E+06    -11.1948E+06
            1653     85.6428E-03     2.94946E-03     85.5920E-03     34.1440E-03    -17.0428E-03    -17.1031E-03    -16.9694E-03     34.0667E-03    -17.0992E-03     3.94836E-03     35.0645E-03     97.8642E+06    -15.2711E+03    -5.60052E+06    -100.540E+06    -2.82437E+06    -97.7307E+06    -5.60052E+06    -16.4197E+06
            1654     85.6863E-03     3.93301E-03     85.5960E-03     34.0345E-03    -16.9914E-03    -17.0441E-03    -16.8762E-03     33.9050E-03    -17.0298E-03     5.08563E-03     35.6511E-03     96.5137E+06     1.58178E+06    -8.11519E+06    -99.3713E+06    -3.27774E+06    -94.5117E+06    -8.11519E+06    -21.3560E+06
            1655     85.7433E-03     4.91646E-03     85.6022E-03     34.0499E-03    -16.9841E-03    -17.0642E-03    -16.8614E-03     33.8561E-03    -16.9931E-03     6.26342E-03     36.6220E-03     98.4913E+06     3.42081E+06    -6.96327E+06    -99.8197E+06    -3.44387E+06    -92.9550E+06    -6.96327E+06    -25.6920E+06
            1656     85.8119E-03     5.89973E-03     85.6088E-03     34.0735E-03    -16.9761E-03    -17.0941E-03    -16.8513E-03     33.8306E-03    -16.9761E-03     7.02594E-03     37.8363E-03     105.585E+06     5.79685E+06    -5.58924E+06    -104.987E+06    -3.43238E+06    -95.7578E+06    -5.58924E+06    -30.4612E+06
            1657     85.8927E-03     6.88336E-03     85.6164E-03     33.9372E-03    -16.9151E-03    -17.0245E-03    -16.7275E-03     33.6401E-03    -16.9151E-03     7.74535E-03     39.2071E-03     106.651E+06     9.81039E+06    -10.1370E+06    -105.287E+06    -2.10015E+06    -93.3761E+06    -10.1370E+06    -34.9608E+06
            1658     85.9850E-03     7.86699E-03     85.6243E-03     33.8144E-03    -16.8506E-03    -16.9678E-03    -16.6054E-03     33.4520E-03    -16.8506E-03     8.54107E-03     41.0045E-03     105.383E+06     12.6007E+06    -14.2081E+06    -103.572E+06     -535.23E+03    -90.4357E+06    -14.2081E+06    -36.7523E+06
            1659     86.0896E-03     8.85083E-03     85.6334E-03     33.7432E-03    -16.7951E-03    -16.9528E-03    -16.5227E-03     33.3132E-03    -16.7951E-03     9.28971E-03     43.2611E-03     104.435E+06     14.0628E+06    -17.4999E+06    -102.447E+06     215.355E+03    -88.5999E+06    -17.4999E+06    -37.6549E+06
            1660     86.2056E-03     9.83471E-03     85.6428E-03     33.6704E-03    -16.7183E-03    -16.9770E-03    -16.4477E-03     33.1411E-03    -16.7183E-03     10.2824E-03     46.2128E-03     101.852E+06     15.8173E+06    -24.8317E+06    -99.8880E+06     933.285E+03    -85.0040E+06    -24.8317E+06    -38.6907E+06
            1661     86.3341E-03     10.8186E-03     85.6536E-03     33.4864E-03    -16.6091E-03    -16.9233E-03    -16.3171E-03     32.8803E-03    -16.6091E-03     10.9857E-03     49.7612E-03     97.9400E+06     16.4626E+06    -38.9216E+06    -96.0090E+06     1.17537E+06    -80.7218E+06    -38.9216E+06    -38.5117E+06
            1662     86.4736E-03     11.8031E-03     85.6643E-03     33.2970E-03    -16.5165E-03    -16.8212E-03    -16.1605E-03     32.6363E-03    -16.5165E-03     11.4242E-03     53.4681E-03     88.3101E+06     16.7767E+06    -48.2119E+06    -83.3905E+06     932.125E+03    -67.5460E+06    -48.2119E+06    -36.3943E+06
            1663     86.6254E-03     12.7872E-03     85.6764E-03     33.3132E-03    -16.4214E-03    -16.8996E-03    -15.9849E-03     32.3986E-03    -16.4214E-03     13.3291E-03     59.3716E-03     80.4560E+06     15.1639E+06    -56.4618E+06    -71.1290E+06    -703.572E+03    -52.8748E+06    -58.8485E+06    -32.8066E+06
            1664     86.7906E-03     13.7722E-03     85.6909E-03     34.2465E-03    -16.2413E-03    -17.9959E-03    -15.9184E-03     32.1690E-03    -16.2413E-03     19.8796E-03     74.7985E-03     91.1333E+06     10.7775E+06    -55.7662E+06    -89.1435E+06    -4.28354E+06    -40.7051E+06    -89.1435E+06    -27.6616E+06
            1665     86.9770E-03     14.7558E-03     85.7162E-03     48.2108E-03    -16.0728E-03    -32.1357E-03    -16.6638E-03     32.7389E-03    -16.0728E-03     59.2926E-03     110.036E-03     130.784E+06     47.2224E+06    -28.4374E+06    -103.507E+06    -7.29531E+06     26.0803E+06    -103.507E+06    -18.6113E+06
            1666     87.2460E-03     15.7433E-03     85.8138E-03     147.354E-03    -16.1665E-03    -131.189E-03    -32.3185E-03     48.4832E-03    -16.1665E-03     265.186E-03     336.364E-03     170.281E+06     131.894E+06    -3.95834E+06    -53.0155E+06    -8.00079E+06     130.958E+06    -48.0371E+06    -8.97019E+06
            1667     87.8869E-03     16.7275E-03     86.2804E-03     228.808E-03    -16.4890E-03    -212.339E-03    -44.6336E-03     61.1023E-03    -16.4890E-03     428.274E-03     623.308E-03     194.148E+06     206.422E+06     48.5291E+06    -5.43753E+06    -5.34842E+06     206.333E+06     48.5291E+06    -3.40432E+06
            1668     86.6260E-03     983.332E-06     86.6204E-03     34.3676E-03    -17.1437E-03    -17.2239E-03    -17.1715E-03     34.3522E-03    -17.1807E-03     1.47650E-03     34.5353E-03     110.138E+06     5.03807E+06     699.781E+03    -107.185E+06     3.66233E+06    -106.747E+06     1.63802E+06    -6.13488E+06
            1669     86.6452E-03     1.96632E-03     86.6229E-03     34.2282E-03    -17.0686E-03    -17.1599E-03    -17.0530E-03     34.1823E-03    -17.1297E-03     3.01804E-03     34.6946E-03     93.5698E+06     4.94646E+06     1.72714E+06    -90.1742E+06     3.49563E+06    -88.7234E+06     1.72714E+06    -11.1574E+06
            1670     86.6761E-03     2.94972E-03     86.6259E-03     34.2383E-03    -17.0797E-03    -17.1593E-03    -17.0550E-03     34.1580E-03    -17.1038E-03     4.03154E-03     35.1734E-03     94.2738E+06     7.41626E+06     2.66882E+06      -89.13E+06     4.09478E+06    -85.8085E+06     2.66882E+06    -17.3192E+06
            1671     86.7197E-03     3.93278E-03     86.6304E-03     34.2458E-03    -17.0724E-03    -17.1732E-03    -17.0412E-03     34.1138E-03    -17.0724E-03     5.15898E-03     35.8868E-03     95.2328E+06     9.86354E+06     1.13448E+06    -89.3941E+06     4.45296E+06    -83.9836E+06     1.13448E+06    -22.3717E+06
            1672     86.7753E-03     4.91614E-03     86.6359E-03     34.1909E-03    -17.0449E-03    -17.1450E-03    -16.9493E-03     33.9952E-03    -17.0449E-03     6.30749E-03     36.7917E-03     96.9938E+06     11.1448E+06     204.279E+03    -90.8136E+06     3.95787E+06    -83.6267E+06     204.279E+03    -26.0661E+06
            1673     86.8437E-03     5.89971E-03     86.6431E-03     34.0590E-03    -16.9839E-03    -17.0728E-03    -16.7987E-03     33.8178E-03    -17.0168E-03     6.99907E-03     37.8529E-03     102.229E+06     13.5359E+06     876.694E+03    -94.3962E+06     3.62394E+06    -84.4842E+06     876.694E+03    -31.0202E+06
            1674     86.9229E-03     6.88311E-03     86.6499E-03     33.9003E-03    -16.9149E-03    -16.9875E-03    -16.6551E-03     33.6009E-03    -16.9479E-03     7.75961E-03     39.2202E-03     105.127E+06     16.2463E+06    -3.49806E+06    -97.2538E+06     3.06882E+06    -84.0764E+06    -3.49806E+06    -36.3142E+06
            1675     87.0145E-03     7.86689E-03     86.6581E-03     33.8409E-03    -16.8667E-03    -16.9784E-03    -16.6041E-03     33.4666E-03    -16.8667E-03     8.68232E-03     41.0630E-03     105.966E+06     17.6423E+06    -10.9729E+06    -99.6326E+06     2.58335E+06    -84.5737E+06    -10.9729E+06    -39.2064E+06
            1676     87.1174E-03     8.85063E-03     86.6667E-03     33.7267E-03    -16.8041E-03    -16.9238E-03    -16.4965E-03     33.3002E-03    -16.8049E-03     9.25226E-03     43.2699E-03     105.049E+06     19.0485E+06    -14.7172E+06    -98.7162E+06     2.92909E+06    -82.5967E+06    -14.7172E+06    -40.4421E+06
            1677     87.2324E-03     9.83461E-03     86.6762E-03     33.5818E-03    -16.7221E-03    -16.8826E-03    -16.3542E-03     33.0542E-03    -16.7229E-03     10.2340E-03     46.1683E-03     103.468E+06     20.3379E+06    -22.0165E+06    -97.3379E+06     3.25746E+06    -80.2575E+06    -22.0165E+06    -41.4246E+06
            1678     87.3591E-03     10.8188E-03     86.6866E-03     33.5113E-03    -16.6100E-03    -16.9440E-03    -16.3391E-03     32.9064E-03    -16.6100E-03     10.9816E-03     49.8423E-03     101.261E+06     21.1450E+06    -36.5212E+06    -95.3285E+06     3.00903E+06    -77.1925E+06    -36.5212E+06    -42.1666E+06
            1679     87.4972E-03     11.8027E-03     86.6975E-03     33.3458E-03    -16.5152E-03    -16.8664E-03    -16.2048E-03     32.6842E-03    -16.5152E-03     11.4375E-03     53.5544E-03     94.8792E+06     21.2990E+06    -47.9618E+06    -86.3915E+06     2.75794E+06    -67.8505E+06    -47.9618E+06    -40.5615E+06
            1680     87.6469E-03     12.7873E-03     86.7091E-03     33.3023E-03    -16.4347E-03    -16.8748E-03    -15.9985E-03     32.4259E-03    -16.4347E-03     13.0945E-03     59.5082E-03     84.6890E+06     18.0987E+06    -56.4639E+06    -73.2542E+06     1.73080E+06    -56.2809E+06    -57.0694E+06    -34.8687E+06
            1681     87.8101E-03     13.7718E-03     86.7234E-03     34.2542E-03    -16.2566E-03    -17.9865E-03    -15.9089E-03     32.1766E-03    -16.2566E-03     19.7538E-03     74.9526E-03     92.5969E+06     12.7810E+06    -56.8434E+06    -89.3304E+06    -1.83629E+06    -44.6491E+06    -86.9074E+06    -28.8444E+06
            1682     87.9960E-03     14.7570E-03     86.7498E-03     48.1887E-03    -16.0633E-03    -32.1221E-03    -16.6644E-03     32.7310E-03    -16.0633E-03     59.3893E-03     110.271E-03     131.219E+06     44.0110E+06    -32.4498E+06    -107.466E+06    -6.07101E+06     17.6322E+06    -107.466E+06    -22.8750E+06
            1683     88.2596E-03     15.7408E-03     86.8446E-03     146.316E-03    -16.1481E-03    -130.169E-03    -32.5642E-03     48.7112E-03    -16.1481E-03     262.914E-03     335.955E-03     168.188E+06     123.519E+06    -9.09593E+06    -58.7827E+06    -7.32802E+06     120.946E+06    -57.9778E+06    -12.8217E+06
            1684     88.9015E-03     16.7298E-03     87.3132E-03     229.875E-03    -16.4687E-03    -213.429E-03    -44.6231E-03     61.0690E-03    -16.4687E-03     430.485E-03     624.997E-03     192.447E+06     200.233E+06     39.7424E+06    -8.93291E+06    -5.46639E+06     200.091E+06     36.4179E+06    -4.79308E+06
            1685     87.6604E-03     983.134E-06     87.6549E-03     34.2298E-03    -17.0117E-03    -17.2182E-03    -17.2061E-03     34.2177E-03    -17.0117E-03     1.40013E-03     34.3926E-03     105.933E+06     11.8932E+06     8.59064E+06    -95.6359E+06     10.3495E+06    -95.0304E+06     9.52888E+06    -7.36506E+06
            1686     87.6791E-03     1.96665E-03     87.6570E-03     34.2046E-03    -17.0546E-03    -17.1539E-03    -17.0939E-03     34.1649E-03    -17.0748E-03     2.75341E-03     34.6608E-03       88.52E+06     12.4211E+06     7.25583E+06    -78.5089E+06     10.5296E+06    -76.6175E+06     7.25583E+06    -12.4025E+06
            1687     87.7101E-03     2.94967E-03     87.6605E-03     34.2191E-03    -17.0561E-03    -17.1668E-03    -17.0664E-03     34.1390E-03    -17.0763E-03     4.01817E-03     35.1559E-03     88.5153E+06     14.5147E+06     8.05017E+06    -77.0220E+06     10.5110E+06    -73.0184E+06     8.05017E+06    -18.5195E+06
            1688     87.7528E-03     3.93305E-03     87.6646E-03     34.3353E-03    -17.0754E-03    -17.2579E-03    -17.1209E-03     34.1983E-03    -17.0754E-03     5.26485E-03     35.9883E-03     92.6251E+06     16.5495E+06     8.28471E+06    -79.9018E+06     10.4121E+06    -73.7643E+06     8.28471E+06    -23.4311E+06
            1689     87.8082E-03     4.91606E-03     87.6705E-03     34.2692E-03    -17.0610E-03    -17.2070E-03    -17.0088E-03     34.0711E-03    -17.0610E-03     6.36065E-03     36.8822E-03     96.4887E+06     20.2816E+06     7.47748E+06    -81.9464E+06     12.0620E+06    -73.7267E+06     7.47748E+06    -27.7141E+06
            1690     87.8750E-03     5.89937E-03     87.6768E-03     34.0323E-03    -16.9695E-03    -17.0638E-03    -16.7636E-03     33.7911E-03    -17.0284E-03     6.99514E-03     37.8403E-03     101.550E+06     23.6593E+06     8.16540E+06    -84.7414E+06     13.4544E+06    -74.5364E+06     8.16540E+06    -31.6100E+06
            1691     87.9536E-03     6.88336E-03     87.6839E-03     33.8952E-03    -16.9091E-03    -16.9913E-03    -16.6333E-03     33.5962E-03    -16.9680E-03     7.75457E-03     39.2647E-03     103.457E+06     24.3051E+06     6.37022E+06    -86.9094E+06     11.9080E+06    -74.5122E+06     6.37022E+06    -34.9241E+06
            1692     88.0437E-03     7.86707E-03     87.6915E-03     33.8439E-03    -16.8763E-03    -16.9727E-03    -16.5958E-03     33.4670E-03    -16.8763E-03     8.70859E-03     41.1000E-03     105.057E+06     24.4809E+06    -3.60314E+06    -91.4956E+06     8.81044E+06    -75.8252E+06    -3.60314E+06    -39.5454E+06
            1693     88.1461E-03     8.85069E-03     87.7007E-03     33.6881E-03    -16.7916E-03    -16.8970E-03    -16.4653E-03     33.2571E-03    -16.7924E-03     9.29559E-03     43.2338E-03     106.454E+06     25.7401E+06    -12.0295E+06    -94.4109E+06     7.66422E+06    -76.3350E+06    -12.0295E+06    -42.9401E+06
            1694     88.2586E-03     9.83473E-03     87.7089E-03     33.5868E-03    -16.7084E-03    -16.9031E-03    -16.3646E-03     33.0492E-03    -16.7092E-03     10.3274E-03     46.1778E-03     106.215E+06     27.2411E+06    -19.5245E+06    -94.0259E+06     7.96950E+06    -74.7544E+06    -19.5245E+06    -44.3022E+06
            1695     88.3849E-03     10.8188E-03     87.7202E-03     33.5050E-03    -16.5938E-03    -16.9563E-03    -16.3355E-03     32.8842E-03    -16.5938E-03     11.1253E-03     49.8379E-03     105.275E+06     28.1038E+06    -34.7127E+06    -92.9638E+06      7.6011E+06    -72.4611E+06    -34.7127E+06    -45.3755E+06
            1696     88.5208E-03     11.8030E-03     87.7304E-03     33.3821E-03    -16.5058E-03    -16.9108E-03    -16.2472E-03     32.7184E-03    -16.5058E-03     11.4691E-03     53.6217E-03     99.5610E+06     24.6315E+06    -47.4890E+06    -88.6668E+06     4.91949E+06    -68.9548E+06    -47.4890E+06    -42.9430E+06
            1697     88.6689E-03     12.7873E-03     87.7420E-03     33.4905E-03    -16.4418E-03    -17.0544E-03    -16.1529E-03     32.5890E-03    -16.4418E-03     13.3047E-03     59.7093E-03     88.6041E+06     18.7814E+06    -56.5749E+06    -78.0302E+06     1.47293E+06    -60.7218E+06    -56.5749E+06    -37.0794E+06
            1698     88.8307E-03     13.7715E-03     87.7567E-03     34.2540E-03    -16.2747E-03    -17.9682E-03    -15.9769E-03     32.2628E-03    -16.2747E-03     19.4652E-03     75.1018E-03     96.5939E+06     17.3655E+06    -58.4403E+06    -89.2940E+06     474.814E+03    -46.5307E+06    -84.3130E+06    -32.7215E+06
            1699     89.0127E-03     14.7568E-03     87.7810E-03     48.3976E-03    -16.0808E-03    -32.3133E-03    -16.6780E-03     32.7622E-03    -16.0808E-03     59.5846E-03     110.271E-03     128.422E+06     41.0123E+06    -32.3388E+06    -106.122E+06    -1.01543E+06     9.68892E+06    -106.122E+06    -26.1931E+06
            1700     89.2793E-03     15.7416E-03     87.8806E-03     146.267E-03    -16.1561E-03    -130.109E-03    -33.2232E-03     49.3808E-03    -16.1561E-03     262.489E-03     336.588E-03     162.402E+06     112.569E+06    -7.78377E+06    -64.9997E+06    -4.14653E+06     108.932E+06    -64.9997E+06    -15.3690E+06
            1701     89.9090E-03     16.7253E-03     88.3397E-03     229.638E-03    -16.4602E-03    -213.195E-03    -44.2457E-03     60.6880E-03    -16.4602E-03     430.117E-03     625.815E-03     190.069E+06     193.790E+06     33.4185E+06    -13.9589E+06    -4.33268E+06     193.469E+06     24.1126E+06    -6.06053E+06
            1702     88.6954E-03     983.533E-06     88.6899E-03     34.2241E-03    -16.9521E-03    -17.2724E-03    -17.1636E-03     34.2082E-03    -17.0451E-03     1.75339E-03     34.3863E-03     102.987E+06     21.5826E+06     19.4488E+06    -82.4530E+06     20.2635E+06    -81.8476E+06     20.1625E+06    -6.22884E+06
            1703     88.7130E-03     1.96612E-03     88.6912E-03     34.2690E-03    -17.0535E-03    -17.2203E-03    -17.1636E-03     34.2325E-03    -17.0737E-03     2.64541E-03     34.7109E-03     84.2410E+06     21.7520E+06     15.6517E+06    -65.2580E+06     19.2271E+06    -62.7331E+06     15.6517E+06    -13.7479E+06
            1704     88.7437E-03     2.94990E-03     88.6947E-03     34.2076E-03    -17.0502E-03    -17.1608E-03    -17.0558E-03     34.1306E-03    -17.0782E-03     3.92655E-03     35.1301E-03     84.2899E+06     22.8184E+06     13.9148E+06    -65.5323E+06     18.3005E+06    -61.0143E+06     13.9148E+06    -19.3944E+06
            1705     88.7863E-03     3.93292E-03     88.6992E-03     34.2377E-03    -17.0631E-03    -17.1727E-03    -17.0298E-03     34.1026E-03    -17.0708E-03     5.21825E-03     35.8829E-03     90.2115E+06     25.2153E+06     14.9806E+06    -69.6231E+06     18.2070E+06    -62.6148E+06     14.9806E+06    -24.5034E+06
            1706     88.8409E-03     4.91634E-03     88.7048E-03     34.1261E-03    -17.0086E-03    -17.1177E-03    -16.8983E-03     33.9323E-03    -17.0342E-03     6.27450E-03     36.7055E-03     94.1189E+06     28.4762E+06     13.3969E+06    -72.2610E+06     18.5044E+06    -62.2892E+06     13.3969E+06    -30.0251E+06
            1707     88.9068E-03     5.89992E-03     88.7109E-03     34.0122E-03    -16.9436E-03    -17.0699E-03    -16.7738E-03     33.7677E-03    -16.9952E-03     7.03538E-03     37.7854E-03     101.178E+06     30.8184E+06     12.8254E+06    -78.1383E+06     19.3650E+06    -66.6849E+06     12.8254E+06    -33.3733E+06
            1708     88.9841E-03     6.88339E-03     88.7174E-03     33.9758E-03    -16.9245E-03    -17.0528E-03    -16.7210E-03     33.6699E-03    -16.9504E-03     7.86262E-03     39.3206E-03     103.674E+06     33.5285E+06     13.2866E+06    -78.7292E+06     21.0170E+06    -66.2178E+06     13.2866E+06    -35.2863E+06
            1709     89.0738E-03     7.86697E-03     88.7257E-03     33.8031E-03    -16.8662E-03    -16.9382E-03    -16.5576E-03     33.4358E-03    -16.8796E-03     8.59244E-03     41.0456E-03     104.916E+06     35.4640E+06     7.71491E+06    -80.3118E+06     20.7056E+06    -65.5534E+06     7.71491E+06    -38.4931E+06
            1710     89.1738E-03     8.85118E-03     88.7334E-03     33.6260E-03    -16.7681E-03    -16.8604E-03    -16.4179E-03     33.1968E-03    -16.7815E-03     9.25962E-03     43.1101E-03     107.819E+06     35.9374E+06    -3.56423E+06    -85.9307E+06     17.6939E+06    -67.6872E+06    -3.56423E+06    -43.3728E+06
            1711     89.2862E-03     9.83506E-03     88.7428E-03     33.6252E-03    -16.6864E-03    -16.9662E-03    -16.4209E-03     33.0799E-03    -16.6864E-03     10.4187E-03     46.1114E-03     110.079E+06     36.4453E+06    -14.9264E+06    -89.7305E+06     15.3853E+06    -68.6706E+06    -14.9264E+06    -47.0298E+06
            1712     89.4099E-03     10.8190E-03     88.7529E-03     33.5285E-03    -16.5888E-03    -16.9874E-03    -16.3657E-03     32.9068E-03    -16.5888E-03     11.1390E-03     49.7837E-03     107.025E+06     33.0513E+06    -29.2620E+06    -90.1872E+06     12.3119E+06    -69.4478E+06    -29.2620E+06    -46.0928E+06
            1713     89.5451E-03     11.8033E-03     88.7638E-03     33.4201E-03    -16.5097E-03    -16.9459E-03    -16.2813E-03     32.7556E-03    -16.5097E-03     11.4863E-03     53.6561E-03     101.180E+06     27.0286E+06    -42.4004E+06    -88.7798E+06     7.79809E+06    -69.5493E+06    -42.4004E+06    -43.0785E+06
            1714     89.6911E-03     12.7874E-03     88.7749E-03     33.5484E-03    -16.4135E-03    -17.1383E-03    -16.2121E-03     32.6222E-03    -16.4135E-03     13.4869E-03     59.5660E-03     98.8588E+06     26.6874E+06    -56.8521E+06    -80.9283E+06     6.77237E+06    -61.0133E+06    -56.8521E+06    -41.7179E+06
            1715     89.8515E-03     13.7720E-03     88.7898E-03     34.5067E-03    -16.2556E-03    -18.2407E-03    -16.2211E-03     32.4871E-03    -16.2556E-03     19.7679E-03     75.0649E-03     105.938E+06     26.0825E+06    -64.3089E+06    -89.2027E+06     6.47985E+06    -48.8751E+06    -85.0338E+06    -38.2129E+06
            1716     90.0314E-03     14.7556E-03     88.8140E-03     48.5287E-03    -16.1123E-03    -32.4150E-03    -16.7390E-03     32.8526E-03    -16.1123E-03     59.6110E-03     110.394E-03     122.746E+06     37.2295E+06    -36.4484E+06    -102.690E+06     1.87352E+06    -1.09249E+06    -102.690E+06    -28.2178E+06
            1717     90.2946E-03     15.7424E-03     88.9117E-03     147.179E-03    -16.1465E-03    -131.033E-03    -33.2253E-03     49.3719E-03    -16.1465E-03     264.453E-03     336.961E-03     154.836E+06     102.587E+06    -8.08010E+06    -68.4563E+06    -3.03914E+06     97.5458E+06    -68.4563E+06    -16.4115E+06
            1718     90.9307E-03     16.7250E-03     89.3794E-03     229.964E-03    -16.3730E-03    -213.608E-03    -44.1672E-03     60.5231E-03    -16.3730E-03     430.936E-03     626.105E-03     187.718E+06     186.710E+06     25.9276E+06    -18.9860E+06    -3.70169E+06     186.285E+06     11.0679E+06    -7.06683E+06
            1719     89.7292E-03     983.222E-06     89.7238E-03     34.2584E-03    -17.0206E-03    -17.2384E-03    -17.0691E-03     34.2410E-03    -17.1724E-03     1.77789E-03     34.4201E-03     98.3870E+06     31.3318E+06     27.4141E+06    -68.9432E+06     29.9189E+06    -68.2440E+06     28.1279E+06    -6.34215E+06
            1720     89.7478E-03     1.96683E-03     89.7263E-03     34.2371E-03    -17.0141E-03    -17.2245E-03    -17.1275E-03     34.1990E-03    -17.0730E-03     2.74333E-03     34.6675E-03     78.3908E+06     31.0281E+06     24.0352E+06    -50.5568E+06     28.1097E+06    -47.6384E+06     24.0352E+06    -14.2877E+06
            1721     89.7773E-03     2.94932E-03     89.7288E-03     34.2412E-03    -17.0660E-03    -17.1796E-03    -17.0922E-03     34.1616E-03    -17.0738E-03     3.98052E-03     35.1693E-03     82.0752E+06     32.5369E+06     22.5032E+06    -54.0849E+06     27.2857E+06    -48.8336E+06     22.5032E+06    -20.6237E+06
            1722     89.8197E-03     3.93308E-03     89.7335E-03     34.0713E-03    -17.0098E-03    -17.0648E-03    -16.8852E-03     33.9323E-03    -17.0504E-03     5.28305E-03     35.7072E-03     88.4320E+06     35.9352E+06     22.2648E+06    -58.4395E+06     28.0834E+06    -50.5877E+06     22.2648E+06    -25.7480E+06
            1723     89.8734E-03     4.91652E-03     89.7388E-03     33.9315E-03    -16.9328E-03    -17.0015E-03    -16.7564E-03     33.7450E-03    -16.9914E-03     6.14412E-03     36.4669E-03     92.0288E+06     37.6115E+06     21.1672E+06    -61.4782E+06     27.0176E+06    -50.8843E+06     21.1672E+06    -30.6142E+06
            1724     89.9383E-03     5.90027E-03     89.7446E-03     33.9276E-03    -16.9163E-03    -17.0138E-03    -16.7408E-03     33.6802E-03    -16.9420E-03     7.04752E-03     37.6440E-03     100.853E+06     39.2103E+06     19.1541E+06    -70.0639E+06     26.1413E+06    -56.9949E+06     19.1541E+06    -35.3717E+06
            1725     90.0154E-03     6.88376E-03     89.7518E-03     33.8976E-03    -16.8932E-03    -17.0079E-03    -16.6881E-03     33.5777E-03    -16.8932E-03     8.03525E-03     39.1576E-03     105.423E+06     42.1676E+06     16.7756E+06    -73.6060E+06     27.3374E+06    -58.7758E+06     16.7756E+06    -38.6533E+06
            1726     90.1031E-03     7.86760E-03     89.7589E-03     33.7529E-03    -16.8303E-03    -16.9290E-03    -16.5375E-03     33.3748E-03    -16.8438E-03     8.70924E-03     40.9179E-03     106.539E+06     44.4688E+06     15.5617E+06    -73.4972E+06     29.2258E+06    -58.2543E+06     15.5617E+06    -39.5300E+06
            1727     90.2024E-03     8.85133E-03     89.7671E-03     33.6424E-03    -16.7477E-03    -16.8999E-03    -16.4391E-03     33.1950E-03    -16.7611E-03     9.45459E-03     43.0991E-03     107.166E+06     46.0286E+06     8.77066E+06    -74.6646E+06     28.4355E+06    -57.0715E+06     8.77066E+06    -42.4914E+06
            1728     90.3130E-03     9.83547E-03     89.7758E-03     33.6355E-03    -16.6680E-03    -16.9868E-03    -16.4271E-03     33.0759E-03    -16.6680E-03     10.5621E-03     46.0368E-03     109.923E+06     43.4175E+06    -4.44152E+06    -82.1789E+06     23.4924E+06    -62.2538E+06    -4.44152E+06    -45.8535E+06
            1729     90.4360E-03     10.8196E-03     89.7865E-03     33.5696E-03    -16.5743E-03    -17.0316E-03    -16.3948E-03     32.9328E-03    -16.5743E-03     11.2799E-03     49.7203E-03     108.487E+06     37.2562E+06    -21.0675E+06    -87.6534E+06     18.0192E+06    -68.4164E+06    -21.0675E+06    -45.0422E+06
            1730     90.5690E-03     11.8035E-03     89.7966E-03     33.4844E-03    -16.4919E-03    -17.0242E-03    -16.3159E-03     32.7761E-03    -16.4919E-03     11.8605E-03     53.6377E-03     106.070E+06     35.8067E+06    -34.5362E+06    -85.8841E+06     15.8095E+06    -65.8869E+06    -34.5362E+06    -44.9586E+06
            1731     90.7141E-03     12.7879E-03     89.8082E-03     33.5796E-03    -16.3928E-03    -17.1906E-03    -16.2250E-03     32.6140E-03    -16.3928E-03     13.8003E-03     59.5319E-03     104.503E+06     34.4140E+06    -51.3715E+06    -80.6070E+06     12.7358E+06    -58.9288E+06    -51.3715E+06    -44.9065E+06
            1732     90.8722E-03     13.7721E-03     89.8225E-03     34.5997E-03    -16.2688E-03    -18.3209E-03    -16.2129E-03     32.4917E-03    -16.2688E-03     20.1752E-03     75.0840E-03     102.606E+06     24.7423E+06    -66.1126E+06    -85.3493E+06     5.42679E+06    -54.3146E+06    -77.8318E+06    -39.0321E+06
            1733     91.0514E-03     14.7573E-03     89.8475E-03     48.7034E-03    -16.1525E-03    -32.5495E-03    -16.9946E-03     33.1485E-03    -16.1525E-03     59.8502E-03     110.846E-03     111.262E+06     30.1245E+06    -42.6110E+06    -94.5443E+06    -1.41303E+06    -11.0735E+06    -94.5443E+06    -29.2070E+06
            1734     91.3108E-03     15.7406E-03     89.9439E-03     147.090E-03    -16.0880E-03    -131.002E-03    -32.0784E-03     48.1662E-03    -16.0880E-03     264.796E-03     336.603E-03     148.056E+06     92.5959E+06    -10.9322E+06    -73.3895E+06    -3.93695E+06     85.6006E+06    -73.3895E+06    -18.8895E+06
            1735     91.9472E-03     16.7323E-03     90.4119E-03     230.088E-03    -16.2053E-03    -213.909E-03    -43.7692E-03     59.9490E-03    -16.2053E-03     431.688E-03     624.943E-03     185.217E+06     177.796E+06     18.8821E+06    -25.3031E+06    -2.33887E+06     177.075E+06    -3.36106E+06    -8.39095E+06
            1736     90.7634E-03     982.979E-06     90.7581E-03     34.3643E-03    -17.1024E-03    -17.2628E-03    -17.1509E-03     34.3516E-03    -17.2017E-03     1.44680E-03     34.5230E-03     92.2054E+06     41.0867E+06     35.6775E+06    -53.6764E+06     39.0604E+06    -52.4353E+06     36.4627E+06    -9.14682E+06
            1737     90.7818E-03     1.96640E-03     90.7605E-03     34.0283E-03    -16.8958E-03    -17.1349E-03    -16.9082E-03     33.9870E-03    -17.0812E-03     2.81864E-03     34.4595E-03     75.5962E+06     42.6401E+06     34.9656E+06    -36.4920E+06     39.3863E+06    -33.2383E+06     34.9656E+06    -15.3673E+06
            1738     90.8117E-03     2.95020E-03     90.7638E-03     34.0338E-03    -16.9301E-03    -17.1096E-03    -16.9386E-03     33.9490E-03    -17.0163E-03     4.11159E-03     34.9622E-03     81.6768E+06     45.5512E+06     35.4369E+06    -40.7062E+06     39.3382E+06    -34.4932E+06     35.4369E+06    -22.1178E+06
            1739     90.8526E-03     3.93317E-03     90.7674E-03     33.9598E-03    -16.9407E-03    -17.0227E-03    -16.8461E-03     33.8162E-03    -16.9736E-03     5.36283E-03     35.5663E-03     90.1589E+06     48.9241E+06     33.4967E+06    -47.8823E+06     39.9140E+06    -38.8722E+06     33.4967E+06    -28.0438E+06
            1740     90.9060E-03     4.91711E-03     90.7729E-03     33.8347E-03    -16.8945E-03    -16.9430E-03    -16.7118E-03     33.6365E-03    -16.9274E-03     6.31775E-03     36.3337E-03     95.3911E+06     51.6926E+06     33.8399E+06    -51.3120E+06     40.9352E+06    -40.5546E+06     33.8399E+06    -31.4894E+06
            1741     90.9701E-03     5.90053E-03     90.7785E-03     33.8014E-03    -16.8881E-03    -16.9185E-03    -16.6576E-03     33.5405E-03    -16.8881E-03     7.22868E-03     37.4900E-03     104.056E+06     54.5942E+06     34.4550E+06    -57.9531E+06     41.2261E+06    -44.5849E+06     34.4550E+06    -36.3223E+06
            1742     91.0460E-03     6.88455E-03     90.7854E-03     33.6924E-03    -16.8282E-03    -16.8708E-03    -16.5397E-03     33.3618E-03    -16.8287E-03     8.14083E-03     38.8584E-03     110.725E+06     54.9400E+06     29.3379E+06    -66.2796E+06     39.7778E+06    -51.1174E+06     29.3379E+06    -40.0402E+06
            1743     91.1329E-03     7.86832E-03     90.7926E-03     33.6170E-03    -16.7518E-03    -16.8700E-03    -16.4655E-03     33.2129E-03    -16.7523E-03     8.98066E-03     40.6112E-03     111.136E+06     54.9146E+06     23.0752E+06    -68.5691E+06     38.4569E+06    -52.1115E+06     23.0752E+06    -41.8952E+06
            1744     91.2311E-03     8.85243E-03     90.8006E-03     33.6237E-03    -16.6842E-03    -16.9379E-03    -16.4495E-03     33.1353E-03    -16.6842E-03     9.88087E-03     42.9224E-03     107.817E+06     54.1509E+06     18.1121E+06    -67.0478E+06     37.1527E+06    -50.0496E+06     18.1121E+06    -42.0377E+06
            1745     91.3406E-03     9.83624E-03     90.8094E-03     33.6205E-03    -16.6133E-03    -17.0212E-03    -16.4178E-03     33.0171E-03    -16.6133E-03     10.9635E-03     45.8637E-03     107.964E+06     49.6704E+06     6.97652E+06    -72.9185E+06     33.0613E+06    -56.3094E+06     6.97652E+06    -41.8887E+06
            1746     91.4618E-03     10.8202E-03     90.8195E-03     33.5598E-03    -16.5102E-03    -17.0834E-03    -16.3857E-03     32.8620E-03    -16.5102E-03     11.7988E-03     49.4919E-03     111.647E+06     46.7460E+06    -12.4700E+06    -81.6967E+06     28.4268E+06    -63.3775E+06    -12.4700E+06    -44.8579E+06
            1747     91.5937E-03     11.8047E-03     90.8299E-03     33.4955E-03    -16.4284E-03    -17.0961E-03    -16.3177E-03     32.7171E-03    -16.4284E-03     12.4384E-03     53.4394E-03     109.166E+06     43.4351E+06    -27.7448E+06    -82.0356E+06     23.4558E+06    -62.0563E+06    -27.7448E+06    -45.7366E+06
            1748     91.7370E-03     12.7887E-03     90.8413E-03     33.6297E-03    -16.3521E-03    -17.2829E-03    -16.2373E-03     32.5841E-03    -16.3521E-03     14.3697E-03     59.4728E-03     100.482E+06     34.4847E+06    -44.3361E+06    -78.0053E+06     15.5088E+06    -59.0294E+06    -44.3361E+06    -41.9653E+06
            1749     91.8935E-03     13.7732E-03     90.8554E-03     34.6997E-03    -16.2419E-03    -18.4507E-03    -16.2160E-03     32.4650E-03    -16.2419E-03     20.8169E-03     75.0839E-03     98.9185E+06     24.6088E+06    -64.6210E+06    -81.4665E+06     7.80602E+06    -58.8498E+06    -70.4348E+06    -37.2049E+06
            1750     92.0706E-03     14.7571E-03     90.8803E-03     48.9440E-03    -16.1204E-03    -32.8224E-03    -16.8259E-03     32.9475E-03    -16.1204E-03     60.8009E-03     110.808E-03     106.182E+06     29.6568E+06    -45.8326E+06    -87.5559E+06     2.86745E+06    -19.0432E+06    -87.5559E+06    -30.5297E+06
            1751     92.3296E-03     15.7431E-03     90.9775E-03     146.140E-03    -16.0086E-03    -130.132E-03    -31.7081E-03     47.7154E-03    -16.0086E-03     263.257E-03     336.049E-03     142.774E+06     86.1988E+06    -11.0656E+06    -75.7024E+06    -503.803E+03     75.6370E+06    -75.7024E+06    -21.1199E+06
            1752     92.9536E-03     16.7299E-03     91.4356E-03     230.746E-03    -16.0712E-03    -214.701E-03    -43.9276E-03     59.9725E-03    -16.0712E-03     433.132E-03     625.479E-03     182.446E+06     167.169E+06     10.1823E+06    -31.9211E+06    -2.15402E+06     166.129E+06    -18.5451E+06    -10.7012E+06
            1753     91.7985E-03     983.191E-06     91.7933E-03     34.1683E-03    -17.0198E-03    -17.1485E-03    -17.0929E-03     34.1532E-03    -17.0602E-03     1.54361E-03     34.3289E-03     93.5441E+06     60.5593E+06     55.3081E+06    -35.4763E+06     58.0654E+06    -33.7676E+06     56.0933E+06    -11.4057E+06
            1754     91.8155E-03     1.96656E-03     91.7945E-03     33.8958E-03    -16.8693E-03    -17.0273E-03    -16.8529E-03     33.8479E-03    -16.9959E-03     3.03660E-03     34.3321E-03     80.6702E+06     62.3626E+06     53.8960E+06    -22.1609E+06     58.4767E+06    -18.2750E+06     53.8960E+06    -17.5519E+06
            1755     91.8451E-03     2.95029E-03     91.7977E-03     33.7642E-03    -16.8044E-03    -16.9607E-03    -16.7526E-03     33.6716E-03    -16.9198E-03     4.28346E-03     34.6651E-03     85.9007E+06     65.1382E+06     53.5216E+06    -25.9689E+06     58.4130E+06    -19.2438E+06     53.5216E+06    -23.6270E+06
            1756     91.8861E-03     3.93417E-03     91.8019E-03     33.7778E-03    -16.8404E-03    -16.9329E-03    -16.7592E-03     33.6335E-03    -16.8698E-03     5.37478E-03     35.3316E-03     95.9953E+06     66.4337E+06     51.3697E+06    -36.1879E+06     57.0562E+06    -26.8104E+06     51.3697E+06    -29.5448E+06
            1757     91.9380E-03     4.91751E-03     91.8064E-03     33.6557E-03    -16.8078E-03    -16.8444E-03    -16.6268E-03     33.4381E-03    -16.8078E-03     6.57227E-03     36.0683E-03     101.355E+06     68.8278E+06     47.0245E+06    -41.5126E+06     57.0874E+06    -29.7722E+06     47.0245E+06    -33.9279E+06
            1758     92.0021E-03     5.90166E-03     91.8126E-03     33.5351E-03    -16.7618E-03    -16.7822E-03    -16.4907E-03     33.2435E-03    -16.7618E-03     7.62280E-03     37.1171E-03     107.395E+06     69.6980E+06     46.5396E+06    -47.2488E+06     56.6903E+06    -34.2411E+06     46.5396E+06    -36.6962E+06
            1759     92.0764E-03     6.88532E-03     91.8186E-03     33.4568E-03    -16.7032E-03    -16.7559E-03    -16.3895E-03     33.0909E-03    -16.7036E-03     8.51615E-03     38.4757E-03     114.844E+06     69.1163E+06     43.2295E+06    -56.3470E+06     54.9321E+06    -42.1628E+06     43.2295E+06    -39.6398E+06
            1760     92.1625E-03     7.86969E-03     91.8259E-03     33.4023E-03    -16.6036E-03    -16.7942E-03    -16.3295E-03     32.9381E-03    -16.6041E-03     9.58242E-03     40.1737E-03     115.639E+06     68.5240E+06     33.0223E+06    -60.6190E+06     52.5373E+06    -44.6324E+06     33.0223E+06    -42.4322E+06
            1761     92.2597E-03     8.85361E-03     91.8339E-03     33.4458E-03    -16.5416E-03    -16.9083E-03    -16.3472E-03     32.8847E-03    -16.5416E-03     10.5496E-03     42.4582E-03     113.432E+06     64.4857E+06     26.3138E+06    -63.0954E+06     49.3422E+06    -47.9520E+06     26.3138E+06    -41.1356E+06
            1762     92.3681E-03     9.83783E-03     91.8427E-03     33.5066E-03    -16.4762E-03    -17.0444E-03    -16.3577E-03     32.8200E-03    -16.4762E-03     11.6734E-03     45.4109E-03     111.163E+06     61.0780E+06     17.3193E+06    -65.0816E+06     46.4124E+06    -50.4159E+06     17.3193E+06    -40.4013E+06
            1763     92.4879E-03     10.8221E-03     91.8525E-03     33.5244E-03    -16.3817E-03    -17.1645E-03    -16.3692E-03     32.7291E-03    -16.3817E-03     12.5893E-03     49.0685E-03     111.456E+06     56.2426E+06    -1.10156E+06    -72.0180E+06     40.4319E+06    -56.2073E+06    -1.10156E+06    -41.8980E+06
            1764     92.6185E-03     11.8060E-03     91.8630E-03     33.4692E-03    -16.3051E-03    -17.1825E-03    -16.3047E-03     32.5914E-03    -16.3051E-03     13.2040E-03     52.9988E-03     107.533E+06     46.9618E+06    -20.1258E+06    -76.8348E+06     30.6713E+06    -60.5442E+06    -20.1258E+06     -41.568E+06
            1765     92.7600E-03     12.7906E-03     91.8739E-03     33.6629E-03    -16.2354E-03    -17.4314E-03    -16.2595E-03     32.4909E-03    -16.2354E-03     15.2108E-03     59.0897E-03     101.193E+06     38.1995E+06    -38.7625E+06    -75.7167E+06     22.8051E+06    -60.3223E+06    -38.7625E+06    -38.8756E+06
            1766     92.9155E-03     13.7747E-03     91.8888E-03     34.7661E-03    -16.1356E-03    -18.6252E-03    -16.2364E-03     32.3773E-03    -16.1356E-03     21.6209E-03     74.8034E-03     100.225E+06     28.7847E+06    -60.8896E+06    -78.6724E+06     15.1247E+06    -60.6998E+06    -65.2023E+06    -34.8932E+06
            1767     93.0905E-03     14.7599E-03     91.9129E-03     48.8095E-03    -16.0247E-03    -32.7826E-03    -16.6537E-03     32.6806E-03    -16.0247E-03     61.0108E-03     110.236E-03     101.792E+06     28.8457E+06    -46.9061E+06    -82.9473E+06     5.96363E+06    -24.4755E+06    -82.4959E+06    -30.1147E+06
            1768     93.3467E-03     15.7455E-03     92.0092E-03     145.724E-03    -15.9118E-03    -129.813E-03    -32.3764E-03     48.2876E-03    -15.9118E-03     262.265E-03     335.915E-03     137.673E+06     79.0605E+06    -13.1198E+06    -78.2341E+06    -315.424E+03     66.2561E+06    -78.2341E+06    -22.7543E+06
            1769     93.9705E-03     16.7317E-03     92.4689E-03     230.935E-03    -15.9523E-03    -215.017E-03    -44.1809E-03     60.0989E-03    -15.9523E-03     433.518E-03     626.396E-03     179.448E+06     155.657E+06     1.64875E+06    -38.4552E+06    -1.77868E+06     154.153E+06    -33.5244E+06    -12.5116E+06
            1770     92.8322E-03     983.895E-06     92.8270E-03     33.4896E-03    -16.6900E-03    -16.8003E-03    -16.7593E-03     33.4726E-03    -16.7139E-03     1.67465E-03     33.6446E-03     94.5018E+06     80.9670E+06     75.7293E+06    -16.0066E+06     78.8172E+06    -14.3449E+06     76.2173E+06    -11.5251E+06
            1771     92.8498E-03     1.96745E-03     92.8290E-03     33.5160E-03    -16.6922E-03    -16.8239E-03    -16.7701E-03     33.4621E-03    -16.6922E-03     3.19486E-03     33.9338E-03     81.0371E+06     78.8235E+06     68.5237E+06    -6.78331E+06     74.3543E+06    -2.31407E+06     68.5237E+06    -18.5600E+06
            1772     92.8783E-03     2.95093E-03     92.8314E-03     33.3969E-03    -16.6379E-03    -16.7587E-03    -16.6179E-03     33.2854E-03    -16.6672E-03     4.66015E-03     34.2581E-03     83.6624E+06     78.2574E+06     63.4313E+06    -11.7758E+06     70.9965E+06    -4.51487E+06     63.4313E+06    -24.4058E+06
            1773     92.9190E-03     3.93476E-03     92.8357E-03     33.2954E-03    -16.6051E-03    -16.6867E-03    -16.4822E-03     33.1203E-03    -16.6345E-03     5.85992E-03     34.7899E-03     95.0521E+06      80.391E+06     62.3536E+06    -22.3169E+06     70.0756E+06    -12.0015E+06     62.3536E+06    -30.6943E+06
            1774     92.9703E-03     4.91891E-03     92.8401E-03     33.2065E-03    -16.5658E-03    -16.6414E-03    -16.3880E-03     32.9531E-03    -16.5658E-03     7.03773E-03     35.5178E-03     103.843E+06     82.5659E+06     57.1577E+06    -31.4970E+06     69.7710E+06    -18.7021E+06     57.1577E+06    -35.8545E+06
            1775     93.0331E-03     5.90292E-03     92.8456E-03     33.0633E-03    -16.5027E-03    -16.5714E-03    -16.2259E-03     32.7178E-03    -16.5027E-03     8.22457E-03     36.4612E-03     110.849E+06     82.6551E+06     53.5670E+06    -39.7405E+06     69.2423E+06    -26.3277E+06     53.5670E+06    -38.1445E+06
            1776     93.1071E-03     6.88750E-03     92.8520E-03     33.0290E-03    -16.4490E-03    -16.5800E-03    -16.1416E-03     32.5906E-03    -16.4490E-03     9.25724E-03     37.8121E-03     118.168E+06     83.0765E+06     53.2561E+06    -47.0614E+06     68.8666E+06    -32.8515E+06     53.2561E+06    -40.4602E+06
            1777     93.1917E-03     7.87154E-03     92.8586E-03     33.0779E-03    -16.3651E-03    -16.7107E-03    -16.1480E-03     32.5152E-03    -16.3651E-03     10.4882E-03     39.5673E-03     119.535E+06     79.9015E+06     44.8939E+06    -53.1586E+06     65.8903E+06    -39.1474E+06     44.8939E+06    -40.7057E+06
            1778     93.2883E-03     8.85612E-03     92.8670E-03     33.1288E-03    -16.2959E-03    -16.8381E-03    -16.1535E-03     32.4442E-03    -16.2959E-03     11.5938E-03     41.7314E-03     119.125E+06     75.8653E+06     35.3512E+06    -58.1877E+06     61.9425E+06    -44.2648E+06     35.3512E+06    -40.8363E+06
            1779     93.3952E-03     9.84037E-03     92.8753E-03     33.2810E-03    -16.2428E-03    -17.0389E-03    -16.2073E-03     32.4494E-03    -16.2428E-03     12.7870E-03     44.6788E-03     117.061E+06     71.9053E+06     28.1569E+06    -60.6027E+06     58.4395E+06    -47.1369E+06     28.1569E+06    -39.7688E+06
            1780     93.5142E-03     10.8245E-03     92.8856E-03     33.4038E-03    -16.1800E-03    -17.2336E-03    -16.2836E-03     32.4538E-03    -16.1800E-03     13.7189E-03     48.4095E-03     112.054E+06     62.7393E+06     13.0571E+06    -65.2110E+06     51.5937E+06    -54.0654E+06     13.0571E+06    -35.8024E+06
            1781     93.6432E-03     11.8090E-03     92.8956E-03     33.4456E-03    -16.1150E-03    -17.3443E-03    -16.3030E-03     32.4044E-03    -16.1150E-03     14.3697E-03     52.3521E-03     105.705E+06     53.5607E+06    -5.95604E+06    -68.1332E+06     42.0733E+06    -56.6457E+06    -5.95604E+06    -35.2082E+06
            1782     93.7835E-03     12.7930E-03     92.9068E-03     33.7572E-03    -16.0472E-03    -17.7138E-03    -16.3418E-03     32.3852E-03    -16.0472E-03     16.4981E-03     58.4671E-03     103.474E+06     45.0414E+06    -28.8662E+06    -72.4682E+06     32.6710E+06    -60.0978E+06    -28.8662E+06    -35.8157E+06
            1783     93.9371E-03     13.7776E-03     92.9213E-03     34.8899E-03    -15.9750E-03    -18.9138E-03    -16.3415E-03     32.3176E-03    -15.9750E-03     22.5806E-03     74.2275E-03     101.308E+06     33.7049E+06    -56.2754E+06    -74.8488E+06     23.4153E+06    -64.5592E+06    -56.2754E+06    -31.0319E+06
            1784     94.1105E-03     14.7617E-03     92.9456E-03     49.0945E-03    -15.8908E-03    -33.2028E-03    -17.0843E-03     32.9761E-03    -15.8908E-03     61.5517E-03     109.861E-03     98.2191E+06     30.2767E+06    -42.2485E+06    -76.3383E+06     12.9045E+06    -26.9928E+06    -74.2218E+06    -25.4453E+06
            1785     94.3644E-03     15.7466E-03     93.0413E-03     146.433E-03    -15.7988E-03    -130.632E-03    -33.3984E-03     49.1997E-03    -15.7988E-03     263.204E-03     335.724E-03     131.669E+06     74.0297E+06    -9.52607E+06    -76.8187E+06     3.57769E+06     60.9260E+06    -76.8187E+06    -21.9805E+06
            1786     94.9872E-03     16.7311E-03     93.5021E-03     230.065E-03    -15.8180E-03    -214.287E-03    -43.8849E-03     59.6624E-03    -15.8180E-03     431.997E-03     625.770E-03     172.850E+06     143.691E+06    -1.82964E+06    -44.1846E+06     96.2251E+03     141.765E+06    -44.1846E+06    -13.7762E+06
            1787     93.8661E-03     984.132E-06     93.8610E-03     32.6150E-03    -16.2028E-03    -16.4131E-03    -16.3678E-03     32.5936E-03    -16.2267E-03     1.97524E-03     32.7627E-03     85.4794E+06     90.3313E+06     86.6625E+06     3.13048E+06     88.1789E+06     4.79477E+06     87.1505E+06    -10.6998E+06
            1788     93.8828E-03     1.96823E-03     93.8621E-03     32.6946E-03    -16.2759E-03    -16.4194E-03    -16.3601E-03     32.6353E-03    -16.2759E-03     3.29412E-03     33.0782E-03     77.0690E+06     91.1092E+06     82.3287E+06     10.1094E+06     86.5764E+06     14.6422E+06     82.3287E+06    -18.1932E+06
            1789     93.9115E-03     2.95239E-03     93.8651E-03     32.6484E-03    -16.2640E-03    -16.3808E-03    -16.2529E-03     32.5205E-03    -16.2640E-03     4.93743E-03     33.4453E-03     83.4250E+06     93.0570E+06     77.6457E+06     3.07002E+06     85.2509E+06     10.8761E+06     77.6457E+06    -25.2422E+06
            1790     93.9510E-03     3.93660E-03     93.8685E-03     32.5388E-03    -16.2203E-03    -16.3176E-03    -16.0997E-03     32.3209E-03    -16.2203E-03     6.46063E-03     33.9244E-03     93.9254E+06     95.4167E+06       73.21E+06    -7.59110E+06     84.0054E+06     3.82025E+06       73.21E+06    -32.2345E+06
            1791     94.0021E-03     4.92095E-03     93.8732E-03     32.4299E-03    -16.1583E-03    -16.2802E-03    -15.9638E-03     32.1135E-03    -16.1583E-03     7.78650E-03     34.5958E-03     105.830E+06     95.6470E+06     68.0917E+06    -21.2234E+06     82.0334E+06    -7.60987E+06     68.0917E+06    -37.4394E+06
            1792     94.0637E-03     5.90544E-03     93.8782E-03     32.3379E-03    -16.0729E-03    -16.2750E-03    -15.8319E-03     31.8948E-03    -16.0729E-03     9.17098E-03     35.4841E-03     113.738E+06     95.0343E+06     60.2939E+06    -31.8394E+06     80.5465E+06    -17.3516E+06     60.2939E+06    -40.3244E+06
            1793     94.1368E-03     6.89003E-03     93.8843E-03     32.3718E-03    -16.0120E-03    -16.3605E-03    -15.7788E-03     31.7901E-03    -16.0120E-03     10.5266E-03     36.7956E-03     119.202E+06     92.0188E+06     57.2353E+06    -40.4682E+06     78.0908E+06    -26.5402E+06     57.2353E+06    -40.5382E+06
            1794     94.2208E-03     7.87495E-03     93.8912E-03     32.5298E-03    -15.9553E-03    -16.5666E-03    -15.8352E-03     31.7984E-03    -15.9553E-03     11.8295E-03     38.5517E-03     121.679E+06     87.4095E+06     51.9908E+06    -47.8586E+06     74.7005E+06    -35.1496E+06     51.9908E+06    -39.4482E+06
            1795     94.3161E-03     8.85941E-03     93.8991E-03     32.6431E-03    -15.8859E-03    -16.7522E-03    -15.8634E-03     31.7543E-03    -15.8859E-03     13.0793E-03     40.5897E-03     119.171E+06     83.3052E+06     40.5296E+06    -51.2726E+06     70.2951E+06    -38.2625E+06     40.5296E+06    -39.6397E+06
            1796     94.4225E-03     9.84412E-03     93.9080E-03     32.8595E-03    -15.8563E-03    -17.0056E-03    -15.9200E-03     31.7738E-03    -15.8563E-03     14.4837E-03     43.4821E-03     119.627E+06     76.2256E+06     32.1630E+06    -59.1369E+06     64.4961E+06    -47.4074E+06     32.1630E+06    -37.8440E+06
            1797     94.5401E-03     10.8288E-03     93.9179E-03     33.1690E-03    -15.8191E-03    -17.3722E-03    -16.1332E-03     31.9299E-03    -15.8191E-03     15.5841E-03     47.2290E-03     117.572E+06     69.5250E+06     19.0251E+06    -64.5137E+06     60.5105E+06    -55.4991E+06     19.0251E+06    -33.3855E+06
            1798     94.6682E-03     11.8129E-03     93.9283E-03     33.4410E-03    -15.7836E-03    -17.6843E-03    -16.3627E-03     32.1194E-03    -15.7836E-03     16.1835E-03     51.3244E-03     108.128E+06     63.5997E+06     4.61142E+06    -60.9956E+06     55.5419E+06    -52.9378E+06     4.61142E+06    -30.4896E+06
            1799     94.8071E-03     12.7975E-03     93.9394E-03     33.8593E-03    -15.7451E-03    -18.1198E-03    -16.4657E-03     32.2053E-03    -15.7451E-03     18.1661E-03     57.5350E-03     106.361E+06     55.3040E+06    -17.4821E+06    -66.0713E+06     46.8716E+06    -57.6388E+06    -17.4821E+06    -30.5326E+06
            1800     94.9596E-03     13.7814E-03     93.9543E-03     35.2685E-03    -15.6965E-03    -19.5647E-03    -16.6398E-03     32.3435E-03    -15.6965E-03     24.3082E-03     73.2852E-03     110.456E+06     43.5776E+06    -49.4208E+06    -77.3734E+06     36.9878E+06    -70.7837E+06    -49.4208E+06    -26.8763E+06
            1801     95.1312E-03     14.7661E-03     93.9782E-03     49.9302E-03    -15.6628E-03    -34.2664E-03    -17.5123E-03     33.1762E-03    -15.6628E-03     63.6023E-03     109.545E-03     98.4174E+06     35.2903E+06    -31.6689E+06    -72.0306E+06     26.5882E+06    -30.4341E+06    -64.5633E+06    -19.2074E+06
            1802     95.3848E-03     15.7499E-03     94.0755E-03     148.342E-03    -15.6640E-03    -132.681E-03    -34.7446E-03     50.4051E-03    -15.6640E-03     266.655E-03     336.021E-03     114.696E+06     72.1382E+06     5.23405E+06    -58.3759E+06     16.3174E+06     61.0549E+06    -58.3759E+06    -14.0453E+06
            1803     96.0074E-03     16.7347E-03     94.5376E-03     228.545E-03    -15.6703E-03    -212.895E-03    -43.7100E-03     59.3596E-03    -15.6703E-03     429.028E-03     624.748E-03     158.079E+06     135.278E+06     6.60941E+06    -39.5913E+06     7.62732E+06     134.260E+06    -39.5913E+06    -8.68098E+06
            1804     94.8982E-03     984.761E-06     94.8931E-03     31.4471E-03    -15.6317E-03    -15.8148E-03    -15.7822E-03     31.4145E-03    -15.6317E-03     2.33947E-03     31.5882E-03     73.9196E+06     96.9095E+06     95.0634E+06     22.0900E+06     94.1563E+06     23.8467E+06     96.0599E+06    -9.49656E+06
            1805     94.9155E-03     1.96926E-03     94.8950E-03     31.4928E-03    -15.6991E-03    -15.7933E-03    -15.7151E-03     31.4146E-03    -15.6991E-03     3.75178E-03     31.8481E-03     70.7465E+06     101.127E+06     94.0184E+06     27.2840E+06     95.2414E+06     32.8604E+06     94.3274E+06    -18.8073E+06
            1806     94.9433E-03     2.95402E-03     94.8974E-03     31.4176E-03    -15.6593E-03    -15.7555E-03    -15.5963E-03     31.2584E-03    -15.6593E-03     5.36369E-03     32.1354E-03     80.0297E+06     105.281E+06     87.8305E+06     18.1838E+06     95.6184E+06     27.8467E+06     87.8305E+06    -26.9258E+06
            1807     94.9827E-03     3.93893E-03     94.9010E-03     31.2844E-03    -15.5781E-03    -15.7062E-03    -15.4266E-03     31.0048E-03    -15.5781E-03     7.13774E-03     32.5113E-03     89.8436E+06     105.723E+06     78.6042E+06     5.67188E+06     93.2030E+06     18.1922E+06     78.6042E+06    -32.9329E+06
            1808     95.0326E-03     4.92394E-03     94.9049E-03     31.1779E-03    -15.4946E-03    -15.6911E-03    -15.2664E-03     30.7532E-03    -15.4946E-03     8.80018E-03     33.0940E-03     101.958E+06     104.437E+06     71.0364E+06    -9.86244E+06     89.7053E+06     4.86931E+06     71.0364E+06    -38.2369E+06
            1809     95.0937E-03     5.90933E-03     94.9099E-03     31.2092E-03    -15.4058E-03    -15.8134E-03    -15.2096E-03     30.6055E-03    -15.4058E-03     10.5081E-03     33.9961E-03     110.779E+06     100.121E+06     61.4371E+06    -24.6593E+06     85.2333E+06    -9.77133E+06     61.4371E+06    -40.3840E+06
            1810     95.1658E-03     6.89466E-03     94.9157E-03     31.4069E-03    -15.3417E-03    -16.0677E-03    -15.2620E-03     30.6013E-03    -15.3417E-03     12.1940E-03     35.3187E-03     114.484E+06     93.9763E+06     54.2560E+06    -34.8675E+06     80.1946E+06    -21.0859E+06     54.2560E+06    -39.7419E+06
            1811     95.2492E-03     7.87965E-03     94.9227E-03     31.6548E-03    -15.3108E-03    -16.3381E-03    -15.3204E-03     30.6371E-03    -15.3108E-03     13.7486E-03     37.0177E-03     119.110E+06     89.9453E+06     50.2862E+06    -43.7433E+06     76.6863E+06    -30.4843E+06     50.2862E+06    -39.8825E+06
            1812     95.3437E-03     8.86488E-03     94.9307E-03     31.9099E-03    -15.2685E-03    -16.6407E-03    -15.4129E-03     30.6821E-03    -15.2685E-03     15.1710E-03     39.0309E-03     116.538E+06     84.2387E+06     40.8388E+06    -47.6933E+06     72.7565E+06    -36.2111E+06     40.8388E+06    -37.1213E+06
            1813     95.4487E-03     9.84993E-03     94.9391E-03     32.3299E-03    -15.2660E-03    -17.0674E-03    -15.5940E-03     30.8565E-03    -15.2660E-03     16.7334E-03     41.9392E-03     117.010E+06     76.5948E+06     33.3863E+06    -55.7465E+06     66.6490E+06    -45.8006E+06     33.3863E+06    -34.8343E+06
            1814     95.5659E-03     10.8348E-03     94.9497E-03     32.8881E-03    -15.2620E-03    -17.6397E-03    -15.9739E-03     31.2223E-03    -15.2620E-03     17.9929E-03     45.7316E-03     118.723E+06     69.5938E+06     20.0867E+06    -65.4328E+06     60.6794E+06    -56.5185E+06     20.0867E+06    -33.3356E+06
            1815     95.6933E-03     11.8195E-03     94.9605E-03     33.3986E-03    -15.2760E-03    -18.1473E-03    -16.4076E-03     31.6588E-03    -15.2760E-03     18.5729E-03     49.9543E-03     108.664E+06     64.4577E+06     7.90526E+06    -60.5598E+06     56.8314E+06    -52.9334E+06     7.90526E+06    -29.8155E+06
            1816     95.8313E-03     12.8032E-03     94.9722E-03     33.9690E-03    -15.3211E-03    -18.6586E-03    -16.6549E-03     31.9653E-03    -15.3211E-03     20.0891E-03     56.4027E-03     104.704E+06     57.3556E+06    -6.93970E+06    -63.0439E+06     51.3371E+06    -57.0254E+06    -6.93970E+06    -25.9936E+06
            1817     95.9819E-03     13.7878E-03     94.9864E-03     35.7196E-03    -15.3281E-03    -20.3787E-03    -17.0078E-03     32.3488E-03    -15.3281E-03     26.3313E-03     72.4230E-03     110.993E+06     44.1350E+06    -40.0305E+06    -80.7295E+06     40.3359E+06    -76.9305E+06    -40.0305E+06    -20.4191E+06
            1818     96.1533E-03     14.7708E-03     95.0120E-03     50.2559E-03    -15.3406E-03    -34.9000E-03    -17.5815E-03     32.9373E-03    -15.3406E-03     65.1287E-03     109.133E-03     93.3125E+06     35.5214E+06    -25.9376E+06    -68.2211E+06     29.0359E+06    -34.0507E+06    -53.6225E+06    -14.9318E+06
            1819     96.4039E-03     15.7567E-03     95.1075E-03     151.207E-03    -15.3990E-03    -135.807E-03    -35.0276E-03     50.4278E-03    -15.3990E-03     272.904E-03     337.595E-03     89.9842E+06     65.5623E+06     12.4136E+06    -36.2634E+06     21.1726E+06     56.8032E+06    -36.2634E+06    -7.44019E+06
            1820     97.0346E-03     16.7373E-03     95.5802E-03     228.596E-03    -15.4091E-03    -213.191E-03    -44.8296E-03     60.2349E-03    -15.4091E-03     428.960E-03     624.458E-03     139.090E+06     131.392E+06     12.8582E+06    -19.8960E+06     13.1668E+06     131.084E+06    -19.8960E+06     1.71283E+06
            1821     95.9293E-03     985.479E-06     95.9243E-03     29.7667E-03    -14.8369E-03    -14.9290E-03    -14.8646E-03     29.7255E-03    -14.8601E-03     2.53603E-03     29.8957E-03     64.1078E+06     108.716E+06     103.263E+06     42.2447E+06     105.444E+06     44.5196E+06     104.260E+06    -9.40399E+06
            1822     95.9465E-03     1.97115E-03     95.9262E-03     29.6648E-03    -14.7848E-03    -14.8794E-03    -14.7462E-03     29.5548E-03    -14.8080E-03     4.31152E-03     29.9860E-03     61.3853E+06     111.513E+06     99.5543E+06     45.3004E+06     104.376E+06     52.1289E+06     99.8633E+06    -19.6970E+06
            1823     95.9738E-03     2.95660E-03     95.9283E-03     29.6060E-03    -14.7321E-03    -14.8773E-03    -14.6557E-03     29.3844E-03    -14.7321E-03     6.14955E-03     30.2343E-03     70.3690E+06     111.923E+06     90.5488E+06     33.3972E+06     101.023E+06     44.2969E+06     90.5488E+06    -27.1130E+06
            1824     96.0123E-03     3.94247E-03     95.9314E-03     29.4567E-03    -14.6313E-03    -14.8304E-03    -14.4479E-03     29.0743E-03    -14.6313E-03     8.10078E-03     30.5073E-03     81.3647E+06     110.738E+06     78.7562E+06     18.3499E+06     96.7699E+06     32.3178E+06     78.7562E+06     -33.078E+06
            1825     96.0618E-03     4.92868E-03     95.9352E-03     29.4500E-03    -14.5373E-03    -14.9189E-03    -14.3368E-03     28.8679E-03    -14.5373E-03     10.0139E-03     31.0696E-03     92.0914E+06     106.315E+06     68.8614E+06     1.45749E+06     91.0307E+06     16.7417E+06     68.8614E+06    -36.9620E+06
            1826     96.1220E-03     5.91470E-03     95.9398E-03     29.6800E-03    -14.4757E-03    -15.2105E-03    -14.3845E-03     28.8540E-03    -14.4757E-03     11.9754E-03     32.0442E-03     102.766E+06     98.2672E+06     60.0809E+06     -18.117E+06     83.8658E+06    -3.71561E+06     60.0809E+06    -38.2437E+06
            1827     96.1937E-03     6.90063E-03     95.9459E-03     29.9696E-03    -14.4066E-03    -15.5659E-03    -14.4434E-03     28.8471E-03    -14.4066E-03     14.0147E-03     33.2553E-03     105.833E+06     91.4266E+06     48.2068E+06    -28.9600E+06     77.3886E+06    -14.9220E+06     48.2068E+06    -38.6060E+06
            1828     96.2765E-03     7.88667E-03     95.9529E-03     30.3735E-03    -14.3909E-03    -15.9850E-03    -14.5582E-03     28.9467E-03    -14.3909E-03     15.9205E-03     34.8933E-03     108.736E+06     83.3501E+06     41.7316E+06    -39.7096E+06     70.3148E+06    -26.6744E+06     41.7316E+06    -37.7458E+06
            1829     96.3699E-03     8.87249E-03     95.9606E-03     30.8975E-03    -14.3894E-03    -16.5102E-03    -14.7951E-03     29.1824E-03    -14.3894E-03     17.6161E-03     36.9868E-03     107.380E+06     73.6844E+06     33.6576E+06    -47.7922E+06     62.9495E+06    -37.0573E+06     33.6576E+06    -34.4489E+06
            1830     96.4750E-03     9.85800E-03     95.9700E-03     31.6831E-03    -14.4290E-03    -17.2520E-03    -15.2162E-03     29.6474E-03    -14.4290E-03     19.4516E-03     40.0653E-03     103.467E+06     63.2779E+06     27.4156E+06    -53.0034E+06     54.9464E+06    -44.6719E+06     27.4156E+06    -29.8076E+06
            1831     96.5909E-03     10.8430E-03     95.9804E-03     32.6117E-03    -14.5031E-03    -18.1055E-03    -15.8272E-03     30.3334E-03    -14.5031E-03     20.9356E-03     44.0847E-03     102.595E+06     53.6608E+06     17.8915E+06    -61.6730E+06     45.6532E+06    -53.6654E+06     17.8915E+06    -29.1651E+06
            1832     96.7183E-03     11.8273E-03     95.9925E-03     33.3343E-03    -14.5843E-03    -18.7558E-03    -16.4307E-03     31.0092E-03    -14.5843E-03     21.4514E-03     48.4284E-03     95.2918E+06     46.5916E+06     3.54656E+06    -62.6141E+06     38.1404E+06    -54.1629E+06     3.54656E+06    -29.0723E+06
            1833     96.8552E-03     12.8117E-03     96.0041E-03     34.2830E-03    -14.7310E-03    -19.5655E-03    -17.0863E-03     31.8038E-03    -14.7310E-03     22.5289E-03     55.2547E-03     91.1887E+06     36.5183E+06    -8.79644E+06    -68.0434E+06     31.2624E+06    -62.7874E+06    -8.79644E+06    -21.9352E+06
            1834     97.0048E-03     13.7945E-03     96.0190E-03     36.3449E-03    -14.8547E-03    -21.4896E-03    -17.7627E-03     32.6179E-03    -14.8547E-03     28.1492E-03     72.0705E-03     95.5279E+06     24.1988E+06    -36.4804E+06    -84.6800E+06     22.2924E+06    -82.7737E+06    -36.4804E+06    -13.5730E+06
            1835     97.1755E-03     14.7785E-03     96.0452E-03     50.1579E-03    -14.9572E-03    -35.1872E-03    -18.2005E-03     33.1711E-03    -14.9572E-03     64.9419E-03     108.744E-03     85.5820E+06     31.6822E+06    -27.1036E+06    -65.7713E+06     15.4692E+06    -30.9007E+06    -45.7612E+06    -13.8782E+06
            1836     97.4226E-03     15.7629E-03     96.1389E-03     150.841E-03    -15.0607E-03    -135.776E-03    -33.7950E-03     48.8597E-03    -15.0607E-03     273.077E-03     339.185E-03     67.6577E+06     50.4026E+06     4.58251E+06    -26.6037E+06     11.1852E+06     43.7999E+06    -26.6037E+06    -8.86842E+06
            1837     98.0631E-03     16.7569E-03     96.6208E-03     228.115E-03    -15.1665E-03    -212.951E-03    -45.6624E-03     60.8272E-03    -15.1665E-03     428.003E-03     623.468E-03     121.334E+06     122.457E+06     20.9793E+06    -10.0065E+06     5.09671E+06     121.859E+06     6.47395E+06     6.66100E+06
            1838     96.9588E-03     986.447E-06     96.9537E-03     27.3659E-03    -13.6318E-03    -13.7336E-03    -13.6539E-03     27.3093E-03    -13.6550E-03     2.84756E-03     27.4777E-03     52.0999E+06     117.643E+06     107.924E+06     62.0751E+06     113.576E+06     65.3527E+06     108.714E+06    -10.4101E+06
            1839     96.9749E-03     1.97330E-03     96.9549E-03     27.1524E-03    -13.5209E-03    -13.6313E-03    -13.4524E-03     26.9967E-03    -13.5441E-03     4.87565E-03     27.4117E-03     48.0629E+06     117.119E+06     97.7942E+06     63.0233E+06     108.359E+06     71.7831E+06     97.7942E+06    -19.2483E+06
            1840     97.0024E-03     2.96049E-03     96.9573E-03     27.1180E-03    -13.4536E-03    -13.6668E-03    -13.3633E-03     26.8144E-03    -13.4536E-03     6.90466E-03     27.6189E-03     60.4670E+06     115.025E+06     88.2163E+06     46.5029E+06     102.162E+06     59.3657E+06     88.2163E+06    -26.1120E+06
            1841     97.0400E-03     3.94738E-03     96.9596E-03     27.1543E-03    -13.3630E-03    -13.7958E-03    -13.2824E-03     26.6409E-03    -13.3630E-03     8.99920E-03     27.9888E-03     69.7375E+06     110.169E+06     75.7042E+06     30.3320E+06     94.8303E+06     45.6708E+06     75.7042E+06    -31.1423E+06
            1842     97.0886E-03     4.93454E-03     96.9632E-03     27.3324E-03    -13.2926E-03    -14.0431E-03    -13.2464E-03     26.5357E-03    -13.2926E-03     11.2578E-03     28.6089E-03     78.4589E+06     100.467E+06     62.6249E+06     10.5071E+06     85.6903E+06     25.2841E+06     62.6249E+06    -33.0326E+06
            1843     97.1488E-03     5.92161E-03     96.9681E-03     27.6412E-03    -13.2426E-03    -14.4009E-03    -13.2609E-03     26.5012E-03    -13.2426E-03     13.5383E-03     29.4933E-03     86.9019E+06     89.3140E+06     50.3700E+06    -9.99535E+06      75.965E+06     3.35369E+06     50.3700E+06    -33.8409E+06
            1844     97.2196E-03     6.90875E-03     96.9738E-03     28.0537E-03    -13.1806E-03    -14.8754E-03    -13.3158E-03     26.4941E-03    -13.1806E-03     15.9456E-03     30.6278E-03     87.6919E+06     77.2282E+06     34.6300E+06    -23.4252E+06     64.5210E+06    -10.7179E+06     34.6300E+06    -33.3722E+06
            1845     97.3018E-03     7.89581E-03     96.9809E-03     28.7311E-03    -13.1759E-03    -15.5549E-03    -13.5665E-03     26.7427E-03    -13.1759E-03     18.2363E-03     32.3011E-03     86.3989E+06     63.0948E+06     24.2161E+06    -35.6180E+06     52.1465E+06    -24.6697E+06     24.2161E+06    -30.9327E+06
            1846     97.3952E-03     8.88234E-03     96.9894E-03     29.6407E-03    -13.2343E-03    -16.4062E-03    -14.0424E-03     27.2769E-03    -13.2343E-03     20.2314E-03     34.5832E-03     84.6620E+06     48.4575E+06     17.7440E+06    -46.9210E+06     39.5681E+06    -38.0315E+06     17.7440E+06    -27.6194E+06
            1847     97.4995E-03     9.86855E-03     96.9987E-03     30.8505E-03    -13.3422E-03    -17.5109E-03    -14.7273E-03     28.0668E-03    -13.3422E-03     22.4420E-03     37.8592E-03     80.3276E+06     35.9722E+06     12.4091E+06    -53.1401E+06     29.2461E+06    -46.4140E+06     12.4091E+06    -23.3718E+06
            1848     97.6160E-03     10.8537E-03     97.0107E-03     32.2618E-03    -13.5076E-03    -18.7509E-03    -15.6866E-03     29.1975E-03    -13.5076E-03     24.1805E-03     42.1765E-03     75.1676E+06     27.1273E+06     7.49363E+06    -55.4719E+06     20.7467E+06    -49.0913E+06     7.49363E+06    -21.9000E+06
            1849     97.7426E-03     11.8382E-03     97.0231E-03     33.4537E-03    -13.7139E-03    -19.7346E-03    -16.7657E-03     30.4847E-03    -13.7139E-03     24.3801E-03     47.0720E-03     70.1996E+06     15.9520E+06    -4.31419E+06    -61.1393E+06     9.48132E+06    -54.6686E+06    -4.31419E+06    -21.3259E+06
            1850     97.8796E-03     12.8213E-03     97.0362E-03     34.9197E-03    -13.9817E-03    -20.9455E-03    -17.9378E-03     31.9120E-03    -13.9817E-03     25.2031E-03     54.2991E-03     70.6169E+06     4.36296E+06    -19.4937E+06    -74.4398E+06    -100.901E+03    -69.9760E+06    -19.4937E+06    -17.4800E+06
            1851     98.0294E-03     13.8037E-03     97.0527E-03     37.6287E-03    -14.2607E-03    -23.3737E-03    -19.3648E-03     33.6198E-03    -14.2607E-03     30.1217E-03     71.8942E-03     77.7612E+06    -778.979E+03    -43.2976E+06    -89.4612E+06    -2.86782E+06    -87.3724E+06    -43.2976E+06    -12.7187E+06
            1852     98.1980E-03     14.7842E-03     97.0787E-03     50.6444E-03    -14.5591E-03    -36.0843E-03    -20.1333E-03     34.6935E-03    -14.5591E-03     64.0664E-03     108.693E-03     80.2447E+06     27.9242E+06    -34.2778E+06    -61.2622E+06    -4.13839E+06    -22.0078E+06    -41.4695E+06    -14.7463E+06
            1853     98.4429E-03     15.7669E-03     97.1720E-03     148.480E-03    -14.8584E-03    -133.621E-03    -35.1651E-03     50.0239E-03    -14.8584E-03     267.191E-03     340.861E-03     52.1705E+06     31.4006E+06    -10.0945E+06    -25.7509E+06    -7.50699E+06     28.0020E+06    -24.9399E+06    -10.9216E+06
            1854     99.0681E-03     16.7503E-03     97.6418E-03     227.041E-03    -15.2013E-03    -211.838E-03    -45.6807E-03     60.8837E-03    -15.2013E-03     425.669E-03     626.077E-03     108.406E+06     106.460E+06     39.0223E+06    -17.3040E+06    -8.78933E+06     105.599E+06     31.3686E+06     2.47833E+06
            1855     97.9847E-03     988.426E-06     97.9797E-03     24.0318E-03    -11.9435E-03    -12.0882E-03    -12.0083E-03     23.9520E-03    -11.9435E-03     3.19682E-03     24.1233E-03     34.4407E+06     116.802E+06     104.995E+06     79.0255E+06     110.051E+06     84.9872E+06     105.784E+06    -10.6366E+06
            1856     98.0012E-03     1.97665E-03     97.9813E-03     24.0758E-03    -11.9033E-03    -12.1730E-03    -11.9651E-03     23.8679E-03    -11.9033E-03     5.34600E-03     24.2636E-03     34.1419E+06     115.671E+06     92.9271E+06     76.5708E+06     103.261E+06     88.9802E+06     92.9271E+06    -17.6205E+06
            1857     98.0276E-03     2.96489E-03     97.9827E-03     24.1062E-03    -11.8557E-03    -12.2513E-03    -11.8489E-03     23.7037E-03    -11.8557E-03     7.49331E-03     24.4601E-03     45.3906E+06     110.515E+06     80.3234E+06     58.4472E+06     95.3386E+06     73.6234E+06     80.3234E+06    -23.5656E+06
            1858     98.0652E-03     3.95362E-03     97.9854E-03     24.3280E-03    -11.7970E-03    -12.5327E-03    -11.8458E-03     23.6411E-03    -11.7970E-03     9.84340E-03     24.9249E-03     52.7211E+06     100.819E+06     66.3537E+06     40.2660E+06     85.4472E+06     55.6376E+06     66.3537E+06    -26.2744E+06
            1859     98.1134E-03     4.94182E-03     97.9888E-03     24.6943E-03    -11.7502E-03    -12.9452E-03    -11.8768E-03     23.6258E-03    -11.7502E-03     12.3831E-03     25.5985E-03     59.6850E+06     86.9142E+06     49.3776E+06     18.4014E+06     73.7738E+06     31.5418E+06     49.3776E+06    -26.7113E+06
            1860     98.1726E-03     5.93036E-03     97.9934E-03     25.1290E-03    -11.7164E-03    -13.4117E-03    -11.8826E-03     23.5998E-03    -11.7164E-03     14.9343E-03     26.4353E-03     63.8499E+06     71.1761E+06     33.3659E+06    -2.35168E+06     60.6088E+06     8.21563E+06     33.3659E+06    -25.6608E+06
            1861     98.2430E-03     6.91881E-03     97.9991E-03     25.8208E-03    -11.7049E-03    -14.1160E-03    -12.0509E-03     23.7557E-03    -11.7049E-03     17.5851E-03     27.6976E-03      61.973E+06     53.5092E+06     19.6708E+06    -17.8965E+06     45.1937E+06    -9.58102E+06     19.6708E+06    -22.7548E+06
            1862     98.3251E-03     7.90689E-03     98.0067E-03     26.8419E-03    -11.7507E-03    -15.0902E-03    -12.4608E-03     24.2125E-03    -11.7507E-03     20.2482E-03     29.5322E-03     57.8935E+06     34.6092E+06     9.34474E+06    -31.3159E+06     28.4166E+06    -25.1233E+06     9.34474E+06    -18.8724E+06
            1863     98.4183E-03     8.89457E-03     98.0156E-03     28.2160E-03    -11.8824E-03    -16.3314E-03    -13.2121E-03     25.0967E-03    -11.8824E-03     22.6645E-03     32.0972E-03     56.7361E+06     18.4827E+06     3.75022E+06    -43.7223E+06     12.9215E+06    -39.1159E+06     4.70494E+06    -15.7724E+06
            1864     98.5229E-03     9.88096E-03     98.0262E-03     29.9765E-03    -12.0835E-03    -17.8952E-03    -14.2837E-03     26.3650E-03    -12.0835E-03     25.2260E-03     35.7555E-03     55.7064E+06     9.89304E+06    -1.04993E+06    -50.4031E+06     1.59762E+06    -45.3766E+06     2.21893E+06    -15.7875E+06
            1865     98.6396E-03     10.8667E-03     98.0392E-03     31.9985E-03    -12.3672E-03    -19.6309E-03    -15.7441E-03     28.1117E-03    -12.3672E-03     27.2018E-03     40.5956E-03     54.2465E+06     4.85771E+06    -7.16842E+06    -54.1906E+06    -6.56998E+06    -49.6535E+06    -277.744E+03    -13.9411E+06
            1866     98.7675E-03     11.8503E-03     98.0541E-03     33.9247E-03    -12.7408E-03    -21.1853E-03    -17.5856E-03     30.3250E-03    -12.7408E-03     27.1683E-03     46.3045E-03     50.4943E+06    -3.39139E+06    -11.3131E+06    -57.0689E+06    -13.2712E+06    -53.4997E+06    -5.00248E+06    -11.8533E+06
            1867     98.9045E-03     12.8324E-03     98.0685E-03     36.1048E-03    -13.1717E-03    -22.9384E-03    -19.5294E-03     32.6958E-03    -13.1717E-03     27.5362E-03     54.4064E-03     57.8340E+06    -11.8250E+06    -23.0488E+06     -74.035E+06    -17.4140E+06    -70.1802E+06    -21.3147E+06    -14.2269E+06
            1868     99.0551E-03     13.8128E-03     98.0873E-03     39.5822E-03    -13.6318E-03    -25.9498E-03    -21.6708E-03     35.3032E-03    -13.6318E-03     32.3115E-03     72.4910E-03     69.7641E+06    -14.6493E+06    -48.4815E+06    -92.7954E+06    -18.5448E+06    -88.8999E+06    -48.4815E+06    -15.9007E+06
            1869     99.2255E-03     14.7907E-03     98.1169E-03     52.1794E-03    -14.2232E-03    -37.9555E-03    -23.6012E-03     37.8251E-03    -14.2232E-03     63.3106E-03     110.788E-03     73.4423E+06     24.0277E+06    -33.4992E+06    -57.4134E+06    -18.0346E+06    -15.3511E+06    -33.4992E+06    -16.5909E+06
            1870     99.4635E-03     15.7701E-03     98.2054E-03     147.680E-03    -14.8130E-03    -132.865E-03    -38.7075E-03     53.5227E-03    -14.8130E-03     262.175E-03     343.690E-03     50.9436E+06     26.2256E+06    -15.6030E+06    -29.3274E+06    -15.6887E+06     14.8331E+06    -17.8491E+06    -10.9937E+06
            1871     100.092E-03     16.7492E-03     98.6803E-03     226.250E-03    -15.3722E-03    -210.873E-03    -45.2310E-03     60.6085E-03    -15.3722E-03     423.931E-03     629.754E-03     109.504E+06     101.955E+06     55.8391E+06    -21.7235E+06    -10.0077E+06     92.4852E+06     53.5930E+06    -1.72220E+06
            1872     99.0076E-03     990.364E-06     99.0026E-03     20.2629E-03    -10.0152E-03    -10.2479E-03    -10.1462E-03     20.1612E-03    -10.0152E-03     3.36174E-03     20.3290E-03     22.7446E+06     115.684E+06     101.627E+06     90.9437E+06     103.323E+06     102.779E+06     102.153E+06    -9.40202E+06
            1873     99.0235E-03     1.98031E-03     99.0037E-03     20.4846E-03    -10.0539E-03    -10.4307E-03    -10.1770E-03     20.2310E-03    -10.0539E-03     5.44628E-03     20.6074E-03     29.8287E+06     116.898E+06     91.5752E+06     84.5131E+06     98.1087E+06     103.326E+06     91.5524E+06    -14.7625E+06
            1874     99.0500E-03     2.97044E-03     99.0054E-03     20.7447E-03    -10.0465E-03    -10.6983E-03    -10.1865E-03     20.2329E-03    -10.0465E-03     7.82279E-03     20.9713E-03     34.6775E+06     104.451E+06     76.9964E+06     65.8175E+06     88.0297E+06     83.8058E+06     75.4295E+06    -17.3827E+06
            1875     99.0867E-03     3.96030E-03     99.0076E-03     21.0706E-03    -10.0049E-03    -11.0663E-03    -10.1784E-03     20.1828E-03    -10.0049E-03     10.4053E-03     21.4421E-03     37.1002E+06     85.8278E+06     58.5438E+06     43.7578E+06     73.4402E+06     60.9778E+06     53.7114E+06    -17.0670E+06
            1876     99.1351E-03     4.95055E-03     99.0114E-03     21.5559E-03    -9.97301E-03    -11.5821E-03    -10.2156E-03     20.1894E-03    -9.97301E-03     13.0616E-03     22.1167E-03     36.9351E+06     63.3677E+06     36.5098E+06     21.2916E+06     54.9011E+06     34.6145E+06     31.6535E+06    -14.8635E+06
            1877     99.1934E-03     5.94041E-03     99.0154E-03     22.3279E-03    -9.97800E-03    -12.3478E-03    -10.3904E-03     20.3706E-03    -9.97800E-03     15.8925E-03     23.1689E-03     33.1566E+06     38.4832E+06     15.7724E+06     504.935E+03     33.8736E+06     8.14224E+06     12.7447E+06    -11.5654E+06
            1878     99.2640E-03     6.93010E-03     99.0218E-03     23.4063E-03    -10.0389E-03    -13.3655E-03    -10.7412E-03     20.7820E-03    -10.0389E-03     18.8391E-03     24.6879E-03     28.1708E+06     17.2286E+06     2.04455E+06    -14.9512E+06     14.4843E+06    -10.7792E+06     616.861E+03    -8.24444E+06
            1879     99.3455E-03     7.91939E-03     99.0293E-03     24.8804E-03    -10.1849E-03    -14.6934E-03    -11.3945E-03     21.5814E-03    -10.1849E-03     21.8065E-03     26.8495E-03     29.4420E+06     4.19187E+06    -6.47880E+06    -28.7912E+06    -440.999E+03    -27.2832E+06    -3.35396E+06    -5.35133E+06
            1880     99.4395E-03     8.90774E-03     99.0397E-03     26.7527E-03    -10.4157E-03    -16.3351E-03    -12.4439E-03     22.8615E-03    -10.4157E-03     24.6497E-03     29.7843E-03     35.8489E+06     317.319E+03    -10.7918E+06    -39.1017E+06    -9.83568E+06    -37.8813E+06    -1.85923E+06    -5.37982E+06
            1881     99.5448E-03     9.89508E-03     99.0518E-03     29.2011E-03    -10.7389E-03    -18.4623E-03    -14.0340E-03     24.7728E-03    -10.7389E-03     27.6382E-03     34.0649E-03     41.8854E+06     1.20837E+06    -14.1765E+06    -45.2241E+06    -16.5604E+06    -42.8403E+06     1.20837E+06    -7.02771E+06
            1882     99.6628E-03     10.8801E-03     99.0671E-03     32.0790E-03    -11.1725E-03    -20.9058E-03    -16.2241E-03     27.3973E-03    -11.1725E-03     30.0416E-03     39.7601E-03     48.5615E+06     1.15807E+06    -17.8349E+06    -53.6307E+06    -20.6533E+06    -50.8123E+06     1.15807E+06    -7.99588E+06
            1883     99.7923E-03     11.8633E-03     99.0847E-03     34.8758E-03    -11.7203E-03    -23.1591E-03    -18.9020E-03     30.6188E-03    -11.7203E-03     30.1710E-03     46.3787E-03     47.1085E+06    -903.221E+03    -16.4107E+06    -53.6928E+06    -19.6407E+06    -50.4628E+06    -903.221E+03    -9.82484E+06
            1884     99.9312E-03     12.8434E-03     99.1025E-03     38.0275E-03    -12.3858E-03    -25.6457E-03    -21.8848E-03     34.2666E-03    -12.3858E-03     29.9932E-03     55.8961E-03     56.3078E+06    -10.2542E+06    -19.2194E+06    -70.1621E+06    -19.3198E+06    -67.1790E+06    -13.1370E+06    -11.3473E+06
            1885     100.083E-03     13.8206E-03     99.1239E-03     42.3666E-03    -13.0979E-03    -29.2644E-03    -24.9220E-03     38.0242E-03    -13.0979E-03     34.1220E-03     74.8726E-03     65.1776E+06    -17.0127E+06    -40.8208E+06    -87.8765E+06    -21.9795E+06    -82.9097E+06    -40.8208E+06    -16.8798E+06
            1886     100.255E-03     14.7965E-03     99.1566E-03     55.2805E-03    -14.0222E-03    -41.2559E-03    -28.4446E-03     42.4692E-03    -14.0222E-03     63.3561E-03     115.626E-03     66.1219E+06     22.5803E+06    -20.5147E+06    -53.3173E+06    -18.9709E+06    -11.7661E+06    -20.5147E+06    -22.0678E+06
            1887     100.494E-03     15.7664E-03     99.2494E-03     145.154E-03    -14.8915E-03    -130.261E-03    -40.9247E-03     55.8177E-03    -14.8915E-03     253.340E-03     345.524E-03     56.0637E+06     25.5710E+06    -10.4141E+06    -38.6498E+06     -12.741E+06    -337.737E+03    -10.4141E+06    -15.0799E+06
            1888     101.104E-03     16.7480E-03     99.7068E-03     221.649E-03    -15.5348E-03    -206.115E-03    -42.4739E-03     58.0074E-03    -15.5348E-03     415.452E-03     626.740E-03     120.298E+06     104.192E+06     63.2818E+06    -29.6233E+06    -7.62402E+06     82.1929E+06     63.2818E+06    -3.30519E+06
            1889     100.026E-03     991.894E-06     100.021E-03     16.4627E-03    -8.14009E-03    -8.32317E-03    -8.18487E-03     16.3436E-03    -8.15930E-03     3.27950E-03     16.5026E-03     30.6430E+06     118.977E+06     92.5964E+06     86.9800E+06     91.4711E+06     116.004E+06     91.0786E+06    -6.11180E+06
            1890     100.042E-03     1.98417E-03     100.023E-03     16.5840E-03    -8.12889E-03    -8.45515E-03    -8.15669E-03     16.2856E-03    -8.12889E-03     5.30578E-03     16.6482E-03     37.1709E+06     116.168E+06     81.4977E+06     77.1615E+06     83.5438E+06     112.325E+06     78.9592E+06    -8.21764E+06
            1891     100.068E-03     2.97608E-03     100.024E-03     16.9638E-03    -8.09698E-03    -8.86676E-03    -8.25245E-03     16.3495E-03    -8.09698E-03     7.73427E-03     17.0796E-03     32.4973E+06     92.1708E+06     64.0520E+06     56.6306E+06     68.2838E+06     86.7458E+06     57.8238E+06    -6.04357E+06
            1892     100.105E-03     3.96797E-03     100.027E-03     17.4769E-03    -8.07187E-03    -9.40548E-03    -8.33005E-03     16.4015E-03    -8.07187E-03     10.4192E-03     17.6668E-03     30.7992E+06     66.7075E+06     41.2938E+06     32.6420E+06     48.1776E+06     59.8236E+06     32.6420E+06    -1.78501E+06
            1893     100.153E-03     4.95968E-03     100.030E-03     18.2374E-03    -8.08693E-03    -10.1502E-03    -8.49205E-03     16.5793E-03    -8.08693E-03     13.2155E-03     18.5496E-03     28.5141E+06     41.1094E+06     17.6144E+06     9.61129E+06     25.9661E+06     31.2847E+06     11.0843E+06     3.44974E+06
            1894     100.212E-03     5.95132E-03     100.035E-03     19.3953E-03    -8.17054E-03    -11.2237E-03    -8.86639E-03     17.0380E-03    -8.17054E-03     16.2430E-03     19.9133E-03     22.7547E+06     16.2483E+06     61.2348E+03    -9.23782E+06     4.54932E+06     5.48886E+06    -2.96646E+06     6.83023E+06
            1895     100.281E-03     6.94226E-03     100.041E-03     20.9775E-03    -8.32932E-03    -12.6466E-03    -9.49504E-03     17.8260E-03    -8.32932E-03     19.5381E-03     21.8567E-03     18.4357E+06    -2.66657E+06    -8.17450E+06    -22.7775E+06    -12.4150E+06    -11.9482E+06    -9.25546E+06     7.28291E+06
            1896     100.364E-03     7.93241E-03     100.050E-03     22.9958E-03    -8.57730E-03    -14.4174E-03    -10.4477E-03     19.0260E-03    -8.57730E-03     22.9948E-03     24.4845E-03     21.2475E+06     -8.5746E+06    -17.2087E+06    -31.7286E+06    -22.6351E+06    -26.3022E+06     -8.5746E+06     4.65726E+06
            1897     100.458E-03     8.92143E-03     100.061E-03     25.4456E-03    -8.91801E-03    -16.5261E-03    -11.8335E-03     20.7530E-03    -8.91801E-03     26.4103E-03     27.9325E-03     29.9519E+06    -3.19626E+06    -24.6318E+06    -36.7565E+06    -27.0479E+06    -34.3404E+06    -3.19626E+06     785.242E+03
            1898     100.565E-03     9.90886E-03     100.076E-03     28.7261E-03    -9.37509E-03    -19.3498E-03    -13.9949E-03     23.3712E-03    -9.37509E-03     30.2106E-03     33.0255E-03     40.6742E+06     3.14235E+06    -25.4775E+06    -42.8662E+06    -27.1191E+06    -41.2247E+06     3.14235E+06    -1.99810E+06
            1899     100.686E-03     10.8940E-03     100.094E-03     32.5630E-03    -9.97012E-03    -22.5912E-03    -16.9930E-03     26.9647E-03    -9.97012E-03     33.2517E-03     39.6625E-03     48.0873E+06     6.72014E+06    -21.0493E+06    -48.3431E+06    -24.0438E+06    -45.3486E+06     6.72014E+06    -7.24136E+06
            1900     100.817E-03     11.8755E-03     100.116E-03     36.3656E-03    -10.7173E-03    -25.6410E-03    -20.5541E-03     31.2788E-03    -10.7173E-03     33.9166E-03     47.3678E-03     50.7948E+06     5.20015E+06    -15.0669E+06    -52.1153E+06    -19.7622E+06    -47.4201E+06     5.20015E+06    -12.0557E+06
            1901     100.960E-03     12.8536E-03     100.138E-03     40.6852E-03    -11.6310E-03    -29.0491E-03    -24.6426E-03     36.2786E-03    -11.6310E-03     33.8443E-03     58.1892E-03     62.3920E+06    -5.46678E+06    -14.1177E+06     -71.204E+06    -16.3459E+06    -68.4934E+06    -5.94917E+06    -10.5487E+06
            1902     101.114E-03     13.8279E-03     100.164E-03     46.8376E-03    -12.6568E-03    -34.1728E-03    -29.4322E-03     42.0969E-03    -12.6568E-03     38.0173E-03     79.1911E-03     63.9099E+06    -6.98434E+06    -26.5226E+06    -75.3053E+06    -15.0771E+06    -67.4210E+06    -26.3141E+06    -16.8155E+06
            1903     101.289E-03     14.7964E-03     100.202E-03     60.2564E-03    -13.9587E-03    -46.2890E-03    -34.2488E-03     48.2162E-03    -13.9587E-03     65.5929E-03     122.314E-03     61.3057E+06     24.4247E+06    -7.33774E+06    -45.1295E+06    -13.5423E+06    -7.16255E+06    -7.33774E+06    -27.5004E+06
            1904     101.531E-03     15.7644E-03     100.299E-03     140.701E-03    -15.0882E-03    -125.610E-03    -41.9885E-03     57.0795E-03    -15.0882E-03     240.698E-03     343.543E-03     62.6322E+06     20.2453E+06    -9.67554E+06    -51.0410E+06    -10.9410E+06    -19.8548E+06    -9.67554E+06    -18.8055E+06
            1905     102.111E-03     16.7398E-03     100.729E-03     215.803E-03    -15.7479E-03    -200.060E-03    -38.4965E-03     54.2393E-03    -15.7479E-03     404.884E-03     620.818E-03     132.000E+06     105.265E+06     65.7031E+06    -40.5429E+06    -7.69629E+06     72.4182E+06     65.7031E+06    -3.79600E+06
            1906     101.041E-03     993.912E-06     101.037E-03     12.6740E-03    -6.29670E-03    -6.37767E-03    -6.21787E-03     12.5502E-03    -6.33272E-03     2.87038E-03     12.7036E-03     56.3987E+06     123.279E+06     70.4865E+06     64.0196E+06     68.5447E+06     122.785E+06     66.4553E+06    -1.84345E+06
            1907     101.057E-03     1.98769E-03     101.037E-03     12.7146E-03    -6.21661E-03    -6.49859E-03    -6.16269E-03     12.3787E-03    -6.21661E-03     4.91023E-03     12.7414E-03     57.6011E+06     110.918E+06     56.7038E+06     50.6560E+06     56.3463E+06     109.732E+06     52.2000E+06     3.52039E+06
            1908     101.083E-03     2.98169E-03     101.039E-03     13.1137E-03    -6.18149E-03    -6.93267E-03    -6.23857E-03     12.4196E-03    -6.18149E-03     7.20616E-03     13.1604E-03     50.9589E+06     84.4081E+06     38.7403E+06     29.6700E+06     38.1199E+06     80.6195E+06     34.0790E+06     10.9410E+06
            1909     101.119E-03     3.97551E-03     101.041E-03     13.8788E-03    -6.19503E-03    -7.68417E-03    -6.46307E-03     12.6577E-03    -6.19503E-03     9.86892E-03     13.9761E-03     49.9138E+06     59.7635E+06     18.4576E+06     4.53975E+06     16.4844E+06     51.6381E+06     14.6383E+06     17.8074E+06
            1910     101.167E-03     4.96897E-03     101.045E-03     15.0558E-03    -6.28354E-03    -8.77303E-03    -6.88359E-03     13.1663E-03    -6.28354E-03     12.8004E-03     15.2496E-03     48.3274E+06     36.9460E+06     1.49028E+06    -17.3725E+06    -2.58489E+06     23.8322E+06    -183.546E+03     22.5263E+06
            1911     101.225E-03     5.96172E-03     101.050E-03     16.6201E-03    -6.45334E-03    -10.1668E-03    -7.47287E-03     13.9261E-03    -6.45334E-03     16.0474E-03     16.9863E-03     44.6739E+06     18.3120E+06    -7.15104E+06    -32.4587E+06    -16.9270E+06     2.78034E+06    -7.15104E+06     23.2932E+06
            1912     101.297E-03     6.95399E-03     101.058E-03     18.6506E-03    -6.69655E-03    -11.9535E-03    -8.32276E-03     15.0199E-03    -6.69655E-03     19.7342E-03     19.3350E-03     37.9573E+06     3.02377E+06    -8.32546E+06    -38.8228E+06    -25.9164E+06    -10.2293E+06    -7.97873E+06     19.0224E+06
            1913     101.379E-03     7.94505E-03     101.068E-03     21.1777E-03    -7.02843E-03    -14.1500E-03    -9.53148E-03     16.5592E-03    -7.02843E-03     23.7739E-03     22.4212E-03     32.5728E+06    -3.09621E+06    -14.2265E+06    -38.6271E+06    -30.0948E+06    -21.3412E+06    -4.51386E+06     12.0261E+06
            1914     101.475E-03     8.93492E-03     101.081E-03     24.3475E-03    -7.46448E-03    -16.8833E-03    -11.3401E-03     18.8042E-03    -7.46448E-03     28.0959E-03     26.5548E-03     33.7161E+06     931.685E+03    -25.1695E+06    -35.8724E+06    -31.5840E+06    -29.4579E+06     931.685E+03     5.05618E+06
            1915     101.584E-03     9.92263E-03     101.098E-03     28.5538E-03    -8.03929E-03    -20.5151E-03    -14.0595E-03     22.0981E-03    -8.03929E-03     33.1374E-03     32.5343E-03     40.7402E+06     6.77652E+06    -26.7087E+06    -38.0803E+06    -28.9879E+06    -35.8011E+06     6.77652E+06    -2.32371E+06
            1916     101.708E-03     10.9071E-03     101.121E-03     33.3616E-03    -8.78414E-03    -24.5755E-03    -17.7044E-03     26.4905E-03    -8.78414E-03     37.3786E-03     40.0733E-03     46.9451E+06     11.5496E+06    -18.1464E+06    -42.1663E+06    -23.2849E+06    -37.0278E+06     11.5496E+06    -9.64555E+06
            1917     101.844E-03     11.8877E-03     101.148E-03     38.2904E-03    -9.72563E-03    -28.5600E-03    -22.1895E-03     31.9199E-03    -9.72563E-03     39.1024E-03     48.9683E-03     54.2155E+06     10.2099E+06    -11.6847E+06    -51.0186E+06    -18.2175E+06    -44.4858E+06     10.2099E+06    -14.1231E+06
            1918     101.990E-03     12.8638E-03     101.176E-03     44.0355E-03    -10.8782E-03    -33.1580E-03    -27.5490E-03     38.4265E-03    -10.8782E-03     39.9338E-03     61.2987E-03     70.9084E+06    -308.346E+03    -11.5258E+06    -75.7088E+06    -13.3098E+06    -71.8643E+06    -2.36876E+06    -13.9846E+06
            1919     102.150E-03     13.8341E-03     101.208E-03     52.4291E-03    -12.2224E-03    -40.1945E-03    -34.0531E-03     46.2877E-03    -12.2224E-03     46.0276E-03     84.5269E-03     63.6669E+06     4.57388E+06    -13.9403E+06    -63.3642E+06    -9.24414E+06    -49.7546E+06    -13.7318E+06    -18.8045E+06
            1920     102.332E-03     14.7978E-03     101.256E-03     66.6492E-03    -13.9041E-03    -52.7298E-03    -40.3145E-03     54.2339E-03    -13.9041E-03     71.7727E-03     129.469E-03     51.3214E+06     22.8958E+06     1.88405E+06    -33.6829E+06    -10.3572E+06    -1.75500E+06     3.20920E+06    -25.6899E+06
            1921     102.571E-03     15.7558E-03     101.354E-03     134.766E-03    -15.2736E-03    -119.492E-03    -42.5733E-03     57.8474E-03    -15.2736E-03     225.152E-03     334.922E-03     61.4734E+06     8.83292E+06    -15.4838E+06    -59.7941E+06    -12.7977E+06    -39.4887E+06    -14.1586E+06    -18.2423E+06
            1922     103.114E-03     16.7399E-03     101.746E-03     208.688E-03    -15.9323E-03    -192.752E-03    -34.4214E-03     50.3577E-03    -15.9323E-03     391.760E-03     609.204E-03     134.272E+06     100.894E+06     63.6601E+06    -46.1606E+06    -8.79723E+06     63.5311E+06     63.6601E+06    -6.37032E+06
            1923     102.052E-03     995.297E-06     102.047E-03     9.09770E-03    -4.50252E-03    -4.59525E-03    -4.47033E-03     8.98959E-03    -4.51933E-03     2.19520E-03     9.12404E-03     81.1857E+06     117.362E+06     40.3691E+06     32.7309E+06     36.2267E+06     116.057E+06     38.1784E+06     6.24664E+06
            1924     102.068E-03     1.99122E-03     102.049E-03     9.14126E-03    -4.46625E-03    -4.67523E-03    -4.34229E-03     8.80832E-03    -4.46625E-03     4.12554E-03     9.16776E-03     80.9308E+06     100.209E+06     26.7654E+06     13.7814E+06     21.7879E+06     94.1909E+06     24.7774E+06     19.4028E+06
            1925     102.093E-03     2.98682E-03     102.050E-03     9.65919E-03    -4.46195E-03    -5.19746E-03    -4.45922E-03     8.92095E-03    -4.46195E-03     6.34978E-03     9.70118E-03     79.2616E+06     78.2054E+06     13.0405E+06    -8.93261E+06     5.06006E+06     64.2127E+06     13.0405E+06     30.8486E+06
            1926     102.130E-03     3.98227E-03     102.053E-03     10.7263E-03    -4.53947E-03    -6.18629E-03    -4.86107E-03     9.40108E-03    -4.53947E-03     9.01652E-03     10.8173E-03     78.7137E+06     59.5875E+06     4.51470E+06    -29.8287E+06    -9.66913E+06     39.4279E+06     4.51470E+06     37.1024E+06
            1927     102.178E-03     4.97707E-03     102.056E-03     12.1993E-03    -4.69924E-03    -7.50101E-03    -5.44985E-03     10.1482E-03    -4.69924E-03     11.9772E-03     12.3842E-03     74.1598E+06     40.4824E+06    -1.85006E+06    -44.6606E+06    -21.1574E+06     16.9792E+06    -1.85006E+06     37.8718E+06
            1928     102.237E-03     5.97134E-03     102.063E-03     14.1136E-03    -4.92174E-03    -9.19330E-03    -6.21330E-03     11.1336E-03    -4.92174E-03     15.5120E-03     14.4575E-03     64.7437E+06     24.1831E+06    -5.23800E+06    -49.9287E+06    -27.2963E+06     1.55072E+06    -5.23800E+06     34.0965E+06
            1929     102.308E-03     6.96447E-03     102.071E-03     16.4663E-03    -5.20860E-03    -11.2576E-03    -7.17367E-03     12.3824E-03    -5.20860E-03     19.6074E-03     17.0993E-03     53.0398E+06     11.2268E+06    -4.98529E+06    -47.6748E+06    -30.4083E+06    -6.03960E+06    -4.98529E+06     26.7561E+06
            1930     102.393E-03     7.95686E-03     102.083E-03     19.4634E-03    -5.59266E-03    -13.8707E-03    -8.57727E-03     14.1700E-03    -5.59266E-03     24.3266E-03     20.6310E-03     42.1892E+06     2.48474E+06    -7.54860E+06    -43.5859E+06    -32.6365E+06    -14.7171E+06    -1.29614E+06     17.5695E+06
            1931     102.490E-03     8.94732E-03     102.099E-03     23.3948E-03    -6.10123E-03    -17.2944E-03    -10.7616E-03     16.8620E-03    -6.10123E-03     29.8306E-03     25.5029E-03     36.9764E+06     5.42432E+06    -16.0514E+06    -35.3623E+06    -30.8767E+06    -20.5371E+06     5.42432E+06     6.62023E+06
            1932     102.602E-03     9.93527E-03     102.120E-03     28.4873E-03    -6.76838E-03    -21.7183E-03    -13.8838E-03     20.6527E-03    -6.76838E-03     36.3832E-03     32.2935E-03     40.0701E+06     11.5606E+06    -19.7671E+06    -33.1877E+06    -26.1664E+06    -26.7884E+06     11.5606E+06    -3.71370E+06
            1933     102.729E-03     10.9199E-03     102.147E-03     34.2561E-03    -7.62469E-03    -26.6294E-03    -18.0190E-03     25.6457E-03    -7.62469E-03     42.3264E-03     40.7104E-03     46.4692E+06     15.1069E+06    -12.8219E+06    -38.0918E+06    -21.8473E+06    -29.0665E+06     15.1069E+06    -11.5978E+06
            1934     102.870E-03     11.9001E-03     102.180E-03     40.4751E-03    -8.72186E-03    -31.7563E-03    -23.4392E-03     32.1579E-03    -8.72186E-03     45.9092E-03     50.8985E-03     57.0669E+06     13.8391E+06    -6.90472E+06    -50.3354E+06    -17.0462E+06    -40.1939E+06     13.8391E+06    -16.9493E+06
            1935     103.023E-03     12.8739E-03     102.216E-03     47.8013E-03    -10.0761E-03    -37.7315E-03    -30.0948E-03     40.1646E-03    -10.0761E-03     48.5609E-03     64.9326E-03     76.9749E+06     4.46509E+06    -9.16128E+06    -78.1439E+06    -10.8413E+06    -71.7569E+06    -241.848E+03    -19.9188E+06
            1936     103.189E-03     13.8416E-03     102.256E-03     58.1309E-03    -11.6790E-03    -46.4407E-03    -37.7860E-03     49.4763E-03    -11.6790E-03     57.4803E-03     89.9080E-03     67.0573E+06     14.3418E+06    -7.88930E+06    -57.8430E+06    -4.73842E+06    -38.7628E+06    -7.88930E+06    -22.9730E+06
            1937     103.382E-03     14.8011E-03     102.317E-03     73.5670E-03    -13.6789E-03    -59.8740E-03    -45.7105E-03     59.4035E-03    -13.6789E-03     81.7458E-03     136.022E-03     47.3552E+06     25.3403E+06     2.55117E+06    -27.0635E+06    -3.41249E+06    -3.57576E+06     7.81615E+06    -20.9948E+06
            1938     103.622E-03     15.7565E-03     102.417E-03     127.025E-03    -15.3117E-03    -111.714E-03    -43.7805E-03     59.0907E-03    -15.3117E-03     206.108E-03     319.912E-03     58.5325E+06     5.86470E+06    -20.6125E+06     -59.954E+06    -7.26449E+06    -52.0898E+06    -15.3475E+06    -13.7905E+06
            1939     104.109E-03     16.7326E-03     102.756E-03     200.434E-03    -16.0421E-03    -184.387E-03    -31.8161E-03     47.8636E-03    -16.0421E-03     375.631E-03     591.384E-03     133.060E+06     96.7802E+06     61.7670E+06    -47.6127E+06    -9.19650E+06     58.3640E+06     61.7670E+06    -8.47259E+06
            1940     103.061E-03     997.237E-06     103.056E-03     5.96272E-03    -2.94779E-03    -3.01476E-03    -2.93417E-03     5.88213E-03    -2.94779E-03     1.53496E-03     5.98711E-03     90.3311E+06     95.2532E+06     17.6739E+06    -2.65097E+06     5.92330E+06     86.8816E+06     17.4712E+06     23.4441E+06
            1941     103.075E-03     1.99389E-03     103.056E-03     6.24860E-03    -3.01095E-03    -3.23747E-03    -2.93846E-03     5.94959E-03    -3.01095E-03     3.19423E-03     6.30476E-03     96.8660E+06     84.3385E+06     10.8931E+06    -24.1735E+06    -5.71915E+06     65.8842E+06     10.8931E+06     38.6364E+06
            1942     103.101E-03     2.99121E-03     103.058E-03     7.00990E-03    -3.08961E-03    -3.92067E-03    -3.18962E-03     6.27886E-03    -3.08961E-03     5.38351E-03     7.10545E-03     99.3319E+06     70.0399E+06     5.84087E+06    -43.4635E+06    -15.3838E+06     41.9603E+06     5.84087E+06     48.3920E+06
            1943     103.137E-03     3.98768E-03     103.060E-03     8.21323E-03    -3.23107E-03    -4.98171E-03    -3.64317E-03     6.87469E-03    -3.23107E-03     7.92443E-03     8.37116E-03     98.9939E+06     59.7566E+06     4.76838E+06    -54.2282E+06    -21.1361E+06     26.6645E+06     4.76838E+06     51.5360E+06
            1944     103.186E-03     4.98377E-03     103.066E-03     9.83415E-03    -3.42401E-03    -6.41030E-03    -4.26501E-03     7.68886E-03    -3.42401E-03     10.9560E-03     10.0909E-03     89.6624E+06     45.0667E+06     2.76987E+06    -57.7149E+06    -24.1598E+06     11.5116E+06     2.76987E+06     47.9730E+06
            1945     103.246E-03     5.97893E-03     103.072E-03     11.8928E-03    -3.66046E-03    -8.23256E-03    -5.04454E-03     8.70475E-03    -3.66046E-03     14.6549E-03     12.2954E-03     77.1460E+06     31.9363E+06     558.597E+03    -55.9427E+06    -26.3387E+06     2.33233E+06     558.597E+03     41.4233E+06
            1946     103.318E-03     6.97361E-03     103.082E-03     14.4643E-03    -3.95932E-03    -10.5047E-03    -6.05025E-03     10.0098E-03    -3.95932E-03     19.0817E-03     15.1402E-03     64.3093E+06     20.7206E+06     548.343E+03    -51.0317E+06    -28.5756E+06    -1.73556E+06     548.343E+03     33.2663E+06
            1947     103.403E-03     7.96678E-03     103.096E-03     17.9141E-03    -4.35588E-03    -13.5592E-03    -7.57635E-03     11.9313E-03    -4.35588E-03     24.6615E-03     19.1074E-03     48.5281E+06     10.3112E+06     1.67938E+06    -41.8407E+06    -29.1310E+06    -4.84996E+06     4.13087E+06     21.3325E+06
            1948     103.503E-03     8.95837E-03     103.115E-03     22.4519E-03    -4.88542E-03    -17.5673E-03    -9.87961E-03     14.7642E-03    -4.88542E-03     31.4837E-03     24.5438E-03     37.1645E+06     9.35755E+06    -5.64848E+06    -31.2735E+06    -27.8513E+06    -9.07069E+06     9.35755E+06     7.89438E+06
            1949     103.618E-03     9.94715E-03     103.139E-03     28.3116E-03    -5.58783E-03    -22.7240E-03    -13.1848E-03     18.7724E-03    -5.58783E-03     39.7287E-03     32.0206E-03     38.1744E+06     13.6550E+06    -13.4182E+06    -29.9867E+06    -26.3206E+06    -17.0843E+06     13.6550E+06    -3.10910E+06
            1950     103.750E-03     10.9324E-03     103.172E-03     35.1046E-03    -6.49871E-03    -28.6075E-03    -17.7322E-03     24.2294E-03    -6.49871E-03     47.8199E-03     41.3580E-03     44.5841E+06     16.5992E+06    -9.64025E+06    -34.5991E+06    -24.1157E+06    -20.1237E+06     16.5992E+06    -11.7432E+06
            1951     103.897E-03     11.9123E-03     103.212E-03     42.6414E-03    -7.68034E-03    -34.9645E-03    -23.8396E-03     31.5165E-03    -7.68034E-03     54.1641E-03     52.8139E-03     55.9263E+06     14.1941E+06    -5.57840E+06    -48.5291E+06    -20.9201E+06    -33.1874E+06     14.1941E+06    -19.3057E+06
            1952     104.058E-03     12.8861E-03     103.257E-03     51.4821E-03    -9.16712E-03    -42.3156E-03    -31.5292E-03     40.6957E-03    -9.16712E-03     59.5523E-03     68.3907E-03     78.2498E+06     5.99261E+06    -7.96389E+06    -78.1611E+06    -15.1010E+06    -65.1191E+06     87.7765E+03    -27.1561E+06
            1953     104.232E-03     13.8513E-03     103.307E-03     63.7532E-03    -10.9584E-03    -52.7859E-03    -40.4905E-03     51.4578E-03    -10.9584E-03     71.4342E-03     95.5633E-03     69.7932E+06     14.6881E+06    -8.10206E+06    -61.1535E+06    -9.31185E+06    -37.1535E+06    -8.10206E+06    -28.4503E+06
            1954     104.435E-03     14.8089E-03     103.380E-03     80.7773E-03    -13.2020E-03    -67.5675E-03    -50.0873E-03     63.2972E-03    -13.2020E-03     95.4672E-03     142.419E-03     49.8332E+06     22.5070E+06    -2.06219E+06    -33.6746E+06    -6.11755E+06    -12.7339E+06     5.62165E+06    -20.1796E+06
            1955     104.681E-03     15.7560E-03     103.489E-03     118.213E-03    -15.1071E-03    -103.106E-03    -45.8735E-03     60.9802E-03    -15.1071E-03     185.830E-03     303.297E-03     60.0453E+06     5.31707E+06    -24.2315E+06    -62.8739E+06    -5.62757E+06    -59.6131E+06    -16.5476E+06    -10.2519E+06
            1956     105.105E-03     16.7357E-03     103.764E-03     190.702E-03    -16.0324E-03    -174.668E-03    -31.7863E-03     47.8207E-03    -16.0324E-03     355.163E-03     568.700E-03     129.382E+06     94.7592E+06     64.6872E+06    -43.6289E+06    -4.55783E+06     55.6882E+06     64.6872E+06    -4.61826E+06
            1957     104.065E-03     998.155E-06     104.060E-03     3.56846E-03    -1.74621E-03    -1.82215E-03    -1.75775E-03     3.52026E-03    -1.76240E-03     933.856E-06     3.58532E-03     89.2980E+06     59.0796E+06    -1.80488E+06    -42.9133E+06    -13.5569E+06     29.7232E+06    -1.80488E+06     42.1373E+06
            1958     104.080E-03     1.99678E-03     104.061E-03     4.16369E-03    -1.91649E-03    -2.24709E-03    -1.99616E-03     3.91276E-03    -1.91649E-03     2.35720E-03     4.25071E-03     109.972E+06     69.6963E+06     7.02962E+06    -56.4601E+06    -17.0788E+06     30.3150E+06     7.02962E+06     57.2695E+06
            1959     104.105E-03     2.99401E-03     104.062E-03     5.20290E-03    -2.09636E-03    -3.10672E-03    -2.35152E-03     4.44769E-03    -2.09636E-03     4.68087E-03     5.40617E-03     114.154E+06     64.6769E+06     10.2955E+06    -66.1500E+06    -19.8053E+06     18.3322E+06     10.2955E+06     61.9754E+06
            1960     104.143E-03     3.99148E-03     104.067E-03     6.47953E-03    -2.27136E-03    -4.20819E-03    -2.78411E-03     5.05545E-03    -2.27136E-03     7.21472E-03     6.76940E-03     111.268E+06     60.4432E+06     10.2857E+06    -66.9108E+06    -20.8812E+06     14.4136E+06     10.2857E+06     60.9426E+06
            1961     104.191E-03     4.98837E-03     104.072E-03     8.09236E-03    -2.47095E-03    -5.62113E-03    -3.34544E-03     5.81667E-03    -2.47095E-03     10.1599E-03     8.45884E-03     100.875E+06     50.1093E+06     8.37076E+06    -64.8839E+06    -21.9134E+06     7.13879E+06     8.37076E+06     55.5616E+06
            1962     104.252E-03     5.98486E-03     104.080E-03     10.1281E-03    -2.69885E-03    -7.42889E-03    -4.03098E-03     6.73020E-03    -2.69885E-03     13.8373E-03     10.6248E-03     87.1776E+06     39.5331E+06     6.06091E+06    -59.4069E+06    -23.0850E+06     3.21116E+06     6.06091E+06     47.5850E+06
            1963     104.325E-03     6.98026E-03     104.091E-03     12.8732E-03    -2.98878E-03    -9.88432E-03    -5.02959E-03     8.01850E-03    -2.98878E-03     18.6125E-03     13.6414E-03     69.9007E+06     30.1895E+06     8.11591E+06    -47.9014E+06    -21.4859E+06     3.77396E+06     8.11591E+06     36.8733E+06
            1964     104.412E-03     7.97483E-03     104.107E-03     16.6017E-03    -3.36893E-03    -13.2331E-03    -6.53716E-03     9.90580E-03    -3.36893E-03     24.8607E-03     17.8596E-03     52.7337E+06     21.6379E+06     12.0280E+06    -35.1276E+06    -19.4882E+06     5.59603E+06     12.4305E+06     24.8256E+06
            1965     104.513E-03     8.96737E-03     104.128E-03     21.4974E-03    -3.87663E-03    -17.6206E-03    -8.74659E-03     12.6234E-03    -3.87663E-03     32.7226E-03     23.5962E-03     39.9789E+06     18.9177E+06     6.41398E+06    -24.7402E+06    -19.4187E+06     3.57714E+06     16.4330E+06     11.6033E+06
            1966     104.632E-03     9.95771E-03     104.157E-03     27.9587E-03    -4.55693E-03    -23.4013E-03    -12.0165E-03     16.5738E-03    -4.55693E-03     42.6039E-03     31.5786E-03     35.8766E+06     19.6692E+06    -3.67743E+06    -21.2312E+06    -18.4130E+06    -6.49565E+06     19.6692E+06    -1.15541E+06
            1967     104.768E-03     10.9440E-03     104.195E-03     35.6346E-03    -5.44346E-03    -30.1915E-03    -16.6306E-03     22.0736E-03    -5.44346E-03     53.1235E-03     41.6682E-03     40.0272E+06     20.8943E+06    -5.29579E+06    -24.7450E+06    -17.6634E+06    -12.3774E+06     20.8943E+06    -8.91414E+06
            1968     104.922E-03     11.9255E-03     104.242E-03     44.4490E-03    -6.61638E-03    -37.8378E-03    -23.1109E-03     29.7221E-03    -6.61638E-03     62.8560E-03     54.3375E-03     49.0522E+06     17.6205E+06    -3.78441E+06    -37.8145E+06    -19.4469E+06    -22.1520E+06     17.6205E+06    -16.5730E+06
            1969     105.092E-03     12.8995E-03     104.297E-03     54.6751E-03    -8.13668E-03    -46.5404E-03    -31.6005E-03     39.7352E-03    -8.13668E-03     71.4884E-03     71.2748E-03     72.6964E+06     8.35898E+06    -5.72743E+06    -70.0463E+06    -20.4068E+06    -50.2254E+06     3.21742E+06    -30.5573E+06
            1970     105.277E-03     13.8652E-03     104.360E-03     68.9967E-03    -10.0242E-03    -58.9668E-03    -41.8266E-03     51.8565E-03    -10.0242E-03     86.9620E-03     100.578E-03     73.0136E+06     11.1583E+06    -8.92872E+06    -68.3737E+06    -15.8718E+06    -41.3436E+06    -8.92872E+06    -35.1400E+06
            1971     105.493E-03     14.8199E-03     104.447E-03     87.0002E-03    -12.3665E-03    -74.6273E-03    -51.5526E-03     63.9255E-03    -12.3665E-03     112.781E-03     146.535E-03     55.2507E+06     14.9977E+06    -8.84876E+06    -47.7092E+06    -12.0610E+06    -29.5515E+06      52.283E+03    -20.3405E+06
            1972     105.749E-03     15.7680E-03     104.567E-03     113.616E-03    -14.4775E-03    -99.1347E-03    -50.2054E-03     64.6868E-03    -14.4775E-03     175.016E-03     285.616E-03     57.4798E+06    -836.416E+03    -32.6725E+06    -65.3705E+06    -13.4511E+06    -61.6569E+06    -23.7715E+06    -10.7992E+06
            1973     106.108E-03     16.7327E-03     104.780E-03     179.857E-03    -15.7620E-03    -164.098E-03    -35.5155E-03     51.2746E-03    -15.7620E-03     329.244E-03     539.394E-03     119.982E+06     84.7724E+06     56.0984E+06    -41.7181E+06    -8.85630E+06     51.9106E+06     56.0984E+06    -7.75314E+06
            1974     105.068E-03     999.423E-06     105.063E-03     2.14357E-03    -1.01961E-03    -1.12399E-03    -1.08250E-03     2.11827E-03    -1.03579E-03     515.192E-06     2.14994E-03     71.7987E+06    -8.10398E+06    -57.9937E+06    -89.2886E+06    -57.3441E+06    -39.8080E+06    -58.2341E+06     38.7438E+06
            1975     105.083E-03     1.99759E-03     105.064E-03     2.70862E-03    -1.20934E-03    -1.49930E-03    -1.32274E-03     2.53206E-03    -1.20934E-03     1.58466E-03     2.79188E-03     104.966E+06     35.8029E+06    -25.1573E+06    -84.2198E+06    -37.5734E+06    -10.8435E+06    -25.1573E+06     58.2876E+06
            1976     105.109E-03     2.99658E-03     105.067E-03     3.75700E-03    -1.40675E-03    -2.35018E-03    -1.65468E-03     3.06151E-03    -1.40675E-03     3.78700E-03     4.02189E-03     115.696E+06     52.2611E+06    -3.48571E+06    -80.3417E+06    -22.1566E+06    -5.92401E+06    -3.48571E+06     65.6461E+06
            1977     105.147E-03     3.99446E-03     105.071E-03     5.14906E-03    -1.59295E-03    -3.55606E-03    -2.10532E-03     3.69832E-03    -1.59295E-03     6.47175E-03     5.54221E-03     118.580E+06     59.4172E+06     7.35932E+06    -76.0879E+06    -16.1407E+06    -530.086E+03     7.35932E+06     67.0333E+06
            1978     105.196E-03     4.99199E-03     105.077E-03     6.80105E-03    -1.79838E-03    -5.00263E-03    -2.63976E-03     4.43819E-03    -1.79838E-03     9.42361E-03     7.26626E-03     113.267E+06     57.1982E+06     11.7179E+06    -71.7161E+06    -16.9205E+06     2.40260E+06     11.7179E+06     63.5337E+06
            1979     105.256E-03     5.98883E-03     105.086E-03     8.87900E-03    -2.02134E-03    -6.85829E-03    -3.27236E-03     5.29307E-03    -2.02134E-03     13.1835E-03     9.47801E-03     94.4945E+06     48.2598E+06     13.1642E+06    -58.7082E+06    -17.1087E+06     6.66026E+06     13.1642E+06     51.9521E+06
            1980     105.330E-03     6.98549E-03     105.098E-03     11.7211E-03    -2.29377E-03    -9.42799E-03    -4.19853E-03     6.49159E-03    -2.29377E-03     18.2282E-03     12.5801E-03     71.5035E+06     38.3552E+06     16.5111E+06    -41.3985E+06    -14.3224E+06     11.2791E+06     16.5111E+06     37.6814E+06
            1981     105.418E-03     7.98055E-03     105.115E-03     15.5381E-03    -2.63968E-03    -12.8982E-03    -5.55704E-03     8.19689E-03    -2.63968E-03     24.8668E-03     16.8469E-03     53.4594E+06     30.5646E+06     20.1070E+06    -27.2083E+06    -10.0068E+06     13.3631E+06     20.1070E+06     26.2645E+06
            1982     105.522E-03     8.97458E-03     105.139E-03     20.6715E-03    -3.10231E-03    -17.5678E-03    -7.57378E-03     10.6775E-03    -3.10231E-03     33.5714E-03     22.7591E-03     42.4836E+06     28.1065E+06     21.0802E+06    -17.0499E+06    -7.93197E+06     14.9376E+06     25.1313E+06     16.2676E+06
            1983     105.643E-03     9.96585E-03     105.172E-03     27.4412E-03    -3.71515E-03    -23.7230E-03    -10.4927E-03     14.2109E-03    -3.71515E-03     44.7498E-03     30.8960E-03     38.2940E+06     26.1152E+06     9.46280E+06    -16.2016E+06    -11.8915E+06     5.15271E+06     26.1152E+06     4.90067E+06
            1984     105.784E-03     10.9545E-03     105.215E-03     35.7222E-03    -4.51434E-03    -31.2058E-03    -14.7520E-03     19.2684E-03    -4.51434E-03     57.5269E-03     41.4142E-03     38.3079E+06     24.4218E+06    -2.01102E+06    -19.2968E+06    -15.5859E+06    -5.72196E+06     24.4218E+06    -4.20411E+06
            1985     105.944E-03     11.9380E-03     105.270E-03     45.6635E-03    -5.58985E-03    -40.0758E-03    -21.1862E-03     26.7739E-03    -5.58985E-03     70.8491E-03     55.0366E-03     42.6979E+06     22.7505E+06    -1.97511E+06    -25.9528E+06    -16.4047E+06    -11.5232E+06     22.7505E+06    -11.1319E+06
            1986     106.125E-03     12.9144E-03     105.336E-03     57.3386E-03    -7.04296E-03    -50.2976E-03    -30.2592E-03     37.3002E-03    -7.04296E-03     83.4347E-03     73.1821E-03     59.3568E+06     13.7191E+06    -1.59772E+06    -50.8645E+06    -21.4853E+06    -29.0936E+06     11.8358E+06    -24.4474E+06
            1987     106.321E-03     13.8807E-03     105.411E-03     72.8511E-03    -8.88827E-03    -63.9568E-03    -40.6071E-03     49.5013E-03    -8.88827E-03     102.655E-03     102.854E-03     72.6302E+06     7.30522E+06    -9.25501E+06    -71.6442E+06    -27.9142E+06    -38.9643E+06    -6.71556E+06    -36.8917E+06
            1988     106.552E-03     14.8381E-03     105.514E-03     90.1900E-03    -11.1281E-03    -79.0564E-03    -49.1787E-03     60.3123E-03    -11.1281E-03     128.781E-03     146.254E-03     74.3066E+06     4.86371E+06    -12.4342E+06    -75.5621E+06    -23.0177E+06    -52.8377E+06    -7.27713E+06    -29.1098E+06
            1989     106.809E-03     15.7927E-03     105.636E-03     115.677E-03    -13.2677E-03    -102.411E-03    -53.8356E-03     67.1015E-03    -13.2677E-03     180.402E-03     265.504E-03     67.5463E+06    -1.67125E+06    -34.1573E+06    -72.8605E+06    -11.8805E+06    -67.8082E+06    -29.0003E+06    -13.8604E+06
            1990     107.158E-03     16.7405E-03     105.843E-03     171.123E-03    -15.0212E-03    -156.108E-03    -44.0869E-03     59.1015E-03    -15.0212E-03     306.335E-03     504.748E-03     115.386E+06     83.0767E+06     51.5277E+06    -36.1947E+06    -5.78188E+06     51.1201E+06     53.0715E+06    -8.56936E+06
            1991     106.069E-03     998.420E-06     106.064E-03     1.66823E-03    -802.104E-06    -866.151E-06    -828.691E-06     1.64860E-03    -819.931E-06     409.943E-06     1.67463E-03     85.8123E+06    -76.6989E+06    -156.254E+06    -166.963E+06    -153.020E+06    -86.3850E+06    -160.510E+06     13.5807E+06
            1992     106.085E-03     1.99805E-03     106.066E-03     1.86736E-03    -852.762E-06    -1.01461E-03    -908.886E-06     1.76164E-03    -852.762E-06     1.02572E-03     1.90891E-03     112.348E+06    -27.6835E+06    -120.539E+06    -150.602E+06    -120.040E+06    -48.7649E+06    -130.019E+06     28.3727E+06
            1993     106.111E-03     2.99650E-03     106.068E-03     2.63092E-03    -1.00966E-03    -1.62134E-03    -1.16834E-03     2.17792E-03    -1.00966E-03     2.54515E-03     2.78655E-03     109.240E+06     1.57904E+06    -80.1206E+06    -119.059E+06    -80.1018E+06    -30.5905E+06    -86.9078E+06     41.2283E+06
            1994     106.149E-03     3.99559E-03     106.074E-03     3.79354E-03    -1.21653E-03    -2.57706E-03    -1.52322E-03     2.73970E-03    -1.21653E-03     4.70737E-03     4.06486E-03     100.751E+06     24.0741E+06    -43.4702E+06    -86.5125E+06    -41.9710E+06    -19.8444E+06    -44.0932E+06     50.7333E+06
            1995     106.198E-03     4.99384E-03     106.081E-03     5.32977E-03    -1.42073E-03    -3.90887E-03    -1.94789E-03     3.36879E-03    -1.42073E-03     7.53400E-03     5.71535E-03     97.4275E+06     46.6557E+06    -8.98188E+06    -62.5112E+06    -10.2221E+06    -5.63349E+06    -8.98188E+06     54.1094E+06
            1996     106.260E-03     5.99171E-03     106.091E-03     7.60506E-03    -1.64162E-03    -5.96402E-03    -2.59673E-03     4.23777E-03    -1.64162E-03     11.7129E-03     8.18597E-03     92.9252E+06     59.5205E+06     15.5082E+06    -46.4082E+06     5.89930E+06     7.21298E+06     15.5082E+06     51.6698E+06
            1997     106.334E-03     6.98825E-03     106.104E-03     10.6324E-03    -1.89138E-03    -8.74156E-03    -3.52416E-03     5.41497E-03    -1.89138E-03     17.1824E-03     11.4938E-03     82.6313E+06     57.0818E+06     25.8837E+06    -36.3063E+06     3.43908E+06     17.3364E+06     25.8837E+06     44.6749E+06
            1998     106.423E-03     7.98457E-03     106.123E-03     14.5399E-03    -2.20206E-03    -12.3385E-03    -4.76896E-03     6.97038E-03    -2.20206E-03     24.1734E-03     15.8276E-03     64.3936E+06     43.9533E+06     28.1859E+06    -26.5761E+06    -5.31208E+06     22.6893E+06     28.1859E+06     31.6775E+06
            1999     106.528E-03     8.97912E-03     106.149E-03     19.7209E-03    -2.60236E-03    -17.1179E-03    -6.45433E-03     9.05729E-03    -2.60236E-03     33.3990E-03     21.6995E-03     48.2532E+06     34.1973E+06     29.0820E+06    -16.3153E+06    -6.86709E+06     23.4615E+06     30.3696E+06     18.3324E+06
            2000     106.652E-03     9.97231E-03     106.185E-03     26.5543E-03    -3.12359E-03    -23.4295E-03    -8.84358E-03     11.9684E-03    -3.12359E-03     45.4165E-03     29.7028E-03     40.4792E+06     33.5556E+06     22.7270E+06    -10.4156E+06    -1.95845E+06     14.2698E+06     33.5556E+06     9.79535E+06
            2001     106.796E-03     10.9625E-03     106.232E-03     35.3215E-03    -3.80302E-03    -31.5187E-03    -12.5159E-03     16.3186E-03    -3.80302E-03     60.2338E-03     40.4831E-03     39.7914E+06     34.3616E+06     10.3247E+06    -11.1242E+06    -1.89111E+06     1.09155E+06     34.3616E+06     3.34356E+06
            2002     106.964E-03     11.9490E-03     106.294E-03     46.1845E-03    -4.71551E-03    -41.4687E-03    -18.4242E-03     23.1399E-03    -4.71551E-03     77.0090E-03     54.7050E-03     40.1599E+06     31.8405E+06     2.25229E+06    -13.5060E+06    -7.99559E+06    -3.25811E+06     31.8405E+06    -3.13689E+06
            2003     107.153E-03     12.9290E-03     106.370E-03     59.0021E-03    -5.99534E-03    -53.0063E-03    -27.1513E-03     33.1471E-03    -5.99534E-03     94.0560E-03     73.3123E-03     45.9307E+06     24.8069E+06    -1.21734E+06    -25.9796E+06    -16.0253E+06    -11.1716E+06     24.8069E+06    -11.6057E+06
            2004     107.364E-03     13.8987E-03     106.461E-03     74.1391E-03    -7.63984E-03    -66.4940E-03    -36.3042E-03     43.9494E-03    -7.63984E-03     115.204E-03     100.909E-03     60.4262E+06     14.1241E+06    -1.34444E+06    -50.6631E+06    -26.4446E+06    -21.0262E+06     9.58747E+06    -26.7582E+06
            2005     107.601E-03     14.8629E-03     106.570E-03     92.1440E-03    -9.63662E-03    -82.5025E-03    -45.6877E-03     55.3291E-03    -9.63662E-03     142.277E-03     144.172E-03     88.7993E+06    -1.13477E+06    -6.01999E+06    -91.9969E+06    -30.1611E+06    -63.3158E+06    -5.67473E+06    -37.6247E+06
            2006     107.871E-03     15.8187E-03     106.705E-03     117.791E-03    -11.6886E-03    -106.106E-03    -54.1564E-03     65.8414E-03    -11.6886E-03     188.639E-03     246.297E-03     87.2882E+06    -9.88002E+06    -35.4893E+06    -100.602E+06    -23.8919E+06    -86.9356E+06    -35.1441E+06    -28.8167E+06
            2007     108.223E-03     16.7771E-03     106.915E-03     164.635E-03    -13.8888E-03    -150.749E-03    -55.6125E-03     69.4992E-03    -13.8888E-03     287.455E-03     464.184E-03     119.596E+06     79.7376E+06     51.2662E+06    -44.6805E+06    -13.4373E+06     45.2837E+06     54.4768E+06    -13.5657E+06
            2008     107.071E-03     998.548E-06     107.067E-03     2.62293E-03    -1.28497E-03    -1.33796E-03    -1.28015E-03     2.61412E-03    -1.33397E-03     194.589E-06     2.65366E-03     101.924E+06    -91.4565E+06    -191.047E+06    -195.444E+06    -189.769E+06    -92.7670E+06    -195.411E+06     -7.7961E+06
            2009     107.086E-03     1.99616E-03     107.067E-03     2.57910E-03    -1.25623E-03    -1.32285E-03    -1.27064E-03     2.53443E-03    -1.26378E-03     609.388E-06     2.64155E-03     118.589E+06    -63.1361E+06    -175.515E+06    -186.764E+06    -174.849E+06    -65.2236E+06    -185.342E+06    -6.42815E+06
            2010     107.113E-03     2.99505E-03     107.071E-03     2.87241E-03    -1.32574E-03    -1.54669E-03    -1.34979E-03     2.67550E-03    -1.32574E-03     1.58264E-03     2.98675E-03     111.725E+06    -43.0705E+06    -150.121E+06    -158.540E+06    -147.847E+06    -46.9755E+06    -156.909E+06     1.01122E+06
            2011     107.150E-03     3.99294E-03     107.076E-03     3.29150E-03    -1.40497E-03    -1.88660E-03    -1.38740E-03     2.79231E-03    -1.40497E-03     2.88707E-03     3.45744E-03     99.1053E+06    -22.8004E+06    -118.381E+06    -124.872E+06    -108.373E+06    -34.4341E+06    -123.246E+06     7.48132E+06
            2012     107.200E-03     4.99185E-03     107.084E-03     4.05980E-03    -1.43338E-03    -2.62641E-03    -1.47659E-03     2.90997E-03    -1.43338E-03     4.92791E-03     4.27524E-03     99.1463E+06     5.03063E+06    -75.4506E+06    -104.123E+06    -63.4648E+06    -16.9149E+06    -94.1635E+06     14.5932E+06
            2013     107.261E-03     5.99065E-03     107.094E-03     5.87001E-03    -1.55517E-03    -4.31529E-03    -1.94226E-03     3.49697E-03    -1.55517E-03     8.57237E-03     6.21292E-03     92.6245E+06     26.9068E+06    -26.4387E+06    -78.9471E+06    -20.3292E+06    -3.86754E+06    -54.2822E+06     24.9533E+06
            2014     107.337E-03     6.98911E-03     107.109E-03     8.80952E-03    -1.82790E-03    -6.98214E-03    -2.81269E-03     4.64006E-03    -1.82790E-03     13.9044E-03     9.41123E-03      81.155E+06     51.2539E+06     10.7211E+06    -40.4496E+06     13.5928E+06     10.5848E+06    -2.65225E+06     36.9057E+06
            2015     107.426E-03     7.98539E-03     107.129E-03     12.9118E-03    -2.16440E-03    -10.7474E-03    -4.01413E-03     6.17847E-03    -2.16440E-03     21.3428E-03     13.9405E-03     77.5238E+06     70.4544E+06     36.1583E+06    -16.1429E+06     25.7654E+06     28.5461E+06     36.1583E+06     39.8411E+06
            2016     107.533E-03     8.98070E-03     107.157E-03     18.2060E-03    -2.51842E-03    -15.6865E-03    -5.50842E-03     8.02796E-03    -2.51842E-03     31.0675E-03     19.8812E-03     69.2503E+06     61.8461E+06     45.7711E+06    -13.6627E+06     14.2005E+06     32.9012E+06     46.8529E+06     31.1604E+06
            2017     107.657E-03     9.97467E-03     107.194E-03     24.9725E-03    -2.92988E-03    -22.0416E-03    -7.46850E-03     10.3994E-03    -2.92988E-03     43.4826E-03     27.6608E-03     59.6012E+06     44.9851E+06     34.5478E+06    -18.9182E+06    -3.98347E+06     22.9156E+06     41.6826E+06     18.6647E+06
            2018     107.805E-03     10.9674E-03     107.246E-03     33.5960E-03    -3.45372E-03    -30.1430E-03    -10.1674E-03     13.6204E-03    -3.45372E-03     59.1090E-03     37.9026E-03     50.4275E+06     38.3937E+06     18.8607E+06    -17.5033E+06    -8.45739E+06     9.81477E+06     38.3937E+06     6.41936E+06
            2019     107.977E-03     11.9568E-03     107.313E-03     45.3713E-03    -4.17184E-03    -41.1989E-03    -15.0664E-03     19.2388E-03    -4.17184E-03     79.3763E-03     52.5919E-03     44.8172E+06     42.3287E+06     11.7058E+06    -8.36994E+06     760.859E+03     2.57499E+06     42.3287E+06    -1.49400E+06
            2020     108.177E-03     12.9402E-03     107.400E-03     58.5578E-03    -5.18646E-03    -53.3707E-03    -22.3934E-03     27.5805E-03    -5.18646E-03     99.9267E-03     70.7086E-03     48.2089E+06     42.8941E+06     10.8509E+06    -11.5699E+06     5.47841E+06    -6.19748E+06     42.8941E+06    -868.338E+03
            2021     108.398E-03     13.9176E-03     107.501E-03     72.6177E-03    -6.50380E-03    -66.1139E-03    -30.3518E-03     36.8556E-03    -6.50380E-03     121.184E-03     95.0489E-03     54.3664E+06     38.1170E+06     21.8728E+06    -20.3761E+06    -2.19153E+06     3.83817E+06     37.9670E+06    -9.06465E+06
            2022     108.644E-03     14.8883E-03     107.619E-03     93.9620E-03    -8.23438E-03    -85.7246E-03    -43.2272E-03     51.4646E-03    -8.23438E-03     152.512E-03     141.488E-03     91.6582E+06     12.6189E+06     10.9108E+06    -79.8519E+06    -16.1483E+06    -52.6239E+06     12.4499E+06    -27.8454E+06
            2023     108.934E-03     15.8454E-03     107.776E-03     118.084E-03    -10.3264E-03    -107.757E-03    -56.8618E-03     67.1888E-03    -10.3264E-03     188.514E-03     229.746E-03     94.3471E+06    -9.30940E+06    -27.0083E+06    -108.666E+06    -24.6570E+06    -93.6641E+06    -26.6631E+06    -33.2248E+06
            2024     109.275E-03     16.7947E-03     107.977E-03     162.503E-03    -12.9979E-03    -149.505E-03    -67.0631E-03     80.0609E-03    -12.9979E-03     274.009E-03     425.216E-03     118.613E+06     75.9683E+06     43.2649E+06    -53.4436E+06    -23.1662E+06     30.3222E+06     58.6336E+06    -27.0432E+06
            2025     108.074E-03     996.808E-06     108.069E-03     4.83046E-03    -2.37742E-03    -2.45304E-03    -2.42171E-03     4.83032E-03    -2.40860E-03     5.30576E-06     4.88464E-03     73.4280E+06    -72.9006E+06    -143.433E+06    -148.594E+06    -145.796E+06    -75.3517E+06    -143.780E+06    -13.2231E+06
            2026     108.090E-03     1.99470E-03     108.072E-03     4.90680E-03    -2.41509E-03    -2.49163E-03    -2.47744E-03     4.90016E-03    -2.42264E-03     276.362E-06     5.03075E-03     91.0684E+06    -55.7469E+06    -142.837E+06    -150.072E+06    -145.738E+06    -59.7335E+06    -143.184E+06    -18.6774E+06
            2027     108.116E-03     2.99121E-03     108.074E-03     4.85186E-03    -2.38362E-03    -2.46827E-03    -2.38183E-03     4.80751E-03    -2.42570E-03     832.780E-06     5.07265E-03     101.470E+06    -42.0843E+06    -140.655E+06    -146.144E+06    -141.331E+06    -46.8980E+06    -140.655E+06    -20.8243E+06
            2028     108.154E-03     3.98906E-03     108.080E-03     4.69959E-03    -2.28397E-03    -2.41572E-03    -2.17360E-03     4.56265E-03    -2.38915E-03     1.49949E-03     4.98965E-03     108.823E+06    -28.1467E+06    -130.769E+06    -141.934E+06    -132.049E+06    -33.7891E+06    -135.012E+06    -22.9809E+06
            2029     108.201E-03     4.98652E-03     108.086E-03     4.85030E-03    -2.24920E-03    -2.60114E-03    -2.10792E-03     4.43134E-03    -2.32346E-03     2.78275E-03     5.20237E-03     113.717E+06    -16.1835E+06    -110.521E+06    -141.457E+06    -116.428E+06    -22.4997E+06    -129.234E+06    -22.5014E+06
            2030     108.263E-03     5.98439E-03     108.098E-03     5.61880E-03    -2.31057E-03    -3.30805E-03    -2.21493E-03     4.53683E-03    -2.32173E-03     5.31868E-03     6.04267E-03     103.357E+06    -9.44777E+06    -83.7356E+06    -124.833E+06    -91.2899E+06    -15.1470E+06    -111.579E+06    -16.6816E+06
            2031     108.338E-03     6.98206E-03     108.113E-03     7.35617E-03    -2.42631E-03    -4.92974E-03    -2.56950E-03     4.99592E-03    -2.42631E-03     9.41548E-03     7.84361E-03     90.5155E+06     11.5070E+06    -60.0712E+06    -86.3567E+06    -52.7537E+06    -6.82553E+06    -75.3415E+06    -4.29633E+06
            2032     108.429E-03     7.98049E-03     108.135E-03     10.4753E-03    -2.59480E-03    -7.88015E-03    -3.34685E-03     5.94204E-03    -2.59480E-03     15.7127E-03     11.0929E-03     89.8666E+06     47.8117E+06    -16.0431E+06    -51.4519E+06    -5.10916E+06     16.1791E+06    -30.7533E+06     14.2889E+06
            2033     108.536E-03     8.97732E-03     108.164E-03     15.2744E-03    -2.92738E-03    -12.3460E-03    -4.57448E-03     7.50281E-03    -2.92738E-03     24.7875E-03     16.3139E-03     84.8278E+06     70.4469E+06     34.8453E+06    -25.3160E+06     30.1178E+06     27.8262E+06     22.0321E+06     32.4934E+06
            2034     108.663E-03     9.97208E-03     108.204E-03     22.2019E-03    -3.35963E-03    -18.8416E-03    -6.24627E-03     9.60657E-03    -3.35963E-03     37.8322E-03     24.1311E-03     88.0561E+06     82.7948E+06     60.5141E+06    -13.4569E+06     36.3850E+06     30.6141E+06     62.8528E+06     36.8714E+06
            2035     108.811E-03     10.9643E-03     108.257E-03     30.8110E-03    -3.75564E-03    -27.0550E-03    -8.42132E-03     12.1773E-03    -3.75564E-03     54.0706E-03     34.0590E-03     74.6965E+06     73.4275E+06     51.0771E+06    -9.12949E+06     20.2147E+06     28.0525E+06     67.1079E+06     20.5623E+06
            2036     108.985E-03     11.9568E-03     108.327E-03     42.7751E-03    -4.24915E-03    -38.5236E-03    -12.1246E-03     16.3761E-03    -4.24915E-03     76.1264E-03     48.5465E-03     58.4618E+06     55.7843E+06     22.2051E+06    -11.5236E+06     1.28548E+06     9.39596E+06     55.7843E+06     3.91322E+06
            2037     109.194E-03     12.9455E-03     108.423E-03     54.7656E-03    -4.95185E-03    -49.8124E-03    -16.9568E-03     21.9100E-03    -4.95185E-03     96.9981E-03     64.1956E-03     62.6726E+06     50.3410E+06     10.6661E+06    -21.3632E+06    -2.62275E+06    -8.07441E+06     50.3410E+06    -107.685E+03
            2038     109.420E-03     13.9289E-03     108.530E-03     69.0952E-03    -5.92220E-03    -63.1758E-03    -24.9502E-03     30.8696E-03    -5.92220E-03     119.776E-03     86.4981E-03     62.9728E+06     53.9528E+06     28.2937E+06    -15.8054E+06    -651.387E+03     13.1397E+06     53.9528E+06     2.64400E+06
            2039     109.680E-03     14.9049E-03     108.662E-03     94.6961E-03    -7.43002E-03    -87.2670E-03    -41.2901E-03     48.7192E-03    -7.43002E-03     157.897E-03     135.031E-03     86.2916E+06     37.5613E+06     23.7643E+06    -54.0147E+06    -7.02004E+06    -23.2114E+06     37.5423E+06    -11.6184E+06
            2040     109.997E-03     15.8591E-03     108.848E-03     121.327E-03    -9.59140E-03    -111.738E-03    -61.3616E-03     70.9506E-03    -9.59140E-03     191.562E-03     214.624E-03     106.931E+06     18.8203E+06    -12.6053E+06    -98.5375E+06    -3.73558E+06    -83.8883E+06    -4.69858E+06    -34.9565E+06
            2041     110.337E-03     16.7976E-03     109.051E-03     164.373E-03    -12.5705E-03    -151.801E-03    -74.8677E-03     87.4392E-03    -12.5705E-03     269.998E-03     392.974E-03     122.281E+06     91.4834E+06     39.9826E+06    -47.7960E+06     7.37189E+06     8.31457E+06     67.9835E+06    -23.7321E+06
            2042     109.081E-03     996.641E-06     109.076E-03     7.64068E-03    -3.72196E-03    -3.91860E-03    -3.83533E-03     7.63912E-03    -3.80367E-03    -204.022E-06     7.69474E-03     45.7442E+06    -54.0123E+06    -96.3487E+06    -102.431E+06    -100.717E+06    -55.6882E+06    -96.3869E+06    -8.61912E+06
            2043     109.096E-03     1.99161E-03     109.077E-03     7.89286E-03    -3.86529E-03    -4.02753E-03    -4.02288E-03     7.88822E-03    -3.86529E-03    -243.939E-06     8.01529E-03     64.5170E+06    -38.0967E+06    -96.8734E+06    -106.989E+06    -101.400E+06    -43.6858E+06    -96.8734E+06    -17.8237E+06
            2044     109.122E-03     2.98783E-03     109.081E-03     7.82954E-03    -3.85532E-03    -3.97438E-03    -3.92368E-03     7.82092E-03    -3.89741E-03    -150.559E-06     8.05611E-03     76.8860E+06    -27.9461E+06    -99.4377E+06    -109.129E+06    -100.358E+06    -36.7171E+06    -99.4377E+06    -24.6574E+06
            2045     109.158E-03     3.98338E-03     109.085E-03     7.77382E-03    -3.80299E-03    -3.97093E-03    -3.85318E-03     7.76125E-03    -3.90818E-03     191.401E-06     8.11402E-03     88.0636E+06    -14.9106E+06    -95.1596E+06    -108.959E+06    -99.5912E+06    -24.2782E+06    -95.1596E+06    -27.9746E+06
            2046     109.207E-03     4.97947E-03     109.093E-03     7.97809E-03    -3.88721E-03    -4.09116E-03    -3.95847E-03     7.91965E-03    -3.96147E-03     1.02621E-03     8.49516E-03     94.4656E+06    -7.25250E+06    -86.2125E+06    -111.590E+06    -101.626E+06    -17.2168E+06    -86.2125E+06    -30.5442E+06
            2047     109.267E-03     5.97498E-03     109.103E-03     8.38552E-03    -4.01055E-03    -4.37550E-03    -4.09031E-03     8.11150E-03    -4.02171E-03     2.77071E-03     9.12694E-03     98.1908E+06    -3.91402E+06    -81.3312E+06    -113.714E+06    -102.494E+06    -15.1340E+06    -81.3312E+06    -32.6965E+06
            2048     109.341E-03     6.97099E-03     109.119E-03     9.10216E-03    -4.05804E-03    -5.04381E-03    -4.20038E-03     8.25872E-03    -4.05804E-03     5.59401E-03     9.98304E-03     100.280E+06    -893.623E+03    -79.7915E+06    -111.324E+06    -97.5271E+06    -12.7931E+06    -81.6885E+06    -33.3861E+06
            2049     109.431E-03     7.96621E-03     109.140E-03     10.4139E-03    -4.08591E-03    -6.32735E-03    -4.30327E-03     8.38982E-03    -4.08591E-03     9.97074E-03     11.2638E-03     102.614E+06     9.71123E+06    -62.7521E+06    -105.309E+06    -79.9642E+06    -923.216E+03    -77.4623E+06    -27.1759E+06
            2050     109.539E-03     8.96236E-03     109.172E-03     13.1432E-03    -4.27035E-03    -8.87341E-03    -4.65756E-03     8.92736E-03    -4.27035E-03     16.7393E-03     13.9931E-03     94.3332E+06     30.1127E+06    -27.4232E+06    -78.5820E+06    -40.2528E+06     4.59661E+06    -40.2363E+06    -8.61146E+06
            2051     109.665E-03     9.95903E-03     109.212E-03     18.1444E-03    -4.53891E-03    -13.6058E-03    -5.51654E-03     10.0551E-03    -4.53891E-03     27.3077E-03     19.2307E-03     85.6916E+06     59.6473E+06     14.8635E+06    -36.4564E+06     10.0314E+06     16.3745E+06     11.6485E+06     16.8807E+06
            2052     109.816E-03     10.9553E-03     109.268E-03     25.6811E-03    -4.89534E-03    -20.7842E-03    -7.14348E-03     12.0404E-03    -4.89534E-03     42.1686E-03     27.5397E-03     83.1804E+06     85.8799E+06     57.5381E+06    -4.03611E+06     39.1559E+06     37.1893E+06     63.0367E+06     31.8531E+06
            2053     109.990E-03     11.9463E-03     109.340E-03     37.3940E-03    -5.33097E-03    -32.0600E-03    -9.50817E-03     14.8422E-03    -5.33097E-03     64.9656E-03     41.2712E-03     89.6114E+06     89.0736E+06     64.1644E+06    -8.11458E+06     35.3488E+06     20.7010E+06     89.0736E+06     28.0555E+06
            2054     110.202E-03     12.9354E-03     109.440E-03     49.0836E-03    -5.73842E-03    -43.3432E-03    -13.0898E-03     18.8302E-03    -5.73842E-03     86.7037E-03     55.5731E-03     86.8150E+06     76.6671E+06     36.7085E+06    -20.2566E+06     15.1831E+06     1.26878E+06     76.6671E+06     14.3813E+06
            2055     110.431E-03     13.9259E-03     109.549E-03     65.0239E-03    -6.42059E-03    -58.6067E-03    -21.9630E-03     28.3802E-03    -6.42059E-03     112.799E-03     77.6606E-03     72.0005E+06     69.0691E+06     31.4756E+06    -12.7472E+06     8.81212E+06     9.91632E+06     69.0691E+06     5.44897E+06
            2056     110.714E-03     14.9004E-03     109.706E-03     92.5875E-03    -7.69869E-03    -84.8914E-03    -37.4705E-03     45.1666E-03    -7.69869E-03     156.934E-03     122.686E-03     72.7167E+06     68.0167E+06     36.9069E+06    -14.5554E+06     17.5306E+06     4.82081E+06     68.0167E+06    -1.83529E+06
            2057     111.047E-03     15.8635E-03     109.908E-03     124.713E-03    -9.64736E-03    -115.068E-03    -59.5595E-03     69.2043E-03    -9.64736E-03     201.679E-03     196.373E-03     95.9209E+06     41.1556E+06     322.488E+03    -68.1101E+06     2.33467E+06    -53.3321E+06     24.3655E+06    -24.6902E+06
            2058     111.423E-03     16.8000E-03     110.150E-03     164.212E-03    -12.3696E-03    -151.842E-03    -75.5761E-03     87.9461E-03    -12.3696E-03     269.651E-03     357.613E-03     121.010E+06     59.0834E+06     19.5515E+06    -75.0188E+06    -16.3914E+06    -20.6069E+06     40.6144E+06    -28.3686E+06
            2059     110.089E-03     994.061E-06     110.085E-03     11.2678E-03    -5.40182E-03    -5.86596E-03    -5.68167E-03     11.2606E-03    -5.57895E-03    -658.988E-06     11.3220E-03     31.3232E+06    -35.2230E+06    -63.8064E+06    -68.4899E+06    -62.8108E+06    -38.7544E+06    -65.9540E+06    -8.28536E+06
            2060     110.106E-03     1.98886E-03     110.088E-03     11.2451E-03    -5.51274E-03    -5.73258E-03    -5.62398E-03     11.2320E-03    -5.60815E-03    -914.159E-06     11.3338E-03     48.1044E+06    -19.7453E+06    -62.9138E+06    -71.5453E+06    -62.7118E+06    -26.4694E+06    -65.0232E+06    -16.3628E+06
            2061     110.130E-03     2.98256E-03     110.090E-03     11.5117E-03    -5.65748E-03    -5.85392E-03    -5.83427E-03     11.4920E-03    -5.65748E-03    -1.14025E-03     11.6694E-03     56.5181E+06    -14.3282E+06    -63.5007E+06    -75.8751E+06    -66.0259E+06    -24.1775E+06    -63.5007E+06    -22.5034E+06
            2062     110.168E-03     3.97701E-03     110.096E-03     11.8789E-03    -5.74343E-03    -6.13520E-03    -6.11311E-03     11.8568E-03    -5.74343E-03    -1.15315E-03     12.1378E-03     67.4190E+06    -5.08736E+06    -62.8702E+06    -78.9492E+06    -68.7215E+06    -15.3151E+06    -62.8702E+06    -25.4257E+06
            2063     110.215E-03     4.97036E-03     110.103E-03     12.4766E-03    -5.90431E-03    -6.57134E-03    -6.55225E-03     12.4576E-03    -5.90431E-03    -768.516E-06     12.9024E-03     71.5854E+06     420.201E+03    -56.6126E+06    -79.7036E+06    -69.2935E+06    -9.98990E+06    -56.6126E+06    -26.3900E+06
            2064     110.276E-03     5.96364E-03     110.114E-03     13.2743E-03    -6.14241E-03    -7.13055E-03    -7.10186E-03     13.2456E-03    -6.14241E-03     220.485E-06     13.9810E-03     74.4005E+06     3.69681E+06    -45.3196E+06    -81.3696E+06    -70.1784E+06    -7.49433E+06    -45.3196E+06    -28.1097E+06
            2065     110.349E-03     6.95562E-03     110.129E-03     14.0330E-03    -6.40309E-03    -7.62956E-03    -7.50423E-03     13.9076E-03    -6.40309E-03     2.08134E-03     15.0775E-03     78.3939E+06     3.92971E+06    -37.1106E+06    -85.8388E+06    -74.1092E+06    -7.79985E+06    -37.1106E+06    -30.1167E+06
            2066     110.438E-03     7.94801E-03     110.152E-03     14.8569E-03    -6.62351E-03    -8.22983E-03    -7.72631E-03     14.3534E-03    -6.62351E-03     5.16140E-03     16.1845E-03     91.6846E+06     10.7111E+06    -35.8795E+06    -94.1013E+06    -82.2396E+06    -1.15063E+06    -35.8795E+06    -32.5354E+06
            2067     110.543E-03     8.94013E-03     110.181E-03     16.1960E-03    -6.83655E-03    -9.35894E-03    -7.98244E-03     14.8195E-03    -6.83655E-03     9.52577E-03     17.7228E-03     94.9863E+06     5.52927E+06    -38.8081E+06    -101.173E+06    -88.2717E+06    -7.37156E+06    -38.8081E+06    -33.5151E+06
            2068     110.669E-03     9.93173E-03     110.223E-03     18.1844E-03    -7.01871E-03    -11.1663E-03    -8.05756E-03     15.0756E-03    -7.01871E-03     15.9927E-03     19.6498E-03     82.7310E+06     948.600E+03    -36.0385E+06    -90.0962E+06    -76.9917E+06    -8.94084E+06    -39.2536E+06    -23.1313E+06
            2069     110.817E-03     10.9234E-03     110.277E-03     21.9778E-03    -7.31371E-03    -14.6609E-03    -8.08857E-03     15.4055E-03    -7.31371E-03     26.6119E-03     23.2956E-03     85.6140E+06     32.7613E+06     4.59736E+06    -59.9757E+06    -41.5481E+06     16.7877E+06     2.14335E+06     144.811E+03
            2070     110.995E-03     11.9182E-03     110.353E-03     29.2117E-03    -7.68677E-03    -21.5230E-03    -8.32484E-03     16.0135E-03    -7.68677E-03     43.4430E-03     31.0346E-03     96.9970E+06     64.7984E+06     49.8247E+06    -38.4305E+06     219.959E+03     18.2158E+06     57.7569E+06     20.0808E+06
            2071     111.202E-03     12.9146E-03     110.450E-03     39.8295E-03    -8.04601E-03    -31.7825E-03    -10.8196E-03     18.8666E-03    -8.04601E-03     64.7604E-03     43.2671E-03     101.168E+06     92.6731E+06     55.8589E+06    -19.4106E+06     26.6675E+06     9.78080E+06     92.6731E+06     25.3530E+06
            2072     111.444E-03     13.8975E-03     110.575E-03     57.8742E-03    -8.55285E-03    -49.3256E-03    -18.7085E-03     27.2571E-03    -8.55285E-03     96.7989E-03     65.8170E-03     90.3798E+06     102.290E+06     52.5166E+06    -1.85719E+06     29.4982E+06     21.1612E+06     102.290E+06     14.2027E+06
            2073     111.730E-03     14.8768E-03     110.735E-03     85.6146E-03    -9.44517E-03    -76.1751E-03    -31.6402E-03     41.0798E-03    -9.44517E-03     144.515E-03     105.038E-03     78.0394E+06     82.1441E+06     31.3546E+06    -5.09382E+06     15.0307E+06     11.2300E+06     82.1441E+06     5.98950E+06
            2074     112.084E-03     15.8474E-03     110.958E-03     120.087E-03    -11.0253E-03    -109.067E-03    -51.6875E-03     62.7073E-03    -11.0253E-03     198.308E-03     169.851E-03     80.4017E+06     63.4902E+06     9.87418E+06    -25.7154E+06     2.39558E+06    -18.2368E+06     63.4902E+06     1.15291E+06
            2075     112.497E-03     16.7998E-03     111.236E-03     151.888E-03    -12.9846E-03    -138.907E-03    -62.9313E-03     75.9127E-03    -12.9846E-03     254.680E-03     296.577E-03     92.3336E+06     48.3576E+06     19.4685E+06    -52.1137E+06    -10.3548E+06    -16.3582E+06     42.4254E+06    -19.9788E+06
            2076     111.104E-03     991.930E-06     111.099E-03     15.4706E-03    -7.32916E-03    -8.14165E-03    -7.64201E-03     15.4605E-03    -7.81873E-03    -848.733E-06     15.5244E-03     29.8655E+06    -5.77160E+06    -23.1039E+06    -38.2820E+06    -20.0260E+06    -21.9182E+06    -25.2133E+06    -9.96987E+06
            2077     111.118E-03     1.98457E-03     111.100E-03     15.4211E-03    -7.58563E-03    -7.83549E-03    -7.71924E-03     15.4003E-03    -7.68104E-03    -1.38132E-03     15.4781E-03     33.4423E+06    -1.80519E+06    -28.0480E+06    -38.6892E+06    -25.5132E+06    -12.8718E+06    -30.1574E+06    -14.2634E+06
            2078     111.145E-03     2.97731E-03     111.105E-03     15.9945E-03    -7.78708E-03    -8.20643E-03    -8.17460E-03     15.9627E-03    -7.78708E-03    -1.74293E-03     16.0954E-03     36.5159E+06    -1.42784E+06    -26.6601E+06    -42.2168E+06    -30.4951E+06    -13.1496E+06    -26.6601E+06    -16.9060E+06
            2079     111.180E-03     3.96818E-03     111.109E-03     17.0142E-03    -7.99304E-03    -9.02090E-03    -8.97577E-03     16.9690E-03    -7.99304E-03    -2.16117E-03     17.1919E-03     45.0000E+06     4.23738E+06    -26.9286E+06    -46.4269E+06    -35.2917E+06    -6.89782E+06    -26.9286E+06    -20.3781E+06
            2080     111.229E-03     4.95921E-03     111.119E-03     18.1301E-03    -8.29405E-03    -9.83737E-03    -9.79065E-03     18.0834E-03    -8.29405E-03    -2.27280E-03     18.4256E-03     49.7643E+06     6.36265E+06    -27.9144E+06    -50.1511E+06    -38.8921E+06    -4.89638E+06    -27.9144E+06    -22.2157E+06
            2081     111.289E-03     5.94860E-03     111.130E-03     19.4274E-03    -8.69780E-03    -10.7304E-03    -10.6993E-03     19.3963E-03    -8.69780E-03    -1.80736E-03     19.9178E-03     50.4389E+06     5.06289E+06    -19.7800E+06    -51.8680E+06    -43.4542E+06    -3.35087E+06    -19.7800E+06    -19.9123E+06
            2082     111.364E-03     6.93761E-03     111.147E-03     21.0456E-03    -9.18381E-03    -11.8628E-03    -11.8410E-03     21.0238E-03    -9.18381E-03    -970.129E-06     21.8443E-03     55.9527E+06     6.64780E+06    -9.41549E+06    -55.0790E+06    -48.0538E+06    -2.14094E+06    -7.65194E+06    -19.2286E+06
            2083     111.451E-03     7.92522E-03     111.169E-03     22.8346E-03    -9.70770E-03    -13.1102E-03    -13.0583E-03     22.7827E-03    -9.70770E-03     342.862E-06     24.0685E-03     65.6370E+06     15.6994E+06    -5.54537E+06    -57.6437E+06    -51.3998E+06      2.5967E+06     1.31343E+06    -18.9330E+06
            2084     111.557E-03     8.91108E-03     111.201E-03     24.5290E-03    -10.2625E-03    -14.2515E-03    -14.0912E-03     24.3687E-03    -10.2625E-03     2.70784E-03     26.3011E-03     72.1871E+06     14.8743E+06    -5.50374E+06    -64.7925E+06    -57.4925E+06    -2.05669E+06     4.12729E+06    -19.6249E+06
            2085     111.680E-03     9.89587E-03     111.241E-03     26.1143E-03    -10.8030E-03    -15.3150E-03    -14.7430E-03     25.5424E-03    -10.8030E-03     6.49844E-03     28.3523E-03     77.7871E+06     7.66491E+06    -11.5042E+06    -77.6065E+06    -67.1454E+06    -13.1224E+06    -1.17792E+06    -24.5624E+06
            2086     111.826E-03     10.8815E-03     111.296E-03     27.8636E-03    -11.2993E-03    -16.5632E-03    -14.8773E-03     26.1776E-03    -11.2993E-03     12.2252E-03     30.2571E-03     82.0620E+06     10.7706E+06    -11.9974E+06    -80.0980E+06    -72.9251E+06    -5.07594E+06    -3.32380E+06    -21.7077E+06
            2087     111.997E-03     11.8656E-03     111.367E-03     29.5770E-03    -11.8171E-03    -17.7609E-03    -14.0890E-03     25.9051E-03    -11.8171E-03     19.9248E-03     31.9519E-03       82.11E+06     22.5867E+06     1.85232E+06    -67.5152E+06    -61.9953E+06     3.37390E+06     15.5452E+06    -11.1104E+06
            2088     112.201E-03     12.8496E-03     111.463E-03     34.0369E-03    -12.3918E-03    -21.6485E-03    -13.5998E-03     25.9881E-03    -12.3918E-03     34.3234E-03     36.6980E-03     99.4811E+06     61.9563E+06     22.1435E+06    -49.8265E+06    -30.5148E+06     2.83186E+06     61.9563E+06    -3.68353E+06
            2089     112.445E-03     13.8431E-03     111.590E-03     45.4158E-03    -12.8614E-03    -32.5507E-03    -15.8292E-03     28.6943E-03    -12.8614E-03     61.3826E-03     49.5195E-03     100.667E+06      86.656E+06     41.8706E+06    -27.6090E+06    -2.66707E+06     16.9287E+06      86.656E+06     12.6081E+06
            2090     112.742E-03     14.8251E-03     111.763E-03     69.4352E-03    -13.5096E-03    -55.9226E-03    -24.2363E-03     37.7489E-03    -13.5096E-03     108.352E-03     80.2809E-03     92.6709E+06     91.1064E+06     35.2643E+06    -11.8646E+06     6.62973E+06     16.7700E+06     91.1064E+06     20.8727E+06
            2091     113.100E-03     15.7936E-03     111.991E-03     105.125E-03    -14.6505E-03    -90.4910E-03    -39.3337E-03     53.9674E-03    -14.6505E-03     171.775E-03     136.300E-03     102.237E+06     104.956E+06     36.2960E+06    -9.55266E+06     21.6456E+06     5.09778E+06     104.956E+06     1.44287E+06
            2092     113.538E-03     16.7481E-03     112.296E-03     124.423E-03    -15.4920E-03    -108.947E-03    -36.8420E-03     52.3181E-03    -15.4920E-03     213.447E-03     198.330E-03     81.6219E+06     70.0520E+06     35.6531E+06    -21.2762E+06     23.7369E+06    -5.10654E+06     65.7986E+06    -2.73783E+06
            2093     112.121E-03     991.076E-06     112.116E-03     19.7706E-03    -9.46984E-03    -10.3008E-03    -9.89942E-03     19.7634E-03    -9.86399E-03    -815.876E-06     19.8045E-03     32.8361E+06     21.5890E+06     14.1982E+06    -13.9130E+06     15.0491E+06    -10.6591E+06     17.4841E+06    -7.16128E+06
            2094     112.136E-03     1.98023E-03     112.119E-03     20.4169E-03    -9.98257E-03    -10.4340E-03    -10.4186E-03     20.4016E-03    -9.98257E-03    -1.26913E-03     20.4486E-03     25.3243E+06     20.8134E+06     8.96862E+06    -8.04103E+06     9.49330E+06    -2.31133E+06     14.5590E+06    -8.17974E+06
            2095     112.161E-03     2.96973E-03     112.122E-03     21.4080E-03    -10.2512E-03    -11.1561E-03    -11.1302E-03     21.3821E-03    -10.2512E-03    -1.76454E-03     21.4642E-03     26.5207E+06     15.5695E+06     6.60247E+06    -13.7285E+06     4.00228E+06    -5.50459E+06     9.94574E+06    -10.2329E+06
            2096     112.200E-03     3.95883E-03     112.130E-03     22.8068E-03    -10.6111E-03    -12.1959E-03    -12.1590E-03     22.7699E-03    -10.6111E-03    -2.19588E-03     22.9106E-03     28.9889E+06     15.5433E+06     5.34030E+06    -16.5747E+06    -2.95906E+06    -493.504E+03     7.76144E+06    -11.6871E+06
            2097     112.248E-03     4.94534E-03     112.139E-03     24.7426E-03    -11.1136E-03    -13.6332E-03    -13.5897E-03     24.6991E-03    -11.1136E-03    -2.49482E-03     24.9323E-03     36.7606E+06     19.3928E+06    -1.33570E+06    -22.9575E+06    -11.8796E+06    -1.40712E+06     8.38628E+06    -11.7751E+06
            2098     112.310E-03     5.93165E-03     112.153E-03     27.0806E-03    -11.7367E-03    -15.3502E-03    -15.3053E-03     27.0357E-03    -11.7367E-03    -2.71934E-03     27.4229E-03     39.5087E+06     17.3126E+06    -84.2341E+03    -27.2033E+06    -17.7248E+06    -3.15769E+06     10.9076E+06    -11.0093E+06
            2099     112.384E-03     6.91567E-03     112.171E-03     30.0189E-03    -12.5089E-03    -17.5112E-03    -17.4642E-03     29.9719E-03    -12.5089E-03    -2.98133E-03     30.6314E-03     42.5670E+06     21.4126E+06     4.81425E+06    -24.6023E+06    -19.5694E+06     759.534E+03     20.4344E+06    -10.2996E+06
            2100     112.475E-03     7.89643E-03     112.198E-03     33.2332E-03    -13.4131E-03    -19.8106E-03    -19.7625E-03     33.1851E-03    -13.4131E-03    -3.12213E-03     34.2284E-03     50.7681E+06     31.3451E+06     6.01334E+06    -24.9671E+06    -20.9420E+06     1.98828E+06     31.3451E+06    -8.58796E+06
            2101     112.579E-03     8.87558E-03     112.229E-03     36.4835E-03    -14.3824E-03    -22.0916E-03    -22.0345E-03     36.4264E-03    -14.3824E-03    -2.94519E-03     37.9909E-03     56.5716E+06     36.3000E+06     5.47404E+06    -27.1644E+06    -22.4906E+06     800.297E+03     36.3000E+06    -5.85236E+06
            2102     112.705E-03     9.85293E-03     112.273E-03     40.1824E-03    -15.4518E-03    -24.7320E-03    -24.6439E-03     40.0943E-03    -15.4518E-03    -2.67968E-03     42.4442E-03     64.2696E+06     39.4908E+06     2.20044E+06    -31.8235E+06    -25.5717E+06    -4.05133E+06     39.4908E+06    -7.82639E+06
            2103     112.848E-03     10.8257E-03     112.327E-03     43.4434E-03    -16.6049E-03    -26.8397E-03    -26.6676E-03     43.2713E-03    -16.6049E-03    -2.09840E-03     46.6024E-03     74.7834E+06     42.4389E+06     3.82172E+06    -40.6994E+06    -28.6217E+06    -8.25608E+06     42.4389E+06    -11.2700E+06
            2104     113.018E-03     11.7965E-03     112.401E-03     45.7126E-03    -17.7837E-03    -27.9299E-03    -27.4967E-03     45.2795E-03    -17.7837E-03    -699.352E-06     49.7926E-03     82.9593E+06     51.3794E+06     12.5335E+06    -42.0062E+06    -29.2403E+06    -232.362E+03     51.3794E+06    -13.7996E+06
            2105     113.211E-03     12.7696E-03     112.489E-03     47.4913E-03    -18.9346E-03    -28.5584E-03    -27.3231E-03     46.2560E-03    -18.9346E-03     3.54263E-03     52.2404E-03     91.0420E+06     57.1844E+06     11.2896E+06    -46.3170E+06    -32.5551E+06    -2.47233E+06     57.1844E+06    -14.2723E+06
            2106     113.449E-03     13.7339E-03     112.614E-03     49.3522E-03    -19.9593E-03    -29.3840E-03    -25.7609E-03     45.7291E-03    -19.9593E-03     13.8913E-03     54.6450E-03     89.1701E+06     51.8952E+06     14.5794E+06    -48.1896E+06    -25.0674E+06    -8.54270E+06     51.8952E+06    -5.29923E+06
            2107     113.730E-03     14.7117E-03     112.775E-03     59.1587E-03    -21.1811E-03    -37.9709E-03    -26.9873E-03     48.1751E-03    -21.1811E-03     39.8678E-03     67.8769E-03     95.5507E+06     86.9541E+06     34.4968E+06    -20.4995E+06     1.82895E+06     12.1684E+06     86.9541E+06     4.62909E+06
            2108     114.102E-03     15.6880E-03     113.018E-03     68.2131E-03    -13.8825E-03    -54.3452E-03    -21.7750E-03     43.9399E-03    -22.1794E-03     80.8190E-03     84.7700E-03     103.356E+06     99.5960E+06     33.7103E+06    -18.0695E+06     9.91266E+06     18.2656E+06     87.0585E+06     2.13341E+06
            2109     114.534E-03     16.6693E-03     113.315E-03     62.9026E-03    -4.17994E-03    -58.7388E-03    -5.17582E-03     27.2738E-03    -22.1142E-03     97.2110E-03     84.7276E-03     91.4730E+06     49.6705E+06     12.2537E+06    -53.2591E+06     4.87505E+06    -463.444E+03     4.25348E+06     5.46679E+06


