********************************************************************************
Field Output Report, written Mon Apr 21 01:56:06 2025

Source 1
---------

   ODB: F:/Abaqus_calc/Vel_20/odb/Correct/1020_2a_16_rd_250_cal_0_v_20_f_0100.odb
   Step: Step-1
   Frame: Increment   3714049: Step Time =   0.5260

Loc 1 : Nodal values from source 1

Output sorted by column "Nodal Label".

Field Output reported at nodes for region: DIE_2A_16_D0_36-1.Region_1
   Computation algorithm: EXTRAPOLATE_COMPUTE_AVERAGE
   Averaged at nodes
   Averaging regions: ODB_REGIONS

      Node Label  COORD.Magnitude     COORD.COOR1     COORD.COOR2
                          @Loc 1          @Loc 1          @Loc 1
------------------------------------------------------------------
               1     157.298E-03     19.9925E-03     156.022E-03


Field Output reported at nodes for region: DIE_2A_16_D0_36-1.Region_2
   Computation algorithm: EXTRAPOLATE_COMPUTE_AVERAGE
   Averaged at nodes
   Averaging regions: ODB_REGIONS

      Node Label  COORD.Magnitude     COORD.COOR1     COORD.COOR2
                          @Loc 1          @Loc 1          @Loc 1
------------------------------------------------------------------
               1     157.298E-03     19.9925E-03     156.022E-03


Field Output reported at nodes for part: WIRE_1-1
   Computation algorithm: EXTRAPOLATE_COMPUTE_AVERAGE
   Averaged at nodes
   Averaging regions: ODB_REGIONS

      Node Label  COORD.Magnitude     COORD.COOR1     COORD.COOR2    PE.Max. Prin    PE.Mid. Prin    PE.Min. Prin         PE.PE11         PE.PE22         PE.PE33         PE.PE12            PEEQ         S.Mises     S.Max. Prin     S.Mid. Prin     S.Min. Prin           S.S11           S.S22           S.S33           S.S12
                          @Loc 1          @Loc 1          @Loc 1          @Loc 1          @Loc 1          @Loc 1          @Loc 1          @Loc 1          @Loc 1          @Loc 1          @Loc 1          @Loc 1          @Loc 1          @Loc 1          @Loc 1          @Loc 1          @Loc 1          @Loc 1          @Loc 1
----------------------------------------------------------------------------------------------------------------------------------------------------------------------------------------------------------------------------------------------------------------------------------------------------------------------------------
               1     60.9883E-03     17.5251E-03     58.4161E-03     65.6437E-03    -27.6222E-03    -38.0231E-03    -26.3324E-03     53.9531E-03    -27.6222E-03     65.5795E-03     227.759E-03     185.172E+06     195.069E+06     157.968E+06    -5.84484E+06    -5.84267E+06     195.067E+06     157.968E+06     415.512E+03
               2     57.9723E-03    -662.949E-09     57.9723E-03     54.7511E-03    -26.7595E-03    -27.9930E-03    -27.4221E-03     54.7478E-03    -27.3272E-03     797.177E-06     56.1690E-03     170.783E+06    -21.3749E+06    -23.5641E+06    -193.241E+06    -22.0851E+06    -193.218E+06    -22.8764E+06    -1.77524E+06
               3     3.38515E-06     3.38511E-06    -14.9012E-09     115.304E-03    -57.1492E-03    -58.1598E-03    -58.1550E-03     115.299E-03    -57.1492E-03    -1.82283E-03     117.670E-03     163.156E+06    -58.9702E+06    -63.5753E+06    -224.380E+06    -63.9646E+06    -223.991E+06    -58.9702E+06    -7.90263E+06
               4     17.3048E-03     17.3048E-03    -14.9012E-09     125.573E-03    -37.1509E-03    -88.5376E-03    -75.3338E-03     112.369E-03    -37.1509E-03     103.009E-03     167.146E-03     160.836E+06     159.566E+06     143.672E+06    -8.62626E+06    -8.56661E+06     159.507E+06     143.672E+06     3.16682E+06
               5     118.327E-03     17.2785E-03     117.059E-03     17.7585E-03     14.6091E-03    -32.3683E-03     16.6566E-03     15.7111E-03    -32.3683E-03     3.00411E-03     32.9537E-03     158.145E+06     37.7349E+06     7.11479E+06    -133.481E+06     37.5073E+06     7.34238E+06    -133.481E+06    -2.63002E+06
               6     115.443E-03     12.0871E-06     115.443E-03     34.3294E-03    -14.4208E-03    -19.9074E-03    -19.7696E-03     34.1915E-03    -14.4208E-03    -5.46178E-03     34.6946E-03     55.8923E+06     55.2540E+06     42.1959E+06    -6.01132E+06     38.1365E+06    -1.95186E+06     55.2540E+06    -13.3872E+06
               7     60.6460E-03     16.5516E-03     58.3437E-03     79.3562E-03    -27.5243E-03    -51.8328E-03    -27.5424E-03     55.0658E-03    -27.5243E-03     99.8271E-03     248.308E-03     178.056E+06     189.165E+06     134.048E+06    -8.95061E+06    -8.94337E+06     189.158E+06     134.048E+06    -548.893E+03
               8     60.2509E-03     15.5754E-03     58.2029E-03     78.7416E-03    -27.2629E-03    -51.4909E-03    -27.4182E-03     54.6689E-03    -27.2629E-03     98.9514E-03     216.400E-03     160.787E+06     167.463E+06     70.5826E+06    -14.6103E+06    -14.6033E+06     167.456E+06     70.5826E+06    -821.046E+03
               9     59.9388E-03     14.6015E-03     58.1331E-03     60.4852E-03    -26.9553E-03    -33.5459E-03    -26.1361E-03     53.0754E-03    -26.9553E-03     49.0863E-03     145.919E-03     148.893E+06     134.264E+06     6.39454E+06    -28.5305E+06    -17.7009E+06     134.259E+06    -4.42984E+06    -211.304E+03
              10     59.6747E-03     13.6270E-03     58.0980E-03     55.9961E-03    -26.8899E-03    -29.1089E-03    -26.3719E-03     53.2592E-03    -26.8899E-03     29.6830E-03     118.263E-03     102.063E+06     71.4462E+06    -17.5985E+06    -39.2328E+06    -17.5662E+06     71.4139E+06    -39.2328E+06    -451.403E+03
              11     59.4330E-03     12.6530E-03     58.0705E-03     55.0951E-03    -27.0490E-03    -28.0723E-03    -26.6291E-03     53.6519E-03    -27.0490E-03     21.4309E-03     101.074E-03     35.1084E+06     4.66372E+06    -22.4078E+06    -34.9086E+06    -16.8704E+06    -2.56454E+06    -33.2177E+06     363.886E+03
              12     59.2151E-03     11.6791E-03     58.0519E-03     54.7418E-03    -27.1924E-03    -27.5906E-03    -26.7542E-03     53.9054E-03    -27.1924E-03     16.4515E-03     89.8822E-03     36.1215E+06    -16.7629E+06    -24.4283E+06    -54.5156E+06    -16.8803E+06    -54.3981E+06    -24.4283E+06     1.69787E+06
              13     59.0146E-03     10.7060E-03     58.0354E-03     54.7410E-03    -27.2781E-03    -27.4963E-03    -26.8653E-03     54.1486E-03    -27.3168E-03     13.8515E-03     82.8543E-03     80.7384E+06    -14.3809E+06    -18.2750E+06    -96.9638E+06    -16.0975E+06    -96.8866E+06    -16.6356E+06     1.86420E+06
              14     58.8323E-03     9.73142E-03     58.0219E-03     54.7637E-03    -27.3129E-03    -27.4541E-03    -26.9679E-03     54.3623E-03    -27.3977E-03     11.3811E-03     76.2964E-03     108.974E+06    -12.9129E+06    -15.5844E+06    -123.173E+06    -15.4262E+06    -123.137E+06    -13.1076E+06     836.083E+03
              15     58.6690E-03     8.75840E-03     58.0116E-03     54.8470E-03    -27.3658E-03    -27.4497E-03    -27.0791E-03     54.5604E-03    -27.4497E-03     9.67642E-03     71.1100E-03     125.726E+06    -13.1812E+06    -15.8464E+06    -140.206E+06    -15.8277E+06    -140.202E+06    -13.2043E+06     179.040E+03
              16     58.5219E-03     7.78496E-03     58.0017E-03     55.0286E-03    -27.4795E-03    -27.5336E-03    -27.2702E-03     54.8193E-03    -27.5336E-03     8.23709E-03     67.4719E-03     151.068E+06    -8.99364E+06    -16.7790E+06    -163.767E+06    -16.8130E+06    -163.733E+06    -8.99364E+06     1.79584E+06
              17     58.3929E-03     6.81175E-03     57.9943E-03     55.1108E-03    -27.5324E-03    -27.5775E-03    -27.3922E-03     54.9707E-03    -27.5775E-03     6.78343E-03     64.3417E-03     169.580E+06    -10.4302E+06    -17.9869E+06    -183.614E+06    -18.0312E+06    -183.570E+06    -10.4302E+06     2.57104E+06
              18     58.2806E-03     5.83859E-03     57.9874E-03     55.0382E-03    -27.4679E-03    -27.5707E-03    -27.3713E-03     54.9416E-03    -27.5707E-03     5.59676E-03     61.7442E-03     174.010E+06    -16.7942E+06    -21.0653E+06    -192.882E+06    -18.7603E+06    -192.866E+06    -19.1154E+06     1.31163E+06
              19     58.1862E-03     4.86479E-03     57.9825E-03     55.0474E-03    -27.4275E-03    -27.6217E-03    -27.3706E-03     54.9905E-03    -27.6217E-03     4.28690E-03     59.8433E-03     181.436E+06    -16.3466E+06    -20.0953E+06    -199.603E+06    -17.7797E+06    -199.597E+06    -18.6677E+06     417.567E+03
              20     58.1094E-03     3.89214E-03     57.9789E-03     55.1894E-03    -27.4851E-03    -27.7050E-03    -27.4648E-03     55.1581E-03    -27.6940E-03     3.16288E-03     58.4070E-03     186.724E+06    -13.5831E+06    -17.4622E+06    -202.205E+06    -16.4337E+06    -202.200E+06    -14.6164E+06    -347.333E+03
              21     58.0496E-03     2.91848E-03     57.9762E-03     55.4347E-03    -27.6279E-03    -27.8067E-03    -27.7010E-03     55.4196E-03    -27.7185E-03     2.18289E-03     57.4804E-03     185.621E+06    -12.6158E+06    -17.7303E+06    -200.734E+06    -16.7118E+06    -200.720E+06    -13.6491E+06     519.615E+03
              22     58.0067E-03     1.94608E-03     57.9740E-03     55.4900E-03    -27.6414E-03    -27.8487E-03    -27.8408E-03     55.4839E-03    -27.6431E-03     1.36728E-03     56.8768E-03     180.000E+06    -15.2774E+06    -19.7234E+06    -197.448E+06    -19.7429E+06    -197.428E+06    -15.2774E+06     1.81574E+06
              23     57.9819E-03     973.410E-06     57.9738E-03     55.0695E-03    -27.1625E-03    -27.9076E-03    -27.6206E-03     55.0664E-03    -27.4463E-03     893.847E-06     56.3757E-03     172.566E+06    -19.7060E+06    -22.9574E+06    -193.864E+06    -22.2271E+06    -193.844E+06    -20.4567E+06     2.35981E+03
              24     56.9176E-03     1.98660E-06     56.9176E-03     55.1797E-03    -27.1860E-03    -27.9933E-03    -27.9924E-03     55.1788E-03    -27.1860E-03     454.420E-06     56.5111E-03     170.895E+06    -22.8430E+06    -24.9252E+06    -194.769E+06    -24.9351E+06    -194.759E+06    -22.8430E+06     324.806E+03
              25     55.8614E-03    -1.67484E-06     55.8614E-03     55.4840E-03    -27.5525E-03    -27.9306E-03    -27.6930E-03     55.4829E-03    -27.7891E-03     530.632E-06     56.7118E-03     172.704E+06    -20.6524E+06    -23.1858E+06    -194.609E+06    -22.0664E+06    -194.589E+06    -21.7913E+06    -242.917E+03
              26     54.8039E-03     1.21832E-06     54.8039E-03     55.4490E-03    -27.4591E-03    -27.9890E-03    -27.7516E-03     55.4481E-03    -27.6957E-03     502.028E-06     56.8429E-03     173.071E+06    -22.5161E+06    -24.2316E+06    -196.438E+06    -22.5397E+06    -196.415E+06    -24.2316E+06    -43.2244E+03
              27     53.7485E-03    -635.145E-09     53.7485E-03     54.7025E-03    -26.9570E-03    -27.7443E-03    -27.2465E-03     54.6986E-03    -27.4510E-03     1.06750E-03     56.0294E-03     174.615E+06    -21.9293E+06    -23.3067E+06    -197.229E+06    -22.7892E+06    -197.169E+06    -22.5058E+06    -1.06375E+06
              28     52.6925E-03    -301.115E-09     52.6925E-03     54.5480E-03    -26.7342E-03    -27.8141E-03    -27.3159E-03     54.5438E-03    -27.2282E-03     1.13709E-03     55.7256E-03     179.028E+06    -19.7644E+06    -21.3180E+06    -199.564E+06    -20.6135E+06    -199.516E+06    -20.5171E+06    -1.81467E+06
              29     51.6382E-03     1.44902E-06     51.6382E-03     54.6720E-03    -27.0378E-03    -27.6340E-03    -27.6326E-03     54.6706E-03    -27.0378E-03     659.441E-06     55.8688E-03     177.589E+06    -21.7550E+06    -22.7650E+06    -199.846E+06    -22.0189E+06    -199.839E+06    -22.5077E+06     965.477E+03
              30     50.5831E-03    -1.40503E-06     50.5831E-03     54.3446E-03    -27.0378E-03    -27.3052E-03    -27.0477E-03     54.3441E-03    -27.2948E-03     367.302E-06     55.4587E-03     175.575E+06    -23.1281E+06    -23.7617E+06    -199.019E+06    -23.3941E+06    -199.010E+06    -23.5044E+06     1.21805E+06
              31     49.5275E-03     919.418E-09     49.5275E-03     54.2370E-03    -26.9367E-03    -27.2998E-03    -26.9359E-03     54.2362E-03    -27.2998E-03     472.570E-06     55.3242E-03     174.963E+06    -24.5755E+06    -24.9630E+06    -199.732E+06    -24.5804E+06    -199.727E+06    -24.9630E+06     928.001E+03
              32     48.4733E-03    -1.10621E-06     48.4733E-03     53.8976E-03    -26.8871E-03    -27.0117E-03    -26.9048E-03     53.8968E-03    -26.9931E-03     189.269E-06     55.1074E-03     174.691E+06    -23.6782E+06    -23.8894E+06    -198.474E+06    -23.8832E+06    -198.469E+06    -23.6893E+06    -53.3824E+03
              33     47.4185E-03     1.16468E-06     47.4185E-03     53.7872E-03    -26.7544E-03    -27.0339E-03    -27.0310E-03     53.7843E-03    -26.7544E-03     523.885E-06     55.0056E-03     174.478E+06    -22.6670E+06    -23.8652E+06    -197.740E+06    -23.9520E+06    -197.653E+06    -22.6670E+06    -3.17870E+06
              34     46.3643E-03    -626.740E-09     46.3643E-03     54.6930E-03    -27.1952E-03    -27.4965E-03    -27.4504E-03     54.6872E-03    -27.2356E-03     1.37375E-03     55.9484E-03     174.191E+06    -22.3946E+06    -26.4296E+06    -198.559E+06    -23.4772E+06    -198.475E+06    -25.4314E+06    -2.88388E+06
              35     45.3067E-03     521.754E-09     45.3067E-03     54.9596E-03    -27.3585E-03    -27.5989E-03    -27.3553E-03     54.9565E-03    -27.5989E-03     882.289E-06     56.3267E-03     172.648E+06    -22.9356E+06    -26.6210E+06    -197.384E+06    -23.6281E+06    -197.341E+06    -25.9724E+06     1.72482E+06
              36     44.2527E-03    -881.814E-09     44.2527E-03     54.5672E-03    -27.0302E-03    -27.5357E-03    -27.3336E-03     54.5652E-03    -27.2303E-03     728.691E-06     55.8613E-03     171.531E+06    -27.3750E+06    -29.4831E+06    -199.949E+06    -29.5389E+06    -199.894E+06    -27.3750E+06     891.220E+03
              37     43.1969E-03     1.51002E-06     43.1969E-03     54.7127E-03    -27.1838E-03    -27.5278E-03    -27.5233E-03     54.7082E-03    -27.1838E-03     1.21159E-03     55.8357E-03     172.532E+06    -25.7617E+06    -29.5317E+06    -200.146E+06    -27.2544E+06    -200.113E+06    -28.0722E+06     322.145E+03
              38     42.1404E-03    -1.45006E-06     42.1404E-03     54.5809E-03    -27.1942E-03    -27.3858E-03    -27.2289E-03     54.5770E-03    -27.3472E-03     1.10658E-03     55.8450E-03     174.904E+06    -23.1762E+06    -27.4195E+06    -200.163E+06    -25.1871E+06    -200.085E+06    -25.4868E+06     3.59060E+06
              39     41.0871E-03     1.19463E-06     41.0871E-03     54.5032E-03    -27.1322E-03    -27.3710E-03    -27.1288E-03     54.4999E-03    -27.3710E-03     1.03402E-03     56.0625E-03     174.831E+06    -20.7602E+06    -24.0726E+06    -197.223E+06    -22.7517E+06    -197.164E+06    -22.1398E+06     1.88242E+06
              40     40.0302E-03    -1.36602E-06     40.0302E-03     54.5774E-03    -27.2231E-03    -27.3528E-03    -27.2195E-03     54.5738E-03    -27.3528E-03     1.08142E-03     56.2253E-03     170.286E+06    -21.0305E+06    -23.4232E+06      -192.5E+06    -21.0337E+06    -192.497E+06    -23.4232E+06    -741.331E+03
              41     38.9758E-03     1.28384E-06     38.9758E-03     54.7496E-03    -27.1772E-03    -27.5723E-03    -27.5251E-03     54.7463E-03    -27.2211E-03     1.04550E-03     56.1327E-03     170.122E+06    -22.3744E+06    -27.6263E+06    -195.039E+06    -26.6650E+06    -194.988E+06    -23.3875E+06    -2.43013E+06
              42     37.9201E-03    -528.443E-09     37.9201E-03     55.1788E-03    -27.2704E-03    -27.9098E-03    -27.9078E-03     55.1768E-03    -27.2704E-03     413.363E-06     56.5560E-03     169.401E+06    -21.9733E+06    -32.3781E+06    -196.327E+06    -26.3055E+06    -196.234E+06    -28.1393E+06    -111.568E+03
              43     36.8651E-03     1.02734E-06     36.8651E-03     55.0152E-03    -27.3255E-03    -27.6902E-03    -27.6900E-03     55.0150E-03    -27.3255E-03    -13.2514E-06     56.5602E-03     166.638E+06    -24.6421E+06    -37.2302E+06    -197.217E+06    -31.1687E+06    -197.112E+06    -30.8081E+06     4.14099E+06
              44     35.8074E-03    -775.997E-09     35.8074E-03     54.8701E-03    -27.3135E-03    -27.5568E-03    -27.5526E-03     54.8659E-03    -27.3135E-03     956.285E-06     56.2269E-03     167.343E+06    -21.5103E+06    -30.7655E+06    -193.259E+06    -28.0025E+06    -193.189E+06    -24.3434E+06     1.33193E+06
              45     34.7529E-03     1.07266E-06     34.7529E-03     54.8668E-03    -27.2701E-03    -27.5956E-03    -27.4319E-03     54.8618E-03    -27.4288E-03     1.20440E-03     56.1088E-03     169.176E+06    -25.4738E+06    -28.3587E+06    -196.056E+06    -25.5355E+06    -196.046E+06    -28.3069E+06    -1.15405E+06
              46     33.6960E-03    -1.36375E-06     33.6960E-03     54.1254E-03    -26.7905E-03    -27.3353E-03    -26.7894E-03     54.1243E-03    -27.3353E-03     557.113E-06     55.4073E-03     167.242E+06    -24.7938E+06    -24.9747E+06    -192.126E+06    -24.9758E+06    -192.125E+06    -24.7938E+06    -367.324E+03
              47     32.6443E-03     629.313E-09     32.6443E-03     54.4418E-03    -26.8136E-03    -27.6306E-03    -27.2435E-03     54.4408E-03    -27.1997E-03     542.448E-06     55.8592E-03     167.897E+06    -25.1109E+06    -26.3830E+06    -193.638E+06    -25.2404E+06    -193.638E+06    -26.2540E+06    -275.566E+03
              48     31.5864E-03     213.027E-09     31.5864E-03     55.3172E-03    -27.3903E-03    -27.9295E-03    -27.9277E-03     55.3155E-03    -27.3903E-03     762.886E-06     56.6452E-03     170.241E+06    -27.1526E+06    -30.2075E+06    -198.899E+06    -29.0860E+06    -198.877E+06    -28.2957E+06     1.14271E+06
              49     30.5299E-03     38.8275E-09     30.5299E-03     54.9395E-03    -27.4158E-03    -27.5246E-03    -27.5210E-03     54.9365E-03    -27.4163E-03     984.220E-06     56.1564E-03     169.510E+06    -24.8158E+06    -27.0961E+06    -195.450E+06    -26.7635E+06    -195.414E+06    -25.1843E+06     209.609E+03
              50     29.4756E-03    -29.1559E-09     29.4756E-03     54.5404E-03    -27.1911E-03    -27.3494E-03    -27.1880E-03     54.5373E-03    -27.3494E-03     978.441E-06     55.9573E-03     166.075E+06    -28.3984E+06    -30.6141E+06    -195.564E+06    -28.4135E+06    -195.549E+06    -30.6141E+06    -970.611E+03
              51     28.4193E-03    -288.519E-09     28.4193E-03     54.5378E-03    -27.1216E-03    -27.4147E-03    -27.2547E-03     54.5355E-03    -27.2794E-03     863.535E-06     56.0651E-03     165.969E+06    -26.3909E+06    -28.4418E+06    -193.369E+06    -26.3916E+06    -193.369E+06    -28.4418E+06    -40.2074E+03
              52     27.3649E-03     564.296E-09     27.3649E-03     54.7452E-03    -27.2026E-03    -27.5407E-03    -27.5370E-03     54.7414E-03    -27.2026E-03     1.09461E-03     56.3584E-03     170.217E+06    -27.1520E+06    -29.1850E+06    -198.370E+06    -28.9890E+06    -198.363E+06    -27.3556E+06    -970.542E+03
              53     26.3086E-03    -132.022E-09     26.3086E-03     54.8308E-03    -27.2069E-03    -27.6251E-03    -27.4058E-03     54.8270E-03    -27.4224E-03     1.11561E-03     56.3637E-03     168.524E+06    -26.8753E+06    -29.1777E+06    -196.534E+06    -28.7228E+06    -196.516E+06    -27.3483E+06    -1.73126E+06
              54     25.2532E-03    -278.631E-09     25.2532E-03     54.3870E-03    -27.0036E-03    -27.3840E-03    -27.1664E-03     54.3849E-03    -27.2190E-03     823.568E-06     55.8044E-03     166.484E+06    -25.3878E+06    -28.1201E+06    -193.214E+06    -25.4505E+06    -193.152E+06    -28.1201E+06     1.14044E+06
              55     24.1982E-03     588.757E-09     24.1982E-03     54.1236E-03    -26.9624E-03    -27.1607E-03    -27.1232E-03     54.1194E-03    -26.9957E-03     1.08516E-03     55.6399E-03     165.999E+06    -27.5584E+06    -31.5657E+06    -195.525E+06    -29.4197E+06    -195.411E+06    -29.8178E+06     4.33521E+06
              56     23.1437E-03    -618.670E-09     23.1437E-03     54.3054E-03    -27.0955E-03    -27.2103E-03    -27.0920E-03     54.3018E-03    -27.2103E-03     834.264E-06     55.6893E-03     166.517E+06    -23.9822E+06    -25.7805E+06    -191.384E+06    -25.8610E+06    -191.253E+06    -24.0326E+06    -168.829E+03
              57     22.0884E-03     478.678E-09     22.0884E-03     53.6906E-03    -26.5775E-03    -27.1134E-03    -27.0318E-03     53.6906E-03    -26.6590E-03     129.149E-06     55.1165E-03     165.416E+06    -29.6184E+06    -29.8003E+06    -195.126E+06    -29.8269E+06    -195.049E+06    -29.6688E+06    -3.19889E+06
              58     21.0349E-03     424.672E-09     21.0349E-03     52.8496E-03    -26.1723E-03    -26.6775E-03    -26.6250E-03     52.8479E-03    -26.2232E-03     569.569E-06     54.3910E-03     165.407E+06    -34.2803E+06    -35.4588E+06    -200.271E+06    -35.4715E+06    -200.258E+06    -34.2803E+06    -1.43878E+06
              59     19.9821E-03    -492.957E-09     19.9821E-03     52.9698E-03    -26.4570E-03    -26.5129E-03    -26.4552E-03     52.9681E-03    -26.5129E-03     585.182E-06     54.2875E-03     167.566E+06    -19.3183E+06    -22.5148E+06    -188.457E+06    -20.3857E+06    -188.437E+06    -21.4678E+06    -1.79038E+06
              60     18.9269E-03     474.146E-09     18.9269E-03     52.5032E-03    -26.1655E-03    -26.3385E-03    -26.3329E-03     52.5028E-03    -26.1707E-03     302.794E-06     53.7409E-03     166.782E+06    -22.9182E+06    -25.3143E+06    -190.877E+06    -23.2214E+06    -190.820E+06    -25.0676E+06     712.053E+03
              61     17.8756E-03    -126.252E-09     17.8756E-03     51.1420E-03    -25.4629E-03    -25.6803E-03    -25.6303E-03     51.1416E-03    -25.5126E-03     161.887E-06     52.4337E-03     163.669E+06    -30.5058E+06    -33.4023E+06    -195.590E+06    -33.4478E+06    -195.544E+06    -30.5058E+06     2.42857E+06
              62     16.8242E-03     79.1945E-09     16.8242E-03     49.5702E-03    -24.7152E-03    -24.8538E-03    -24.8040E-03     49.5700E-03    -24.7648E-03    -233.192E-06     50.8014E-03     161.723E+06    -21.4222E+06    -28.6847E+06    -186.645E+06    -24.1231E+06    -186.594E+06    -26.0349E+06    -1.39772E+06
              63     15.7750E-03     51.6337E-09     15.7750E-03     47.5966E-03    -23.6720E-03    -23.9216E-03    -23.7606E-03     47.5962E-03    -23.8326E-03    -344.497E-06     48.7471E-03     162.042E+06    -19.1464E+06    -25.4156E+06    -184.211E+06    -20.9546E+06    -184.060E+06    -23.7590E+06     917.715E+03
              64     14.7287E-03    -326.761E-09     14.7287E-03     45.1545E-03    -22.4113E-03    -22.7400E-03    -22.4080E-03     45.1513E-03    -22.7400E-03    -818.441E-06     46.2945E-03     162.589E+06    -16.2019E+06    -17.8630E+06    -179.609E+06    -17.9767E+06    -179.496E+06    -16.2019E+06     2.03857E+06
              65     13.6837E-03     11.6767E-09     13.6837E-03     41.5506E-03    -20.5689E-03    -20.9794E-03    -20.8066E-03     41.5460E-03    -20.7371E-03    -1.05468E-03     42.7863E-03     163.015E+06    -17.1286E+06    -17.6167E+06    -180.386E+06    -17.6542E+06    -180.349E+06    -17.1286E+06     665.225E+03
              66     12.6443E-03     492.780E-09     12.6443E-03     37.2575E-03    -18.4771E-03    -18.7807E-03    -18.7172E-03     37.2553E-03    -18.5384E-03    -691.647E-06     38.4462E-03     159.492E+06    -15.9391E+06    -18.0873E+06    -176.491E+06    -16.6523E+06    -176.261E+06    -17.6038E+06     5.50174E+06
              67     11.6098E-03    -606.549E-09     11.6098E-03     32.9341E-03    -16.4265E-03    -16.5085E-03    -16.4385E-03     32.9254E-03    -16.4879E-03    -1.12446E-03     34.0315E-03     160.715E+06    -6.48467E+06    -11.4911E+06    -169.639E+06    -10.0437E+06    -169.422E+06    -8.14934E+06     5.12343E+06
              68     10.5788E-03     705.394E-09     10.5788E-03     28.8903E-03    -14.4344E-03    -14.4560E-03    -14.4479E-03     28.8822E-03    -14.4344E-03    -893.753E-06     30.2072E-03     164.201E+06     1.94563E+06    -3.24700E+06    -164.785E+06    -1.41262E+06    -164.769E+06     94.7528E+03     1.31283E+06
              69     9.55341E-03    -699.338E-09     9.55341E-03     26.1667E-03    -13.0513E-03    -13.1158E-03    -13.1098E-03     26.1607E-03    -13.0513E-03    -710.955E-06     27.8717E-03     163.334E+06     332.562E+03    -3.88645E+06    -165.070E+06    -2.09964E+06    -165.006E+06    -1.51831E+06    -2.09220E+06
              70     8.52754E-03     878.356E-09     8.52754E-03     25.2028E-03    -12.5349E-03    -12.6678E-03    -12.6600E-03     25.1951E-03    -12.5349E-03    -308.993E-06     27.3257E-03     161.511E+06    -5.33652E+06    -9.70247E+06    -168.986E+06    -7.77701E+06    -168.914E+06    -7.33434E+06    -3.09894E+06
              71     7.50358E-03    -745.114E-09     7.50358E-03     26.7625E-03    -13.1918E-03    -13.5709E-03    -13.2579E-03     26.7594E-03    -13.5017E-03     700.884E-06     29.1451E-03     159.511E+06    -14.4900E+06    -17.0187E+06    -175.245E+06    -14.5243E+06    -175.211E+06    -17.0187E+06    -2.26729E+06
              72     6.47523E-03     157.077E-09     6.47523E-03     32.3678E-03    -16.0153E-03    -16.3517E-03    -16.0305E-03     32.3565E-03    -16.3251E-03     1.37754E-03     35.0344E-03     162.042E+06    -21.6961E+06    -22.2572E+06    -184.018E+06    -21.7667E+06    -183.977E+06    -22.2270E+06    -330.542E+03
              73     5.44031E-03    -97.1575E-09     5.44031E-03     42.7899E-03    -21.2603E-03    -21.5275E-03    -21.4981E-03     42.7605E-03    -21.2603E-03     2.73652E-03     45.6934E-03     162.532E+06    -24.6068E+06    -27.7480E+06    -188.664E+06    -27.8405E+06    -188.571E+06    -24.6068E+06    -1.37072E+06
              74     4.38872E-03     596.128E-09     4.38872E-03     57.5308E-03    -28.6082E-03    -28.9193E-03    -28.8010E-03     57.4829E-03    -28.6786E-03     4.06419E-03     60.3573E-03     161.464E+06    -31.7949E+06    -37.6187E+06    -196.092E+06    -35.0332E+06    -195.964E+06    -34.5077E+06    -4.49188E+06
              75     3.32436E-03    -799.650E-09     3.32436E-03     76.0589E-03    -37.8895E-03    -38.1655E-03    -38.0503E-03     76.0142E-03    -37.9599E-03     4.42115E-03     78.7992E-03     163.288E+06    -40.7816E+06    -43.9993E+06    -205.643E+06    -41.3679E+06    -205.562E+06    -43.4944E+06    -3.63726E+06
              76     2.23336E-03     1.15221E-06     2.23336E-03     96.0070E-03    -47.5650E-03    -48.4420E-03    -47.7322E-03     95.9686E-03    -48.2365E-03     4.69129E-03     98.7790E-03     163.310E+06    -45.6454E+06    -48.3903E+06    -210.304E+06    -46.2465E+06    -210.208E+06    -47.8854E+06     683.339E+03
              77     1.12224E-03    -2.60083E-06     1.12224E-03     110.526E-03    -54.6765E-03    -55.8532E-03    -55.1573E-03     110.501E-03    -55.3479E-03     1.72950E-03     113.117E-03     162.922E+06    -52.0321E+06    -56.5747E+06    -217.178E+06    -54.5936E+06    -216.919E+06    -54.2722E+06    -1.65104E+06
              78     943.644E-06     943.644E-06    -14.9012E-09     114.599E-03    -56.8725E-03    -57.7266E-03    -57.3713E-03     114.592E-03    -57.2213E-03     274.785E-06     116.680E-03     164.665E+06    -48.4806E+06    -56.2422E+06    -216.867E+06    -56.4375E+06    -216.672E+06    -48.4806E+06    -4.17210E+06
              79     1.88707E-03     1.88707E-03    -14.9012E-09     111.927E-03    -55.0819E-03    -56.8388E-03    -55.0668E-03     111.911E-03    -56.8388E-03     3.08332E-03     113.559E-03     167.707E+06    -40.2991E+06    -46.2284E+06    -210.835E+06    -46.2596E+06    -210.804E+06    -40.2991E+06    -1.82575E+06
              80     2.83391E-03     2.83391E-03    -14.9012E-09     107.011E-03    -51.3564E-03    -55.6445E-03    -51.3202E-03     106.975E-03    -55.6445E-03     4.67690E-03     108.448E-03     168.134E+06    -41.4830E+06    -44.1139E+06    -210.911E+06    -41.9839E+06    -210.880E+06    -43.6436E+06    -1.66385E+06
              81     3.78547E-03     3.78547E-03    -14.9012E-09     101.115E-03    -47.0867E-03    -54.0184E-03    -47.0246E-03     101.053E-03    -54.0184E-03     6.02924E-03     102.497E-03     165.995E+06    -39.8550E+06    -46.4053E+06    -209.017E+06    -39.8718E+06    -209.000E+06    -46.4053E+06    -1.25009E+06
              82     4.74185E-03     4.74185E-03    -14.9012E-09     95.2153E-03    -43.0315E-03    -52.1852E-03    -42.9481E-03     95.1319E-03    -52.1852E-03     6.76993E-03     96.5247E-03     164.147E+06    -38.9611E+06    -49.4473E+06    -208.093E+06    -39.0275E+06    -208.026E+06    -49.4473E+06    -3.23962E+06
              83     5.70122E-03     5.70122E-03    -14.9012E-09     89.4717E-03    -39.2026E-03    -50.2628E-03    -39.0943E-03     89.3633E-03    -50.2628E-03     7.43472E-03     90.7393E-03     164.784E+06    -35.2832E+06    -56.2254E+06    -209.367E+06    -35.4823E+06    -209.168E+06    -56.2254E+06    -5.70297E+06
              84     6.66536E-03     6.66536E-03    -14.9012E-09     84.4583E-03    -36.1059E-03    -48.3270E-03    -35.9552E-03     84.3076E-03    -48.3270E-03     8.47343E-03     85.8456E-03     166.138E+06    -28.6597E+06    -71.0317E+06    -211.487E+06    -28.9857E+06    -211.161E+06    -71.0317E+06    -7.71023E+06
              85     7.63067E-03     7.63067E-03    -14.9012E-09     79.9585E-03    -33.5022E-03    -46.4423E-03    -33.2955E-03     79.7519E-03    -46.4423E-03     9.63994E-03     81.8518E-03     157.950E+06    -22.2152E+06    -89.8934E+06    -201.951E+06    -22.7337E+06    -201.433E+06    -89.8934E+06    -9.48104E+06
              86     8.59902E-03     8.59902E-03    -14.9012E-09     74.6777E-03    -30.0692E-03    -44.6076E-03    -29.8614E-03     74.4699E-03    -44.6076E-03     9.31372E-03     77.2745E-03     139.012E+06    -14.8181E+06    -103.783E+06    -173.835E+06    -15.3379E+06    -173.315E+06    -103.783E+06    -9.01403E+06
              87     9.57356E-03     9.57356E-03    -14.9012E-09     68.4446E-03    -25.7044E-03    -42.7540E-03    -25.5490E-03     68.2893E-03    -42.7540E-03     7.63198E-03     71.8168E-03     117.677E+06    -8.17075E+06    -110.541E+06    -134.370E+06    -8.77014E+06    -133.696E+06    -110.615E+06    -8.32105E+06
              88     10.5513E-03     10.5513E-03    -14.9012E-09     63.3914E-03    -22.5317E-03    -40.8870E-03    -22.3581E-03     63.2177E-03    -40.8870E-03     7.64021E-03     67.8711E-03     101.282E+06    -4.78913E+06    -82.4557E+06    -113.350E+06    -5.53727E+06    -81.7076E+06    -113.350E+06    -7.51967E+06
              89     11.5308E-03     11.5308E-03    -14.9012E-09     62.4032E-03    -23.2241E-03    -39.2309E-03    -22.8586E-03     62.0376E-03    -39.2309E-03     10.9515E-03     68.7394E-03     104.793E+06     8.42073E+06    -28.3781E+06    -108.890E+06    -4.54175E+06    -15.4156E+06    -108.890E+06    -3.61011E+06
              90     12.5045E-03     12.5045E-03    -14.9012E-09     63.4749E-03    -25.5423E-03    -38.0346E-03    -25.0054E-03     62.9379E-03    -38.0346E-03     13.7840E-03     72.5808E-03     122.534E+06     51.3654E+06    -4.11077E+06    -86.3358E+06    -4.04538E+06     51.3000E+06    -86.3358E+06    -1.53363E+06
              91     13.4774E-03     13.4774E-03    -14.9012E-09     63.6391E-03    -26.3859E-03    -37.2906E-03    -25.6317E-03     62.8849E-03    -37.2906E-03     16.2688E-03     75.5317E-03     127.259E+06     101.180E+06    -2.26328E+06    -37.0771E+06    -4.52789E+06     101.163E+06    -34.7955E+06    -1.28625E+06
              92     14.4520E-03     14.4520E-03    -14.9012E-09     62.9950E-03    -26.1971E-03    -36.7759E-03    -25.0102E-03     61.8081E-03    -36.7759E-03     20.3225E-03     80.1868E-03     127.159E+06     135.401E+06     29.4006E+06    -2.42042E+06    -2.35669E+06     135.337E+06     29.4006E+06    -2.66707E+06
              93     15.4208E-03     15.4208E-03    -14.9012E-09     63.4568E-03    -27.0731E-03    -36.3897E-03    -24.6876E-03     61.0713E-03    -36.3897E-03     28.4230E-03     90.0227E-03     141.894E+06     161.757E+06     96.4402E+06     2.30332E+06     2.58677E+06     161.474E+06     96.4402E+06     2.26462E+06
              94     16.3953E-03     16.3953E-03    -14.9012E-09     95.0314E-03    -32.7043E-03    -62.3877E-03    -50.1227E-03     86.7565E-03    -36.6943E-03     68.8003E-03     131.754E-03     156.982E+06     166.259E+06     138.338E+06    -2.40889E+06    -2.15409E+06     166.004E+06     138.338E+06     5.93965E+06
              95     17.4139E-03     17.3742E-03     1.17519E-03     112.561E-03    -35.9489E-03    -76.6837E-03    -58.8318E-03     94.7094E-03    -35.9489E-03     108.005E-03     184.780E-03     165.040E+06     166.397E+06     146.356E+06    -7.71799E+06    -7.59470E+06     166.274E+06     146.356E+06     4.48263E+06
              96     17.5611E-03     17.4181E-03     2.23650E-03     89.4996E-03    -33.6971E-03    -55.8308E-03    -38.2050E-03     71.8739E-03    -33.6971E-03     94.5487E-03     194.449E-03     167.704E+06     176.898E+06     153.214E+06    -1.38857E+06    -1.22564E+06     176.735E+06     153.214E+06     5.37433E+06
              97     17.7566E-03     17.4517E-03     3.27625E-03     78.9012E-03    -31.5916E-03    -47.3529E-03    -39.9149E-03     71.4631E-03    -31.5916E-03     54.2859E-03     165.698E-03     166.974E+06     176.463E+06     154.948E+06    -217.843E+03    -83.0986E+03     176.329E+06     154.948E+06     4.87680E+06
              98     18.0117E-03     17.4777E-03     4.35326E-03     80.1041E-03    -29.7896E-03    -50.3544E-03    -48.6991E-03     78.4488E-03    -29.7896E-03     28.8213E-03     143.335E-03     167.102E+06     172.486E+06     152.865E+06    -3.56018E+06    -3.45930E+06     172.385E+06     152.865E+06     4.16742E+06
              99     18.3251E-03     17.4974E-03     5.44538E-03     82.2781E-03    -28.5500E-03    -53.7481E-03    -52.2933E-03     80.8233E-03    -28.5500E-03     27.8734E-03     148.242E-03     168.483E+06     173.473E+06     153.891E+06    -3.94558E+06    -3.88466E+06     173.412E+06     153.891E+06     3.27334E+06
             100     18.6915E-03     17.5106E-03     6.53859E-03     81.7916E-03    -27.7708E-03    -54.0325E-03    -51.9350E-03     79.6940E-03    -27.7708E-03     33.3395E-03     161.667E-03     169.832E+06     173.177E+06     153.520E+06    -5.62810E+06    -5.60196E+06     173.151E+06     153.520E+06     1.77794E+06
             101     19.1073E-03     17.5190E-03     7.62703E-03     80.9067E-03    -27.3447E-03    -53.5668E-03    -50.3584E-03     77.6983E-03    -27.3447E-03     40.7590E-03     175.757E-03     169.583E+06     173.607E+06     153.464E+06    -5.14719E+06    -5.12760E+06     173.588E+06     153.464E+06     1.56790E+06
             102     19.5696E-03     17.5216E-03     8.71569E-03     79.9137E-03    -27.1697E-03    -52.7515E-03    -48.4796E-03     75.6418E-03    -27.1697E-03     46.7871E-03     187.626E-03     169.539E+06     173.375E+06     152.438E+06    -5.66015E+06    -5.63199E+06     173.347E+06     152.438E+06     2.21318E+06
             103     20.0748E-03     17.5238E-03     9.79367E-03     77.4928E-03    -27.1329E-03    -50.3773E-03    -45.2172E-03     72.3327E-03    -27.1329E-03     50.2098E-03     195.721E-03     169.009E+06     173.057E+06     151.554E+06    -5.67358E+06    -5.66176E+06     173.046E+06     151.554E+06     1.38185E+06
             104     20.6222E-03     17.5257E-03     10.8684E-03     75.3298E-03    -27.1444E-03    -48.2149E-03    -42.2382E-03     69.3531E-03    -27.1444E-03     52.9936E-03     201.568E-03     169.120E+06     174.444E+06     152.753E+06    -4.47492E+06    -4.46981E+06     174.439E+06     152.753E+06    -23.3556E+03
             105     21.2082E-03     17.5250E-03     11.9440E-03     73.0409E-03    -27.2151E-03    -45.8441E-03    -39.2390E-03     66.4358E-03    -27.2151E-03     54.4127E-03     207.656E-03     169.766E+06     175.403E+06     153.149E+06    -4.39149E+06    -4.38710E+06     175.399E+06     153.149E+06    -96.0346E+03
             106     21.8252E-03     17.5259E-03     13.0070E-03     70.8305E-03    -27.3096E-03    -43.5196E-03    -35.8271E-03     63.1380E-03    -27.3096E-03     57.1965E-03     213.750E-03     169.955E+06     176.394E+06     153.007E+06    -4.04305E+06    -4.03811E+06     176.389E+06     153.007E+06    -145.507E+03
             107     22.4804E-03     17.5253E-03     14.0795E-03     69.6434E-03    -27.4026E-03    -42.2368E-03    -32.9663E-03     60.3729E-03    -27.4026E-03     61.5876E-03     218.376E-03     169.832E+06     177.481E+06     153.595E+06    -3.02872E+06    -3.02539E+06     177.478E+06     153.595E+06    -640.872E+03
             108     23.1581E-03     17.5251E-03     15.1383E-03     68.1992E-03    -27.4892E-03    -40.7086E-03    -30.7202E-03     58.2107E-03    -27.4892E-03     62.8665E-03     222.142E-03     169.986E+06     176.672E+06     153.193E+06    -3.83308E+06    -3.83065E+06     176.669E+06     153.193E+06    -558.316E+03
             109     23.8616E-03     17.5247E-03     16.1945E-03     66.4173E-03    -27.5212E-03    -38.8956E-03    -29.0785E-03     56.6001E-03    -27.5212E-03     61.2355E-03     224.199E-03     170.406E+06     174.527E+06     151.099E+06    -6.38022E+06    -6.36730E+06     174.514E+06     151.099E+06     524.771E+03
             110     24.5951E-03     17.5266E-03     17.2551E-03     66.0197E-03    -27.5384E-03    -38.4790E-03    -27.7943E-03     55.3351E-03    -27.5384E-03     63.2648E-03     226.948E-03     170.705E+06     176.450E+06     152.339E+06    -5.02901E+06    -5.00829E+06     176.429E+06     152.339E+06     23.7873E+03
             111     25.3485E-03     17.5248E-03     18.3147E-03     65.9758E-03    -27.5736E-03    -38.4015E-03    -26.6461E-03     54.2204E-03    -27.5736E-03     65.9878E-03     229.058E-03     170.448E+06     178.058E+06     152.860E+06    -3.58450E+06    -3.56290E+06     178.036E+06     152.860E+06     64.7518E+03
             112     26.1205E-03     17.5265E-03     19.3676E-03     65.5801E-03    -27.5760E-03    -38.0018E-03    -25.8794E-03     53.4577E-03    -27.5760E-03     66.5925E-03     228.790E-03     170.953E+06     178.694E+06     153.094E+06    -3.61490E+06    -3.59735E+06     178.677E+06     153.094E+06     1.76651E+06
             113     26.9121E-03     17.5265E-03     20.4227E-03     65.5001E-03    -27.5541E-03    -37.9472E-03    -25.9175E-03     53.4704E-03    -27.5541E-03     66.3199E-03     227.519E-03     172.038E+06     179.947E+06     153.251E+06    -3.87374E+06    -3.86750E+06     179.940E+06     153.251E+06     614.341E+03
             114     27.7241E-03     17.5261E-03     21.4817E-03     66.1582E-03    -27.5501E-03    -38.6075E-03    -26.2491E-03     53.7997E-03    -27.5501E-03     67.5749E-03     227.725E-03     172.745E+06     180.363E+06     151.495E+06    -4.99590E+06    -4.99534E+06     180.363E+06     151.495E+06     59.5195E+03
             115     28.5465E-03     17.5258E-03     22.5332E-03     66.1686E-03    -27.5519E-03    -38.6129E-03    -26.7190E-03     54.2747E-03    -27.5519E-03     66.4177E-03     228.372E-03     173.841E+06     181.597E+06     153.276E+06    -4.66173E+06    -4.65745E+06     181.592E+06     153.276E+06     791.722E+03
             116     29.3889E-03     17.5262E-03     23.5911E-03     64.5777E-03    -27.5589E-03    -37.0186E-03    -25.7683E-03     53.3274E-03    -27.5589E-03     63.7338E-03     228.256E-03     174.524E+06     182.153E+06     153.998E+06    -4.73445E+06    -4.71673E+06     182.136E+06     153.998E+06    -535.069E+03
             117     30.2400E-03     17.5273E-03     24.6424E-03     65.0101E-03    -27.5454E-03    -37.4596E-03    -25.4602E-03     53.0107E-03    -27.5454E-03     65.8965E-03     228.647E-03     175.316E+06     183.711E+06     154.763E+06    -4.27727E+06    -4.26230E+06     183.696E+06     154.763E+06    -1.46458E+06
             118     31.1103E-03     17.5262E-03     25.7038E-03     66.6310E-03    -27.5509E-03    -39.0754E-03    -26.2969E-03     53.8525E-03    -27.5509E-03     68.9105E-03     228.247E-03     175.375E+06     185.287E+06     156.127E+06    -2.84012E+06    -2.83397E+06     185.281E+06     156.127E+06     358.248E+03
             119     31.9887E-03     17.5255E-03     26.7607E-03     66.1331E-03    -27.5808E-03    -38.5533E-03    -25.3633E-03     52.9431E-03    -27.5808E-03     69.4770E-03     228.788E-03     175.215E+06     182.947E+06     153.000E+06    -5.31149E+06    -5.29625E+06     182.931E+06     153.000E+06     1.66870E+06
             120     32.8683E-03     17.5272E-03     27.8051E-03     64.6992E-03    -27.5551E-03    -37.1412E-03    -25.0812E-03     52.6392E-03    -27.5551E-03     65.7431E-03     228.482E-03     175.463E+06     183.384E+06     153.112E+06    -5.24568E+06    -5.23176E+06     183.370E+06     153.112E+06     393.405E+03
             121     33.7706E-03     17.5267E-03     28.8664E-03     64.6140E-03    -27.5319E-03    -37.0745E-03    -25.5178E-03     53.0573E-03    -27.5319E-03     64.5307E-03     228.191E-03     175.189E+06     183.716E+06     153.821E+06    -4.49607E+06    -4.48904E+06     183.709E+06     153.821E+06    -1.15023E+06
             122     34.6748E-03     17.5269E-03     29.9190E-03     65.4643E-03    -27.5375E-03    -37.9242E-03    -25.7644E-03     53.3045E-03    -27.5375E-03     66.6127E-03     228.635E-03     175.668E+06     183.467E+06     154.081E+06    -5.04074E+06    -5.02804E+06     183.454E+06     154.081E+06     380.087E+03
             123     35.5903E-03     17.5264E-03     30.9757E-03     66.2548E-03    -27.5438E-03    -38.7138E-03    -26.1728E-03     53.7137E-03    -27.5438E-03     68.0873E-03     228.670E-03     176.561E+06     185.572E+06     156.544E+06    -3.70413E+06    -3.69475E+06     185.563E+06     156.544E+06     916.995E+03
             124     36.5158E-03     17.5268E-03     32.0346E-03     67.0063E-03    -27.5445E-03    -39.4614E-03    -26.0540E-03     53.5989E-03    -27.5445E-03     70.6343E-03     229.620E-03     177.035E+06     186.263E+06     156.762E+06    -3.66839E+06    -3.66782E+06     186.262E+06     156.762E+06     207.088E+03
             125     37.4422E-03     17.5270E-03     33.0866E-03     66.2722E-03    -27.5552E-03    -38.7150E-03    -25.8575E-03     53.4147E-03    -27.5552E-03     68.7929E-03     228.527E-03     177.719E+06     187.733E+06     157.952E+06    -2.99443E+06    -2.98072E+06     187.719E+06     157.952E+06     1.35250E+06
             126     38.3774E-03     17.5260E-03     34.1419E-03     64.9352E-03    -27.5946E-03    -37.3462E-03    -25.1812E-03     52.7702E-03    -27.5946E-03     66.2069E-03     227.330E-03     178.807E+06     187.325E+06     156.872E+06    -4.75128E+06    -4.72481E+06     187.298E+06     156.872E+06     2.25463E+06
             127     39.3168E-03     17.5263E-03     35.1943E-03     63.6751E-03    -27.5956E-03    -36.0839E-03    -24.2303E-03     51.8215E-03    -27.5956E-03     64.5458E-03     226.994E-03     179.711E+06     186.146E+06     153.600E+06    -7.61156E+06    -7.59450E+06     186.129E+06     153.600E+06     529.872E+03
             128     40.2594E-03     17.5274E-03     36.2437E-03     63.4695E-03    -27.5580E-03    -35.9148E-03    -24.9710E-03     52.5257E-03    -27.5580E-03     62.2073E-03     226.633E-03     180.153E+06     190.611E+06     157.779E+06    -3.69878E+06    -3.68061E+06     190.593E+06     157.779E+06    -1.78579E+06
             129     41.2145E-03     17.5265E-03     37.3023E-03     65.4557E-03    -27.5094E-03    -37.9553E-03    -26.9275E-03     54.4279E-03    -27.5094E-03     63.8363E-03     227.469E-03     180.403E+06     190.927E+06     158.639E+06    -3.43914E+06    -3.42449E+06     190.913E+06     158.639E+06    -1.32447E+06
             130     42.1766E-03     17.5272E-03     38.3623E-03     67.0350E-03    -27.5000E-03    -39.5407E-03    -27.4397E-03     54.9340E-03    -27.5000E-03     67.5910E-03     228.506E-03     181.079E+06     189.998E+06     156.902E+06    -5.34593E+06    -5.34571E+06     189.998E+06     156.902E+06    -144.074E+03
             131     43.1415E-03     17.5261E-03     39.4211E-03     67.4738E-03    -27.5427E-03    -39.9279E-03    -26.3911E-03     53.9370E-03    -27.5427E-03     71.2628E-03     229.474E-03     181.296E+06     191.821E+06     158.082E+06    -3.97451E+06    -3.96714E+06     191.813E+06     158.082E+06     846.742E+03
             132     44.1081E-03     17.5268E-03     40.4764E-03     66.4272E-03    -27.5864E-03    -38.8389E-03    -25.1811E-03     52.7694E-03    -27.5864E-03     70.7389E-03     229.467E-03     181.353E+06     191.458E+06     157.571E+06    -4.44826E+06    -4.44083E+06     191.451E+06     157.571E+06     930.694E+03
             133     45.0718E-03     17.5258E-03     41.5249E-03     65.4761E-03    -27.5810E-03    -37.8976E-03    -25.3607E-03     52.9392E-03    -27.5810E-03     67.4680E-03     228.967E-03     181.501E+06     190.819E+06     156.936E+06    -5.23548E+06    -5.22981E+06     190.813E+06     156.936E+06     823.190E+03
             134     46.0471E-03     17.5272E-03     42.5809E-03     66.1651E-03    -27.5387E-03    -38.6312E-03    -26.5628E-03     54.0967E-03    -27.5387E-03     66.9052E-03     229.203E-03     181.288E+06     191.593E+06     157.795E+06    -4.21557E+06    -4.20508E+06     191.582E+06     157.795E+06     50.8406E+03
             135     47.0294E-03     17.5260E-03     43.6417E-03     67.1045E-03    -27.5482E-03    -39.5625E-03    -26.6329E-03     54.1748E-03    -27.5482E-03     69.5961E-03     229.817E-03     182.062E+06     192.674E+06     158.556E+06    -4.03396E+06    -4.02296E+06     192.663E+06     158.556E+06     87.0896E+03
             136     48.0100E-03     17.5266E-03     44.6965E-03     66.4002E-03    -27.5633E-03    -38.8397E-03    -25.6472E-03     53.2077E-03    -27.5633E-03     69.6910E-03     229.133E-03     182.934E+06     192.041E+06     156.729E+06    -5.97269E+06    -5.96635E+06     192.034E+06     156.729E+06     629.282E+03
             137     48.9888E-03     17.5272E-03     45.7461E-03     64.5646E-03    -27.5448E-03    -37.0212E-03    -25.4865E-03     53.0299E-03    -27.5448E-03     64.3837E-03     227.758E-03     183.469E+06     194.101E+06     158.740E+06    -4.47217E+06    -4.47169E+06     194.101E+06     158.740E+06     10.0117E+03
             138     49.9740E-03     17.5269E-03     46.7997E-03     64.1319E-03    -27.5198E-03    -36.6120E-03    -26.1381E-03     53.6580E-03    -27.5198E-03     61.4972E-03     226.284E-03     184.033E+06     195.031E+06     159.460E+06    -4.18877E+06    -4.18772E+06     195.030E+06     159.460E+06    -123.228E+03
             139     50.9675E-03     17.5274E-03     47.8589E-03     65.7443E-03    -27.5222E-03    -38.2203E-03    -26.6989E-03     54.2229E-03    -27.5222E-03     65.2358E-03     226.911E-03     183.934E+06     195.432E+06     159.399E+06    -3.85138E+06    -3.84943E+06     195.430E+06     159.399E+06     56.2567E+03
             140     51.9645E-03     17.5257E-03     48.9199E-03     66.6232E-03    -27.5661E-03    -39.0583E-03    -26.4530E-03     54.0179E-03    -27.5661E-03     68.5019E-03     228.955E-03     184.395E+06     194.907E+06     159.619E+06    -4.58247E+06    -4.57912E+06     194.903E+06     159.619E+06     807.080E+03
             141     52.9550E-03     17.5265E-03     49.9706E-03     65.4199E-03    -27.5964E-03    -37.8262E-03    -25.5483E-03     53.1421E-03    -27.5964E-03     66.8350E-03     228.938E-03     184.895E+06     194.288E+06     158.738E+06    -5.79983E+06    -5.79761E+06     194.286E+06     158.738E+06     509.047E+03
             142     53.9502E-03     17.5261E-03     51.0241E-03     64.9890E-03    -27.5891E-03    -37.3981E-03    -25.7214E-03     53.3123E-03    -27.5891E-03     65.0866E-03     228.130E-03     184.991E+06     196.127E+06     160.712E+06    -4.01093E+06    -4.01069E+06     196.126E+06     160.712E+06    -107.664E+03
             143     54.9516E-03     17.5265E-03     52.0817E-03     65.7341E-03    -27.5960E-03    -38.1374E-03    -26.2868E-03     53.8834E-03    -27.5960E-03     66.0416E-03     228.297E-03     185.063E+06     197.071E+06     162.014E+06    -3.01308E+06    -3.01123E+06     197.069E+06     162.014E+06     255.491E+03
             144     55.9547E-03     17.5248E-03     53.1395E-03     65.5529E-03    -27.6283E-03    -37.9261E-03    -25.5973E-03     53.2241E-03    -27.6283E-03     67.0392E-03     228.775E-03     184.795E+06     195.049E+06     158.346E+06    -5.33888E+06    -5.33686E+06     195.047E+06     158.346E+06     601.976E+03
             145     56.9540E-03     17.5261E-03     54.1904E-03     65.1600E-03    -27.6222E-03    -37.5395E-03    -25.5386E-03     53.1590E-03    -27.6222E-03     65.9633E-03     229.239E-03     184.627E+06     193.576E+06     156.571E+06    -6.74764E+06    -6.73287E+06     193.561E+06     156.571E+06    -1.00072E+06
             146     57.9577E-03     17.5254E-03     55.2445E-03     65.7755E-03    -27.5914E-03    -38.1863E-03    -26.7460E-03     54.3352E-03    -27.5914E-03     65.0662E-03     228.930E-03     185.016E+06     196.627E+06     160.965E+06    -3.62371E+06    -3.60884E+06     196.612E+06     160.965E+06    -978.400E+03
             147     58.9718E-03     17.5261E-03     56.3073E-03     66.0405E-03    -27.5985E-03    -38.4404E-03    -26.3824E-03     53.9825E-03    -27.5985E-03     66.7268E-03     228.441E-03     185.122E+06     197.808E+06     161.814E+06    -2.66741E+06    -2.66601E+06     197.806E+06     161.814E+06    -80.1804E+03
             148     59.9759E-03     17.5257E-03     57.3581E-03     65.9719E-03    -27.6097E-03    -38.3613E-03    -25.9965E-03     53.6070E-03    -27.6097E-03     67.4319E-03     228.214E-03     185.126E+06     195.664E+06     158.772E+06    -5.13008E+06    -5.12915E+06     195.663E+06     158.772E+06    -350.817E+03
             149     61.9977E-03     17.5251E-03     59.4692E-03     64.1274E-03    -27.6449E-03    -36.4834E-03    -25.2210E-03     52.8650E-03    -27.6449E-03     63.4429E-03     227.791E-03     185.276E+06     196.014E+06     158.547E+06    -5.13117E+06    -5.12845E+06     196.012E+06     158.547E+06     227.087E+03
             150     63.0079E-03     17.5263E-03     60.5213E-03     64.4966E-03    -27.6110E-03    -36.8860E-03    -25.0716E-03     52.6821E-03    -27.6110E-03     65.0508E-03     228.440E-03     185.140E+06     196.260E+06     158.153E+06    -4.96865E+06    -4.96610E+06     196.257E+06     158.153E+06    -685.447E+03
             151     64.0284E-03     17.5262E-03     61.5830E-03     66.8465E-03    -27.5859E-03    -39.2627E-03    -26.2360E-03     53.8198E-03    -27.5859E-03     69.6375E-03     229.349E-03     185.520E+06     199.314E+06     160.833E+06    -2.42856E+06    -2.42014E+06     199.305E+06     160.833E+06     359.680E+03
             152     65.0462E-03     17.5253E-03     62.6408E-03     67.4152E-03    -27.6244E-03    -39.7949E-03    -25.8811E-03     53.5014E-03    -27.6244E-03     72.0456E-03     229.732E-03     186.606E+06     199.041E+06     159.587E+06    -4.13679E+06    -4.13017E+06     199.034E+06     159.587E+06     945.878E+03
             153     66.0593E-03     17.5252E-03     63.6922E-03     65.6785E-03    -27.6426E-03    -38.0408E-03    -24.6734E-03     52.3111E-03    -27.6426E-03     69.4865E-03     228.420E-03     186.995E+06     198.110E+06     156.827E+06    -6.07389E+06    -6.05483E+06     198.091E+06     156.827E+06     1.52792E+06
             154     67.0715E-03     17.5267E-03     64.7411E-03     64.2940E-03    -27.5874E-03    -36.7114E-03    -24.9979E-03     52.5804E-03    -27.5874E-03     64.6389E-03     226.480E-03     187.088E+06     199.805E+06     157.622E+06    -4.77353E+06    -4.75462E+06     199.786E+06     157.622E+06     1.44513E+06
             155     68.0905E-03     17.5268E-03     65.7961E-03     63.8176E-03    -27.5444E-03    -36.2737E-03    -25.4712E-03     53.0150E-03    -27.5444E-03     62.1139E-03     225.752E-03     187.707E+06     200.586E+06     158.211E+06    -4.68578E+06    -4.68295E+06     200.583E+06     158.211E+06    -480.603E+03
             156     69.1140E-03     17.5271E-03     66.8547E-03     64.6707E-03    -27.5514E-03    -37.1192E-03    -25.4807E-03     53.0321E-03    -27.5514E-03     64.7466E-03     227.538E-03     188.445E+06     201.446E+06     158.622E+06    -4.72569E+06    -4.71774E+06     201.438E+06     158.622E+06    -1.26604E+06
             157     70.1331E-03     17.5262E-03     67.9079E-03     65.7138E-03    -27.5195E-03    -38.1941E-03    -26.5569E-03     54.0765E-03    -27.5195E-03     65.4689E-03     228.294E-03     188.496E+06     200.604E+06     157.696E+06    -5.64670E+06    -5.64127E+06     200.599E+06     157.696E+06    -562.064E+03
             158     71.1567E-03     17.5278E-03     68.9642E-03     66.0357E-03    -27.4949E-03    -38.5416E-03    -27.0821E-03     54.5762E-03    -27.4949E-03     65.2947E-03     227.700E-03     188.391E+06     202.576E+06     159.597E+06    -3.59134E+06    -3.58991E+06     202.574E+06     159.597E+06    -177.590E+03
             159     72.1862E-03     17.5264E-03     70.0263E-03     66.5246E-03    -27.5266E-03    -39.0023E-03    -26.4106E-03     53.9329E-03    -27.5266E-03     68.4087E-03     228.190E-03     188.770E+06     202.976E+06     159.638E+06    -3.69418E+06    -3.68503E+06     202.966E+06     159.638E+06     564.724E+03
             160     73.2076E-03     17.5267E-03     71.0786E-03     65.6018E-03    -27.5566E-03    -38.0545E-03    -25.5438E-03     53.0911E-03    -27.5566E-03     67.5339E-03     228.399E-03     189.356E+06     202.164E+06     157.794E+06    -5.43658E+06    -5.42816E+06     202.156E+06     157.794E+06     1.12031E+06
             161     74.2286E-03     17.5266E-03     72.1297E-03     64.8223E-03    -27.5423E-03    -37.2852E-03    -25.3132E-03     52.8502E-03    -27.5423E-03     65.6978E-03     228.924E-03     189.719E+06     203.526E+06     157.595E+06    -4.93999E+06    -4.93722E+06     203.523E+06     157.595E+06     705.489E+03
             162     75.2585E-03     17.5275E-03     73.1890E-03     66.2940E-03    -27.5185E-03    -38.7674E-03    -25.9771E-03     53.5037E-03    -27.5185E-03     68.6815E-03     230.024E-03     190.498E+06     204.768E+06     157.846E+06    -4.80693E+06    -4.80357E+06     204.765E+06     157.846E+06     169.701E+03
             163     76.2876E-03     17.5262E-03     74.2471E-03     67.5196E-03    -27.5453E-03    -39.9742E-03    -26.0138E-03     53.5593E-03    -27.5453E-03     72.2665E-03     230.544E-03     190.902E+06     205.958E+06     159.039E+06    -4.02932E+06    -4.01401E+06     205.942E+06     159.039E+06     899.120E+03
             164     77.3154E-03     17.5267E-03     75.3027E-03     66.7050E-03    -27.5615E-03    -39.1482E-03    -24.9879E-03     52.5446E-03    -27.5615E-03     72.0653E-03     229.957E-03     190.922E+06     205.498E+06     157.212E+06    -4.92651E+06    -4.91014E+06     205.482E+06     157.212E+06     756.005E+03
             165     78.3360E-03     17.5275E-03     76.3499E-03     66.3459E-03    -27.5297E-03    -38.8178E-03    -25.9052E-03     53.4332E-03    -27.5297E-03     68.9127E-03     228.961E-03     191.465E+06     207.162E+06     158.714E+06    -3.86847E+06    -3.86623E+06     207.160E+06     158.714E+06    -600.331E+03
             166     79.3696E-03     17.5260E-03     77.4104E-03     66.3314E-03    -27.5089E-03    -38.8257E-03    -27.0265E-03     54.5322E-03    -27.5089E-03     66.3766E-03     227.926E-03     191.564E+06     207.757E+06     158.893E+06    -3.49959E+06    -3.49865E+06     207.757E+06     158.893E+06     153.839E+03
             167     80.3981E-03     17.5274E-03     78.4643E-03     65.7377E-03    -27.5115E-03    -38.2206E-03    -26.1539E-03     53.6709E-03    -27.5115E-03     66.5949E-03     227.415E-03     191.555E+06     206.767E+06     156.469E+06    -4.91864E+06    -4.91407E+06     206.763E+06     156.469E+06    -348.064E+03
             168     81.4285E-03     17.5269E-03     79.5198E-03     64.8995E-03    -27.5364E-03    -37.3588E-03    -25.5720E-03     53.1127E-03    -27.5364E-03     65.3040E-03     226.868E-03     191.795E+06     207.959E+06     157.791E+06    -3.93366E+06    -3.92934E+06     207.955E+06     157.791E+06    -870.161E+03
             169     82.4587E-03     17.5262E-03     80.5746E-03     65.0780E-03    -27.5617E-03    -37.5176E-03    -25.4743E-03     53.0347E-03    -27.5617E-03     66.0276E-03     226.940E-03     192.065E+06     208.477E+06     158.006E+06    -3.78417E+06    -3.76138E+06     208.454E+06     158.006E+06     1.30169E+06
             170     83.4904E-03     17.5269E-03     81.6300E-03     65.2222E-03    -27.5533E-03    -37.6735E-03    -25.4221E-03     52.9709E-03    -27.5533E-03     66.6405E-03     227.033E-03     192.594E+06     206.878E+06     155.615E+06    -6.16020E+06    -6.13516E+06     206.853E+06     155.615E+06     993.980E+03
             171     84.5219E-03     17.5267E-03     82.6848E-03     65.0737E-03    -27.5361E-03    -37.5403E-03    -25.6041E-03     53.1375E-03    -27.5361E-03     65.7980E-03     228.287E-03     193.020E+06     208.066E+06     155.039E+06    -5.92266E+06    -5.91883E+06     208.063E+06     155.039E+06    -206.496E+03
             172     85.5527E-03     17.5268E-03     83.7382E-03     65.5565E-03    -27.5165E-03    -38.0377E-03    -25.9760E-03     53.4948E-03    -27.5165E-03     66.4538E-03     229.424E-03     193.537E+06     210.313E+06     155.854E+06    -4.61883E+06    -4.61769E+06     210.312E+06     155.854E+06     428.390E+03
             173     86.5910E-03     17.5273E-03     84.7985E-03     65.9167E-03    -27.5266E-03    -38.3901E-03    -25.1821E-03     52.7087E-03    -27.5266E-03     69.2951E-03     229.825E-03     194.045E+06     211.649E+06     155.711E+06    -4.21762E+06    -4.21242E+06     211.644E+06     155.711E+06     834.782E+03
             174     87.6239E-03     17.5272E-03     85.8530E-03     65.9433E-03    -27.5601E-03    -38.3836E-03    -24.3854E-03     51.9450E-03    -27.5601E-03     71.1120E-03     229.830E-03     194.873E+06     213.620E+06     156.293E+06    -3.48678E+06    -3.48164E+06     213.615E+06     156.293E+06     688.257E+03
             175     88.6524E-03     17.5264E-03     86.9026E-03     65.8972E-03    -27.5447E-03    -38.3538E-03    -25.1890E-03     52.7324E-03    -27.5447E-03     69.2403E-03     228.441E-03     194.887E+06     213.670E+06     155.778E+06    -3.60251E+06    -3.60146E+06     213.669E+06     155.778E+06     277.327E+03
             176     89.6890E-03     17.5272E-03     87.9598E-03     65.2690E-03    -27.5176E-03    -37.7516E-03    -25.3920E-03     52.9093E-03    -27.5176E-03     66.9470E-03     227.675E-03     195.048E+06     212.903E+06     153.297E+06    -4.99055E+06    -4.98950E+06     212.902E+06     153.297E+06     278.784E+03
             177     90.7210E-03     17.5271E-03     89.0118E-03     65.0278E-03    -27.4886E-03    -37.5388E-03    -25.2919E-03     52.7809E-03    -27.4886E-03     66.5165E-03     228.006E-03     194.625E+06     213.195E+06     151.143E+06    -4.88574E+06    -4.88163E+06     213.190E+06     151.143E+06     611.274E+03
             178     91.7571E-03     17.5281E-03     90.0674E-03     64.9730E-03    -27.4238E-03    -37.5496E-03    -25.2848E-03     52.7082E-03    -27.4238E-03     66.5426E-03     227.619E-03     194.205E+06     213.393E+06     147.917E+06    -5.07714E+06    -5.07236E+06     213.389E+06     147.917E+06     387.294E+03
             179     92.7934E-03     17.5297E-03     91.1226E-03     64.8558E-03    -27.3906E-03    -37.4648E-03    -24.4250E-03     51.8160E-03    -27.3906E-03     68.1913E-03     227.520E-03     193.167E+06     214.945E+06     147.122E+06    -2.98634E+06    -2.98494E+06     214.943E+06     147.122E+06    -553.933E+03
             180     93.8307E-03     17.5290E-03     92.1788E-03     64.2690E-03    -27.3320E-03    -36.9366E-03    -23.4989E-03     50.8313E-03    -27.3320E-03     68.6785E-03     227.306E-03     191.096E+06     214.105E+06     139.324E+06    -2.95580E+06    -2.95489E+06     214.104E+06     139.324E+06    -127.916E+03
             181     94.8573E-03     17.5319E-03     93.2231E-03     63.3618E-03    -27.1439E-03    -36.2184E-03    -23.6050E-03     50.7484E-03    -27.1439E-03     66.2347E-03     226.210E-03     187.716E+06     210.114E+06     125.523E+06    -4.96501E+06    -4.96480E+06     210.114E+06     125.523E+06     173.780E+03
             182     95.8956E-03     17.5350E-03     94.2788E-03     63.2839E-03    -26.9490E-03    -36.3371E-03    -24.2542E-03     51.2011E-03    -26.9490E-03     65.0404E-03     225.469E-03     185.265E+06     209.320E+06     120.087E+06    -3.66942E+06    -3.64997E+06     209.300E+06     120.087E+06    -1.41708E+06
             183     96.9352E-03     17.5360E-03     95.3359E-03     63.6969E-03    -26.7523E-03    -36.9474E-03    -23.8540E-03     50.6035E-03    -26.7523E-03     67.6329E-03     226.049E-03     181.167E+06     204.683E+06     107.154E+06    -4.10464E+06    -4.07696E+06     204.656E+06     107.154E+06    -2.35852E+06
             184     97.9654E-03     17.5412E-03     96.3822E-03     63.5188E-03    -26.4379E-03    -37.0832E-03    -23.8779E-03     50.3135E-03    -26.4379E-03     67.8791E-03     225.459E-03     173.841E+06     197.903E+06     87.3110E+06    -2.22648E+06    -2.15257E+06     197.829E+06     87.3110E+06    -3.45697E+06
             185     99.0046E-03     17.5447E-03     97.4377E-03     64.1049E-03    -26.0872E-03    -38.0167E-03    -24.7616E-03     50.8497E-03    -26.0872E-03     68.5947E-03     225.599E-03     168.742E+06     192.248E+06     75.0407E+06    -1.13841E+06    -1.06990E+06     192.180E+06     75.0407E+06    -2.02193E+06
             186     100.044E-03     17.5510E-03     98.4925E-03     64.1468E-03    -25.7365E-03    -38.4069E-03    -24.6471E-03     50.3869E-03    -25.7365E-03     69.8986E-03     226.965E-03     163.288E+06     185.211E+06     69.9377E+06    -1.64179E+06    -1.63895E+06     185.209E+06     69.9377E+06     527.680E+03
             187     101.075E-03     17.5583E-03     99.5384E-03     61.9564E-03    -25.3072E-03    -36.6479E-03    -25.1724E-03     50.4809E-03    -25.3072E-03     63.0932E-03     227.010E-03     159.274E+06     176.323E+06     64.1142E+06    -5.97614E+06    -5.78521E+06     176.132E+06     64.1142E+06    -4.14217E+06
             188     102.107E-03     17.5647E-03     100.585E-03     62.3893E-03    -24.8870E-03    -37.5010E-03    -29.1996E-03     54.0879E-03    -24.8870E-03     54.7342E-03     227.833E-03     146.976E+06     162.631E+06     65.5660E+06    -6.25485E+06    -5.24303E+06     161.619E+06     65.5660E+06    -12.1343E+06
             189     103.156E-03     17.5671E-03     101.649E-03     66.4267E-03    -24.6169E-03    -41.8085E-03    -34.8676E-03     59.4858E-03    -24.6169E-03     53.0300E-03     230.596E-03     121.483E+06     139.655E+06     73.8672E+06    -133.845E+03     1.37411E+06     138.147E+06     73.8672E+06    -14.4381E+06
             190     104.208E-03     17.5682E-03     102.716E-03     70.9261E-03    -24.5299E-03    -46.3980E-03    -38.9601E-03     63.4882E-03    -24.5299E-03     57.1776E-03     233.218E-03     110.836E+06     109.228E+06     83.6984E+06    -10.0632E+06    -7.60757E+06     106.773E+06     83.6984E+06    -16.4241E+06
             191     105.263E-03     17.5696E-03     103.787E-03     73.8822E-03    -24.4610E-03    -49.4256E-03    -41.7426E-03     66.1992E-03    -24.4610E-03     59.6075E-03     233.772E-03     91.3911E+06     94.4357E+06     73.1680E+06    -2.84452E+06     209.614E+03     71.3838E+06     93.1657E+06    -14.7837E+06
             192     106.315E-03     17.5716E-03     104.853E-03     76.2333E-03    -24.3056E-03    -51.9290E-03    -45.7432E-03     70.0475E-03    -24.3056E-03     54.4017E-03     231.653E-03     81.0360E+06     87.2656E+06     42.3157E+06    -6.24794E+06    -1.90417E+06     37.9719E+06     87.2656E+06    -13.7641E+06
             193     107.369E-03     17.5705E-03     105.922E-03     80.2691E-03    -24.0979E-03    -56.1700E-03    -52.6786E-03     76.7777E-03    -24.0979E-03     42.2445E-03     224.322E-03     95.6163E+06     74.2159E+06     22.6625E+06    -36.1101E+06    -9.58348E+06    -3.86408E+06     74.2159E+06    -20.8678E+06
             194     108.430E-03     17.5716E-03     106.997E-03     88.3482E-03    -23.7477E-03    -64.6012E-03    -62.6791E-03     86.4260E-03    -23.7477E-03     33.7434E-03     214.251E-03     100.997E+06     55.9085E+06     10.9795E+06    -59.2865E+06     2.26792E+06    -50.5750E+06     55.9085E+06    -21.9822E+06
             195     109.515E-03     17.5724E-03     108.096E-03     99.3394E-03    -23.3791E-03    -75.9605E-03    -74.4716E-03     97.8506E-03    -23.3791E-03     32.1383E-03     206.017E-03     118.344E+06     47.8813E+06     6.16268E+06    -85.6722E+06     3.39538E+06    -82.9049E+06     47.8813E+06    -12.4068E+06
             196     110.611E-03     17.5729E-03     109.206E-03     111.273E-03    -23.1010E-03    -88.1720E-03    -86.8254E-03     109.927E-03    -23.1010E-03     32.5842E-03     200.685E-03     140.580E+06     61.6442E+06     2.21918E+06    -98.6212E+06     2.10120E+06    -98.5032E+06     61.6442E+06    -1.62349E+06
             197     111.716E-03     17.5735E-03     110.325E-03     122.762E-03    -22.8269E-03    -99.9318E-03    -98.8178E-03     121.648E-03    -22.8269E-03     31.3167E-03     195.612E-03     153.330E+06     78.3389E+06     7.80594E+06    -97.5280E+06     5.75162E+06    -95.4737E+06     78.3389E+06     11.1795E+06
             198     112.844E-03     17.5733E-03     111.468E-03     133.913E-03    -22.5454E-03    -111.369E-03    -109.501E-03     132.046E-03    -22.5454E-03     41.5840E-03     200.338E-03     154.607E+06     86.6124E+06    -8.09905E+06    -88.7055E+06    -10.2504E+06    -86.5542E+06     86.6124E+06     8.82502E+06
             199     113.989E-03     17.5759E-03     112.626E-03     145.465E-03    -22.1068E-03    -123.363E-03    -118.002E-03     140.104E-03    -22.1068E-03     73.0713E-03     223.664E-03     164.969E+06     84.1113E+06    -6.72224E+06    -101.481E+06    -8.60797E+06    -99.5956E+06     84.1113E+06    -12.6290E+06
             200     115.162E-03     17.5861E-03     113.811E-03     150.751E-03    -21.7477E-03    -129.006E-03    -117.196E-03     138.942E-03    -21.7477E-03     110.798E-03     237.124E-03     146.131E+06     59.5515E+06       21.26E+06    -101.299E+06     18.4011E+06    -90.7691E+06     51.8809E+06     10.2862E+06
             201     116.327E-03     17.5747E-03     114.992E-03     136.346E-03    -22.7541E-03    -113.591E-03    -84.4451E-03     107.200E-03    -22.7541E-03     151.401E-03     204.565E-03     93.2403E+06     30.6563E+06     9.72552E+06    -70.7911E+06    -17.0957E+06    -36.2993E+06     22.9857E+06     28.3690E+06
             202     117.408E-03     17.5677E-03     116.087E-03     70.1167E-03    -4.60774E-03    -65.5077E-03    -19.6712E-03     47.7689E-03    -28.0964E-03     88.7464E-03     103.715E-03     115.266E+06     31.0833E+06     2.51305E+06    -95.4780E+06    -8.03137E+06     674.200E+03    -54.5245E+06     5.77459E+06
             203     117.925E-03     16.3155E-03     116.791E-03     32.9561E-03    -65.4235E-06    -32.8913E-03     971.311E-06     31.9194E-03    -32.8913E-03     223.107E-06     51.3124E-03     118.674E+06     52.4993E+06     13.7487E+06    -78.8313E+06     11.1817E+06     9.34351E+06    -33.1085E+06     7.64448E+06
             204     117.565E-03     15.3661E-03     116.557E-03     61.0049E-03    -23.2288E-03    -37.7760E-03    -28.3966E-03     60.9626E-03    -32.5660E-03     1.32609E-03     80.4833E-03     78.6851E+06     62.3792E+06     1.82791E+06    -24.1392E+06    -18.2340E+06    -4.07727E+06     62.3792E+06     10.7445E+06
             205     117.194E-03     14.4577E-03     116.298E-03     65.7928E-03    -29.8387E-03    -35.9550E-03    -34.9981E-03     65.7421E-03    -30.7450E-03     688.901E-06     80.3274E-03     68.8400E+06     54.1928E+06     9.87337E+06    -19.3012E+06    -13.2227E+06     3.79483E+06     54.1928E+06    -8.09368E+06
             206     116.892E-03     13.5240E-03     116.107E-03     60.1822E-03    -28.2856E-03    -31.8975E-03    -30.8356E-03     60.0265E-03    -29.1918E-03    -7.00444E-03     70.5378E-03     66.6791E+06     43.2948E+06     15.2884E+06    -32.0342E+06    -6.31528E+06    -10.4305E+06     43.2948E+06    -5.76127E+06
             207     116.645E-03     12.5745E-03     115.966E-03     65.9781E-03    -27.8437E-03    -38.1319E-03    -37.6839E-03     65.5301E-03    -27.8437E-03    -13.4310E-03     74.2807E-03     79.6608E+06     52.7349E+06     17.1675E+06    -38.0596E+06    -16.9769E+06    -3.91525E+06     52.7349E+06     5.48579E+06
             208     116.421E-03     11.6389E-03     115.838E-03     67.5757E-03    -26.1232E-03    -41.4478E-03    -40.8713E-03     66.9992E-03    -26.1232E-03    -15.8055E-03     74.0970E-03     81.1162E+06     57.5482E+06     11.1940E+06    -33.3281E+06    -30.5213E+06     8.38726E+06     57.5482E+06    -3.43194E+06
             209     116.233E-03     10.6956E-03     115.740E-03     63.3751E-03    -24.2669E-03    -39.1062E-03    -38.6721E-03     62.9410E-03    -24.2669E-03    -13.2607E-03     68.0397E-03     74.7606E+06     48.1443E+06     -80.277E+03    -36.2949E+06    -32.8004E+06    -3.57482E+06     48.1443E+06    -9.05577E+06
             210     116.069E-03     9.74544E-03     115.660E-03     57.9077E-03    -22.5505E-03    -35.3566E-03    -35.0847E-03     57.6358E-03    -22.5505E-03    -10.0022E-03     61.0437E-03     66.6125E+06     43.4079E+06     7.36501E+06    -33.1502E+06    -28.6782E+06     2.89311E+06     43.4079E+06    -10.8600E+06
             211     115.931E-03     8.78761E-03     115.597E-03     52.7063E-03    -21.0803E-03    -31.6236E-03    -31.4408E-03     52.5235E-03    -21.0803E-03    -7.83959E-03     54.7172E-03      63.653E+06     45.7592E+06    -801.001E+03    -26.3983E+06    -20.9151E+06    -6.28417E+06     45.7592E+06    -10.4473E+06
             212     115.813E-03     7.82472E-03     115.549E-03     48.3236E-03    -19.7551E-03    -28.5685E-03    -28.4300E-03     48.1851E-03    -19.7551E-03    -6.50339E-03     49.5697E-03     60.2001E+06      49.143E+06    -610.285E+03    -17.7592E+06    -15.4757E+06    -2.89385E+06      49.143E+06    -5.68919E+06
             213     115.714E-03     6.85673E-03     115.510E-03     44.1101E-03    -18.4613E-03    -25.6497E-03    -25.5501E-03     44.0105E-03    -18.4613E-03    -5.26502E-03     44.8546E-03     46.0280E+06     33.9899E+06     1.36964E+06    -17.7804E+06    -16.5364E+06     125.628E+03     33.9899E+06    -4.70938E+06
             214     115.631E-03     5.88551E-03     115.481E-03     39.8802E-03    -17.3346E-03    -22.5443E-03    -22.4703E-03     39.8062E-03    -17.3346E-03    -4.28947E-03     40.2842E-03     33.2718E+06     20.7063E+06     1.70872E+06    -17.6451E+06    -16.0606E+06     124.216E+03     20.7063E+06    -5.20547E+06
             215     115.562E-03     4.90953E-03     115.458E-03     36.0125E-03    -16.4639E-03    -19.5482E-03    -19.4950E-03     35.9593E-03    -16.4639E-03    -3.43299E-03     36.1880E-03     25.2885E+06     11.6856E+06     927.006E+03    -16.5250E+06    -14.4544E+06    -1.14359E+06     11.6856E+06    -5.64323E+06
             216     115.510E-03     3.93054E-03     115.443E-03     33.4388E-03    -15.8138E-03    -17.6256E-03    -17.5864E-03     33.3997E-03    -15.8138E-03    -2.82010E-03     33.5180E-03     20.4496E+06     9.05743E+06     850.168E+03    -13.5133E+06    -8.20471E+06     1.96342E+06     2.63557E+06    -8.43173E+06
             217     115.469E-03     2.94979E-03     115.432E-03     31.5545E-03    -15.3752E-03    -16.1795E-03    -16.0763E-03     31.5280E-03    -15.4519E-03    -2.23370E-03     31.6016E-03     20.8373E+06     14.0749E+06     5.40338E+06    -9.05829E+06     5.97920E+06    -962.629E+03     5.40338E+06    -9.42304E+06
             218     115.441E-03     1.96600E-03     115.425E-03     30.2418E-03    -14.5957E-03    -15.6464E-03    -14.5665E-03     30.2127E-03    -15.6464E-03    -2.25159E-03     30.2975E-03     25.9320E+06     21.0138E+06     15.7454E+06    -7.14698E+06     18.5452E+06    -4.67840E+06     15.7454E+06    -7.69230E+06
             219     115.427E-03     983.591E-06     115.423E-03     32.1133E-03    -14.1977E-03    -17.9150E-03    -16.8528E-03     32.0251E-03    -15.1717E-03    -4.02851E-03     32.3337E-03     42.2230E+06     39.9643E+06     30.4165E+06    -6.21319E+06     30.6223E+06    -3.40028E+06     36.9455E+06    -10.0937E+06
             220     114.399E-03    -6.82988E-06     114.399E-03     31.4661E-03    -12.8177E-03    -18.6479E-03    -15.3576E-03     31.2627E-03    -15.9046E-03    -5.99281E-03     31.9337E-03     63.2952E+06     37.0282E+06     19.8431E+06    -33.0557E+06     25.2930E+06    -27.8496E+06     26.3722E+06    -17.4278E+06
             221     113.363E-03     268.833E-09     113.363E-03     23.5359E-03    -9.95256E-03    -13.5833E-03    -10.3420E-03     23.3814E-03    -13.0394E-03    -2.20150E-03     23.8811E-03     56.3798E+06    -2.81646E+06    -16.8423E+06    -64.7799E+06    -6.07426E+06    -61.5221E+06    -16.8423E+06    -12.0854E+06
             222     112.345E-03     688.481E-09     112.345E-03     14.9113E-03    -7.17711E-03    -7.73421E-03    -7.70006E-03     14.8904E-03    -7.19035E-03     1.24349E-03     15.0125E-03     29.0089E+06    -52.5174E+06    -57.3074E+06    -83.6225E+06    -54.9531E+06    -81.1868E+06    -57.3074E+06     2.48121E+06
             223     111.336E-03    -718.965E-09     111.336E-03     9.17205E-03    -4.49519E-03    -4.67696E-03    -4.49156E-03     9.16841E-03    -4.67696E-03     416.969E-06     9.27131E-03     25.9484E+06    -81.8124E+06    -98.1250E+06    -110.365E+06    -102.361E+06    -89.8161E+06    -98.1250E+06    -1.83459E+06
             224     110.328E-03     415.727E-09     110.328E-03     5.51696E-03    -2.66045E-03    -2.85661E-03    -2.68246E-03     5.51134E-03    -2.82898E-03     423.910E-06     5.61050E-03     45.5217E+06    -103.406E+06    -143.798E+06     -152.59E+06    -147.047E+06    -105.224E+06    -147.523E+06    -6.82623E+06
             225     109.325E-03    -417.858E-09     109.325E-03     3.20730E-03    -1.58550E-03    -1.62188E-03    -1.60447E-03     3.19863E-03    -1.59426E-03     390.738E-06     3.26340E-03     63.3516E+06    -120.941E+06    -180.785E+06    -187.262E+06    -183.210E+06    -121.268E+06    -184.510E+06     2.01895E+06
             226     108.322E-03     439.993E-09     108.322E-03     2.89540E-03    -1.41586E-03    -1.47952E-03    -1.45291E-03     2.87754E-03    -1.42462E-03     554.993E-06     2.94273E-03     49.5301E+06    -93.2663E+06    -134.457E+06    -146.170E+06    -132.530E+06    -106.906E+06    -134.457E+06     8.89081E+06
             227     107.319E-03    -405.708E-09     107.319E-03     4.39235E-03    -2.16628E-03    -2.22598E-03    -2.19661E-03     4.36777E-03    -2.17107E-03     800.446E-06     4.44456E-03     34.3103E+06    -38.8563E+06    -50.3234E+06    -77.1613E+06    -46.7452E+06    -69.2724E+06    -50.3234E+06     15.3500E+06
             228     106.314E-03     392.784E-09     106.314E-03     6.93402E-03    -3.43721E-03    -3.49681E-03    -3.45391E-03     6.89591E-03    -3.44201E-03     1.25578E-03     6.99477E-03     27.4315E+06    -3.17130E+06    -10.0575E+06    -33.3662E+06    -13.5759E+06    -22.9617E+06    -10.0575E+06     13.3225E+06
             229     105.304E-03    -282.016E-09     105.304E-03     11.1080E-03    -5.45683E-03    -5.65129E-03    -5.59160E-03     11.0483E-03    -5.45683E-03     1.99435E-03     11.1850E-03     17.0297E+06     27.3571E+06     24.0373E+06     8.99534E+06     21.0870E+06     15.2654E+06     24.0373E+06     7.18894E+06
             230     104.291E-03     516.683E-09     104.291E-03     17.1597E-03    -8.47887E-03    -8.68065E-03    -8.54413E-03     17.0853E-03    -8.54099E-03     2.76147E-03     17.2716E-03     30.8997E+06     59.1354E+06     54.6909E+06     26.2635E+06     52.5047E+06     29.5047E+06     58.0804E+06    -2.20332E+06
             231     103.270E-03    -628.232E-09     103.270E-03     24.0798E-03    -11.8089E-03    -12.2703E-03    -12.1302E-03     24.0018E-03    -11.8710E-03     3.34669E-03     24.2561E-03     58.7561E+06     87.4265E+06     77.8335E+06     24.4642E+06     81.9822E+06     26.5190E+06     81.2230E+06    -7.97204E+06
             232     102.240E-03     1.28023E-06     102.240E-03     30.1369E-03    -14.8364E-03    -15.3009E-03    -15.1855E-03     30.0867E-03    -14.9017E-03     2.87822E-03     30.3289E-03     81.3117E+06     99.2966E+06     88.2415E+06     13.0431E+06     94.3151E+06     13.1730E+06     93.0931E+06    -1.87936E+06
             233     101.211E-03    -1.34506E-06     101.211E-03     35.8274E-03    -17.8258E-03    -18.0019E-03    -17.9234E-03     35.8142E-03    -17.8911E-03     812.506E-06     36.0080E-03     97.7281E+06     108.536E+06     99.0872E+06     6.43371E+06     103.506E+06     6.61180E+06     103.939E+06    -2.75178E+06
             234     100.171E-03     1.52327E-06     100.171E-03     41.9473E-03    -20.8916E-03    -21.0566E-03    -20.9981E-03     41.9429E-03    -20.9458E-03     403.052E-06     42.1845E-03     111.354E+06     118.886E+06     112.370E+06     4.44448E+06     116.788E+06     4.62414E+06     114.289E+06    -3.67851E+06
             235     99.1238E-03    -1.58886E-06     99.1238E-03     46.6343E-03    -23.2587E-03    -23.3765E-03    -23.3185E-03     46.6304E-03    -23.3129E-03     905.417E-06     46.9137E-03     112.552E+06     98.6491E+06     95.3029E+06    -15.5375E+06     96.5239E+06    -15.3309E+06     97.2216E+06    -3.90363E+06
             236     98.0732E-03     1.71351E-06     98.0732E-03     49.2692E-03    -24.5482E-03    -24.7200E-03    -24.7140E-03     49.2633E-03    -24.5482E-03     1.13131E-03     49.5636E-03     110.272E+06     84.2535E+06     81.7774E+06    -27.2356E+06     82.9957E+06    -27.0264E+06     82.8260E+06    -4.01362E+06
             237     97.0232E-03    -1.48017E-06     97.0232E-03     51.5422E-03    -25.4995E-03    -26.0421E-03    -25.6003E-03     51.5349E-03    -25.9340E-03     1.43149E-03     51.8039E-03     112.789E+06     75.3557E+06     74.1219E+06    -38.0424E+06     73.9401E+06    -37.6754E+06     75.1705E+06    -5.21139E+06
             238     95.9684E-03     653.453E-09     95.9684E-03     53.6926E-03    -26.2832E-03    -27.4089E-03    -26.9712E-03     53.6894E-03    -26.7177E-03     1.01597E-03     53.9204E-03     117.832E+06     68.9788E+06     68.0454E+06    -49.3166E+06     68.3343E+06    -48.6721E+06     68.0454E+06    -8.68943E+06
             239     94.9119E-03     699.119E-09     94.9119E-03     53.7712E-03    -26.4001E-03    -27.3702E-03    -27.0892E-03     53.7691E-03    -26.6790E-03     795.624E-06     53.9735E-03     118.508E+06     50.4024E+06     48.3150E+06    -69.1347E+06     50.1144E+06    -68.8467E+06     48.3150E+06    -4.52604E+06
             240     93.8596E-03    -1.24223E-06     93.8596E-03     53.7562E-03    -26.6300E-03    -27.1264E-03    -26.6294E-03     53.7556E-03    -27.1264E-03     429.177E-06     53.9535E-03     119.831E+06     30.4937E+06     26.0066E+06    -91.5083E+06     30.4323E+06    -91.4469E+06     26.0066E+06     1.51871E+06
             241     92.8033E-03     798.979E-09     92.8033E-03     55.2409E-03    -27.1615E-03    -28.0804E-03    -27.8628E-03     55.2408E-03    -27.3790E-03     145.724E-06     55.4718E-03     122.565E+06      25.297E+06     17.2413E+06    -101.088E+06     20.3137E+06    -101.013E+06     22.1491E+06     2.90619E+06
             242     91.7454E-03     649.836E-09     91.7454E-03     55.4370E-03    -27.3296E-03    -28.1076E-03    -28.0244E-03     55.4304E-03    -27.4062E-03     1.04141E-03     55.6373E-03     123.304E+06     6.69700E+06    -130.196E+03    -119.851E+06     1.39993E+06    -119.462E+06     4.77764E+06    -3.82702E+06
             243     90.6887E-03    -814.066E-09     90.6887E-03     55.0285E-03    -27.4613E-03    -27.5669E-03    -27.4837E-03     55.0219E-03    -27.5379E-03     961.910E-06     55.1871E-03     127.506E+06    -8.30209E+06    -11.4721E+06    -137.362E+06    -10.2217E+06    -136.693E+06    -10.2215E+06    -9.20164E+06
             244     89.6354E-03     909.602E-09     89.6354E-03     55.2636E-03    -27.5924E-03    -27.6722E-03    -27.6201E-03     55.2623E-03    -27.6432E-03     378.773E-06     55.4286E-03     136.873E+06    -17.6450E+06    -20.4518E+06    -155.900E+06    -19.2024E+06    -155.593E+06    -19.2011E+06    -5.24805E+06
             245     88.5757E-03    -1.01243E-06     88.5757E-03     55.4741E-03    -27.6546E-03    -27.8209E-03    -27.7676E-03     55.4717E-03    -27.7055E-03     900.184E-06     55.6594E-03     145.202E+06    -20.5979E+06    -24.1930E+06    -167.564E+06    -22.6536E+06    -167.547E+06    -22.1540E+06    -1.54391E+06
             246     87.5211E-03     1.28114E-06     87.5211E-03     55.1597E-03    -27.4524E-03    -27.7074E-03    -27.7054E-03     55.1576E-03    -27.4524E-03     830.985E-06     55.3887E-03     148.941E+06    -28.8685E+06    -32.1924E+06    -179.442E+06    -32.4830E+06    -179.152E+06    -28.8685E+06    -5.26372E+06
             247     86.4646E-03    -969.897E-09     86.4646E-03     54.8015E-03    -27.1974E-03    -27.6034E-03    -27.3359E-03     54.8004E-03    -27.4638E-03     569.115E-06     55.0433E-03     154.844E+06    -31.4823E+06    -36.6547E+06    -188.833E+06    -33.1912E+06    -188.409E+06    -35.3698E+06    -7.96316E+06
             248     85.4106E-03     422.103E-09     85.4106E-03     55.1244E-03    -27.2119E-03    -27.9115E-03    -27.6448E-03     55.1241E-03    -27.4783E-03     87.3530E-06     55.4176E-03     162.754E+06    -35.4053E+06    -39.5998E+06    -200.185E+06    -35.9005E+06    -199.997E+06    -39.2929E+06    -1.37736E+06
             249     84.3525E-03     446.823E-09     84.3525E-03     55.0630E-03    -27.1941E-03    -27.8676E-03    -27.6231E-03     55.0589E-03    -27.4345E-03     720.479E-06     55.3605E-03     167.615E+06    -40.3240E+06    -42.1672E+06    -208.850E+06    -42.2491E+06    -208.768E+06    -40.3240E+06     3.67610E+06
             250     83.2974E-03    -883.183E-09     83.2974E-03     54.4055E-03    -26.8542E-03    -27.5493E-03    -26.8498E-03     54.4012E-03    -27.5493E-03     608.171E-06     54.7697E-03     170.181E+06    -31.4781E+06    -38.0986E+06    -204.845E+06    -33.0959E+06    -204.763E+06    -36.5622E+06    -380.793E+03
             251     82.2441E-03    -48.4026E-09     82.2441E-03     54.3381E-03    -26.7454E-03    -27.5922E-03    -27.1370E-03     54.3377E-03    -27.2002E-03    -46.7388E-06     54.6990E-03     169.953E+06    -33.9660E+06    -42.2870E+06    -207.919E+06    -37.2510E+06    -207.871E+06    -39.0501E+06    -1.98609E+06
             252     81.1874E-03     871.126E-09     81.1874E-03     54.7419E-03    -27.0611E-03    -27.6807E-03    -27.6803E-03     54.7416E-03    -27.0611E-03     345.281E-06     55.2104E-03     169.801E+06    -36.0247E+06    -40.4162E+06    -207.969E+06    -39.2892E+06    -207.941E+06    -37.1794E+06     1.60684E+06
             253     80.1326E-03    -426.533E-09     80.1326E-03     54.6715E-03    -27.1644E-03    -27.5061E-03    -27.5059E-03     54.6713E-03    -27.1644E-03     235.482E-06     55.5155E-03     170.969E+06    -37.2040E+06    -41.5905E+06    -210.315E+06    -40.4652E+06    -210.286E+06    -38.3587E+06     1.14793E+06
             254     79.0768E-03     710.893E-09     79.0768E-03     54.7175E-03    -27.2946E-03    -27.4233E-03    -27.4063E-03     54.7151E-03    -27.3092E-03     681.382E-06     55.6124E-03     172.359E+06    -36.6925E+06    -42.0149E+06    -211.649E+06    -39.9808E+06    -211.592E+06    -38.7830E+06    -2.57479E+06
             255     78.0213E-03    -754.496E-09     78.0213E-03     54.7163E-03    -27.3295E-03    -27.3869E-03    -27.3696E-03     54.7137E-03    -27.3441E-03     415.063E-06     55.6735E-03     173.266E+06    -30.2016E+06    -33.3614E+06    -205.023E+06    -31.3635E+06    -204.931E+06    -32.2920E+06    -3.99280E+06
             256     76.9660E-03     869.999E-09     76.9660E-03     54.0400E-03    -26.9768E-03    -27.0629E-03    -27.0620E-03     54.0391E-03    -26.9768E-03     104.989E-06     55.1131E-03     171.633E+06     -30.613E+06    -32.0042E+06    -202.936E+06    -31.7464E+06    -202.872E+06    -30.9348E+06    -3.29622E+06
             257     75.9125E-03    -773.616E-09     75.9125E-03     54.2056E-03    -27.0425E-03    -27.1634E-03    -27.0850E-03     54.2047E-03    -27.1201E-03     494.851E-06     55.1468E-03     170.017E+06    -29.0304E+06    -29.4576E+06    -199.260E+06    -29.2088E+06    -199.187E+06    -29.3523E+06    -3.48821E+06
             258     74.8562E-03     640.841E-09     74.8562E-03     54.9219E-03    -27.0574E-03    -27.8653E-03    -27.7865E-03     54.9208E-03    -27.1350E-03    -231.964E-06     56.0202E-03     170.924E+06    -24.4160E+06    -25.6872E+06    -195.970E+06    -24.5720E+06    -195.919E+06    -25.5819E+06    -2.56617E+06
             259     73.8014E-03     780.379E-09     73.8014E-03     54.5739E-03    -26.7725E-03    -27.8027E-03    -27.5005E-03     54.5717E-03    -27.0725E-03     35.2161E-06     55.8924E-03     171.068E+06    -28.0739E+06    -31.0472E+06    -200.608E+06    -29.9456E+06    -200.544E+06    -29.2398E+06     1.69345E+06
             260     72.7450E-03    -1.32424E-06     72.7450E-03     54.1073E-03    -26.6194E-03    -27.4883E-03    -26.6175E-03     54.1055E-03    -27.4883E-03     760.905E-06     55.3565E-03     173.295E+06    -25.3286E+06    -31.8947E+06    -201.796E+06    -27.3531E+06    -201.579E+06    -30.0872E+06     6.01444E+06
             261     71.6903E-03     173.106E-09     71.6903E-03     54.4548E-03    -26.5880E-03    -27.8666E-03    -27.2965E-03     54.4536E-03    -27.1570E-03     616.372E-06     55.6921E-03     176.170E+06    -23.7553E+06    -33.8253E+06    -204.743E+06    -29.3177E+06    -204.492E+06    -28.5139E+06     6.59500E+06
             262     70.6355E-03     1.29614E-06     70.6355E-03     54.2575E-03    -26.6671E-03    -27.5903E-03    -27.3761E-03     54.2569E-03    -26.8807E-03     205.576E-06     55.6169E-03     174.747E+06    -28.6300E+06    -35.5398E+06    -206.700E+06    -34.1315E+06    -206.510E+06    -30.2284E+06    -47.1367E+03
             263     69.5814E-03    -1.71429E-06     69.5814E-03     53.8368E-03    -26.6566E-03    -27.1805E-03    -26.6564E-03     53.8365E-03    -27.1805E-03     89.8344E-06     55.1110E-03     175.199E+06    -21.1309E+06    -24.8523E+06    -198.160E+06    -21.2264E+06    -198.064E+06    -24.8523E+06    -2.81545E+06
             264     68.5262E-03     1.10061E-06     68.5262E-03     54.4642E-03    -26.8285E-03    -27.6359E-03    -27.3249E-03     54.4635E-03    -27.1387E-03     471.338E-06     55.6898E-03     175.619E+06    -19.9207E+06    -23.3172E+06    -197.212E+06    -21.1951E+06    -197.211E+06    -22.0436E+06     333.812E+03
             265     67.4702E-03    -99.8480E-09     67.4702E-03     54.4692E-03    -26.9221E-03    -27.5465E-03    -27.4187E-03     54.4687E-03    -27.0493E-03     367.269E-06     55.8411E-03     171.647E+06    -29.7283E+06    -31.0229E+06    -202.015E+06    -31.0559E+06    -201.982E+06    -29.7283E+06     1.91212E+06
             266     66.4163E-03    -128.189E-09     66.4163E-03     54.0382E-03    -26.8615E-03    -27.1768E-03    -26.8614E-03     54.0381E-03    -27.1768E-03     141.942E-06     55.2756E-03     170.163E+06    -26.6130E+06    -26.8696E+06    -196.904E+06    -27.0234E+06    -196.750E+06    -26.6130E+06    -1.57069E+06
             267     65.3614E-03    -215.385E-09     65.3614E-03     54.2279E-03    -27.0148E-03    -27.2132E-03    -27.0148E-03     54.2279E-03    -27.2132E-03     42.5241E-06     55.5192E-03     171.194E+06    -20.7868E+06    -24.3583E+06    -193.717E+06    -21.1905E+06    -193.549E+06    -24.1227E+06    -1.20611E+06
             268     64.3058E-03     168.960E-09     64.3058E-03     54.6052E-03    -27.1726E-03    -27.4333E-03    -27.4196E-03     54.6017E-03    -27.1829E-03     733.362E-06     56.1251E-03     172.259E+06    -21.8857E+06    -29.6489E+06    -197.893E+06    -26.4008E+06    -197.805E+06    -25.2216E+06     3.87908E+06
             269     63.2494E-03     388.726E-09     63.2494E-03     54.7850E-03    -27.2434E-03    -27.5432E-03    -27.5395E-03     54.7814E-03    -27.2434E-03     917.287E-06     56.2470E-03     174.120E+06    -23.2631E+06    -30.9512E+06    -201.097E+06    -27.7560E+06    -201.032E+06    -26.5240E+06     391.869E+03
             270     62.1956E-03    -318.444E-09     62.1956E-03     54.4473E-03    -27.1386E-03    -27.3089E-03    -27.1877E-03     54.4471E-03    -27.2596E-03     113.954E-06     55.6858E-03     172.635E+06    -25.7402E+06    -30.8058E+06    -200.848E+06    -27.5929E+06    -200.800E+06    -29.0010E+06    -62.8136E+03
             271     61.1400E-03     125.838E-09     61.1400E-03     54.6713E-03    -27.1414E-03    -27.5312E-03    -27.4084E-03     54.6694E-03    -27.2624E-03     512.596E-06     55.8035E-03     169.730E+06    -28.5151E+06    -30.3482E+06    -199.147E+06    -30.3838E+06    -199.111E+06    -28.5151E+06     2.41573E+06
             272     60.0834E-03     412.073E-09     60.0834E-03     55.1244E-03    -27.4151E-03    -27.7122E-03    -27.6797E-03     55.1202E-03    -27.4433E-03     1.17402E-03     56.3301E-03     169.322E+06    -25.0986E+06    -25.3532E+06    -194.547E+06    -25.3654E+06    -194.535E+06    -25.0986E+06     1.13393E+06
             273     59.0275E-03    -450.057E-09     59.0275E-03     54.7571E-03    -27.0819E-03    -27.6777E-03    -27.0763E-03     54.7516E-03    -27.6777E-03     1.34043E-03     56.0486E-03     169.931E+06    -22.2174E+06    -23.9451E+06    -193.002E+06    -22.4638E+06    -192.981E+06    -23.7189E+06    -1.18183E+06
             274     59.6323E-03     16.5505E-03     57.2896E-03     79.5040E-03    -27.5007E-03    -52.0022E-03    -27.5581E-03     55.0599E-03    -27.5007E-03     100.510E-03     247.821E-03     177.677E+06     188.723E+06     132.256E+06    -9.17200E+06    -9.16641E+06     188.717E+06     132.256E+06    -827.513E+03
             275     59.2312E-03     15.5775E-03     57.1461E-03     78.7860E-03    -27.2320E-03    -51.5628E-03    -27.6379E-03     54.8611E-03    -27.2320E-03     98.8423E-03     215.916E-03     160.823E+06     167.435E+06     69.0479E+06    -15.0061E+06    -14.9980E+06     167.427E+06     69.0479E+06    -893.328E+03
             276     58.9180E-03     14.6020E-03     57.0798E-03     60.5126E-03    -26.9261E-03    -33.6020E-03    -26.0898E-03     53.0004E-03    -26.9261E-03     49.5162E-03     146.029E-03     149.122E+06     134.053E+06     6.42857E+06    -29.1835E+06    -18.1374E+06     134.042E+06    -4.60667E+06    -184.019E+03
             277     58.6467E-03     13.6272E-03     57.0415E-03     55.9471E-03    -26.8540E-03    -29.0968E-03    -26.3047E-03     53.1550E-03    -26.8540E-03     29.9027E-03     118.309E-03     103.777E+06     71.2429E+06    -19.1700E+06    -41.4049E+06    -19.1565E+06     71.2294E+06    -41.4049E+06     402.639E+03
             278     58.4032E-03     12.6538E-03     57.0159E-03     55.0184E-03    -27.0066E-03    -28.0374E-03    -26.6009E-03     53.5819E-03    -27.0066E-03     21.3876E-03     101.049E-03     38.6946E+06     5.36120E+06    -25.4241E+06    -37.8797E+06    -17.7984E+06    -3.52039E+06    -36.6238E+06     428.234E+03
             279     58.1805E-03     11.6797E-03     56.9961E-03     54.6351E-03    -27.1616E-03    -27.5192E-03    -26.6625E-03     53.7784E-03    -27.1616E-03     16.6396E-03     89.7814E-03     38.0134E+06    -15.6894E+06    -26.3834E+06    -55.6714E+06    -15.7516E+06    -55.6092E+06    -26.3834E+06     1.28337E+06
             280     57.9774E-03     10.7056E-03     56.9804E-03     54.6658E-03    -27.2617E-03    -27.4401E-03    -26.7854E-03     54.0498E-03    -27.3004E-03     14.1078E-03     82.8811E-03     80.2620E+06    -13.5929E+06    -18.0412E+06    -95.9368E+06    -14.8679E+06    -95.8754E+06    -16.8275E+06     1.63262E+06
             281     57.7922E-03     9.73232E-03     56.9668E-03     54.6988E-03    -27.2739E-03    -27.4287E-03    -26.9077E-03     54.2918E-03    -27.3879E-03     11.4364E-03     76.2381E-03     107.553E+06    -12.9651E+06    -15.6810E+06    -121.841E+06    -15.5221E+06    -121.828E+06    -13.1368E+06     802.989E+03
             282     57.6254E-03     8.75823E-03     56.9560E-03     54.8203E-03    -27.3429E-03    -27.4492E-03    -27.0620E-03     54.5394E-03    -27.4492E-03     9.57490E-03     71.1683E-03     126.233E+06    -13.0969E+06    -16.5001E+06    -140.992E+06    -16.5139E+06    -140.978E+06    -13.0969E+06     1.11709E+06
             283     57.4761E-03     7.78492E-03     56.9464E-03     54.9889E-03    -27.4530E-03    -27.5194E-03    -27.2408E-03     54.7767E-03    -27.5194E-03     8.31355E-03     67.4590E-03     151.021E+06    -11.7795E+06    -17.4352E+06    -165.504E+06    -17.1567E+06    -165.471E+06    -12.0913E+06     1.50106E+06
             284     57.3443E-03     6.81169E-03     56.9383E-03     55.0956E-03    -27.5176E-03    -27.5760E-03    -27.3734E-03     54.9514E-03    -27.5760E-03     6.86537E-03     64.4226E-03     169.453E+06    -9.90665E+06    -16.8638E+06    -182.681E+06    -16.5845E+06    -182.648E+06    -10.2185E+06     1.68265E+06
             285     57.2308E-03     5.83830E-03     56.9323E-03     55.0697E-03    -27.4771E-03    -27.5939E-03    -27.3857E-03     54.9784E-03    -27.5939E-03     5.43255E-03     61.9157E-03     176.638E+06    -11.8674E+06    -18.5842E+06    -191.749E+06    -16.2894E+06    -191.723E+06    -14.1886E+06     1.65535E+06
             286     57.1344E-03     4.86536E-03     56.9269E-03     55.0390E-03    -27.4243E-03    -27.6163E-03    -27.3721E-03     54.9869E-03    -27.6163E-03     4.10884E-03     59.9739E-03     180.114E+06    -15.7707E+06    -21.9327E+06    -198.874E+06    -17.7596E+06    -198.858E+06    -19.9599E+06     744.427E+03
             287     57.0561E-03     3.89150E-03     56.9233E-03     55.2418E-03    -27.5663E-03    -27.6768E-03    -27.5481E-03     55.2111E-03    -27.6643E-03     3.15621E-03     58.6233E-03     182.682E+06    -16.3079E+06    -22.5105E+06    -202.000E+06    -19.6181E+06    -201.991E+06    -19.2092E+06     1.35955E+03
             288     56.9948E-03     2.91926E-03     56.9199E-03     55.3605E-03    -27.6598E-03    -27.7004E-03    -27.6570E-03     55.3452E-03    -27.6879E-03     2.18047E-03     57.4764E-03     183.518E+06    -16.0550E+06    -21.9461E+06    -202.437E+06    -20.9334E+06    -202.416E+06    -17.0883E+06     174.513E+03
             289     56.9516E-03     1.94581E-03     56.9183E-03     55.3273E-03    -27.6324E-03    -27.6944E-03    -27.6429E-03     55.3222E-03    -27.6788E-03     1.23279E-03     56.7360E-03     178.440E+06    -15.5107E+06    -20.9964E+06    -196.626E+06    -21.0177E+06    -196.604E+06    -15.5107E+06     137.898E+03
             290     56.9256E-03     972.734E-06     56.9173E-03     55.2543E-03    -27.4084E-03    -27.8458E-03    -27.8260E-03     55.2527E-03    -27.4266E-03     648.290E-06     56.5193E-03     171.885E+06    -18.7471E+06    -22.7661E+06    -192.596E+06    -22.7806E+06    -192.582E+06    -18.7471E+06     110.327E+03
             291     58.6158E-03     16.5506E-03     56.2306E-03     79.1601E-03    -27.4856E-03    -51.6732E-03    -27.4160E-03     54.9029E-03    -27.4856E-03     99.7025E-03     247.337E-03     177.651E+06     189.991E+06     133.305E+06    -7.80544E+06    -7.80204E+06     189.987E+06     133.305E+06     -539.16E+03
             292     58.2146E-03     15.5760E-03     56.0922E-03     78.4302E-03    -27.2093E-03    -51.2307E-03    -27.4085E-03     54.6080E-03    -27.2093E-03     98.2328E-03     215.406E-03     160.667E+06     165.405E+06     65.0779E+06    -16.4590E+06    -16.4531E+06     165.399E+06     65.0779E+06    -700.868E+03
             293     57.8954E-03     14.6018E-03     56.0238E-03     60.6563E-03    -26.9124E-03    -33.7616E-03    -26.2409E-03     53.1356E-03    -26.9124E-03     49.7596E-03     146.612E-03     149.002E+06     132.350E+06     2.26959E+06    -29.4029E+06    -20.3867E+06     132.339E+06    -6.73598E+06     511.631E+03
             294     57.6220E-03     13.6280E-03     55.9872E-03     55.9935E-03    -26.8491E-03    -29.1519E-03    -26.2635E-03     53.1050E-03    -26.8491E-03     30.3993E-03     118.732E-03     103.837E+06     71.9407E+06    -20.3518E+06    -39.7520E+06    -20.3189E+06     71.9078E+06    -39.7520E+06     336.415E+03
             295     57.3726E-03     12.6533E-03     55.9599E-03     54.9393E-03    -27.0012E-03    -27.9650E-03    -26.4915E-03     53.4659E-03    -27.0012E-03     21.6492E-03     101.123E-03     39.2609E+06     5.50570E+06    -25.9534E+06    -38.4045E+06    -18.3713E+06    -4.13281E+06    -36.3481E+06    -13.2980E+03
             296     57.1481E-03     11.6797E-03     55.9418E-03     54.6401E-03    -27.1554E-03    -27.5299E-03    -26.6516E-03     53.7619E-03    -27.1554E-03     16.8395E-03     89.9826E-03     37.7506E+06    -16.9379E+06    -27.2927E+06    -56.7765E+06    -17.0009E+06    -56.7135E+06    -27.2927E+06     857.923E+03
             297     56.9403E-03     10.7057E-03     55.9249E-03     54.6683E-03    -27.2539E-03    -27.4520E-03    -26.7960E-03     54.0505E-03    -27.2921E-03     14.1247E-03     82.9886E-03     78.7294E+06    -14.6735E+06    -19.2255E+06    -95.5505E+06    -16.5040E+06    -95.5262E+06    -17.4192E+06     1.28039E+06
             298     56.7522E-03     9.73187E-03     55.9116E-03     54.7259E-03    -27.2981E-03    -27.4381E-03    -26.9504E-03     54.3112E-03    -27.3710E-03     11.5722E-03     76.3581E-03     105.959E+06    -13.6831E+06    -16.6192E+06    -121.074E+06    -15.9978E+06    -121.059E+06    -14.3198E+06     1.10053E+06
             299     56.5827E-03     8.75870E-03     55.9007E-03     54.8106E-03    -27.3401E-03    -27.4505E-03    -27.0789E-03     54.5231E-03    -27.4242E-03     9.67954E-03     71.2458E-03     126.193E+06    -14.3743E+06    -16.4476E+06    -141.590E+06    -15.8235E+06    -141.577E+06    -15.0109E+06     1.01992E+06
             300     56.4304E-03     7.78510E-03     55.8909E-03     54.9011E-03    -27.3899E-03    -27.4976E-03    -27.1794E-03     54.6907E-03    -27.4976E-03     8.27848E-03     67.4467E-03     151.073E+06    -12.9783E+06    -15.9249E+06    -165.493E+06    -15.6354E+06    -165.470E+06    -13.2901E+06     1.19126E+06
             301     56.2966E-03     6.81150E-03     55.8830E-03     55.0163E-03    -27.4481E-03    -27.5680E-03    -27.3044E-03     54.8726E-03    -27.5680E-03     6.84233E-03     64.3847E-03     169.114E+06    -10.9089E+06    -17.1782E+06    -183.051E+06    -16.8811E+06    -183.036E+06    -11.2207E+06     876.170E+03
             302     56.1803E-03     5.83863E-03     55.8761E-03     55.1160E-03    -27.5024E-03    -27.6175E-03    -27.4120E-03     55.0256E-03    -27.6175E-03     5.41158E-03     61.9382E-03     178.258E+06    -9.60035E+06    -17.6713E+06    -191.740E+06    -17.6914E+06    -191.720E+06    -9.60035E+06     1.45276E+06
             303     56.0833E-03     4.86508E-03     55.8719E-03     55.2120E-03    -27.5261E-03    -27.6885E-03    -27.5486E-03     55.1581E-03    -27.6120E-03     4.19428E-03     60.1367E-03     181.331E+06    -13.0554E+06    -19.6232E+06    -197.561E+06    -17.7923E+06    -197.523E+06    -14.9234E+06     2.08796E+06
             304     56.0026E-03     3.89247E-03     55.8671E-03     55.2116E-03    -27.5271E-03    -27.6858E-03    -27.5750E-03     55.1815E-03    -27.6079E-03     3.09288E-03     58.6616E-03     183.225E+06    -15.8768E+06    -21.2523E+06    -201.708E+06    -19.1466E+06    -201.683E+06    -18.0072E+06     1.37847E+06
             305     55.9405E-03     2.91882E-03     55.8643E-03     55.1313E-03    -27.4866E-03    -27.6440E-03    -27.4743E-03     55.1175E-03    -27.6425E-03     2.09979E-03     57.2690E-03     183.262E+06    -15.1651E+06    -20.2500E+06    -200.896E+06    -19.9985E+06    -200.885E+06    -15.4276E+06    -405.044E+03
             306     55.8963E-03     1.94611E-03     55.8624E-03     55.1855E-03    -27.5007E-03    -27.6840E-03    -27.4933E-03     55.1780E-03    -27.6840E-03     1.48854E-03     56.6003E-03     178.308E+06    -16.9797E+06    -20.9245E+06    -197.218E+06    -20.7154E+06    -197.199E+06    -17.2079E+06    -1.79989E+06
             307     55.8698E-03     973.213E-06     55.8613E-03     55.3718E-03    -27.5534E-03    -27.8182E-03    -27.6207E-03     55.3684E-03    -27.7475E-03     892.023E-06     56.6044E-03     173.448E+06    -19.8025E+06    -22.5416E+06    -194.599E+06    -21.7664E+06    -194.577E+06    -20.6001E+06    -1.16352E+06
             308     57.6095E-03     16.5539E-03     55.1800E-03     79.3960E-03    -27.4787E-03    -51.9185E-03    -27.4281E-03     54.9056E-03    -27.4787E-03     99.9654E-03     247.824E-03     177.756E+06     189.672E+06     132.784E+06    -8.23212E+06    -8.20753E+06     189.647E+06     132.784E+06     62.6046E+03
             309     57.1970E-03     15.5768E-03     55.0351E-03     78.7808E-03    -27.2139E-03    -51.5779E-03    -27.2948E-03     54.4978E-03    -27.2139E-03     99.1104E-03     215.594E-03     160.881E+06     165.684E+06     65.5535E+06    -16.6578E+06    -16.6349E+06     165.661E+06     65.5535E+06     1.16076E+06
             310     56.8764E-03     14.6024E-03     54.9700E-03     60.7350E-03    -26.9227E-03    -33.8236E-03    -26.3542E-03     53.2656E-03    -26.9227E-03     49.7161E-03     146.841E-03     149.168E+06     133.024E+06     3.04825E+06    -28.8858E+06    -20.4110E+06     132.993E+06    -5.39573E+06     67.6178E+03
             311     56.5960E-03     13.6273E-03     54.9309E-03     55.9754E-03    -26.8630E-03    -29.1119E-03    -26.2145E-03     53.0779E-03    -26.8630E-03     30.4007E-03     118.848E-03     101.815E+06     72.2700E+06    -18.9346E+06    -36.8820E+06    -18.8682E+06     72.2035E+06    -36.8820E+06    -618.518E+03
             312     56.3451E-03     12.6538E-03     54.9059E-03     54.9182E-03    -27.0201E-03    -27.9180E-03    -26.4297E-03     53.4300E-03    -27.0201E-03     21.8018E-03     101.171E-03     37.0016E+06     4.67319E+06    -24.6120E+06    -36.9049E+06    -17.6442E+06    -5.08412E+06    -34.1154E+06     194.460E+03
             313     56.1146E-03     11.6794E-03     54.8857E-03     54.8333E-03    -27.1585E-03    -27.7110E-03    -26.8185E-03     53.9408E-03    -27.1585E-03     16.9533E-03     90.1695E-03     38.0351E+06    -16.6052E+06    -27.2293E+06    -57.3203E+06    -16.6643E+06    -57.2612E+06    -27.2293E+06     531.647E+03
             314     55.9050E-03     10.7062E-03     54.8702E-03     54.7748E-03    -27.2443E-03    -27.5587E-03    -26.9197E-03     54.1740E-03    -27.2825E-03     13.9699E-03     83.0321E-03     79.8362E+06    -13.0008E+06    -18.6021E+06    -95.4122E+06    -14.9671E+06    -95.4064E+06    -16.6416E+06     589.269E+03
             315     55.7128E-03     9.73223E-03     54.8562E-03     54.7244E-03    -27.2901E-03    -27.4360E-03    -26.9549E-03     54.3110E-03    -27.3578E-03     11.5371E-03     76.3883E-03     107.635E+06    -12.1361E+06    -15.2428E+06    -121.283E+06    -14.6212E+06    -121.268E+06    -12.7728E+06     1.05632E+06
             316     55.5400E-03     8.75857E-03     54.8451E-03     54.8062E-03    -27.3502E-03    -27.4377E-03    -27.0990E-03     54.5286E-03    -27.4114E-03     9.50996E-03     71.2213E-03     127.651E+06    -12.6689E+06    -16.1115E+06    -141.991E+06    -15.4905E+06    -141.975E+06    -13.3055E+06     1.19030E+06
             317     55.3857E-03     7.78518E-03     54.8358E-03     54.8723E-03    -27.3873E-03    -27.4777E-03    -27.1815E-03     54.6664E-03    -27.4777E-03     8.18922E-03     67.4173E-03     150.770E+06    -12.3119E+06    -16.3617E+06    -165.039E+06    -16.3774E+06    -165.023E+06    -12.3119E+06     947.476E+03
             318     55.2488E-03     6.81207E-03     54.8272E-03     54.9310E-03    -27.3885E-03    -27.5445E-03    -27.2477E-03     54.7903E-03    -27.5445E-03     6.75721E-03     64.2389E-03     169.735E+06    -10.2107E+06    -15.8775E+06    -182.688E+06    -15.8898E+06    -182.676E+06    -10.2107E+06     690.345E+03
             319     55.1311E-03     5.83814E-03     54.8212E-03     55.1252E-03    -27.4912E-03    -27.6368E-03    -27.4391E-03     55.0376E-03    -27.6013E-03     5.33397E-03     61.8851E-03     180.945E+06    -7.06985E+06    -16.7009E+06    -192.632E+06    -16.7029E+06    -192.630E+06    -7.06985E+06     465.949E+03
             320     55.0308E-03     4.86550E-03     54.8153E-03     55.2653E-03    -27.5540E-03    -27.7118E-03    -27.6148E-03     55.2141E-03    -27.5997E-03     4.07278E-03     60.0817E-03     184.955E+06    -8.51208E+06    -17.5774E+06    -197.811E+06    -17.5988E+06    -197.789E+06    -8.51208E+06     1.25783E+06
             321     54.9497E-03     3.89251E-03     54.8116E-03     55.1132E-03    -27.4708E-03    -27.6418E-03    -27.5181E-03     55.0840E-03    -27.5654E-03     3.07145E-03     58.4554E-03     184.705E+06    -13.4656E+06    -17.3020E+06    -200.033E+06    -17.0678E+06    -200.005E+06    -13.7280E+06     1.50493E+06
             322     54.8865E-03     2.91956E-03     54.8088E-03     54.9780E-03    -27.3984E-03    -27.5784E-03    -27.3830E-03     54.9627E-03    -27.5784E-03     2.18479E-03     57.1529E-03     181.502E+06    -16.3734E+06    -18.6498E+06    -198.990E+06    -18.2201E+06    -198.980E+06    -16.8140E+06     67.0711E+03
             323     54.8413E-03     1.94569E-03     54.8068E-03     55.0865E-03    -27.4380E-03    -27.6482E-03    -27.4306E-03     55.0790E-03    -27.6482E-03     1.50712E-03     56.5265E-03     178.820E+06    -17.1297E+06    -20.9496E+06    -197.810E+06    -20.5578E+06    -197.795E+06     -17.536E+06    -1.44373E+06
             324     54.8140E-03     972.368E-06     54.8054E-03     55.3188E-03    -27.4813E-03    -27.8379E-03    -27.6244E-03     55.3153E-03    -27.6912E-03     909.192E-06     56.6077E-03     175.046E+06    -20.3122E+06    -23.2022E+06    -196.772E+06    -22.1398E+06    -196.749E+06    -21.3981E+06    -1.02548E+06
             325     56.5957E-03     16.5485E-03     54.1223E-03     79.3652E-03    -27.5292E-03    -51.8361E-03    -27.4721E-03     55.0012E-03    -27.5292E-03     100.171E-03     248.786E-03     178.373E+06     188.333E+06     133.153E+06    -10.1168E+06    -10.0940E+06     188.310E+06     133.153E+06     272.729E+03
             326     56.1835E-03     15.5761E-03     53.9812E-03     79.0979E-03    -27.2590E-03    -51.8470E-03    -27.9489E-03     55.1999E-03    -27.2590E-03     98.9468E-03     216.421E-03     161.561E+06     167.954E+06     71.1684E+06    -15.0670E+06    -15.0432E+06     167.930E+06     71.1684E+06     880.031E+03
             327     55.8555E-03     14.6013E-03     53.9132E-03     60.6534E-03    -26.9228E-03    -33.7476E-03    -26.3150E-03     53.2208E-03    -26.9228E-03     49.4876E-03     146.300E-03     149.170E+06     134.647E+06     7.80699E+06    -29.1300E+06    -16.7841E+06     134.613E+06    -4.50507E+06    -426.933E+03
             328     55.5737E-03     13.6283E-03     53.8768E-03     55.9392E-03    -26.8550E-03    -29.0951E-03    -26.2304E-03     53.0745E-03    -26.8550E-03     30.2814E-03     118.443E-03     101.574E+06     70.9791E+06    -17.2704E+06    -39.5740E+06    -17.2257E+06     70.9344E+06    -39.5740E+06     36.6616E+03
             329     55.3170E-03     12.6528E-03     53.8505E-03     55.0942E-03    -27.0254E-03    -28.0957E-03    -26.5901E-03     53.5887E-03    -27.0254E-03     21.9353E-03     101.273E-03     36.9346E+06     4.68174E+06    -23.9185E+06    -36.9844E+06    -16.8299E+06    -5.48122E+06    -33.9101E+06     563.647E+03
             330     55.0828E-03     11.6798E-03     53.8302E-03     54.9004E-03    -27.1517E-03    -27.7832E-03    -26.9078E-03     54.0250E-03    -27.1517E-03     16.8011E-03     90.0515E-03     38.2715E+06    -15.6483E+06    -27.6104E+06    -57.1816E+06    -15.6705E+06    -57.1594E+06    -27.6104E+06    -187.698E+03
             331     54.8693E-03     10.7059E-03     53.8147E-03     54.8658E-03    -27.2656E-03    -27.6228E-03    -27.0373E-03     54.2802E-03    -27.2656E-03     13.8066E-03     83.0288E-03     80.4738E+06    -12.0675E+06    -20.0249E+06    -96.1428E+06    -15.1662E+06    -96.1221E+06    -16.9469E+06     394.300E+03
             332     54.6741E-03     9.73267E-03     53.8009E-03     54.7937E-03    -27.3013E-03    -27.4902E-03    -27.0543E-03     54.3873E-03    -27.3308E-03     11.4571E-03     76.3543E-03     107.992E+06    -11.8289E+06    -15.5837E+06    -121.625E+06    -15.4385E+06    -121.603E+06    -11.9963E+06     1.14831E+06
             333     54.4984E-03     8.75909E-03     53.7899E-03     54.7444E-03    -27.3304E-03    -27.3925E-03    -27.0750E-03     54.4707E-03    -27.3742E-03     9.43556E-03     71.0994E-03     128.395E+06    -12.3889E+06    -15.2931E+06    -142.191E+06    -15.1405E+06    -142.176E+06    -12.5563E+06     1.07901E+06
             334     54.3407E-03     7.78576E-03     53.7801E-03     54.8307E-03    -27.3833E-03    -27.4399E-03    -27.1844E-03     54.6318E-03    -27.4399E-03     8.04516E-03     67.3761E-03     151.348E+06    -10.6995E+06    -15.0191E+06    -164.127E+06    -15.0323E+06    -164.114E+06    -10.6995E+06     895.676E+03
             335     54.2021E-03     6.81197E-03     53.7724E-03     54.9470E-03    -27.4100E-03    -27.5367E-03    -27.3207E-03     54.8098E-03    -27.4888E-03     6.68155E-03     64.2313E-03     169.037E+06    -10.1218E+06    -15.8682E+06    -181.936E+06    -15.8842E+06    -181.920E+06    -10.1218E+06     48.8816E+03
             336     54.0812E-03     5.83924E-03     53.7651E-03     55.0368E-03    -27.4263E-03    -27.6103E-03    -27.4223E-03     54.9494E-03    -27.5268E-03     5.32330E-03     61.7859E-03     181.694E+06    -8.42556E+06    -16.2797E+06    -193.906E+06    -16.2877E+06    -193.898E+06    -8.42556E+06    -117.426E+03
             337     53.9796E-03     4.86595E-03     53.7598E-03     54.9976E-03    -27.4270E-03    -27.5698E-03    -27.4105E-03     54.9455E-03    -27.5342E-03     4.10024E-03     59.8366E-03     184.959E+06    -10.2636E+06    -17.2736E+06    -198.595E+06    -17.2747E+06    -198.594E+06    -10.2636E+06     151.351E+03
             338     53.8969E-03     3.89251E-03     53.7562E-03     55.0142E-03    -27.4677E-03    -27.5464E-03    -27.4607E-03     54.9851E-03    -27.5243E-03     3.01299E-03     58.3017E-03     182.940E+06    -13.6934E+06    -17.7961E+06    -198.625E+06    -17.8057E+06    -198.616E+06    -13.6934E+06     267.384E+03
             339     53.8323E-03     2.91909E-03     53.7531E-03     55.0424E-03    -27.4559E-03    -27.5862E-03    -27.5221E-03     55.0289E-03    -27.5065E-03     2.03367E-03     57.1808E-03     181.094E+06    -15.5605E+06    -18.0568E+06    -197.884E+06    -17.8882E+06    -197.874E+06    -15.7387E+06     225.774E+03
             340     53.7866E-03     1.94650E-03     53.7514E-03     55.0065E-03    -27.4028E-03    -27.6024E-03    -27.5254E-03     55.0008E-03    -27.4742E-03     1.32211E-03     56.4415E-03     180.756E+06    -16.3870E+06    -19.5078E+06    -198.667E+06    -19.3457E+06    -198.651E+06    -16.5651E+06     168.154E+03
             341     53.7579E-03     973.636E-06     53.7491E-03     54.8406E-03    -27.1704E-03    -27.6689E-03    -27.3840E-03     54.8369E-03    -27.4516E-03     1.05336E-03     56.0725E-03     177.323E+06    -19.1856E+06    -21.7915E+06    -197.782E+06    -21.5486E+06    -197.736E+06    -19.4738E+06    -249.913E+03
             342     55.5857E-03     16.5505E-03     53.0646E-03     78.9413E-03    -27.5294E-03    -51.4120E-03    -27.3455E-03     54.8749E-03    -27.5294E-03     99.4468E-03     248.422E-03     178.283E+06     188.226E+06     132.572E+06    -10.1404E+06    -10.1194E+06     188.205E+06     132.572E+06    -769.375E+03
             343     55.1696E-03     15.5765E-03     52.9250E-03     78.4725E-03    -27.2543E-03    -51.2281E-03    -27.8069E-03     55.0513E-03    -27.2543E-03     97.6436E-03     216.581E-03     161.073E+06     166.693E+06     68.5881E+06    -15.5508E+06    -15.5275E+06     166.670E+06     68.5881E+06    -1.34242E+06
             344     54.8384E-03     14.6027E-03     52.8584E-03     60.6326E-03    -26.9280E-03    -33.7247E-03    -26.3253E-03     53.2332E-03    -26.9280E-03     49.3596E-03     146.311E-03     149.071E+06     134.003E+06     5.52517E+06    -28.8544E+06    -17.7052E+06     133.964E+06    -5.58499E+06     1.11153E+06
             345     54.5513E-03     13.6264E-03     52.8220E-03     56.1772E-03    -26.8596E-03    -29.3315E-03    -26.4935E-03     53.3393E-03    -26.8596E-03     30.2118E-03     118.311E-03     101.638E+06     70.8641E+06    -18.9501E+06    -38.9681E+06    -18.9113E+06     70.8252E+06    -38.9681E+06     1.37677E+06
             346     54.2898E-03     12.6542E-03     52.7944E-03     55.2542E-03    -27.0014E-03    -28.2905E-03    -26.8407E-03     53.8044E-03    -27.0014E-03     21.5317E-03     101.223E-03     36.3319E+06     4.62144E+06    -25.0678E+06    -35.5630E+06    -17.5216E+06    -4.48466E+06    -34.0031E+06     125.554E+03
             347     54.0525E-03     11.6799E-03     52.7755E-03     54.7714E-03    -27.1165E-03    -27.6944E-03    -26.8586E-03     53.9357E-03    -27.1165E-03     16.4538E-03     89.7957E-03     38.8746E+06    -15.9412E+06    -27.9349E+06    -57.3493E+06    -15.9564E+06    -57.3066E+06    -27.9624E+06    -134.387E+03
             348     53.8343E-03     10.7065E-03     52.7589E-03     54.8322E-03    -27.2290E-03    -27.6299E-03    -27.0487E-03     54.2510E-03    -27.2290E-03     13.7359E-03     82.8936E-03     81.6979E+06    -13.4845E+06    -19.7358E+06    -98.0162E+06    -15.3141E+06    -97.9948E+06    -17.9277E+06     46.1706E+03
             349     53.6363E-03     9.73296E-03     52.7458E-03     54.8288E-03    -27.2880E-03    -27.5506E-03    -27.1617E-03     54.4399E-03    -27.2880E-03     11.2215E-03     76.2882E-03     108.273E+06    -12.2982E+06    -14.9068E+06    -121.827E+06    -14.7619E+06    -121.804E+06    -12.4656E+06     839.889E+03
             350     53.4570E-03     8.75952E-03     52.7345E-03     54.6855E-03    -27.2803E-03    -27.3868E-03    -27.0784E-03     54.4178E-03    -27.3210E-03     9.33213E-03     70.9585E-03     127.890E+06    -12.9277E+06    -15.2637E+06    -141.962E+06    -15.1092E+06    -141.949E+06    -13.0951E+06     1.02797E+06
             351     53.2968E-03     7.78585E-03     52.7251E-03     54.7721E-03    -27.3259E-03    -27.4433E-03    -27.1912E-03     54.5712E-03    -27.3771E-03     8.08471E-03     67.2449E-03     149.782E+06    -11.6860E+06    -15.7527E+06    -163.442E+06    -15.7663E+06    -163.429E+06    -11.6860E+06     845.242E+03
             352     53.1550E-03     6.81294E-03     52.7166E-03     54.8984E-03    -27.3759E-03    -27.5262E-03    -27.3495E-03     54.7579E-03    -27.4121E-03     6.76029E-03     64.1495E-03     167.310E+06    -11.7218E+06    -15.7607E+06    -180.992E+06    -15.7616E+06    -180.975E+06    -11.7377E+06     36.7471E+03
             353     53.0322E-03     5.83945E-03     52.7097E-03     54.8291E-03    -27.3441E-03    -27.4835E-03    -27.3031E-03     54.7384E-03    -27.4338E-03     5.42159E-03     61.5260E-03     180.353E+06    -13.0401E+06    -15.9167E+06    -194.799E+06    -15.8204E+06    -194.776E+06    -13.1594E+06    -938.926E+03
             354     52.9290E-03     4.86579E-03     52.7049E-03     54.8541E-03    -27.3835E-03    -27.4701E-03    -27.3419E-03     54.8002E-03    -27.4577E-03     4.15188E-03     59.6748E-03     184.501E+06    -12.4169E+06    -15.8131E+06    -198.579E+06    -15.7256E+06    -198.563E+06    -12.5202E+06    -802.248E+03
             355     52.8438E-03     3.89277E-03     52.7002E-03     54.9648E-03    -27.4444E-03    -27.5215E-03    -27.4841E-03     54.9377E-03    -27.4548E-03     2.89644E-03     58.2169E-03     184.205E+06    -13.1850E+06    -16.5053E+06    -199.017E+06    -16.5097E+06    -199.013E+06    -13.1850E+06    -81.5621E+03
             356     52.7788E-03     2.92007E-03     52.6979E-03     54.9455E-03    -27.4098E-03    -27.5363E-03    -27.5109E-03     54.9328E-03    -27.4225E-03     2.01128E-03     56.9621E-03     182.697E+06    -13.3735E+06    -17.4302E+06    -198.056E+06    -17.4359E+06    -198.050E+06    -13.3735E+06    -206.057E+03
             357     52.7312E-03     1.94670E-03     52.6952E-03     54.8049E-03    -27.3047E-03    -27.4977E-03    -27.4243E-03     54.7962E-03    -27.3695E-03     1.66505E-03     56.1246E-03     181.817E+06    -14.3405E+06    -17.9919E+06    -197.944E+06    -18.0077E+06    -197.929E+06    -14.3405E+06     83.2588E+03
             358     52.7037E-03     973.417E-06     52.6947E-03     54.6273E-03    -26.9815E-03    -27.6441E-03    -27.3390E-03     54.6213E-03    -27.2806E-03     1.35704E-03     55.7440E-03     180.145E+06    -18.2173E+06    -19.8818E+06    -199.187E+06    -19.5436E+06    -199.149E+06    -18.5937E+06    -528.781E+03
             359     54.5812E-03     16.5518E-03     52.0110E-03     79.0339E-03    -27.4845E-03    -51.5479E-03    -26.9888E-03     54.4748E-03    -27.4845E-03     99.8979E-03     247.562E-03     177.149E+06     189.395E+06     131.754E+06    -7.86094E+06    -7.83154E+06     189.366E+06     131.754E+06    -204.806E+03
             360     54.1567E-03     15.5757E-03     51.8686E-03     78.4938E-03    -27.2339E-03    -51.2706E-03    -27.1842E-03     54.4074E-03    -27.2339E-03     98.4332E-03     216.395E-03     159.577E+06     163.791E+06     63.4799E+06    -17.3792E+06    -17.3505E+06     163.762E+06     63.4799E+06    -260.552E+03
             361     53.8223E-03     14.6005E-03     51.8041E-03     61.0041E-03    -26.9448E-03    -34.0800E-03    -26.8140E-03     53.7381E-03    -26.9448E-03     49.0335E-03     147.281E-03     148.627E+06     132.422E+06     2.48654E+06    -28.5625E+06    -21.2276E+06     132.379E+06    -4.80514E+06     515.853E+03
             362     53.5294E-03     13.6286E-03     51.7654E-03     56.4350E-03    -26.8460E-03    -29.6008E-03    -26.8846E-03     53.7189E-03    -26.8460E-03     29.6699E-03     118.643E-03     101.339E+06     72.7482E+06    -18.6869E+06    -35.3091E+06    -18.6343E+06     72.6955E+06    -35.3091E+06     591.715E+03
             363     53.2644E-03     12.6541E-03     51.7394E-03     55.1036E-03    -26.9542E-03    -28.1850E-03    -26.7987E-03     53.7173E-03    -26.9542E-03     21.0679E-03     101.053E-03     36.4445E+06     5.52352E+06    -24.0939E+06    -34.8025E+06    -16.2103E+06    -3.71070E+06    -33.4519E+06    -358.163E+03
             364     53.0226E-03     11.6808E-03     51.7200E-03     54.6802E-03    -27.0739E-03    -27.6479E-03    -26.8228E-03     53.8551E-03    -27.0739E-03     16.3390E-03     89.7249E-03     40.6424E+06    -14.7657E+06    -27.1836E+06     -57.941E+06    -14.8146E+06    -57.8645E+06    -27.2112E+06    -197.338E+03
             365     52.8009E-03     10.7067E-03     51.7040E-03     54.7166E-03    -27.1837E-03    -27.5583E-03    -26.9714E-03     54.1297E-03    -27.1837E-03     13.8007E-03     82.7104E-03     82.7507E+06    -14.0359E+06    -18.9841E+06    -99.0182E+06    -14.4951E+06    -99.0085E+06    -18.5346E+06     398.623E+03
             366     52.5982E-03     9.73344E-03     51.6898E-03     54.7500E-03    -27.2474E-03    -27.5060E-03    -27.1143E-03     54.3582E-03    -27.2474E-03     11.2325E-03     76.2519E-03     109.066E+06    -13.0032E+06    -15.1066E+06    -123.100E+06    -15.1217E+06    -123.085E+06    -13.0032E+06     696.342E+03
             367     52.4169E-03     8.76015E-03     51.6797E-03     54.7336E-03    -27.2444E-03    -27.4709E-03    -27.1754E-03     54.4704E-03    -27.2768E-03     9.26978E-03     71.0366E-03     127.711E+06    -11.8863E+06    -14.8925E+06    -141.064E+06    -14.8437E+06    -141.050E+06    -11.9485E+06     819.292E+03
             368     52.2532E-03     7.78658E-03     51.6698E-03     54.7371E-03    -27.2551E-03    -27.4761E-03    -27.2201E-03     54.5326E-03    -27.3066E-03     8.16440E-03     67.1809E-03     149.644E+06    -11.7819E+06    -13.8338E+06    -162.431E+06    -13.7781E+06    -162.425E+06    -11.8442E+06    -195.801E+03
             369     52.1083E-03     6.81311E-03     51.6610E-03     54.7215E-03    -27.3011E-03    -27.4197E-03    -27.2288E-03     54.5831E-03    -27.3535E-03     6.67461E-03     63.9945E-03     169.907E+06    -9.88495E+06    -13.6375E+06    -181.589E+06    -13.6256E+06    -181.585E+06    -9.90086E+06    -378.633E+03
             370     51.9841E-03     5.83963E-03     51.6550E-03     54.7794E-03    -27.3492E-03    -27.4300E-03    -27.3097E-03     54.6924E-03    -27.3824E-03     5.32447E-03     61.4943E-03     181.684E+06    -9.39833E+06    -14.8559E+06    -193.691E+06    -14.7572E+06    -193.671E+06    -9.51753E+06    -371.591E+03
             371     51.8776E-03     4.86668E-03     51.6488E-03     54.8011E-03    -27.3701E-03    -27.4302E-03    -27.3786E-03     54.7495E-03    -27.3701E-03     4.03100E-03     59.5690E-03     184.775E+06    -12.3390E+06    -17.0842E+06    -199.417E+06    -16.3314E+06    -199.396E+06    -13.1128E+06    -802.452E+03
             372     51.7919E-03     3.89332E-03     51.6454E-03     54.6718E-03    -27.2566E-03    -27.4150E-03    -27.2759E-03     54.6446E-03    -27.3684E-03     2.97909E-03     57.8967E-03     184.145E+06    -13.6950E+06    -18.1213E+06    -199.998E+06    -17.4580E+06    -199.991E+06    -14.3655E+06    -367.067E+03
             373     51.7243E-03     2.91973E-03     51.6418E-03     54.6404E-03    -27.2127E-03    -27.4280E-03    -27.2292E-03     54.6228E-03    -27.3940E-03     2.36103E-03     56.6334E-03     182.079E+06    -14.1929E+06    -18.0906E+06    -198.167E+06    -18.0237E+06    -198.160E+06    -14.2666E+06    -367.034E+03
             374     51.6776E-03     1.94649E-03     51.6410E-03     54.7783E-03    -27.2941E-03    -27.4831E-03    -27.3508E-03     54.7674E-03    -27.4156E-03     1.88551E-03     56.0409E-03     181.193E+06    -14.6506E+06    -19.0682E+06    -197.995E+06    -19.0004E+06    -197.989E+06    -14.7243E+06    -970.826E+03
             375     51.6476E-03     972.929E-06     51.6384E-03     54.7737E-03    -27.1774E-03    -27.5952E-03    -27.5373E-03     54.7679E-03    -27.2295E-03     1.24213E-03     55.8706E-03     179.174E+06    -18.0995E+06    -21.2102E+06    -198.794E+06    -20.8409E+06    -198.787E+06    -18.4759E+06    -87.3135E+03
             376     53.5779E-03     16.5518E-03     50.9572E-03     78.9712E-03    -27.4896E-03    -51.4794E-03    -27.0820E-03     54.5738E-03    -27.4896E-03     99.6592E-03     247.817E-03     177.710E+06     188.945E+06     133.352E+06    -8.67227E+06    -8.65842E+06     188.931E+06     133.352E+06     1.09216E+06
             377     53.1483E-03     15.5754E-03     50.8149E-03     78.7237E-03    -27.2272E-03    -51.5031E-03    -27.6668E-03     54.8874E-03    -27.2272E-03     98.1724E-03     216.544E-03     159.891E+06     164.888E+06     67.3787E+06    -16.4186E+06    -16.4047E+06     164.874E+06     67.3787E+06     1.20214E+06
             378     52.8052E-03     14.6027E-03     50.7460E-03     60.7272E-03    -26.9017E-03    -33.8467E-03    -26.8233E-03     53.7037E-03    -26.9017E-03     48.1533E-03     147.304E-03     148.328E+06     132.700E+06     4.09421E+06    -28.5530E+06    -20.0218E+06     132.682E+06    -4.41887E+06    -1.05439E+06
             379     52.5098E-03     13.6286E-03     50.7104E-03     56.1227E-03    -26.7972E-03    -29.3432E-03    -26.6595E-03     53.4391E-03    -26.7972E-03     29.4831E-03     118.767E-03     102.648E+06     72.1479E+06    -19.3638E+06    -37.9641E+06    -19.3281E+06     72.1122E+06    -37.9641E+06    -1.17245E+06
             380     52.2400E-03     12.6553E-03     50.6840E-03     55.0565E-03    -26.9226E-03    -28.1653E-03    -26.7115E-03     53.6026E-03    -26.9226E-03     21.5650E-03     101.110E-03     37.0607E+06     5.15777E+06    -24.2936E+06    -36.2768E+06    -17.4368E+06    -3.59504E+06    -34.3807E+06    -131.159E+03
             381     51.9941E-03     11.6810E-03     50.6650E-03     54.7720E-03    -27.0475E-03    -27.7587E-03    -26.9035E-03     53.9168E-03    -27.0475E-03     16.6170E-03     89.9439E-03     39.9600E+06    -16.7470E+06    -26.4417E+06    -58.7053E+06    -16.8386E+06    -58.6137E+06    -26.4417E+06    -137.483E+03
             382     51.7681E-03     10.7076E-03     50.6486E-03     54.6788E-03    -27.1499E-03    -27.5451E-03    -26.9448E-03     54.0786E-03    -27.1499E-03     13.9679E-03     82.7226E-03     82.5331E+06    -14.9214E+06    -18.6852E+06    -99.1862E+06    -15.9270E+06    -99.1712E+06    -17.6947E+06     464.129E+03
             383     51.5619E-03     9.73364E-03     50.6349E-03     54.6713E-03    -27.2125E-03    -27.4479E-03    -27.0434E-03     54.2668E-03    -27.2125E-03     11.3654E-03     76.2472E-03     109.660E+06    -11.6543E+06    -14.9528E+06    -122.921E+06    -14.9733E+06    -122.901E+06    -11.6543E+06    -7.33849E+03
             384     51.3763E-03     8.76010E-03     50.6240E-03     54.7477E-03    -27.2315E-03    -27.4883E-03    -27.2214E-03     54.4808E-03    -27.2315E-03     9.34600E-03     71.1246E-03     128.060E+06    -11.0088E+06    -13.5716E+06    -140.315E+06    -13.5325E+06    -140.292E+06    -11.0711E+06    -1.21399E+06
             385     51.2100E-03     7.78729E-03     50.6145E-03     54.7093E-03    -27.2448E-03    -27.4530E-03    -27.2253E-03     54.5007E-03    -27.2640E-03     8.23220E-03     67.1985E-03     152.266E+06    -9.41551E+06    -12.2764E+06    -163.058E+06    -12.2245E+06    -163.048E+06    -9.47779E+06    -670.563E+03
             386     51.0630E-03     6.81361E-03     50.6064E-03     54.6741E-03    -27.2807E-03    -27.3892E-03    -27.2197E-03     54.5312E-03    -27.3073E-03     6.79844E-03     63.9600E-03     171.684E+06    -7.62830E+06    -13.9273E+06    -182.329E+06    -13.9330E+06    -182.323E+06    -7.62830E+06     174.312E+03
             387     50.9352E-03     5.84035E-03     50.5992E-03     54.6962E-03    -27.2841E-03    -27.4113E-03    -27.2865E-03     54.6033E-03    -27.3160E-03     5.45975E-03     61.4067E-03     180.657E+06    -9.48523E+06    -16.1080E+06    -193.328E+06    -16.1165E+06    -193.319E+06    -9.48523E+06     399.256E+03
             388     50.8275E-03     4.86693E-03     50.5939E-03     54.5608E-03    -27.2098E-03    -27.3498E-03    -27.2006E-03     54.5038E-03    -27.3020E-03     4.26955E-03     59.2810E-03     184.094E+06    -14.0820E+06    -17.7102E+06    -199.940E+06    -17.0203E+06    -199.932E+06    -14.7803E+06     145.210E+03
             389     50.7399E-03     3.89351E-03     50.5902E-03     54.4721E-03    -27.1419E-03    -27.3281E-03    -27.1095E-03     54.4378E-03    -27.3262E-03     3.28542E-03     57.6327E-03     183.057E+06    -14.9688E+06    -17.7869E+06    -199.402E+06    -16.8405E+06    -199.389E+06    -15.9278E+06    -949.703E+03
             390     50.6716E-03     2.91969E-03     50.5875E-03     54.6138E-03    -27.2039E-03    -27.4093E-03    -27.2185E-03     54.5963E-03    -27.3772E-03     2.34773E-03     56.6044E-03     182.586E+06    -14.0287E+06    -17.4581E+06    -198.288E+06    -17.1336E+06    -198.278E+06    -14.3631E+06    -814.549E+03
             391     50.6223E-03     1.94610E-03     50.5848E-03     54.8056E-03    -27.3111E-03    -27.4949E-03    -27.4298E-03     54.7972E-03    -27.3679E-03     1.58014E-03     56.1000E-03     181.683E+06    -15.5372E+06    -19.4258E+06    -199.119E+06    -19.3587E+06    -199.113E+06    -15.6109E+06    -622.221E+03
             392     50.5925E-03     973.853E-06     50.5832E-03     54.6096E-03    -27.1901E-03    -27.4188E-03    -27.2872E-03     54.6065E-03    -27.3186E-03     815.232E-06     55.7109E-03     178.049E+06    -19.4063E+06    -22.3022E+06    -198.871E+06    -22.1240E+06    -198.861E+06    -19.5945E+06    -64.8980E+03
             393     52.5739E-03     16.5496E-03     49.9012E-03     79.2451E-03    -27.4924E-03    -51.7543E-03    -27.6479E-03     55.1387E-03    -27.4924E-03     99.8507E-03     248.541E-03     178.149E+06     188.455E+06     134.356E+06    -9.46640E+06    -9.45998E+06     188.449E+06     134.356E+06     632.254E+03
             394     52.1397E-03     15.5789E-03     49.7579E-03     78.8979E-03    -27.1968E-03    -51.7095E-03    -28.1242E-03     55.3127E-03    -27.1968E-03     98.4313E-03     216.692E-03     159.885E+06     166.222E+06     69.7219E+06    -14.5314E+06    -14.5260E+06     166.216E+06     69.7219E+06     483.050E+03
             395     51.7932E-03     14.6034E-03     49.6918E-03     60.5928E-03    -26.8520E-03    -33.7553E-03    -26.3293E-03     53.1669E-03    -26.8520E-03     49.2827E-03     146.861E-03     148.350E+06     133.521E+06     5.45080E+06    -28.5054E+06    -17.2274E+06     133.499E+06    -5.80539E+06     301.574E+03
             396     51.4911E-03     13.6288E-03     49.6547E-03     55.8612E-03    -26.7785E-03    -29.0890E-03    -26.3110E-03     53.0831E-03    -26.7785E-03     29.8752E-03     118.650E-03     102.818E+06     71.3020E+06    -19.2743E+06    -39.9891E+06    -19.2418E+06     71.2695E+06    -39.9891E+06    -37.1687E+03
             397     51.2171E-03     12.6542E-03     49.6292E-03     55.1145E-03    -26.9191E-03    -28.2227E-03    -26.7064E-03     53.5981E-03    -26.9191E-03     22.0521E-03     101.338E-03     36.4863E+06     3.33246E+06    -26.8069E+06    -36.9570E+06    -19.3762E+06    -4.78965E+06    -36.2655E+06     175.784E+03
             398     50.9657E-03     11.6812E-03     49.6090E-03     54.9076E-03    -27.0408E-03    -27.9012E-03    -27.0052E-03     54.0116E-03    -27.0408E-03     17.0279E-03     90.1949E-03     38.2551E+06    -18.7595E+06    -27.4231E+06    -57.9101E+06    -18.8058E+06    -57.8637E+06    -27.4231E+06     308.426E+03
             399     50.7368E-03     10.7075E-03     49.5941E-03     54.8235E-03    -27.1214E-03    -27.7267E-03    -27.0972E-03     54.1940E-03    -27.1214E-03     14.3394E-03     82.9459E-03     79.3985E+06    -16.7241E+06    -21.4099E+06    -98.3083E+06    -17.4971E+06    -98.1744E+06    -20.7708E+06    -1.63038E+06
             400     50.5258E-03     9.73418E-03     49.5793E-03     54.7106E-03    -27.1692E-03    -27.5363E-03    -27.1008E-03     54.2752E-03    -27.1692E-03     11.8020E-03     76.2242E-03     108.141E+06    -12.4872E+06    -17.6370E+06    -123.045E+06    -14.9365E+06    -122.905E+06    -15.3276E+06    -2.03945E+06
             401     50.3373E-03     8.76098E-03     49.5690E-03     54.6227E-03    -27.2078E-03    -27.3868E-03    -27.0997E-03     54.3356E-03    -27.2078E-03     9.66631E-03     71.0224E-03     127.425E+06    -12.6421E+06    -15.2547E+06    -141.345E+06    -15.2849E+06    -141.314E+06    -12.6421E+06    -538.045E+03
             402     50.1671E-03     7.78696E-03     49.5591E-03     54.6956E-03    -27.2330E-03    -27.4506E-03    -27.2293E-03     54.4743E-03    -27.2330E-03     8.47419E-03     67.2111E-03     148.414E+06    -14.3559E+06    -18.1509E+06    -164.606E+06    -17.7226E+06    -164.589E+06    -14.8010E+06     26.9934E+03
             403     50.0178E-03     6.81390E-03     49.5515E-03     54.6930E-03    -27.2466E-03    -27.4391E-03    -27.2828E-03     54.5367E-03    -27.2466E-03     7.13751E-03     63.9184E-03     165.158E+06    -14.8405E+06    -18.6831E+06    -181.861E+06    -18.2429E+06    -181.856E+06    -15.2856E+06     275.364E+03
             404     49.8869E-03     5.84054E-03     49.5439E-03     54.5294E-03    -27.2103E-03    -27.3182E-03    -27.1695E-03     54.4261E-03    -27.2557E-03     5.74329E-03     61.1938E-03     176.452E+06    -16.0749E+06    -18.1840E+06    -193.571E+06    -17.6989E+06    -193.566E+06    -16.5655E+06     267.955E+03
             405     49.7781E-03     4.86686E-03     49.5396E-03     54.4621E-03    -27.1668E-03    -27.2944E-03    -27.1217E-03     54.4026E-03    -27.2799E-03     4.35394E-03     59.2099E-03     182.250E+06    -16.3860E+06    -17.6571E+06    -199.266E+06    -17.1511E+06    -199.254E+06    -16.9043E+06    -341.611E+03
             406     49.6877E-03     3.89297E-03     49.5349E-03     54.5997E-03    -27.2297E-03    -27.3689E-03    -27.2631E-03     54.5664E-03    -27.3022E-03     3.22684E-03     57.8049E-03     183.152E+06    -15.1734E+06    -17.2529E+06    -199.342E+06    -16.9818E+06    -199.324E+06    -15.4619E+06    -1.07262E+06
             407     49.6184E-03     2.92010E-03     49.5324E-03     54.7134E-03    -27.2760E-03    -27.4363E-03    -27.4157E-03     54.6974E-03    -27.2807E-03     2.25770E-03     56.7327E-03     182.950E+06    -14.1313E+06    -18.6941E+06    -199.311E+06    -18.4412E+06    -199.303E+06    -14.3921E+06    -541.024E+03
             408     49.5674E-03     1.94736E-03     49.5292E-03     54.5111E-03    -27.1681E-03    -27.3432E-03    -27.2920E-03     54.5043E-03    -27.2125E-03     1.41183E-03     55.8405E-03     181.008E+06    -16.0604E+06    -20.8554E+06    -199.416E+06    -20.8644E+06    -199.407E+06    -16.0604E+06     111.531E+03
             409     49.5382E-03     973.107E-06     49.5286E-03     54.2746E-03    -27.0110E-03    -27.2643E-03    -27.0365E-03     54.2727E-03    -27.2369E-03     705.906E-06     55.3729E-03     177.886E+06    -21.1155E+06    -23.4689E+06    -200.157E+06    -23.2859E+06    -200.146E+06    -21.3092E+06     433.328E+03
             410     51.5701E-03     16.5526E-03     48.8414E-03     79.2495E-03    -27.4543E-03    -51.7968E-03    -27.5346E-03     54.9873E-03    -27.4543E-03     100.032E-03     248.707E-03     176.786E+06     188.956E+06     133.720E+06    -7.65286E+06    -7.65047E+06     188.954E+06     133.720E+06     141.683E+03
             411     51.1345E-03     15.5763E-03     48.7043E-03     78.3273E-03    -27.1756E-03    -51.1604E-03    -27.4788E-03     54.6456E-03    -27.1756E-03     98.0655E-03     216.825E-03     158.456E+06     164.838E+06     67.0508E+06    -14.4542E+06    -14.4523E+06     164.836E+06     67.0508E+06    -9.63387E+03
             412     50.7800E-03     14.6022E-03     48.6353E-03     60.6282E-03    -26.8606E-03    -33.7761E-03    -26.2551E-03     53.1072E-03    -26.8606E-03     49.5270E-03     146.854E-03     148.191E+06     132.211E+06     4.17992E+06    -29.6601E+06    -18.0379E+06     132.195E+06    -7.42670E+06     1.01136E+06
             413     50.4754E-03     13.6284E-03     48.6007E-03     55.9891E-03    -26.7843E-03    -29.2063E-03    -26.4129E-03     53.1958E-03    -26.7843E-03     30.0254E-03     118.888E-03     103.811E+06     72.4012E+06    -17.3916E+06    -40.5573E+06    -17.3365E+06     72.3461E+06    -40.5573E+06     1.55330E+06
             414     50.1945E-03     12.6547E-03     48.5731E-03     55.1670E-03    -26.9261E-03    -28.2662E-03    -26.7517E-03     53.6524E-03    -26.9261E-03     21.9993E-03     101.525E-03     39.1985E+06     5.28077E+06    -24.9205E+06    -38.7810E+06    -16.6501E+06    -5.29102E+06    -36.4796E+06     1.12548E+06
             415     49.9394E-03     11.6805E-03     48.5542E-03     54.8473E-03    -27.0505E-03    -27.8347E-03    -26.9552E-03     53.9679E-03    -27.0505E-03     16.8899E-03     90.1464E-03     38.8037E+06    -15.4878E+06    -27.7927E+06    -56.8725E+06    -15.5173E+06    -56.8429E+06    -27.7927E+06     107.363E+03
             416     49.7048E-03     10.7073E-03     48.5379E-03     54.8547E-03    -27.1306E-03    -27.7594E-03    -27.1263E-03     54.2215E-03    -27.1306E-03     14.3746E-03     83.0166E-03     77.8315E+06    -14.8251E+06    -22.6256E+06    -96.1318E+06    -15.8686E+06    -95.9882E+06    -21.7256E+06    -1.58883E+06
             417     49.4913E-03     9.73403E-03     48.5246E-03     54.7336E-03    -27.1692E-03    -27.5654E-03    -27.1141E-03     54.2823E-03    -27.1692E-03     12.0855E-03     76.2557E-03     106.582E+06    -15.8814E+06    -20.9683E+06    -124.852E+06    -17.3277E+06    -124.689E+06    -19.6852E+06    -2.21920E+06
             418     49.2981E-03     8.76007E-03     48.5136E-03     54.6832E-03    -27.2219E-03    -27.4374E-03    -27.1310E-03     54.3769E-03    -27.2219E-03     9.97730E-03     71.0898E-03     128.298E+06    -13.7190E+06    -17.9323E+06    -144.058E+06    -17.0141E+06    -144.013E+06    -14.6824E+06        -712.938
             419     49.1255E-03     7.78710E-03     48.5044E-03     54.7535E-03    -27.2467E-03    -27.4917E-03    -27.2637E-03     54.5254E-03    -27.2467E-03     8.62585E-03     67.3300E-03     148.125E+06    -14.0487E+06    -17.4826E+06    -163.836E+06    -17.0494E+06    -163.824E+06    -14.4939E+06     837.940E+03
             420     48.9718E-03     6.81377E-03     48.4955E-03     54.7130E-03    -27.2572E-03    -27.4431E-03    -27.2838E-03     54.5538E-03    -27.2572E-03     7.16932E-03     63.9869E-03     165.509E+06    -14.5684E+06    -17.7285E+06    -181.612E+06    -17.2850E+06    -181.611E+06    -15.0135E+06    -262.771E+03
             421     48.8403E-03     5.84019E-03     48.4899E-03     54.6318E-03    -27.2590E-03    -27.3726E-03    -27.2529E-03     54.5330E-03    -27.2799E-03     5.65004E-03     61.3818E-03     178.788E+06    -12.4794E+06    -17.5426E+06    -193.722E+06    -17.0553E+06    -193.718E+06    -12.9700E+06    -246.609E+03
             422     48.7274E-03     4.86677E-03     48.4838E-03     54.6614E-03    -27.2382E-03    -27.4234E-03    -27.3457E-03     54.6047E-03    -27.2591E-03     4.23802E-03     59.5275E-03     181.621E+06    -15.2444E+06    -18.0601E+06    -198.238E+06    -17.5819E+06    -198.226E+06     -15.735E+06    -835.322E+03
             423     48.6367E-03     3.89399E-03     48.4806E-03     54.6591E-03    -27.2256E-03    -27.4337E-03    -27.4043E-03     54.6297E-03    -27.2256E-03     3.08424E-03     57.9509E-03     183.727E+06    -15.7389E+06    -18.6855E+06    -200.909E+06    -18.6958E+06    -200.899E+06    -15.7389E+06    -887.989E+03
             424     48.5641E-03     2.92053E-03     48.4762E-03     54.4724E-03    -27.1373E-03    -27.3342E-03    -27.2784E-03     54.4560E-03    -27.1767E-03     2.27258E-03     56.5442E-03     182.740E+06    -15.2502E+06    -19.9749E+06    -200.303E+06    -19.9754E+06    -200.302E+06    -15.2502E+06    -23.9177E+03
             425     48.5144E-03     1.94693E-03     48.4754E-03     54.3022E-03    -27.0257E-03    -27.2762E-03    -27.1855E-03     54.2953E-03    -27.1094E-03     1.45754E-03     55.6571E-03     179.675E+06    -17.4287E+06    -22.3297E+06    -199.501E+06    -22.3348E+06    -199.496E+06    -17.4287E+06     215.699E+03
             426     48.4831E-03     973.867E-06     48.4733E-03     54.0749E-03    -26.9371E-03    -27.1393E-03    -27.0397E-03     54.0726E-03    -27.0344E-03     639.023E-06     55.2156E-03     177.335E+06    -21.0520E+06    -23.9349E+06    -199.796E+06    -23.9368E+06    -199.788E+06    -21.0575E+06     160.750E+03
             427     50.5753E-03     16.5527E-03     47.7899E-03     79.0216E-03    -27.4180E-03    -51.6055E-03    -27.1955E-03     54.6115E-03    -27.4180E-03     99.5154E-03     248.218E-03     176.297E+06     188.221E+06     132.382E+06    -8.03814E+06    -8.03464E+06     188.218E+06     132.382E+06     205.125E+03
             428     50.1293E-03     15.5776E-03     47.6475E-03     78.3420E-03    -27.1612E-03    -51.1880E-03    -27.1729E-03     54.3268E-03    -27.1612E-03     98.1530E-03     217.215E-03     158.456E+06     164.268E+06     66.2192E+06    -15.1337E+06    -15.1290E+06     164.263E+06     66.2192E+06     591.712E+03
             429     49.7720E-03     14.6030E-03     47.5816E-03     60.3373E-03    -26.8561E-03    -33.4888E-03    -26.3448E-03     53.1932E-03    -26.8561E-03     48.3664E-03     146.597E-03     148.143E+06     131.843E+06     3.82181E+06    -29.9023E+06    -18.7295E+06     131.836E+06    -7.34457E+06     856.337E+03
             430     49.4589E-03     13.6279E-03     47.5443E-03     55.8468E-03    -26.7784E-03    -29.0740E-03    -26.3400E-03     53.1128E-03    -26.7784E-03     29.6291E-03     118.880E-03     103.740E+06     71.8498E+06    -18.3395E+06    -40.8302E+06    -18.2951E+06     71.8055E+06    -40.8302E+06     1.19224E+06
             431     49.1743E-03     12.6544E-03     47.5182E-03     55.1030E-03    -26.9287E-03    -28.2038E-03    -26.7304E-03     53.6296E-03    -26.9287E-03     21.7107E-03     101.583E-03     39.1869E+06     6.36826E+06    -23.6492E+06    -37.9066E+06    -16.0011E+06    -4.21290E+06    -34.9736E+06     1.03819E+06
             432     48.9140E-03     11.6810E-03     47.4988E-03     54.7596E-03    -27.0558E-03    -27.7455E-03    -26.8758E-03     53.8898E-03    -27.0558E-03     16.7747E-03     90.0545E-03     38.9600E+06    -14.1449E+06    -26.2995E+06    -56.1528E+06    -14.1752E+06    -56.1225E+06    -26.2995E+06     92.2437E+03
             433     48.6749E-03     10.7071E-03     47.4826E-03     54.7227E-03    -27.1625E-03    -27.5932E-03    -26.9846E-03     54.1141E-03    -27.1625E-03     14.0585E-03     83.0055E-03     80.5526E+06    -12.1761E+06    -18.0861E+06    -95.3588E+06    -13.5757E+06    -95.3378E+06    -16.7075E+06     150.324E+03
             434     48.4570E-03     9.73332E-03     47.4693E-03     54.7215E-03    -27.2110E-03    -27.5108E-03    -27.0894E-03     54.3001E-03    -27.2110E-03     11.6670E-03     76.3423E-03     109.931E+06    -13.3671E+06    -16.0210E+06    -124.596E+06    -14.7865E+06    -124.555E+06    -14.6424E+06    -430.483E+03
             435     48.2601E-03     8.76037E-03     47.4583E-03     54.7875E-03    -27.2406E-03    -27.5225E-03    -27.2248E-03     54.4898E-03    -27.2406E-03     9.85668E-03     71.1756E-03     131.425E+06    -12.9431E+06    -17.1077E+06    -146.386E+06    -15.8938E+06    -146.324E+06    -14.2185E+06    -1.31933E+06
             436     48.0834E-03     7.78688E-03     47.4487E-03     54.8193E-03    -27.2840E-03    -27.5252E-03    -27.3043E-03     54.5985E-03    -27.2840E-03     8.44989E-03     67.4331E-03     151.777E+06    -8.64087E+06    -15.1930E+06    -163.526E+06    -15.2206E+06    -163.498E+06    -8.64087E+06    -253.897E+03
             437     47.9276E-03     6.81335E-03     47.4409E-03     54.7794E-03    -27.3033E-03    -27.4710E-03    -27.3244E-03     54.6328E-03    -27.3033E-03     6.88617E-03     64.1380E-03     169.638E+06    -7.47164E+06    -15.2247E+06    -180.799E+06    -15.2306E+06    -180.793E+06    -7.47164E+06    -265.332E+03
             438     47.7922E-03     5.84038E-03     47.4340E-03     54.7868E-03    -27.2968E-03    -27.4887E-03    -27.3953E-03     54.6933E-03    -27.2968E-03     5.49463E-03     61.6089E-03     182.015E+06    -8.67187E+06    -16.2990E+06    -194.378E+06    -16.3057E+06    -194.371E+06    -8.67187E+06    -957.908E+03
             439     47.6784E-03     4.86734E-03     47.4293E-03     54.7238E-03    -27.2395E-03    -27.4843E-03    -27.4238E-03     54.6633E-03    -27.2395E-03     4.42840E-03     59.6416E-03     182.806E+06    -13.3913E+06    -17.4881E+06    -198.192E+06    -17.5001E+06    -198.180E+06    -13.3913E+06     45.7464E+03
             440     47.5840E-03     3.89400E-03     47.4244E-03     54.5601E-03    -27.1780E-03    -27.3825E-03    -27.3457E-03     54.5233E-03    -27.1780E-03     3.38537E-03     57.9016E-03     183.474E+06    -17.3514E+06    -18.8575E+06    -201.570E+06    -18.8712E+06    -201.556E+06    -17.3514E+06     123.546E+03
             441     47.5125E-03     2.92071E-03     47.4226E-03     54.3663E-03    -27.0985E-03    -27.2681E-03    -27.2100E-03     54.3476E-03    -27.1379E-03     2.44163E-03     56.4739E-03     182.758E+06    -17.1350E+06    -19.5276E+06    -201.074E+06    -19.5329E+06    -201.068E+06    -17.1350E+06     3.13445E+03
             442     47.4594E-03     1.94703E-03     47.4194E-03     54.2683E-03    -27.0361E-03    -27.2326E-03    -27.1752E-03     54.2599E-03    -27.0851E-03     1.44778E-03     55.6105E-03     180.469E+06    -17.4531E+06    -21.2255E+06    -199.777E+06    -21.2286E+06    -199.774E+06    -17.4531E+06    -14.5723E+03
             443     47.4293E-03     973.757E-06     47.4193E-03     54.0285E-03    -26.8922E-03    -27.1372E-03    -27.1252E-03     54.0261E-03    -26.9019E-03     617.525E-06     55.1711E-03     177.221E+06    -20.4443E+06    -23.3695E+06    -199.102E+06    -23.4143E+06    -199.057E+06    -20.4443E+06    -1.93253E+06
             444     49.5820E-03     16.5530E-03     46.7373E-03     78.8934E-03    -27.4105E-03    -51.4899E-03    -27.2508E-03     54.6543E-03    -27.4105E-03     98.8445E-03     247.761E-03     176.158E+06     187.214E+06     131.188E+06    -8.85945E+06    -8.85621E+06     187.211E+06     131.188E+06     87.5645E+03
             445     49.1261E-03     15.5770E-03     46.5911E-03     78.8598E-03    -27.1476E-03    -51.7233E-03    -27.3513E-03     54.4878E-03    -27.1476E-03     99.2529E-03     216.867E-03     158.159E+06     163.512E+06     65.0502E+06    -15.5850E+06    -15.5794E+06     163.506E+06     65.0502E+06     629.216E+03
             446     48.7646E-03     14.6033E-03     46.5266E-03     60.4422E-03    -26.8494E-03    -33.6004E-03    -26.3469E-03     53.1887E-03    -26.8494E-03     48.8561E-03     146.580E-03     147.816E+06     132.661E+06     4.00395E+06    -28.1613E+06    -18.3943E+06     132.646E+06    -5.74888E+06     1.35019E+06
             447     48.4462E-03     13.6295E-03     46.4895E-03     55.9981E-03    -26.7767E-03    -29.2254E-03    -26.3901E-03     53.1628E-03    -26.7767E-03     30.1566E-03     118.872E-03     102.007E+06     71.7550E+06    -18.2146E+06    -38.3656E+06    -18.2021E+06     71.7425E+06    -38.3656E+06     1.03344E+06
             448     48.1555E-03     12.6547E-03     46.4630E-03     54.9644E-03    -26.9211E-03    -28.0749E-03    -26.5849E-03     53.4745E-03    -26.9211E-03     21.8240E-03     101.344E-03     36.5535E+06     5.28394E+06    -23.4964E+06    -35.7700E+06    -16.2486E+06    -3.83921E+06    -33.8946E+06     169.445E+03
             449     47.8896E-03     11.6808E-03     46.4432E-03     54.7545E-03    -27.0476E-03    -27.7517E-03    -26.8743E-03     53.8771E-03    -27.0476E-03     16.8125E-03     90.0349E-03     38.1683E+06    -14.9338E+06    -25.9935E+06    -55.5860E+06    -14.9388E+06    -55.5810E+06    -25.9935E+06     107.552E+03
             450     47.6465E-03     10.7073E-03     46.4279E-03     54.7239E-03    -27.1549E-03    -27.6045E-03    -27.0146E-03     54.1340E-03    -27.1549E-03     13.8479E-03     82.9561E-03     81.0393E+06    -12.5684E+06    -17.5949E+06    -95.9098E+06    -13.7868E+06    -95.9050E+06    -16.3812E+06     109.939E+03
             451     47.4233E-03     9.73392E-03     46.4136E-03     54.6873E-03    -27.2179E-03    -27.4748E-03    -27.0704E-03     54.2830E-03    -27.2179E-03     11.4141E-03     76.3090E-03     111.620E+06    -10.5196E+06    -13.9293E+06    -123.788E+06    -13.6202E+06    -123.785E+06    -10.8316E+06     414.329E+03
             452     47.2231E-03     8.76004E-03     46.4035E-03     54.6952E-03    -27.2477E-03    -27.4266E-03    -27.1420E-03     54.4106E-03    -27.2477E-03     9.63797E-03     71.1210E-03     132.601E+06    -10.8892E+06    -15.6174E+06    -145.771E+06    -15.3328E+06    -145.744E+06    -11.2012E+06    -249.373E+03
             453     47.0420E-03     7.78686E-03     46.3930E-03     54.7542E-03    -27.2790E-03    -27.4718E-03    -27.2516E-03     54.5340E-03    -27.2790E-03     8.43306E-03     67.3225E-03     151.185E+06    -9.94853E+06    -16.6473E+06    -164.324E+06    -16.7143E+06    -164.257E+06    -9.94853E+06    -1.74943E+06
             454     46.8836E-03     6.81399E-03     46.3858E-03     54.7937E-03    -27.3039E-03    -27.4915E-03    -27.3414E-03     54.6436E-03    -27.3039E-03     6.97271E-03     64.1086E-03     168.934E+06    -8.12955E+06    -16.5423E+06    -181.074E+06    -16.5926E+06    -181.023E+06    -8.12955E+06    -1.16020E+06
             455     46.7450E-03     5.84034E-03     46.3787E-03     54.7454E-03    -27.2937E-03    -27.4516E-03    -27.3483E-03     54.6421E-03    -27.2937E-03     5.78680E-03     61.4943E-03     180.664E+06    -10.8675E+06    -17.2281E+06    -194.613E+06    -17.2371E+06    -194.604E+06    -10.8675E+06    -380.209E+03
             456     46.6286E-03     4.86710E-03     46.3739E-03     54.6552E-03    -27.2588E-03    -27.3956E-03    -27.3273E-03     54.5869E-03    -27.2588E-03     4.67065E-03     59.4845E-03     182.860E+06    -14.5590E+06    -18.3159E+06    -199.261E+06    -18.3309E+06    -199.246E+06    -14.5590E+06    -132.119E+03
             457     46.5330E-03     3.89360E-03     46.3698E-03     54.5668E-03    -27.2292E-03    -27.3394E-03    -27.3007E-03     54.5282E-03    -27.2292E-03     3.47852E-03     57.8683E-03     184.295E+06    -16.3461E+06    -18.3602E+06    -201.632E+06    -18.3878E+06    -201.605E+06    -16.3461E+06     466.699E+03
             458     46.4590E-03     2.92028E-03     46.3671E-03     54.4781E-03    -27.1731E-03    -27.3077E-03    -27.2599E-03     54.4579E-03    -27.2006E-03     2.53264E-03     56.5900E-03     182.837E+06    -16.9324E+06    -19.6635E+06    -201.107E+06    -19.6823E+06    -201.089E+06    -16.9324E+06     150.369E+03
             459     46.4060E-03     1.94733E-03     46.3652E-03     54.2781E-03    -27.0156E-03    -27.2628E-03    -27.0551E-03     54.2656E-03    -27.2108E-03     1.81625E-03     55.6428E-03     180.982E+06    -17.1857E+06    -20.7657E+06    -199.923E+06    -20.7722E+06    -199.916E+06    -17.1857E+06     -34.493E+03
             460     46.3746E-03     973.440E-06     46.3644E-03     54.4106E-03    -27.0455E-03    -27.3639E-03    -27.1683E-03     54.4029E-03    -27.2334E-03     1.39969E-03     55.5823E-03     177.393E+06    -20.2966E+06    -23.5345E+06    -199.278E+06    -22.0596E+06    -199.235E+06    -21.8150E+06    -1.34227E+06
             461     48.5862E-03     16.5516E-03     45.6800E-03     78.9656E-03    -27.4365E-03    -51.5392E-03    -27.3859E-03     54.8123E-03    -27.4365E-03     99.3437E-03     248.065E-03     175.790E+06     186.964E+06     131.722E+06    -8.59373E+06    -8.58804E+06     186.958E+06     131.722E+06     318.118E+03
             462     48.1288E-03     15.5783E-03     45.5378E-03     78.7302E-03    -27.1594E-03    -51.5867E-03    -27.6058E-03     54.7493E-03    -27.1594E-03     98.8887E-03     215.921E-03     157.904E+06     163.116E+06     65.1743E+06    -15.4871E+06    -15.4761E+06     163.105E+06     65.1743E+06     983.359E+03
             463     47.7576E-03     14.6019E-03     45.4706E-03     60.5144E-03    -26.8539E-03    -33.6665E-03    -26.2409E-03     53.0887E-03    -26.8539E-03     49.2110E-03     146.222E-03     147.601E+06     132.148E+06     3.26276E+06    -28.2523E+06    -18.6764E+06     132.135E+06    -6.30015E+06     1.05242E+06
             464     47.4340E-03     13.6282E-03     45.4341E-03     56.1664E-03    -26.7858E-03    -29.3776E-03    -26.5868E-03     53.3757E-03    -26.7858E-03     30.0193E-03     118.964E-03     102.045E+06     72.6912E+06    -18.2368E+06    -37.1403E+06    -18.2264E+06     72.6808E+06    -37.1403E+06     634.267E+03
             465     47.1384E-03     12.6549E-03     45.4080E-03     55.0691E-03    -26.9182E-03    -28.1751E-03    -26.6778E-03     53.5719E-03    -26.9182E-03     21.9006E-03     101.226E-03     36.1662E+06     5.59750E+06    -23.4310E+06    -34.8757E+06    -16.8297E+06    -3.10794E+06    -32.7716E+06     123.214E+03
             466     46.8671E-03     11.6809E-03     45.3881E-03     54.7240E-03    -27.0391E-03    -27.7240E-03    -26.8453E-03     53.8454E-03    -27.0391E-03     16.8229E-03     89.9336E-03     38.2327E+06    -15.1652E+06    -25.1675E+06    -55.7557E+06    -15.1783E+06    -55.7425E+06    -25.1675E+06    -542.652E+03
             467     46.6184E-03     10.7076E-03     45.3720E-03     54.7161E-03    -27.1488E-03    -27.5988E-03    -27.0052E-03     54.1225E-03    -27.1488E-03     13.8890E-03     82.8754E-03     81.8224E+06    -12.3912E+06    -18.1201E+06    -96.8580E+06    -14.7374E+06    -96.8438E+06    -15.7880E+06     79.5247E+03
             468     46.3918E-03     9.73384E-03     45.3591E-03     54.6688E-03    -27.2168E-03    -27.4510E-03    -27.0301E-03     54.2479E-03    -27.2168E-03     11.6670E-03     76.2060E-03     111.360E+06    -10.0020E+06    -15.4765E+06    -123.991E+06    -15.4894E+06    -123.978E+06    -10.0020E+06     1.00402E+06
             469     46.1860E-03     8.76074E-03     45.3475E-03     54.6171E-03    -27.2465E-03    -27.3465E-03    -27.0493E-03     54.3200E-03    -27.2465E-03     9.82006E-03     70.9618E-03     130.350E+06    -10.4387E+06    -15.4868E+06    -143.217E+06    -15.5103E+06    -143.194E+06    -10.4387E+06    -5.31311E+03
             470     46.0026E-03     7.78688E-03     45.3388E-03     54.6240E-03    -27.2434E-03    -27.3769E-03    -27.1153E-03     54.3949E-03    -27.2758E-03     8.63224E-03     67.0679E-03     150.695E+06    -12.0212E+06    -15.3666E+06    -164.347E+06    -15.4295E+06    -164.284E+06    -12.0212E+06    -1.46032E+06
             471     45.8387E-03     6.81306E-03     45.3295E-03     54.7070E-03    -27.2904E-03    -27.4193E-03    -27.2252E-03     54.5454E-03    -27.3228E-03     7.21819E-03     63.9023E-03     169.852E+06    -10.6056E+06    -16.2156E+06    -183.179E+06    -16.2824E+06    -183.112E+06    -10.6056E+06    -1.47778E+06
             472     45.6993E-03     5.84018E-03     45.3245E-03     54.7705E-03    -27.3396E-03    -27.4331E-03    -27.3251E-03     54.6625E-03    -27.3396E-03     5.94089E-03     61.4450E-03     180.506E+06    -11.7381E+06    -17.7701E+06    -195.169E+06    -17.7946E+06    -195.145E+06    -11.7381E+06    -430.938E+03
             473     45.5787E-03     4.86654E-03     45.3181E-03     54.7209E-03    -27.3128E-03    -27.4075E-03    -27.3395E-03     54.6528E-03    -27.3128E-03     4.63000E-03     59.5039E-03     182.391E+06    -15.7119E+06    -19.2977E+06    -199.864E+06    -18.8847E+06    -199.857E+06    -16.1320E+06    -223.069E+03
             474     45.4823E-03     3.89357E-03     45.3153E-03     54.6112E-03    -27.2511E-03    -27.3606E-03    -27.2683E-03     54.5750E-03    -27.3073E-03     3.43093E-03     57.8652E-03     183.675E+06    -16.5885E+06    -20.2533E+06    -202.059E+06    -19.8488E+06    -202.043E+06    -17.0085E+06     258.308E+03
             475     45.4055E-03     2.92017E-03     45.3115E-03     54.4557E-03    -27.1037E-03    -27.3533E-03    -27.0928E-03     54.4339E-03    -27.3424E-03     2.60596E-03     56.5767E-03     182.155E+06    -16.5117E+06    -20.6693E+06    -200.699E+06    -20.1045E+06    -200.685E+06    -17.0911E+06     340.133E+03
             476     45.3527E-03     1.94620E-03     45.3110E-03     54.6055E-03    -27.0860E-03    -27.5195E-03    -27.1665E-03     54.5931E-03    -27.4266E-03     1.95167E-03     56.0401E-03     179.968E+06    -17.4956E+06    -22.0719E+06    -199.689E+06    -21.5006E+06    -199.681E+06    -18.0750E+06    -379.501E+03
             477     45.3194E-03     972.426E-06     45.3090E-03     54.8968E-03    -27.2620E-03    -27.6332E-03    -27.3475E-03     54.8894E-03    -27.5404E-03     1.36815E-03     56.1521E-03     176.314E+06    -20.6705E+06    -24.8727E+06    -199.027E+06    -23.3801E+06    -199.001E+06    -22.1889E+06     726.702E+03
             478     47.5911E-03     16.5507E-03     44.6205E-03     79.0533E-03    -27.4529E-03    -51.6099E-03    -27.5817E-03     55.0252E-03    -27.4529E-03     99.8534E-03     247.998E-03     175.872E+06     186.105E+06     131.686E+06    -9.45039E+06    -9.43383E+06     186.088E+06     131.686E+06     156.551E+03
             479     47.1321E-03     15.5770E-03     44.4837E-03     78.0276E-03    -27.1651E-03    -50.8807E-03    -27.8540E-03     55.0009E-03    -27.1651E-03     96.8347E-03     215.386E-03     158.182E+06     163.765E+06     67.4047E+06    -15.2784E+06    -15.2573E+06     163.744E+06     67.4047E+06     639.039E+03
             480     46.7544E-03     14.6034E-03     44.4153E-03     60.3777E-03    -26.8466E-03    -33.5409E-03    -26.1209E-03     52.9577E-03    -26.8466E-03     49.1633E-03     146.028E-03     147.196E+06     132.403E+06     5.19059E+06    -28.1841E+06    -17.6879E+06     132.384E+06    -5.28652E+06     1.29326E+06
             481     46.4244E-03     13.6290E-03     44.3787E-03     55.9443E-03    -26.7810E-03    -29.1635E-03    -26.3803E-03     53.1610E-03    -26.7810E-03     29.8827E-03     118.603E-03     102.500E+06     73.0339E+06    -17.7157E+06    -37.6863E+06    -17.7020E+06     73.0203E+06    -37.6863E+06     620.637E+03
             482     46.1226E-03     12.6548E-03     44.3526E-03     55.1440E-03    -26.9151E-03    -28.2521E-03    -26.7487E-03     53.6406E-03    -26.9151E-03     21.9779E-03     101.267E-03     36.8762E+06     6.36779E+06    -23.8685E+06    -34.5098E+06    -16.7712E+06    -1.87729E+06    -33.3620E+06    -9.59089E+03
             483     45.8461E-03     11.6815E-03     44.3329E-03     54.6717E-03    -27.0443E-03    -27.6667E-03    -26.7476E-03     53.7526E-03    -27.0443E-03     17.2220E-03     89.7915E-03     38.1797E+06    -16.3817E+06    -25.5610E+06    -56.0004E+06    -16.4048E+06    -55.9773E+06    -25.5610E+06        -890.578
             484     45.5922E-03     10.7072E-03     44.3171E-03     54.6490E-03    -27.1613E-03    -27.5207E-03    -26.8756E-03     54.0040E-03    -27.1613E-03     14.4476E-03     82.6968E-03     80.8654E+06    -14.7975E+06    -19.1569E+06    -97.7445E+06    -16.4286E+06    -97.7104E+06    -17.5599E+06     86.7713E+03
             485     45.3601E-03     9.73396E-03     44.3034E-03     54.7054E-03    -27.2284E-03    -27.4728E-03    -27.0262E-03     54.2588E-03    -27.2284E-03     12.0088E-03     76.1439E-03     110.743E+06    -11.8151E+06    -15.5261E+06    -124.349E+06    -14.8647E+06    -124.326E+06    -12.5002E+06     19.6869E+03
             486     45.1509E-03     8.75982E-03     44.2930E-03     54.6618E-03    -27.2674E-03    -27.3680E-03    -27.0505E-03     54.3443E-03    -27.2674E-03     10.1718E-03     70.9245E-03     129.293E+06    -11.2871E+06    -14.1408E+06    -141.969E+06    -14.1694E+06    -141.940E+06    -11.2871E+06    -240.854E+03
             487     44.9623E-03     7.78671E-03     44.2829E-03     54.6401E-03    -27.2748E-03    -27.3574E-03    -27.0886E-03     54.4037E-03    -27.3072E-03     8.74536E-03     67.0181E-03     149.878E+06    -12.7607E+06    -15.5439E+06    -164.004E+06    -15.5765E+06    -163.972E+06    -12.7607E+06    -516.042E+03
             488     44.7968E-03     6.81328E-03     44.2757E-03     54.6778E-03    -27.3179E-03    -27.3612E-03    -27.1636E-03     54.5126E-03    -27.3504E-03     7.32684E-03     63.8513E-03     168.532E+06    -14.0577E+06    -17.5524E+06    -184.301E+06    -17.2063E+06    -184.266E+06    -14.4387E+06    -613.810E+03
             489     44.6515E-03     5.83941E-03     44.2680E-03     54.8545E-03    -27.3878E-03    -27.4703E-03    -27.3613E-03     54.7456E-03    -27.3878E-03     5.90036E-03     61.5015E-03     180.233E+06    -12.8130E+06    -19.2736E+06    -196.161E+06    -18.9230E+06    -196.130E+06    -13.1940E+06    -563.947E+03
             490     44.5306E-03     4.86669E-03     44.2639E-03     54.7696E-03    -27.3040E-03    -27.4658E-03    -27.3257E-03     54.7084E-03    -27.3829E-03     4.44311E-03     59.5587E-03     182.807E+06    -14.8620E+06    -20.5709E+06    -200.426E+06    -20.1634E+06    -200.414E+06    -15.2820E+06     539.107E+03
             491     44.4301E-03     3.89298E-03     44.2592E-03     54.5658E-03    -27.1645E-03    -27.4017E-03    -27.1341E-03     54.5291E-03    -27.3955E-03     3.42657E-03     57.9002E-03     181.570E+06    -18.5440E+06    -21.5751E+06    -201.600E+06    -21.1629E+06    -201.593E+06    -18.9640E+06     503.506E+03
             492     44.3540E-03     2.91941E-03     44.2578E-03     54.6956E-03    -27.1422E-03    -27.5539E-03    -27.2267E-03     54.6756E-03    -27.4493E-03     2.50758E-03     56.8631E-03     179.310E+06    -19.8689E+06    -22.8567E+06    -200.645E+06    -22.2783E+06    -200.644E+06    -20.4483E+06    -21.2677E+03
             493     44.2976E-03     1.94581E-03     44.2548E-03     54.9677E-03    -27.3068E-03    -27.6606E-03    -27.4947E-03     54.9581E-03    -27.4632E-03     1.73156E-03     56.4005E-03     177.839E+06    -19.9812E+06    -23.8479E+06    -199.708E+06    -23.2817E+06    -199.695E+06    -20.5606E+06     481.024E+03
             494     44.2637E-03     974.239E-06     44.2530E-03     54.8320E-03    -27.2421E-03    -27.5891E-03    -27.4836E-03     54.8279E-03    -27.3436E-03     1.07045E-03     56.0561E-03     175.606E+06    -23.1665E+06    -26.7460E+06    -200.519E+06    -26.7865E+06    -200.478E+06    -23.1665E+06     753.100E+03
             495     46.6031E-03     16.5524E-03     43.5645E-03     79.1222E-03    -27.4324E-03    -51.6996E-03    -27.4471E-03     54.8697E-03    -27.4324E-03     99.9525E-03     247.474E-03     174.897E+06     185.144E+06     130.645E+06    -9.27412E+06    -9.25266E+06     185.122E+06     130.645E+06    -2.73362E+03
             496     46.1371E-03     15.5787E-03     43.4274E-03     77.9947E-03    -27.1680E-03    -50.8438E-03    -27.4397E-03     54.5906E-03    -27.1680E-03     97.2066E-03     215.428E-03     157.503E+06     162.743E+06     66.8526E+06    -16.0267E+06    -16.0063E+06     162.723E+06     66.8526E+06     290.677E+03
             497     45.7543E-03     14.6034E-03     43.3612E-03     60.7359E-03    -26.8697E-03    -33.8814E-03    -26.2968E-03     53.1514E-03    -26.8697E-03     50.0835E-03     146.897E-03     146.526E+06     132.550E+06     6.66479E+06    -27.4713E+06    -17.5739E+06     132.534E+06    -3.21572E+06     1.17047E+06
             498     45.4165E-03     13.6281E-03     43.3236E-03     55.9908E-03    -26.7969E-03    -29.2024E-03    -26.2323E-03     53.0207E-03    -26.7969E-03     30.8381E-03     118.424E-03     102.434E+06     73.9257E+06    -16.6047E+06    -36.6831E+06    -16.5841E+06     73.9051E+06    -36.6831E+06     1.10126E+06
             499     45.1083E-03     12.6546E-03     43.2969E-03     55.0346E-03    -26.9406E-03    -28.1267E-03    -26.5761E-03     53.4840E-03    -26.9406E-03     22.2551E-03     101.118E-03     38.2093E+06     7.47349E+06    -23.3762E+06    -35.0553E+06    -15.6456E+06    -1.73822E+06    -33.5742E+06     679.494E+03
             500     44.8266E-03     11.6803E-03     43.2782E-03     54.7268E-03    -27.0781E-03    -27.6995E-03    -26.7607E-03     53.7881E-03    -27.0781E-03     17.4273E-03     89.8581E-03     38.6619E+06    -15.4632E+06    -26.3150E+06    -56.1194E+06    -15.5068E+06    -56.0758E+06    -26.3150E+06     859.997E+03
             501     44.5671E-03     10.7069E-03     43.2619E-03     54.7298E-03    -27.1954E-03    -27.5714E-03    -26.9118E-03     54.0702E-03    -27.1954E-03     14.6096E-03     82.7295E-03     80.2142E+06    -14.4281E+06    -18.8795E+06    -96.7265E+06    -15.1187E+06    -96.7053E+06    -18.2100E+06    -62.3238E+03
             502     44.3299E-03     9.73287E-03     43.2483E-03     54.7233E-03    -27.2592E-03    -27.4616E-03    -27.0166E-03     54.2783E-03    -27.2592E-03     11.9878E-03     76.1711E-03     109.809E+06    -14.1111E+06    -15.8009E+06    -124.750E+06    -15.1445E+06    -124.721E+06    -14.7962E+06    -1.45428E+06
             503     44.1161E-03     8.75999E-03     43.2376E-03     54.7086E-03    -27.2954E-03    -27.3858E-03    -27.0607E-03     54.3937E-03    -27.3057E-03     10.1298E-03     70.9983E-03     129.361E+06    -12.9884E+06    -14.7539E+06    -143.214E+06    -14.6275E+06    -143.189E+06    -13.1397E+06    -564.507E+03
             504     43.9236E-03     7.78606E-03     43.2280E-03     54.7567E-03    -27.3536E-03    -27.3951E-03    -27.1484E-03     54.5202E-03    -27.3639E-03     8.76393E-03     67.1897E-03     151.131E+06    -11.0362E+06    -14.9239E+06    -164.058E+06    -14.8093E+06    -164.021E+06    -11.1874E+06     835.229E+03
             505     43.7539E-03     6.81261E-03     43.2203E-03     54.8842E-03    -27.3993E-03    -27.4887E-03    -27.3211E-03     54.7166E-03    -27.3993E-03     7.38805E-03     64.1245E-03     168.990E+06    -11.9439E+06    -17.2612E+06    -183.504E+06    -16.9167E+06    -183.467E+06    -12.3249E+06     995.046E+03
             506     43.6058E-03     5.83964E-03     43.2130E-03     54.8589E-03    -27.3413E-03    -27.5207E-03    -27.3314E-03     54.7520E-03    -27.4237E-03     5.83520E-03     61.5400E-03     180.887E+06    -12.6485E+06    -18.9276E+06    -196.547E+06    -18.5594E+06    -196.534E+06    -13.0295E+06     511.348E+03
             507     43.4811E-03     4.86609E-03     43.2080E-03     54.7472E-03    -27.2685E-03    -27.4799E-03    -27.2424E-03     54.6912E-03    -27.4500E-03     4.22015E-03     59.5944E-03     185.235E+06    -13.4016E+06    -19.7441E+06    -201.694E+06    -19.7609E+06    -201.678E+06    -13.4016E+06     169.208E+03
             508     43.3802E-03     3.89267E-03     43.2052E-03     54.7894E-03    -27.2651E-03    -27.5261E-03    -27.2998E-03     54.7581E-03    -27.4602E-03     3.16063E-03     58.1554E-03     182.338E+06    -17.1717E+06    -20.8378E+06    -201.300E+06    -20.8607E+06    -201.277E+06    -17.1717E+06     859.893E+03
             509     43.3000E-03     2.91915E-03     43.2015E-03     54.9636E-03    -27.3487E-03    -27.6175E-03    -27.5049E-03     54.9470E-03    -27.4447E-03     2.29217E-03     57.1042E-03     178.811E+06    -20.4179E+06    -22.9345E+06    -200.470E+06    -22.9556E+06    -200.449E+06    -20.4179E+06     1.28119E+06
             510     43.2433E-03     1.94728E-03     43.1994E-03     54.8588E-03    -27.3608E-03    -27.4990E-03    -27.4591E-03     54.8503E-03    -27.3922E-03     1.66936E-03     56.3125E-03     175.917E+06    -23.1183E+06    -25.3352E+06    -200.128E+06    -25.3359E+06    -200.111E+06    -23.1355E+06     1.28997E+06
             511     43.2088E-03     972.343E-06     43.1979E-03     54.6818E-03    -27.2389E-03    -27.4423E-03    -27.4052E-03     54.6761E-03    -27.2703E-03     1.36188E-03     55.8651E-03     173.735E+06    -25.4123E+06    -27.7403E+06    -200.294E+06    -26.5943E+06    -200.267E+06    -26.5847E+06     832.875E+03
             512     45.6215E-03     16.5532E-03     42.5125E-03     79.0258E-03    -27.4375E-03    -51.5950E-03    -27.0541E-03     54.4849E-03    -27.4375E-03     99.9393E-03     247.443E-03     174.287E+06     185.605E+06     130.930E+06    -8.16574E+06    -8.15191E+06     185.592E+06     130.930E+06     858.079E+03
             513     45.1429E-03     15.5747E-03     42.3711E-03     78.2784E-03    -27.1915E-03    -51.0958E-03    -27.0904E-03     54.2730E-03    -27.1915E-03     98.1685E-03     215.532E-03     157.145E+06     162.699E+06     65.2396E+06    -15.2499E+06    -15.2410E+06     162.690E+06     65.2396E+06     673.912E+03
             514     44.7549E-03     14.6018E-03     42.3059E-03     60.8803E-03    -26.9065E-03    -33.9857E-03    -26.5749E-03     53.4696E-03    -26.9065E-03     49.5584E-03     147.135E-03     146.298E+06     131.911E+06     3.83880E+06    -26.6873E+06    -18.5487E+06     131.900E+06    -4.28816E+06    -513.577E+03
             515     44.4112E-03     13.6285E-03     42.2684E-03     56.0739E-03    -26.8327E-03    -29.2513E-03    -26.3497E-03     53.1722E-03    -26.8327E-03     30.5569E-03     118.670E-03     102.055E+06     73.5606E+06    -17.3387E+06    -36.0166E+06    -17.3100E+06     73.5320E+06    -36.0166E+06     268.181E+03
             516     44.0965E-03     12.6536E-03     42.2420E-03     54.9172E-03    -26.9799E-03    -27.9751E-03    -26.4341E-03     53.3762E-03    -26.9799E-03     22.1576E-03     101.110E-03     38.1201E+06     7.53232E+06    -22.5117E+06    -35.2655E+06    -15.0029E+06    -2.17943E+06    -33.0626E+06     1.23834E+06
             517     43.8086E-03     11.6802E-03     42.2228E-03     54.8563E-03    -27.1167E-03    -27.7946E-03    -26.8702E-03     53.9319E-03    -27.1167E-03     17.2966E-03     90.1198E-03     39.3969E+06    -13.3689E+06    -25.6217E+06    -55.7194E+06    -13.4130E+06    -55.6753E+06    -25.6217E+06     800.921E+03
             518     43.5432E-03     10.7064E-03     42.2064E-03     54.8399E-03    -27.2297E-03    -27.6447E-03    -27.0138E-03     54.2089E-03    -27.2297E-03     14.3121E-03     82.8958E-03     81.4880E+06    -11.9755E+06    -17.7160E+06    -96.0433E+06    -13.0053E+06    -96.0354E+06    -16.6941E+06     572.248E+03
             519     43.3014E-03     9.73309E-03     42.1933E-03     54.7312E-03    -27.2914E-03    -27.4355E-03    -26.9934E-03     54.2976E-03    -27.3000E-03     11.8493E-03     76.2427E-03     110.257E+06    -12.5698E+06    -14.1696E+06    -123.616E+06    -14.1936E+06    -123.592E+06    -12.5698E+06    -137.950E+03
             520     43.0818E-03     8.75904E-03     42.1820E-03     54.7329E-03    -27.3249E-03    -27.3871E-03    -27.0655E-03     54.4302E-03    -27.3438E-03     9.91670E-03     71.0761E-03     129.855E+06    -13.8937E+06    -16.3391E+06    -144.938E+06    -16.2056E+06    -144.920E+06    -14.0449E+06     -660.04E+03
             521     42.8860E-03     7.78582E-03     42.1733E-03     54.8719E-03    -27.3939E-03    -27.4774E-03    -27.2382E-03     54.6429E-03    -27.4042E-03     8.65454E-03     67.3656E-03     151.369E+06    -11.3571E+06    -16.9468E+06    -165.426E+06    -16.8198E+06    -165.402E+06    -11.5083E+06     991.224E+03
             522     42.7108E-03     6.81264E-03     42.1640E-03     54.9946E-03    -27.4287E-03    -27.5683E-03    -27.3939E-03     54.8319E-03    -27.4403E-03     7.26350E-03     64.2814E-03     169.158E+06    -9.78716E+06    -16.6350E+06    -182.249E+06    -16.6610E+06    -182.223E+06    -9.78716E+06     1.45188E+06
             523     42.5606E-03     5.83950E-03     42.1581E-03     54.8673E-03    -27.3486E-03    -27.5208E-03    -27.3132E-03     54.7695E-03    -27.4583E-03     5.62522E-03     61.6137E-03     181.769E+06    -11.3902E+06    -16.9453E+06    -195.846E+06    -16.9533E+06    -195.838E+06    -11.3902E+06     346.670E+03
             524     42.4328E-03     4.86580E-03     42.1529E-03     54.8689E-03    -27.3585E-03    -27.5119E-03    -27.3394E-03     54.8147E-03    -27.4769E-03     4.14229E-03     59.7511E-03     187.507E+06    -13.1784E+06    -17.8329E+06    -202.947E+06    -17.8498E+06    -202.930E+06    -13.1784E+06     274.323E+03
             525     42.3288E-03     3.89276E-03     42.1494E-03     55.0258E-03    -27.4420E-03    -27.5856E-03    -27.5352E-03     54.9957E-03    -27.4623E-03     3.14065E-03     58.3284E-03     184.494E+06    -14.9321E+06    -19.7052E+06    -201.749E+06    -19.7317E+06    -201.722E+06    -14.9321E+06     1.36154E+06
             526     42.2469E-03     2.92038E-03     42.1459E-03     54.8956E-03    -27.3806E-03    -27.5172E-03    -27.4521E-03     54.8766E-03    -27.4267E-03     2.45733E-03     56.9848E-03     181.740E+06    -16.5763E+06    -20.6462E+06    -200.308E+06    -20.6707E+06    -200.283E+06    -16.5763E+06     1.89597E+06
             527     42.1891E-03     1.94581E-03     42.1442E-03     54.7974E-03    -27.3295E-03    -27.4691E-03    -27.3838E-03     54.7881E-03    -27.4055E-03     1.71277E-03     56.2352E-03     180.123E+06    -16.5999E+06    -21.0543E+06    -198.871E+06    -21.0496E+06    -198.858E+06    -16.6170E+06     1.19977E+06
             528     42.1540E-03     974.054E-06     42.1427E-03     54.7199E-03    -27.2665E-03    -27.4536E-03    -27.3421E-03     54.7149E-03    -27.3730E-03     1.26315E-03     55.9531E-03     176.253E+06    -19.3878E+06    -24.4421E+06    -198.080E+06    -23.3123E+06    -198.037E+06    -20.5602E+06     2.20776E+06
             529     44.6388E-03     16.5502E-03     41.4573E-03     78.8837E-03    -27.4804E-03    -51.4061E-03    -27.2279E-03     54.7055E-03    -27.4804E-03     99.6602E-03     247.984E-03     174.663E+06     185.271E+06     131.295E+06    -8.80753E+06    -8.80337E+06     185.267E+06     131.295E+06     732.264E+03
             530     44.1563E-03     15.5779E-03     41.3172E-03     78.2577E-03    -27.2068E-03    -51.0584E-03    -27.6757E-03     54.8750E-03    -27.2068E-03     97.3894E-03     215.314E-03     157.610E+06     163.877E+06     66.0867E+06    -14.1547E+06    -14.1532E+06     163.876E+06     66.0867E+06     198.991E+03
             531     43.7575E-03     14.6020E-03     41.2492E-03     60.4618E-03    -26.8962E-03    -33.5775E-03    -26.2845E-03     53.1689E-03    -26.8962E-03     48.8455E-03     146.303E-03     146.582E+06     131.837E+06     4.37957E+06    -27.8412E+06    -16.8352E+06     131.827E+06    -6.61645E+06    -700.948E+03
             532     43.4081E-03     13.6278E-03     41.2134E-03     55.9445E-03    -26.8353E-03    -29.1226E-03    -26.3382E-03     53.1601E-03    -26.8353E-03     29.9241E-03     118.857E-03     101.954E+06     71.7704E+06    -17.0365E+06    -38.8499E+06    -17.0172E+06     71.7511E+06    -38.8499E+06    -292.869E+03
             533     43.0875E-03     12.6538E-03     41.1876E-03     55.0275E-03    -26.9884E-03    -28.0808E-03    -26.5506E-03     53.4973E-03    -26.9884E-03     22.1498E-03     101.318E-03     37.7995E+06     7.04751E+06    -23.1461E+06    -35.1133E+06    -15.0589E+06    -2.18954E+06    -33.9634E+06     532.657E+03
             534     42.7915E-03     11.6796E-03     41.1667E-03     54.8351E-03    -27.1314E-03    -27.7507E-03    -26.8431E-03     53.9275E-03    -27.1314E-03     17.0829E-03     90.1592E-03     40.3498E+06    -13.1101E+06    -25.1127E+06    -55.7066E+06    -13.1266E+06    -55.6902E+06    -25.1127E+06     677.978E+03
             535     42.5215E-03     10.7063E-03     41.1516E-03     54.8257E-03    -27.2488E-03    -27.6060E-03    -27.0032E-03     54.2229E-03    -27.2488E-03     14.0111E-03     82.9740E-03     82.4934E+06    -11.7439E+06    -16.5627E+06    -96.4224E+06    -12.6618E+06    -96.4088E+06    -15.6585E+06     1.00121E+06
             536     42.2732E-03     9.73248E-03     41.1376E-03     54.7799E-03    -27.3033E-03    -27.4708E-03    -27.0265E-03     54.3630E-03    -27.3309E-03     11.5813E-03     76.3903E-03     111.838E+06    -8.90794E+06    -13.1596E+06    -122.757E+06    -13.2066E+06    -122.710E+06    -8.90794E+06     1.79194E+06
             537     42.0498E-03     8.75934E-03     41.1274E-03     54.7788E-03    -27.3514E-03    -27.4199E-03    -27.1048E-03     54.4912E-03    -27.3790E-03     9.68614E-03     71.2077E-03     132.252E+06    -10.1705E+06    -15.3182E+06    -144.858E+06    -15.3616E+06    -144.814E+06    -10.1705E+06     1.52318E+06
             538     41.8478E-03     7.78580E-03     41.1171E-03     54.9198E-03    -27.4140E-03    -27.5125E-03    -27.2846E-03     54.6918E-03    -27.4140E-03     8.62438E-03     67.4326E-03     151.627E+06    -12.4465E+06    -17.7621E+06    -166.643E+06    -17.7669E+06    -166.638E+06    -12.4465E+06     577.226E+03
             539     41.6698E-03     6.81260E-03     41.1092E-03     54.8816E-03    -27.3696E-03    -27.5030E-03    -27.2700E-03     54.7244E-03    -27.4454E-03     7.13827E-03     64.1637E-03     166.811E+06    -11.9277E+06    -17.8940E+06    -181.631E+06    -17.8990E+06    -181.626E+06    -11.9277E+06     286.588E+03
             540     41.5150E-03     5.83900E-03     41.1023E-03     54.8953E-03    -27.3848E-03    -27.5095E-03    -27.3208E-03     54.7979E-03    -27.4762E-03     5.60982E-03     61.6430E-03     179.485E+06    -13.0536E+06    -18.1003E+06    -194.993E+06    -18.1079E+06    -194.986E+06    -13.0536E+06    -168.526E+03
             541     41.3851E-03     4.86615E-03     41.0980E-03     55.0423E-03    -27.4623E-03    -27.5804E-03    -27.5054E-03     54.9829E-03    -27.4780E-03     4.39211E-03     59.8578E-03     186.882E+06    -15.5470E+06    -18.5153E+06    -203.877E+06    -18.4216E+06    -203.864E+06    -15.6534E+06     209.352E+03
             542     41.2771E-03     3.89301E-03     41.0931E-03     54.9846E-03    -27.4291E-03    -27.5572E-03    -27.4857E-03     54.9498E-03    -27.4658E-03     3.33871E-03     58.2576E-03     186.109E+06    -14.5460E+06    -17.6574E+06    -202.175E+06    -17.5629E+06    -202.163E+06    -14.6525E+06     683.472E+03
             543     41.1947E-03     2.91915E-03     41.0911E-03     54.9398E-03    -27.3812E-03    -27.5595E-03    -27.4579E-03     54.9209E-03    -27.4639E-03     2.46488E-03     57.0245E-03     184.821E+06    -11.2795E+06    -17.7655E+06    -199.221E+06    -17.7697E+06    -199.217E+06    -11.2795E+06     312.706E+03
             544     41.1346E-03     1.94693E-03     41.0885E-03     54.9074E-03    -27.3515E-03    -27.5562E-03    -27.4768E-03     54.8982E-03    -27.4216E-03     1.68294E-03     56.3137E-03     183.022E+06    -11.5060E+06    -19.2084E+06    -198.214E+06    -19.2134E+06    -198.209E+06    -11.5060E+06     454.471E+03
             545     41.0984E-03     972.819E-06     41.0869E-03     54.6729E-03    -27.2345E-03    -27.4392E-03    -27.2917E-03     54.6689E-03    -27.3779E-03     1.13670E-03     56.0509E-03     177.856E+06    -16.3798E+06    -21.9912E+06    -196.952E+06    -21.3344E+06    -196.919E+06    -17.0696E+06     1.37847E+06
             546     43.6563E-03     16.5499E-03     40.3977E-03     78.9586E-03    -27.4932E-03    -51.4643E-03    -27.3003E-03     54.7946E-03    -27.4932E-03     100.114E-03     248.306E-03     174.548E+06     185.545E+06     132.362E+06    -8.30599E+06    -8.29341E+06     185.532E+06     132.362E+06    -97.3212E+03
             547     43.1698E-03     15.5765E-03     40.2617E-03     78.0023E-03    -27.2098E-03    -50.8043E-03    -27.9384E-03     55.1364E-03    -27.2098E-03     96.4605E-03     215.425E-03     157.833E+06     163.401E+06     66.3794E+06    -14.8440E+06    -14.8350E+06     163.392E+06     66.3794E+06    -653.818E+03
             548     42.7653E-03     14.6026E-03     40.1949E-03     60.3654E-03    -26.8858E-03    -33.5001E-03    -26.1492E-03     53.0145E-03    -26.8858E-03     48.9988E-03     146.254E-03     146.591E+06     131.247E+06     4.06232E+06    -28.5728E+06    -17.4992E+06     131.244E+06    -7.00826E+06     232.158E+03
             549     42.4074E-03     13.6275E-03     40.1582E-03     55.8064E-03    -26.8299E-03    -28.9928E-03    -26.2303E-03     53.0438E-03    -26.8299E-03     29.7165E-03     118.993E-03     101.704E+06     71.3482E+06    -17.3285E+06    -39.0138E+06    -17.3253E+06     71.3450E+06    -39.0138E+06     316.781E+03
             550     42.0796E-03     12.6538E-03     40.1319E-03     55.1511E-03    -26.9804E-03    -28.2093E-03    -26.7175E-03     53.6592E-03    -26.9804E-03     21.9084E-03     101.541E-03     36.8058E+06     5.73942E+06    -23.6339E+06    -35.3590E+06    -16.5595E+06    -2.44537E+06    -34.2487E+06     326.523E+03
             551     41.7779E-03     11.6804E-03     40.1119E-03     54.7692E-03    -27.1237E-03    -27.6854E-03    -26.8088E-03     53.8926E-03    -27.1237E-03     16.7755E-03     90.1257E-03     38.6689E+06    -15.7886E+06    -24.6102E+06    -55.7583E+06    -15.8184E+06    -55.7285E+06    -24.6102E+06     682.485E+03
             552     41.5007E-03     10.7062E-03     40.0959E-03     54.6661E-03    -27.2399E-03    -27.4537E-03    -26.8765E-03     54.0889E-03    -27.2399E-03     13.6890E-03     82.9206E-03     81.4327E+06    -14.1936E+06    -16.7151E+06    -96.8429E+06    -15.0014E+06    -96.8340E+06    -15.9162E+06     779.101E+03
             553     41.2472E-03     9.73302E-03     40.0824E-03     54.7307E-03    -27.3041E-03    -27.4222E-03    -26.9991E-03     54.3265E-03    -27.3231E-03     11.4085E-03     76.4300E-03     112.104E+06    -9.74977E+06    -14.5808E+06    -124.144E+06    -14.6234E+06    -124.101E+06    -9.74977E+06     1.55018E+06
             554     41.0180E-03     8.75910E-03     40.0719E-03     54.8302E-03    -27.3637E-03    -27.4529E-03    -27.1460E-03     54.5423E-03    -27.3827E-03     9.70325E-03     71.3525E-03     133.552E+06    -7.48773E+06    -14.0800E+06    -144.153E+06    -14.1453E+06    -144.087E+06    -7.48773E+06     2.38063E+06
             555     40.8114E-03     7.78590E-03     40.0618E-03     54.8638E-03    -27.3820E-03    -27.4792E-03    -27.2209E-03     54.6395E-03    -27.4159E-03     8.53915E-03     67.4605E-03     153.424E+06    -9.80298E+06    -14.2979E+06    -165.385E+06    -14.3249E+06    -165.358E+06    -9.80298E+06     1.39059E+06
             556     40.6289E-03     6.81249E-03     40.0537E-03     54.8169E-03    -27.3396E-03    -27.4632E-03    -27.1999E-03     54.6678E-03    -27.4538E-03     6.95303E-03     64.1386E-03     168.145E+06    -10.9365E+06    -16.0866E+06    -181.584E+06    -16.0907E+06    -181.580E+06    -10.9365E+06     120.004E+03
             557     40.4710E-03     5.83906E-03     40.0476E-03     54.9081E-03    -27.3769E-03    -27.5291E-03    -27.3106E-03     54.8084E-03    -27.4958E-03     5.70197E-03     61.6779E-03     180.309E+06    -11.9364E+06    -17.4806E+06    -194.944E+06    -17.4852E+06    -194.940E+06    -11.9364E+06     75.5775E+03
             558     40.3361E-03     4.86570E-03     40.0416E-03     55.0228E-03    -27.4483E-03    -27.5747E-03    -27.4530E-03     54.9601E-03    -27.5073E-03     4.48159E-03     59.8679E-03     187.081E+06    -14.6469E+06    -18.5316E+06    -203.626E+06    -18.4273E+06    -203.624E+06    -14.7533E+06    -234.737E+03
             559     40.2274E-03     3.89263E-03     40.0386E-03     55.0372E-03    -27.4450E-03    -27.5924E-03    -27.4998E-03     55.0016E-03    -27.5020E-03     3.38236E-03     58.3993E-03     185.556E+06    -14.7691E+06    -19.1504E+06    -202.461E+06    -19.0468E+06    -202.458E+06    -14.8755E+06    -636.827E+03
             560     40.1413E-03     2.91985E-03     40.0350E-03     55.0409E-03    -27.4356E-03    -27.6065E-03    -27.5498E-03     55.0208E-03    -27.4722E-03     2.50088E-03     57.2409E-03     181.104E+06    -14.2626E+06    -20.6068E+06    -198.416E+06    -20.3285E+06    -198.413E+06    -14.5439E+06    -303.209E+03
             561     40.0803E-03     1.94635E-03     40.0330E-03     54.8885E-03    -27.3754E-03    -27.5147E-03    -27.4824E-03     54.8803E-03    -27.3995E-03     1.60253E-03     56.3447E-03     177.953E+06    -18.2470E+06    -23.6968E+06    -198.823E+06    -23.4191E+06    -198.820E+06    -18.5283E+06    -256.173E+03
             562     40.0441E-03     973.757E-06     40.0322E-03     54.6566E-03    -27.2652E-03    -27.3914E-03    -27.2984E-03     54.6525E-03    -27.3541E-03     1.14852E-03     56.0806E-03     174.112E+06    -21.3353E+06    -24.4627E+06    -196.989E+06    -23.2701E+06    -196.985E+06    -22.5316E+06    -639.680E+03
             563     42.6836E-03     16.5523E-03     39.3435E-03     78.9946E-03    -27.4408E-03    -51.5522E-03    -27.1960E-03     54.6384E-03    -27.4408E-03     100.194E-03     247.696E-03     174.100E+06     184.991E+06     130.258E+06    -8.56603E+06    -8.55326E+06     184.978E+06     130.258E+06    -353.886E+03
             564     42.1862E-03     15.5767E-03     39.2051E-03     77.3127E-03    -27.1821E-03    -50.1398E-03    -27.2189E-03     54.3918E-03    -27.1821E-03     95.6397E-03     215.175E-03     157.335E+06     162.903E+06     64.2089E+06    -14.9734E+06    -14.9627E+06     162.892E+06     64.2089E+06    -1.07621E+06
             565     41.7754E-03     14.6025E-03     39.1402E-03     60.3639E-03    -26.8893E-03    -33.4911E-03    -26.2924E-03     53.1652E-03    -26.8893E-03     48.6499E-03     146.995E-03     146.025E+06     131.074E+06     3.42975E+06    -27.6035E+06    -17.9438E+06     131.061E+06    -6.21701E+06     545.442E+03
             566     41.4101E-03     13.6283E-03     39.1033E-03     55.9768E-03    -26.8209E-03    -29.1657E-03    -26.3366E-03     53.1477E-03    -26.8209E-03     30.1318E-03     119.420E-03     102.167E+06     71.7274E+06    -18.5758E+06    -38.5454E+06    -18.5406E+06     71.6922E+06    -38.5454E+06     1.41180E+06
             567     41.0742E-03     12.6542E-03     39.0763E-03     55.1133E-03    -26.9636E-03    -28.1741E-03    -26.6668E-03     53.6060E-03    -26.9636E-03     21.9839E-03     101.653E-03     37.5858E+06     5.87424E+06    -24.1728E+06    -36.2079E+06    -17.6197E+06    -2.39108E+06    -34.4957E+06     757.147E+03
             568     40.7659E-03     11.6803E-03     39.0567E-03     54.7664E-03    -27.1077E-03    -27.6914E-03    -26.8081E-03     53.8831E-03    -27.1077E-03     16.8627E-03     90.2514E-03     38.0840E+06    -16.5225E+06    -24.7110E+06    -56.0963E+06    -16.5546E+06    -56.0641E+06    -24.7110E+06     492.949E+03
             569     40.4825E-03     10.7070E-03     39.0409E-03     54.6382E-03    -27.2169E-03    -27.4453E-03    -26.8547E-03     54.0475E-03    -27.2169E-03     13.8351E-03     82.9340E-03     80.5791E+06    -15.2061E+06    -17.5552E+06    -96.9208E+06    -15.9311E+06    -96.9142E+06    -16.8368E+06     617.566E+03
             570     40.2227E-03     9.73260E-03     39.0275E-03     54.6548E-03    -27.2651E-03    -27.3823E-03    -26.9485E-03     54.2484E-03    -27.2925E-03     11.4326E-03     76.3380E-03     111.030E+06    -12.4089E+06    -15.8718E+06    -125.117E+06    -15.8763E+06    -125.113E+06    -12.4089E+06     590.113E+03
             571     39.9874E-03     8.75950E-03     39.0162E-03     54.7333E-03    -27.3033E-03    -27.3998E-03    -27.0496E-03     54.4426E-03    -27.3628E-03     9.73882E-03     71.2890E-03     132.309E+06    -8.68043E+06    -15.6937E+06    -144.350E+06    -15.7183E+06    -144.325E+06    -8.68043E+06     1.21518E+06
             572     39.7762E-03     7.78602E-03     39.0067E-03     54.7891E-03    -27.3374E-03    -27.4366E-03    -27.1342E-03     54.5654E-03    -27.4160E-03     8.50981E-03     67.4241E-03     151.976E+06    -8.54082E+06    -15.4555E+06    -163.822E+06    -15.4833E+06    -163.794E+06    -8.54082E+06     1.37832E+06
             573     39.5891E-03     6.81239E-03     38.9986E-03     54.8480E-03    -27.3835E-03    -27.4587E-03    -27.2342E-03     54.6987E-03    -27.4587E-03     6.96970E-03     64.1735E-03     168.878E+06    -9.69062E+06    -15.6436E+06    -181.444E+06    -15.6506E+06    -181.437E+06    -9.69062E+06     586.437E+03
             574     39.4268E-03     5.83915E-03     38.9920E-03     54.8934E-03    -27.3911E-03    -27.5039E-03    -27.2920E-03     54.7943E-03    -27.5039E-03     5.66270E-03     61.6991E-03     181.662E+06    -9.70117E+06    -17.0608E+06    -194.928E+06    -17.0665E+06    -194.922E+06    -9.70117E+06     443.161E+03
             575     39.2890E-03     4.86582E-03     38.9866E-03     54.9143E-03    -27.3850E-03    -27.5305E-03    -27.3250E-03     54.8544E-03    -27.5305E-03     4.38337E-03     59.8548E-03     187.019E+06    -12.6387E+06    -19.3885E+06    -202.936E+06    -19.3924E+06    -202.932E+06    -12.6387E+06     235.624E+03
             576     39.1763E-03     3.89245E-03     38.9825E-03     55.0252E-03    -27.4389E-03    -27.5863E-03    -27.4589E-03     54.9888E-03    -27.5299E-03     3.42126E-03     58.4725E-03     183.751E+06    -16.4243E+06    -21.2391E+06    -202.522E+06    -21.2431E+06    -202.518E+06    -16.4243E+06    -3.89909E+03
             577     39.0887E-03     2.91939E-03     38.9795E-03     55.0062E-03    -27.4375E-03    -27.5702E-03    -27.4759E-03     54.9836E-03    -27.5092E-03     2.67618E-03     57.2616E-03     177.547E+06    -20.0188E+06    -22.5811E+06    -198.814E+06    -22.3083E+06    -198.806E+06    -20.3000E+06    -180.356E+03
             578     39.0264E-03     1.94649E-03     38.9778E-03     55.0084E-03    -27.4482E-03    -27.5618E-03    -27.5086E-03     54.9973E-03    -27.4903E-03     1.84675E-03     56.4845E-03     176.817E+06    -20.9954E+06    -23.0401E+06    -198.823E+06    -22.0577E+06    -198.816E+06    -21.9851E+06    -388.061E+03
             579     38.9887E-03     972.952E-06     38.9765E-03     54.9266E-03    -27.3313E-03    -27.5958E-03    -27.5691E-03     54.9219E-03    -27.3533E-03     1.23039E-03     56.2111E-03     174.487E+06    -20.9443E+06    -25.1701E+06    -197.492E+06    -23.9836E+06    -197.463E+06    -22.1593E+06    -1.36667E+06
             580     41.7145E-03     16.5532E-03     38.2896E-03     78.6909E-03    -27.3940E-03    -51.3009E-03    -27.2563E-03     54.6462E-03    -27.3940E-03     98.8004E-03     246.997E-03     174.011E+06     185.725E+06     130.979E+06    -7.67481E+06    -7.67339E+06     185.723E+06     130.979E+06     10.7248E+03
             581     41.2083E-03     15.5775E-03     38.1506E-03     77.1241E-03    -27.1471E-03    -49.9841E-03    -26.4225E-03     53.5625E-03    -27.1471E-03     96.5964E-03     214.945E-03     157.079E+06     163.117E+06     63.3349E+06    -14.1200E+06    -14.1153E+06     163.113E+06     63.3349E+06     107.084E+03
             582     40.7881E-03     14.6020E-03     38.0848E-03     60.4484E-03    -26.8786E-03    -33.5787E-03    -26.1490E-03     53.0187E-03    -26.8786E-03     49.2282E-03     147.197E-03     145.905E+06     129.061E+06     888.675E+03    -29.3356E+06    -19.0172E+06     129.042E+06    -9.41096E+06     1.03644E+06
             583     40.4148E-03     13.6282E-03     38.0477E-03     56.2321E-03    -26.8160E-03    -29.4196E-03    -26.5673E-03     53.3798E-03    -26.8160E-03     30.3852E-03     119.654E-03     103.588E+06     72.6656E+06    -19.3165E+06    -39.1751E+06    -19.2744E+06     72.6234E+06    -39.1751E+06     1.74962E+06
             584     40.0720E-03     12.6542E-03     38.0215E-03     55.0898E-03    -26.9532E-03    -28.1601E-03    -26.6278E-03     53.5575E-03    -26.9532E-03     22.1418E-03     101.533E-03     40.2474E+06     7.95850E+06    -25.4330E+06    -36.6670E+06    -17.4158E+06    -1.73371E+06    -34.9919E+06     706.974E+03
             585     39.7556E-03     11.6805E-03     38.0010E-03     54.7044E-03    -27.1032E-03    -27.6397E-03    -26.7435E-03     53.8082E-03    -27.1032E-03     16.9896E-03     90.2097E-03     39.1471E+06    -16.1539E+06    -25.3055E+06    -56.5667E+06    -16.1657E+06    -56.5548E+06    -25.3055E+06     414.416E+03
             586     39.4659E-03     10.7063E-03     37.9860E-03     54.7717E-03    -27.2213E-03    -27.5818E-03    -26.9761E-03     54.1660E-03    -27.2213E-03     14.0203E-03     83.0889E-03     80.9499E+06    -14.5557E+06    -17.4749E+06    -96.9109E+06    -16.3322E+06    -96.8979E+06    -15.7115E+06     900.159E+03
             587     39.1994E-03     9.73362E-03     37.9717E-03     54.7178E-03    -27.2473E-03    -27.4626E-03    -27.0162E-03     54.3096E-03    -27.2856E-03     11.4694E-03     76.3463E-03     110.808E+06    -11.7715E+06    -17.0468E+06    -125.112E+06    -17.0585E+06      -125.1E+06    -11.7715E+06     987.535E+03
             588     38.9591E-03     8.75943E-03     37.9616E-03     54.6052E-03    -27.2221E-03    -27.3426E-03    -26.9302E-03     54.3134E-03    -27.3426E-03     9.74168E-03     71.1083E-03     130.268E+06    -10.2249E+06    -18.0641E+06    -144.232E+06    -18.0710E+06    -144.226E+06    -10.2249E+06     330.327E+03
             589     38.7414E-03     7.78568E-03     37.9510E-03     54.6994E-03    -27.2743E-03    -27.4030E-03    -27.0505E-03     54.4755E-03    -27.4030E-03     8.50235E-03     67.2566E-03     149.553E+06    -10.1023E+06    -18.0308E+06    -163.450E+06    -18.0431E+06    -163.437E+06    -10.1023E+06    -221.858E+03
             590     38.5503E-03     6.81261E-03     37.9435E-03     54.8047E-03    -27.3506E-03    -27.4506E-03    -27.1975E-03     54.6515E-03    -27.4506E-03     7.06553E-03     64.0489E-03     166.611E+06    -11.5749E+06    -17.7808E+06    -181.187E+06    -17.7956E+06    -181.172E+06    -11.5749E+06     264.018E+03
             591     38.3830E-03     5.83919E-03     37.9362E-03     54.8560E-03    -27.3625E-03    -27.4964E-03    -27.2568E-03     54.7503E-03    -27.4964E-03     5.84477E-03     61.6238E-03     180.038E+06    -12.5471E+06    -18.1976E+06    -195.328E+06    -18.2055E+06    -195.320E+06    -12.5471E+06     765.569E+03
             592     38.2424E-03     4.86581E-03     37.9315E-03     54.9427E-03    -27.4092E-03    -27.5349E-03    -27.3424E-03     54.8758E-03    -27.5349E-03     4.65076E-03     59.8729E-03     186.557E+06    -12.9940E+06    -18.5514E+06    -202.257E+06    -18.5572E+06    -202.251E+06    -12.9940E+06     830.498E+03
             593     38.1261E-03     3.89254E-03     37.9268E-03     54.9678E-03    -27.4298E-03    -27.5383E-03    -27.3921E-03     54.9300E-03    -27.5383E-03     3.46151E-03     58.3896E-03     183.682E+06    -16.5008E+06    -20.6070E+06    -202.193E+06    -19.1824E+06    -202.183E+06    -17.9355E+06     154.709E+03
             594     38.0365E-03     2.91913E-03     37.9243E-03     54.9752E-03    -27.4010E-03    -27.5753E-03    -27.3823E-03     54.9565E-03    -27.5753E-03     2.41273E-03     57.1805E-03     179.822E+06    -16.9307E+06    -21.2428E+06    -198.837E+06    -19.8214E+06    -198.824E+06    -18.3654E+06    -368.096E+03
             595     37.9717E-03     1.94558E-03     37.9219E-03     55.1346E-03    -27.4745E-03    -27.6620E-03    -27.4934E-03     55.1240E-03    -27.6324E-03     1.81116E-03     56.6048E-03     179.175E+06    -16.8144E+06    -22.9069E+06    -198.917E+06    -22.2048E+06    -198.911E+06    -17.5229E+06     133.553E+03
             596     37.9332E-03     973.258E-06     37.9207E-03     55.2144E-03    -27.4101E-03    -27.8060E-03    -27.7546E-03     55.2096E-03    -27.4568E-03     1.00109E-03     56.5338E-03     173.939E+06    -20.5578E+06    -29.1352E+06    -198.597E+06    -25.3915E+06    -198.549E+06    -24.3493E+06     251.760E+03
             597     40.7493E-03     16.5544E-03     37.2352E-03     78.3361E-03    -27.4055E-03    -50.9381E-03    -27.0969E-03     54.4949E-03    -27.4055E-03     97.8192E-03     246.986E-03     173.762E+06     185.044E+06     131.480E+06    -7.86924E+06    -7.85761E+06     185.033E+06     131.480E+06    -48.1405E+03
             598     40.2359E-03     15.5772E-03     37.0983E-03     77.8492E-03    -27.1533E-03    -50.7032E-03    -26.6578E-03     53.8038E-03    -27.1533E-03     98.0749E-03     215.512E-03     157.169E+06     161.548E+06     62.7040E+06    -15.7541E+06    -15.6859E+06     161.480E+06     62.7040E+06     2.48469E+06
             599     39.8038E-03     14.6019E-03     37.0288E-03     60.6396E-03    -26.8817E-03    -33.7617E-03    -26.2184E-03     53.0963E-03    -26.8817E-03     49.5994E-03     147.021E-03     146.549E+06     129.455E+06    -380.073E+03    -28.8649E+06    -20.4552E+06     129.383E+06    -8.71721E+06     2.11973E+06
             600     39.4231E-03     13.6279E-03     36.9927E-03     56.0830E-03    -26.8207E-03    -29.2631E-03    -26.4820E-03     53.3019E-03    -26.8207E-03     29.9412E-03     119.276E-03     103.728E+06     73.4062E+06    -19.4305E+06    -37.9057E+06    -19.4128E+06     73.3885E+06    -37.9057E+06     184.411E+03
             601     39.0715E-03     12.6544E-03     36.9655E-03     55.0237E-03    -26.9601E-03    -28.0948E-03    -26.5901E-03     53.5190E-03    -26.9601E-03     21.9593E-03     101.396E-03     38.8965E+06     7.06268E+06    -23.7904E+06    -36.4230E+06    -17.4742E+06    -1.74805E+06    -33.9284E+06     661.353E+03
             602     38.7492E-03     11.6801E-03     36.9470E-03     54.7330E-03    -27.1081E-03    -27.6755E-03    -26.7655E-03     53.8229E-03    -27.1081E-03     17.1284E-03     90.2106E-03     37.9690E+06    -17.3426E+06    -25.0179E+06    -56.7160E+06    -17.4681E+06    -56.5906E+06    -25.0179E+06     1.11521E+06
             603     38.4504E-03     10.7069E-03     36.9296E-03     54.7536E-03    -27.2189E-03    -27.5735E-03    -26.9507E-03     54.1419E-03    -27.2300E-03     14.0800E-03     83.0176E-03     80.8508E+06    -14.2018E+06    -18.8090E+06    -97.2368E+06    -17.5821E+06    -97.2161E+06    -15.4495E+06     1.26422E+06
             604     38.1787E-03     9.73288E-03     36.9172E-03     54.7318E-03    -27.2699E-03    -27.4607E-03    -27.0176E-03     54.3107E-03    -27.2919E-03     11.6810E-03     76.3318E-03     109.816E+06    -12.1602E+06    -17.5690E+06    -124.550E+06    -17.5936E+06    -124.525E+06    -12.1602E+06     803.878E+03
             605     37.9312E-03     8.75981E-03     36.9059E-03     54.7310E-03    -27.2721E-03    -27.4354E-03    -27.0698E-03     54.4263E-03    -27.3331E-03     9.96317E-03     71.1688E-03     128.692E+06    -11.5361E+06    -16.7872E+06    -142.737E+06    -16.7981E+06    -142.726E+06    -11.5361E+06    -226.537E+03
             606     37.7093E-03     7.78629E-03     36.8966E-03     54.6662E-03    -27.2291E-03    -27.4218E-03    -27.0434E-03     54.4391E-03    -27.3803E-03     8.57849E-03     67.1439E-03     148.665E+06    -12.5680E+06    -17.4908E+06    -163.605E+06    -17.4983E+06    -163.598E+06    -12.5680E+06    -604.587E+03
             607     37.5114E-03     6.81235E-03     36.8877E-03     54.6598E-03    -27.2157E-03    -27.4333E-03    -27.0600E-03     54.5041E-03    -27.4333E-03     7.09658E-03     63.8526E-03     165.496E+06    -15.3476E+06    -18.6258E+06    -182.456E+06    -18.6367E+06    -182.445E+06    -15.3476E+06    -272.317E+03
             608     37.3412E-03     5.83884E-03     36.8818E-03     54.8362E-03    -27.3386E-03    -27.4992E-03    -27.2306E-03     54.7281E-03    -27.4992E-03     5.93493E-03     61.5763E-03     178.619E+06    -15.2072E+06    -18.8098E+06    -195.598E+06    -18.8193E+06    -195.589E+06    -15.2072E+06     694.043E+03
             609     37.1949E-03     4.86550E-03     36.8753E-03     55.0194E-03    -27.4831E-03    -27.5376E-03    -27.4204E-03     54.9508E-03    -27.5317E-03     4.68653E-03     59.9359E-03     183.623E+06    -15.9248E+06    -19.2604E+06    -201.184E+06    -19.2683E+06    -201.176E+06    -15.9248E+06     569.363E+03
             610     37.0768E-03     3.89247E-03     36.8719E-03     55.0145E-03    -27.4721E-03    -27.5426E-03    -27.4433E-03     54.9798E-03    -27.5367E-03     3.32863E-03     58.4291E-03     183.083E+06    -16.6975E+06    -20.8929E+06    -201.831E+06    -19.4695E+06    -201.819E+06    -18.1322E+06    -154.250E+03
             611     36.9836E-03     2.91930E-03     36.8682E-03     55.0121E-03    -27.4345E-03    -27.5773E-03    -27.4301E-03     54.9942E-03    -27.5638E-03     2.36385E-03     57.2221E-03     181.378E+06    -16.0259E+06    -21.7092E+06    -200.157E+06    -20.2853E+06    -200.146E+06    -17.4606E+06     314.078E+03
             612     36.9181E-03     1.94638E-03     36.8668E-03     55.1084E-03    -27.4827E-03    -27.6264E-03    -27.5014E-03     55.0992E-03    -27.5985E-03     1.65740E-03     56.5839E-03     179.341E+06    -15.3397E+06    -23.1826E+06    -198.440E+06    -23.1875E+06    -198.435E+06    -15.3397E+06     437.001E+03
             613     36.8768E-03     972.581E-06     36.8640E-03     55.0826E-03    -27.4202E-03    -27.6636E-03    -27.6139E-03     55.0795E-03    -27.4669E-03     668.466E-06     56.4786E-03     172.662E+06    -19.7444E+06    -31.1032E+06    -197.799E+06    -28.0742E+06    -197.745E+06    -22.8274E+06     1.98691E+06
             614     39.7879E-03     16.5502E-03     36.1824E-03     78.0226E-03    -27.4655E-03    -50.5607E-03    -26.8121E-03     54.2741E-03    -27.4655E-03     97.6663E-03     246.783E-03     173.428E+06     182.280E+06     129.381E+06    -10.2405E+06    -10.2103E+06     182.249E+06     129.381E+06     427.763E+03
             615     39.2633E-03     15.5765E-03     36.0414E-03     78.9195E-03    -27.2096E-03    -51.7167E-03    -27.8224E-03     55.0252E-03    -27.2096E-03     98.7572E-03     216.106E-03     157.684E+06     160.870E+06     64.8784E+06    -17.7875E+06    -17.7035E+06     160.786E+06     64.8784E+06     3.09855E+06
             616     38.8259E-03     14.6031E-03     35.9750E-03     60.9708E-03    -26.8950E-03    -34.0815E-03    -26.6022E-03     53.4916E-03    -26.8950E-03     49.7609E-03     146.990E-03     147.270E+06     133.339E+06     6.16929E+06     -27.182E+06    -17.5466E+06     133.272E+06    -3.39882E+06     1.84185E+06
             617     38.4336E-03     13.6286E-03     35.9361E-03     55.8631E-03    -26.8083E-03    -29.0557E-03    -26.2572E-03     53.0647E-03    -26.8083E-03     29.9117E-03     118.714E-03     102.759E+06     73.0359E+06    -17.0338E+06    -38.0329E+06    -17.0006E+06     73.0027E+06    -38.0329E+06     301.993E+03
             618     38.0760E-03     12.6538E-03     35.9118E-03     54.9354E-03    -26.9589E-03    -28.0118E-03    -26.5138E-03     53.4374E-03    -26.9589E-03     21.9121E-03     101.223E-03     37.6091E+06     5.69516E+06    -23.1806E+06    -36.4724E+06    -16.8062E+06    -2.53999E+06    -34.6116E+06     985.345E+03
             619     37.7431E-03     11.6804E-03     35.8903E-03     54.7621E-03    -27.1079E-03    -27.7058E-03    -26.7854E-03     53.8417E-03    -27.1079E-03     17.2209E-03     90.1029E-03     38.8098E+06    -15.6855E+06    -25.3938E+06    -56.5173E+06    -15.8322E+06    -56.3706E+06    -25.3938E+06     1.54418E+06
             620     37.4390E-03     10.7065E-03     35.8755E-03     54.6742E-03    -27.2170E-03    -27.4832E-03    -26.8606E-03     54.0627E-03    -27.2282E-03     14.0671E-03     82.8773E-03     81.7960E+06    -13.1327E+06    -18.6247E+06    -97.4732E+06    -15.4178E+06    -97.4389E+06    -16.3739E+06     1.27989E+06
             621     37.1585E-03     9.73287E-03     35.8612E-03     54.7079E-03    -27.2804E-03    -27.4195E-03    -26.9760E-03     54.2838E-03    -27.2999E-03     11.7162E-03     76.2729E-03     108.959E+06    -12.0128E+06    -15.5570E+06    -122.664E+06    -15.5751E+06    -122.646E+06    -12.0128E+06     409.666E+03
             622     36.9055E-03     8.75920E-03     35.8510E-03     54.8061E-03    -27.3277E-03    -27.4657E-03    -27.1507E-03     54.4995E-03    -27.3360E-03     10.0043E-03     71.1846E-03     127.488E+06    -13.6837E+06    -16.4876E+06    -142.546E+06    -16.4996E+06    -142.534E+06    -13.6837E+06    -298.451E+03
             623     36.6767E-03     7.78598E-03     35.8407E-03     54.7500E-03    -27.2922E-03    -27.4540E-03    -27.1343E-03     54.5233E-03    -27.3852E-03     8.57665E-03     67.1821E-03     148.864E+06    -13.0078E+06    -17.3382E+06    -163.972E+06    -17.3431E+06    -163.967E+06    -13.0078E+06     48.7650E+03
             624     36.4753E-03     6.81260E-03     35.8335E-03     54.7330E-03    -27.2738E-03    -27.4514E-03    -27.1252E-03     54.5752E-03    -27.4422E-03     7.16026E-03     63.9395E-03     167.545E+06    -13.3050E+06    -18.2679E+06    -183.258E+06    -18.2756E+06    -183.251E+06    -13.3050E+06     486.418E+03
             625     36.2984E-03     5.83895E-03     35.8257E-03     54.8996E-03    -27.3991E-03    -27.5021E-03    -27.3110E-03     54.7934E-03    -27.4839E-03     5.86206E-03     61.6487E-03     178.343E+06    -15.4742E+06    -19.6550E+06    -195.869E+06    -19.6672E+06    -195.857E+06    -15.4742E+06     317.386E+03
             626     36.1495E-03     4.86584E-03     35.8205E-03     54.9526E-03    -27.4381E-03    -27.5159E-03    -27.3908E-03     54.8905E-03    -27.5011E-03     4.46952E-03     59.8388E-03     181.191E+06    -16.9904E+06    -20.4251E+06    -199.865E+06    -20.4338E+06    -199.856E+06    -16.9904E+06     34.7613E+03
             627     36.0266E-03     3.89260E-03     35.8157E-03     54.9845E-03    -27.4298E-03    -27.5561E-03    -27.4433E-03     54.9519E-03    -27.5102E-03     3.22446E-03     58.3324E-03     182.871E+06    -18.0269E+06    -21.0468E+06    -202.375E+06    -20.8998E+06    -202.369E+06    -18.1796E+06    -4.61083E+03
             628     35.9324E-03     2.91936E-03     35.8136E-03     55.0410E-03    -27.4772E-03    -27.5644E-03    -27.5199E-03     55.0233E-03    -27.5040E-03     2.39011E-03     57.1942E-03     181.404E+06    -18.1794E+06    -21.3599E+06    -201.140E+06    -21.2132E+06    -201.134E+06    -18.3320E+06     546.844E+03
             629     35.8629E-03     1.94615E-03     35.8100E-03     54.9592E-03    -27.4364E-03    -27.5232E-03    -27.4609E-03     54.9489E-03    -27.4884E-03     1.76896E-03     56.4220E-03     178.020E+06    -18.1699E+06    -22.8204E+06    -198.447E+06    -22.8298E+06    -198.438E+06    -18.1699E+06     733.363E+03
             630     35.8230E-03     973.897E-06     35.8097E-03     54.8799E-03    -27.3464E-03    -27.5344E-03    -27.4770E-03     54.8745E-03    -27.3984E-03     1.18924E-03     56.1809E-03     172.326E+06    -19.9439E+06    -27.6645E+06    -195.967E+06    -26.2897E+06    -195.925E+06    -21.3604E+06     917.936E+03
             631     38.8288E-03     16.5500E-03     35.1252E-03     78.1982E-03    -27.5203E-03    -50.6822E-03    -26.8659E-03     54.3819E-03    -27.5203E-03     98.4015E-03     247.538E-03     173.161E+06     182.004E+06     130.931E+06    -9.93622E+06    -9.90979E+06     181.978E+06     130.931E+06     1.11603E+06
             632     38.2964E-03     15.5759E-03     34.9859E-03     78.9476E-03    -27.2457E-03    -51.7104E-03    -28.3480E-03     55.5852E-03    -27.2457E-03     97.9244E-03     216.418E-03     157.530E+06     162.708E+06     67.1798E+06    -14.9865E+06    -14.9677E+06     162.689E+06     67.1798E+06     957.031E+03
             633     37.8480E-03     14.6022E-03     34.9177E-03     60.8824E-03    -26.9047E-03    -33.9888E-03    -26.6762E-03     53.5698E-03    -26.9047E-03     49.2422E-03     146.685E-03     146.877E+06     133.310E+06     4.16809E+06    -25.4453E+06    -17.7235E+06     133.296E+06    -3.54013E+06     998.595E+03
             634     37.4506E-03     13.6282E-03     34.8829E-03     55.9681E-03    -26.8169E-03    -29.1569E-03    -26.3230E-03     53.1342E-03    -26.8169E-03     30.2002E-03     118.681E-03     102.715E+06     73.0436E+06    -17.3693E+06    -37.3336E+06    -17.3243E+06     72.9987E+06    -37.3336E+06     1.71791E+06
             635     37.0812E-03     12.6543E-03     34.8551E-03     55.0604E-03    -26.9560E-03    -28.1406E-03    -26.6096E-03     53.5294E-03    -26.9560E-03     22.1067E-03     101.166E-03     38.6475E+06     6.02435E+06    -23.3858E+06    -37.4342E+06    -16.0334E+06    -3.12033E+06    -35.6419E+06     1.55554E+06
             636     36.7423E-03     11.6802E-03     34.8363E-03     54.6651E-03    -27.1091E-03    -27.6069E-03    -26.7046E-03     53.7628E-03    -27.1091E-03     17.0590E-03     89.9408E-03     39.6140E+06    -14.7286E+06    -25.5888E+06    -56.5356E+06    -14.8443E+06    -56.4198E+06    -25.5888E+06     1.49674E+06
             637     36.4282E-03     10.7064E-03     34.8193E-03     54.6476E-03    -27.2308E-03    -27.4460E-03    -26.8325E-03     54.0342E-03    -27.2308E-03     14.0712E-03     82.8336E-03     81.7056E+06    -13.3564E+06    -17.4635E+06    -96.9611E+06    -14.0459E+06    -96.9298E+06    -16.8053E+06     1.18956E+06
             638     36.1420E-03     9.73285E-03     34.8068E-03     54.7429E-03    -27.3057E-03    -27.4314E-03    -26.9988E-03     54.3186E-03    -27.3140E-03     11.7351E-03     76.3250E-03     109.606E+06    -10.4446E+06    -14.3472E+06    -121.924E+06    -14.3677E+06    -121.904E+06    -10.4446E+06     1.27853E+06
             639     35.8805E-03     8.75937E-03     34.7949E-03     54.7639E-03    -27.3361E-03    -27.4067E-03    -27.0799E-03     54.4620E-03    -27.3611E-03     9.90436E-03     71.1722E-03     128.514E+06    -11.0991E+06    -16.5755E+06    -142.249E+06    -16.6017E+06    -142.223E+06    -11.0991E+06     1.11569E+06
             640     35.6467E-03     7.78587E-03     34.7860E-03     54.8455E-03    -27.3563E-03    -27.4824E-03    -27.2262E-03     54.6317E-03    -27.3985E-03     8.34648E-03     67.3154E-03     148.284E+06    -12.9895E+06    -18.6469E+06    -164.011E+06    -18.6619E+06    -163.996E+06    -12.9895E+06     359.437E+03
             641     35.4385E-03     6.81238E-03     34.7776E-03     54.9461E-03    -27.4111E-03    -27.5311E-03    -27.3500E-03     54.7906E-03    -27.4368E-03     7.13390E-03     64.1871E-03     167.374E+06    -12.2450E+06    -19.6285E+06    -183.173E+06    -19.6369E+06    -183.165E+06    -12.2450E+06     783.625E+03
             642     35.2576E-03     5.83944E-03     34.7707E-03     54.9358E-03    -27.4447E-03    -27.4921E-03    -27.3831E-03     54.8268E-03    -27.4447E-03     5.94501E-03     61.6955E-03     178.180E+06    -15.3793E+06    -20.1140E+06    -195.847E+06    -20.1256E+06    -195.835E+06    -15.3793E+06     754.730E+03
             643     35.1036E-03     4.86613E-03     34.7647E-03     54.8436E-03    -27.3904E-03    -27.4539E-03    -27.3378E-03     54.7811E-03    -27.4440E-03     4.46123E-03     59.6871E-03     179.936E+06    -18.6258E+06    -20.7952E+06    -199.627E+06    -20.8055E+06    -199.616E+06    -18.6258E+06    -141.223E+03
             644     34.9782E-03     3.89260E-03     34.7610E-03     54.8706E-03    -27.3743E-03    -27.4986E-03    -27.3796E-03     54.8354E-03    -27.4582E-03     3.37520E-03     58.1701E-03     181.961E+06    -19.3825E+06    -21.7455E+06    -202.504E+06    -21.5985E+06    -202.498E+06    -19.5352E+06    -442.371E+03
             645     34.8794E-03     2.91978E-03     34.7570E-03     54.9457E-03    -27.4326E-03    -27.5151E-03    -27.4643E-03     54.9252E-03    -27.4629E-03     2.51934E-03     57.0626E-03     181.464E+06    -18.6799E+06    -22.5251E+06    -202.026E+06    -22.3747E+06    -202.024E+06    -18.8326E+06     39.1823E+03
             646     34.8103E-03     1.94673E-03     34.7558E-03     54.8606E-03    -27.3990E-03    -27.4635E-03    -27.4018E-03     54.8508E-03    -27.4509E-03     1.76419E-03     56.2927E-03     176.882E+06    -18.7022E+06    -23.2756E+06    -197.823E+06    -23.2868E+06    -197.812E+06    -18.7022E+06     1.20382E+06
             647     34.7666E-03     972.282E-06     34.7530E-03     54.8193E-03    -27.3025E-03    -27.5176E-03    -27.3799E-03     54.8130E-03    -27.4338E-03     1.38421E-03     56.0575E-03     171.536E+06    -22.8711E+06    -26.0121E+06    -195.947E+06    -24.6106E+06    -195.932E+06    -24.2877E+06     356.737E+03
             648     37.8766E-03     16.5498E-03     34.0696E-03     78.6076E-03    -27.4941E-03    -51.1220E-03    -27.0782E-03     54.5638E-03    -27.4941E-03     99.0999E-03     248.084E-03     172.013E+06     181.656E+06     129.977E+06    -8.91235E+06    -8.89618E+06     181.640E+06     129.977E+06     692.907E+03
             649     37.3331E-03     15.5766E-03     33.9283E-03     78.2719E-03    -27.2124E-03    -51.0732E-03    -27.8076E-03     55.0063E-03    -27.2124E-03     97.0507E-03     215.998E-03     156.257E+06     161.211E+06     62.9892E+06    -14.8020E+06    -14.7926E+06     161.202E+06     62.9892E+06        -540.703
             650     36.8778E-03     14.6024E-03     33.8636E-03     60.4189E-03    -26.9076E-03    -33.5233E-03    -26.3907E-03     53.2863E-03    -26.9076E-03     48.4436E-03     146.268E-03     146.458E+06     132.398E+06     1.74602E+06    -25.1708E+06    -17.9442E+06     132.375E+06    -5.45689E+06     1.52110E+06
             651     36.4687E-03     13.6277E-03     33.8268E-03     56.0784E-03    -26.8430E-03    -29.2432E-03    -26.4020E-03     53.2372E-03    -26.8430E-03     30.2968E-03     119.162E-03     102.659E+06     73.4794E+06    -18.4823E+06    -36.2599E+06    -18.4486E+06     73.4458E+06    -36.2599E+06     1.69815E+06
             652     36.0914E-03     12.6541E-03     33.8003E-03     55.1972E-03    -26.9718E-03    -28.2611E-03    -26.7041E-03     53.6402E-03    -26.9718E-03     22.3251E-03     101.430E-03     38.7894E+06     6.56067E+06    -24.2052E+06    -36.7213E+06    -16.5941E+06    -2.99177E+06    -34.7799E+06     1.38919E+06
             653     35.7432E-03     11.6804E-03     33.7808E-03     54.7698E-03    -27.1186E-03    -27.6962E-03    -26.7820E-03     53.8556E-03    -27.1186E-03     17.1864E-03     90.2098E-03     40.0590E+06    -14.7063E+06    -24.2999E+06    -56.3553E+06    -14.8113E+06    -56.2502E+06    -24.2999E+06     1.32632E+06
             654     35.4217E-03     10.7064E-03     33.7649E-03     54.7045E-03    -27.2443E-03    -27.4946E-03    -26.8739E-03     54.0838E-03    -27.2443E-03     14.1648E-03     82.9566E-03     82.3003E+06    -13.0916E+06    -15.7490E+06    -96.6645E+06    -13.8644E+06    -96.6437E+06    -14.9968E+06     1.21875E+06
             655     35.1262E-03     9.73270E-03     33.7509E-03     54.7506E-03    -27.3266E-03    -27.4337E-03    -27.0080E-03     54.3250E-03    -27.3266E-03     11.7488E-03     76.4561E-03     111.152E+06    -9.52614E+06    -14.0728E+06    -122.855E+06    -14.1113E+06    -122.817E+06    -9.52614E+06     1.95658E+06
             656     34.8586E-03     8.75924E-03     33.7401E-03     54.8220E-03    -27.3659E-03    -27.4402E-03    -27.1286E-03     54.5271E-03    -27.3825E-03     9.78678E-03     71.3096E-03     130.355E+06    -6.92636E+06    -15.1836E+06    -141.198E+06    -15.2399E+06    -141.142E+06    -6.92636E+06     2.63112E+06
             657     34.6172E-03     7.78573E-03     33.7302E-03     54.8935E-03    -27.3889E-03    -27.4891E-03    -27.2634E-03     54.6843E-03    -27.4055E-03     8.26638E-03     67.4013E-03     149.379E+06    -10.3052E+06    -17.3799E+06    -163.068E+06    -17.4210E+06    -163.027E+06    -10.3052E+06     1.89611E+06
             658     34.4036E-03     6.81292E-03     33.7223E-03     54.9763E-03    -27.4209E-03    -27.5458E-03    -27.3879E-03     54.8184E-03    -27.4209E-03     7.19370E-03     64.2536E-03     166.675E+06    -13.2524E+06    -19.7759E+06    -183.083E+06    -19.7916E+06    -183.067E+06    -13.2524E+06     647.871E+03
             659     34.2170E-03     5.83947E-03     33.7151E-03     54.9289E-03    -27.4306E-03    -27.4999E-03    -27.3862E-03     54.8151E-03    -27.4306E-03     6.08218E-03     61.6417E-03     177.740E+06    -14.6380E+06    -20.5554E+06     -195.23E+06    -20.5609E+06    -195.225E+06    -14.6380E+06     584.541E+03
             660     34.0589E-03     4.86616E-03     33.7095E-03     54.8495E-03    -27.4099E-03    -27.4407E-03    -27.3734E-03     54.7821E-03    -27.4099E-03     4.62911E-03     59.6278E-03     179.680E+06    -18.3742E+06    -21.9377E+06    -199.784E+06    -20.4109E+06    -199.776E+06    -19.9090E+06     261.067E+03
             661     33.9295E-03     3.89318E-03     33.7054E-03     54.7888E-03    -27.3465E-03    -27.4446E-03    -27.3298E-03     54.7500E-03    -27.4226E-03     3.55139E-03     58.0657E-03     181.954E+06    -18.9562E+06    -22.0141E+06    -202.411E+06    -20.4859E+06    -202.404E+06    -20.4910E+06    -544.770E+03
             662     33.8282E-03     2.91935E-03     33.7020E-03     54.8577E-03    -27.3868E-03    -27.4715E-03    -27.3681E-03     54.8338E-03    -27.4663E-03     2.74822E-03     56.9458E-03     184.104E+06    -15.8574E+06    -20.7799E+06    -202.366E+06    -20.7883E+06    -202.357E+06    -15.8574E+06    -775.968E+03
             663     33.7558E-03     1.94612E-03     33.6997E-03     55.0115E-03    -27.4059E-03    -27.6060E-03    -27.5931E-03     55.0020E-03    -27.4093E-03     1.68454E-03     56.3850E-03     179.707E+06    -15.6583E+06    -21.9552E+06    -198.427E+06    -21.9667E+06    -198.416E+06    -15.6583E+06    -194.688E+03
             664     33.7125E-03     974.210E-06     33.6985E-03     54.5900E-03    -27.0636E-03    -27.5275E-03    -27.2525E-03     54.5874E-03    -27.3360E-03     858.155E-06     55.8127E-03     171.555E+06    -20.9478E+06    -23.9130E+06    -193.948E+06    -23.9189E+06    -193.942E+06    -20.9478E+06     79.3354E+03
             665     36.9322E-03     16.5532E-03     33.0148E-03     79.0864E-03    -27.4440E-03    -51.6499E-03    -27.1649E-03     54.6014E-03    -27.4440E-03     100.328E-03     247.957E-03     170.929E+06     181.696E+06     128.993E+06    -7.82250E+06    -7.77875E+06     181.652E+06     128.993E+06     1.57711E+06
             666     36.3768E-03     15.5766E-03     32.8731E-03     77.8239E-03    -27.1838E-03    -50.6566E-03    -27.2061E-03     54.3734E-03    -27.1838E-03     97.0346E-03     215.741E-03     155.639E+06     160.189E+06     62.0036E+06    -15.9104E+06    -15.8650E+06     160.143E+06     62.0036E+06     1.11223E+06
             667     35.9110E-03     14.6017E-03     32.8084E-03     60.2758E-03    -26.9058E-03    -33.3838E-03    -26.1796E-03     53.0716E-03    -26.9058E-03     48.4556E-03     146.864E-03     146.535E+06     131.631E+06     3.22596E+06    -27.3514E+06    -18.3299E+06     131.615E+06    -5.77970E+06     689.345E+03
             668     35.4921E-03     13.6278E-03     32.7715E-03     56.0133E-03    -26.8503E-03    -29.1742E-03    -26.3943E-03     53.2334E-03    -26.8503E-03     29.9334E-03     119.304E-03     101.712E+06     73.7999E+06    -16.6335E+06    -35.6079E+06    -16.6034E+06     73.7698E+06    -35.6079E+06     1.16892E+06
             669     35.1048E-03     12.6535E-03     32.7450E-03     55.0600E-03    -26.9859E-03    -28.1133E-03    -26.5886E-03     53.5353E-03    -26.9859E-03     22.1006E-03     101.497E-03     38.5395E+06     7.40080E+06    -24.2579E+06    -35.2081E+06    -14.9927E+06    -2.84590E+06    -34.2266E+06     1.08045E+06
             670     34.7471E-03     11.6797E-03     32.7253E-03     54.8797E-03    -27.1313E-03    -27.7975E-03    -26.8876E-03     53.9697E-03    -27.1313E-03     17.1435E-03     90.3637E-03     40.8959E+06    -14.2730E+06    -24.7519E+06    -56.2081E+06    -14.3114E+06    -56.1697E+06    -24.7519E+06     1.24116E+06
             671     34.4172E-03     10.7066E-03     32.7095E-03     54.8373E-03    -27.2556E-03    -27.6152E-03    -26.9968E-03     54.2189E-03    -27.2556E-03     14.1864E-03     83.1157E-03     81.8253E+06    -13.1479E+06    -15.8712E+06    -96.2931E+06    -14.6853E+06    -96.2578E+06    -14.3690E+06     1.59309E+06
             672     34.1138E-03     9.73282E-03     32.6959E-03     54.8334E-03    -27.3194E-03    -27.5196E-03    -27.0868E-03     54.4007E-03    -27.3194E-03     11.8368E-03     76.5325E-03     110.773E+06    -10.6327E+06    -14.9448E+06    -123.487E+06    -14.9763E+06    -123.456E+06    -10.6327E+06     1.58925E+06
             673     33.8377E-03     8.75939E-03     32.6843E-03     54.8363E-03    -27.3553E-03    -27.4682E-03    -27.1579E-03     54.5474E-03    -27.3767E-03     9.69554E-03     71.3239E-03     131.980E+06    -6.66837E+06    -14.7704E+06    -142.499E+06    -14.8439E+06    -142.425E+06    -6.66837E+06     2.75409E+06
             674     33.5901E-03     7.78628E-03     32.6752E-03     54.8383E-03    -27.3920E-03    -27.4417E-03    -27.2057E-03     54.6238E-03    -27.4135E-03     8.37555E-03     67.3510E-03     150.976E+06    -6.69304E+06    -15.2754E+06    -161.758E+06    -15.3552E+06    -161.678E+06    -6.69304E+06     3.31236E+06
             675     33.3695E-03     6.81241E-03     32.6667E-03     54.9411E-03    -27.4252E-03    -27.5162E-03    -27.3520E-03     54.7769E-03    -27.4252E-03     7.32346E-03     64.2406E-03     166.695E+06    -11.0949E+06    -17.1500E+06    -180.733E+06    -17.1788E+06    -180.704E+06    -11.0949E+06     1.61145E+06
             676     33.1777E-03     5.83939E-03     32.6598E-03     54.9482E-03    -27.4296E-03    -27.5234E-03    -27.4092E-03     54.8378E-03    -27.4333E-03     5.97946E-03     61.6418E-03     178.602E+06    -13.6973E+06    -18.6895E+06    -194.730E+06    -18.6984E+06    -194.721E+06    -13.6973E+06    -199.355E+03
             677     33.0148E-03     4.86622E-03     32.6542E-03     54.8429E-03    -27.3925E-03    -27.4516E-03    -27.3537E-03     54.7744E-03    -27.4219E-03     4.71749E-03     59.5720E-03     181.686E+06    -15.7100E+06    -19.9949E+06    -199.484E+06    -18.4670E+06    -199.477E+06    -17.2448E+06    -71.2428E+03
             678     32.8813E-03     3.89272E-03     32.6501E-03     54.8696E-03    -27.3426E-03    -27.5295E-03    -27.4175E-03     54.8290E-03    -27.4140E-03     3.60244E-03     58.1135E-03     183.028E+06    -17.1632E+06    -21.4662E+06    -202.298E+06    -18.3722E+06    -202.294E+06    -20.2607E+06     11.0931E+03
             679     32.7772E-03     2.91977E-03     32.6469E-03     54.8952E-03    -27.3753E-03    -27.5211E-03    -27.4463E-03     54.8724E-03    -27.4273E-03     2.71948E-03     56.9190E-03     183.907E+06    -14.6690E+06    -20.9532E+06    -201.627E+06    -19.3990E+06    -201.618E+06    -16.2318E+06    -951.753E+03
             680     32.7016E-03     1.94668E-03     32.6437E-03     54.8448E-03    -27.2516E-03    -27.5935E-03    -27.4310E-03     54.8331E-03    -27.4024E-03     1.85449E-03     56.1694E-03     181.032E+06    -14.3300E+06    -22.1542E+06    -199.147E+06    -22.1663E+06    -199.135E+06    -14.3300E+06    -1.28277E+06
             681     32.6573E-03     973.412E-06     32.6428E-03     54.6332E-03    -26.9455E-03    -27.6896E-03    -27.3490E-03     54.6302E-03    -27.2831E-03     901.578E-06     55.9209E-03     173.370E+06    -20.9271E+06    -25.3488E+06    -196.445E+06    -24.7833E+06    -196.439E+06    -21.4987E+06    -791.177E+03
             682     35.9879E-03     16.5504E-03     31.9564E-03     79.1779E-03    -27.4482E-03    -51.7372E-03    -27.0230E-03     54.4636E-03    -27.4482E-03     100.882E-03     247.838E-03     170.582E+06     180.529E+06     129.638E+06    -8.36465E+06    -8.33029E+06     180.495E+06     129.638E+06     1.34434E+06
             683     35.4291E-03     15.5776E-03     31.8207E-03     77.9917E-03    -27.1955E-03    -50.8096E-03    -27.1240E-03     54.3061E-03    -27.1955E-03     97.6830E-03     215.694E-03     155.485E+06     161.144E+06     63.7672E+06    -14.1594E+06    -14.1059E+06     161.091E+06     63.7672E+06     1.77775E+06
             684     34.9487E-03     14.6019E-03     31.7521E-03     60.6242E-03    -26.9081E-03    -33.7250E-03    -26.2839E-03     53.1831E-03    -26.9081E-03     49.2315E-03     147.239E-03     146.236E+06     132.418E+06     3.53372E+06    -25.9922E+06    -16.5865E+06     132.398E+06    -5.85233E+06     587.301E+03
             685     34.5206E-03     13.6282E-03     31.7166E-03     55.9956E-03    -26.8498E-03    -29.1531E-03    -26.3811E-03     53.2235E-03    -26.8498E-03     29.9406E-03     119.107E-03     101.437E+06     72.8057E+06    -16.7357E+06    -36.5967E+06    -16.7005E+06     72.7705E+06    -36.5967E+06     924.441E+03
             686     34.1231E-03     12.6538E-03     31.6902E-03     55.1265E-03    -26.9900E-03    -28.1738E-03    -26.6202E-03     53.5729E-03    -26.9900E-03     22.2844E-03     101.441E-03     37.4934E+06     6.47024E+06    -23.6287E+06    -35.3120E+06    -15.5429E+06    -2.82395E+06    -34.1036E+06     1.88981E+06
             687     33.7550E-03     11.6801E-03     31.6697E-03     54.8266E-03    -27.1369E-03    -27.7405E-03    -26.8476E-03     53.9337E-03    -27.1369E-03     16.9674E-03     90.2020E-03     40.2879E+06    -14.8840E+06    -24.8055E+06    -56.5349E+06    -15.0601E+06    -56.3588E+06    -24.8055E+06     1.82913E+06
             688     33.4158E-03     10.7061E-03     31.6543E-03     54.8665E-03    -27.2571E-03    -27.6408E-03    -27.0289E-03     54.2546E-03    -27.2571E-03     14.1271E-03     83.1597E-03     81.1695E+06    -12.9945E+06    -16.7298E+06    -95.9628E+06    -15.0590E+06    -95.9182E+06    -14.7100E+06     1.88375E+06
             689     33.1034E-03     9.73291E-03     31.6403E-03     54.8944E-03    -27.3097E-03    -27.5823E-03    -27.1398E-03     54.4519E-03    -27.3097E-03     11.9865E-03     76.5645E-03     109.106E+06    -12.2210E+06    -16.0352E+06    -123.180E+06    -16.0645E+06    -123.150E+06    -12.2210E+06     1.56222E+06
             690     32.8198E-03     8.75961E-03     31.6292E-03     54.7832E-03    -27.3274E-03    -27.4348E-03    -27.1052E-03     54.4823E-03    -27.3561E-03     9.89216E-03     71.2266E-03     130.451E+06    -10.8602E+06    -15.9805E+06    -143.785E+06    -16.0231E+06    -143.743E+06    -10.8602E+06     1.54136E+06
             691     32.5642E-03     7.78570E-03     31.6198E-03     54.8494E-03    -27.3827E-03    -27.4672E-03    -27.2125E-03     54.6235E-03    -27.4114E-03     8.59923E-03     67.4033E-03     150.364E+06    -7.84479E+06    -15.3003E+06    -161.790E+06    -15.3796E+06    -161.711E+06    -7.84479E+06     2.81411E+06
             692     32.3372E-03     6.81279E-03     31.6114E-03     54.9659E-03    -27.4348E-03    -27.5409E-03    -27.3743E-03     54.7993E-03    -27.4348E-03     7.36325E-03     64.2963E-03     165.933E+06    -8.86954E+06    -15.5727E+06    -178.043E+06    -15.6208E+06    -177.995E+06    -8.86954E+06     2.47096E+06
             693     32.1391E-03     5.83955E-03     31.6041E-03     54.8872E-03    -27.4030E-03    -27.4871E-03    -27.3463E-03     54.7801E-03    -27.4368E-03     5.89446E-03     61.6149E-03     177.278E+06    -13.8690E+06    -17.6966E+06    -193.022E+06    -17.7108E+06    -193.008E+06    -13.8690E+06     566.997E+03
             694     31.9718E-03     4.86609E-03     31.5994E-03     54.8744E-03    -27.3803E-03    -27.4940E-03    -27.3628E-03     54.8027E-03    -27.4397E-03     4.83958E-03     59.6160E-03     182.421E+06    -17.2079E+06    -19.1240E+06    -200.576E+06    -19.1340E+06    -200.566E+06    -17.2079E+06    -207.767E+03
             695     31.8334E-03     3.89288E-03     31.5944E-03     54.9779E-03    -27.3980E-03    -27.5828E-03    -27.5135E-03     54.9343E-03    -27.4236E-03     3.71610E-03     58.1968E-03     182.402E+06    -17.4349E+06    -20.9999E+06    -201.582E+06    -19.4416E+06    -201.578E+06    -18.9977E+06     283.659E+03
             696     31.7258E-03     2.91997E-03     31.5912E-03     54.8500E-03    -27.3427E-03    -27.5088E-03    -27.4237E-03     54.8261E-03    -27.4039E-03     2.79885E-03     56.9081E-03     181.231E+06    -17.3460E+06    -22.9572E+06    -201.306E+06    -20.8490E+06    -201.301E+06    -19.4589E+06     519.681E+03
             697     31.6488E-03     1.94655E-03     31.5889E-03     54.6412E-03    -27.1798E-03    -27.4621E-03    -27.1658E-03     54.6271E-03    -27.4621E-03     2.06978E-03     55.9991E-03     178.683E+06    -17.8747E+06    -23.4461E+06    -199.264E+06    -22.9147E+06    -199.245E+06    -18.4249E+06    -1.01333E+06
             698     31.6026E-03     972.457E-06     31.5877E-03     54.9571E-03    -27.2342E-03    -27.7250E-03    -27.4994E-03     54.9527E-03    -27.4554E-03     1.13693E-03     56.1896E-03     173.163E+06    -22.7624E+06    -27.1528E+06    -198.071E+06    -26.6089E+06    -198.043E+06    -23.3339E+06    -609.543E+03
             699     35.0584E-03     16.5532E-03     30.9044E-03     78.7498E-03    -27.4513E-03    -51.3068E-03    -26.8583E-03     54.3013E-03    -27.4513E-03     99.7602E-03     247.375E-03     170.239E+06     180.013E+06     129.737E+06    -8.38663E+06    -8.37703E+06     180.003E+06     129.737E+06    -46.1395E+03
             700     34.4818E-03     15.5746E-03     30.7640E-03     78.0488E-03    -27.2018E-03    -50.8615E-03    -27.0281E-03     54.2155E-03    -27.2018E-03     97.8617E-03     215.384E-03     155.427E+06     160.762E+06     62.7563E+06    -14.0395E+06    -14.0170E+06     160.739E+06     62.7563E+06     436.403E+03
             701     33.9931E-03     14.6021E-03     30.6971E-03     60.6523E-03    -26.9159E-03    -33.7469E-03    -26.3292E-03     53.2346E-03    -26.9159E-03     49.2068E-03     146.773E-03     145.969E+06     131.711E+06     2.74140E+06    -26.4705E+06    -16.0027E+06     131.659E+06    -7.67451E+06     2.08234E+06
             702     33.5532E-03     13.6268E-03     30.6615E-03     56.0506E-03    -26.8563E-03    -29.1998E-03    -26.4107E-03     53.2615E-03    -26.8563E-03     30.0622E-03     119.111E-03     102.659E+06     72.5676E+06    -17.7155E+06    -38.5600E+06    -17.6127E+06     72.4648E+06    -38.5600E+06     2.37674E+06
             703     33.1447E-03     12.6536E-03     30.6343E-03     55.3020E-03    -26.9910E-03    -28.3412E-03    -26.7728E-03     53.7336E-03    -26.9910E-03     22.4142E-03     101.529E-03     38.6732E+06     6.44843E+06    -25.1048E+06    -36.4904E+06    -17.1914E+06    -2.42202E+06    -35.5333E+06     2.19129E+06
             704     32.7673E-03     11.6799E-03     30.6149E-03     54.8686E-03    -27.1351E-03    -27.7767E-03    -26.8775E-03     53.9694E-03    -27.1351E-03     17.0551E-03     90.1287E-03     39.4845E+06    -15.4735E+06    -25.1445E+06    -56.1974E+06    -15.6616E+06    -56.0093E+06    -25.1445E+06     1.98383E+06
             705     32.4176E-03     10.7065E-03     30.5986E-03     54.8193E-03    -27.2574E-03    -27.5944E-03    -26.9693E-03     54.1942E-03    -27.2574E-03     14.2611E-03     83.0859E-03     81.2839E+06    -13.7629E+06    -16.3011E+06    -96.2706E+06    -14.6787E+06    -96.2179E+06    -15.4379E+06     1.80666E+06
             706     32.0961E-03     9.73272E-03     30.5848E-03     54.8046E-03    -27.3143E-03    -27.4978E-03    -27.0410E-03     54.3607E-03    -27.3271E-03     11.9911E-03     76.4873E-03     110.272E+06    -11.1112E+06    -14.3577E+06    -122.954E+06    -14.4104E+06    -122.901E+06    -11.1112E+06     2.13617E+06
             707     31.8039E-03     8.75905E-03     30.5739E-03     54.8192E-03    -27.3542E-03    -27.4505E-03    -27.1271E-03     54.5160E-03    -27.3743E-03     9.93543E-03     71.2759E-03     129.981E+06    -10.8585E+06    -15.5227E+06    -143.100E+06    -15.5655E+06    -143.058E+06    -10.8585E+06     1.70712E+06
             708     31.5406E-03     7.78600E-03     30.5645E-03     54.9558E-03    -27.4014E-03    -27.5431E-03    -27.3010E-03     54.7209E-03    -27.4086E-03     8.78224E-03     67.5073E-03     148.100E+06    -11.2806E+06    -16.3805E+06    -161.850E+06    -16.4162E+06    -161.815E+06    -11.2806E+06     1.45952E+06
             709     31.3059E-03     6.81258E-03     30.5557E-03     54.9564E-03    -27.4281E-03    -27.5237E-03    -27.3434E-03     54.7863E-03    -27.4383E-03     7.40614E-03     64.2821E-03     164.539E+06    -10.4651E+06    -16.0560E+06    -177.711E+06    -16.1026E+06    -177.665E+06    -10.4651E+06     2.23461E+06
             710     31.1024E-03     5.83916E-03     30.5494E-03     54.9118E-03    -27.4190E-03    -27.4924E-03    -27.3473E-03     54.8069E-03    -27.4592E-03     5.84506E-03     61.6337E-03     176.692E+06    -11.8999E+06    -16.7715E+06    -190.974E+06    -16.7923E+06    -190.954E+06    -11.8999E+06     1.71320E+06
             711     30.9288E-03     4.86587E-03     30.5437E-03     54.9696E-03    -27.4212E-03    -27.5478E-03    -27.4361E-03     54.8974E-03    -27.4607E-03     4.85040E-03     59.7192E-03     183.467E+06    -15.2602E+06    -19.1257E+06    -200.620E+06    -19.1378E+06    -200.608E+06    -15.2602E+06     928.758E+03
             712     30.7861E-03     3.89295E-03     30.5389E-03     54.9181E-03    -27.4030E-03    -27.5159E-03    -27.4237E-03     54.8735E-03    -27.4506E-03     3.78454E-03     58.1463E-03     183.299E+06    -17.4950E+06    -20.7576E+06    -202.389E+06    -20.6116E+06    -202.378E+06    -17.6519E+06     773.722E+03
             713     30.6752E-03     2.91950E-03     30.5360E-03     54.8193E-03    -27.3501E-03    -27.4686E-03    -27.3384E-03     54.7965E-03    -27.4575E-03     2.67109E-03     56.9400E-03     180.579E+06    -17.9190E+06    -21.1035E+06    -200.062E+06    -20.4013E+06    -200.057E+06    -18.6261E+06     585.766E+03
             714     30.5958E-03     1.94603E-03     30.5339E-03     54.8742E-03    -27.3400E-03    -27.5354E-03    -27.3771E-03     54.8619E-03    -27.4860E-03     1.97161E-03     56.2715E-03     178.650E+06    -19.1385E+06    -22.4597E+06    -199.424E+06    -21.9282E+06    -199.406E+06    -19.6887E+06    -92.4496E+03
             715     30.5472E-03     973.447E-06     30.5317E-03     54.9418E-03    -27.3815E-03    -27.5620E-03    -27.4786E-03     54.9354E-03    -27.4584E-03     1.38410E-03     56.1026E-03     172.890E+06    -22.5978E+06    -25.3716E+06    -196.854E+06    -25.2220E+06    -196.820E+06    -22.7821E+06    -139.981E+03
             716     34.1315E-03     16.5506E-03     29.8502E-03     78.6942E-03    -27.4445E-03    -51.2568E-03    -26.9959E-03     54.4334E-03    -27.4445E-03     99.4022E-03     247.614E-03     169.301E+06     181.069E+06     129.824E+06    -6.52465E+06    -6.50695E+06     181.051E+06     129.824E+06     257.521E+03
             717     33.5461E-03     15.5781E-03     29.7096E-03     78.1708E-03    -27.1911E-03    -50.9972E-03    -27.1849E-03     54.3584E-03    -27.1911E-03     98.0306E-03     215.584E-03     154.583E+06     160.337E+06     62.3882E+06    -13.8859E+06    -13.8655E+06     160.317E+06     62.3882E+06     765.590E+03
             718     33.0427E-03     14.6009E-03     29.6417E-03     60.3970E-03    -26.9100E-03    -33.5029E-03    -26.1963E-03     53.0904E-03    -26.9100E-03     48.5710E-03     146.746E-03     145.114E+06     128.616E+06     73.9207E+03    -28.2889E+06    -19.3499E+06     128.553E+06    -8.80216E+06     2.58329E+06
             719     32.5921E-03     13.6280E-03     29.6062E-03     55.9298E-03    -26.8551E-03    -29.0802E-03    -26.3964E-03     53.2460E-03    -26.8551E-03     29.4996E-03     119.137E-03     103.401E+06     73.8629E+06    -18.0500E+06    -37.4717E+06    -17.9337E+06     73.7466E+06    -37.4717E+06     3.05882E+06
             720     32.1716E-03     12.6533E-03     29.5788E-03     55.1545E-03    -26.9869E-03    -28.1941E-03    -26.6728E-03     53.6332E-03    -26.9869E-03     22.0105E-03     101.420E-03     40.6759E+06     8.31554E+06    -25.2033E+06    -36.7138E+06    -16.4883E+06    -1.36439E+06    -35.7489E+06     2.02958E+06
             721     31.7834E-03     11.6799E-03     29.5595E-03     54.8029E-03    -27.1348E-03    -27.7063E-03    -26.8274E-03     53.9240E-03    -27.1348E-03     16.8806E-03     90.0417E-03     39.3663E+06    -15.2496E+06    -26.1787E+06    -56.0795E+06    -15.3816E+06    -55.9475E+06    -26.1787E+06     1.76620E+06
             722     31.4234E-03     10.7061E-03     29.5433E-03     54.8057E-03    -27.2644E-03    -27.5696E-03    -26.9373E-03     54.1734E-03    -27.2644E-03     14.3316E-03     83.0468E-03     80.5930E+06    -13.7936E+06    -17.1952E+06    -95.9975E+06    -15.0759E+06    -95.9394E+06    -15.9709E+06     1.86346E+06
             723     31.0923E-03     9.73251E-03     29.5298E-03     54.7872E-03    -27.3228E-03    -27.4697E-03    -27.0234E-03     54.3537E-03    -27.3356E-03     11.8316E-03     76.3977E-03     109.722E+06    -11.8759E+06    -14.9019E+06    -123.053E+06    -14.8967E+06    -122.996E+06    -11.9384E+06     1.84870E+06
             724     30.7906E-03     8.75907E-03     29.5185E-03     54.8571E-03    -27.3751E-03    -27.4697E-03    -27.1591E-03     54.5593E-03    -27.3879E-03     9.86234E-03     71.2684E-03     130.093E+06    -9.94164E+06    -14.2494E+06    -142.118E+06    -14.2423E+06    -142.062E+06    -10.0041E+06     2.12171E+06
             725     30.5187E-03     7.78564E-03     29.5089E-03     54.9628E-03    -27.4157E-03    -27.5341E-03    -27.3035E-03     54.7322E-03    -27.4157E-03     8.68296E-03     67.4595E-03     148.411E+06    -11.2745E+06    -15.0432E+06    -161.528E+06    -15.0689E+06    -161.503E+06    -11.2745E+06     1.56471E+06
             726     30.2767E-03     6.81244E-03     29.5003E-03     54.9435E-03    -27.4332E-03    -27.4996E-03    -27.3196E-03     54.7807E-03    -27.4504E-03     7.25460E-03     64.2063E-03     164.820E+06    -10.5025E+06    -16.2126E+06    -178.080E+06    -16.2323E+06    -178.060E+06    -10.5025E+06     1.49311E+06
             727     30.0664E-03     5.83922E-03     29.4939E-03     55.0210E-03    -27.4649E-03    -27.5564E-03    -27.4340E-03     54.9158E-03    -27.4821E-03     5.85808E-03     61.7335E-03     177.361E+06    -9.03617E+06    -17.1141E+06    -190.284E+06    -17.1622E+06    -190.236E+06    -9.03617E+06     2.52102E+06
             728     29.8868E-03     4.86626E-03     29.4880E-03     54.9972E-03    -27.4552E-03    -27.5404E-03    -27.4626E-03     54.9289E-03    -27.4647E-03     4.70938E-03     59.8371E-03     182.471E+06    -14.0158E+06    -19.4686E+06    -199.129E+06    -19.5104E+06    -199.087E+06    -14.0158E+06     2.36516E+06
             729     29.7397E-03     3.89267E-03     29.4839E-03     54.8179E-03    -27.3528E-03    -27.4643E-03    -27.3148E-03     54.7785E-03    -27.4628E-03     3.55406E-03     58.1192E-03     182.476E+06    -17.0878E+06    -21.2743E+06    -201.594E+06    -21.1294E+06    -201.582E+06    -17.2447E+06     1.27255E+06
             730     29.6247E-03     2.91942E-03     29.4805E-03     54.8629E-03    -27.3729E-03    -27.4893E-03    -27.3562E-03     54.8413E-03    -27.4843E-03     2.60867E-03     56.9869E-03     179.347E+06    -18.3467E+06    -22.6113E+06    -199.769E+06    -22.4557E+06    -199.768E+06    -18.5037E+06     95.4430E+03
             731     29.5425E-03     1.94657E-03     29.4783E-03     55.0061E-03    -27.4548E-03    -27.5524E-03    -27.5279E-03     54.9925E-03    -27.4658E-03     2.08367E-03     56.4238E-03     177.453E+06    -19.7222E+06    -24.5452E+06    -199.524E+06    -24.5572E+06    -199.512E+06    -19.7222E+06     820.333E+03
             732     29.4919E-03     973.182E-06     29.4758E-03     54.7888E-03    -27.3143E-03    -27.4751E-03    -27.3886E-03     54.7815E-03    -27.3934E-03     1.46636E-03     56.0663E-03     171.230E+06    -23.9123E+06    -27.9429E+06    -197.103E+06    -26.8542E+06    -197.084E+06    -25.0201E+06     513.374E+03
             733     33.2119E-03     16.5520E-03     28.7934E-03     78.5733E-03    -27.4386E-03    -51.1383E-03    -26.8093E-03     54.2443E-03    -27.4386E-03     99.1575E-03     247.128E-03     169.014E+06     178.804E+06     126.616E+06    -8.68178E+06    -8.66878E+06     178.791E+06     126.616E+06     349.583E+03
             734     32.6145E-03     15.5756E-03     28.6550E-03     78.7264E-03    -27.1965E-03    -51.5454E-03    -27.4071E-03     54.5881E-03    -27.1965E-03     98.8853E-03     215.623E-03     154.260E+06     159.126E+06     61.9787E+06    -15.3262E+06    -15.3049E+06     159.105E+06     61.9787E+06     1.86950E+06
             735     32.1005E-03     14.6032E-03     28.5865E-03     60.7162E-03    -26.9120E-03    -33.8131E-03    -26.4127E-03     53.3158E-03    -26.9120E-03     49.2781E-03     147.025E-03     143.974E+06     129.903E+06     4.23497E+06    -26.6476E+06    -16.8979E+06     129.870E+06    -5.48178E+06     1.97695E+06
             736     31.6366E-03     13.6277E-03     28.5510E-03     56.0363E-03    -26.8417E-03    -29.1939E-03    -26.3875E-03     53.2299E-03    -26.8417E-03     30.0658E-03     119.038E-03     102.039E+06     73.7310E+06    -15.7583E+06    -36.6537E+06    -15.5986E+06     73.5713E+06    -36.6537E+06     2.60218E+06
             737     31.2045E-03     12.6541E-03     28.5236E-03     55.0723E-03    -26.9856E-03    -28.1217E-03    -26.6046E-03     53.5552E-03    -26.9856E-03     21.9945E-03     101.245E-03     39.7411E+06     9.01846E+06    -22.4667E+06    -35.4429E+06    -14.8388E+06    -406.876E+03    -33.6454E+06     3.11542E+06
             738     30.8044E-03     11.6798E-03     28.5042E-03     54.7056E-03    -27.1352E-03    -27.6182E-03    -26.7381E-03     53.8255E-03    -27.1352E-03     16.8499E-03     89.9875E-03     39.1567E+06    -14.8015E+06    -25.7702E+06    -56.1550E+06    -15.1099E+06    -55.8466E+06    -25.7702E+06     2.54500E+06
             739     30.4334E-03     10.7061E-03     28.4881E-03     54.7819E-03    -27.2590E-03    -27.5517E-03    -26.9406E-03     54.1731E-03    -27.2613E-03     14.0536E-03     83.0436E-03     80.1309E+06    -12.8483E+06    -18.4013E+06    -95.5865E+06    -15.2585E+06    -95.5187E+06    -16.0589E+06     2.08436E+06
             740     30.0915E-03     9.73272E-03     28.4740E-03     54.7539E-03    -27.3258E-03    -27.4370E-03    -27.0102E-03     54.3294E-03    -27.3282E-03     11.7258E-03     76.3131E-03     108.332E+06    -12.5018E+06    -15.5286E+06    -122.301E+06    -15.5098E+06    -122.257E+06    -12.5643E+06     1.68704E+06
             741     29.7808E-03     8.75916E-03     28.4635E-03     54.8547E-03    -27.3724E-03    -27.4665E-03    -27.1615E-03     54.5496E-03    -27.3724E-03     9.98004E-03     71.1975E-03     128.219E+06    -12.2172E+06    -16.3875E+06    -142.447E+06    -16.3586E+06    -142.413E+06    -12.2797E+06     1.36433E+06
             742     29.4990E-03     7.78588E-03     28.4529E-03     54.9015E-03    -27.3973E-03    -27.4956E-03    -27.2512E-03     54.6795E-03    -27.4196E-03     8.50000E-03     67.3745E-03     147.892E+06    -10.0341E+06    -16.5526E+06    -161.060E+06    -16.5931E+06    -161.020E+06    -10.0341E+06     1.93816E+06
             743     29.2499E-03     6.81248E-03     28.4455E-03     54.9066E-03    -27.4199E-03    -27.4862E-03    -27.2989E-03     54.7487E-03    -27.4493E-03     7.18978E-03     64.1383E-03     163.342E+06    -11.7232E+06    -17.7653E+06    -177.966E+06    -17.7988E+06    -177.933E+06    -11.7232E+06     2.11626E+06
             744     29.0311E-03     5.83908E-03     28.4378E-03     54.9877E-03    -27.4506E-03    -27.5370E-03    -27.3987E-03     54.8762E-03    -27.4774E-03     6.02138E-03     61.7005E-03     175.650E+06    -11.9660E+06    -19.2045E+06    -191.093E+06    -19.2508E+06    -191.047E+06    -11.9660E+06     2.58930E+06
             745     28.8462E-03     4.86594E-03     28.4328E-03     54.9861E-03    -27.4595E-03    -27.5259E-03    -27.4371E-03     54.9171E-03    -27.4792E-03     4.73534E-03     59.8121E-03     180.735E+06    -13.3059E+06    -19.6433E+06    -197.101E+06    -19.6952E+06    -197.049E+06    -13.3059E+06     2.81627E+06
             746     28.6936E-03     3.89303E-03     28.4283E-03     54.8912E-03    -27.4106E-03    -27.4812E-03    -27.3753E-03     54.8507E-03    -27.4760E-03     3.60369E-03     58.1343E-03     180.786E+06    -16.0313E+06    -21.2583E+06    -199.352E+06    -21.2776E+06    -199.333E+06    -16.0313E+06     1.65718E+06
             747     28.5750E-03     2.91952E-03     28.4255E-03     54.9112E-03    -27.4173E-03    -27.4945E-03    -27.4045E-03     54.8865E-03    -27.4826E-03     2.83001E-03     56.9823E-03     178.804E+06    -17.4374E+06    -24.0689E+06    -199.440E+06    -24.0783E+06    -199.431E+06    -17.4374E+06     958.322E+03
             748     28.4887E-03     1.94610E-03     28.4222E-03     54.9560E-03    -27.4428E-03    -27.5135E-03    -27.4997E-03     54.9422E-03    -27.4428E-03     2.03602E-03     56.3447E-03     175.659E+06    -20.4127E+06    -27.0811E+06    -199.286E+06    -27.1057E+06    -199.261E+06    -20.4127E+06     297.781E+03
             749     28.4379E-03     973.454E-06     28.4212E-03     54.7321E-03    -27.2629E-03    -27.4683E-03    -27.3848E-03     54.7275E-03    -27.3418E-03     1.16595E-03     56.0718E-03     170.393E+06    -24.4221E+06    -28.6029E+06    -196.847E+06    -27.5960E+06    -196.829E+06    -25.4475E+06    -190.571E+03
             750     32.3066E-03     16.5517E-03     27.7446E-03     79.1082E-03    -27.4659E-03    -51.6479E-03    -26.8758E-03     54.3361E-03    -27.4659E-03     100.539E-03     247.369E-03     169.369E+06     178.020E+06     126.957E+06    -9.71941E+06    -9.70824E+06     178.009E+06     126.957E+06     807.869E+03
             751     31.6884E-03     15.5761E-03     27.5961E-03     79.0055E-03    -27.2204E-03    -51.7986E-03    -27.5373E-03     54.7442E-03    -27.2204E-03     99.3367E-03     215.582E-03     154.114E+06     159.050E+06     62.8105E+06    -14.7400E+06    -14.7208E+06     159.031E+06     62.8105E+06     273.423E+03
             752     31.1651E-03     14.6011E-03     27.5331E-03     60.8517E-03    -26.9254E-03    -33.9354E-03    -26.5434E-03     53.4597E-03    -26.9254E-03     49.3816E-03     147.098E-03     143.201E+06     129.205E+06     3.98853E+06    -26.5313E+06    -16.0337E+06     129.174E+06    -6.47821E+06     565.402E+03
             753     30.6864E-03     13.6277E-03     27.4944E-03     56.2979E-03    -26.8463E-03    -29.4571E-03    -26.6252E-03     53.4661E-03    -26.8463E-03     30.2492E-03     119.122E-03     101.517E+06     72.2760E+06    -16.3787E+06    -37.8361E+06    -16.1434E+06     72.0408E+06    -37.8361E+06     3.16058E+06
             754     30.2435E-03     12.6539E-03     27.4690E-03     55.0701E-03    -26.9936E-03    -28.1161E-03    -26.6170E-03     53.5710E-03    -26.9936E-03     21.9152E-03     101.252E-03     39.2116E+06     8.85140E+06    -21.0616E+06    -35.4575E+06    -15.1623E+06    -453.236E+03    -32.0522E+06     4.34120E+06
             755     29.8305E-03     11.6800E-03     27.4489E-03     54.7892E-03    -27.1372E-03    -27.6988E-03    -26.7820E-03     53.8724E-03    -27.1372E-03     17.2190E-03     90.0369E-03     37.9253E+06    -13.8506E+06    -23.7029E+06    -54.5938E+06    -14.3845E+06    -54.0600E+06    -23.7029E+06     3.32828E+06
             756     29.4478E-03     10.7067E-03     27.4324E-03     54.8082E-03    -27.2565E-03    -27.5806E-03    -26.9551E-03     54.1851E-03    -27.2588E-03     14.1907E-03     83.0417E-03     81.1411E+06    -10.9895E+06    -17.6918E+06    -95.2372E+06    -14.0832E+06    -95.1556E+06    -14.6797E+06     2.38168E+06
             757     29.0956E-03     9.73257E-03     27.4195E-03     54.7822E-03    -27.3313E-03    -27.4706E-03    -27.0426E-03     54.3565E-03    -27.3336E-03     11.7661E-03     76.3551E-03     109.637E+06    -9.83393E+06    -14.9778E+06    -121.940E+06    -15.0557E+06    -121.862E+06    -9.83393E+06     2.75854E+06
             758     28.7730E-03     8.75913E-03     27.4073E-03     54.8119E-03    -27.3553E-03    -27.4465E-03    -27.1323E-03     54.5071E-03    -27.3648E-03     9.95357E-03     71.1101E-03     126.824E+06    -11.6913E+06    -17.2992E+06    -141.215E+06    -17.3560E+06    -141.158E+06    -11.6913E+06     2.13861E+06
             759     28.4831E-03     7.78589E-03     27.3983E-03     54.8484E-03    -27.3779E-03    -27.4602E-03    -27.2104E-03     54.6304E-03    -27.4097E-03     8.43182E-03     67.2790E-03     146.602E+06    -11.4164E+06    -18.7193E+06    -161.527E+06    -18.7488E+06    -161.497E+06    -11.4164E+06     1.52901E+06
             760     28.2240E-03     6.81238E-03     27.3896E-03     54.8827E-03    -27.4101E-03    -27.4733E-03    -27.2839E-03     54.7253E-03    -27.4422E-03     7.16407E-03     64.0869E-03     162.546E+06    -12.2755E+06    -18.9758E+06    -178.040E+06    -19.0257E+06    -177.990E+06    -12.2755E+06     2.51804E+06
             761     27.9987E-03     5.83926E-03     27.3830E-03     54.8917E-03    -27.4078E-03    -27.4863E-03    -27.3184E-03     54.7841E-03    -27.4681E-03     5.91316E-03     61.5804E-03     174.321E+06    -13.4049E+06    -19.2232E+06    -190.539E+06    -19.2582E+06    -190.504E+06    -13.4049E+06     1.99702E+06
             762     27.8059E-03     4.86583E-03     27.3768E-03     54.9131E-03    -27.4183E-03    -27.4974E-03    -27.3551E-03     54.8461E-03    -27.4936E-03     4.64940E-03     59.7171E-03     179.828E+06    -13.3133E+06    -19.3810E+06    -196.096E+06    -19.4005E+06    -196.076E+06    -13.3133E+06     1.46796E+06
             763     27.6486E-03     3.89241E-03     27.3732E-03     55.0404E-03    -27.4618E-03    -27.5794E-03    -27.5133E-03     55.0020E-03    -27.4895E-03     3.51274E-03     58.3266E-03     181.320E+06    -14.8161E+06    -20.0633E+06    -198.698E+06    -20.0879E+06    -198.674E+06    -14.8161E+06     1.91191E+06
             764     27.5249E-03     2.91954E-03     27.3696E-03     55.0009E-03    -27.4529E-03    -27.5489E-03    -27.5232E-03     54.9781E-03    -27.4558E-03     2.71105E-03     57.0496E-03     179.717E+06    -15.9455E+06    -21.1500E+06    -198.180E+06    -21.1684E+06    -198.162E+06    -15.9455E+06     1.25393E+06
             765     27.4360E-03     1.94676E-03     27.3669E-03     54.8198E-03    -27.3627E-03    -27.4577E-03    -27.3834E-03     54.8070E-03    -27.4242E-03     1.97801E-03     56.1212E-03     176.845E+06    -17.4552E+06    -23.2182E+06    -197.083E+06    -23.2388E+06    -197.062E+06    -17.4552E+06    -108.762E+03
             766     27.3826E-03     973.203E-06     27.3653E-03     54.7504E-03    -27.2462E-03    -27.5033E-03    -27.4360E-03     54.7446E-03    -27.3077E-03     1.32154E-03     56.0989E-03     173.284E+06    -23.1962E+06    -26.8955E+06    -198.289E+06    -26.8107E+06    -198.272E+06    -23.2980E+06    -913.257E+03
             767     31.3963E-03     16.5483E-03     26.6811E-03     78.9010E-03    -27.4872E-03    -51.4197E-03    -27.0571E-03     54.5384E-03    -27.4872E-03     100.153E-03     247.993E-03     168.971E+06     179.218E+06     128.460E+06    -8.01980E+06    -7.98969E+06     179.188E+06     128.460E+06     70.7185E+03
             768     30.7786E-03     15.5767E-03     26.5460E-03     78.4099E-03    -27.2251E-03    -51.1980E-03    -27.4631E-03     54.6751E-03    -27.2251E-03     98.4246E-03     215.763E-03     153.115E+06     158.364E+06     61.5850E+06    -13.7993E+06    -13.7214E+06     158.286E+06     61.5850E+06    -145.695E+03
             769     30.2338E-03     14.6010E-03     26.4744E-03     61.1259E-03    -26.9329E-03    -34.2055E-03    -26.5704E-03     53.4908E-03    -26.9329E-03     49.7528E-03     146.807E-03     142.163E+06     126.507E+06    -472.039E+03    -26.6581E+06    -18.4437E+06     126.419E+06    -8.59830E+06     2.08551E+06
             770     29.7459E-03     13.6281E-03     26.4403E-03     56.2135E-03    -26.8618E-03    -29.3592E-03    -26.7046E-03     53.5589E-03    -26.8618E-03     29.4453E-03     119.004E-03     100.979E+06     71.0082E+06    -19.3986E+06    -37.3748E+06    -19.2558E+06     70.8654E+06    -37.3748E+06     2.99330E+06
             771     29.2875E-03     12.6535E-03     26.4130E-03     55.1212E-03    -26.9927E-03    -28.1651E-03    -26.6541E-03     53.6102E-03    -26.9927E-03     21.9616E-03     101.198E-03     39.0710E+06     8.41751E+06    -22.9481E+06    -35.1236E+06    -16.2874E+06    -568.745E+03    -32.7980E+06     3.33600E+06
             772     28.8630E-03     11.6801E-03     26.3941E-03     54.8236E-03    -27.1309E-03    -27.7312E-03    -26.8310E-03     53.9234E-03    -27.1309E-03     17.0837E-03     89.9847E-03     37.5304E+06    -12.8790E+06    -23.1836E+06    -52.7007E+06    -13.3489E+06    -52.2308E+06    -23.1836E+06     3.27179E+06
             773     28.4669E-03     10.7057E-03     26.3771E-03     54.8688E-03    -27.2607E-03    -27.6286E-03    -27.0043E-03     54.2445E-03    -27.2607E-03     14.2145E-03     83.0711E-03     82.3772E+06    -9.53708E+06    -16.8654E+06    -95.3132E+06    -13.6611E+06    -95.1556E+06    -12.8990E+06     3.44635E+06
             774     28.1030E-03     9.73305E-03     26.3638E-03     54.9213E-03    -27.3210E-03    -27.6089E-03    -27.1932E-03     54.5055E-03    -27.3210E-03     11.6285E-03     76.4742E-03     109.177E+06    -9.26070E+06    -15.1353E+06    -121.232E+06    -15.2580E+06    -121.109E+06    -9.26070E+06     3.46661E+06
             775     27.7701E-03     8.75954E-03     26.3524E-03     54.7763E-03    -27.3087E-03    -27.4478E-03    -27.1173E-03     54.4855E-03    -27.3483E-03     9.73027E-03     71.0329E-03     127.279E+06    -9.55776E+06    -15.2879E+06    -139.587E+06    -15.3650E+06    -139.509E+06    -9.55776E+06     2.97448E+06
             776     27.4692E-03     7.78586E-03     26.3427E-03     54.7962E-03    -27.3584E-03    -27.4263E-03    -27.1749E-03     54.5844E-03    -27.3981E-03     8.30152E-03     67.2451E-03     148.725E+06    -9.39233E+06    -17.0569E+06    -161.792E+06    -17.1101E+06    -161.739E+06    -9.39233E+06     2.46234E+06
             777     27.2014E-03     6.81273E-03     26.3345E-03     54.8619E-03    -27.4090E-03    -27.4555E-03    -27.2856E-03     54.7104E-03    -27.4273E-03     7.03112E-03     64.1006E-03     163.277E+06    -10.5202E+06    -18.4896E+06    -177.628E+06    -18.5343E+06    -177.583E+06    -10.5202E+06     1.52784E+06
             778     26.9670E-03     5.83924E-03     26.3272E-03     54.8435E-03    -27.3941E-03    -27.4532E-03    -27.3019E-03     54.7413E-03    -27.4432E-03     5.75093E-03     61.5988E-03     173.814E+06    -12.4470E+06    -18.3530E+06    -189.119E+06    -18.3905E+06    -189.082E+06    -12.4470E+06     1.25387E+06
             779     26.7680E-03     4.86594E-03     26.3220E-03     54.8713E-03    -27.3981E-03    -27.4762E-03    -27.3589E-03     54.8096E-03    -27.4536E-03     4.46095E-03     59.7652E-03     178.736E+06    -15.4861E+06    -20.0121E+06    -196.438E+06    -20.0279E+06    -196.422E+06    -15.4861E+06     1.28382E+06
             780     26.6035E-03     3.89283E-03     26.3171E-03     54.9627E-03    -27.4165E-03    -27.5469E-03    -27.4786E-03     54.9262E-03    -27.4483E-03     3.43040E-03     58.3356E-03     179.685E+06    -16.4086E+06    -21.2008E+06     -198.44E+06    -21.2151E+06    -198.426E+06    -16.4086E+06     1.46774E+06
             781     26.4756E-03     2.92001E-03     26.3141E-03     54.9050E-03    -27.4055E-03    -27.4991E-03    -27.4710E-03     54.8844E-03    -27.4130E-03     2.55623E-03     57.0521E-03     176.961E+06    -17.4624E+06    -20.6446E+06    -195.990E+06    -20.6560E+06    -195.978E+06    -17.4624E+06     591.844E+03
             782     26.3839E-03     1.94629E-03     26.3120E-03     54.7366E-03    -27.3290E-03    -27.4067E-03    -27.3168E-03     54.7244E-03    -27.4067E-03     1.99118E-03     56.0985E-03     176.672E+06    -18.2924E+06    -22.2272E+06    -196.890E+06    -22.2302E+06    -196.887E+06    -18.2924E+06     66.1176E+03
             783     26.3279E-03     973.046E-06     26.3099E-03     54.7577E-03    -27.2358E-03    -27.5223E-03    -27.3299E-03     54.7504E-03    -27.4209E-03     1.49158E-03     56.0599E-03     172.731E+06    -22.8507E+06    -26.8000E+06    -197.513E+06    -26.5744E+06    -197.502E+06    -23.0872E+06    -511.784E+03
             784     30.5090E-03     16.5539E-03     25.6274E-03     78.6433E-03    -27.4442E-03    -51.2015E-03    -26.9440E-03     54.3857E-03    -27.4442E-03     99.4542E-03     247.448E-03     168.309E+06     178.954E+06     126.873E+06    -7.64980E+06    -7.61496E+06     178.919E+06     126.873E+06    -125.647E+03
             785     29.8722E-03     15.5749E-03     25.4906E-03     78.1788E-03    -27.1948E-03    -50.9954E-03    -27.3008E-03     54.4843E-03    -27.1948E-03     97.8449E-03     215.844E-03     151.903E+06     156.038E+06     60.3657E+06    -15.9453E+06    -15.8590E+06     155.951E+06     60.3657E+06     1.66981E+06
             786     29.3144E-03     14.6019E-03     25.4188E-03     60.8463E-03    -26.9196E-03    -33.9360E-03    -26.5287E-03     53.4390E-03    -26.9196E-03     48.9523E-03     146.735E-03     140.921E+06     125.579E+06     1.75084E+06    -26.8916E+06    -19.4445E+06     125.503E+06    -5.61982E+06     3.09430E+06
             787     28.8110E-03     13.6271E-03     25.3846E-03     55.7320E-03    -26.8479E-03    -28.8883E-03    -26.3503E-03     53.1940E-03    -26.8479E-03     28.6368E-03     118.716E-03     99.2628E+06     70.6038E+06    -18.3031E+06    -35.7772E+06    -18.2510E+06     70.5518E+06    -35.7772E+06     1.95556E+06
             788     28.3400E-03     12.6540E-03     25.3580E-03     55.1183E-03    -26.9798E-03    -28.1731E-03    -26.7022E-03     53.6473E-03    -26.9798E-03     21.6848E-03     101.240E-03     36.5245E+06     7.05902E+06    -22.8714E+06    -33.3952E+06    -16.3206E+06      87.903E+03    -32.9749E+06     1.89006E+06
             789     27.9008E-03     11.6799E-03     25.3383E-03     54.8236E-03    -27.1136E-03    -27.7516E-03    -26.8859E-03     53.9579E-03    -27.1136E-03     16.7448E-03     90.0000E-03     36.8093E+06    -15.1732E+06    -24.1588E+06    -53.2659E+06    -15.4894E+06    -52.9497E+06    -24.1588E+06     3.23647E+06
             790     27.4929E-03     10.7069E-03     25.3223E-03     54.8998E-03    -27.2353E-03    -27.6903E-03    -27.0881E-03     54.2976E-03    -27.2353E-03     14.0025E-03     83.0607E-03     81.5248E+06    -10.7941E+06    -17.3151E+06    -95.3814E+06    -15.2534E+06    -95.1385E+06    -13.0987E+06     4.24083E+06
             791     27.1146E-03     9.73282E-03     25.3076E-03     54.8561E-03    -27.2864E-03    -27.5719E-03    -27.1733E-03     54.4574E-03    -27.2864E-03     11.3377E-03     76.3472E-03     107.353E+06    -8.99744E+06    -15.5002E+06    -119.423E+06    -15.6196E+06    -119.303E+06    -8.99744E+06     3.36800E+06
             792     26.7713E-03     8.75981E-03     25.2976E-03     54.7559E-03    -27.2832E-03    -27.4533E-03    -27.1519E-03     54.4847E-03    -27.3134E-03     9.41150E-03     71.0006E-03     127.092E+06    -9.14136E+06    -15.7789E+06    -139.402E+06    -15.8408E+06    -139.340E+06    -9.14136E+06     2.62629E+06
             793     26.4588E-03     7.78634E-03     25.2872E-03     54.7322E-03    -27.3215E-03    -27.4047E-03    -27.1622E-03     54.5222E-03    -27.3541E-03     8.26049E-03     67.1606E-03     148.915E+06    -8.25748E+06    -15.2898E+06    -160.535E+06    -15.3395E+06    -160.486E+06    -8.25748E+06     2.39899E+06
             794     26.1810E-03     6.81285E-03     25.2790E-03     54.7883E-03    -27.3618E-03    -27.4270E-03    -27.2718E-03     54.6440E-03    -27.3727E-03     6.83769E-03     64.0307E-03     163.169E+06    -10.6440E+06    -16.0613E+06    -176.435E+06    -16.1164E+06    -176.380E+06    -10.6440E+06     1.83014E+06
             795     25.9381E-03     5.83962E-03     25.2722E-03     54.8063E-03    -27.3754E-03    -27.4339E-03    -27.3293E-03     54.7111E-03    -27.3848E-03     5.55546E-03     61.5462E-03     173.856E+06    -13.1436E+06    -17.8293E+06    -189.289E+06    -17.8771E+06    -189.241E+06    -13.1436E+06     1.67884E+06
             796     25.7307E-03     4.86639E-03     25.2663E-03     54.7983E-03    -27.3878E-03    -27.4117E-03    -27.3502E-03     54.7375E-03    -27.3886E-03     4.43171E-03     59.6127E-03     179.433E+06    -14.6361E+06    -18.8198E+06    -196.118E+06    -18.8390E+06    -196.098E+06    -14.6361E+06     1.68188E+06
             797     25.5604E-03     3.89316E-03     25.2622E-03     54.7226E-03    -27.3144E-03    -27.4090E-03    -27.2894E-03     54.6845E-03    -27.3960E-03     3.51451E-03     58.0254E-03     179.460E+06    -15.1642E+06    -19.7356E+06    -196.862E+06    -19.7437E+06    -196.854E+06    -15.1642E+06     872.844E+03
             798     25.4265E-03     2.91941E-03     25.2584E-03     54.7303E-03    -27.3211E-03    -27.4090E-03    -27.3058E-03     54.7089E-03    -27.4030E-03     2.58438E-03     56.9299E-03     175.882E+06    -17.1992E+06    -21.8563E+06    -195.360E+06    -21.8621E+06    -195.354E+06    -17.1992E+06     451.993E+03
             799     25.3317E-03     1.94671E-03     25.2568E-03     54.8326E-03    -27.3593E-03    -27.4728E-03    -27.4457E-03     54.8217E-03    -27.3755E-03     1.88574E-03     56.3011E-03     175.871E+06    -19.3107E+06    -23.9961E+06    -197.475E+06    -24.0004E+06    -197.470E+06    -19.3107E+06     458.394E+03
             800     25.2730E-03     973.424E-06     25.2543E-03     54.6127E-03    -27.1579E-03    -27.4553E-03    -27.3260E-03     54.6069E-03    -27.2815E-03     1.28835E-03     55.9086E-03     171.504E+06    -22.6328E+06    -26.3646E+06    -195.967E+06    -25.0299E+06    -195.935E+06    -23.9990E+06     698.413E+03
             801     29.6307E-03     16.5506E-03     24.5776E-03     79.4054E-03    -27.4480E-03    -51.9598E-03    -27.1762E-03     54.6217E-03    -27.4480E-03     100.838E-03     247.569E-03     168.717E+06     177.706E+06     128.304E+06    -8.89434E+06    -8.85198E+06     177.664E+06     128.304E+06     1.02818E+06
             802     28.9759E-03     15.5781E-03     24.4321E-03     79.4040E-03    -27.1802E-03    -52.2331E-03    -28.0122E-03     55.1831E-03    -27.1802E-03     99.5425E-03     215.798E-03     151.725E+06     155.948E+06     63.6243E+06    -15.5315E+06    -15.4822E+06     155.899E+06     63.6243E+06     2.78525E+06
             803     28.4068E-03     14.6038E-03     24.3655E-03     60.4192E-03    -26.8774E-03    -33.5506E-03    -26.3700E-03     53.2386E-03    -26.8774E-03     48.4862E-03     146.504E-03     139.473E+06     125.873E+06     4.10853E+06    -25.5191E+06    -17.3441E+06     125.848E+06    -4.04178E+06     1.82669E+06
             804     27.8863E-03     13.6287E-03     24.3290E-03     55.5540E-03    -26.8125E-03    -28.7453E-03    -26.0462E-03     52.8549E-03    -26.8125E-03     29.3266E-03     118.467E-03     99.2696E+06     71.1805E+06    -16.8696E+06    -35.7025E+06    -16.7900E+06      71.101E+06    -35.7025E+06     2.01877E+06
             805     27.3998E-03     12.6542E-03     24.3027E-03     55.0822E-03    -26.9515E-03    -28.1628E-03    -26.6882E-03     53.6076E-03    -26.9515E-03     21.7067E-03     101.280E-03     37.8228E+06     7.51735E+06    -22.9384E+06    -34.6664E+06    -16.3094E+06    -157.082E+03    -33.6211E+06     2.49179E+06
             806     26.9464E-03     11.6806E-03     24.2832E-03     54.9286E-03    -27.0838E-03    -27.8893E-03    -27.0197E-03     54.0591E-03    -27.0838E-03     16.8009E-03     90.0876E-03     37.5479E+06    -15.7592E+06    -24.0956E+06    -54.5159E+06    -16.1119E+06    -54.1633E+06    -24.0956E+06     3.30865E+06
             807     26.5234E-03     10.7068E-03     24.2663E-03     54.8934E-03    -27.1852E-03    -27.7335E-03    -27.1404E-03     54.3003E-03    -27.1852E-03     13.8913E-03     82.9623E-03     79.9755E+06    -12.2665E+06    -17.1074E+06    -94.5437E+06    -15.7444E+06    -94.3443E+06    -13.8289E+06     3.74278E+06
             808     26.1334E-03     9.73394E-03     24.2529E-03     54.7070E-03    -27.2306E-03    -27.4745E-03    -27.0828E-03     54.3153E-03    -27.2306E-03     11.2336E-03     76.0812E-03     105.761E+06    -9.70791E+06    -15.2351E+06    -118.097E+06    -15.3389E+06    -117.993E+06    -9.70791E+06     3.24159E+06
             809     25.7758E-03     8.76010E-03     24.2416E-03     54.6867E-03    -27.2522E-03    -27.4176E-03    -27.1514E-03     54.4205E-03    -27.2522E-03     9.31343E-03     70.8733E-03     125.135E+06    -11.2231E+06    -15.6622E+06    -138.490E+06    -15.7154E+06    -138.437E+06    -11.2231E+06     2.36579E+06
             810     25.4530E-03     7.78686E-03     24.2326E-03     54.7199E-03    -27.2758E-03    -27.4367E-03    -27.2314E-03     54.5170E-03    -27.2782E-03     8.13159E-03     67.0140E-03     145.982E+06    -11.3100E+06    -16.2317E+06    -159.658E+06    -16.2505E+06    -159.639E+06    -11.3100E+06     1.58597E+06
             811     25.1635E-03     6.81338E-03     24.2235E-03     54.6866E-03    -27.2968E-03    -27.3868E-03    -27.2441E-03     54.5462E-03    -27.2992E-03     6.73536E-03     63.8006E-03     161.556E+06    -11.2580E+06    -16.8529E+06    -175.518E+06    -16.8955E+06    -175.475E+06    -11.2580E+06     2.24959E+06
             812     24.9113E-03     5.84016E-03     24.2170E-03     54.7000E-03    -27.3120E-03    -27.3919E-03    -27.3007E-03     54.6095E-03    -27.3127E-03     5.41174E-03     61.3458E-03     173.968E+06    -12.4294E+06    -17.9498E+06    -189.090E+06    -17.9977E+06    -189.042E+06    -12.4294E+06     2.46120E+06
             813     24.6955E-03     4.86667E-03     24.2112E-03     54.6097E-03    -27.2665E-03    -27.3444E-03    -27.2416E-03     54.5519E-03    -27.3115E-03     4.30964E-03     59.3845E-03     178.921E+06    -14.5431E+06    -19.1659E+06    -195.728E+06    -19.1896E+06    -195.704E+06    -14.5431E+06     1.88952E+06
             814     24.5179E-03     3.89327E-03     24.2068E-03     54.5160E-03    -27.1980E-03    -27.3183E-03    -27.1647E-03     54.4821E-03    -27.3178E-03     3.29395E-03     57.8379E-03     176.081E+06    -16.6891E+06    -20.6271E+06    -194.701E+06    -20.6378E+06    -194.690E+06    -16.6891E+06     939.221E+03
             815     24.3793E-03     2.91993E-03     24.2038E-03     54.6041E-03    -27.2552E-03    -27.3482E-03    -27.2531E-03     54.5846E-03    -27.3307E-03     2.50764E-03     56.7524E-03     174.982E+06    -18.3588E+06    -22.4515E+06    -195.344E+06    -21.8494E+06    -195.339E+06    -18.9662E+06     274.268E+03
             816     24.2788E-03     1.94630E-03     24.2006E-03     54.7318E-03    -27.3049E-03    -27.4268E-03    -27.4166E-03     54.7216E-03    -27.3049E-03     1.72636E-03     56.1129E-03     176.932E+06    -17.3840E+06    -23.2920E+06    -197.181E+06    -22.6931E+06    -197.172E+06    -17.9914E+06     725.107E+03
             817     24.2191E-03     973.684E-06     24.1995E-03     54.4411E-03    -27.1189E-03    -27.3224E-03    -27.3009E-03     54.4362E-03    -27.1355E-03     1.16960E-03     55.7612E-03     171.342E+06    -21.5214E+06    -27.3124E+06    -195.674E+06    -26.2435E+06    -195.613E+06    -22.6511E+06     2.63247E+06
             818     28.7603E-03     16.5506E-03     23.5208E-03     79.3705E-03    -27.4626E-03    -51.9123E-03    -27.3939E-03     54.8520E-03    -27.4626E-03     100.090E-03     247.580E-03     168.729E+06     177.208E+06     129.825E+06    -9.06725E+06    -9.03382E+06     177.175E+06     129.825E+06     878.175E+03
             819     28.0892E-03     15.5762E-03     23.3749E-03     79.3234E-03    -27.1901E-03    -52.1462E-03    -27.7536E-03     54.9307E-03    -27.1901E-03     99.8542E-03     215.497E-03     151.302E+06     155.727E+06     64.4734E+06    -14.6346E+06    -14.6066E+06     155.699E+06     64.4734E+06     1.57397E+06
             820     27.5069E-03     14.6026E-03     23.3108E-03     60.7302E-03    -26.8859E-03    -33.8533E-03    -26.4919E-03     53.3688E-03    -26.8859E-03     49.2574E-03     146.305E-03     138.184E+06     124.947E+06     2.90607E+06    -24.5139E+06    -16.6301E+06     124.901E+06    -4.93250E+06      1.9542E+06
             821     26.9710E-03     13.6281E-03     23.2746E-03     56.1894E-03    -26.8049E-03    -29.3830E-03    -26.5703E-03     53.3768E-03    -26.8049E-03     30.1069E-03     118.572E-03     99.5523E+06     71.4631E+06    -17.4666E+06    -35.4689E+06    -17.3093E+06     71.3058E+06    -35.4689E+06     3.21536E+06
             822     26.4682E-03     12.6542E-03     23.2473E-03     55.1590E-03    -26.9098E-03    -28.2845E-03    -26.8242E-03     53.6987E-03    -26.9098E-03     21.6174E-03     101.082E-03     39.8284E+06     8.28415E+06    -24.3475E+06    -35.9841E+06    -16.7907E+06    -78.6515E+03    -35.1780E+06     3.37198E+06
             823     25.9991E-03     11.6809E-03     23.2274E-03     54.9123E-03    -27.0321E-03    -27.9330E-03    -27.0824E-03     54.0617E-03    -27.0321E-03     16.6172E-03     89.9266E-03     38.7911E+06    -15.5956E+06    -25.1132E+06    -55.8489E+06    -16.0256E+06    -54.7521E+06    -25.7801E+06     3.22192E+06
             824     25.5619E-03     10.7079E-03     23.2110E-03     54.7970E-03    -27.1270E-03    -27.6993E-03    -27.1275E-03     54.2252E-03    -27.1270E-03     13.6255E-03     82.6635E-03     78.4223E+06    -13.4278E+06    -16.6171E+06    -93.3810E+06    -15.0188E+06    -93.2557E+06    -15.1514E+06     3.04489E+06
             825     25.1569E-03     9.73386E-03     23.1974E-03     54.6357E-03    -27.1702E-03    -27.4634E-03    -27.0866E-03     54.2589E-03    -27.1702E-03     11.0194E-03     75.8738E-03     104.971E+06    -10.5751E+06    -14.7639E+06    -117.544E+06    -14.8531E+06    -117.455E+06    -10.5751E+06     3.01307E+06
             826     24.7866E-03     8.76054E-03     23.1868E-03     54.6255E-03    -27.1942E-03    -27.4065E-03    -27.1483E-03     54.3673E-03    -27.1942E-03     9.16180E-03     70.7472E-03     124.615E+06    -10.2435E+06    -15.9193E+06    -137.545E+06    -16.0035E+06    -137.461E+06    -10.2435E+06     3.05634E+06
             827     24.4497E-03     7.78728E-03     23.1765E-03     54.6533E-03    -27.2050E-03    -27.4369E-03    -27.2456E-03     54.4619E-03    -27.2050E-03     7.88638E-03     66.9014E-03     143.756E+06    -11.9908E+06    -17.7529E+06    -158.494E+06    -17.8047E+06    -158.442E+06    -11.9908E+06     2.31517E+06
             828     24.1503E-03     6.81410E-03     23.1690E-03     54.5582E-03    -27.2138E-03    -27.3430E-03    -27.2069E-03     54.4221E-03    -27.2138E-03     6.64836E-03     63.5887E-03     160.084E+06    -13.2373E+06    -18.9925E+06    -176.103E+06    -19.0222E+06    -176.073E+06    -13.2373E+06     1.98108E+06
             829     23.8864E-03     5.84046E-03     23.1613E-03     54.4927E-03    -27.2214E-03    -27.2745E-03    -27.1824E-03     54.4006E-03    -27.2214E-03     5.43907E-03     61.0967E-03     171.140E+06    -14.9271E+06    -19.8942E+06    -188.493E+06    -19.9400E+06    -188.447E+06    -14.9271E+06     2.67670E+06
             830     23.6626E-03     4.86738E-03     23.1566E-03     54.4941E-03    -27.1726E-03    -27.3243E-03    -27.2245E-03     54.4386E-03    -27.2169E-03     4.21705E-03     59.2985E-03     175.906E+06    -16.5179E+06    -20.9045E+06    -194.575E+06    -20.9409E+06    -194.538E+06    -16.5179E+06     2.46884E+06
             831     23.4770E-03     3.89365E-03     23.1519E-03     54.4464E-03    -27.1407E-03    -27.3068E-03    -27.2309E-03     54.4158E-03    -27.1860E-03     3.11373E-03     57.8423E-03     172.156E+06    -18.5855E+06    -21.7157E+06    -192.280E+06    -21.4302E+06    -192.268E+06    -18.8833E+06     1.24606E+06
             832     23.3321E-03     2.92026E-03     23.1486E-03     54.3745E-03    -27.1548E-03    -27.2188E-03    -27.2007E-03     54.3581E-03    -27.1566E-03     2.28182E-03     56.5346E-03     172.072E+06    -20.6344E+06    -23.4233E+06    -194.078E+06    -22.5196E+06    -194.076E+06    -21.5396E+06     186.318E+03
             833     23.2272E-03     1.94721E-03     23.1454E-03     54.2720E-03    -27.0849E-03    -27.1862E-03    -27.1007E-03     54.2634E-03    -27.1617E-03     1.58527E-03     55.6012E-03     175.566E+06    -20.2165E+06    -25.4531E+06    -198.325E+06    -24.8507E+06    -198.320E+06    -20.8239E+06     468.445E+03
             834     23.1647E-03     973.277E-06     23.1443E-03     54.2579E-03    -27.0559E-03    -27.2024E-03    -27.0647E-03     54.2537E-03    -27.1893E-03     1.00717E-03     55.4838E-03     169.914E+06    -21.9931E+06    -26.1050E+06    -193.900E+06    -26.1495E+06    -193.830E+06    -22.0183E+06     436.904E+03
             835     27.9060E-03     16.5538E-03     22.4659E-03     79.6717E-03    -27.4425E-03    -52.2313E-03    -27.7413E-03     55.1817E-03    -27.4425E-03     100.451E-03     247.470E-03     167.508E+06     177.585E+06     129.056E+06    -7.61861E+06    -7.61018E+06     177.577E+06     129.056E+06     1.00578E+06
             836     27.2196E-03     15.5771E-03     22.3217E-03     78.5724E-03    -27.1716E-03    -51.4140E-03    -27.3785E-03     54.5369E-03    -27.1716E-03     98.6784E-03     215.276E-03     150.062E+06     154.786E+06     63.4091E+06    -14.6719E+06    -14.6616E+06     154.776E+06     63.4091E+06     1.06998E+06
             837     26.6166E-03     14.6008E-03     22.2545E-03     60.5479E-03    -26.8781E-03    -33.6797E-03    -26.5552E-03     53.4234E-03    -26.8781E-03     47.9985E-03     146.356E-03     137.714E+06     122.614E+06     1.32765E+06    -26.3792E+06    -18.9946E+06     122.560E+06    -6.00342E+06     2.20191E+06
             838     26.0651E-03     13.6288E-03     22.2181E-03     56.3123E-03    -26.7757E-03    -29.5359E-03    -27.0195E-03     53.7960E-03    -26.7757E-03     28.6356E-03     118.666E-03     100.001E+06     71.5646E+06    -18.6030E+06    -35.4838E+06    -18.4269E+06     71.3885E+06    -35.4838E+06     3.54751E+06
             839     25.5474E-03     12.6557E-03     22.1923E-03     55.1549E-03    -26.8597E-03    -28.3280E-03    -26.9312E-03     53.7582E-03    -26.8597E-03     21.2257E-03     100.964E-03     40.0728E+06     9.03468E+06    -24.1795E+06    -35.4266E+06    -17.0548E+06     879.476E+03    -34.3961E+06     3.39253E+06
             840     25.0610E-03     11.6818E-03     22.1718E-03     54.7545E-03    -26.9724E-03    -27.8362E-03    -26.9948E-03     53.9131E-03    -26.9724E-03     16.4850E-03     89.6217E-03     38.3770E+06    -15.2732E+06    -25.0588E+06    -55.5148E+06    -15.6760E+06    -54.4451E+06    -25.7257E+06     3.12068E+06
             841     24.6078E-03     10.7081E-03     22.1559E-03     54.6892E-03    -27.0623E-03    -27.6637E-03    -27.1107E-03     54.1362E-03    -27.0623E-03     13.3891E-03     82.4200E-03     77.5714E+06    -13.5791E+06    -17.5789E+06    -93.0477E+06    -15.2445E+06    -92.9214E+06    -16.0398E+06     3.05728E+06
             842     24.1878E-03     9.73491E-03     22.1423E-03     54.6256E-03    -27.0965E-03    -27.5331E-03    -27.1746E-03     54.2671E-03    -27.0965E-03     10.7449E-03     75.7460E-03     103.936E+06    -11.5852E+06    -15.9172E+06    -117.586E+06    -16.0445E+06    -117.459E+06    -11.5852E+06     3.51152E+06
             843     23.8025E-03     8.76158E-03     22.1313E-03     54.4955E-03    -27.1056E-03    -27.3742E-03    -27.1337E-03     54.2550E-03    -27.1056E-03     8.84654E-03     70.4976E-03     122.429E+06    -11.1744E+06    -16.8055E+06    -136.268E+06    -16.9260E+06    -136.147E+06    -11.1744E+06     3.53950E+06
             844     23.4529E-03     7.78798E-03     22.1220E-03     54.4401E-03    -27.1034E-03    -27.3253E-03    -27.1431E-03     54.2578E-03    -27.1034E-03     7.68485E-03     66.5999E-03     141.227E+06    -14.3385E+06    -17.7955E+06    -157.215E+06    -17.7228E+06    -157.132E+06    -14.4938E+06     2.99086E+06
             845     23.1394E-03     6.81452E-03     22.1132E-03     54.4254E-03    -27.1089E-03    -27.3088E-03    -27.1839E-03     54.3006E-03    -27.1089E-03     6.33888E-03     63.3886E-03     159.597E+06    -15.6689E+06    -18.9472E+06    -176.871E+06    -18.8573E+06    -176.806E+06    -15.8241E+06     2.89107E+06
             846     22.8660E-03     5.84114E-03     22.1074E-03     54.3372E-03    -27.1129E-03    -27.2272E-03    -27.1447E-03     54.2547E-03    -27.1129E-03     5.15296E-03     60.8649E-03     169.833E+06    -16.0467E+06    -20.2403E+06    -187.935E+06    -20.2925E+06    -187.883E+06    -16.0467E+06     2.93330E+06
             847     22.6306E-03     4.86722E-03     22.1010E-03     54.3495E-03    -27.0897E-03    -27.2629E-03    -27.2126E-03     54.2991E-03    -27.0897E-03     3.97732E-03     59.0827E-03     173.213E+06    -17.7437E+06    -20.8780E+06    -192.501E+06    -20.9093E+06    -192.470E+06    -17.7437E+06     1.93551E+06
             848     22.4378E-03     3.89452E-03     22.0972E-03     54.3056E-03    -27.0377E-03    -27.2690E-03    -27.2414E-03     54.2780E-03    -27.0377E-03     2.97391E-03     57.6319E-03     171.146E+06    -18.2635E+06    -21.6719E+06    -191.080E+06    -21.4046E+06    -191.050E+06    -18.5613E+06     1.56485E+06
             849     22.2856E-03     2.92119E-03     22.0933E-03     54.0883E-03    -26.9873E-03    -27.1012E-03    -27.0851E-03     54.0730E-03    -26.9881E-03     2.17065E-03     56.1834E-03     171.839E+06    -18.7101E+06    -23.5328E+06    -192.901E+06    -23.2755E+06    -192.860E+06    -19.0079E+06     2.01747E+06
             850     22.1772E-03     1.94716E-03     22.0916E-03     53.9065E-03    -26.8672E-03    -27.0395E-03    -26.9559E-03     53.8995E-03    -26.9439E-03     1.45058E-03     55.2193E-03     172.720E+06    -21.7678E+06    -26.9165E+06    -197.001E+06    -26.9492E+06    -196.968E+06    -21.7678E+06     172.810E+03
             851     22.1108E-03     973.518E-06     22.0893E-03     53.7613E-03    -26.6681E-03    -27.0936E-03    -26.9742E-03     53.7587E-03    -26.7849E-03     682.091E-06     55.0079E-03     166.986E+06    -27.2922E+06    -29.5173E+06    -195.368E+06    -29.5481E+06    -195.313E+06    -27.3174E+06    -2.33313E+06
             852     27.0569E-03     16.5492E-03     21.4056E-03     79.4601E-03    -27.4357E-03    -52.0269E-03    -27.7342E-03     55.1674E-03    -27.4357E-03     100.263E-03     247.206E-03     166.590E+06     175.220E+06     125.703E+06    -9.23798E+06    -9.22807E+06     175.211E+06     125.703E+06     163.931E+03
             853     26.3639E-03     15.5783E-03     21.2690E-03     79.1279E-03    -27.1506E-03    -51.9885E-03    -28.1951E-03     55.3344E-03    -27.1506E-03     98.9203E-03     215.611E-03     149.978E+06     154.441E+06     63.3821E+06    -15.4652E+06    -15.4066E+06     154.383E+06     63.3821E+06     1.85597E+06
             854     25.7423E-03     14.6049E-03     21.1981E-03     60.9340E-03    -26.8232E-03    -34.1268E-03    -26.8169E-03     53.6242E-03    -26.8232E-03     48.8504E-03     146.190E-03     138.148E+06     123.714E+06     4.24361E+06    -26.7924E+06    -17.8214E+06     123.627E+06    -4.64036E+06     3.26281E+06
             855     25.1723E-03     13.6300E-03     21.1628E-03     55.9067E-03    -26.7102E-03    -29.2040E-03    -26.6339E-03     53.3367E-03    -26.7102E-03     28.8359E-03     118.213E-03     100.174E+06     70.9894E+06    -17.2251E+06    -37.2162E+06    -17.0949E+06     70.8592E+06    -37.2162E+06     3.01731E+06
             856     24.6359E-03     12.6558E-03     21.1367E-03     55.2535E-03    -26.8061E-03    -28.4794E-03    -27.0236E-03     53.7977E-03    -26.8061E-03     21.6416E-03     100.994E-03     40.8152E+06     9.97347E+06    -22.6651E+06    -35.6787E+06    -15.0713E+06     1.34920E+06    -34.6481E+06     3.30374E+06
             857     24.1330E-03     11.6826E-03     21.1168E-03     54.8444E-03    -26.9036E-03    -27.9957E-03    -27.1662E-03     54.0149E-03    -26.9036E-03     16.3728E-03     89.5527E-03     38.3571E+06    -13.9362E+06    -25.1115E+06    -54.5760E+06    -14.4548E+06    -53.1814E+06    -25.9874E+06     3.58662E+06
             858     23.6625E-03     10.7090E-03     21.1006E-03     54.6407E-03    -26.9747E-03    -27.7037E-03    -27.1721E-03     54.1092E-03    -26.9747E-03     13.1325E-03     82.1950E-03     77.4872E+06    -13.2329E+06    -18.5862E+06    -93.2193E+06    -14.6842E+06    -93.0441E+06    -17.3100E+06     3.63314E+06
             859     23.2258E-03     9.73567E-03     21.0869E-03     54.5614E-03    -26.9937E-03    -27.5691E-03    -27.2282E-03     54.2205E-03    -26.9937E-03     10.4506E-03     75.5163E-03     103.955E+06    -12.2329E+06    -15.2846E+06    -117.672E+06    -14.6058E+06    -117.530E+06    -13.0537E+06     3.67859E+06
             860     22.8254E-03     8.76225E-03     21.0766E-03     54.3906E-03    -26.9945E-03    -27.3787E-03    -27.1576E-03     54.1696E-03    -26.9945E-03     8.46724E-03     70.2327E-03     122.429E+06    -11.3167E+06    -14.7045E+06    -135.379E+06    -14.8506E+06    -135.233E+06    -11.3167E+06     3.80044E+06
             861     22.4606E-03     7.78884E-03     21.0669E-03     54.2808E-03    -26.9984E-03    -27.2705E-03    -27.1065E-03     54.1168E-03    -26.9984E-03     7.26173E-03     66.3261E-03     143.108E+06    -11.2951E+06    -16.5939E+06    -156.928E+06    -16.6000E+06    -156.766E+06    -11.4503E+06     4.49414E+06
             862     22.1342E-03     6.81534E-03     21.0588E-03     54.2550E-03    -26.9842E-03    -27.2669E-03    -27.1590E-03     54.1471E-03    -26.9842E-03     5.88165E-03     63.1409E-03     159.181E+06    -14.0426E+06    -19.3335E+06    -175.772E+06    -19.2968E+06    -175.653E+06    -14.1978E+06     4.12218E+06
             863     21.8476E-03     5.84198E-03     21.0521E-03     54.2216E-03    -26.9514E-03    -27.2756E-03    -27.2077E-03     54.1537E-03    -26.9514E-03     4.66943E-03     60.6591E-03     168.125E+06    -15.9519E+06    -19.8969E+06    -186.012E+06    -19.9464E+06    -185.962E+06    -15.9519E+06     2.54438E+06
             864     21.6024E-03     4.86889E-03     21.0466E-03     54.0266E-03    -26.8997E-03    -27.1292E-03    -27.0889E-03     53.9863E-03    -26.8997E-03     3.56782E-03     58.6352E-03     172.005E+06    -17.9476E+06    -20.7021E+06    -191.313E+06    -19.9984E+06    -191.285E+06    -18.6794E+06     1.66521E+06
             865     21.3994E-03     3.89481E-03     21.0420E-03     53.8596E-03    -26.8657E-03    -26.9950E-03    -26.9720E-03     53.8366E-03    -26.8657E-03     2.68088E-03     57.0425E-03     172.368E+06    -17.4527E+06    -21.5239E+06    -191.814E+06    -20.8321E+06    -191.774E+06    -18.1845E+06     1.99905E+06
             866     21.2413E-03     2.92118E-03     21.0394E-03     53.8123E-03    -26.8263E-03    -26.9861E-03    -26.9735E-03     53.7997E-03    -26.8263E-03     1.94869E-03     55.8130E-03     172.663E+06    -16.2380E+06    -21.6818E+06    -191.557E+06    -21.7274E+06    -191.511E+06    -16.2380E+06     2.48345E+06
             867     21.1269E-03     1.94792E-03     21.0369E-03     53.6604E-03    -26.7216E-03    -26.9385E-03    -26.9330E-03     53.6549E-03    -26.7216E-03     1.30231E-03     54.8796E-03     172.848E+06    -17.6471E+06    -23.9907E+06    -193.572E+06    -24.0574E+06    -193.506E+06    -17.6471E+06     1.52823E+06
             868     21.0583E-03     974.589E-06     21.0357E-03     53.1937E-03    -26.4121E-03    -26.7819E-03    -26.7538E-03     53.1910E-03    -26.4375E-03     813.256E-06     54.4511E-03     168.670E+06    -26.1740E+06    -30.4996E+06    -196.940E+06    -30.5534E+06    -196.886E+06    -26.1740E+06    -420.251E+03
             869     26.2360E-03     16.5538E-03     20.3543E-03     79.5086E-03    -27.4356E-03    -52.0751E-03    -27.5161E-03     54.9497E-03    -27.4356E-03     100.598E-03     247.315E-03     165.526E+06     174.092E+06     125.098E+06    -8.91051E+06    -8.88535E+06     174.067E+06     125.098E+06     825.925E+03
             870     25.5153E-03     15.5758E-03     20.2096E-03     79.5525E-03    -27.1496E-03    -52.4130E-03    -28.3936E-03     55.5330E-03    -27.1496E-03     99.3856E-03     215.725E-03     149.146E+06     153.311E+06     62.0554E+06    -15.8726E+06    -15.8014E+06     153.240E+06     62.0554E+06     1.45353E+06
             871     24.8802E-03     14.6036E-03     20.1434E-03     61.0971E-03    -26.8163E-03    -34.3000E-03    -27.0565E-03     53.8536E-03    -26.8163E-03     49.0824E-03     146.322E-03     138.058E+06     123.819E+06     4.91049E+06    -26.8442E+06    -17.4909E+06     123.738E+06    -4.36211E+06     2.29993E+06
             872     24.2918E-03     13.6295E-03     20.1079E-03     56.2172E-03    -26.6821E-03    -29.5434E-03    -26.8263E-03     53.5001E-03    -26.6821E-03     29.6837E-03     118.446E-03     100.262E+06     70.6567E+06    -16.9515E+06    -37.9526E+06    -16.7967E+06     70.5020E+06    -37.9526E+06     3.01845E+06
             873     23.7363E-03     12.6562E-03     20.0807E-03     55.4868E-03    -26.7544E-03    -28.7636E-03    -27.3432E-03     54.0664E-03    -26.7544E-03     21.3703E-03     101.024E-03     40.5879E+06     9.08060E+06    -23.4171E+06    -36.1378E+06    -15.6529E+06     1.20016E+06    -36.0215E+06     3.71359E+06
             874     23.2152E-03     11.6833E-03     20.0611E-03     54.9987E-03    -26.8244E-03    -28.2288E-03    -27.4638E-03     54.2336E-03    -26.8244E-03     15.7731E-03     89.5341E-03     38.1358E+06    -13.7855E+06    -26.0894E+06    -54.1978E+06    -14.4612E+06    -52.6462E+06    -26.9653E+06     4.05614E+06
             875     22.7275E-03     10.7102E-03     20.0457E-03     54.7008E-03    -26.8662E-03    -27.8709E-03    -27.3755E-03     54.2055E-03    -26.8662E-03     12.6926E-03     81.9363E-03     77.1989E+06    -12.7733E+06    -18.5877E+06    -92.6394E+06    -13.8743E+06    -92.4166E+06    -17.7094E+06     4.11496E+06
             876     22.2725E-03     9.73678E-03     20.0315E-03     54.4302E-03    -26.8681E-03    -27.5615E-03    -27.2564E-03     54.1251E-03    -26.8681E-03     9.84773E-03     75.1388E-03     103.541E+06    -11.8723E+06    -15.0989E+06    -116.987E+06    -14.4424E+06    -116.822E+06    -12.6931E+06     3.93353E+06
             877     21.8554E-03     8.76358E-03     20.0215E-03     54.2861E-03    -26.8520E-03    -27.4111E-03    -27.2257E-03     54.1007E-03    -26.8520E-03     7.75611E-03     69.9453E-03     122.538E+06    -11.1621E+06    -15.7279E+06    -135.904E+06    -15.9095E+06    -135.723E+06    -11.1621E+06     4.48709E+06
             878     21.4748E-03     7.79017E-03     20.0120E-03     54.1431E-03    -26.8337E-03    -27.2987E-03    -27.1664E-03     54.0109E-03    -26.8337E-03     6.49938E-03     66.0114E-03     143.719E+06    -9.66062E+06    -16.3953E+06    -156.606E+06    -16.5971E+06    -156.404E+06    -9.66062E+06     5.26996E+06
             879     21.1337E-03     6.81672E-03     20.0042E-03     53.9536E-03    -26.7856E-03    -27.1669E-03    -27.0792E-03     53.8659E-03    -26.7856E-03     5.30837E-03     62.6734E-03     158.176E+06    -12.0418E+06    -18.0904E+06    -173.137E+06    -16.9280E+06    -173.000E+06    -13.3410E+06     4.53786E+06
             880     20.8334E-03     5.84325E-03     19.9972E-03     53.8490E-03    -26.7197E-03    -27.1334E-03    -27.0744E-03     53.7899E-03    -26.7197E-03     4.32779E-03     60.1360E-03     165.716E+06    -16.1501E+06    -21.1748E+06    -184.315E+06    -18.0474E+06    -184.243E+06    -19.3495E+06     3.12775E+06
             881     20.5769E-03     4.86963E-03     19.9924E-03     53.6766E-03    -26.6638E-03    -27.0159E-03    -26.9832E-03     53.6439E-03    -26.6638E-03     3.18391E-03     58.1627E-03     171.025E+06    -17.2669E+06    -21.4213E+06    -190.322E+06    -18.8357E+06    -190.275E+06    -19.8990E+06     2.52475E+06
             882     20.3644E-03     3.89599E-03     19.9882E-03     53.4182E-03    -26.6206E-03    -26.7998E-03    -26.7835E-03     53.4019E-03    -26.6206E-03     2.22974E-03     56.4721E-03     173.091E+06    -17.1218E+06    -20.0909E+06    -191.673E+06    -19.3885E+06    -191.643E+06    -17.8536E+06     2.12480E+06
             883     20.1973E-03     2.92207E-03     19.9849E-03     53.2565E-03    -26.5411E-03    -26.7165E-03    -26.6663E-03     53.2488E-03    -26.5836E-03     1.53381E-03     55.1575E-03     172.426E+06    -16.6118E+06    -20.4252E+06    -190.906E+06    -20.4458E+06    -190.885E+06    -16.6118E+06     1.79354E+06
             884     20.0779E-03     1.94819E-03     19.9832E-03     53.1143E-03    -26.4451E-03    -26.6681E-03    -26.5621E-03     53.1101E-03    -26.5468E-03     1.13609E-03     54.3044E-03     173.630E+06    -16.9633E+06    -21.8025E+06    -192.941E+06    -21.8451E+06    -192.899E+06    -16.9633E+06     2.15745E+06
             885     20.0056E-03     973.802E-06     19.9819E-03     52.9920E-03    -26.4341E-03    -26.5571E-03    -26.4672E-03     52.9893E-03    -26.5214E-03     810.181E-06     54.1350E-03     171.507E+06    -18.4071E+06    -22.5184E+06    -191.909E+06    -21.4842E+06    -191.869E+06    -19.4818E+06     255.929E+03
             886     25.4226E-03     16.5490E-03     19.2987E-03     80.2105E-03    -27.4580E-03    -52.7525E-03    -27.8724E-03     55.3304E-03    -27.4580E-03     101.804E-03     248.017E-03     164.470E+06     174.295E+06     127.154E+06    -7.20395E+06    -7.17475E+06     174.266E+06     127.154E+06     2.08811E+06
             887     24.6887E-03     15.5786E-03     19.1530E-03     79.6597E-03    -27.1470E-03    -52.5214E-03    -28.5601E-03     55.6984E-03    -27.1470E-03     99.2234E-03     215.379E-03     147.953E+06     153.268E+06     61.6784E+06    -13.6095E+06    -13.5665E+06     153.225E+06     61.6784E+06     1.64493E+06
             888     24.0336E-03     14.6031E-03     19.0883E-03     60.8750E-03    -26.7937E-03    -34.0981E-03    -27.2983E-03     54.0752E-03    -26.7937E-03     47.4568E-03     146.099E-03     136.782E+06     122.176E+06     1.51521E+06    -25.8623E+06    -17.7353E+06     122.143E+06    -6.57829E+06     1.24838E+06
             889     23.4251E-03     13.6301E-03     19.0514E-03     56.6356E-03    -26.6357E-03    -30.0072E-03    -27.5049E-03     54.1333E-03    -26.6357E-03     28.6259E-03     118.484E-03     100.301E+06     70.4991E+06    -18.4462E+06    -37.5612E+06    -18.2882E+06     70.3410E+06    -37.5612E+06     2.71271E+06
             890     22.8508E-03     12.6577E-03     19.0247E-03     55.5259E-03    -26.6688E-03    -28.8805E-03    -27.6067E-03     54.2520E-03    -26.6688E-03     20.3002E-03     100.635E-03     41.2788E+06     9.48976E+06    -24.5523E+06    -36.1247E+06    -16.2508E+06     637.394E+03    -35.5738E+06     3.59240E+06
             891     22.3100E-03     11.6844E-03     19.0056E-03     55.0036E-03    -26.7107E-03    -28.3331E-03    -27.6464E-03     54.3169E-03    -26.7107E-03     14.9393E-03     89.1479E-03     37.3707E+06    -13.8660E+06    -26.4786E+06    -53.3267E+06    -14.3755E+06    -52.8173E+06    -26.4786E+06     3.85123E+06
             892     21.8025E-03     10.7115E-03     18.9898E-03     54.7614E-03    -26.7108E-03    -28.0791E-03    -27.6641E-03     54.3464E-03    -26.7108E-03     11.5814E-03     81.5924E-03     76.5492E+06    -12.4623E+06    -18.7372E+06    -91.8890E+06    -13.6162E+06    -91.6134E+06    -17.8589E+06     4.56107E+06
             893     21.3298E-03     9.73866E-03     18.9768E-03     54.3345E-03    -26.6722E-03    -27.6700E-03    -27.4283E-03     54.0928E-03    -26.6722E-03     8.75328E-03     74.6404E-03     103.248E+06    -12.1322E+06    -15.4490E+06    -116.987E+06    -14.4266E+06    -116.717E+06    -13.4245E+06     5.24264E+06
             894     20.8939E-03     8.76520E-03     18.9664E-03     53.9989E-03    -26.6162E-03    -27.3769E-03    -27.2339E-03     53.8559E-03    -26.6162E-03     6.75215E-03     69.2850E-03     120.746E+06    -13.5166E+06    -15.7406E+06    -135.352E+06    -15.7153E+06    -135.129E+06    -13.7655E+06     5.03349E+06
             895     20.4965E-03     7.79213E-03     18.9576E-03     53.8064E-03    -26.5588E-03    -27.2446E-03    -27.1452E-03     53.7071E-03    -26.5588E-03     5.62646E-03     65.3329E-03     140.458E+06    -13.2981E+06    -16.2530E+06    -155.207E+06    -15.2431E+06    -155.077E+06    -14.4383E+06     4.15600E+06
             896     20.1393E-03     6.81862E-03     18.9499E-03     53.5797E-03    -26.5054E-03    -27.0706E-03    -27.0056E-03     53.5147E-03    -26.5054E-03     4.49658E-03     62.0313E-03     158.094E+06    -11.4554E+06    -15.7833E+06    -171.668E+06    -13.7201E+06    -171.541E+06    -13.6458E+06     4.33010E+06
             897     19.8245E-03     5.84468E-03     18.9433E-03     53.2962E-03    -26.4435E-03    -26.8534E-03    -26.8150E-03     53.2577E-03    -26.4435E-03     3.41631E-03     59.3979E-03     168.106E+06    -12.8610E+06    -17.9849E+06    -183.465E+06    -14.9402E+06    -183.310E+06    -16.0605E+06     4.98150E+06
             898     19.5544E-03     4.87084E-03     18.9380E-03     53.1338E-03    -26.3710E-03    -26.7653E-03    -26.7456E-03     53.1141E-03    -26.3710E-03     2.39580E-03     57.4872E-03     170.997E+06    -15.6553E+06    -20.0229E+06    -188.786E+06    -17.2988E+06    -188.666E+06    -18.5001E+06     4.30715E+06
             899     19.3316E-03     3.89730E-03     18.9346E-03     52.9147E-03    -26.3014E-03    -26.6151E-03    -26.6060E-03     52.9056E-03    -26.3014E-03     1.65370E-03     55.8277E-03     171.775E+06    -16.1972E+06    -19.7002E+06    -189.687E+06    -18.8058E+06    -189.637E+06    -17.1417E+06     2.76100E+06
             900     19.1559E-03     2.92314E-03     18.9315E-03     52.5339E-03    -26.1893E-03    -26.3451E-03    -26.2738E-03     52.5290E-03    -26.2558E-03     1.15919E-03     54.3328E-03     171.951E+06    -16.0274E+06    -19.4864E+06    -189.668E+06    -19.1743E+06    -189.646E+06    -16.3611E+06     1.71168E+06
             901     19.0298E-03     1.94843E-03     18.9298E-03     52.4226E-03    -26.1407E-03    -26.2811E-03    -26.1537E-03     52.4209E-03    -26.2664E-03     673.673E-06     53.6133E-03     173.409E+06    -15.6764E+06    -19.6970E+06    -191.038E+06    -19.3725E+06    -191.028E+06    -16.0101E+06     437.942E+03
             902     18.9538E-03     974.199E-06     18.9287E-03     52.4960E-03    -26.1675E-03    -26.3279E-03    -26.2654E-03     52.4952E-03    -26.2293E-03     413.811E-06     53.6087E-03     170.622E+06    -19.2194E+06    -22.7875E+06    -191.572E+06    -21.7422E+06    -191.543E+06    -20.2941E+06     154.861E+03
             903     24.6318E-03     16.5525E-03     18.2411E-03     80.1532E-03    -27.4499E-03    -52.7046E-03    -28.0777E-03     55.5263E-03    -27.4499E-03     101.135E-03     247.476E-03     163.902E+06     172.882E+06     126.261E+06    -7.89811E+06    -7.87376E+06     172.858E+06     126.261E+06     1.04505E+06
             904     23.8773E-03     15.5763E-03     18.0972E-03     79.8179E-03    -27.1281E-03    -52.7001E-03    -28.8304E-03     55.9482E-03    -27.1281E-03     99.0753E-03     214.671E-03     147.830E+06     152.838E+06     62.2323E+06    -14.1435E+06    -14.0987E+06     152.794E+06     62.2323E+06     2.55627E+06
             905     23.2044E-03     14.6049E-03     18.0317E-03     61.5561E-03    -26.7351E-03    -34.8394E-03    -28.1861E-03     54.9028E-03    -26.7351E-03     47.1699E-03     145.425E-03     136.387E+06     122.889E+06     3.52926E+06    -25.0812E+06    -16.8478E+06     122.827E+06    -4.64171E+06     2.78516E+06
             906     22.5758E-03     13.6324E-03     17.9951E-03     56.8232E-03    -26.5188E-03    -30.3156E-03    -28.0196E-03     54.5273E-03    -26.5188E-03     27.5347E-03     117.297E-03     98.5468E+06     69.6446E+06    -16.5382E+06    -36.8134E+06    -16.4528E+06     69.5592E+06    -36.8134E+06     2.26165E+06
             907     21.9806E-03     12.6592E-03     17.9692E-03     55.5393E-03    -26.5019E-03    -29.0679E-03    -27.9411E-03     54.4125E-03    -26.5019E-03     19.0608E-03     99.7259E-03     41.2694E+06     9.33419E+06    -23.2552E+06    -36.7439E+06    -14.4787E+06     123.052E+03    -36.3093E+06     2.96308E+06
             908     21.4189E-03     11.6866E-03     17.9497E-03     55.0024E-03    -26.4999E-03    -28.5427E-03    -27.9850E-03     54.4447E-03    -26.4999E-03     13.3976E-03     88.3114E-03     38.6111E+06    -12.8044E+06    -26.4583E+06    -53.9955E+06    -13.4110E+06    -52.4390E+06    -27.4082E+06     4.03966E+06
             909     20.8908E-03     10.7141E-03     17.9341E-03     54.5846E-03    -26.4584E-03    -28.1484E-03    -27.8453E-03     54.2815E-03    -26.4584E-03     9.85371E-03     80.6893E-03     76.9461E+06    -12.5213E+06    -18.9335E+06    -92.3761E+06    -12.7986E+06    -92.0988E+06    -18.9335E+06     4.63526E+06
             910     20.3983E-03     9.74128E-03     17.9220E-03     54.1552E-03    -26.3773E-03    -27.7833E-03    -27.6212E-03     53.9930E-03    -26.3773E-03     7.11916E-03     73.7624E-03     104.789E+06    -11.2406E+06    -13.8595E+06    -117.302E+06    -11.6781E+06    -117.008E+06    -13.7164E+06     5.56906E+06
             911     19.9430E-03     8.76839E-03     17.9119E-03     53.6491E-03    -26.2833E-03    -27.3560E-03    -27.2710E-03     53.5640E-03    -26.2833E-03     5.12317E-03     68.3257E-03     122.173E+06    -10.0066E+06    -11.3057E+06    -132.823E+06    -10.3786E+06    -132.594E+06    -11.1626E+06     5.11158E+06
             912     19.5266E-03     7.79447E-03     17.9035E-03     53.2788E-03    -26.2008E-03    -27.0728E-03    -27.0180E-03     53.2239E-03    -26.2008E-03     4.01904E-03     64.3645E-03     143.214E+06    -9.74476E+06    -12.6329E+06    -154.375E+06    -11.2778E+06    -154.218E+06    -11.2572E+06     4.53529E+06
             913     19.1516E-03     6.82096E-03     17.8958E-03     53.0001E-03    -26.1269E-03    -26.8739E-03    -26.8416E-03     52.9678E-03    -26.1269E-03     2.96739E-03     61.1150E-03     160.283E+06    -9.68606E+06    -14.8242E+06    -172.473E+06    -14.1761E+06    -172.230E+06    -10.5774E+06     5.90102E+06
             914     18.8215E-03     5.84744E-03     17.8902E-03     52.6196E-03    -26.0337E-03    -26.5886E-03    -26.5739E-03     52.6049E-03    -26.0337E-03     2.01881E-03     58.4521E-03     168.152E+06    -11.7684E+06    -15.9628E+06    -181.970E+06    -16.1957E+06    -181.737E+06    -11.7684E+06     5.99543E+06
             915     18.5370E-03     4.87316E-03     17.8850E-03     52.2051E-03    -25.9263E-03    -26.2806E-03    -26.2736E-03     52.1981E-03    -25.9263E-03     1.27048E-03     56.3512E-03     169.847E+06    -14.3965E+06    -18.1613E+06    -186.089E+06    -15.8695E+06    -185.940E+06    -16.8379E+06     4.95838E+06
             916     18.3012E-03     3.89857E-03     17.8812E-03     51.9706E-03    -25.8614E-03    -26.1106E-03    -26.1078E-03     51.9678E-03    -25.8614E-03     665.745E-06     54.7717E-03     171.293E+06    -13.7288E+06    -18.0353E+06    -187.123E+06    -15.6843E+06    -187.033E+06    -16.1702E+06     3.75736E+06
             917     18.1167E-03     2.92421E-03     17.8791E-03     51.7868E-03    -25.7846E-03    -26.0025E-03    -25.9770E-03     51.7852E-03    -25.8085E-03     296.384E-06     53.5296E-03     171.718E+06    -13.7161E+06    -18.1991E+06    -187.604E+06    -17.8971E+06    -187.572E+06    -14.0498E+06     2.02778E+06
             918     17.9832E-03     1.94967E-03     17.8772E-03     51.5500E-03    -25.7109E-03    -25.8381E-03    -25.8134E-03     51.5493E-03    -25.7349E-03     214.833E-06     52.6734E-03     170.160E+06    -15.4374E+06    -21.1195E+06    -188.342E+06    -20.8099E+06    -188.318E+06    -15.7711E+06     1.20698E+06
             919     17.9022E-03     975.062E-06     17.8757E-03     51.3023E-03    -25.5829E-03    -25.7193E-03    -25.6941E-03     51.3019E-03    -25.6077E-03     242.715E-06     52.4120E-03     167.129E+06    -23.2439E+06    -27.7564E+06    -192.564E+06    -27.7935E+06    -192.527E+06    -23.2439E+06     1.74104E+06
             920     23.8614E-03     16.5518E-03     17.1874E-03     80.2413E-03    -27.3919E-03    -52.8501E-03    -28.7636E-03     56.1548E-03    -27.3919E-03     99.8614E-03     245.758E-03     163.908E+06     171.822E+06     126.273E+06    -8.65663E+06    -8.63170E+06     171.797E+06     126.273E+06     1.09528E+06
             921     23.0883E-03     15.5783E-03     17.0407E-03     79.8488E-03    -27.0385E-03    -52.8218E-03    -29.2358E-03     56.2628E-03    -27.0385E-03     98.3909E-03     213.978E-03     147.889E+06     152.637E+06     63.7538E+06    -14.8532E+06    -14.8254E+06     152.609E+06     63.7538E+06     1.65358E+06
             922     22.3918E-03     14.6055E-03     16.9727E-03     61.4269E-03    -26.6030E-03    -34.8430E-03    -28.6570E-03     55.2408E-03    -26.6030E-03     45.3665E-03     144.777E-03     136.583E+06     123.380E+06     6.18012E+06    -25.9557E+06    -16.1394E+06     123.338E+06    -3.59481E+06     1.52664E+06
             923     21.7445E-03     13.6343E-03     16.9389E-03     56.9963E-03    -26.3266E-03    -30.6777E-03    -28.6721E-03     54.9907E-03    -26.3266E-03     25.7934E-03     116.366E-03     98.0012E+06     69.1747E+06    -15.3567E+06    -37.3655E+06    -15.1294E+06     68.9473E+06    -37.3655E+06     2.70646E+06
             924     21.1275E-03     12.6624E-03     16.9126E-03     55.8009E-03    -26.2405E-03    -29.5897E-03    -28.6648E-03     54.8760E-03    -26.2405E-03     17.2060E-03     98.7902E-03     40.8238E+06     8.41139E+06    -23.4536E+06    -37.3347E+06    -14.5332E+06    -509.022E+03    -37.3347E+06     3.52047E+06
             925     20.5443E-03     11.6908E-03     16.8936E-03     54.9012E-03    -26.1679E-03    -28.7771E-03    -28.3835E-03     54.5076E-03    -26.1679E-03     11.2364E-03     87.1175E-03     39.3040E+06    -12.3277E+06    -26.6168E+06    -54.5817E+06    -12.9476E+06    -52.3145E+06    -28.2641E+06     4.20440E+06
             926     19.9945E-03     10.7180E-03     16.8791E-03     54.3261E-03    -26.0727E-03    -28.2817E-03    -28.0918E-03     54.1362E-03    -26.0727E-03     7.64071E-03     79.4574E-03     76.9924E+06    -12.3145E+06    -19.3748E+06    -92.4631E+06    -12.6651E+06    -92.1125E+06    -19.3748E+06     5.14195E+06
             927     19.4796E-03     9.74534E-03     16.8666E-03     53.7176E-03    -25.9260E-03    -27.7916E-03    -27.7117E-03     53.6376E-03    -25.9260E-03     4.64168E-03     72.3800E-03     102.160E+06    -12.4039E+06    -15.5694E+06    -116.104E+06    -12.6372E+06    -115.871E+06    -15.5694E+06     4.63007E+06
             928     19.0038E-03     8.77222E-03     16.8580E-03     53.1250E-03    -25.7801E-03    -27.3145E-03    -27.2838E-03     53.0942E-03    -25.7801E-03     2.77116E-03     67.0712E-03     120.511E+06    -10.2538E+06    -13.4588E+06    -132.327E+06    -12.0532E+06    -132.109E+06    -11.8772E+06     4.79413E+06
             929     18.5670E-03     7.79923E-03     16.8495E-03     52.5735E-03    -25.6543E-03    -26.9015E-03    -26.8869E-03     52.5589E-03    -25.6543E-03     1.69519E-03     63.0670E-03     144.010E+06    -9.79245E+06    -13.4294E+06    -155.573E+06    -13.4513E+06    -155.178E+06    -10.1647E+06     7.21758E+06
             930     18.1734E-03     6.82513E-03     16.8431E-03     51.9763E-03    -25.5165E-03    -26.4588E-03    -26.4525E-03     51.9700E-03    -25.5165E-03     821.383E-06     59.5399E-03     157.711E+06    -12.0327E+06    -16.1064E+06    -171.730E+06    -15.8447E+06    -171.321E+06    -12.7038E+06     7.76583E+06
             931     17.8246E-03     5.85068E-03     16.8371E-03     51.5163E-03    -25.3881E-03    -26.1307E-03    -26.1260E-03     51.5116E-03    -25.3881E-03     184.176E-06     56.9180E-03     163.962E+06    -12.6119E+06    -16.4481E+06    -178.450E+06    -15.9974E+06    -178.230E+06    -13.2831E+06     5.76253E+06
             932     17.5251E-03     4.87639E-03     16.8330E-03     51.0305E-03    -25.2672E-03    -25.7642E-03    -25.7597E-03     51.0259E-03    -25.2672E-03    -441.569E-06     54.8669E-03     168.218E+06    -13.5232E+06    -17.0554E+06    -183.474E+06    -15.6837E+06    -183.349E+06    -15.0201E+06     4.49405E+06
             933     17.2761E-03     3.90125E-03     16.8298E-03     50.5961E-03    -25.1652E-03    -25.4319E-03    -25.4280E-03     50.5922E-03    -25.1652E-03    -740.680E-06     53.2623E-03     168.762E+06    -15.0749E+06    -19.4697E+06    -185.970E+06    -16.0125E+06    -185.840E+06    -18.6624E+06     4.53158E+06
             934     17.0796E-03     2.92613E-03     16.8271E-03     50.4403E-03    -25.1055E-03    -25.3346E-03    -25.3316E-03     50.4373E-03    -25.1055E-03    -797.037E-06     52.1021E-03     169.032E+06    -13.6901E+06    -19.5374E+06    -185.545E+06    -17.5640E+06    -185.428E+06    -15.7808E+06     4.20123E+06
             935     16.9387E-03     1.95118E-03     16.8260E-03     50.2114E-03    -25.0106E-03    -25.1990E-03    -25.1971E-03     50.2095E-03    -25.0106E-03    -481.514E-06     51.1935E-03     168.275E+06    -14.9250E+06    -22.0690E+06    -186.637E+06    -22.1618E+06    -186.545E+06    -14.9250E+06     3.76938E+06
             936     16.8529E-03     975.508E-06     16.8247E-03     49.7889E-03    -24.8266E-03    -24.9610E-03    -24.9356E-03     49.7883E-03    -24.8514E-03    -193.138E-06     50.7943E-03     164.799E+06    -19.6091E+06    -26.8453E+06    -187.887E+06    -24.6136E+06    -187.812E+06    -21.9154E+06     1.24903E+06
             937     23.1150E-03     16.5545E-03     16.1323E-03     81.0237E-03    -27.3309E-03    -53.6939E-03    -30.4514E-03     57.7812E-03    -27.3309E-03     98.9759E-03     244.260E-03     164.160E+06     171.801E+06     127.949E+06    -8.61080E+06    -8.60137E+06     171.792E+06     127.949E+06     689.161E+03
             938     22.3214E-03     15.5821E-03     15.9825E-03     80.3834E-03    -26.8774E-03    -53.5159E-03    -30.3087E-03     57.1762E-03    -26.8774E-03     98.6090E-03     213.358E-03     147.853E+06     153.797E+06     64.4599E+06    -12.6065E+06    -12.6012E+06     153.791E+06     64.4599E+06     551.743E+03
             939     21.6059E-03     14.6105E-03     15.9169E-03     61.6333E-03    -26.3631E-03    -35.2870E-03    -29.1943E-03     55.5406E-03    -26.3631E-03     44.8777E-03     143.991E-03     135.988E+06     121.324E+06     3.03901E+06    -26.9240E+06    -16.1562E+06     121.273E+06    -7.67799E+06     1.36006E+06
             940     20.9331E-03     13.6377E-03     15.8810E-03     57.4113E-03    -26.0252E-03    -31.3909E-03    -29.6901E-03     55.7105E-03    -26.0252E-03     23.6981E-03     115.572E-03     98.6538E+06     68.2137E+06    -16.9623E+06    -39.3118E+06    -16.6884E+06     67.9397E+06    -39.3118E+06     3.36918E+06
             941     20.2945E-03     12.6677E-03     15.8555E-03     55.8903E-03    -25.8608E-03    -30.0519E-03    -29.4033E-03     55.2416E-03    -25.8608E-03     14.3198E-03     97.5601E-03     40.7300E+06     9.38738E+06    -23.1195E+06    -36.1046E+06    -14.8923E+06     504.908E+03    -35.4492E+06     3.88413E+06
             942     19.6885E-03     11.6956E-03     15.8383E-03     54.8365E-03    -25.7017E-03    -29.1745E-03    -28.9352E-03     54.5973E-03    -25.7017E-03     8.60815E-03     85.8555E-03     38.9480E+06    -13.1684E+06    -26.1218E+06    -54.7154E+06    -13.7846E+06    -53.4018E+06    -26.8191E+06     4.21547E+06
             943     19.1150E-03     10.7241E-03     15.8233E-03     54.1125E-03    -25.5145E-03    -28.6340E-03    -28.5472E-03     54.0257E-03    -25.5145E-03     4.60711E-03     78.0798E-03     77.3957E+06    -11.9453E+06    -18.0013E+06    -92.0728E+06    -12.2947E+06    -91.7234E+06    -18.0013E+06     5.12608E+06
             944     18.5783E-03     9.75191E-03     15.8131E-03     53.1082E-03    -25.2760E-03    -27.8327E-03    -27.8148E-03     53.0903E-03    -25.2760E-03     1.37548E-03     70.6871E-03     100.683E+06    -11.3469E+06    -14.1634E+06    -113.400E+06    -11.5661E+06    -113.180E+06    -14.1634E+06     4.44648E+06
             945     18.0785E-03     8.77870E-03     15.8040E-03     52.2693E-03    -25.0603E-03    -27.1740E-03    -27.1650E-03     52.2603E-03    -25.0603E-03    -231.534E-06     65.3387E-03     122.888E+06    -10.8873E+06    -13.9343E+06    -135.258E+06    -12.9338E+06    -134.961E+06    -12.1843E+06     5.72387E+06
             946     17.6198E-03     7.80495E-03     15.7969E-03     51.5386E-03    -24.8530E-03    -26.6631E-03    -26.6478E-03     51.5232E-03    -24.8530E-03    -1.22863E-03     61.2568E-03     144.134E+06    -11.3120E+06    -14.2932E+06    -156.899E+06    -13.8806E+06    -156.387E+06    -12.2357E+06     8.50915E+06
             947     17.2052E-03     6.83095E-03     15.7911E-03     50.6878E-03    -24.6407E-03    -26.0389E-03    -26.0191E-03     50.6681E-03    -24.6407E-03    -1.86689E-03     57.6098E-03     154.043E+06    -11.7595E+06    -14.5098E+06    -167.157E+06    -13.3052E+06    -166.766E+06    -13.3544E+06     7.45869E+06
             948     16.8371E-03     5.85616E-03     15.7858E-03     49.9275E-03    -24.4800E-03    -25.4502E-03    -25.4264E-03     49.9038E-03    -24.4800E-03    -2.27833E-03     54.8144E-03     163.722E+06    -10.8853E+06    -13.3504E+06    -175.821E+06    -12.8928E+06    -175.608E+06    -11.5565E+06     5.89264E+06
             949     16.5196E-03     4.88071E-03     15.7821E-03     49.3713E-03    -24.3325E-03    -25.0410E-03    -25.0146E-03     49.3448E-03    -24.3325E-03    -2.56924E-03     52.7939E-03     169.183E+06    -12.1082E+06    -13.8333E+06    -182.143E+06    -14.0307E+06    -181.946E+06    -12.1082E+06     5.60147E+06
             950     16.2558E-03     3.90539E-03     15.7797E-03     48.8245E-03    -24.1836E-03    -24.6426E-03    -24.6199E-03     48.8018E-03    -24.1836E-03    -2.39910E-03     51.1521E-03     167.763E+06    -14.6454E+06    -17.9636E+06    -184.023E+06    -16.0610E+06    -183.835E+06    -16.7360E+06     5.46492E+06
             951     16.0469E-03     2.92906E-03     15.7774E-03     48.3766E-03    -24.0907E-03    -24.2862E-03    -24.2708E-03     48.3612E-03    -24.0907E-03    -1.96915E-03     49.8477E-03     167.151E+06    -14.5897E+06    -19.1050E+06    -183.939E+06    -16.4556E+06    -183.776E+06    -17.4020E+06     5.17716E+06
             952     15.8962E-03     1.95267E-03     15.7758E-03     48.2176E-03    -24.0326E-03    -24.1833E-03    -24.1750E-03     48.2092E-03    -24.0326E-03    -1.43274E-03     49.1234E-03     168.265E+06    -12.0076E+06    -17.8057E+06    -183.075E+06    -17.1984E+06    -182.961E+06    -12.7291E+06     4.30119E+06
             953     15.8059E-03     976.869E-06     15.7757E-03     47.8898E-03    -23.8326E-03    -24.0549E-03    -23.9718E-03     47.8869E-03    -23.9129E-03    -746.320E-06     48.8111E-03     164.706E+06    -14.8873E+06    -21.8438E+06    -182.938E+06    -19.6641E+06    -182.811E+06    -17.1936E+06     2.45140E+06
             954     22.3853E-03     16.5534E-03     15.0694E-03     81.2215E-03    -27.2468E-03    -53.9743E-03    -31.8971E-03     59.1443E-03    -27.2468E-03     97.3681E-03     242.500E-03     163.668E+06     172.499E+06     128.147E+06    -7.48726E+06    -7.48396E+06     172.496E+06     128.147E+06    -508.868E+03
             955     21.5797E-03     15.5842E-03     14.9271E-03     80.4036E-03    -26.6827E-03    -53.7293E-03    -31.6709E-03     58.3452E-03    -26.6827E-03     96.9670E-03     212.419E-03     147.415E+06     150.683E+06     60.6343E+06    -15.1913E+06    -15.1639E+06     150.655E+06     60.6343E+06     980.255E+03
             956     20.8388E-03     14.6117E-03     14.8577E-03     62.8581E-03    -26.0698E-03    -36.8091E-03    -30.8523E-03     56.9013E-03    -26.0698E-03     44.2446E-03     143.253E-03     135.199E+06     119.865E+06     15.3172E+03    -26.0884E+06    -18.6092E+06     119.786E+06    -7.38461E+06     2.84353E+06
             957     20.1462E-03     13.6448E-03     14.8219E-03     57.7791E-03    -25.6161E-03    -32.1757E-03    -30.8629E-03     56.4664E-03    -25.6161E-03     20.7738E-03     114.087E-03     97.7545E+06     68.4534E+06    -17.3044E+06    -36.9213E+06    -17.1705E+06     68.3195E+06    -36.9213E+06     2.98644E+06
             958     19.4844E-03     12.6739E-03     14.7992E-03     55.9256E-03    -25.3201E-03    -30.6329E-03    -30.2126E-03     55.5053E-03    -25.3201E-03     11.3929E-03     96.0474E-03     40.8186E+06     8.73087E+06    -22.5486E+06    -37.3419E+06    -15.1732E+06     700.044E+03    -36.6865E+06     3.60678E+06
             959     18.8541E-03     11.7037E-03     14.7817E-03     54.9260E-03    -25.0472E-03    -29.9204E-03    -29.8109E-03     54.8166E-03    -25.0472E-03     5.46484E-03     84.5017E-03     39.6134E+06    -13.0424E+06    -25.2791E+06    -55.5596E+06    -13.8013E+06    -52.8798E+06    -27.1999E+06     4.20352E+06
             960     18.2563E-03     10.7325E-03     14.7683E-03     53.6969E-03    -24.7330E-03    -29.0010E-03    -28.9745E-03     53.6704E-03    -24.7330E-03     1.12065E-03     76.2610E-03     76.2558E+06    -11.4988E+06    -19.6164E+06    -91.3630E+06    -11.6767E+06    -91.1851E+06    -19.6164E+06     3.22020E+06
             961     17.6945E-03     9.76035E-03     14.7591E-03     52.4249E-03    -24.3935E-03    -28.0343E-03    -28.0078E-03     52.3984E-03    -24.3935E-03    -2.04664E-03     68.8338E-03     102.066E+06    -9.09967E+06    -14.5098E+06    -113.638E+06    -9.35403E+06    -113.384E+06    -14.5098E+06     4.54648E+06
             962     17.1708E-03     8.78737E-03     14.7519E-03     51.2857E-03    -24.0913E-03    -27.1577E-03    -27.1014E-03     51.2294E-03    -24.0913E-03    -3.68852E-03     63.3669E-03     128.530E+06    -8.14604E+06    -10.7817E+06    -137.967E+06    -9.67529E+06    -137.480E+06    -9.74001E+06     7.83440E+06
             963     16.6878E-03     7.81354E-03     14.7456E-03     50.1328E-03    -23.7838E-03    -26.3305E-03    -26.2479E-03     50.0502E-03    -23.7838E-03    -4.67614E-03     58.9549E-03     145.082E+06    -8.92979E+06    -11.1003E+06    -155.079E+06    -10.6530E+06    -154.603E+06    -9.85353E+06     8.20993E+06
             964     16.2496E-03     6.83884E-03     14.7405E-03     48.9950E-03    -23.4849E-03    -25.5083E-03    -25.4098E-03     48.8964E-03    -23.4849E-03    -5.11507E-03     55.2424E-03     152.386E+06    -9.57205E+06    -12.7901E+06    -163.537E+06    -10.9414E+06    -163.221E+06    -11.7370E+06     6.88369E+06
             965     15.8603E-03     5.86341E-03     14.7367E-03     47.9151E-03    -23.2494E-03    -24.6665E-03    -24.5688E-03     47.8174E-03    -23.2494E-03    -5.07574E-03     52.2562E-03     163.801E+06    -10.1764E+06    -12.3677E+06    -175.051E+06    -11.3403E+06    -174.786E+06    -11.4688E+06     6.57193E+06
             966     15.5231E-03     4.88704E-03     14.7338E-03     47.0767E-03    -23.0505E-03    -24.0280E-03    -23.9368E-03     46.9854E-03    -23.0505E-03    -4.89809E-03     50.0590E-03     169.092E+06    -11.6522E+06    -12.2862E+06    -181.060E+06    -12.1729E+06    -180.780E+06    -12.0457E+06     6.87464E+06
             967     15.2415E-03     3.91010E-03     14.7314E-03     46.4467E-03    -22.8761E-03    -23.5724E-03    -23.4945E-03     46.3688E-03    -22.8761E-03    -4.46787E-03     48.4116E-03     168.658E+06    -11.5473E+06    -12.7373E+06    -180.797E+06    -12.4380E+06    -180.544E+06    -12.0993E+06     6.48829E+06
             968     15.0196E-03     2.93325E-03     14.7304E-03     45.8503E-03    -22.7372E-03    -23.1136E-03    -23.0638E-03     45.8005E-03    -22.7372E-03    -3.52537E-03     47.0399E-03     167.882E+06    -10.7408E+06    -13.9005E+06    -180.168E+06    -13.1301E+06    -180.007E+06    -11.6722E+06     5.10142E+06
             969     14.8579E-03     1.95554E-03     14.7286E-03     45.3995E-03    -22.6002E-03    -22.7991E-03    -22.7205E-03     45.3732E-03    -22.6525E-03    -2.54781E-03     46.2357E-03     167.329E+06    -10.3369E+06    -14.7479E+06    -179.822E+06    -14.1113E+06    -179.737E+06    -11.0585E+06     3.71104E+06
             970     14.7608E-03     977.574E-06     14.7284E-03     45.1950E-03    -22.4656E-03    -22.7275E-03    -22.5000E-03     45.1841E-03    -22.6822E-03    -1.48374E-03     46.1479E-03     164.174E+06    -13.2465E+06    -15.9866E+06    -178.768E+06    -16.0733E+06    -178.681E+06    -13.2465E+06     2.58221E+06
             971     21.6877E-03     16.5581E-03     14.0066E-03     81.2794E-03    -27.0982E-03    -54.1800E-03    -33.6231E-03     60.7225E-03    -27.0982E-03     94.4329E-03     239.386E-03     163.266E+06     171.160E+06     126.826E+06    -8.44319E+06    -8.43897E+06     171.156E+06     126.826E+06    -459.660E+03
             972     20.8657E-03     15.5875E-03     13.8710E-03     80.5959E-03    -26.4151E-03    -54.1913E-03    -33.6759E-03     60.0805E-03    -26.4151E-03     94.1310E-03     210.948E-03     146.792E+06     149.591E+06     62.2644E+06    -16.4098E+06    -16.3753E+06     149.556E+06     62.2644E+06     1.37978E+06
             973     20.1017E-03     14.6212E-03     13.7949E-03     63.4725E-03    -25.6518E-03    -37.8415E-03    -32.5378E-03     58.1688E-03    -25.6518E-03     41.8369E-03     141.841E-03     135.106E+06     120.117E+06     3.43924E+06    -27.0763E+06    -18.2323E+06     120.072E+06    -5.35968E+06     2.41197E+06
             974     19.3864E-03     13.6515E-03     13.7647E-03     57.7845E-03    -25.0561E-03    -32.7536E-03    -31.8256E-03     56.8566E-03    -25.0561E-03     17.4760E-03     112.495E-03     98.3504E+06     68.7948E+06    -16.9960E+06    -37.6432E+06    -16.8974E+06     68.6962E+06    -37.6432E+06     2.31774E+06
             975     18.6994E-03     12.6827E-03     13.7411E-03     56.2226E-03    -24.6382E-03    -31.6335E-03    -31.3798E-03     55.9689E-03    -24.6382E-03     8.47631E-03     94.9229E-03     41.5994E+06     8.98619E+06    -23.4204E+06    -37.7972E+06    -15.3865E+06     344.646E+03    -37.1895E+06     3.22967E+06
             976     18.0440E-03     11.7133E-03     13.7253E-03     54.8005E-03    -24.2277E-03    -30.6207E-03    -30.5806E-03     54.7603E-03    -24.2277E-03     2.21602E-03     83.0394E-03     38.7259E+06    -11.9783E+06    -25.0107E+06    -53.7290E+06    -12.4498E+06    -51.3366E+06    -26.9315E+06     3.04067E+06
             977     17.4210E-03     10.7429E-03     13.7142E-03     53.2665E-03    -23.7825E-03    -29.5168E-03    -29.4801E-03     53.2297E-03    -23.7825E-03    -2.27219E-03     74.6250E-03     75.5404E+06    -10.7058E+06    -19.1869E+06    -89.9863E+06    -11.0894E+06    -89.8473E+06    -18.9423E+06     2.68927E+06
             978     16.8327E-03     9.77110E-03     13.7064E-03     51.7308E-03    -23.3130E-03    -28.4250E-03    -28.3132E-03     51.6190E-03    -23.3130E-03    -5.55753E-03     67.0549E-03     104.626E+06    -10.8439E+06    -16.1610E+06    -117.897E+06    -11.8881E+06    -117.594E+06    -15.4195E+06     5.05323E+06
             979     16.2824E-03     8.79837E-03     13.7005E-03     50.1599E-03    -22.8757E-03    -27.2537E-03    -27.0690E-03     49.9752E-03    -22.8757E-03    -7.30727E-03     61.3086E-03     128.029E+06    -7.89862E+06    -11.5037E+06    -137.689E+06    -10.9385E+06    -137.241E+06    -8.91197E+06     7.37526E+06
             980     15.7733E-03     7.82429E-03     13.6959E-03     48.4738E-03    -22.4405E-03    -26.0156E-03    -25.7851E-03     48.2433E-03    -22.4405E-03    -8.06516E-03     56.4392E-03     143.966E+06    -6.07953E+06    -10.1514E+06    -152.025E+06    -8.73309E+06    -151.672E+06    -7.85152E+06     6.88031E+06
             981     15.3098E-03     6.84897E-03     13.6924E-03     46.8853E-03    -22.0372E-03    -24.8460E-03    -24.5899E-03     46.6292E-03    -22.0372E-03    -8.37184E-03     52.4724E-03     154.388E+06    -6.94254E+06    -10.9230E+06    -163.269E+06    -7.45399E+06    -162.963E+06    -10.7179E+06     6.87629E+06
             982     14.8965E-03     5.87236E-03     13.6901E-03     45.5333E-03    -21.7081E-03    -23.8209E-03    -23.5762E-03     45.2887E-03    -21.7081E-03    -8.04164E-03     49.3570E-03     164.054E+06    -7.65738E+06    -10.8353E+06    -173.269E+06    -8.02112E+06    -172.906E+06    -10.8353E+06     7.72003E+06
             983     14.5366E-03     4.89509E-03     13.6876E-03     44.3528E-03    -21.4414E-03    -22.9101E-03    -22.6952E-03     44.1380E-03    -21.4414E-03    -7.43488E-03     46.9099E-03     170.430E+06    -7.04717E+06    -9.98508E+06    -178.917E+06    -8.79819E+06    -178.587E+06    -8.56392E+06     7.43796E+06
             984     14.2361E-03     3.91705E-03     13.6866E-03     43.3997E-03    -21.2136E-03    -22.1857E-03    -22.0158E-03     43.2298E-03    -21.2136E-03    -6.54311E-03     45.0845E-03     171.000E+06    -6.30923E+06    -9.07074E+06    -178.665E+06    -8.77947E+06    -178.405E+06    -6.86122E+06     6.64655E+06
             985     13.9973E-03     2.93816E-03     13.6855E-03     42.6455E-03    -21.0223E-03    -21.6219E-03    -21.5117E-03     42.5353E-03    -21.0223E-03    -5.18012E-03     43.6383E-03     168.498E+06    -5.06241E+06    -9.67232E+06    -175.802E+06    -9.65077E+06    -175.613E+06    -5.27223E+06     5.52267E+06
             986     13.8247E-03     1.95939E-03     13.6852E-03     41.9507E-03    -20.8307E-03    -21.1205E-03    -21.0119E-03     41.8943E-03    -20.8830E-03    -3.60918E-03     42.6366E-03     166.434E+06    -5.31931E+06    -11.5634E+06    -174.781E+06    -11.6516E+06    -174.693E+06    -5.31931E+06     3.56377E+06
             987     13.7199E-03     979.618E-06     13.6849E-03     41.5819E-03    -20.6433E-03    -20.9380E-03    -20.7841E-03     41.5643E-03    -20.7796E-03    -1.90695E-03     42.5318E-03     163.514E+06    -12.2327E+06    -15.1091E+06    -177.148E+06    -15.1471E+06    -177.110E+06    -12.2327E+06     1.53080E+06
             988     21.0227E-03     16.5600E-03     12.9508E-03     82.7648E-03    -26.9147E-03    -55.8501E-03    -36.7052E-03     63.6199E-03    -26.9147E-03     92.1892E-03     235.459E-03     163.259E+06     170.024E+06     127.499E+06    -9.19404E+06    -9.19090E+06     170.021E+06     127.499E+06     17.1613E+03
             989     20.1779E-03     15.5947E-03     12.8043E-03     81.4549E-03    -26.0560E-03    -55.4110E-03    -35.9488E-03     61.9927E-03    -26.0560E-03     92.8059E-03     208.412E-03     146.214E+06     150.173E+06     64.6751E+06    -14.8554E+06    -14.8445E+06     150.162E+06     64.6751E+06     913.406E+03
             990     19.3966E-03     14.6280E-03     12.7377E-03     63.6888E-03    -25.1429E-03    -38.5653E-03    -33.7164E-03     58.8399E-03    -25.1429E-03     40.4606E-03     140.298E-03     134.513E+06     120.189E+06     4.43600E+06    -26.7343E+06    -16.8905E+06     120.152E+06    -5.37157E+06     2.05757E+06
             991     18.6547E-03     13.6605E-03     12.7039E-03     58.3413E-03    -24.4207E-03    -33.9511E-03    -33.1346E-03     57.5248E-03    -24.4207E-03     16.1054E-03     111.590E-03     98.6292E+06     69.0169E+06    -17.8013E+06    -37.7508E+06    -17.7272E+06     68.9428E+06    -37.7508E+06     2.30100E+06
             992     17.9445E-03     12.6936E-03     12.6837E-03     56.4783E-03    -23.8743E-03    -32.6694E-03    -32.5287E-03     56.3376E-03    -23.8743E-03     6.12196E-03     94.1738E-03     40.9540E+06     10.5944E+06    -23.6604E+06    -34.5030E+06    -15.2032E+06     1.52954E+06    -33.8953E+06     1.77571E+06
             993     17.2618E-03     11.7245E-03     12.6691E-03     54.6529E-03    -23.3185E-03    -31.4032E-03    -31.3783E-03     54.6281E-03    -23.3185E-03    -262.591E-06     82.0313E-03     36.8589E+06    -12.6625E+06    -24.5175E+06    -51.3362E+06    -12.8374E+06    -51.0685E+06    -24.6104E+06     1.89401E+06
             994     16.6114E-03     10.7545E-03     12.6601E-03     52.9773E-03    -22.7342E-03    -30.2889E-03    -30.1848E-03     52.8733E-03    -22.7342E-03    -5.25019E-03     73.4480E-03     77.6163E+06    -11.5603E+06    -15.4869E+06    -90.9677E+06    -12.3662E+06    -90.7566E+06    -14.8923E+06     3.90364E+06
             995     15.9952E-03     9.78373E-03     12.6541E-03     51.0368E-03    -22.0935E-03    -28.9489E-03    -28.7063E-03     50.7942E-03    -22.0935E-03    -8.58949E-03     65.5086E-03     107.080E+06    -10.4322E+06    -13.5883E+06    -119.028E+06    -11.7749E+06    -118.776E+06    -12.4966E+06     4.86445E+06
             996     15.4169E-03     8.81096E-03     12.6509E-03     48.9154E-03    -21.4760E-03    -27.4074E-03    -27.0428E-03     48.5508E-03    -21.4760E-03    -10.3836E-03     59.2645E-03     126.702E+06    -7.10679E+06    -11.3413E+06    -135.848E+06    -9.43617E+06    -135.689E+06    -9.17126E+06     3.94053E+06
             997     14.8791E-03     7.83666E-03     12.6480E-03     46.7249E-03    -20.9112E-03    -25.7941E-03    -25.3509E-03     46.2817E-03    -20.9112E-03    -11.1788E-03     53.9842E-03     145.117E+06    -4.28864E+06    -8.12882E+06    -151.275E+06    -6.51080E+06    -151.121E+06    -6.06063E+06     4.49217E+06
             998     14.3880E-03     6.86054E-03     12.6470E-03     44.6985E-03    -20.3917E-03    -24.3028E-03    -23.8301E-03     44.2258E-03    -20.3917E-03    -11.2735E-03     49.7089E-03     158.574E+06    -3.64557E+06    -7.24704E+06    -163.978E+06    -5.01665E+06    -163.674E+06    -6.17972E+06     6.84207E+06
             999     13.9474E-03     5.88325E-03     12.6459E-03     42.8580E-03    -19.9543E-03    -22.8991E-03    -22.4430E-03     42.4020E-03    -19.9543E-03    -10.7961E-03     46.2476E-03     167.962E+06    -1.76238E+06    -6.50672E+06    -172.034E+06    -5.04782E+06    -171.608E+06    -3.64788E+06     8.43552E+06
            1000     13.5632E-03     4.90459E-03     12.6454E-03     41.1827E-03    -19.5841E-03    -21.5955E-03    -21.2138E-03     40.8010E-03    -19.5841E-03    -9.65278E-03     43.4086E-03     171.622E+06    -1.59919E+06    -6.67265E+06    -175.687E+06    -5.91110E+06    -175.325E+06    -2.72252E+06     7.78558E+06
            1001     13.2401E-03     3.92475E-03     12.6450E-03     39.9015E-03    -19.2773E-03    -20.6235E-03    -20.3433E-03     39.6213E-03    -19.2773E-03    -8.12150E-03     41.3249E-03     171.706E+06    -2.36921E+06    -6.53700E+06    -176.112E+06    -6.76561E+06    -175.884E+06    -2.36921E+06     6.13970E+06
            1002     12.9833E-03     2.94450E-03     12.6450E-03     38.8393E-03    -19.0320E-03    -19.8072E-03    -19.6151E-03     38.6472E-03    -19.0320E-03    -6.60267E-03     39.7408E-03     169.073E+06    -220.477E+03    -6.13687E+06    -172.168E+06    -6.27623E+06    -172.028E+06    -220.477E+03     4.64771E+06
            1003     12.7969E-03     1.96300E-03     12.6454E-03     37.9978E-03    -18.8519E-03    -19.1458E-03    -19.0457E-03     37.8978E-03    -18.8519E-03    -4.52045E-03     38.6813E-03     166.030E+06    -907.103E+03    -7.98518E+06    -170.363E+06    -8.05572E+06    -170.292E+06    -907.103E+03     3.12043E+06
            1004     12.6832E-03     981.862E-06     12.6452E-03     37.4672E-03    -18.6268E-03    -18.8404E-03    -18.7864E-03     37.4438E-03    -18.6575E-03    -1.91428E-03     38.3765E-03     162.006E+06    -9.67924E+06    -14.3193E+06    -173.941E+06    -13.6182E+06    -173.809E+06    -10.5116E+06     3.86884E+06
            1005     20.3833E-03     16.5636E-03     11.8796E-03     84.1530E-03    -26.7268E-03    -57.4361E-03    -39.7077E-03     66.4246E-03    -26.7268E-03     89.7144E-03     230.605E-03     162.432E+06     170.513E+06     128.563E+06    -7.59969E+06    -7.58242E+06     170.496E+06     128.563E+06     693.894E+03
            1006     19.5279E-03     15.6018E-03     11.7441E-03     81.9275E-03    -25.6988E-03    -56.2417E-03    -37.8997E-03     63.5854E-03    -25.6988E-03     91.0706E-03     206.039E-03     145.325E+06     149.190E+06     64.3251E+06    -15.0258E+06    -15.0032E+06     149.167E+06     64.3251E+06     1.46620E+06
            1007     18.7213E-03     14.6347E-03     11.6754E-03     64.4255E-03    -24.6622E-03    -39.7848E-03    -35.2256E-03     59.8663E-03    -24.6622E-03     39.6156E-03     139.676E-03     133.779E+06     119.724E+06     3.02710E+06    -25.1782E+06    -18.9047E+06     119.698E+06    -3.22018E+06     1.39504E+06
            1008     17.9568E-03     13.6699E-03     11.6439E-03     58.9211E-03    -23.8182E-03    -35.1341E-03    -34.3944E-03     58.1814E-03    -23.8182E-03     15.2470E-03     110.985E-03     96.4654E+06     70.6485E+06    -17.1724E+06    -32.1186E+06    -17.1421E+06     70.6182E+06    -32.1186E+06     1.06472E+06
            1009     17.2193E-03     12.7028E-03     11.6251E-03     56.7020E-03    -23.1285E-03    -33.6382E-03    -33.5371E-03     56.6008E-03    -23.1285E-03     5.08675E-03     93.8468E-03     37.9545E+06     10.6347E+06    -21.3028E+06    -31.1566E+06    -14.5250E+06     2.79507E+06    -30.0946E+06     512.091E+03
            1010     16.5105E-03     11.7356E-03     11.6135E-03     54.9375E-03    -22.4124E-03    -32.6080E-03    -32.5717E-03     54.9011E-03    -22.4124E-03    -1.43369E-03     81.8703E-03     37.0319E+06    -13.1416E+06    -22.5539E+06    -51.8375E+06    -13.2082E+06    -51.6779E+06    -22.6468E+06     1.32669E+06
            1011     15.8311E-03     10.7671E-03     11.6057E-03     52.8131E-03    -21.6519E-03    -31.2221E-03    -31.0440E-03     52.6350E-03    -21.6519E-03    -7.19982E-03     72.6569E-03     80.0218E+06    -10.4832E+06    -14.0772E+06    -92.2041E+06    -11.5810E+06    -92.0593E+06    -13.1241E+06     3.06356E+06
            1012     15.1858E-03     9.79624E-03     11.6036E-03     50.2900E-03    -20.8395E-03    -29.4560E-03    -29.0926E-03     49.9266E-03    -20.8395E-03    -10.6464E-03     64.3644E-03     107.251E+06    -7.57020E+06    -10.7657E+06    -116.355E+06    -8.79562E+06    -116.261E+06    -9.63467E+06     2.17928E+06
            1013     14.5763E-03     8.82402E-03     11.6019E-03     47.7495E-03    -20.0668E-03    -27.6537E-03    -27.1199E-03     47.2157E-03    -20.0668E-03    -12.5360E-03     57.6866E-03     129.218E+06    -3.74548E+06    -8.67205E+06    -135.318E+06    -6.63084E+06    -135.295E+06    -5.80995E+06     1.25831E+06
            1014     14.0089E-03     7.84946E-03     11.6032E-03     45.1042E-03    -19.3632E-03    -25.7278E-03    -25.0752E-03     44.4516E-03    -19.3632E-03    -13.4890E-03     52.0557E-03     150.123E+06    -367.681E+03    -6.25322E+06    -153.305E+06    -6.35353E+06    -153.205E+06    -367.681E+03     3.51825E+06
            1015     13.4864E-03     6.87301E-03     11.6037E-03     42.4778E-03    -18.6968E-03    -23.7816E-03    -23.1053E-03     41.8015E-03    -18.6968E-03    -13.2798E-03     47.1675E-03     161.796E+06     438.272E+03    -6.63637E+06    -164.724E+06    -6.89149E+06    -164.469E+06     438.272E+03     6.23657E+06
            1016     13.0165E-03     5.89481E-03     11.6052E-03     40.0460E-03    -18.1122E-03    -21.9323E-03    -21.2720E-03     39.3857E-03    -18.1122E-03    -12.6830E-03     43.1730E-03     168.911E+06     614.923E+03    -5.80878E+06    -171.369E+06    -6.15244E+06    -171.026E+06     614.923E+03     7.47823E+06
            1017     12.6043E-03     4.91442E-03     11.6067E-03     37.8562E-03    -17.6225E-03    -20.2321E-03    -19.6847E-03     37.3088E-03    -17.6225E-03    -11.1522E-03     39.9389E-03     169.320E+06    -219.317E+03    -4.36931E+06    -171.556E+06    -4.64928E+06    -171.276E+06    -219.317E+03     6.66745E+06
            1018     12.2558E-03     3.93311E-03     11.6075E-03     36.1627E-03    -17.2496E-03    -18.9120E-03    -18.5226E-03     35.7733E-03    -17.2496E-03    -9.16543E-03     37.5053E-03     171.221E+06     979.197E+03    -3.27746E+06    -172.323E+06    -3.41172E+06    -172.189E+06     979.197E+03     4.11548E+06
            1019     11.9775E-03     2.95071E-03     11.6084E-03     34.8863E-03    -16.9605E-03    -17.9249E-03    -17.6628E-03     34.6242E-03    -16.9605E-03    -7.35599E-03     35.8008E-03     170.529E+06     2.77000E+06    -2.35504E+06    -170.258E+06    -2.40126E+06    -170.212E+06     2.77000E+06     2.37099E+06
            1020     11.7756E-03     1.96777E-03     11.6100E-03     33.9175E-03    -16.7479E-03    -17.1689E-03    -17.0354E-03     33.7839E-03    -16.7479E-03    -5.03361E-03     34.6652E-03     168.581E+06     4.43806E+06    -3.58838E+06    -167.972E+06    -3.62921E+06    -167.932E+06     4.43806E+06     2.53878E+06
            1021     11.6516E-03     983.701E-06     11.6100E-03     33.2303E-03    -16.5466E-03    -16.6837E-03    -16.6153E-03     33.1926E-03    -16.5773E-03    -2.38235E-03     34.1235E-03     165.100E+06    -381.854E+03    -8.44362E+06    -169.328E+06    -7.74536E+06    -169.194E+06    -1.21419E+06     4.00342E+06
            1022     19.7837E-03     16.5674E-03     10.8128E-03     85.2907E-03    -26.5775E-03    -58.7298E-03    -42.1422E-03     68.7032E-03    -26.5775E-03     87.5857E-03     225.190E-03     162.158E+06     168.407E+06     127.177E+06    -9.23253E+06    -9.21179E+06     168.386E+06     127.177E+06     1.17682E+06
            1023     18.9075E-03     15.6038E-03     10.6778E-03     82.5369E-03    -25.4196E-03    -57.1328E-03    -39.9505E-03     65.3546E-03    -25.4196E-03     88.8451E-03     203.492E-03     145.649E+06     149.613E+06     67.9726E+06    -15.7558E+06    -15.7313E+06     149.589E+06     67.9726E+06     1.52439E+06
            1024     18.0849E-03     14.6430E-03     10.6135E-03     65.1956E-03    -24.2461E-03    -40.9742E-03    -36.7435E-03     60.9649E-03    -24.2461E-03     38.9141E-03     139.121E-03     133.796E+06     122.199E+06     8.86513E+06    -23.8580E+06    -17.0564E+06     122.187E+06     2.07479E+06    -130.422E+03
            1025     17.2932E-03     13.6773E-03     10.5823E-03     59.2228E-03    -23.2770E-03    -35.9748E-03    -35.2386E-03     58.4866E-03    -23.2770E-03     15.2090E-03     110.451E-03     95.3342E+06     71.4453E+06    -15.6309E+06    -30.0719E+06    -15.6244E+06     71.4388E+06    -30.0719E+06    -605.607E+03
            1026     16.5304E-03     12.7117E-03     10.5672E-03     57.1211E-03    -22.4914E-03    -34.6876E-03    -34.5931E-03     57.0266E-03    -22.4914E-03     5.06637E-03     94.0611E-03     36.0619E+06     11.1353E+06    -17.6717E+06    -28.8608E+06    -13.9040E+06     3.82908E+06    -25.3224E+06    -383.503E+03
            1027     15.7914E-03     11.7452E-03     10.5556E-03     55.3041E-03    -21.6358E-03    -33.7476E-03    -33.6948E-03     55.2513E-03    -21.6358E-03    -1.83700E-03     82.0505E-03     38.6195E+06    -12.1934E+06    -17.6808E+06    -52.4646E+06    -12.3029E+06    -52.4158E+06    -17.6202E+06     148.424E+03
            1028     15.0837E-03     10.7778E-03     10.5527E-03     52.7800E-03    -20.7104E-03    -32.1290E-03    -31.9134E-03     52.5645E-03    -20.7104E-03    -8.11408E-03     72.3004E-03     82.8496E+06    -6.88439E+06    -11.9108E+06    -92.0687E+06    -10.3121E+06    -92.0490E+06    -8.50284E+06     626.169E+03
            1029     14.4069E-03     9.80796E-03     10.5529E-03     49.7422E-03    -19.7438E-03    -30.0006E-03    -29.5693E-03     49.3109E-03    -19.7438E-03    -11.5990E-03     63.7152E-03     108.026E+06    -3.05858E+06    -8.83305E+06    -113.789E+06    -8.84915E+06    -113.773E+06    -3.05858E+06    -186.971E+03
            1030     13.7651E-03     8.83552E-03     10.5552E-03     46.6895E-03    -18.8246E-03    -27.8356E-03    -27.2038E-03     46.0576E-03    -18.8246E-03    -13.5900E-03     56.5505E-03     132.925E+06     460.941E+03    -8.23275E+06    -136.535E+06    -8.24228E+06    -136.526E+06     460.941E+03    -108.914E+03
            1031     13.1641E-03     7.86128E-03     10.5590E-03     43.6036E-03    -17.9736E-03    -25.6167E-03    -24.8539E-03     42.8408E-03    -17.9736E-03    -14.4403E-03     50.5581E-03     155.527E+06     5.83146E+06    -7.83251E+06    -156.046E+06    -7.89402E+06    -155.984E+06     5.83146E+06     2.22369E+06
            1032     12.6089E-03     6.88444E-03     10.5635E-03     40.3754E-03    -17.1702E-03    -23.2030E-03    -22.4183E-03     39.5907E-03    -17.1702E-03    -14.0315E-03     45.0831E-03     165.505E+06     7.46356E+06    -7.35317E+06    -164.933E+06    -7.48434E+06    -164.802E+06     7.46356E+06     4.32400E+06
            1033     12.1050E-03     5.90491E-03     10.5671E-03     37.4205E-03    -16.4475E-03    -20.9725E-03    -20.2285E-03     36.6765E-03    -16.4475E-03    -13.0955E-03     40.5976E-03     168.822E+06     3.27856E+06    -5.86485E+06    -169.852E+06    -6.01855E+06    -169.698E+06     3.27856E+06     4.45898E+06
            1034     11.6624E-03     4.92406E-03     10.5719E-03     34.8661E-03    -15.8514E-03    -19.0149E-03    -18.4104E-03     34.2616E-03    -15.8514E-03    -11.3257E-03     37.0331E-03     167.731E+06     2.18708E+06    -3.07542E+06    -168.097E+06    -3.17871E+06    -167.993E+06     2.18708E+06     3.15118E+06
            1035     11.2845E-03     3.94082E-03     10.5741E-03     32.7186E-03    -15.4076E-03    -17.3097E-03    -16.8773E-03     32.2862E-03    -15.4076E-03    -9.24077E-03     34.1794E-03     170.337E+06     3.86968E+06    -1.29930E+06    -168.979E+06    -1.32685E+06    -168.951E+06     3.86968E+06     1.49170E+06
            1036     10.9821E-03     2.95639E-03     10.5767E-03     31.2392E-03    -15.0640E-03    -16.1737E-03    -15.8837E-03     30.9492E-03    -15.0640E-03    -7.33717E-03     32.2993E-03     170.468E+06     1.89247E+06    -768.712E+03    -169.888E+06    -796.775E+03    -169.860E+06     1.89247E+06    -149.627E+03
            1037     10.7603E-03     1.97133E-03     10.5782E-03     30.2189E-03    -14.8115E-03    -15.4074E-03    -15.2582E-03     30.0698E-03    -14.8115E-03    -5.06190E-03     31.0409E-03     170.988E+06     6.56715E+06    -351.792E+03    -167.711E+06    -391.619E+03    -167.671E+06     6.56715E+06     114.406E+03
            1038     10.6254E-03     986.352E-06     10.5796E-03     29.3201E-03    -14.5702E-03    -14.7498E-03    -14.7058E-03     29.2760E-03    -14.5702E-03    -2.33826E-03     30.3326E-03     168.467E+06     6.68746E+06    -1.79716E+06    -165.826E+06    -893.652E+03    -165.804E+06     5.76202E+06     1.30805E+06
            1039     19.2178E-03     16.5664E-03     9.74045E-03     86.0828E-03    -26.4998E-03    -59.5930E-03    -44.6986E-03     71.1883E-03    -26.4998E-03     83.5566E-03     219.201E-03     163.277E+06     168.320E+06     129.382E+06    -10.0261E+06    -10.0169E+06     168.311E+06     129.382E+06     1.02710E+06
            1040     18.3318E-03     15.6106E-03     9.61062E-03     82.3334E-03    -25.2071E-03    -57.1437E-03    -41.3714E-03     66.5612E-03    -25.2071E-03     85.8467E-03     199.351E-03     146.755E+06     150.872E+06     71.4408E+06    -15.2073E+06    -15.2018E+06     150.866E+06     71.4408E+06    -62.8794E+03
            1041     17.4846E-03     14.6464E-03     9.54962E-03     65.7093E-03    -23.9331E-03    -41.8068E-03    -37.7508E-03     61.6533E-03    -23.9331E-03     38.2049E-03     137.444E-03     133.656E+06     123.658E+06     9.27778E+06    -21.2755E+06    -17.2721E+06     123.648E+06     5.28393E+06    -1.07053E+06
            1042     16.6702E-03     13.6829E-03     9.52232E-03     59.8516E-03    -22.8721E-03    -37.0063E-03    -36.3235E-03     59.1689E-03    -22.8721E-03     14.7903E-03     109.318E-03     94.6184E+06     71.7686E+06    -17.0292E+06    -27.4267E+06    -17.6919E+06     71.7258E+06    -26.7212E+06    -1.46946E+06
            1043     15.8786E-03     12.7178E-03     9.50713E-03     57.3734E-03    -21.9874E-03    -35.4392E-03    -35.3479E-03     57.2821E-03    -21.9874E-03     5.07745E-03     93.1694E-03     35.0230E+06     10.5775E+06    -17.9198E+06    -27.7525E+06    -16.4793E+06     3.60991E+06    -22.2254E+06    -1.19446E+06
            1044     15.1116E-03     11.7528E-03     9.49902E-03     55.2058E-03    -21.0479E-03    -34.2341E-03    -34.1731E-03     55.1448E-03    -21.0479E-03    -1.98315E-03     81.3215E-03     38.6699E+06    -11.3977E+06    -16.7829E+06    -52.0908E+06    -15.4203E+06    -52.0113E+06    -12.8397E+06    -1.12515E+06
            1045     14.3720E-03     10.7856E-03     9.49876E-03     52.4286E-03    -20.0185E-03    -32.4646E-03    -32.2594E-03     52.2234E-03    -20.0185E-03    -8.04779E-03     71.6703E-03     82.4115E+06    -5.19977E+06    -13.2843E+06    -91.2789E+06    -13.4514E+06    -91.1119E+06    -5.19977E+06    -2.65471E+06
            1046     13.6628E-03     9.81646E-03     9.50314E-03     49.2219E-03    -18.9617E-03    -30.2581E-03    -29.8634E-03     48.8272E-03    -18.9617E-03    -11.0446E-03     63.2897E-03     110.547E+06     2.69805E+06    -10.0307E+06    -113.626E+06    -10.1858E+06    -113.471E+06     2.69805E+06    -3.05412E+06
            1047     12.9868E-03     8.84473E-03     9.50929E-03     45.7498E-03    -17.9472E-03    -27.7656E-03    -27.2014E-03     45.1856E-03    -17.9472E-03    -12.7410E-03     55.9676E-03     138.285E+06     7.91317E+06    -8.40704E+06    -137.768E+06    -8.45391E+06    -137.721E+06     7.91317E+06    -2.03459E+06
            1048     12.3495E-03     7.86983E-03     9.51708E-03     42.2211E-03    -16.9957E-03    -25.2078E-03    -24.5367E-03     41.5500E-03    -16.9957E-03    -13.3324E-03     49.5650E-03     160.686E+06     11.6328E+06    -7.91908E+06    -157.926E+06    -7.96017E+06    -157.885E+06     11.6328E+06    -1.10732E+06
            1049     11.7572E-03     6.89257E-03     9.52495E-03     38.7303E-03    -16.1082E-03    -22.6185E-03    -21.9239E-03     38.0357E-03    -16.1082E-03    -12.9426E-03     43.8971E-03     169.982E+06     13.3175E+06    -6.14517E+06    -165.546E+06    -6.19671E+06    -165.494E+06     13.3175E+06     179.976E+03
            1050     11.2175E-03     5.91265E-03     9.53267E-03     35.4480E-03    -15.3098E-03    -20.1358E-03    -19.5049E-03     34.8170E-03    -15.3098E-03    -11.7369E-03     39.1515E-03     170.993E+06     10.0788E+06    -4.14729E+06    -167.526E+06    -4.18372E+06    -167.490E+06     10.0788E+06     97.8531E+03
            1051     10.7373E-03     4.93011E-03     9.53856E-03     32.6805E-03    -14.6394E-03    -18.0403E-03    -17.5355E-03     32.1757E-03    -14.6394E-03    -10.0342E-03     35.3978E-03     169.903E+06     7.52877E+06    -2.90907E+06    -167.325E+06    -2.92284E+06    -167.311E+06     7.52877E+06    -620.231E+03
            1052     10.3281E-03     3.94644E-03     9.54437E-03     30.3685E-03    -14.1048E-03    -16.2634E-03    -15.8962E-03     30.0013E-03    -14.1048E-03    -8.20148E-03     32.2885E-03     170.274E+06     6.88637E+06    -1.71585E+06    -167.495E+06    -1.74113E+06    -167.470E+06     6.88637E+06    -980.251E+03
            1053     9.99618E-03     2.96097E-03     9.54758E-03     28.5476E-03    -13.6948E-03    -14.8525E-03    -14.6145E-03     28.3096E-03    -13.6948E-03    -6.33114E-03     29.9032E-03     169.459E+06     3.85718E+06    -1.72516E+06    -168.286E+06    -1.76891E+06    -168.243E+06     3.85718E+06    -1.79800E+06
            1054     9.75272E-03     1.97474E-03     9.55070E-03     27.3619E-03    -13.4097E-03    -13.9520E-03    -13.8307E-03     27.2406E-03    -13.4097E-03    -4.31533E-03     28.5019E-03     170.336E+06     2.93426E+06    -1.71584E+06    -169.652E+06    -1.77978E+06    -169.588E+06     2.93426E+06    -2.55650E+06
            1055     9.60322E-03     987.263E-06     9.55234E-03     26.5396E-03    -13.1725E-03    -13.3672E-03    -13.3315E-03     26.5039E-03    -13.1725E-03    -1.96964E-03     27.9333E-03     167.054E+06     2.19626E+06    -2.33535E+06    -167.063E+06    -1.48316E+06    -166.990E+06     1.27082E+06    -2.44756E+06
            1056     18.6987E-03     16.5710E-03     8.66277E-03     86.6270E-03    -26.4797E-03    -60.1523E-03    -46.6935E-03     73.1681E-03    -26.4797E-03     79.3445E-03     212.212E-03     164.136E+06     169.768E+06     131.726E+06    -9.22449E+06    -9.21037E+06     169.754E+06     131.726E+06     1.05507E+06
            1057     17.7963E-03     15.6105E-03     8.54516E-03     81.9152E-03    -25.0915E-03    -56.8439E-03    -42.1849E-03     67.2562E-03    -25.0915E-03     83.0097E-03     194.747E-03     147.755E+06     151.480E+06     73.2641E+06    -15.7312E+06    -15.7292E+06     151.478E+06     73.2641E+06    -257.521E+03
            1058     16.9290E-03     14.6496E-03     8.48414E-03     66.2060E-03    -23.7615E-03    -42.4711E-03    -38.5488E-03     62.2836E-03    -23.7615E-03     37.8380E-03     134.877E-03     133.930E+06     123.074E+06     7.57370E+06    -20.8666E+06    -20.8617E+06     123.069E+06     7.57370E+06    -624.195E+03
            1059     16.0912E-03     13.6877E-03     8.46025E-03     60.3867E-03    -22.6474E-03    -37.7606E-03    -37.0682E-03     59.6943E-03    -22.6474E-03     15.2301E-03     107.959E-03     95.4537E+06     72.9932E+06    -19.3405E+06    -25.0680E+06    -22.6717E+06     72.9346E+06    -21.6782E+06    -1.67579E+06
            1060     15.2731E-03     12.7235E-03     8.44871E-03     57.3119E-03    -21.6998E-03    -35.6644E-03    -35.5383E-03     57.1858E-03    -21.6998E-03     6.17839E-03     92.0507E-03     37.0919E+06     11.1798E+06    -18.8210E+06    -28.7209E+06    -21.5143E+06     3.78634E+06    -18.6342E+06    -2.76786E+06
            1061     14.4740E-03     11.7573E-03     8.44171E-03     54.3951E-03    -20.7439E-03    -33.7261E-03    -33.6738E-03     54.3428E-03    -20.7439E-03    -480.118E-06     80.2514E-03     39.9753E+06    -8.57982E+06    -17.5686E+06    -52.1450E+06    -18.5517E+06    -51.1619E+06    -8.57982E+06    -4.11083E+06
            1062     13.7025E-03     10.7898E-03     8.44626E-03     51.4359E-03    -19.7315E-03    -31.7487E-03    -31.6278E-03     51.3150E-03    -19.7315E-03    -5.85746E-03     70.7957E-03     81.6151E+06    -708.036E+03    -14.7847E+06    -88.3764E+06    -15.5550E+06     -87.606E+06    -708.036E+03    -7.07888E+06
            1063     12.9571E-03     9.81976E-03     8.45326E-03     48.2297E-03    -18.7129E-03    -29.5134E-03    -29.2890E-03     48.0054E-03    -18.7129E-03    -7.98448E-03     62.8498E-03     114.299E+06     6.24906E+06    -12.1889E+06    -116.114E+06    -12.9670E+06    -115.336E+06     6.24906E+06    -8.17047E+06
            1064     12.2446E-03     8.84755E-03     8.46463E-03     44.8707E-03    -17.7319E-03    -27.1231E-03    -26.8148E-03     44.5624E-03    -17.7319E-03    -9.01899E-03     56.0376E-03     143.846E+06     14.0092E+06    -9.41044E+06    -140.078E+06    -9.79384E+06    -139.695E+06     14.0092E+06    -6.14523E+06
            1065     11.5681E-03     7.87274E-03     8.47585E-03     41.3612E-03    -16.7844E-03    -24.5715E-03    -24.2139E-03     41.0036E-03    -16.7844E-03    -9.24885E-03     49.6707E-03     164.999E+06     17.5956E+06    -8.16731E+06    -158.730E+06    -8.36074E+06    -158.537E+06     17.5956E+06    -5.01102E+06
            1066     10.9355E-03     6.89498E-03     8.48791E-03     37.9876E-03    -15.8850E-03    -22.1002E-03    -21.7360E-03     37.6233E-03    -15.8850E-03    -8.85801E-03     44.2029E-03     173.226E+06     17.0769E+06    -7.48613E+06     -167.09E+06    -7.67158E+06    -166.905E+06     17.0769E+06    -4.90156E+06
            1067     10.3544E-03     5.91488E-03     8.49874E-03     34.8672E-03    -15.0585E-03    -19.8057E-03    -19.4798E-03     34.5413E-03    -15.0585E-03    -7.97901E-03     39.5736E-03     172.274E+06     14.4672E+06    -6.20958E+06    -167.178E+06    -6.37976E+06    -167.008E+06     14.4672E+06    -4.60106E+06
            1068     9.83474E-03     4.93267E-03     8.50828E-03     32.0307E-03    -14.3416E-03    -17.6871E-03    -17.4237E-03     31.7672E-03    -14.3416E-03    -6.81926E-03     35.5666E-03     171.662E+06     11.8378E+06    -5.39992E+06    -167.759E+06    -5.56577E+06    -167.593E+06     11.8378E+06    -4.47962E+06
            1069     9.38614E-03     3.94836E-03     8.51528E-03     29.6235E-03    -13.7457E-03    -15.8782E-03    -15.6872E-03     29.4326E-03    -13.7457E-03    -5.52860E-03     32.2105E-03     170.110E+06     8.26640E+06    -5.24374E+06    -168.165E+06    -5.38852E+06    -168.020E+06     8.26640E+06    -4.37461E+06
            1070     9.02208E-03     2.96273E-03     8.52175E-03     27.7254E-03    -13.2747E-03    -14.4506E-03    -14.3374E-03     27.6123E-03    -13.2747E-03    -4.08577E-03     29.6248E-03     168.774E+06     3.44914E+06    -4.49408E+06    -169.123E+06    -4.62015E+06    -168.997E+06     3.44914E+06    -4.01400E+06
            1071     8.75063E-03     1.97529E-03     8.52478E-03     26.4014E-03    -12.9383E-03    -13.4622E-03    -13.4044E-03     26.3436E-03    -12.9383E-03    -2.89626E-03     27.9615E-03     168.815E+06    -206.285E+03    -5.35580E+06    -171.506E+06    -5.47796E+06    -171.383E+06    -206.285E+03    -3.92427E+06
            1072     8.58479E-03     988.130E-06     8.52773E-03     25.5433E-03    -12.6691E-03    -12.8737E-03    -12.8508E-03     25.5204E-03    -12.6691E-03    -1.35985E-03     27.3309E-03     164.924E+06    -3.40191E+06    -8.34620E+06    -170.722E+06    -7.43836E+06    -170.631E+06    -4.40082E+06    -3.61218E+06
            1073     18.2225E-03     16.5667E-03     7.58981E-03     87.3004E-03    -26.6201E-03    -60.6878E-03    -47.9810E-03     74.5936E-03    -26.6201E-03     75.9946E-03     203.341E-03     164.420E+06     169.992E+06     132.624E+06    -9.06909E+06    -9.04530E+06     169.968E+06     132.624E+06     1.56703E+06
            1074     17.3082E-03     15.6114E-03     7.47383E-03     82.4703E-03    -25.1889E-03    -57.3096E-03    -43.0376E-03     68.1982E-03    -25.1889E-03     82.2249E-03     190.706E-03     148.538E+06     152.077E+06      76.822E+06    -16.5643E+06    -16.5474E+06     152.060E+06      76.822E+06     1.17496E+06
            1075     16.4233E-03     14.6509E-03     7.42131E-03     66.6412E-03    -23.8340E-03    -42.8373E-03    -38.8449E-03     62.6487E-03    -23.8340E-03     39.3312E-03     132.239E-03     134.092E+06     123.907E+06     12.4562E+06    -21.7611E+06    -21.7551E+06     123.901E+06     12.4562E+06     563.262E+03
            1076     15.5573E-03     13.6863E-03     7.39695E-03     60.2704E-03    -22.7339E-03    -37.5586E-03    -36.5351E-03     59.2468E-03    -22.7339E-03     18.7863E-03     105.752E-03     96.4650E+06     75.4584E+06    -17.3779E+06    -24.1621E+06    -24.1036E+06     75.3999E+06    -17.3779E+06    -1.16699E+06
            1077     14.7132E-03     12.7231E-03     7.38927E-03     56.7336E-03    -21.8450E-03    -34.9433E-03    -34.6163E-03     56.4065E-03    -21.8450E-03     10.3984E-03     91.0289E-03     41.3155E+06     14.6924E+06    -17.5222E+06    -29.3683E+06    -23.7334E+06     6.18760E+06    -14.6521E+06    -5.02976E+06
            1078     13.8846E-03     11.7562E-03     7.38738E-03     53.1991E-03    -20.9815E-03    -32.2850E-03    -32.1229E-03     53.0370E-03    -20.9815E-03     5.21252E-03     79.4446E-03     42.0979E+06    -6.92528E+06    -17.0868E+06    -53.1563E+06    -21.1277E+06    -49.1154E+06    -6.92528E+06    -9.22230E+06
            1079     13.0775E-03     10.7867E-03     7.39367E-03     49.9999E-03    -20.1512E-03    -29.8780E-03    -29.7973E-03     49.9192E-03    -20.1512E-03     870.945E-06     70.3765E-03     82.7759E+06     2.70000E+06    -15.7917E+06    -87.7440E+06    -17.9968E+06    -85.5389E+06     2.70000E+06    -11.6386E+06
            1080     12.2961E-03     9.81535E-03     7.40630E-03     47.2375E-03    -19.3377E-03    -27.8955E-03    -27.7986E-03     47.1406E-03    -19.3377E-03    -315.521E-06     63.2304E-03     118.156E+06     9.48161E+06    -14.7162E+06    -118.871E+06    -16.3715E+06    -117.215E+06     9.48161E+06    -12.8258E+06
            1081     11.5422E-03     8.84162E-03     7.41937E-03     44.5603E-03    -18.5438E-03    -26.0208E-03    -25.9148E-03     44.4543E-03    -18.5438E-03    -1.02157E-03     57.1255E-03     148.130E+06     16.7741E+06    -13.6862E+06    -144.183E+06    -14.9745E+06    -142.895E+06     16.7741E+06    -12.2383E+06
            1082     10.8242E-03     7.86614E-03     7.43555E-03     41.8283E-03    -17.7473E-03    -24.0954E-03    -23.9909E-03     41.7238E-03    -17.7473E-03    -1.28839E-03     51.6340E-03     168.170E+06     21.3715E+06    -12.0601E+06    -160.958E+06    -12.8322E+06    -160.186E+06     21.3715E+06    -10.0343E+06
            1083     10.1468E-03     6.88856E-03     7.45020E-03     39.1760E-03    -16.9291E-03    -22.2524E-03    -22.1515E-03     39.0751E-03    -16.9291E-03    -1.11170E-03     46.8463E-03     174.276E+06     18.6035E+06    -11.2547E+06    -168.655E+06    -11.8938E+06    -168.015E+06     18.6035E+06    -9.65027E+06
            1084     9.52044E-03     5.90920E-03     7.46460E-03     36.6334E-03    -16.1372E-03    -20.4961E-03    -20.4094E-03     36.5466E-03    -16.1372E-03    -1.11935E-03     42.5572E-03     173.274E+06     15.4690E+06    -10.5309E+06    -169.321E+06    -11.2133E+06    -168.639E+06     15.4690E+06    -9.94501E+06
            1085     8.95431E-03     4.92806E-03     7.47622E-03     33.9970E-03    -15.3999E-03    -18.5966E-03    -18.5340E-03     33.9343E-03    -15.3999E-03    -1.13679E-03     38.4925E-03     171.526E+06     10.8147E+06    -10.1197E+06    -170.185E+06    -10.6876E+06    -169.617E+06     10.8147E+06    -9.21842E+06
            1086     8.46244E-03     3.94474E-03     7.48678E-03     31.5829E-03    -14.7618E-03    -16.8222E-03    -16.7793E-03     31.5400E-03    -14.7618E-03    -973.529E-06     34.9928E-03     169.049E+06     4.84407E+06    -9.19128E+06    -170.752E+06    -9.65103E+06    -170.292E+06     4.84407E+06    -8.29546E+06
            1087     8.05719E-03     2.95974E-03     7.49388E-03     29.7402E-03    -14.2385E-03    -15.5018E-03    -15.4757E-03     29.7141E-03    -14.2385E-03    -750.396E-06     32.3675E-03     166.969E+06    -1.27702E+06    -9.51693E+06    -172.179E+06    -9.85135E+06    -171.845E+06    -1.27702E+06    -7.07645E+06
            1088     7.75509E-03     1.97457E-03     7.49950E-03     28.2938E-03    -13.8231E-03    -14.4701E-03    -14.4529E-03     28.2765E-03    -13.8231E-03    -696.905E-06     30.3623E-03     166.304E+06    -5.66012E+06    -11.5799E+06    -174.804E+06    -11.7333E+06    -174.650E+06    -5.66012E+06    -4.70895E+06
            1089     7.56709E-03     987.332E-06     7.50240E-03     27.2017E-03    -13.4182E-03    -13.7834E-03    -13.6193E-03     27.1926E-03    -13.5731E-03    -14.8314E-06     29.3137E-03     163.096E+06    -10.5316E+06    -14.6873E+06    -175.640E+06    -13.4683E+06    -175.595E+06    -11.7959E+06    -2.65202E+06
            1090     17.7969E-03     16.5624E-03     6.51280E-03     88.0468E-03    -27.0432E-03    -61.0144E-03    -48.6446E-03     75.6770E-03    -27.0432E-03     72.8972E-03     193.435E-03     164.548E+06     170.040E+06     133.885E+06    -8.82388E+06    -8.79166E+06     170.007E+06     133.885E+06     2.16079E+06
            1091     16.8664E-03     15.6040E-03     6.40225E-03     83.3293E-03    -25.6310E-03    -57.7466E-03    -43.0135E-03     68.5962E-03    -25.6310E-03     83.9956E-03     186.886E-03     148.793E+06     152.458E+06     79.8405E+06    -16.4957E+06    -16.4593E+06     152.422E+06     79.8405E+06     2.36665E+06
            1092     15.9636E-03     14.6435E-03     6.35636E-03     67.1851E-03    -24.3223E-03    -42.9244E-03    -38.4580E-03     62.7187E-03    -24.3223E-03     42.1501E-03     129.189E-03     133.961E+06     124.872E+06     16.0579E+06    -21.4730E+06    -21.4520E+06     124.851E+06     16.0579E+06     1.20542E+06
            1093     15.0767E-03     13.6809E-03     6.33570E-03     59.3591E-03    -23.3302E-03    -36.0644E-03    -34.4441E-03     57.7388E-03    -23.3302E-03     23.9919E-03     102.114E-03     97.4770E+06     78.0502E+06    -16.0025E+06    -22.4952E+06    -22.4566E+06     78.0116E+06    -16.0025E+06    -480.184E+03
            1094     14.2021E-03     12.7125E-03     6.33177E-03     55.1043E-03    -22.6790E-03    -32.4708E-03    -31.4863E-03     54.1199E-03    -22.6790E-03     17.6805E-03     88.9222E-03     44.4406E+06     17.4062E+06    -15.9646E+06    -28.7597E+06    -24.6999E+06     11.5063E+06    -14.1244E+06    -5.50725E+06
            1095     13.3426E-03     11.7437E-03     6.33340E-03     51.7544E-03    -22.1330E-03    -29.6681E-03    -28.8679E-03     50.9543E-03    -22.1330E-03     14.7534E-03     78.5040E-03     42.1606E+06    -8.62487E+06    -16.1432E+06    -53.9251E+06    -25.6940E+06    -44.3743E+06    -8.62487E+06    -13.2695E+06
            1096     12.5012E-03     10.7713E-03     6.34497E-03     49.2644E-03    -21.6784E-03    -27.6093E-03    -26.8401E-03     48.4952E-03    -21.6784E-03     13.1941E-03     70.9065E-03     83.4363E+06     68.1106E+03    -18.7842E+06    -91.1433E+06    -23.5994E+06    -86.3281E+06     68.1106E+03    -17.0766E+06
            1097     11.6795E-03     9.79716E-03     6.35813E-03     47.8393E-03    -21.2511E-03    -26.5920E-03    -25.8423E-03     47.0896E-03    -21.2511E-03     12.7228E-03     65.4239E-03     120.940E+06     10.3552E+06    -17.1512E+06    -121.952E+06    -20.4756E+06    -118.627E+06     10.3552E+06    -17.8309E+06
            1098     10.8852E-03     8.82266E-03     6.37555E-03     46.4672E-03    -20.7948E-03    -25.6820E-03    -25.0028E-03     45.7881E-03    -20.7948E-03     11.8615E-03     60.3950E-03     152.638E+06     17.6032E+06    -15.9721E+06    -149.018E+06    -18.5667E+06    -146.424E+06     17.6032E+06    -18.1241E+06
            1099     10.1211E-03     7.84677E-03     6.39263E-03     45.1428E-03    -20.2796E-03    -24.8775E-03    -24.2774E-03     44.5426E-03    -20.2796E-03     10.9988E-03     56.3093E-03     172.786E+06     22.0964E+06    -15.0286E+06    -166.218E+06    -16.9986E+06    -164.248E+06     22.0964E+06    -16.6801E+06
            1100     9.39660E-03     6.87030E-03     6.41055E-03     43.6564E-03    -19.6438E-03    -24.0158E-03    -23.5134E-03     43.1540E-03    -19.6438E-03     10.0688E-03     52.5415E-03     174.974E+06     17.7300E+06    -13.5494E+06    -170.726E+06    -15.1316E+06    -169.144E+06     17.7300E+06    -15.3070E+06
            1101     8.71877E-03     5.89282E-03     6.42586E-03     41.8022E-03    -18.9620E-03    -22.8399E-03    -22.4542E-03     41.4165E-03    -18.9620E-03     8.65547E-03     48.7433E-03     173.403E+06     10.9121E+06    -13.4170E+06    -173.327E+06    -14.8615E+06    -171.883E+06     10.9121E+06    -14.9898E+06
            1102     8.10187E-03     4.91413E-03     6.44140E-03     39.7497E-03    -18.2769E-03    -21.4735E-03    -21.2025E-03     39.4787E-03    -18.2769E-03     6.96779E-03     45.1205E-03     171.273E+06     4.73574E+06    -13.3160E+06    -174.794E+06    -14.5238E+06    -173.586E+06     4.73574E+06    -13.7005E+06
            1103     7.55801E-03     3.93391E-03     6.45352E-03     37.5737E-03    -17.6192E-03    -19.9564E-03    -19.7827E-03     37.4001E-03    -17.6192E-03     5.41637E-03     41.7022E-03     168.308E+06    -1.73291E+06    -13.7792E+06    -175.729E+06    -14.6570E+06    -174.851E+06    -1.73291E+06    -11.7396E+06
            1104     7.10543E-03     2.95233E-03     6.46304E-03     35.4847E-03    -17.0599E-03    -18.4269E-03    -18.3234E-03     35.3813E-03    -17.0599E-03     4.01087E-03     38.6339E-03     166.248E+06    -6.90613E+06    -15.3407E+06    -177.192E+06    -15.8377E+06    -176.695E+06    -6.90613E+06    -8.70308E+06
            1105     6.76281E-03     1.96854E-03     6.46996E-03     33.9072E-03    -16.6377E-03    -17.2700E-03    -17.2238E-03     33.8611E-03    -16.6377E-03     2.59134E-03     36.3724E-03     166.140E+06    -9.87814E+06    -16.8507E+06    -179.351E+06    -17.0490E+06    -179.153E+06    -9.87814E+06    -5.46887E+06
            1106     6.54905E-03     984.902E-06     6.47457E-03     32.8294E-03    -16.2384E-03    -16.5902E-03    -16.4175E-03     32.8115E-03    -16.3934E-03     1.65341E-03     35.2624E-03     164.425E+06    -16.1722E+06    -19.9168E+06    -182.386E+06    -19.7332E+06    -182.304E+06    -16.4376E+06    -2.31629E+06
            1107     17.4188E-03     16.5492E-03     5.43517E-03     88.9515E-03    -27.8441E-03    -61.1356E-03    -48.8836E-03     76.6995E-03    -27.8441E-03     70.9624E-03     184.278E-03     164.607E+06     169.135E+06     134.784E+06    -9.33890E+06     -9.2941E+06     169.090E+06     134.784E+06     2.76027E+06
            1108     16.4774E-03     15.5906E-03     5.33263E-03     83.8723E-03    -26.5050E-03    -57.4207E-03    -42.3115E-03     68.7631E-03    -26.5050E-03     85.2664E-03     181.906E-03     149.514E+06     152.785E+06     83.4795E+06    -16.6192E+06    -16.5871E+06     152.753E+06     83.4795E+06     2.24419E+06
            1109     15.5564E-03     14.6303E-03     5.28723E-03     65.9971E-03    -25.3611E-03    -40.6931E-03    -35.7084E-03     61.0124E-03    -25.3611E-03     44.1771E-03     124.040E-03     133.427E+06     124.185E+06     17.0607E+06    -21.4779E+06    -21.3552E+06     124.063E+06     17.0607E+06     2.78029E+06
            1110     14.6474E-03     13.6627E-03     5.27987E-03     57.5699E-03    -24.6521E-03    -32.9455E-03    -30.0663E-03     54.6907E-03    -24.6521E-03     31.2005E-03     98.1431E-03     105.545E+06     80.6987E+06    -22.3979E+06    -27.1154E+06    -26.9960E+06     80.5793E+06    -22.3979E+06     2.37011E+06
            1111     13.7442E-03     12.6915E-03     5.27527E-03     53.3348E-03    -24.1802E-03    -29.1619E-03    -26.2167E-03     50.6616E-03    -24.4523E-03     28.2091E-03     86.1774E-03     56.0900E+06     25.0002E+06    -19.1572E+06    -32.8312E+06    -29.3938E+06     21.4606E+06    -19.0550E+06    -5.80176E+06
            1112     12.8526E-03     11.7160E-03     5.28446E-03     50.9897E-03    -24.0341E-03    -26.9681E-03    -23.7768E-03     48.2441E-03    -24.4797E-03     27.3896E-03     77.6084E-03     44.5933E+06    -8.69401E+06    -15.0409E+06    -55.8081E+06    -28.3856E+06    -39.1254E+06    -12.0320E+06    -16.5023E+06
            1113     11.9734E-03     10.7388E-03     5.29519E-03     51.0505E-03    -24.4145E-03    -26.6663E-03    -23.5082E-03     48.0660E-03    -24.5880E-03     28.7135E-03     72.8170E-03     82.7547E+06    -5.42414E+06    -19.3905E+06    -94.0978E+06    -27.0459E+06    -86.4424E+06    -5.42414E+06    -22.1797E+06
            1114     11.1140E-03     9.76305E-03     5.31081E-03     51.5157E-03    -24.6625E-03    -26.8734E-03    -24.2308E-03     48.8731E-03    -24.6625E-03     27.5356E-03     68.8251E-03     121.555E+06     4.45015E+06    -18.3920E+06    -126.806E+06    -24.5673E+06    -120.631E+06     4.45015E+06    -24.6542E+06
            1115     10.2759E-03     8.78706E-03     5.32740E-03     51.6649E-03    -24.6447E-03    -27.0204E-03    -24.7224E-03     49.3669E-03    -24.6447E-03     25.9373E-03     65.4027E-03     155.247E+06     10.8174E+06    -16.3859E+06    -156.146E+06    -20.9266E+06    -151.605E+06     10.8174E+06    -24.2815E+06
            1116     9.46660E-03     7.81237E-03     5.34635E-03     51.9263E-03    -24.5192E-03    -27.3989E-03    -25.3730E-03     49.9005E-03    -24.5192E-03     24.5431E-03     63.1322E-03     174.404E+06     15.6404E+06    -15.6449E+06    -172.215E+06    -19.1015E+06    -168.759E+06     15.6404E+06    -22.8748E+06
            1117     8.69072E-03     6.83822E-03     5.36351E-03     51.7090E-03    -24.2046E-03    -27.4948E-03    -25.8183E-03     50.0326E-03    -24.2046E-03     22.3759E-03     60.7390E-03     174.997E+06     11.2778E+06    -15.7408E+06    -175.577E+06    -18.6167E+06    -172.701E+06     11.2778E+06    -21.0632E+06
            1118     7.95942E-03     5.86404E-03     5.38196E-03     50.8024E-03    -23.7564E-03    -27.0419E-03    -25.7548E-03     49.5153E-03    -23.7564E-03     19.4996E-03     58.0114E-03     173.083E+06     1.97909E+06    -15.5999E+06    -179.152E+06    -17.9154E+06    -176.836E+06     1.97909E+06    -19.1928E+06
            1119     7.28239E-03     4.88908E-03     5.39723E-03     49.5111E-03    -23.2454E-03    -26.2627E-03    -25.3351E-03     48.5834E-03    -23.2454E-03     16.3506E-03     55.1674E-03     171.464E+06    -3.87059E+06    -16.0826E+06    -181.091E+06    -17.9068E+06    -179.267E+06    -3.87059E+06    -17.1765E+06
            1120     6.67927E-03     3.91403E-03     5.41230E-03     47.8519E-03    -22.6882E-03    -25.1634E-03    -24.5574E-03     47.2459E-03    -22.6882E-03     12.9647E-03     52.2140E-03     169.887E+06    -7.96785E+06    -18.3853E+06    -182.818E+06    -19.5442E+06    -181.659E+06    -7.96785E+06    -13.5309E+06
            1121     6.16809E-03     2.93699E-03     5.42396E-03     45.8341E-03    -22.1449E-03    -23.6900E-03    -23.3439E-03     45.4880E-03    -22.1449E-03     9.57195E-03     49.1596E-03     167.817E+06    -12.9990E+06    -20.1594E+06    -184.269E+06    -20.7716E+06    -183.657E+06    -12.9990E+06    -9.86383E+06
            1122     5.77509E-03     1.95906E-03     5.43266E-03     44.0970E-03    -21.7351E-03    -22.3620E-03    -22.1961E-03     43.9312E-03    -21.7351E-03     6.37155E-03     46.7294E-03     165.899E+06    -17.2150E+06    -23.0876E+06    -185.936E+06    -23.3920E+06    -185.632E+06    -17.2150E+06    -6.64766E+06
            1123     5.52493E-03     979.519E-06     5.43741E-03     43.1063E-03    -21.4181E-03    -21.6867E-03    -21.6258E-03     43.0454E-03    -21.4181E-03     3.77833E-03     45.7558E-03     163.582E+06    -22.0125E+06    -26.9255E+06    -187.947E+06    -27.0412E+06    -187.831E+06    -22.0125E+06    -3.01102E+06
            1124     17.0920E-03     16.5275E-03     4.35641E-03     90.0351E-03    -29.1647E-03    -60.9129E-03    -47.4149E-03     76.5370E-03    -29.1647E-03     75.2141E-03     180.507E-03     163.236E+06     169.042E+06     134.427E+06    -8.09283E+06    -8.03254E+06     168.982E+06     134.427E+06     2.89859E+06
            1125     16.1440E-03     15.5728E-03     4.25621E-03     85.2443E-03    -28.0149E-03    -57.2746E-03    -40.7002E-03     68.6699E-03    -28.0149E-03     89.5051E-03     176.844E-03     148.921E+06     151.956E+06     85.5453E+06    -17.0229E+06    -16.7970E+06     151.730E+06     85.5453E+06     4.09305E+06
            1126     15.2063E-03     14.6064E-03     4.22895E-03     63.9178E-03    -27.2232E-03    -36.7329E-03    -29.9977E-03     57.1898E-03    -27.2304E-03     49.6067E-03     117.562E-03     133.441E+06     121.491E+06     21.4004E+06    -26.7187E+06    -26.1048E+06     120.877E+06     21.4004E+06     8.33852E+06
            1127     14.2711E-03     13.6319E-03     4.22347E-03     56.7535E-03    -26.9995E-03    -29.7787E-03    -23.4398E-03     50.4218E-03    -27.0067E-03     43.7897E-03     95.1176E-03     119.450E+06     87.9350E+06    -22.0771E+06    -38.4686E+06    -31.8685E+06     87.4353E+06    -28.1775E+06     4.05965E+06
            1128     13.3405E-03     12.6536E-03     4.22562E-03     54.4748E-03    -26.0617E-03    -28.4198E-03    -21.2485E-03     48.5983E-03    -27.3565E-03     41.3653E-03     84.2297E-03     73.5705E+06     37.2434E+06    -26.6468E+06    -40.9088E+06    -30.7416E+06     33.1767E+06    -32.7472E+06    -8.99326E+06
            1129     12.4175E-03     11.6723E-03     4.23717E-03     53.7106E-03    -25.7322E-03    -27.9786E-03    -20.4094E-03     48.3878E-03    -27.9786E-03     39.4902E-03     76.5484E-03     46.1990E+06    -6.62534E+06    -23.4378E+06    -56.3590E+06    -28.7420E+06    -34.7882E+06    -22.8919E+06    -19.2899E+06
            1130     11.5042E-03     10.6917E-03     4.24672E-03     55.4530E-03    -26.6679E-03    -28.8064E-03    -21.6741E-03     50.2711E-03    -28.6184E-03     39.7838E-03     73.9581E-03     79.4963E+06    -11.6157E+06    -22.8527E+06    -95.9171E+06    -26.5774E+06    -85.7640E+06    -18.0441E+06    -25.9601E+06
            1131     10.6070E-03     9.71456E-03     4.25849E-03     56.8063E-03    -27.2064E-03    -29.6214E-03    -23.4720E-03     52.6783E-03    -29.2279E-03     36.3611E-03     71.0029E-03     121.184E+06    -4.57256E+06    -18.0657E+06    -131.870E+06    -23.9917E+06    -123.419E+06    -7.09722E+06    -29.9165E+06
            1132     9.72992E-03     8.73996E-03     4.27601E-03     58.4754E-03    -28.1652E-03    -30.3065E-03    -25.0400E-03     54.7737E-03    -29.7300E-03     35.1347E-03     69.9222E-03     155.477E+06    -1.95015E+06    -16.1276E+06    -163.897E+06    -22.6500E+06    -157.375E+06    -1.95015E+06    -30.0228E+06
            1133     8.87283E-03     7.76618E-03     4.29111E-03     60.3283E-03    -29.2563E-03    -31.0616E-03    -26.9362E-03     57.0311E-03    -30.0845E-03     33.8553E-03     69.8843E-03     172.146E+06    -1.34812E+06    -16.0670E+06    -180.129E+06    -21.0329E+06    -175.163E+06    -1.34812E+06    -27.9830E+06
            1134     8.04590E-03     6.79453E-03     4.30940E-03     61.5646E-03    -29.9752E-03    -31.5954E-03    -28.5913E-03     58.8466E-03    -30.2612E-03     31.2490E-03     69.4430E-03     174.437E+06    -2.67315E+06    -15.8980E+06    -183.113E+06    -19.7972E+06    -179.214E+06    -2.67315E+06    -25.1586E+06
            1135     7.25492E-03     5.82411E-03     4.32592E-03     62.2043E-03    -30.2545E-03    -31.9569E-03    -29.8282E-03     60.0756E-03    -30.2545E-03     27.9004E-03     68.6110E-03     174.586E+06    -7.31213E+06    -17.4540E+06    -186.667E+06    -20.3047E+06    -183.816E+06    -7.31213E+06    -21.6591E+06
            1136     6.51415E-03     4.85480E-03     4.34339E-03     62.0846E-03    -30.0855E-03    -31.9951E-03    -30.4482E-03     60.5377E-03    -30.0855E-03     23.8364E-03     67.2714E-03     171.258E+06    -13.3670E+06    -20.4808E+06    -188.050E+06    -22.3464E+06    -186.184E+06    -13.3670E+06    -17.4400E+06
            1137     5.83811E-03     3.88461E-03     4.35813E-03     61.3488E-03    -29.8248E-03    -31.5247E-03    -30.4936E-03     60.3177E-03    -29.8248E-03     19.3190E-03     65.4559E-03     170.378E+06    -16.6825E+06    -23.2943E+06    -190.250E+06    -24.5088E+06    -189.035E+06    -16.6825E+06    -14.0386E+06
            1138     5.25490E-03     2.91530E-03     4.37207E-03     60.2733E-03    -29.4947E-03    -30.7812E-03    -30.1740E-03     59.6662E-03    -29.4947E-03     14.6678E-03     63.4904E-03     168.516E+06    -20.9410E+06    -26.8108E+06    -192.304E+06    -27.4738E+06    -191.642E+06    -20.9410E+06    -9.74416E+06
            1139     4.79376E-03     1.94409E-03     4.38185E-03     59.0281E-03    -29.1450E-03    -29.8847E-03    -29.5850E-03     58.7285E-03    -29.1450E-03     10.0437E-03     61.6780E-03     164.493E+06    -26.0545E+06    -30.4089E+06    -192.667E+06    -30.6758E+06    -192.400E+06    -26.0545E+06    -6.02340E+06
            1140     4.49527E-03     972.310E-06     4.38886E-03     57.9632E-03    -28.7944E-03    -29.1678E-03    -29.0256E-03     57.8561E-03    -28.8296E-03     5.84949E-03     60.6049E-03     162.209E+06    -29.5884E+06    -34.6468E+06    -194.256E+06    -33.4438E+06    -194.103E+06    -30.9448E+06    -4.83808E+06
            1141     16.8141E-03     16.4926E-03     3.27221E-03     90.4462E-03    -31.1141E-03    -59.3660E-03    -43.3802E-03     74.4604E-03    -31.1141E-03     87.4439E-03     186.624E-03     160.752E+06     167.744E+06     129.026E+06    -7.93135E+06    -7.73657E+06     167.550E+06     129.026E+06     4.95255E+06
            1142     15.8546E-03     15.5322E-03     3.18098E-03     83.8555E-03    -29.9894E-03    -53.8913E-03    -37.8483E-03     68.1280E-03    -30.3050E-03     85.8326E-03     163.670E-03     147.573E+06     145.876E+06     80.6277E+06    -22.5155E+06    -21.9490E+06     145.309E+06     80.6277E+06     8.46273E+06
            1143     14.9061E-03     14.5642E-03     3.17413E-03     61.0800E-03    -27.8517E-03    -33.2502E-03    -23.5001E-03     53.5133E-03    -30.0352E-03     50.2685E-03     105.553E-03     134.237E+06     123.190E+06     34.0225E+06    -29.1667E+06    -28.4159E+06     122.440E+06     34.0225E+06     9.96111E+06
            1144     13.9468E-03     13.5805E-03     3.17560E-03     57.2512E-03    -26.8320E-03    -30.4348E-03    -17.7203E-03     48.0592E-03    -30.3545E-03     52.4141E-03     89.0792E-03     127.837E+06     98.6444E+06    -7.40651E+06    -43.0195E+06    -26.3661E+06     98.1836E+06    -23.5991E+06     1.18519E+06
            1145     12.9915E-03     12.5982E-03     3.17271E-03     57.7676E-03    -26.5476E-03    -31.2471E-03    -18.4360E-03     49.5756E-03    -31.1667E-03     49.5553E-03     81.1406E-03      90.442E+06     45.4179E+06    -26.4783E+06    -54.6415E+06    -24.4281E+06     42.0271E+06    -53.3009E+06    -9.91541E+06
            1146     12.0498E-03     11.6203E-03     3.18854E-03     59.9888E-03    -27.7987E-03    -32.2087E-03    -20.8062E-03     52.9963E-03    -32.2087E-03     47.5106E-03     77.1600E-03     54.7577E+06    -2.43495E+06    -35.8261E+06    -63.8535E+06    -24.7980E+06    -30.8605E+06    -46.4561E+06    -19.9153E+06
            1147     11.1103E-03     10.6424E-03     3.19041E-03     62.2021E-03    -29.0556E-03    -33.1516E-03    -22.8941E-03     56.0406E-03    -33.1516E-03     45.3621E-03     75.9081E-03     76.4541E+06    -12.0516E+06    -44.8552E+06    -96.6315E+06    -23.5578E+06    -85.1253E+06    -44.8552E+06    -28.2482E+06
            1148     10.1827E-03     9.66564E-03     3.20361E-03     62.6227E-03    -28.4858E-03    -34.1466E-03    -24.1964E-03     58.3334E-03    -34.1466E-03     38.5448E-03     72.7249E-03     116.385E+06    -10.9882E+06    -37.0203E+06    -135.876E+06    -21.7980E+06    -127.203E+06    -34.8826E+06    -31.0613E+06
            1149     9.26510E-03     8.68900E-03     3.21611E-03     64.9763E-03    -29.8107E-03    -35.1661E-03    -25.9881E-03     61.1537E-03    -35.1661E-03     37.1858E-03     73.2347E-03     150.761E+06    -11.4114E+06    -28.1231E+06    -169.546E+06    -21.7064E+06    -162.722E+06    -24.6515E+06    -31.5865E+06
            1150     8.36546E-03     7.71677E-03     3.22992E-03     68.0157E-03    -31.9361E-03    -36.0730E-03    -28.6249E-03     64.7045E-03    -36.0730E-03     35.6000E-03     74.8572E-03     168.364E+06    -14.0973E+06    -26.8280E+06    -188.252E+06    -21.6543E+06    -182.658E+06    -24.8650E+06    -30.4461E+06
            1151     7.48596E-03     6.74678E-03     3.24354E-03     70.7908E-03    -33.9148E-03    -36.8710E-03    -31.1977E-03     68.0581E-03    -36.8554E-03     33.2103E-03     76.6354E-03     172.384E+06    -16.5308E+06    -25.1498E+06    -192.984E+06    -22.0225E+06    -189.030E+06    -23.6124E+06    -25.6993E+06
            1152     6.63518E-03     5.77960E-03     3.25911E-03     73.2810E-03    -35.5584E-03    -37.7135E-03    -33.6316E-03     71.1064E-03    -37.4657E-03     30.2944E-03     78.1367E-03     172.122E+06    -19.2489E+06    -26.7957E+06    -195.004E+06    -24.5785E+06    -192.595E+06    -23.8745E+06    -20.0249E+06
            1153     5.82217E-03     4.81439E-03     3.27402E-03     75.0606E-03    -36.6538E-03    -38.3990E-03    -35.5681E-03     73.4565E-03    -37.8805E-03     26.4210E-03     79.0581E-03     169.151E+06    -23.7875E+06    -28.4116E+06    -195.183E+06    -27.7832E+06    -193.648E+06    -25.9511E+06    -15.9171E+06
            1154     5.06507E-03     3.85131E-03     3.28973E-03     76.0646E-03    -37.4094E-03    -38.6568E-03    -36.8175E-03     74.9752E-03    -38.1593E-03     21.9581E-03     79.3404E-03     169.737E+06    -25.9016E+06    -29.2164E+06    -197.264E+06    -29.8566E+06    -196.288E+06    -26.2375E+06    -12.3646E+06
            1155     4.38659E-03     2.88729E-03     3.30239E-03     76.6766E-03    -37.9182E-03    -38.7621E-03    -37.7121E-03     76.0162E-03    -38.3079E-03     17.0794E-03     79.3894E-03     170.061E+06    -26.9785E+06    -32.4197E+06    -199.680E+06    -33.0170E+06    -199.082E+06    -26.9785E+06    -9.09788E+06
            1156     3.83272E-03     1.92550E-03     3.31394E-03     76.8798E-03    -38.1741E-03    -38.7089E-03    -38.2752E-03     76.5540E-03    -38.2821E-03     11.9069E-03     79.2843E-03     167.012E+06    -28.8661E+06    -35.2508E+06    -198.964E+06    -35.5478E+06    -198.667E+06    -28.8661E+06    -5.77646E+06
            1157     3.45720E-03     963.380E-06     3.32026E-03     76.4390E-03    -38.0579E-03    -38.3798E-03    -38.2268E-03     76.3212E-03    -38.0931E-03     6.88896E-03     78.9578E-03     164.677E+06    -34.7688E+06    -39.8524E+06    -201.916E+06    -38.6065E+06    -201.805E+06    -36.1252E+06    -3.77014E+06
            1158     16.5864E-03     16.4440E-03     2.16883E-03     90.0712E-03    -33.3714E-03    -56.7217E-03    -40.6888E-03     74.0383E-03    -33.3714E-03     90.4066E-03     181.858E-03     160.776E+06     165.062E+06     126.823E+06    -10.6715E+06    -10.0700E+06     164.460E+06     126.823E+06     9.12994E+06
            1159     15.6385E-03     15.4951E-03     2.11331E-03     74.8539E-03    -29.6072E-03    -45.2497E-03    -32.1079E-03     65.0712E-03    -32.9662E-03     63.3947E-03     132.761E-03     146.556E+06     145.448E+06     83.5910E+06    -21.3608E+06    -20.5954E+06     144.683E+06     83.5910E+06     10.3410E+06
            1160     14.6681E-03     14.5136E-03     2.12326E-03     58.8926E-03    -25.7269E-03    -33.1534E-03    -19.7400E-03     52.9058E-03    -33.1534E-03     42.9842E-03     89.5904E-03     133.045E+06     128.573E+06     38.5838E+06    -20.5592E+06    -20.2331E+06     128.247E+06     38.5838E+06     3.25643E+06
            1161     13.6966E-03     13.5307E-03     2.12549E-03     58.5426E-03    -24.7190E-03    -33.8180E-03    -17.7915E-03     51.6151E-03    -33.8180E-03     44.8908E-03     79.5293E-03     127.933E+06     104.288E+06    -2.81278E+06    -36.6254E+06    -17.0539E+06     104.145E+06    -22.2414E+06    -2.11428E+06
            1162     12.7230E-03     12.5449E-03     2.12119E-03     58.9629E-03    -24.1420E-03    -34.8447E-03    -18.5137E-03     53.3346E-03    -34.8447E-03     39.8439E-03     73.9415E-03     103.973E+06     50.5633E+06    -17.6774E+06    -66.1182E+06    -15.4804E+06     48.3662E+06    -66.1182E+06    -6.84187E+06
            1163     11.7578E-03     11.5635E-03     2.12832E-03     62.7814E-03    -26.7014E-03    -36.1030E-03    -21.9123E-03     57.9923E-03    -36.1030E-03     38.4863E-03     74.3573E-03     74.9353E+06     3.97966E+06    -38.4610E+06    -80.9430E+06    -14.4018E+06    -25.6087E+06    -75.4139E+06    -16.6585E+06
            1164     10.8014E-03     10.5896E-03     2.12817E-03     66.0128E-03    -28.6861E-03    -37.3261E-03    -24.5348E-03     61.8615E-03    -37.3261E-03     36.6892E-03     75.0593E-03     82.4185E+06    -7.58540E+06    -69.8400E+06    -100.548E+06    -15.9245E+06    -84.2682E+06    -77.7808E+06    -24.1425E+06
            1165     9.85241E-03     9.61695E-03     2.14108E-03     67.5425E-03    -28.9457E-03    -38.6039E-03    -26.0260E-03     64.6228E-03    -38.6039E-03     32.0931E-03     74.1283E-03     111.741E+06    -12.4028E+06    -74.7827E+06    -137.650E+06    -18.8779E+06    -131.175E+06    -74.7827E+06    -27.1987E+06
            1166     8.90794E-03     8.64453E-03     2.15022E-03     70.5560E-03    -30.5784E-03    -39.9951E-03    -27.9381E-03     67.9156E-03    -39.9951E-03     31.5969E-03     75.8832E-03     142.781E+06    -14.4732E+06    -62.1044E+06    -172.878E+06    -19.7847E+06    -167.566E+06    -62.1044E+06    -28.1675E+06
            1167     7.97092E-03     7.67292E-03     2.15913E-03     74.0172E-03    -32.6078E-03    -41.4120E-03    -30.3825E-03     71.7919E-03    -41.4120E-03     29.9469E-03     78.2698E-03     163.341E+06    -17.2850E+06    -51.8860E+06    -194.479E+06    -21.4136E+06    -190.350E+06    -51.8860E+06    -26.2222E+06
            1168     7.04691E-03     6.70456E-03     2.16975E-03     78.0668E-03    -35.2779E-03    -42.7774E-03    -33.4562E-03     76.2451E-03    -42.7774E-03     27.9158E-03     81.6873E-03     171.144E+06    -22.3613E+06    -44.6081E+06    -203.308E+06    -25.0461E+06    -200.623E+06    -44.6081E+06    -21.1504E+06
            1169     6.13922E-03     5.73915E-03     2.17997E-03     82.0510E-03    -38.0110E-03    -44.0287E-03    -36.5873E-03     80.6272E-03    -44.0287E-03     25.3649E-03     85.1538E-03     169.312E+06    -25.6629E+06    -40.6350E+06    -201.887E+06    -27.1139E+06    -200.437E+06    -40.6350E+06    -15.5946E+06
            1170     5.25600E-03     4.77724E-03     2.19171E-03     85.8097E-03    -40.6386E-03    -45.1669E-03    -39.5776E-03     84.7487E-03    -45.1669E-03     22.4461E-03     88.4718E-03     169.068E+06    -28.8619E+06    -36.8065E+06    -201.658E+06    -29.8280E+06    -200.692E+06    -36.8065E+06    -12.4246E+06
            1171     4.40828E-03     3.81763E-03     2.20424E-03     89.2946E-03    -43.1467E-03    -46.1479E-03    -42.4124E-03     88.5604E-03    -46.1479E-03     19.1025E-03     91.6025E-03     170.569E+06     -31.716E+06    -34.9230E+06    -203.863E+06    -34.1404E+06    -203.293E+06    -33.0685E+06    -9.34791E+06
            1172     3.61935E-03     2.86188E-03     2.21570E-03     92.0129E-03    -45.1010E-03    -46.9126E-03    -44.6486E-03     91.5605E-03    -46.9126E-03     15.2214E-03     94.0943E-03     170.063E+06    -32.4385E+06    -37.5179E+06    -204.970E+06    -37.9029E+06    -204.585E+06    -32.4385E+06    -7.23617E+06
            1173     2.92942E-03     1.90644E-03     2.22418E-03     94.0112E-03    -46.5103E-03    -47.5018E-03    -46.2996E-03     93.7804E-03    -47.4817E-03     10.9597E-03     96.0842E-03     167.570E+06    -35.3053E+06    -42.1328E+06    -206.174E+06    -42.3865E+06    -205.921E+06    -35.3053E+06    -4.98344E+06
            1174     2.42643E-03     952.664E-06     2.23159E-03     95.4628E-03    -47.3580E-03    -48.1034E-03    -47.3903E-03     95.3723E-03    -47.9806E-03     6.75465E-03     97.9143E-03     164.196E+06    -41.5074E+06    -46.4825E+06    -208.119E+06    -45.4499E+06    -208.032E+06    -42.6274E+06    -1.17315E+06
            1175     16.4617E-03     16.4271E-03     1.06700E-03     92.4549E-03    -33.5968E-03    -58.8962E-03    -45.2642E-03     80.8180E-03    -35.5918E-03     77.5661E-03     151.643E-03     159.429E+06     165.195E+06     133.530E+06    -7.26132E+06    -6.69394E+06     164.627E+06     133.530E+06     8.51810E+06
            1176     15.4879E-03     15.4515E-03     1.06147E-03     65.9169E-03    -27.6409E-03    -38.2796E-03    -26.3075E-03     61.6465E-03    -35.3426E-03     38.5580E-03     101.490E-03     143.760E+06     155.238E+06     93.0950E+06    -7.01605E+06    -6.46194E+06     154.684E+06     93.0950E+06     6.09940E+06
            1177     14.5084E-03     14.4691E-03     1.06628E-03     60.9275E-03    -25.1826E-03    -35.7223E-03    -22.0807E-03     57.8256E-03    -35.7223E-03     29.9442E-03     81.4003E-03     129.436E+06     133.395E+06     32.4627E+06    -7.96439E+06    -7.85044E+06     133.281E+06     32.4627E+06    -1.90570E+06
            1178     13.5363E-03     13.4944E-03     1.06448E-03     61.6506E-03    -25.3146E-03    -36.3506E-03    -22.7517E-03     59.0877E-03    -36.3506E-03     26.7185E-03     75.3594E-03     127.206E+06     102.966E+06    -5.05581E+06    -34.7291E+06    -9.05340E+06     102.893E+06    -30.6584E+06    -2.29494E+06
            1179     12.5634E-03     12.5179E-03     1.06773E-03     61.0789E-03    -23.8943E-03    -37.2468E-03    -22.2425E-03     59.4270E-03    -37.2468E-03     21.4413E-03     71.0493E-03     115.856E+06     52.2678E+06    -8.63396E+06    -77.4651E+06    -7.56377E+06     51.1977E+06    -77.4651E+06    -3.45683E+06
            1180     11.5880E-03     11.5391E-03     1.06278E-03     62.1703E-03    -23.7049E-03    -38.5004E-03    -22.4873E-03     60.9527E-03    -38.5004E-03     18.6637E-03     69.5202E-03     95.2677E+06     7.76145E+06    -32.6160E+06    -99.1949E+06    -6.07687E+06    -18.7777E+06    -99.1949E+06    -8.68372E+06
            1181     10.6138E-03     10.5604E-03     1.06383E-03     64.5606E-03    -24.5377E-03    -40.0362E-03    -23.5476E-03     63.5706E-03    -40.0362E-03     16.5412E-03     69.9557E-03     95.0250E+06    -5.24713E+06    -79.9599E+06    -109.000E+06    -8.16848E+06    -82.6911E+06    -103.348E+06    -13.4987E+06
            1182     9.64287E-03     9.58329E-03     1.07028E-03     68.8269E-03    -27.1471E-03    -41.6907E-03    -26.2472E-03     67.9270E-03    -41.6907E-03     16.3857E-03     72.9896E-03     114.870E+06    -9.62646E+06    -101.821E+06    -135.951E+06    -12.3012E+06    -133.239E+06    -101.859E+06    -16.1637E+06
            1183     8.67894E-03     8.61185E-03     1.07704E-03     73.8491E-03    -30.4862E-03    -43.3814E-03    -29.5156E-03     72.8785E-03    -43.3814E-03     17.9599E-03     77.1607E-03     139.139E+06    -14.8753E+06    -93.7486E+06    -173.937E+06    -17.2501E+06    -171.563E+06    -93.7486E+06    -17.1877E+06
            1184     7.71848E-03     7.64218E-03     1.08254E-03     78.2635E-03    -33.1508E-03    -45.1163E-03    -32.2887E-03     77.4013E-03    -45.1163E-03     17.5866E-03     80.7789E-03     159.106E+06    -20.6727E+06    -78.3451E+06    -199.696E+06    -22.3355E+06    -198.033E+06    -78.3451E+06    -15.7350E+06
            1185     6.76281E-03     6.67495E-03     1.08657E-03     82.7986E-03    -35.9188E-03    -46.8742E-03    -35.2376E-03     82.1174E-03    -46.8742E-03     16.0324E-03     84.7691E-03     168.858E+06    -25.9292E+06    -62.2804E+06    -209.623E+06    -26.9521E+06    -208.600E+06    -62.2804E+06    -12.6456E+06
            1186     5.81505E-03     5.71158E-03     1.09212E-03     87.5954E-03    -38.9796E-03    -48.6200E-03    -38.4699E-03     87.0857E-03    -48.6200E-03     14.2818E-03     89.3417E-03     167.524E+06    -30.2591E+06    -51.0767E+06    -207.132E+06    -30.8544E+06    -206.536E+06    -51.0767E+06    -9.44732E+06
            1187     4.87620E-03     4.75070E-03     1.09914E-03     92.7793E-03    -42.4521E-03    -50.3304E-03    -42.0747E-03     92.4019E-03    -50.3304E-03     12.7439E-03     94.4519E-03     167.309E+06    -33.7374E+06    -44.7615E+06    -206.216E+06    -34.0369E+06    -205.917E+06    -44.7615E+06    -6.38012E+06
            1188     3.95222E-03     3.79446E-03     1.10549E-03     98.1255E-03    -46.2020E-03    -51.9191E-03    -45.9341E-03     97.8576E-03    -51.9191E-03     11.0992E-03     99.7509E-03     168.291E+06    -37.0975E+06    -42.2485E+06    -207.895E+06    -38.1538E+06    -207.698E+06    -41.3892E+06    -4.62833E+06
            1189     3.05128E-03     2.84136E-03     1.11222E-03     102.988E-03    -49.7086E-03    -53.2746E-03    -49.5380E-03     102.817E-03    -53.2746E-03     8.97628E-03     104.619E-03     168.258E+06    -39.5250E+06    -42.5760E+06    -209.284E+06    -41.6178E+06    -209.162E+06    -40.6053E+06    -3.40644E+06
            1190     2.19781E-03     1.89194E-03     1.11845E-03     106.926E-03    -52.5905E-03    -54.3324E-03    -52.4997E-03     106.836E-03    -54.3324E-03     6.44662E-03     108.698E-03     167.180E+06    -40.2323E+06    -46.0257E+06    -210.200E+06    -46.0855E+06    -210.140E+06    -40.2323E+06    -2.67656E+06
            1191     1.46599E-03     944.919E-06     1.12082E-03     109.582E-03    -54.2659E-03    -55.3155E-03    -54.4797E-03     109.543E-03    -55.0629E-03     3.40189E-03     111.829E-03     163.876E+06    -46.2830E+06    -53.2364E+06    -213.509E+06    -52.2832E+06    -213.342E+06    -47.4030E+06    -2.15128E+06
            1192     59.0370E-03     973.381E-06     59.0290E-03     55.0213E-03    -27.3010E-03    -27.7211E-03    -27.4090E-03     55.0165E-03    -27.6083E-03     1.24584E-03     56.2972E-03     173.026E+06    -20.4617E+06    -22.9205E+06    -194.699E+06    -22.1850E+06    -194.684E+06    -21.2125E+06    -213.246E+03
            1193     59.0628E-03     1.94608E-03     59.0307E-03     55.3184E-03    -27.5381E-03    -27.7811E-03    -27.7210E-03     55.3113E-03    -27.5911E-03     1.48617E-03     56.7116E-03     179.676E+06    -17.4853E+06    -20.7458E+06    -198.766E+06    -20.7540E+06    -198.758E+06    -17.4853E+06     893.293E+03
            1194     59.1043E-03     2.91897E-03     59.0322E-03     55.2456E-03    -27.5143E-03    -27.7326E-03    -27.5831E-03     55.2285E-03    -27.6467E-03     2.30864E-03     57.2775E-03     183.018E+06    -14.7805E+06    -19.3731E+06    -200.046E+06    -19.3865E+06    -200.032E+06    -14.7805E+06     1.23533E+06
            1195     59.1624E-03     3.89184E-03     59.0343E-03     55.1284E-03    -27.4887E-03    -27.6408E-03    -27.4634E-03     55.0945E-03    -27.6321E-03     3.29541E-03     58.4232E-03     185.511E+06    -14.9808E+06    -19.3098E+06    -202.607E+06    -19.3259E+06    -202.591E+06    -14.9808E+06     1.33049E+06
            1196     59.2384E-03     4.86576E-03     59.0382E-03     55.1600E-03    -27.5291E-03    -27.6330E-03    -27.4996E-03     55.1021E-03    -27.6045E-03     4.34207E-03     59.9915E-03     182.527E+06    -15.3987E+06    -19.3198E+06    -199.833E+06    -19.3325E+06    -199.820E+06    -15.3987E+06     1.36144E+06
            1197     59.3309E-03     5.83836E-03     59.0430E-03     55.1878E-03    -27.5655E-03    -27.6238E-03    -27.5017E-03     55.0932E-03    -27.5931E-03     5.55055E-03     61.9193E-03     177.265E+06    -13.7311E+06    -18.7697E+06    -193.444E+06    -18.7817E+06    -193.432E+06    -13.7311E+06     1.39725E+06
            1198     59.4414E-03     6.81162E-03     59.0499E-03     55.1173E-03    -27.5330E-03    -27.5769E-03    -27.3951E-03     54.9772E-03    -27.5747E-03     6.77234E-03     64.4089E-03     170.358E+06    -11.4505E+06    -16.7865E+06    -184.379E+06    -16.7005E+06    -184.358E+06    -11.5577E+06     927.693E+03
            1199     59.5683E-03     7.78488E-03     59.0574E-03     54.9603E-03    -27.4243E-03    -27.5310E-03    -27.2225E-03     54.7585E-03    -27.5310E-03     8.10228E-03     67.4584E-03     151.330E+06    -8.56114E+06    -13.7511E+06    -162.376E+06    -13.6650E+06    -162.354E+06     -8.6683E+06     731.861E+03
            1200     59.7126E-03     8.75839E-03     59.0668E-03     54.8512E-03    -27.3750E-03    -27.4652E-03    -27.0939E-03     54.5701E-03    -27.4652E-03     9.57004E-03     71.1461E-03     129.170E+06    -9.83412E+06    -13.9098E+06    -140.963E+06    -13.9588E+06    -140.891E+06    -9.85725E+06     1.60150E+06
            1201     59.8738E-03     9.73238E-03     59.0775E-03     54.9160E-03    -27.3995E-03    -27.5189E-03    -27.0991E-03     54.5146E-03    -27.4178E-03     11.4182E-03     76.5322E-03     110.956E+06    -10.7269E+06    -16.3256E+06    -124.335E+06    -16.4137E+06    -124.224E+06    -10.7500E+06     2.57896E+06
            1202     60.0527E-03     10.7047E-03     59.0909E-03     54.8661E-03    -27.3428E-03    -27.5535E-03    -26.9537E-03     54.2663E-03    -27.3428E-03     13.9364E-03     83.0977E-03     80.6821E+06    -12.9360E+06    -19.0038E+06    -96.4683E+06    -16.8899E+06    -96.4108E+06    -15.1074E+06     2.04720E+06
            1203     60.2496E-03     11.6792E-03     59.1068E-03     54.8412E-03    -27.2162E-03    -27.6712E-03    -26.7957E-03     53.9657E-03    -27.2162E-03     16.8380E-03     90.1001E-03     35.6717E+06    -15.9748E+06    -23.6013E+06    -53.3723E+06    -16.1047E+06    -53.2424E+06    -23.6013E+06     687.388E+03
            1204     60.4652E-03     12.6528E-03     59.1265E-03     55.1234E-03    -27.0799E-03    -28.0782E-03    -26.6259E-03     53.6711E-03    -27.0799E-03     21.5536E-03     101.319E-03     34.3046E+06     6.03766E+06    -21.5337E+06    -32.3400E+06    -16.1672E+06    -1.17943E+06    -30.4895E+06    -236.271E+03
            1205     60.7016E-03     13.6270E-03     59.1522E-03     56.0881E-03    -26.9144E-03    -29.1803E-03    -26.3804E-03     53.2882E-03    -26.9144E-03     29.9685E-03     118.534E-03     100.787E+06     71.5524E+06    -17.1236E+06    -37.7162E+06    -17.0790E+06     71.5079E+06    -37.7162E+06    -840.063E+03
            1206     60.9642E-03     14.6005E-03     59.1901E-03     60.7084E-03    -26.9810E-03    -33.7436E-03    -26.3322E-03     53.2970E-03    -26.9810E-03     49.3518E-03     146.627E-03     148.085E+06     134.003E+06     7.65096E+06    -28.3462E+06    -16.6893E+06     133.983E+06    -3.98592E+06    -1.02320E+06
            1207     61.2688E-03     15.5764E-03     59.2557E-03     79.2326E-03    -27.3085E-03    -51.9359E-03    -27.7512E-03     55.0479E-03    -27.3085E-03     99.4831E-03     216.810E-03     160.590E+06     167.283E+06     71.6885E+06    -14.5369E+06    -14.5125E+06     167.258E+06     71.6885E+06     193.761E+03
            1208     61.6642E-03     16.5493E-03     59.4020E-03     79.0217E-03    -27.5624E-03    -51.4594E-03    -27.1912E-03     54.7535E-03    -27.5624E-03     99.4531E-03     248.244E-03     178.220E+06     189.094E+06     134.559E+06    -9.14549E+06    -9.12288E+06     189.072E+06     134.559E+06     795.129E+03
            1209     60.0927E-03     972.742E-06     60.0848E-03     54.9947E-03    -27.3717E-03    -27.6250E-03    -27.5001E-03     54.9887E-03    -27.4906E-03     1.38052E-03     56.1855E-03     172.528E+06    -21.3362E+06    -24.5726E+06    -195.438E+06    -24.5881E+06    -195.422E+06    -21.3362E+06     1.10974E+06
            1210     60.1179E-03     1.94613E-03     60.0864E-03     54.8734E-03    -27.3594E-03    -27.5155E-03    -27.3583E-03     54.8646E-03    -27.5077E-03     1.69221E-03     56.2804E-03     178.294E+06    -19.4138E+06    -23.7074E+06    -199.802E+06    -23.5619E+06    -199.784E+06    -19.5770E+06     1.31626E+06
            1211     60.1584E-03     2.91968E-03     60.0875E-03     55.0159E-03    -27.4453E-03    -27.5720E-03    -27.5116E-03     54.9992E-03    -27.4889E-03     2.27613E-03     57.1716E-03     179.243E+06    -20.3787E+06    -23.2069E+06    -201.014E+06    -23.0621E+06    -200.995E+06    -20.5420E+06     1.41210E+06
            1212     60.2163E-03     3.89293E-03     60.0903E-03     55.2626E-03    -27.5453E-03    -27.7184E-03    -27.6878E-03     55.2321E-03    -27.5454E-03     3.13995E-03     58.6349E-03     183.705E+06    -16.0742E+06    -21.1378E+06    -202.249E+06    -21.1537E+06    -202.233E+06    -16.0742E+06     1.16412E+06
            1213     60.2901E-03     4.86520E-03     60.0935E-03     55.3023E-03    -27.5849E-03    -27.7174E-03    -27.6576E-03     55.2487E-03    -27.5912E-03     4.16475E-03     60.2146E-03     184.546E+06    -12.8099E+06    -18.4729E+06    -200.099E+06    -18.4812E+06    -200.091E+06    -12.8099E+06     993.035E+03
            1214     60.3822E-03     5.83855E-03     60.0993E-03     55.1625E-03    -27.5365E-03    -27.6256E-03    -27.4743E-03     55.0697E-03    -27.5950E-03     5.49302E-03     61.9960E-03     179.957E+06    -11.1646E+06    -16.8431E+06    -193.873E+06    -16.8586E+06    -193.858E+06    -11.1646E+06     1.42418E+06
            1215     60.4898E-03     6.81155E-03     60.1050E-03     55.0666E-03    -27.4862E-03    -27.5745E-03    -27.3487E-03     54.9157E-03    -27.5611E-03     7.00218E-03     64.4107E-03     168.959E+06    -10.8458E+06    -16.5115E+06    -182.545E+06    -16.4231E+06    -182.526E+06    -10.9530E+06     297.347E+03
            1216     60.6152E-03     7.78502E-03     60.1132E-03     55.0362E-03    -27.4511E-03    -27.5813E-03    -27.3111E-03     54.8301E-03    -27.5152E-03     8.22680E-03     67.5546E-03     149.978E+06    -11.0372E+06    -16.4719E+06    -163.630E+06    -16.3754E+06    -163.620E+06    -11.1444E+06    -239.156E+03
            1217     60.7565E-03     8.75842E-03     60.1219E-03     54.9478E-03    -27.4035E-03    -27.5350E-03    -27.1872E-03     54.6766E-03    -27.4802E-03     9.40459E-03     71.3327E-03     132.347E+06    -9.37055E+06    -15.1180E+06    -144.490E+06    -15.2408E+06    -144.367E+06    -9.37055E+06     3.06698E+06
            1218     60.9156E-03     9.73138E-03     60.1333E-03     54.8536E-03    -27.3844E-03    -27.4740E-03    -27.0276E-03     54.4521E-03    -27.4293E-03     11.4006E-03     76.4941E-03     112.601E+06    -8.73841E+06    -14.4516E+06    -124.066E+06    -14.6464E+06    -123.872E+06    -8.73841E+06     4.45741E+06
            1219     61.0915E-03     10.7059E-03     60.1461E-03     54.9153E-03    -27.3335E-03    -27.6086E-03    -26.9963E-03     54.3126E-03    -27.3432E-03     13.9835E-03     83.1789E-03     79.9282E+06    -11.7432E+06    -16.8542E+06    -94.0765E+06    -15.0004E+06    -93.9894E+06    -13.6840E+06     2.19358E+06
            1220     61.2854E-03     11.6789E-03     60.1623E-03     54.9429E-03    -27.2191E-03    -27.7633E-03    -26.8795E-03     54.0591E-03    -27.2191E-03     16.9272E-03     90.2945E-03     35.0676E+06    -15.2954E+06    -23.1420E+06    -51.8560E+06    -15.3606E+06    -51.7909E+06    -23.1420E+06    -133.839E+03
            1221     61.4976E-03     12.6527E-03     60.1819E-03     55.1737E-03    -27.0861E-03    -28.1181E-03    -26.6794E-03     53.7350E-03    -27.0861E-03     21.5029E-03     101.659E-03     34.7984E+06     6.66552E+06    -21.5758E+06    -32.1517E+06    -15.6923E+06    -612.005E+03    -30.7576E+06    -877.393E+03
            1222     61.7303E-03     13.6265E-03     60.2076E-03     56.0914E-03    -26.9326E-03    -29.1613E-03    -26.3872E-03     53.3173E-03    -26.9326E-03     29.8003E-03     118.832E-03     100.853E+06     72.5397E+06    -16.6033E+06    -36.5117E+06    -16.5526E+06     72.4890E+06    -36.5117E+06    -1.35956E+06
            1223     61.9892E-03     14.6018E-03     60.2449E-03     60.9155E-03    -27.0094E-03    -33.9180E-03    -26.6033E-03     53.6007E-03    -27.0094E-03     49.2561E-03     147.312E-03     147.584E+06     133.131E+06     7.19227E+06    -28.5124E+06    -17.7600E+06     133.105E+06    -3.53428E+06    -854.076E+03
            1224     62.2906E-03     15.5743E-03     60.3122E-03     79.2572E-03    -27.3207E-03    -51.9467E-03    -27.5135E-03     54.8239E-03    -27.3207E-03     99.5787E-03     216.892E-03     160.043E+06     166.483E+06     69.3594E+06    -15.2246E+06    -15.1823E+06     166.441E+06     69.3594E+06     1.97711E+06
            1225     62.6818E-03     16.5494E-03     60.4576E-03     78.9584E-03    -27.5415E-03    -51.4165E-03    -26.5308E-03     54.0728E-03    -27.5415E-03     100.401E-03     247.898E-03     177.795E+06     189.567E+06     132.522E+06    -8.64492E+06    -8.60909E+06     189.531E+06     132.522E+06     1.48946E+06
            1226     61.1481E-03     973.309E-06     61.1404E-03     54.6623E-03    -27.1616E-03    -27.5023E-03    -27.3417E-03     54.6576E-03    -27.3175E-03     1.02479E-03     55.8050E-03     172.814E+06    -23.6006E+06    -26.9960E+06    -198.070E+06    -27.0272E+06    -198.039E+06    -23.6006E+06     2.25947E+06
            1227     61.1722E-03     1.94689E-03     61.1412E-03     54.7774E-03    -27.2852E-03    -27.4939E-03    -27.3905E-03     54.7694E-03    -27.3806E-03     1.58897E-03     56.2241E-03     178.636E+06    -20.1540E+06    -23.2202E+06    -200.287E+06    -23.0816E+06    -200.262E+06    -20.3173E+06     1.21611E+06
            1228     61.2130E-03     2.91978E-03     61.1433E-03     55.0289E-03    -27.4226E-03    -27.6079E-03    -27.5929E-03     55.0138E-03    -27.4226E-03     2.14569E-03     57.2220E-03     179.570E+06    -20.5142E+06    -21.8111E+06    -200.728E+06    -21.6651E+06    -200.711E+06    -20.6774E+06     648.078E+03
            1229     61.2697E-03     3.89238E-03     61.1459E-03     55.2398E-03    -27.4992E-03    -27.7413E-03    -27.7106E-03     55.2092E-03    -27.4992E-03     3.13748E-03     58.5757E-03     181.482E+06    -18.1946E+06    -21.1437E+06    -201.113E+06    -21.1507E+06    -201.106E+06    -18.1946E+06     281.321E+03
            1230     61.3433E-03     4.86552E-03     61.1500E-03     55.2005E-03    -27.5307E-03    -27.6688E-03    -27.5944E-03     55.1446E-03    -27.5492E-03     4.25211E-03     60.0973E-03     183.173E+06    -15.9344E+06    -20.1253E+06    -201.139E+06    -20.1274E+06    -201.137E+06    -15.9344E+06    -139.089E+03
            1231     61.4322E-03     5.83850E-03     61.1541E-03     55.0374E-03    -27.4795E-03    -27.5569E-03    -27.3888E-03     54.9401E-03    -27.5502E-03     5.61392E-03     61.8578E-03     179.720E+06    -13.5742E+06    -18.1778E+06    -195.536E+06    -18.1972E+06    -195.517E+06    -13.5742E+06     1.31800E+06
            1232     61.5391E-03     6.81224E-03     61.1609E-03     55.0511E-03    -27.4682E-03    -27.5828E-03    -27.3764E-03     54.8969E-03    -27.5205E-03     7.08989E-03     64.3682E-03     165.911E+06    -11.7666E+06    -18.0319E+06    -180.713E+06    -18.0805E+06    -180.664E+06    -11.7666E+06     2.04316E+06
            1233     61.6620E-03     7.78527E-03     61.1685E-03     55.0896E-03    -27.4866E-03    -27.6043E-03    -27.3931E-03     54.8784E-03    -27.4866E-03     8.32953E-03     67.6099E-03     147.742E+06    -12.9895E+06    -19.4324E+06    -163.844E+06    -19.4629E+06    -163.814E+06    -12.9895E+06     873.019E+03
            1234     61.8018E-03     8.75807E-03     61.1781E-03     54.9522E-03    -27.4240E-03    -27.5149E-03    -27.2098E-03     54.6696E-03    -27.4465E-03     9.60269E-03     71.3629E-03     131.597E+06    -14.7595E+06    -18.5850E+06    -148.216E+06    -18.5062E+06    -148.163E+06    -14.8912E+06     1.27686E+06
            1235     61.9571E-03     9.73219E-03     61.1880E-03     54.8909E-03    -27.3648E-03    -27.5279E-03    -27.0730E-03     54.4682E-03    -27.3969E-03     11.6992E-03     76.4993E-03     110.444E+06    -12.5014E+06    -15.0986E+06    -124.215E+06    -15.0968E+06    -124.085E+06    -12.6331E+06     2.99908E+06
            1236     62.1311E-03     10.7051E-03     61.2019E-03     54.9528E-03    -27.3111E-03    -27.6695E-03    -27.0475E-03     54.3404E-03    -27.3208E-03     14.1262E-03     83.2152E-03     77.4106E+06    -11.1621E+06    -16.9059E+06    -91.0412E+06    -12.8440E+06    -90.9608E+06    -15.3043E+06     2.01495E+06
            1237     62.3220E-03     11.6789E-03     61.2179E-03     54.9593E-03    -27.2084E-03    -27.7961E-03    -26.9070E-03     54.0702E-03    -27.2084E-03     16.9701E-03     90.3688E-03     35.0157E+06    -13.0951E+06    -24.0319E+06    -50.2846E+06    -13.1011E+06    -50.2786E+06    -24.0319E+06     73.8400E+03
            1238     62.5305E-03     12.6526E-03     61.2371E-03     55.2468E-03    -27.0709E-03    -28.2085E-03    -26.7263E-03     53.7647E-03    -27.0709E-03     21.8296E-03     101.730E-03     37.6169E+06     7.69334E+06    -22.1566E+06    -34.3889E+06    -15.3355E+06    -249.685E+03    -33.2670E+06    -643.733E+03
            1239     62.7606E-03     13.6265E-03     61.2635E-03     56.4019E-03    -26.9359E-03    -29.4685E-03    -26.6906E-03     53.6240E-03    -26.9359E-03     30.0121E-03     119.130E-03     103.332E+06     73.1785E+06    -18.2199E+06    -38.1170E+06    -18.1835E+06     73.1421E+06    -38.1170E+06    -366.286E+03
            1240     63.0143E-03     14.5997E-03     61.2997E-03     61.2562E-03    -27.0289E-03    -34.2413E-03    -26.7494E-03     53.7643E-03    -27.0289E-03     49.8063E-03     147.707E-03     147.615E+06     131.352E+06     2.56266E+06    -28.9449E+06    -20.1456E+06     131.340E+06    -6.22397E+06     676.852E+03
            1241     63.3154E-03     15.5743E-03     61.3700E-03     78.0385E-03    -27.3027E-03    -50.7467E-03    -26.5858E-03     53.8776E-03    -27.3027E-03     98.1295E-03     216.511E-03     159.404E+06     164.030E+06     64.1189E+06    -16.6241E+06    -16.6031E+06     164.009E+06     64.1189E+06     1.22622E+06
            1242     63.6951E-03     16.5531E-03     61.5066E-03     78.8429E-03    -27.5079E-03    -51.3363E-03    -26.3232E-03     53.8298E-03    -27.5079E-03     100.678E-03     247.845E-03     177.694E+06     190.790E+06     132.086E+06    -7.56711E+06    -7.54730E+06     190.771E+06     132.086E+06     872.477E+03
            1243     62.2026E-03     973.658E-06     62.1950E-03     54.6330E-03    -27.2450E-03    -27.3884E-03    -27.3258E-03     54.6309E-03    -27.3055E-03     631.081E-06     55.8512E-03     174.281E+06    -22.9032E+06    -27.5518E+06    -199.455E+06    -25.9495E+06    -199.427E+06    -24.5336E+06     323.337E+03
            1244     62.2276E-03     1.94635E-03     62.1971E-03     54.8784E-03    -27.3724E-03    -27.5069E-03    -27.4793E-03     54.8720E-03    -27.3935E-03     1.40337E-03     56.3172E-03     178.545E+06    -18.6855E+06    -23.1858E+06    -199.424E+06    -23.1961E+06    -199.414E+06    -18.6855E+06     258.122E+03
            1245     62.2670E-03     2.91951E-03     62.1985E-03     54.9239E-03    -27.3763E-03    -27.5496E-03    -27.4696E-03     54.9063E-03    -27.4386E-03     2.30984E-03     57.0410E-03     180.567E+06    -18.5561E+06    -21.2969E+06    -200.460E+06    -21.3110E+06    -200.445E+06    -18.5561E+06     124.761E+03
            1246     62.3238E-03     3.89286E-03     62.2021E-03     54.8987E-03    -27.3784E-03    -27.5206E-03    -27.4186E-03     54.8612E-03    -27.4428E-03     3.47719E-03     58.1500E-03     181.039E+06    -19.6226E+06    -20.1490E+06    -200.924E+06    -20.1594E+06    -200.914E+06    -19.6226E+06     262.587E+03
            1247     62.3951E-03     4.86591E-03     62.2051E-03     54.9835E-03    -27.4242E-03    -27.5584E-03    -27.4608E-03     54.9214E-03    -27.4597E-03     4.49603E-03     59.7775E-03     182.836E+06    -17.2531E+06    -20.1257E+06    -201.491E+06    -20.1298E+06    -201.487E+06    -17.2531E+06     165.359E+03
            1248     62.4834E-03     5.83937E-03     62.2100E-03     55.1181E-03    -27.4669E-03    -27.6581E-03    -27.5459E-03     55.0182E-03    -27.4792E-03     5.70545E-03     61.9015E-03     179.890E+06    -14.8870E+06    -19.6890E+06    -197.125E+06    -19.6997E+06    -197.115E+06    -14.8870E+06     363.786E+03
            1249     62.5878E-03     6.81204E-03     62.2160E-03     55.0735E-03    -27.4607E-03    -27.6154E-03    -27.4488E-03     54.9149E-03    -27.4687E-03     7.18552E-03     64.3800E-03     165.670E+06    -13.3132E+06    -17.2354E+06    -180.903E+06    -16.9406E+06    -180.865E+06    -13.6460E+06     1.38290E+06
            1250     62.7098E-03     7.78528E-03     62.2247E-03     54.9262E-03    -27.4294E-03    -27.5039E-03    -27.2610E-03     54.7062E-03    -27.4522E-03     8.48471E-03     67.4672E-03     150.678E+06    -10.8848E+06    -15.2874E+06    -163.704E+06    -15.0356E+06    -163.623E+06    -11.2175E+06     2.60876E+06
            1251     62.8463E-03     8.75916E-03     62.2329E-03     54.9173E-03    -27.3816E-03    -27.5369E-03    -27.2297E-03     54.6249E-03    -27.3964E-03     9.77367E-03     71.3021E-03     132.399E+06    -13.8125E+06    -17.9239E+06    -148.205E+06    -16.4451E+06    -148.152E+06    -15.3439E+06     1.49463E+06
            1252     63.0000E-03     9.73202E-03     62.2438E-03     54.9946E-03    -27.3324E-03    -27.6723E-03    -27.2263E-03     54.5485E-03    -27.3324E-03     12.0195E-03     76.5235E-03     106.671E+06     -15.698E+06    -19.3526E+06    -124.130E+06    -16.4582E+06    -124.059E+06    -18.6640E+06    -626.985E+03
            1253     63.1712E-03     10.7056E-03     62.2575E-03     54.9545E-03    -27.2806E-03    -27.7090E-03    -27.0640E-03     54.3096E-03    -27.2806E-03     14.5083E-03     83.2082E-03     74.5840E+06    -13.3347E+06    -19.5687E+06    -90.6116E+06    -14.1197E+06    -90.5151E+06    -18.8802E+06     110.191E+03
            1254     63.3588E-03     11.6793E-03     62.2730E-03     54.9343E-03    -27.1834E-03    -27.7988E-03    -26.8828E-03     54.0183E-03    -27.1834E-03     17.2288E-03     90.4055E-03     33.7650E+06    -14.0569E+06    -24.3708E+06    -49.8064E+06    -14.1565E+06    -49.7068E+06    -24.3708E+06     1.17594E+06
            1255     63.5650E-03     12.6530E-03     62.2930E-03     55.2697E-03    -27.0496E-03    -28.2554E-03    -26.7411E-03     53.7555E-03    -27.0496E-03     22.0746E-03     101.642E-03     36.9936E+06     7.17743E+06    -22.6437E+06    -34.0224E+06    -16.5120E+06     367.620E+03    -33.3442E+06     639.363E+03
            1256     63.7909E-03     13.6268E-03     62.3185E-03     56.5254E-03    -26.9077E-03    -29.6217E-03    -26.6324E-03     53.5361E-03    -26.9077E-03     31.0406E-03     119.186E-03     103.607E+06     71.9647E+06    -18.9367E+06    -40.1799E+06    -18.9191E+06     71.9470E+06    -40.1799E+06     1.21125E+06
            1257     64.0440E-03     14.6002E-03     62.3575E-03     61.2554E-03    -26.9897E-03    -34.2766E-03    -26.4296E-03     53.4084E-03    -26.9897E-03     51.0436E-03     147.359E-03     147.746E+06     131.525E+06     3.35889E+06    -29.4538E+06    -18.8961E+06     131.510E+06    -7.18380E+06     1.11726E+06
            1258     64.3363E-03     15.5752E-03     62.4226E-03     77.9518E-03    -27.2864E-03    -50.6754E-03    -27.2014E-03     54.4778E-03    -27.2864E-03     97.4162E-03     216.207E-03     159.593E+06     165.370E+06     65.7967E+06    -15.2743E+06    -15.2735E+06     165.370E+06     65.7967E+06     11.0112E+03
            1259     64.7124E-03     16.5496E-03     62.5604E-03     79.1480E-03    -27.5307E-03    -51.6200E-03    -27.0126E-03     54.5406E-03    -27.5307E-03     100.833E-03     248.306E-03     178.333E+06     190.621E+06     132.203E+06    -8.45963E+06    -8.45573E+06     190.617E+06     132.203E+06     348.207E+03
            1260     63.2587E-03     972.858E-06     63.2513E-03     54.7979E-03    -27.2969E-03    -27.5016E-03    -27.4510E-03     54.7942E-03    -27.3439E-03     1.01480E-03     56.1113E-03     175.334E+06    -20.7576E+06    -28.8204E+06    -199.977E+06    -27.2261E+06    -199.941E+06    -22.3880E+06    -240.103E+03
            1261     63.2819E-03     1.94639E-03     63.2519E-03     54.7798E-03    -27.3321E-03    -27.4483E-03    -27.3303E-03     54.7701E-03    -27.4404E-03     1.67654E-03     56.1630E-03     179.442E+06    -16.3604E+06    -23.4065E+06    -199.207E+06    -23.4133E+06    -199.200E+06    -16.3604E+06    -352.289E+03
            1262     63.3219E-03     2.91968E-03     63.2545E-03     54.6880E-03    -27.2807E-03    -27.4089E-03    -27.2616E-03     54.6689E-03    -27.4089E-03     2.48217E-03     56.7747E-03     182.433E+06    -16.0720E+06    -19.1792E+06    -200.021E+06    -19.1848E+06    -200.015E+06    -16.0720E+06    -119.788E+03
            1263     63.3762E-03     3.89313E-03     63.2565E-03     54.6588E-03    -27.2821E-03    -27.3771E-03    -27.2459E-03     54.6227E-03    -27.3771E-03     3.37767E-03     57.8554E-03     184.091E+06    -16.3927E+06    -18.2821E+06    -201.409E+06    -18.2858E+06    -201.405E+06    -16.3927E+06     158.965E+03
            1264     63.4478E-03     4.86688E-03     63.2609E-03     54.8762E-03    -27.3581E-03    -27.5181E-03    -27.4283E-03     54.8147E-03    -27.3864E-03     4.47897E-03     59.6110E-03     185.623E+06    -14.1938E+06    -18.5738E+06    -201.952E+06    -18.5846E+06    -201.941E+06    -14.1938E+06     1.20773E+06
            1265     63.5343E-03     5.83942E-03     63.2654E-03     55.0642E-03    -27.4037E-03    -27.6674E-03    -27.5658E-03     54.9626E-03    -27.4037E-03     5.73845E-03     61.8288E-03     179.400E+06    -14.4404E+06    -19.0768E+06    -196.107E+06    -19.0883E+06    -196.096E+06    -14.4404E+06     592.533E+03
            1266     63.6378E-03     6.81258E-03     63.2721E-03     54.9476E-03    -27.3805E-03    -27.5653E-03    -27.3942E-03     54.7845E-03    -27.3885E-03     7.28709E-03     64.1987E-03     163.471E+06    -17.0286E+06    -19.4318E+06    -181.685E+06    -19.1016E+06    -181.682E+06    -17.3614E+06    -164.815E+03
            1267     63.7565E-03     7.78623E-03     63.2793E-03     54.8716E-03    -27.3617E-03    -27.5119E-03    -27.2663E-03     54.6488E-03    -27.3845E-03     8.53785E-03     67.3617E-03     150.597E+06    -14.0694E+06    -17.5548E+06    -166.357E+06    -17.2744E+06    -166.304E+06    -14.4021E+06     1.41606E+06
            1268     63.8922E-03     8.75935E-03     63.2889E-03     54.9465E-03    -27.3470E-03    -27.5929E-03    -27.2883E-03     54.6567E-03    -27.3618E-03     9.73886E-03     71.3231E-03     132.557E+06    -10.0164E+06    -15.9273E+06    -145.422E+06    -14.5806E+06    -145.369E+06    -11.4161E+06     1.55882E+06
            1269     64.0431E-03     9.73272E-03     63.2993E-03     54.9293E-03    -27.3068E-03    -27.6301E-03    -27.1935E-03     54.4926E-03    -27.3068E-03     11.8815E-03     76.4612E-03     107.535E+06    -12.0566E+06    -17.5871E+06    -122.249E+06    -14.8298E+06    -122.172E+06    -14.8909E+06    -310.674E+03
            1270     64.2116E-03     10.7062E-03     63.3127E-03     54.9280E-03    -27.2498E-03    -27.7219E-03    -27.0763E-03     54.2824E-03    -27.2498E-03     14.5031E-03     83.1313E-03     74.8648E+06    -16.1168E+06    -20.0475E+06    -92.8621E+06    -17.3513E+06    -92.7609E+06    -18.9142E+06    -202.071E+03
            1271     64.3969E-03     11.6795E-03     63.3289E-03     54.9537E-03    -27.1600E-03    -27.8408E-03    -26.9396E-03     54.0524E-03    -27.1600E-03     17.1162E-03     90.3904E-03     30.9812E+06    -18.0024E+06    -23.6393E+06    -50.0181E+06    -18.1501E+06    -49.8704E+06    -23.6393E+06     1.12695E+06
            1272     64.5993E-03     12.6535E-03     63.3479E-03     55.2566E-03    -27.0391E-03    -28.2508E-03    -26.7400E-03     53.7459E-03    -27.0391E-03     22.0012E-03     101.616E-03     34.0854E+06     5.90573E+06    -22.1598E+06    -31.9718E+06    -17.9865E+06     797.781E+03    -31.0371E+06     1.44201E+06
            1273     64.8232E-03     13.6271E-03     63.3747E-03     56.0792E-03    -26.8828E-03    -29.2015E-03    -26.2866E-03     53.1643E-03    -26.8828E-03     30.5493E-03     118.931E-03     101.708E+06     71.5047E+06    -18.3580E+06    -38.5865E+06    -18.3151E+06     71.4619E+06    -38.5865E+06     599.561E+03
            1274     65.0711E-03     14.6029E-03     63.4114E-03     60.7184E-03    -26.9446E-03    -33.7827E-03    -26.1521E-03     53.0878E-03    -26.9446E-03     50.0780E-03     147.000E-03     146.749E+06     132.346E+06     6.39569E+06    -28.2317E+06    -16.8585E+06     132.324E+06    -4.95554E+06    -151.805E+03
            1275     65.3627E-03     15.5771E-03     63.4794E-03     78.6956E-03    -27.2719E-03    -51.4326E-03    -28.2395E-03     55.5025E-03    -27.2719E-03     97.7481E-03     216.454E-03     159.534E+06     166.810E+06     68.8888E+06    -13.9712E+06    -13.9693E+06     166.808E+06     68.8888E+06     164.356E+03
            1276     65.7352E-03     16.5492E-03     63.6179E-03     79.1047E-03    -27.5472E-03    -51.5597E-03    -27.3821E-03     54.9272E-03    -27.5472E-03     100.243E-03     248.013E-03     178.728E+06     190.350E+06     131.666E+06    -9.36808E+06    -9.35752E+06     190.340E+06     131.666E+06     1.02539E+06
            1277     64.3138E-03     973.480E-06     64.3064E-03     54.5983E-03    -27.2059E-03    -27.3929E-03    -27.3367E-03     54.5942E-03    -27.2580E-03     992.000E-06     55.9533E-03     175.181E+06    -19.7684E+06    -26.8638E+06    -198.369E+06    -24.6755E+06    -198.320E+06    -22.0057E+06     1.27647E+06
            1278     64.3368E-03     1.94656E-03     64.3074E-03     54.5502E-03    -27.2161E-03    -27.3353E-03    -27.2152E-03     54.5396E-03    -27.3256E-03     1.77878E-03     55.9454E-03     179.838E+06    -16.9862E+06    -22.6204E+06    -199.553E+06    -22.0574E+06    -199.547E+06    -17.5555E+06    -893.425E+03
            1279     64.3756E-03     2.92009E-03     64.3094E-03     54.6022E-03    -27.2277E-03    -27.3759E-03    -27.2683E-03     54.5827E-03    -27.3157E-03     2.51776E-03     56.7101E-03     182.461E+06    -16.5667E+06    -20.5922E+06    -200.996E+06    -20.5951E+06    -200.993E+06    -16.5667E+06     116.475E+03
            1280     64.4296E-03     3.89347E-03     64.3118E-03     54.7225E-03    -27.3000E-03    -27.4230E-03    -27.3608E-03     54.6907E-03    -27.3305E-03     3.19007E-03     58.0232E-03     184.004E+06    -15.7375E+06    -20.3694E+06    -202.003E+06    -20.3806E+06    -201.991E+06    -15.7375E+06     1.09649E+06
            1281     64.4997E-03     4.86643E-03     64.3159E-03     54.7199E-03    -27.2858E-03    -27.4374E-03    -27.3128E-03     54.6596E-03    -27.3501E-03     4.37725E-03     59.5318E-03     185.353E+06    -14.4471E+06    -19.9140E+06    -202.465E+06    -19.9327E+06    -202.446E+06    -14.4471E+06     1.60145E+06
            1282     64.5859E-03     5.84009E-03     64.3213E-03     54.7703E-03    -27.2849E-03    -27.4888E-03    -27.3282E-03     54.6692E-03    -27.3444E-03     5.72157E-03     61.4881E-03     178.629E+06    -13.9636E+06    -18.9738E+06    -195.032E+06    -18.9862E+06    -195.020E+06    -13.9636E+06     1.26724E+06
            1283     64.6868E-03     6.81344E-03     64.3270E-03     54.8946E-03    -27.3350E-03    -27.5564E-03    -27.4069E-03     54.7451E-03    -27.3350E-03     6.98124E-03     64.1018E-03     165.122E+06    -14.4743E+06    -19.9504E+06    -182.235E+06    -19.9766E+06    -182.209E+06    -14.4743E+06     1.36203E+06
            1284     64.8045E-03     7.78637E-03     64.3350E-03     54.9369E-03    -27.3331E-03    -27.6013E-03    -27.3827E-03     54.7183E-03    -27.3331E-03     8.44204E-03     67.3626E-03     149.066E+06    -14.3829E+06    -20.9824E+06    -166.609E+06    -21.0144E+06    -166.577E+06    -14.3829E+06     348.837E+03
            1285     64.9377E-03     8.75948E-03     64.3442E-03     54.8617E-03    -27.3151E-03    -27.5237E-03    -27.2321E-03     54.5701E-03    -27.3151E-03     9.76939E-03     71.1185E-03     127.916E+06    -13.1026E+06    -19.6068E+06    -144.146E+06    -19.6180E+06    -144.135E+06    -13.1026E+06    -687.578E+03
            1286     65.0865E-03     9.73300E-03     64.3547E-03     54.8729E-03    -27.2782E-03    -27.5872E-03    -27.1583E-03     54.4440E-03    -27.2782E-03     11.7694E-03     76.3136E-03     106.625E+06    -13.6452E+06    -18.3212E+06    -122.529E+06    -17.6117E+06    -122.506E+06    -14.3773E+06     846.967E+03
            1287     65.2525E-03     10.7064E-03     64.3681E-03     54.9301E-03    -27.2199E-03    -27.7507E-03    -27.1124E-03     54.2917E-03    -27.2199E-03     14.4240E-03     83.0520E-03     75.3757E+06    -15.3403E+06    -19.8854E+06    -92.8567E+06    -16.5006E+06    -92.8297E+06    -18.7520E+06     502.262E+03
            1288     65.4353E-03     11.6800E-03     64.3844E-03     54.9904E-03    -27.1364E-03    -27.9014E-03    -27.0033E-03     54.0923E-03    -27.1364E-03     17.0947E-03     90.2978E-03     32.8319E+06    -16.4484E+06    -23.8400E+06    -51.1576E+06    -16.5423E+06    -51.0637E+06    -23.8400E+06     292.391E+03
            1289     65.6346E-03     12.6533E-03     64.4034E-03     55.2536E-03    -27.0192E-03    -28.2628E-03    -26.7708E-03     53.7617E-03    -27.0192E-03     21.8770E-03     101.530E-03     36.1017E+06     7.60272E+06    -21.9054E+06    -32.6482E+06    -17.2588E+06     1.31258E+06    -31.0046E+06     1.39309E+06
            1290     65.8554E-03     13.6275E-03     64.4300E-03     56.1421E-03    -26.8791E-03    -29.2685E-03    -26.4787E-03     53.3523E-03    -26.8791E-03     30.0056E-03     118.695E-03     102.596E+06     73.7260E+06    -18.1332E+06    -36.6060E+06    -18.0992E+06     73.6920E+06    -36.6060E+06    -112.667E+03
            1291     66.0986E-03     14.6008E-03     64.4658E-03     60.7341E-03    -26.9520E-03    -33.7887E-03    -26.3627E-03     53.3081E-03    -26.9520E-03     49.3472E-03     147.355E-03     146.418E+06     131.148E+06     4.35564E+06    -28.3632E+06    -18.9767E+06     131.135E+06    -5.01797E+06    -970.261E+03
            1292     66.3883E-03     15.5756E-03     64.5353E-03     78.8981E-03    -27.2520E-03    -51.6514E-03    -27.6116E-03     54.8583E-03    -27.2520E-03     98.9839E-03     216.549E-03     159.320E+06     164.938E+06     66.1081E+06    -15.7641E+06    -15.7529E+06     164.927E+06     66.1081E+06     711.823E+03
            1293     66.7602E-03     16.5495E-03     64.6765E-03     78.7385E-03    -27.4993E-03    -51.2408E-03    -26.9450E-03     54.4428E-03    -27.4993E-03     99.3864E-03     246.625E-03     178.655E+06     191.408E+06     131.216E+06    -8.50826E+06    -8.48829E+06     191.388E+06     131.216E+06     1.62581E+06
            1294     65.3685E-03     973.385E-06     65.3613E-03     54.3016E-03    -27.0923E-03    -27.2092E-03    -27.1075E-03     54.2990E-03    -27.1914E-03     664.781E-06     55.5770E-03     175.028E+06    -20.4853E+06    -23.4826E+06    -196.981E+06    -21.3506E+06    -196.876E+06    -22.7226E+06     31.1983E+03
            1295     65.3915E-03     1.94704E-03     65.3626E-03     54.4791E-03    -27.1858E-03    -27.2938E-03    -27.2640E-03     54.4715E-03    -27.2080E-03     1.53541E-03     55.9278E-03     179.724E+06    -18.7237E+06    -23.1180E+06    -200.596E+06    -22.5736E+06    -200.571E+06    -19.2930E+06     1.04729E+06
            1296     65.4293E-03     2.92042E-03     65.3641E-03     54.6295E-03    -27.2309E-03    -27.3994E-03    -27.3421E-03     54.6125E-03    -27.2712E-03     2.29405E-03     56.7767E-03     182.017E+06    -16.8878E+06    -23.2200E+06    -201.988E+06    -23.2326E+06    -201.975E+06    -16.8878E+06     1.24711E+06
            1297     65.4835E-03     3.89327E-03     65.3677E-03     54.6614E-03    -27.2686E-03    -27.3932E-03    -27.3295E-03     54.6297E-03    -27.3006E-03     3.19625E-03     58.0381E-03     183.676E+06    -17.1088E+06    -21.8718E+06    -203.108E+06    -21.8901E+06    -203.090E+06    -17.1088E+06     1.55979E+06
            1298     65.5516E-03     4.86668E-03     65.3707E-03     54.6404E-03    -27.2442E-03    -27.3990E-03    -27.2642E-03     54.5790E-03    -27.3176E-03     4.40435E-03     59.4729E-03     184.785E+06    -14.9373E+06    -19.7670E+06    -202.059E+06    -19.7807E+06    -202.045E+06    -14.9373E+06     1.33637E+06
            1299     65.6364E-03     5.84031E-03     65.3761E-03     54.7209E-03    -27.2718E-03    -27.4515E-03    -27.2941E-03     54.6228E-03    -27.3313E-03     5.65342E-03     61.4095E-03     181.003E+06    -10.6571E+06    -18.3931E+06    -195.378E+06    -18.4066E+06    -195.365E+06    -10.6571E+06     1.49224E+06
            1300     65.7368E-03     6.81339E-03     65.3828E-03     54.8592E-03    -27.3309E-03    -27.5186E-03    -27.3773E-03     54.7179E-03    -27.3309E-03     6.78346E-03     64.1179E-03     171.082E+06    -8.25614E+06    -16.1407E+06    -183.122E+06    -16.1737E+06    -183.089E+06    -8.25614E+06     1.67055E+06
            1301     65.8523E-03     7.78662E-03     65.3903E-03     54.8404E-03    -27.3098E-03    -27.5133E-03    -27.2960E-03     54.6231E-03    -27.3098E-03     8.39790E-03     67.2538E-03     152.751E+06    -8.63676E+06    -14.5737E+06    -164.247E+06    -14.6398E+06    -164.180E+06    -8.63676E+06     1.34913E+06
            1302     65.9838E-03     8.76014E-03     65.3997E-03     54.8177E-03    -27.2746E-03    -27.5154E-03    -27.2212E-03     54.5236E-03    -27.2746E-03     9.81197E-03     71.0133E-03     129.842E+06    -12.1024E+06    -16.7322E+06    -144.191E+06    -16.7849E+06    -144.139E+06    -12.1024E+06     851.354E+03
            1303     66.1300E-03     9.73338E-03     65.4098E-03     54.8885E-03    -27.2254E-03    -27.6579E-03    -27.2195E-03     54.4500E-03    -27.2254E-03     11.8944E-03     76.1966E-03     104.792E+06    -15.9824E+06    -19.8324E+06    -122.643E+06    -18.1173E+06    -122.566E+06    -17.7749E+06    -613.705E+03
            1304     66.2943E-03     10.7067E-03     65.4240E-03     54.9067E-03    -27.1744E-03    -27.7704E-03    -27.1267E-03     54.2630E-03    -27.1744E-03     14.4964E-03     82.8920E-03     73.2062E+06    -16.6785E+06    -21.4287E+06    -92.1138E+06    -16.7503E+06     -92.042E+06    -21.4287E+06    -1.00207E+06
            1305     66.4736E-03     11.6802E-03     65.4394E-03     54.9506E-03    -27.1010E-03    -27.8934E-03    -26.9769E-03     54.0341E-03    -27.1010E-03     17.2432E-03     90.0146E-03     35.6904E+06    -15.6548E+06    -25.0681E+06    -53.2726E+06    -15.7022E+06    -52.8658E+06    -25.4275E+06     174.852E+03
            1306     66.6714E-03     12.6538E-03     65.4596E-03     55.2734E-03    -26.9810E-03    -28.3156E-03    -26.8176E-03     53.7754E-03    -26.9810E-03     21.9805E-03     101.343E-03     38.5003E+06     9.03318E+06    -22.3561E+06    -33.8297E+06    -15.9400E+06     1.59235E+06    -32.8050E+06     383.473E+03
            1307     66.8873E-03     13.6276E-03     65.4844E-03     56.3667E-03    -26.8559E-03    -29.5146E-03    -26.6210E-03     53.4731E-03    -26.8559E-03     30.5358E-03     118.453E-03     104.008E+06     74.9146E+06    -17.2430E+06    -37.3978E+06    -17.2149E+06     74.8865E+06    -37.3978E+06     852.697E+03
            1308     67.1306E-03     14.6014E-03     65.5234E-03     61.1086E-03    -26.9437E-03    -34.1729E-03    -26.5497E-03     53.4854E-03    -26.9437E-03     50.2994E-03     146.763E-03     147.361E+06     130.970E+06     4.03561E+06    -29.9150E+06    -19.8132E+06     130.934E+06    -6.02972E+06     1.41482E+06
            1309     67.4123E-03     15.5759E-03     65.5881E-03     78.6201E-03    -27.2343E-03    -51.3930E-03    -27.1335E-03     54.3606E-03    -27.2343E-03     98.9947E-03     216.419E-03     159.803E+06     164.112E+06     64.3839E+06    -17.3513E+06    -17.3273E+06     164.088E+06     64.3839E+06     969.911E+03
            1310     67.7848E-03     16.5541E-03     65.7324E-03     78.0133E-03    -27.4602E-03    -50.5537E-03    -26.5710E-03     54.0306E-03    -27.4602E-03     97.7943E-03     246.391E-03     179.077E+06     191.506E+06     130.302E+06    -8.99648E+06    -8.98254E+06     191.492E+06     130.302E+06     56.0387E+03
            1311     66.4232E-03     973.699E-06     66.4161E-03     54.2674E-03    -27.0224E-03    -27.2445E-03    -27.0848E-03     54.2653E-03    -27.1800E-03     647.286E-06     55.4780E-03     175.169E+06    -22.4316E+06    -26.3725E+06    -199.484E+06    -26.4690E+06    -199.388E+06    -22.4316E+06     243.091E+03
            1312     66.4459E-03     1.94692E-03     66.4173E-03     54.5672E-03    -27.2124E-03    -27.3550E-03    -27.3377E-03     54.5600E-03    -27.2225E-03     1.47975E-03     55.9942E-03     180.577E+06    -18.3732E+06    -23.8549E+06    -201.582E+06    -23.8462E+06    -201.551E+06    -18.4129E+06     2.02855E+06
            1313     66.4839E-03     2.91973E-03     66.4198E-03     54.5770E-03    -27.2327E-03    -27.3457E-03    -27.2846E-03     54.5608E-03    -27.2777E-03     2.24404E-03     56.7071E-03     182.690E+06    -17.2613E+06    -21.1518E+06    -201.849E+06    -21.1332E+06    -201.828E+06    -17.3010E+06     1.89900E+06
            1314     66.5362E-03     3.89367E-03     66.4221E-03     54.5531E-03    -27.2412E-03    -27.3115E-03    -27.2327E-03     54.5230E-03    -27.2900E-03     3.09920E-03     57.8365E-03     184.992E+06    -15.9726E+06    -19.8927E+06     -202.88E+06    -19.9054E+06    -202.867E+06    -15.9726E+06     1.34660E+06
            1315     66.6042E-03     4.86718E-03     66.4261E-03     54.6841E-03    -27.2890E-03    -27.3922E-03    -27.3221E-03     54.6279E-03    -27.3030E-03     4.22736E-03     59.4348E-03     185.167E+06    -14.1720E+06    -19.4032E+06    -201.870E+06    -19.4092E+06    -201.864E+06    -14.1720E+06     771.543E+03
            1316     66.6875E-03     5.83993E-03     66.4313E-03     54.7177E-03    -27.3049E-03    -27.4110E-03    -27.2910E-03     54.6177E-03    -27.3249E-03     5.67548E-03     61.3875E-03     182.521E+06    -10.1970E+06    -17.5990E+06    -196.282E+06    -17.6080E+06    -196.273E+06    -10.1970E+06     841.164E+03
            1317     66.7864E-03     6.81348E-03     66.4379E-03     54.6874E-03    -27.2875E-03    -27.3813E-03    -27.2088E-03     54.5349E-03    -27.3075E-03     7.03724E-03     63.9339E-03     171.026E+06    -8.98892E+06    -15.2996E+06    -183.064E+06    -15.3075E+06    -183.057E+06    -8.98892E+06     536.999E+03
            1318     66.9003E-03     7.78700E-03     66.4455E-03     54.7444E-03    -27.2767E-03    -27.4464E-03    -27.2317E-03     54.5297E-03    -27.2767E-03     8.35910E-03     67.1379E-03     153.473E+06    -9.35648E+06    -14.0468E+06    -165.114E+06    -14.0901E+06    -165.070E+06    -9.35648E+06     1.65104E+06
            1319     67.0298E-03     8.76040E-03     66.4549E-03     54.7785E-03    -27.2531E-03    -27.4970E-03    -27.2069E-03     54.4884E-03    -27.2531E-03     9.72826E-03     71.0358E-03     133.295E+06    -8.04025E+06    -12.4912E+06    -143.501E+06    -12.5418E+06    -143.451E+06    -8.04025E+06     2.25535E+06
            1320     67.1747E-03     9.73363E-03     66.4657E-03     54.8077E-03    -27.2006E-03    -27.5993E-03    -27.1581E-03     54.3665E-03    -27.2006E-03     11.9288E-03     76.1990E-03     107.822E+06    -9.97761E+06    -14.3312E+06    -119.907E+06    -12.2599E+06    -119.827E+06    -12.1291E+06    -122.427E+03
            1321     67.3356E-03     10.7072E-03     66.4789E-03     54.8795E-03    -27.1426E-03    -27.7717E-03    -27.1038E-03     54.2116E-03    -27.1426E-03     14.7415E-03     82.8705E-03     76.3609E+06    -14.5557E+06    -19.0211E+06    -93.0426E+06    -14.6288E+06    -92.9695E+06    -19.0211E+06    -714.566E+03
            1322     67.5136E-03     11.6805E-03     66.4955E-03     54.8684E-03    -27.0578E-03    -27.8523E-03    -26.9152E-03     53.9314E-03    -27.0578E-03     17.4449E-03     89.9225E-03     36.3432E+06    -16.0567E+06    -25.1956E+06    -53.7322E+06    -16.0797E+06    -53.3497E+06    -25.5550E+06    -328.669E+03
            1323     67.7072E-03     12.6544E-03     66.5141E-03     55.2369E-03    -26.9314E-03    -28.3325E-03    -26.7575E-03     53.6619E-03    -26.9314E-03     22.4518E-03     101.224E-03     37.8537E+06     7.87482E+06    -23.3483E+06    -34.0142E+06    -16.5396E+06     903.354E+03    -33.8514E+06    -206.227E+03
            1324     67.9226E-03     13.6278E-03     66.5414E-03     56.2339E-03    -26.8077E-03    -29.4295E-03    -26.5029E-03     53.3073E-03    -26.8077E-03     30.7671E-03     118.564E-03     103.352E+06     73.1385E+06    -18.3586E+06    -38.4728E+06    -18.3221E+06     73.1020E+06    -38.4728E+06     1.55980E+06
            1325     68.1593E-03     14.6028E-03     66.5766E-03     61.1509E-03    -26.8966E-03    -34.2654E-03    -26.5135E-03     53.3990E-03    -26.8966E-03     50.6141E-03     146.394E-03     146.857E+06     132.069E+06     4.75715E+06    -27.9616E+06    -17.9337E+06     132.012E+06    -5.21346E+06     2.85623E+06
            1326     68.4427E-03     15.5764E-03     66.6467E-03     78.6351E-03    -27.2054E-03    -51.4407E-03    -27.5576E-03     54.7520E-03    -27.2054E-03     98.6777E-03     216.629E-03     159.891E+06     165.209E+06     65.7999E+06    -15.9663E+06    -15.9378E+06     165.181E+06     65.7999E+06     1.08344E+06
            1327     68.8026E-03     16.5487E-03     66.7828E-03     78.2204E-03    -27.4580E-03    -50.7635E-03    -26.9160E-03     54.3729E-03    -27.4580E-03     98.1847E-03     247.999E-03     179.857E+06     191.336E+06     130.728E+06    -9.96381E+06    -9.95681E+06     191.329E+06     130.728E+06    -1.00028E+06
            1328     67.4782E-03     973.493E-06     67.4711E-03     54.4876E-03    -27.0072E-03    -27.4795E-03    -27.3104E-03     54.4858E-03    -27.1745E-03     676.247E-06     55.7380E-03     175.847E+06    -22.7570E+06    -27.3775E+06    -200.822E+06    -27.3957E+06    -200.803E+06    -22.7570E+06     804.010E+03
            1329     67.5008E-03     1.94649E-03     67.4728E-03     54.4976E-03    -27.1564E-03    -27.3408E-03    -27.2040E-03     54.4888E-03    -27.2844E-03     1.58637E-03     55.8809E-03     181.355E+06    -17.2398E+06    -21.9327E+06    -200.849E+06    -21.9027E+06    -200.839E+06    -17.2795E+06     543.046E+03
            1330     67.5377E-03     2.92048E-03     67.4745E-03     54.5512E-03    -27.2265E-03    -27.3260E-03    -27.2688E-03     54.5351E-03    -27.2675E-03     2.28276E-03     56.6617E-03     183.382E+06    -18.8344E+06    -21.1783E+06    -203.373E+06    -20.0806E+06    -203.359E+06    -19.9456E+06     1.40676E+06
            1331     67.5896E-03     3.89342E-03     67.4773E-03     54.6353E-03    -27.2660E-03    -27.3699E-03    -27.3165E-03     54.6059E-03    -27.2900E-03     3.01772E-03     57.9217E-03     184.688E+06    -16.1615E+06    -20.5202E+06    -202.986E+06    -19.4622E+06    -202.973E+06    -17.2330E+06     1.55631E+06
            1332     67.6565E-03     4.86645E-03     67.4813E-03     54.6168E-03    -27.2618E-03    -27.3529E-03    -27.2459E-03     54.5605E-03    -27.3125E-03     4.24241E-03     59.4189E-03     185.427E+06    -13.6343E+06    -18.7801E+06    -201.578E+06    -18.8024E+06    -201.556E+06    -13.6343E+06     1.62103E+06
            1333     67.7386E-03     5.84036E-03     67.4864E-03     54.5544E-03    -27.2341E-03    -27.3196E-03    -27.1544E-03     54.4559E-03    -27.3008E-03     5.61619E-03     61.2608E-03     180.069E+06    -13.0439E+06    -19.0705E+06    -196.036E+06    -19.0848E+06    -196.021E+06    -13.0439E+06     820.483E+03
            1334     67.8358E-03     6.81392E-03     67.4927E-03     54.5907E-03    -27.2587E-03    -27.3263E-03    -27.1502E-03     54.4378E-03    -27.2819E-03     7.03900E-03     63.8403E-03     167.914E+06    -10.5774E+06    -18.7115E+06    -182.396E+06    -18.7162E+06    -182.391E+06    -10.5774E+06    -141.130E+03
            1335     67.9486E-03     7.78721E-03     67.5009E-03     54.6688E-03    -27.2531E-03    -27.4065E-03    -27.1899E-03     54.4523E-03    -27.2531E-03     8.38714E-03     67.1190E-03     154.218E+06    -10.0084E+06    -16.0325E+06    -167.120E+06    -16.0552E+06    -167.098E+06    -10.0084E+06    -259.615E+03
            1336     68.0761E-03     8.76035E-03     67.5101E-03     54.6371E-03    -27.2071E-03    -27.4017E-03    -27.1052E-03     54.3406E-03    -27.2071E-03     9.81646E-03     70.8921E-03     131.764E+06    -10.0325E+06    -13.1044E+06    -143.288E+06    -12.9545E+06    -143.263E+06    -10.2069E+06     454.457E+03
            1337     68.2189E-03     9.73427E-03     67.5208E-03     54.6601E-03    -27.1656E-03    -27.4876E-03    -27.0463E-03     54.2189E-03    -27.1656E-03     11.9286E-03     76.1267E-03     107.335E+06    -9.91599E+06    -13.4653E+06    -118.971E+06    -12.2251E+06    -118.945E+06    -11.1816E+06     1.48984E+06
            1338     68.3781E-03     10.7077E-03     67.5345E-03     54.7500E-03    -27.1077E-03    -27.6757E-03    -27.0158E-03     54.0900E-03    -27.1077E-03     14.6296E-03     82.8228E-03     78.4187E+06    -12.1706E+06    -17.7659E+06    -93.1552E+06    -13.0924E+06    -93.1248E+06    -16.8744E+06     1.26443E+06
            1339     68.5532E-03     11.6815E-03     67.5506E-03     54.8109E-03    -27.0215E-03    -27.8343E-03    -26.9173E-03     53.8940E-03    -27.0215E-03     17.2594E-03     90.0971E-03     35.0383E+06    -14.8499E+06    -23.4568E+06    -51.9148E+06    -14.8805E+06    -51.8841E+06    -23.4568E+06     134.364E+03
            1340     68.7444E-03     12.6550E-03     67.5696E-03     55.0375E-03    -26.8967E-03    -28.1734E-03    -26.6361E-03     53.5002E-03    -26.8967E-03     22.1147E-03     101.251E-03     35.6275E+06     5.56546E+06    -22.4086E+06    -34.3533E+06    -17.4208E+06    -623.626E+03    -33.1520E+06     361.520E+03
            1341     68.9567E-03     13.6295E-03     67.5963E-03     56.1527E-03    -26.7618E-03    -29.3944E-03    -26.4959E-03     53.2543E-03    -26.7618E-03     30.6034E-03     118.904E-03     102.175E+06     71.5141E+06    -18.8541E+06    -38.6140E+06    -18.8332E+06     71.4932E+06    -38.6140E+06     1.17516E+06
            1342     69.1910E-03     14.6026E-03     67.6325E-03     60.9227E-03    -26.8486E-03    -34.0824E-03    -26.3734E-03     53.2136E-03    -26.8486E-03     50.3072E-03     147.114E-03     146.106E+06     131.752E+06     3.96796E+06    -26.8922E+06    -17.8536E+06     131.730E+06    -5.04856E+06     1.38968E+06
            1343     69.4706E-03     15.5780E-03     67.7014E-03     78.6428E-03    -27.1493E-03    -51.5004E-03    -27.3080E-03     54.4504E-03    -27.1493E-03     99.2048E-03     216.303E-03     159.697E+06     166.669E+06     67.0138E+06    -14.0951E+06    -14.0761E+06     166.650E+06     67.0138E+06     1.26161E+06
            1344     69.8311E-03     16.5545E-03     67.8404E-03     79.1205E-03    -27.4142E-03    -51.7059E-03    -27.5145E-03     54.9291E-03    -27.4142E-03     99.4134E-03     247.942E-03     180.160E+06     193.090E+06     132.376E+06    -8.56002E+06    -8.55226E+06     193.082E+06     132.376E+06     235.471E+03
            1345     68.5336E-03     972.734E-06     68.5267E-03     54.4707E-03    -26.9343E-03    -27.5358E-03    -27.2741E-03     54.4678E-03    -27.1932E-03     852.638E-06     55.7042E-03     177.404E+06    -20.0748E+06    -23.4863E+06    -199.159E+06    -21.5170E+06    -199.157E+06    -22.0467E+06    -263.314E+03
            1346     68.5547E-03     1.94704E-03     68.5270E-03     54.5076E-03    -27.1414E-03    -27.3659E-03    -27.2385E-03     54.4980E-03    -27.2593E-03     1.69229E-03     55.9379E-03     181.400E+06    -19.8343E+06    -22.6211E+06    -202.611E+06    -21.7134E+06    -202.608E+06    -20.7447E+06    -206.064E+03
            1347     68.5922E-03     2.91991E-03     68.5300E-03     54.5817E-03    -27.2427E-03    -27.3404E-03    -27.2967E-03     54.5646E-03    -27.2693E-03     2.33857E-03     56.7057E-03     183.452E+06    -19.7437E+06    -22.0401E+06    -204.329E+06    -20.9725E+06    -204.325E+06    -20.8152E+06     626.452E+03
            1348     68.6428E-03     3.89331E-03     68.5323E-03     54.5954E-03    -27.2544E-03    -27.3424E-03    -27.2809E-03     54.5635E-03    -27.2840E-03     3.14677E-03     57.9555E-03     184.031E+06    -18.4660E+06    -21.5633E+06    -204.021E+06    -20.5114E+06    -204.001E+06    -19.5375E+06     1.59972E+06
            1349     68.7090E-03     4.86705E-03     68.5364E-03     54.5483E-03    -27.2388E-03    -27.3104E-03    -27.1819E-03     54.4914E-03    -27.3104E-03     4.27810E-03     59.4531E-03     186.464E+06    -13.4095E+06    -19.9208E+06    -203.019E+06    -19.9627E+06    -202.977E+06    -13.4095E+06     2.72674E+06
            1350     68.7894E-03     5.84025E-03     68.5410E-03     54.5762E-03    -27.2457E-03    -27.3306E-03    -27.1764E-03     54.4795E-03    -27.3033E-03     5.56797E-03     61.3079E-03     180.033E+06    -9.87613E+06    -18.6938E+06    -194.145E+06    -18.7223E+06    -194.116E+06    -9.87613E+06     1.92735E+06
            1351     68.8859E-03     6.81362E-03     68.5481E-03     54.5719E-03    -27.2503E-03    -27.3203E-03    -27.1468E-03     54.4228E-03    -27.2748E-03     6.95228E-03     63.8190E-03     167.211E+06    -9.38421E+06    -17.4682E+06    -180.477E+06    -17.4832E+06    -180.462E+06    -9.38421E+06    -558.899E+03
            1352     68.9967E-03     7.78719E-03     68.5558E-03     54.4869E-03    -27.2055E-03    -27.2825E-03    -27.0368E-03     54.2718E-03    -27.2361E-03     8.33670E-03     66.9487E-03     153.670E+06    -10.9785E+06    -16.7798E+06    -167.434E+06    -16.8019E+06    -167.412E+06    -10.9785E+06    -1.56506E+06
            1353     69.1227E-03     8.76113E-03     68.5652E-03     54.4987E-03    -27.1616E-03    -27.3176E-03    -27.0143E-03     54.2048E-03    -27.1710E-03     9.76794E-03     70.7411E-03     129.293E+06    -14.0021E+06    -16.6252E+06    -144.569E+06    -16.4689E+06    -144.551E+06    -14.1766E+06    -428.421E+03
            1354     69.2633E-03     9.73427E-03     68.5759E-03     54.6306E-03    -27.1367E-03    -27.4936E-03    -27.0612E-03     54.1982E-03    -27.1367E-03     11.8067E-03     76.1343E-03     105.358E+06    -13.3474E+06    -15.8590E+06    -119.933E+06    -15.7083E+06    -119.909E+06    -13.5219E+06     1.02324E+06
            1355     69.4205E-03     10.7079E-03     68.5896E-03     54.6717E-03    -27.0863E-03    -27.6233E-03    -26.9973E-03     54.0457E-03    -27.0863E-03     14.2587E-03     82.8054E-03     76.4825E+06    -13.2063E+06    -19.4764E+06    -92.5244E+06    -15.0204E+06    -92.4970E+06    -17.6897E+06     1.37369E+06
            1356     69.5931E-03     11.6815E-03     68.6057E-03     54.6745E-03    -26.9952E-03    -27.7264E-03    -26.8321E-03     53.7802E-03    -26.9952E-03     16.9910E-03     89.9422E-03     34.1079E+06    -14.9359E+06    -24.3814E+06    -51.6796E+06    -15.0304E+06    -51.5852E+06    -24.3814E+06     1.17009E+06
            1357     69.7824E-03     12.6551E-03     68.6253E-03     54.9990E-03    -26.8758E-03    -28.1551E-03    -26.6964E-03     53.5402E-03    -26.8758E-03     21.6357E-03     101.254E-03     35.7539E+06     5.82932E+06    -21.1444E+06    -34.6590E+06    -16.2468E+06    -879.347E+03    -32.8480E+06     1.27322E+06
            1358     69.9901E-03     13.6291E-03     68.6503E-03     56.1053E-03    -26.7384E-03    -29.3699E-03    -26.4807E-03     53.2162E-03    -26.7384E-03     30.3934E-03     118.987E-03     102.143E+06     71.1592E+06    -17.9631E+06    -39.4244E+06    -17.9435E+06     71.1395E+06    -39.4244E+06     940.597E+03
            1359     70.2251E-03     14.6035E-03     68.6899E-03     60.5040E-03    -26.8311E-03    -33.6808E-03    -26.3096E-03     53.1328E-03    -26.8311E-03     49.3372E-03     147.170E-03     146.959E+06     131.753E+06     4.88487E+06    -28.5282E+06    -18.7633E+06     131.746E+06    -4.87281E+06     795.435E+03
            1360     70.4960E-03     15.5786E-03     68.7531E-03     77.9967E-03    -27.1217E-03    -50.8808E-03    -27.0728E-03     54.1887E-03    -27.1217E-03     97.6420E-03     216.021E-03     160.171E+06     166.174E+06     65.8461E+06    -15.6938E+06    -15.6824E+06     166.162E+06     65.8461E+06     1.13496E+06
            1361     70.8584E-03     16.5526E-03     68.8979E-03     78.9771E-03    -27.3795E-03    -51.5971E-03    -27.4660E-03     54.8460E-03    -27.3795E-03     99.0387E-03     247.277E-03     179.901E+06     193.460E+06     131.401E+06    -8.07770E+06    -8.07150E+06     193.454E+06     131.401E+06     558.034E+03
            1362     69.5879E-03     974.564E-06     69.5811E-03     54.2097E-03    -26.8899E-03    -27.3202E-03    -27.0537E-03     54.2052E-03    -27.1519E-03     891.919E-06     55.4747E-03     177.543E+06    -20.6720E+06    -24.9796E+06    -200.327E+06    -22.2878E+06    -200.248E+06    -23.4431E+06    -416.098E+03
            1363     69.6101E-03     1.94646E-03     69.5829E-03     54.6404E-03    -27.1944E-03    -27.4475E-03    -27.4377E-03     54.6306E-03    -27.1944E-03     1.77698E-03     56.0965E-03     180.658E+06    -21.1668E+06    -24.4605E+06    -203.442E+06    -23.5837E+06    -203.408E+06    -22.0772E+06     826.638E+03
            1364     69.6458E-03     2.92021E-03     69.5846E-03     54.5435E-03    -27.1900E-03    -27.3550E-03    -27.2579E-03     54.5267E-03    -27.2702E-03     2.29320E-03     56.7026E-03     182.352E+06    -21.4894E+06    -23.2838E+06    -204.730E+06    -23.2863E+06    -204.728E+06    -21.4894E+06    -46.8896E+03
            1365     69.6967E-03     3.89366E-03     69.5878E-03     54.4327E-03    -27.1679E-03    -27.2651E-03    -27.1362E-03     54.4010E-03    -27.2651E-03     3.17903E-03     57.8150E-03     184.116E+06    -20.6364E+06    -22.5772E+06    -205.713E+06    -22.5913E+06    -205.699E+06    -20.6364E+06     1.18054E+06
            1366     69.7609E-03     4.86677E-03     69.5910E-03     54.5509E-03    -27.2432E-03    -27.3092E-03    -27.2219E-03     54.4915E-03    -27.2710E-03     4.34584E-03     59.3976E-03     185.758E+06    -16.5896E+06    -21.0685E+06    -204.507E+06    -21.0948E+06    -204.480E+06    -16.5896E+06      2.0142E+06
            1367     69.8411E-03     5.84038E-03     69.5965E-03     54.5853E-03    -27.2470E-03    -27.3353E-03    -27.2086E-03     54.4813E-03    -27.2698E-03     5.78179E-03     61.2292E-03     176.498E+06    -12.5925E+06    -18.5976E+06    -191.985E+06    -18.6135E+06    -191.969E+06    -12.5925E+06     1.44020E+06
            1368     69.9356E-03     6.81373E-03     69.6029E-03     54.5468E-03    -27.2208E-03    -27.3203E-03    -27.1324E-03     54.3921E-03    -27.2540E-03     7.08533E-03     63.7418E-03     164.563E+06    -11.2934E+06    -18.5367E+06    -179.317E+06    -18.5832E+06    -179.271E+06    -11.2934E+06     1.07602E+06
            1369     70.0450E-03     7.78742E-03     69.6107E-03     54.5211E-03    -27.2038E-03    -27.3105E-03    -27.0701E-03     54.3114E-03    -27.2344E-03     8.25224E-03     66.9879E-03     151.328E+06    -10.9489E+06    -20.2228E+06    -166.668E+06    -20.2668E+06    -166.624E+06    -10.9489E+06     418.785E+03
            1370     70.1692E-03     8.76074E-03     69.6201E-03     54.4954E-03    -27.1581E-03    -27.3132E-03    -27.0201E-03     54.2116E-03    -27.1674E-03     9.58939E-03     70.7263E-03     126.999E+06    -14.8096E+06    -20.8527E+06    -144.698E+06    -19.9304E+06    -144.677E+06    -15.7523E+06    -1.12212E+06
            1371     70.3083E-03     9.73463E-03     69.6312E-03     54.5722E-03    -27.1216E-03    -27.4569E-03    -27.0318E-03     54.1471E-03    -27.1216E-03     11.7017E-03     75.9926E-03     104.430E+06    -16.3199E+06    -18.8677E+06    -121.996E+06    -17.9492E+06    -121.972E+06    -17.2626E+06    -654.069E+03
            1372     70.4632E-03     10.7078E-03     69.6449E-03     54.6524E-03    -27.0784E-03    -27.6149E-03    -26.9928E-03     54.0302E-03    -27.0784E-03     14.2063E-03     82.7482E-03     74.4380E+06    -15.5263E+06    -20.1981E+06    -92.1049E+06    -16.5882E+06    -92.0977E+06    -19.1434E+06     278.734E+03
            1373     70.6335E-03     11.6815E-03     69.6608E-03     54.6554E-03    -26.9895E-03    -27.7057E-03    -26.8320E-03     53.7816E-03    -26.9895E-03     16.8029E-03     89.8217E-03     34.1421E+06    -16.3127E+06    -25.6768E+06    -52.8830E+06    -16.3997E+06    -52.7960E+06    -25.6768E+06     665.898E+03
            1374     70.8201E-03     12.6559E-03     69.6801E-03     55.1496E-03    -26.8755E-03    -28.2993E-03    -26.8560E-03     53.7064E-03    -26.8755E-03     21.5286E-03     101.241E-03     37.6537E+06     6.93226E+06    -22.2443E+06    -35.5057E+06    -16.5531E+06    -932.104E+03    -33.3325E+06     1.49775E+06
            1375     71.0266E-03     13.6288E-03     69.7068E-03     56.0819E-03    -26.7478E-03    -29.3336E-03    -26.6078E-03     53.3561E-03    -26.7478E-03     29.6158E-03     118.848E-03     103.288E+06     71.9079E+06    -18.1577E+06    -40.2297E+06    -18.1257E+06     71.8759E+06    -40.2297E+06     1.26642E+06
            1376     71.2555E-03     14.6036E-03     69.7430E-03     60.4188E-03    -26.8373E-03    -33.5876E-03    -26.2972E-03     53.1285E-03    -26.8373E-03     48.7691E-03     146.505E-03     147.743E+06     131.338E+06     3.77751E+06    -29.9975E+06    -18.9997E+06     131.324E+06    -7.20635E+06     1.39686E+06
            1377     71.5281E-03     15.5765E-03     69.8115E-03     77.9515E-03    -27.1463E-03    -50.8126E-03    -27.3763E-03     54.5152E-03    -27.1463E-03     97.1603E-03     216.499E-03     160.833E+06     166.833E+06     65.6131E+06    -15.4540E+06    -15.4397E+06     166.818E+06     65.6131E+06     689.970E+03
            1378     71.8802E-03     16.5536E-03     69.9482E-03     79.0540E-03    -27.4167E-03    -51.6391E-03    -27.4022E-03     54.8170E-03    -27.4167E-03     99.8104E-03     248.403E-03     180.228E+06     193.796E+06     131.832E+06    -8.11015E+06    -8.10190E+06     193.787E+06     131.832E+06     30.5585E+03
            1379     70.6423E-03     972.868E-06     70.6356E-03     54.3373E-03    -26.8574E-03    -27.4792E-03    -27.2821E-03     54.3328E-03    -27.0501E-03     918.242E-06     55.6159E-03     177.337E+06    -23.5526E+06    -30.9324E+06    -204.447E+06    -30.2730E+06    -204.307E+06    -24.3518E+06     366.609E+03
            1380     70.6652E-03     1.94736E-03     70.6384E-03     54.4495E-03    -27.0754E-03    -27.3744E-03    -27.2127E-03     54.4404E-03    -27.2280E-03     1.71338E-03     55.8824E-03     180.832E+06    -18.7265E+06    -24.5332E+06    -202.377E+06    -24.5948E+06    -202.315E+06    -18.7265E+06     927.574E+03
            1381     70.7000E-03     2.91979E-03     70.6397E-03     54.4636E-03    -27.1044E-03    -27.3601E-03    -27.2094E-03     54.4474E-03    -27.2390E-03     2.24514E-03     56.5834E-03     183.208E+06    -19.5999E+06    -23.3429E+06    -204.646E+06    -23.3610E+06    -204.628E+06    -19.5999E+06     851.016E+03
            1382     70.7494E-03     3.89359E-03     70.6422E-03     54.4296E-03    -27.1498E-03    -27.2806E-03    -27.1658E-03     54.3966E-03    -27.2316E-03     3.23286E-03     57.7036E-03     184.981E+06    -20.9145E+06    -23.3134E+06    -207.080E+06    -23.0801E+06    -207.075E+06    -21.1526E+06     442.482E+03
            1383     70.8138E-03     4.86741E-03     70.6463E-03     54.4942E-03    -27.2148E-03    -27.2788E-03    -27.2030E-03     54.4323E-03    -27.2288E-03     4.44272E-03     59.2023E-03     184.306E+06    -19.5920E+06    -21.7295E+06    -204.953E+06    -21.4978E+06    -204.947E+06    -19.8301E+06     630.485E+03
            1384     70.8923E-03     5.84047E-03     70.6514E-03     54.5632E-03    -27.2237E-03    -27.3340E-03    -27.2218E-03     54.4629E-03    -27.2356E-03     5.69240E-03     61.1614E-03     173.592E+06    -15.5719E+06    -20.4287E+06    -191.520E+06    -20.4359E+06    -191.512E+06    -15.5719E+06     1.03532E+06
            1385     70.9857E-03     6.81423E-03     70.6578E-03     54.5912E-03    -27.2397E-03    -27.3515E-03    -27.1939E-03     54.4455E-03    -27.2516E-03     6.87447E-03     63.8176E-03     165.618E+06    -10.2886E+06    -19.0100E+06    -180.060E+06    -19.0496E+06    -180.020E+06    -10.2886E+06     1.85010E+06
            1386     71.0938E-03     7.78725E-03     70.6660E-03     54.6482E-03    -27.2402E-03    -27.4032E-03    -27.1960E-03     54.4410E-03    -27.2402E-03     8.20190E-03     67.1168E-03     152.806E+06    -8.42350E+06    -16.8679E+06    -165.219E+06    -16.7198E+06    -165.180E+06    -8.61021E+06     1.43622E+06
            1387     71.2160E-03     8.76075E-03     70.6751E-03     54.6069E-03    -27.1816E-03    -27.3945E-03    -27.1111E-03     54.3235E-03    -27.1816E-03     9.59897E-03     70.8214E-03     127.531E+06    -12.9405E+06    -17.9763E+06    -142.878E+06    -16.8691E+06    -142.856E+06    -14.0700E+06    -390.364E+03
            1388     71.3534E-03     9.73403E-03     70.6863E-03     54.5462E-03    -27.1264E-03    -27.4221E-03    -26.9949E-03     54.1190E-03    -27.1264E-03     11.7141E-03     75.9072E-03     104.761E+06    -16.9202E+06    -20.2305E+06    -123.290E+06    -18.2552E+06    -123.227E+06    -18.9579E+06    -1.55817E+06
            1389     71.5063E-03     10.7080E-03     70.7000E-03     54.6283E-03    -27.0760E-03    -27.5974E-03    -26.9808E-03     54.0117E-03    -27.0760E-03     14.1504E-03     82.6198E-03     73.6615E+06    -17.4782E+06    -20.9264E+06    -92.7554E+06    -17.6839E+06    -92.7092E+06    -20.7668E+06    -1.06315E+06
            1390     71.6745E-03     11.6816E-03     70.7162E-03     54.8210E-03    -27.0012E-03    -27.8606E-03    -27.0062E-03     53.9666E-03    -27.0012E-03     16.6511E-03     89.8481E-03     34.3570E+06    -17.4636E+06    -25.7058E+06    -53.3704E+06    -17.4826E+06    -53.2179E+06    -25.8392E+06    -105.610E+03
            1391     71.8584E-03     12.6544E-03     70.7354E-03     55.1559E-03    -26.8884E-03    -28.2859E-03    -26.8121E-03     53.6821E-03    -26.8884E-03     21.6908E-03     101.128E-03     36.9476E+06     5.51722E+06    -23.6064E+06    -35.8413E+06    -17.5545E+06    -1.93530E+06    -34.4407E+06     478.748E+03
            1392     72.0631E-03     13.6286E-03     70.7627E-03     56.1283E-03    -26.7570E-03    -29.3734E-03    -26.5797E-03     53.3346E-03    -26.7570E-03     30.0280E-03     118.459E-03     103.339E+06     71.5625E+06    -17.8925E+06    -41.0742E+06    -17.8513E+06     71.5213E+06    -41.0742E+06     1.65227E+06
            1393     72.2881E-03     14.6015E-03     70.7980E-03     60.6194E-03    -26.8458E-03    -33.7848E-03    -26.3912E-03     53.2259E-03    -26.8458E-03     49.1777E-03     146.352E-03     148.355E+06     132.175E+06     4.55650E+06    -30.2054E+06    -17.6932E+06     132.144E+06    -7.92435E+06     1.07024E+06
            1394     72.5578E-03     15.5789E-03     70.8655E-03     78.4395E-03    -27.1811E-03    -51.2662E-03    -27.7801E-03     54.9533E-03    -27.1811E-03     97.8339E-03     216.754E-03     161.335E+06     168.010E+06     67.3935E+06    -14.5977E+06    -14.5803E+06     167.992E+06     67.3935E+06     61.3845E+03
            1395     72.9095E-03     16.5497E-03     71.0063E-03     79.0584E-03    -27.4584E-03    -51.6046E-03    -27.4334E-03     54.8872E-03    -27.4584E-03     99.8389E-03     248.700E-03     181.091E+06     194.078E+06     132.516E+06    -8.80953E+06    -8.79756E+06     194.066E+06     132.516E+06     634.371E+03
            1396     71.6982E-03     973.535E-06     71.6916E-03     54.4274E-03    -26.8371E-03    -27.5891E-03    -27.2144E-03     54.4231E-03    -27.2074E-03     1.08470E-03     55.6458E-03     177.414E+06    -22.1558E+06    -31.3322E+06    -203.976E+06    -29.0937E+06    -203.835E+06    -24.5351E+06     2.76331E+06
            1397     71.7188E-03     1.94619E-03     71.6924E-03     54.2844E-03    -27.0288E-03    -27.2546E-03    -27.0461E-03     54.2748E-03    -27.2277E-03     1.74614E-03     55.7001E-03     180.612E+06    -20.5359E+06    -26.8353E+06    -204.203E+06    -26.8684E+06    -204.170E+06    -20.5359E+06    -61.5403E+03
            1398     71.7544E-03     2.92109E-03     71.6949E-03     54.3606E-03    -27.0880E-03    -27.2730E-03    -27.1442E-03     54.3450E-03    -27.2011E-03     2.22429E-03     56.4356E-03     183.760E+06    -19.2870E+06    -23.6179E+06    -205.172E+06    -23.6479E+06    -205.142E+06    -19.2870E+06     1.39371E+06
            1399     71.8028E-03     3.89377E-03     71.6971E-03     54.5836E-03    -27.2117E-03    -27.3726E-03    -27.3364E-03     54.5544E-03    -27.2187E-03     3.03283E-03     57.8138E-03     185.121E+06    -18.8785E+06    -22.5319E+06    -205.794E+06    -22.3070E+06    -205.781E+06    -19.1166E+06     684.745E+03
            1400     71.8661E-03     4.86695E-03     71.7011E-03     54.5503E-03    -27.2169E-03    -27.3326E-03    -27.2573E-03     54.4968E-03    -27.2388E-03     4.13987E-03     59.2689E-03     184.649E+06    -19.2523E+06    -21.9815E+06    -205.241E+06    -21.7492E+06    -205.236E+06    -19.4904E+06    -353.469E+03
            1401     71.9439E-03     5.84075E-03     71.7064E-03     54.5388E-03    -27.2203E-03    -27.3065E-03    -27.1973E-03     54.4444E-03    -27.2351E-03     5.49882E-03     61.1433E-03     174.069E+06    -16.8724E+06    -21.4735E+06    -193.169E+06    -20.5692E+06    -193.158E+06    -17.7876E+06     575.712E+03
            1402     72.0361E-03     6.81350E-03     71.7132E-03     54.6209E-03    -27.2423E-03    -27.3698E-03    -27.2259E-03     54.4770E-03    -27.2423E-03     6.83692E-03     63.8274E-03     164.050E+06    -12.1092E+06    -19.4635E+06    -179.701E+06    -18.5605E+06    -179.689E+06    -13.0243E+06     382.715E+03
            1403     72.1424E-03     7.78743E-03     71.7208E-03     54.6635E-03    -27.2360E-03    -27.4292E-03    -27.2209E-03     54.4552E-03    -27.2360E-03     8.21816E-03     67.1064E-03     150.769E+06    -11.0128E+06    -17.2374E+06    -164.775E+06    -17.0633E+06    -164.762E+06    -11.1995E+06     346.035E+03
            1404     72.2638E-03     8.76062E-03     71.7308E-03     54.6361E-03    -27.2046E-03    -27.4036E-03    -27.1305E-03     54.3631E-03    -27.2046E-03     9.43759E-03     70.8856E-03     128.572E+06    -11.1386E+06    -16.0363E+06    -142.068E+06    -15.8578E+06    -142.060E+06    -11.3253E+06     752.163E+03
            1405     72.3983E-03     9.73430E-03     71.7409E-03     54.6574E-03    -27.1613E-03    -27.4886E-03    -27.0616E-03     54.2303E-03    -27.1613E-03     11.6709E-03     76.0395E-03     107.042E+06    -12.6506E+06    -16.5611E+06    -121.582E+06    -15.3724E+06    -121.535E+06    -13.8862E+06    -724.473E+03
            1406     72.5500E-03     10.7075E-03     71.7555E-03     54.7391E-03    -27.1011E-03    -27.6784E-03    -27.0559E-03     54.1166E-03    -27.1011E-03     14.2503E-03     82.7503E-03     75.8067E+06    -16.6173E+06    -19.5254E+06    -93.8157E+06    -16.6759E+06    -93.7571E+06    -19.5254E+06    -1.12398E+06
            1407     72.7157E-03     11.6810E-03     71.7714E-03     54.8532E-03    -27.0261E-03    -27.8631E-03    -26.9858E-03     53.9759E-03    -27.0261E-03     16.8459E-03     89.8728E-03     35.1848E+06    -16.9100E+06    -24.7371E+06    -53.2396E+06    -16.9376E+06    -53.0786E+06    -24.8705E+06    -584.804E+03
            1408     72.8983E-03     12.6550E-03     71.7914E-03     55.0364E-03    -26.9051E-03    -28.1471E-03    -26.6919E-03     53.5812E-03    -26.9051E-03     21.5954E-03     101.114E-03     34.9198E+06     4.06567E+06    -23.3463E+06     -35.024E+06    -17.1866E+06    -2.78911E+06    -34.3289E+06    -629.918E+03
            1409     73.0985E-03     13.6291E-03     71.8167E-03     55.9748E-03    -26.7561E-03    -29.2241E-03    -26.4023E-03     53.1531E-03    -26.7561E-03     30.0196E-03     118.091E-03     102.289E+06     70.0085E+06    -17.5269E+06    -41.9421E+06    -17.4840E+06     69.9656E+06    -41.9421E+06     54.5543E+03
            1410     73.3241E-03     14.6044E-03     71.8550E-03     60.7752E-03    -26.8567E-03    -33.9331E-03    -26.7508E-03     53.5928E-03    -26.8567E-03     48.9238E-03     146.415E-03     149.277E+06     133.478E+06     6.64125E+06    -30.6431E+06    -17.0410E+06     133.442E+06    -6.92490E+06     500.575E+03
            1411     73.5869E-03     15.5754E-03     71.9196E-03     78.7862E-03    -27.2046E-03    -51.5908E-03    -27.8704E-03     55.0658E-03    -27.2046E-03     98.0695E-03     216.749E-03     161.563E+06     167.774E+06     67.5594E+06    -15.4881E+06    -15.4668E+06     167.753E+06     67.5594E+06     1.04412E+06
            1412     73.9412E-03     16.5523E-03     72.0647E-03     78.8345E-03    -27.4581E-03    -51.3788E-03    -26.9546E-03     54.4102E-03    -27.4581E-03     99.7660E-03     248.481E-03     181.147E+06     193.824E+06     131.203E+06    -9.39391E+06    -9.38347E+06     193.814E+06     131.203E+06     1.29949E+06
            1413     72.7530E-03     973.549E-06     72.7465E-03     54.2649E-03    -26.8939E-03    -27.3704E-03    -26.9318E-03     54.2608E-03    -27.3284E-03     1.09020E-03     55.4685E-03     176.336E+06    -23.4746E+06    -29.1398E+06    -202.559E+06    -26.8735E+06    -202.446E+06    -25.8539E+06     3.62502E+06
            1414     72.7736E-03     1.94747E-03     72.7475E-03     54.4742E-03    -27.1517E-03    -27.3215E-03    -27.2683E-03     54.4673E-03    -27.1981E-03     1.45115E-03     55.8507E-03     180.982E+06    -21.8503E+06    -25.7400E+06    -204.739E+06    -25.7483E+06    -204.730E+06    -21.8503E+06     52.7073E+03
            1415     72.8078E-03     2.91980E-03     72.7492E-03     54.4867E-03    -27.1451E-03    -27.3407E-03    -27.2362E-03     54.4733E-03    -27.2363E-03     1.98221E-03     56.5493E-03     184.003E+06    -21.1834E+06    -24.0278E+06    -206.588E+06    -23.8150E+06    -206.572E+06    -21.4122E+06    -67.5431E+03
            1416     72.8570E-03     3.89381E-03     72.7529E-03     54.5470E-03    -27.1893E-03    -27.3570E-03    -27.2673E-03     54.5202E-03    -27.2521E-03     2.91915E-03     57.7318E-03     184.862E+06    -19.6776E+06    -22.2865E+06    -205.822E+06    -22.0524E+06    -205.797E+06    -19.9360E+06     1.21867E+06
            1417     72.9186E-03     4.86679E-03     72.7560E-03     54.6022E-03    -27.2290E-03    -27.3712E-03    -27.2843E-03     54.5480E-03    -27.2619E-03     4.13354E-03     59.2603E-03     182.699E+06    -19.6025E+06    -22.2334E+06    -203.590E+06    -22.2193E+06    -203.575E+06    -19.6320E+06     255.574E+03
            1418     72.9954E-03     5.83999E-03     72.7614E-03     54.5533E-03    -27.2258E-03    -27.3142E-03    -27.1977E-03     54.4516E-03    -27.2406E-03     5.70553E-03     61.1143E-03     171.952E+06    -21.1568E+06    -23.9890E+06    -194.501E+06    -23.0800E+06    -194.494E+06    -22.0719E+06    -330.930E+03
            1419     73.0866E-03     6.81422E-03     72.7682E-03     54.6517E-03    -27.2438E-03    -27.3980E-03    -27.2528E-03     54.5066E-03    -27.2438E-03     6.88233E-03     63.8184E-03     159.628E+06    -16.9170E+06    -23.7629E+06    -179.812E+06    -22.8668E+06    -179.792E+06    -17.8322E+06      300.56E+03
            1420     73.1916E-03     7.78688E-03     72.7761E-03     54.6865E-03    -27.2520E-03    -27.4264E-03    -27.2237E-03     54.4838E-03    -27.2520E-03     8.10302E-03     67.1357E-03     146.901E+06    -12.4985E+06    -21.3511E+06    -163.613E+06    -21.4333E+06    -163.530E+06    -12.4985E+06    -906.001E+03
            1421     73.3111E-03     8.76045E-03     72.7858E-03     54.6342E-03    -27.2139E-03    -27.3877E-03    -27.1181E-03     54.3645E-03    -27.2139E-03     9.37726E-03     70.8785E-03     127.195E+06    -12.8204E+06    -18.0529E+06    -142.533E+06    -17.9396E+06    -142.455E+06    -13.0110E+06    -1.73853E+06
            1422     73.4441E-03     9.73384E-03     72.7962E-03     54.7556E-03    -27.1846E-03    -27.5687E-03    -27.1491E-03     54.3359E-03    -27.1846E-03     11.5896E-03     76.1357E-03     106.438E+06    -13.1535E+06    -15.5093E+06    -120.735E+06    -15.1916E+06    -120.722E+06    -13.4847E+06    -583.272E+03
            1423     73.5938E-03     10.7075E-03     72.8107E-03     54.8078E-03    -27.1372E-03    -27.7121E-03    -27.0958E-03     54.1914E-03    -27.1372E-03     14.1835E-03     82.8523E-03     77.4477E+06    -14.1476E+06    -17.9740E+06    -93.3641E+06    -14.6254E+06    -93.3491E+06    -17.5112E+06    -438.885E+03
            1424     73.7575E-03     11.6810E-03     72.8267E-03     54.7479E-03    -27.0554E-03    -27.7371E-03    -26.8688E-03     53.8796E-03    -27.0554E-03     16.7425E-03     89.8449E-03     36.4126E+06    -15.0519E+06    -23.7428E+06    -53.7580E+06    -15.0992E+06    -53.7108E+06    -23.7428E+06    -972.528E+03
            1425     73.9374E-03     12.6544E-03     72.8465E-03     55.0070E-03    -26.9365E-03    -28.0989E-03    -26.6796E-03     53.5878E-03    -26.9365E-03     21.3435E-03     101.143E-03     34.1825E+06     4.46769E+06    -22.0773E+06    -34.0643E+06    -16.6180E+06    -3.23525E+06    -31.8207E+06    -605.605E+03
            1426     74.1353E-03     13.6281E-03     72.8719E-03     56.1610E-03    -26.7906E-03    -29.3757E-03    -26.5931E-03     53.3784E-03    -26.7906E-03     29.8623E-03     118.558E-03     101.102E+06     69.8323E+06    -18.9669E+06    -39.6236E+06    -18.9364E+06     69.8018E+06    -39.6236E+06    -587.821E+03
            1427     74.3575E-03     14.6014E-03     72.9098E-03     61.0104E-03    -26.8840E-03    -34.1351E-03    -26.8225E-03     53.6978E-03    -26.8840E-03     49.3576E-03     146.847E-03     149.011E+06     132.114E+06     2.86984E+06    -30.3462E+06    -19.4204E+06     132.102E+06    -8.04354E+06    -31.3749E+03
            1428     74.6220E-03     15.5769E-03     72.9780E-03     78.0650E-03    -27.1955E-03    -50.8762E-03    -27.2421E-03     54.4309E-03    -27.1955E-03     97.3040E-03     216.333E-03     161.243E+06     167.149E+06     63.8354E+06    -15.6109E+06    -15.5829E+06     167.121E+06     63.8354E+06     1.75636E+06
            1429     74.9652E-03     16.5513E-03     73.1152E-03     78.7264E-03    -27.4306E-03    -51.2907E-03    -26.6863E-03     54.1220E-03    -27.4306E-03     100.048E-03     248.577E-03     181.289E+06     194.876E+06     129.624E+06    -8.84634E+06    -8.82441E+06     194.854E+06     129.624E+06     1.44004E+06
            1430     73.8069E-03     973.514E-06     73.8005E-03     54.5325E-03    -26.9685E-03    -27.5640E-03    -27.3452E-03     54.5290E-03    -27.1837E-03     647.222E-06     55.7396E-03     176.127E+06    -25.1107E+06    -27.3889E+06    -202.363E+06    -26.6798E+06    -202.327E+06     -25.856E+06     1.01739E+06
            1431     73.8288E-03     1.94636E-03     73.8032E-03     54.5504E-03    -27.1588E-03    -27.3916E-03    -27.2493E-03     54.5443E-03    -27.2950E-03     1.37794E-03     55.8734E-03     181.930E+06    -21.8260E+06    -23.6105E+06    -204.639E+06    -23.4561E+06    -204.631E+06    -21.9884E+06     319.674E+03
            1432     73.8622E-03     2.92008E-03     73.8045E-03     54.5910E-03    -27.1802E-03    -27.4114E-03    -27.2798E-03     54.5752E-03    -27.2959E-03     2.15435E-03     56.5774E-03     184.123E+06    -22.2653E+06    -24.2665E+06    -207.378E+06    -24.0438E+06    -207.372E+06    -22.4941E+06     172.408E+03
            1433     73.9098E-03     3.89315E-03     73.8072E-03     54.5435E-03    -27.2102E-03    -27.3331E-03    -27.2137E-03     54.5129E-03    -27.2990E-03     3.14175E-03     57.6123E-03     184.802E+06    -20.7693E+06    -24.0976E+06    -207.188E+06    -23.8540E+06    -207.173E+06    -21.0276E+06     632.030E+03
            1434     73.9718E-03     4.86711E-03     73.8115E-03     54.6486E-03    -27.2617E-03    -27.3857E-03    -27.2918E-03     54.5987E-03    -27.3057E-03     3.97777E-03     59.2789E-03     182.238E+06    -17.3216E+06    -22.4020E+06    -202.026E+06    -22.3870E+06    -202.011E+06    -17.3511E+06     830.802E+03
            1435     74.0468E-03     5.84057E-03     73.8161E-03     54.7822E-03    -27.3120E-03    -27.4679E-03    -27.3780E-03     54.6923E-03    -27.3120E-03     5.33499E-03     61.4037E-03     176.410E+06    -16.0463E+06    -20.8088E+06    -194.786E+06    -20.8166E+06    -194.778E+06    -16.0463E+06    -413.866E+03
            1436     74.1372E-03     6.81306E-03     73.8235E-03     54.7168E-03    -27.2782E-03    -27.4375E-03    -27.2681E-03     54.5779E-03    -27.3088E-03     6.71874E-03     63.8956E-03     163.783E+06    -13.0891E+06    -18.9272E+06    -179.664E+06    -18.3972E+06    -179.632E+06    -13.6512E+06    -792.584E+03
            1437     74.2410E-03     7.78682E-03     73.8315E-03     54.6450E-03    -27.2627E-03    -27.3833E-03    -27.1566E-03     54.4489E-03    -27.2933E-03     7.97322E-03     67.0968E-03     148.177E+06    -9.74134E+06    -16.5557E+06    -161.172E+06    -16.0821E+06    -161.083E+06    -10.3034E+06    -1.56639E+06
            1438     74.3584E-03     8.76025E-03     73.8406E-03     54.6987E-03    -27.2370E-03    -27.4444E-03    -27.1681E-03     54.4224E-03    -27.2370E-03     9.47849E-03     70.9097E-03     126.880E+06    -13.8360E+06    -17.8904E+06    -142.685E+06    -16.9092E+06    -142.590E+06    -14.9119E+06    -2.75428E+06
            1439     74.4905E-03     9.73355E-03     73.8518E-03     54.7902E-03    -27.1956E-03    -27.5955E-03    -27.1705E-03     54.3652E-03    -27.1956E-03     11.7137E-03     76.1553E-03     104.203E+06    -16.5507E+06    -18.3899E+06    -121.657E+06    -17.0733E+06    -121.597E+06    -17.9271E+06    -2.25538E+06
            1440     74.6377E-03     10.7068E-03     73.8658E-03     54.7715E-03    -27.1537E-03    -27.6635E-03    -27.0359E-03     54.1439E-03    -27.1537E-03     14.2786E-03     82.7853E-03     76.0682E+06    -14.8581E+06    -20.0983E+06    -93.2672E+06    -15.3552E+06    -93.2329E+06    -19.6355E+06    -1.31244E+06
            1441     74.7999E-03     11.6803E-03     73.8823E-03     54.7041E-03    -27.0625E-03    -27.6909E-03    -26.8200E-03     53.8331E-03    -27.0625E-03     16.7868E-03     89.7762E-03     35.5922E+06    -15.6479E+06    -26.1565E+06    -54.0291E+06    -15.6882E+06    -53.9888E+06    -26.1565E+06    -779.706E+03
            1442     74.9770E-03     12.6546E-03     73.9013E-03     54.9527E-03    -26.9402E-03    -28.0391E-03    -26.5791E-03     53.4926E-03    -26.9402E-03     21.5633E-03     100.963E-03     35.0267E+06     3.91785E+06    -22.6579E+06    -35.6540E+06    -16.6454E+06    -4.31740E+06    -33.4312E+06    -346.848E+03
            1443     75.1735E-03     13.6285E-03     73.9278E-03     56.3316E-03    -26.7952E-03    -29.5416E-03    -26.5656E-03     53.3556E-03    -26.7952E-03     30.9231E-03     118.791E-03     101.346E+06     70.0022E+06    -18.2302E+06    -39.8753E+06    -18.2001E+06     69.9721E+06    -39.8753E+06     725.256E+03
            1444     75.3934E-03     14.6025E-03     73.9658E-03     61.3262E-03    -26.8836E-03    -34.4532E-03    -26.8115E-03     53.6846E-03    -26.8836E-03     50.6294E-03     147.131E-03     148.885E+06     131.611E+06     2.02080E+06    -30.5428E+06    -19.6510E+06     131.591E+06    -8.85093E+06     909.917E+03
            1445     75.6536E-03     15.5757E-03     74.0329E-03     77.3821E-03    -27.1886E-03    -50.2038E-03    -27.2887E-03     54.4670E-03    -27.1886E-03     95.8407E-03     215.803E-03     161.105E+06     166.191E+06     60.9588E+06    -16.4153E+06    -16.3762E+06     166.152E+06     60.9588E+06     115.013E+03
            1446     75.9934E-03     16.5533E-03     74.1687E-03     78.5380E-03    -27.4416E-03    -51.0974E-03    -26.8200E-03     54.2606E-03    -27.4416E-03     99.7953E-03     248.450E-03     181.421E+06     195.505E+06     128.716E+06    -8.50063E+06    -8.45770E+06     195.462E+06     128.716E+06     348.547E+03
            1447     74.8631E-03     972.644E-06     74.8567E-03     54.7552E-03    -27.1252E-03    -27.6303E-03    -27.4876E-03     54.7525E-03    -27.2652E-03     464.837E-06     55.8147E-03     176.123E+06    -24.5729E+06    -25.3715E+06    -201.092E+06    -24.6525E+06    -201.066E+06    -25.3182E+06    -1.43983E+06
            1448     74.8827E-03     1.94666E-03     74.8574E-03     54.5205E-03    -27.1640E-03    -27.3566E-03    -27.1556E-03     54.5120E-03    -27.3566E-03     1.59446E-03     55.7752E-03     182.105E+06    -24.3260E+06    -25.2798E+06    -206.904E+06    -25.1233E+06    -206.898E+06    -24.4883E+06     513.157E+03
            1449     74.9167E-03     2.92013E-03     74.8598E-03     54.6395E-03    -27.2321E-03    -27.4089E-03    -27.3019E-03     54.6240E-03    -27.3235E-03     2.23600E-03     56.5827E-03     183.434E+06    -23.3315E+06    -25.7168E+06    -207.944E+06    -25.7280E+06    -207.933E+06    -23.3315E+06     1.38844E+06
            1450     74.9636E-03     3.89347E-03     74.8624E-03     54.7908E-03    -27.3255E-03    -27.4666E-03    -27.4147E-03     54.7648E-03    -27.3515E-03     2.86933E-03     57.8616E-03     183.625E+06    -20.4780E+06    -25.1291E+06    -206.371E+06    -25.1368E+06    -206.363E+06    -20.4780E+06     368.593E+03
            1451     75.0243E-03     4.86632E-03     74.8663E-03     54.8119E-03    -27.3467E-03    -27.4657E-03    -27.3873E-03     54.7594E-03    -27.3727E-03     4.02104E-03     59.4769E-03     181.152E+06    -18.2486E+06    -22.8425E+06    -201.633E+06    -22.8000E+06    -201.614E+06    -18.3104E+06    -876.716E+03
            1452     75.0994E-03     5.83910E-03     74.8720E-03     54.8241E-03    -27.3519E-03    -27.4742E-03    -27.3642E-03     54.7321E-03    -27.3700E-03     5.40988E-03     61.4458E-03     175.060E+06    -16.8956E+06    -20.0412E+06    -193.494E+06    -19.8441E+06    -193.465E+06    -17.1216E+06    -1.49114E+06
            1453     75.1877E-03     6.81300E-03     74.8784E-03     54.6685E-03    -27.2884E-03    -27.3781E-03    -27.1821E-03     54.5213E-03    -27.3372E-03     6.88869E-03     63.7442E-03     160.559E+06    -16.6125E+06    -18.9154E+06    -178.302E+06    -18.2467E+06    -178.245E+06    -17.3388E+06    -2.80401E+06
            1454     75.2903E-03     7.78646E-03     74.8866E-03     54.6277E-03    -27.2776E-03    -27.3533E-03    -27.1152E-03     54.4204E-03    -27.3084E-03     8.21493E-03     67.0227E-03     145.489E+06    -14.6872E+06    -17.3808E+06    -161.493E+06    -16.8989E+06    -161.413E+06    -15.2493E+06    -2.87760E+06
            1455     75.4066E-03     8.75984E-03     74.8960E-03     54.7190E-03    -27.2734E-03    -27.4313E-03    -27.1426E-03     54.4303E-03    -27.2734E-03     9.67266E-03     70.9627E-03     127.358E+06    -12.8288E+06    -15.9154E+06    -141.693E+06    -15.0861E+06    -141.637E+06    -13.7142E+06    -1.95268E+06
            1456     75.5369E-03     9.73325E-03     74.9072E-03     54.7686E-03    -27.2212E-03    -27.5474E-03    -27.1081E-03     54.3293E-03    -27.2212E-03     11.9234E-03     76.1231E-03     105.605E+06    -15.1510E+06    -17.0884E+06    -121.708E+06    -15.4105E+06    -121.650E+06    -16.8862E+06    -2.17527E+06
            1457     75.6822E-03     10.7070E-03     74.9210E-03     54.7461E-03    -27.1606E-03    -27.6284E-03    -26.9881E-03     54.1058E-03    -27.1606E-03     14.4143E-03     82.7327E-03     75.7602E+06    -16.3694E+06    -21.3817E+06    -94.3792E+06    -16.4459E+06    -94.3027E+06    -21.3817E+06    -2.28275E+06
            1458     75.8424E-03     11.6807E-03     74.9375E-03     54.6288E-03    -27.0621E-03    -27.6051E-03    -26.7218E-03     53.7455E-03    -27.0621E-03     16.8977E-03     89.6607E-03     35.4565E+06    -15.9299E+06    -26.9083E+06    -54.1649E+06    -16.0005E+06    -54.0944E+06    -26.9083E+06    -1.42006E+06
            1459     76.0171E-03     12.6541E-03     74.9565E-03     54.9280E-03    -26.9236E-03    -28.0207E-03    -26.5376E-03     53.4449E-03    -26.9236E-03     21.7132E-03     100.743E-03     37.6687E+06     4.03920E+06    -23.3805E+06    -38.8065E+06    -16.5854E+06    -5.30388E+06    -36.2585E+06    -512.654E+03
            1460     76.2110E-03     13.6287E-03     74.9825E-03     56.1117E-03    -26.7628E-03    -29.3501E-03    -26.3702E-03     53.1318E-03    -26.7628E-03     30.8860E-03     118.559E-03     102.909E+06     68.8040E+06    -17.6053E+06    -44.2373E+06    -17.5786E+06     68.7773E+06    -44.2373E+06     343.501E+03
            1461     76.4299E-03     14.6029E-03     75.0219E-03     61.0818E-03    -26.8349E-03    -34.2575E-03    -26.4455E-03     53.2697E-03    -26.8349E-03     50.9247E-03     146.756E-03     148.687E+06     131.832E+06     2.41706E+06    -30.4003E+06    -16.6203E+06     131.806E+06    -11.3369E+06     1.24202E+06
            1462     76.6880E-03     15.5769E-03     75.0893E-03     78.0327E-03    -27.1679E-03    -50.8769E-03    -28.0123E-03     55.1681E-03    -27.1679E-03     96.6940E-03     215.527E-03     161.494E+06     167.341E+06     61.8794E+06    -14.7453E+06    -14.7150E+06     167.311E+06     61.8794E+06     204.960E+03
            1463     77.0215E-03     16.5486E-03     75.2227E-03     78.7684E-03    -27.4575E-03    -51.3159E-03    -27.1765E-03     54.6289E-03    -27.4575E-03     100.071E-03     248.151E-03     181.925E+06     195.311E+06     129.316E+06    -9.31481E+06    -9.28378E+06     195.280E+06     129.316E+06    -200.749E+03
            1464     75.9183E-03     973.781E-06     75.9120E-03     54.4788E-03    -27.1229E-03    -27.3557E-03    -27.2788E-03     54.4767E-03    -27.1977E-03     767.894E-06     55.4215E-03     175.183E+06    -26.4522E+06    -28.6929E+06    -202.721E+06    -28.5699E+06    -202.683E+06    -26.6131E+06    -1.45362E+06
            1465     75.9373E-03     1.94653E-03     75.9123E-03     54.8375E-03    -27.2725E-03    -27.5643E-03    -27.5006E-03     54.8302E-03    -27.3290E-03     1.47792E-03     56.0334E-03     181.957E+06    -24.0004E+06    -26.8624E+06    -207.351E+06    -26.8659E+06    -207.347E+06    -24.0004E+06     564.706E+03
            1466     75.9710E-03     2.91983E-03     75.9149E-03     54.8673E-03    -27.3264E-03    -27.5417E-03    -27.4627E-03     54.8533E-03    -27.3913E-03     2.12343E-03     56.7552E-03     183.275E+06    -23.3155E+06    -26.5525E+06    -208.179E+06    -24.9729E+06    -208.172E+06    -24.9025E+06     634.300E+03
            1467     76.0178E-03     3.89263E-03     75.9181E-03     54.8289E-03    -27.3376E-03    -27.4935E-03    -27.3923E-03     54.8025E-03    -27.4124E-03     2.87475E-03     57.8093E-03     181.767E+06    -21.2883E+06    -25.8048E+06    -205.267E+06    -24.2255E+06    -205.259E+06    -22.8754E+06     388.258E+03
            1468     76.0774E-03     4.86604E-03     75.9216E-03     54.7886E-03    -27.3351E-03    -27.4532E-03    -27.3138E-03     54.7268E-03    -27.4127E-03     4.37799E-03     59.3561E-03     177.722E+06    -20.7595E+06    -24.9893E+06    -200.540E+06    -24.9459E+06    -200.522E+06    -20.8213E+06    -893.560E+03
            1469     76.1515E-03     5.83984E-03     75.9273E-03     54.6897E-03    -27.3029E-03    -27.3858E-03    -27.2180E-03     54.5873E-03    -27.3683E-03     5.76714E-03     61.2461E-03     167.261E+06    -22.5321E+06    -25.3870E+06    -191.182E+06    -24.6731E+06    -191.094E+06    -23.3334E+06    -3.02906E+06
            1470     76.2383E-03     6.81285E-03     75.9333E-03     54.6616E-03    -27.3072E-03    -27.3559E-03    -27.1841E-03     54.5080E-03    -27.3254E-03     7.04078E-03     63.7003E-03     154.388E+06    -22.7910E+06    -23.6896E+06    -177.625E+06    -23.0843E+06    -177.490E+06    -23.5304E+06    -4.26935E+06
            1471     76.3399E-03     7.78635E-03     75.9418E-03     54.6918E-03    -27.3059E-03    -27.3842E-03    -27.1627E-03     54.4705E-03    -27.3061E-03     8.49028E-03     66.9833E-03     141.157E+06    -20.1019E+06    -21.5044E+06    -161.951E+06    -21.6560E+06    -161.799E+06    -20.1019E+06    -4.55902E+06
            1472     76.4548E-03     8.75981E-03     75.9513E-03     54.6958E-03    -27.2736E-03    -27.3988E-03    -27.1056E-03     54.4026E-03    -27.2736E-03     9.76618E-03     70.8940E-03     123.193E+06    -17.5352E+06    -19.3179E+06    -141.608E+06    -19.1447E+06    -141.444E+06    -17.8725E+06    -3.96426E+06
            1473     76.5835E-03     9.73347E-03     75.9625E-03     54.6993E-03    -27.2300E-03    -27.4702E-03    -27.0349E-03     54.2641E-03    -27.2300E-03     11.8417E-03     76.0450E-03     104.604E+06    -16.0793E+06    -18.0734E+06    -121.660E+06    -16.4023E+06    -121.539E+06    -17.8712E+06    -2.96663E+06
            1474     76.7271E-03     10.7067E-03     75.9764E-03     54.6647E-03    -27.1625E-03    -27.5385E-03    -26.9049E-03     54.0311E-03    -27.1625E-03     14.3337E-03     82.5793E-03     76.7769E+06    -14.7038E+06    -21.4249E+06    -94.4248E+06    -14.8198E+06    -94.3087E+06    -21.4249E+06    -2.87462E+06
            1475     76.8850E-03     11.6803E-03     75.9926E-03     54.6047E-03    -27.0633E-03    -27.5749E-03    -26.7094E-03     53.7392E-03    -27.0633E-03     16.7229E-03     89.5428E-03     37.6490E+06    -14.3679E+06    -26.5211E+06    -55.3825E+06    -14.5616E+06    -55.1888E+06    -26.5211E+06    -2.51657E+06
            1476     77.0575E-03     12.6552E-03     76.0112E-03     55.0396E-03    -26.9277E-03    -28.1340E-03    -26.6624E-03     53.5680E-03    -26.9277E-03     21.6470E-03     100.720E-03     37.4852E+06     3.97224E+06    -22.0148E+06    -38.8908E+06    -15.2479E+06    -5.90558E+06    -35.7799E+06    -1.02853E+06
            1477     77.2501E-03     13.6281E-03     76.0385E-03     55.9403E-03    -26.7633E-03    -29.1809E-03    -26.2657E-03     53.0251E-03    -26.7633E-03     30.5140E-03     118.485E-03     102.108E+06     67.8008E+06    -16.6330E+06    -44.6274E+06    -16.6268E+06     67.7946E+06    -44.6274E+06    -347.928E+03
            1478     77.4644E-03     14.6028E-03     76.0756E-03     60.6479E-03    -26.8126E-03    -33.8455E-03    -25.9623E-03     52.7646E-03    -26.8126E-03     50.7559E-03     146.854E-03     148.808E+06     130.701E+06     1.03070E+06    -31.6662E+06    -17.4298E+06     130.694E+06    -13.1986E+06     158.122E+03
            1479     77.7223E-03     15.5790E-03     76.1449E-03     78.1698E-03    -27.1085E-03    -51.0728E-03    -27.5965E-03     54.6935E-03    -27.1085E-03     97.8892E-03     215.427E-03     161.595E+06     166.839E+06     59.3813E+06    -15.2529E+06    -15.2414E+06     166.827E+06     59.3813E+06     1.35167E+06
            1480     78.0584E-03     16.5525E-03     76.2832E-03     78.8936E-03    -27.4023E-03    -51.4938E-03    -27.5006E-03     54.9004E-03    -27.4023E-03     99.4687E-03     247.344E-03     182.009E+06     196.220E+06     128.875E+06    -8.58315E+06    -8.57503E+06     196.212E+06     128.875E+06     532.675E+03
            1481     76.9728E-03     973.727E-06     76.9667E-03     54.4633E-03    -27.1266E-03    -27.3365E-03    -27.3335E-03     54.4603E-03    -27.1266E-03     696.972E-06     55.4294E-03     175.970E+06    -26.9135E+06    -30.8926E+06    -204.823E+06    -30.7653E+06    -204.790E+06    -27.0744E+06    -1.29926E+06
            1482     76.9932E-03     1.94666E-03     76.9686E-03     54.9968E-03    -27.3618E-03    -27.6350E-03    -27.6266E-03     54.9883E-03    -27.3618E-03     1.62386E-03     56.0974E-03     181.729E+06    -22.4221E+06    -28.3977E+06    -207.043E+06    -28.4008E+06    -207.040E+06    -22.4221E+06     564.101E+03
            1483     77.0258E-03     2.91898E-03     76.9704E-03     54.9088E-03    -27.3631E-03    -27.5462E-03    -27.4521E-03     54.8915E-03    -27.4398E-03     2.34709E-03     56.6982E-03     182.791E+06    -22.5767E+06    -27.6730E+06    -207.840E+06    -26.0889E+06    -207.837E+06    -24.1637E+06    -135.161E+03
            1484     77.0714E-03     3.89297E-03     76.9730E-03     54.7509E-03    -27.3211E-03    -27.4310E-03    -27.2886E-03     54.7155E-03    -27.4281E-03     3.34782E-03     57.6643E-03     181.568E+06    -22.5701E+06    -26.6316E+06    -206.126E+06    -25.0477E+06    -206.123E+06    -24.1572E+06    -225.671E+03
            1485     77.1307E-03     4.86622E-03     76.9771E-03     54.8147E-03    -27.3464E-03    -27.4683E-03    -27.3306E-03     54.7547E-03    -27.4241E-03     4.41598E-03     59.3510E-03     177.452E+06    -18.3242E+06    -22.9826E+06    -198.046E+06    -23.0041E+06    -198.024E+06    -18.3242E+06    -882.467E+03
            1486     77.2032E-03     5.83930E-03     76.9821E-03     54.7612E-03    -27.3170E-03    -27.4432E-03    -27.2723E-03     54.6685E-03    -27.3952E-03     5.48068E-03     61.3296E-03     167.805E+06    -17.3364E+06    -21.6066E+06    -187.226E+06    -21.1527E+06    -187.104E+06    -17.9117E+06    -3.83385E+06
            1487     77.2898E-03     6.81301E-03     76.9890E-03     54.7112E-03    -27.3170E-03    -27.3962E-03    -27.2188E-03     54.5647E-03    -27.3479E-03     6.88377E-03     63.8089E-03     156.509E+06    -19.3212E+06    -21.6756E+06    -176.988E+06    -20.2678E+06    -176.762E+06    -20.9551E+06    -5.80831E+06
            1488     77.3894E-03     7.78630E-03     76.9968E-03     54.7482E-03    -27.3191E-03    -27.4266E-03    -27.2078E-03     54.5294E-03    -27.3191E-03     8.43316E-03     67.0800E-03     142.240E+06    -18.1208E+06    -20.3982E+06    -161.479E+06    -19.1392E+06    -161.266E+06    -19.5928E+06    -5.37836E+06
            1489     77.5035E-03     8.75961E-03     77.0069E-03     54.7139E-03    -27.2757E-03    -27.4121E-03    -27.1206E-03     54.4224E-03    -27.2757E-03     9.74884E-03     70.9056E-03     122.055E+06    -17.9832E+06    -20.3075E+06    -141.181E+06    -19.0556E+06    -140.888E+06    -19.5288E+06    -5.75560E+06
            1490     77.6300E-03     9.73275E-03     77.0175E-03     54.6493E-03    -27.2244E-03    -27.4228E-03    -26.9855E-03     54.2120E-03    -27.2244E-03     11.8466E-03     75.9768E-03     103.200E+06    -17.0074E+06    -21.0677E+06    -122.151E+06    -17.3653E+06    -121.793E+06    -21.0677E+06    -6.00054E+06
            1491     77.7723E-03     10.7069E-03     77.0318E-03     54.5979E-03    -27.1560E-03    -27.4756E-03    -26.8487E-03     53.9710E-03    -27.1560E-03     14.2583E-03     82.4826E-03     76.4863E+06    -14.9839E+06    -24.0852E+06    -95.4391E+06    -15.2599E+06    -95.1631E+06    -24.0852E+06    -4.55153E+06
            1492     77.9279E-03     11.6810E-03     77.0475E-03     54.7398E-03    -27.0644E-03    -27.7079E-03    -26.8493E-03     53.8812E-03    -27.0644E-03     16.6668E-03     89.6161E-03     37.4149E+06    -15.1361E+06    -28.3354E+06    -56.0824E+06    -15.4151E+06    -55.8034E+06    -28.3354E+06    -3.10207E+06
            1493     78.0988E-03     12.6535E-03     77.0670E-03     55.0542E-03    -26.9411E-03    -28.1362E-03    -26.6827E-03     53.6007E-03    -26.9411E-03     21.5374E-03     100.900E-03     36.3466E+06     2.39927E+06    -22.7969E+06    -39.0897E+06    -15.8752E+06    -6.95686E+06    -36.6553E+06    -2.00824E+06
            1494     78.2887E-03     13.6284E-03     77.0933E-03     55.7470E-03    -26.7732E-03    -28.9779E-03    -26.1788E-03     52.9479E-03    -26.7732E-03     29.8817E-03     118.096E-03     101.745E+06     66.4610E+06    -16.9819E+06    -45.8097E+06    -16.9265E+06     66.4056E+06    -45.8097E+06    -537.006E+03
            1495     78.5001E-03     14.6034E-03     77.1298E-03     60.5213E-03    -26.8141E-03    -33.7151E-03    -25.8936E-03     52.6998E-03    -26.8141E-03     50.3369E-03     146.897E-03     149.539E+06     129.736E+06    -389.481E+03    -33.5247E+06    -18.5471E+06     129.727E+06    -15.3588E+06     773.886E+03
            1496     78.7562E-03     15.5766E-03     77.2005E-03     77.8026E-03    -27.0865E-03    -50.7273E-03    -27.0053E-03     54.0806E-03    -27.0865E-03     97.8896E-03     215.960E-03     161.552E+06     166.496E+06     57.2480E+06    -15.5473E+06    -15.5369E+06     166.486E+06     57.2480E+06     561.665E+03
            1497     79.0884E-03     16.5541E-03     77.3365E-03     78.5962E-03    -27.3704E-03    -51.2299E-03    -27.5780E-03     54.9442E-03    -27.3704E-03     98.1858E-03     246.867E-03     181.704E+06     196.904E+06     128.076E+06    -7.74968E+06    -7.74287E+06     196.897E+06     128.076E+06     143.779E+03
            1498     78.0279E-03     973.011E-06     78.0218E-03     54.7332E-03    -27.3066E-03    -27.4272E-03    -27.3529E-03     54.7274E-03    -27.3753E-03     1.04767E-03     55.5489E-03     176.593E+06    -27.6274E+06    -32.3130E+06    -206.509E+06    -31.3603E+06    -206.417E+06    -28.6726E+06    -473.765E+03
            1499     78.0483E-03     1.94630E-03     78.0240E-03     54.7291E-03    -27.2769E-03    -27.4533E-03    -27.3046E-03     54.7188E-03    -27.4154E-03     1.81286E-03     55.6851E-03     181.553E+06    -21.0424E+06    -29.3115E+06    -206.579E+06    -29.3595E+06    -206.531E+06    -21.0424E+06     1.64507E+06
            1500     78.0805E-03     2.92023E-03     78.0258E-03     54.7749E-03    -27.3001E-03    -27.4757E-03    -27.3498E-03     54.7584E-03    -27.4095E-03     2.28613E-03     56.5336E-03     183.082E+06    -20.0597E+06    -26.9332E+06    -206.457E+06    -26.9368E+06    -206.453E+06    -20.0597E+06    -285.805E+03
            1501     78.1251E-03     3.89291E-03     78.0281E-03     54.8412E-03    -27.3563E-03    -27.4851E-03    -27.4168E-03     54.8051E-03    -27.3885E-03     3.36019E-03     57.8293E-03     181.208E+06    -22.8019E+06    -26.4726E+06    -205.810E+06    -24.8617E+06    -205.769E+06    -24.4535E+06    -1.84436E+06
            1502     78.1842E-03     4.86620E-03     78.0327E-03     54.8774E-03    -27.3889E-03    -27.4883E-03    -27.4235E-03     54.8126E-03    -27.3889E-03     4.58815E-03     59.4236E-03     173.302E+06    -20.9280E+06    -24.1343E+06    -195.800E+06    -22.2783E+06    -195.706E+06    -22.8778E+06    -3.54899E+06
            1503     78.2558E-03     5.83933E-03     78.0376E-03     54.9142E-03    -27.3664E-03    -27.5482E-03    -27.4221E-03     54.8189E-03    -27.3973E-03     5.57552E-03     61.5066E-03     163.715E+06    -18.3529E+06    -20.3340E+06    -183.045E+06    -20.1870E+06    -182.894E+06    -18.6511E+06    -4.85635E+06
            1504     78.3406E-03     6.81250E-03     78.0438E-03     54.8037E-03    -27.3187E-03    -27.4852E-03    -27.2828E-03     54.6606E-03    -27.3780E-03     6.81046E-03     63.9665E-03     156.256E+06    -17.8025E+06    -20.0572E+06    -175.168E+06    -18.8085E+06    -174.898E+06    -19.3219E+06    -6.39848E+06
            1505     78.4398E-03     7.78598E-03     78.0524E-03     54.7042E-03    -27.3039E-03    -27.3984E-03    -27.1466E-03     54.4810E-03    -27.3324E-03     8.49356E-03     67.0872E-03     142.580E+06    -16.9582E+06    -20.8920E+06    -161.444E+06    -17.3705E+06    -161.031E+06    -20.8920E+06    -7.33109E+06
            1506     78.5518E-03     8.75944E-03     78.0619E-03     54.6969E-03    -27.2847E-03    -27.3906E-03    -27.0938E-03     54.4001E-03    -27.2847E-03     9.83926E-03     70.9653E-03     123.077E+06    -14.6478E+06    -19.1038E+06    -139.875E+06    -15.1292E+06    -139.394E+06    -19.1038E+06    -7.40988E+06
            1507     78.6772E-03     9.73335E-03     78.0728E-03     54.6887E-03    -27.2408E-03    -27.4475E-03    -27.0176E-03     54.2588E-03    -27.2408E-03     11.7524E-03     76.1088E-03     105.424E+06    -14.6381E+06    -19.4493E+06    -122.367E+06    -15.0955E+06    -121.910E+06    -19.4493E+06    -6.99893E+06
            1508     78.8171E-03     10.7066E-03     78.0865E-03     54.7282E-03    -27.1721E-03    -27.5932E-03    -26.9743E-03     54.1092E-03    -27.1721E-03     14.1878E-03     82.7378E-03     77.5746E+06    -15.9077E+06    -24.7280E+06    -97.3344E+06    -16.3133E+06    -96.9287E+06    -24.7280E+06    -5.70707E+06
            1509     78.9714E-03     11.6799E-03     78.1029E-03     54.7182E-03    -27.0788E-03    -27.6743E-03    -26.8072E-03     53.8511E-03    -27.0788E-03     16.7302E-03     89.6810E-03     38.3049E+06    -15.5182E+06    -29.2671E+06     -57.483E+06    -16.0468E+06    -56.9544E+06    -29.2671E+06    -4.20945E+06
            1510     79.1407E-03     12.6544E-03     78.1225E-03     54.9425E-03    -26.9452E-03    -28.0155E-03    -26.5516E-03     53.4786E-03    -26.9452E-03     21.6064E-03     100.917E-03     37.6231E+06     1.92213E+06    -23.6491E+06    -41.0672E+06    -16.2225E+06    -8.46201E+06    -38.1096E+06    -2.81829E+06
            1511     79.3270E-03     13.6280E-03     78.1476E-03     55.9795E-03    -26.7754E-03    -29.2038E-03    -26.4033E-03     53.1790E-03    -26.7754E-03     29.9850E-03     118.215E-03     101.977E+06     64.5812E+06    -17.5087E+06    -48.5078E+06    -17.4362E+06     64.5087E+06    -48.5078E+06    -1.00885E+06
            1512     79.5374E-03     14.6016E-03     78.1856E-03     60.4678E-03    -26.8285E-03    -33.6440E-03    -26.0703E-03     52.8941E-03    -26.8285E-03     49.6200E-03     146.971E-03     149.318E+06     129.486E+06    -630.430E+03    -33.5309E+06    -16.9809E+06     129.474E+06    -17.1690E+06     296.379E+03
            1513     79.7888E-03     15.5793E-03     78.2530E-03     77.9574E-03    -27.1194E-03    -50.8481E-03    -27.1106E-03     54.2200E-03    -27.1194E-03     97.8707E-03     216.849E-03     161.657E+06     167.587E+06     57.5904E+06    -14.0279E+06    -14.0135E+06     167.573E+06     57.5904E+06     506.215E+03
            1514     80.1230E-03     16.5509E-03     78.3949E-03     78.7349E-03    -27.3936E-03    -51.3428E-03    -27.2918E-03     54.6839E-03    -27.3936E-03     99.0994E-03     247.442E-03     182.006E+06     196.705E+06     127.458E+06    -8.49214E+06    -8.47966E+06     196.692E+06     127.458E+06     77.7282E+03
            1515     79.0836E-03     973.189E-06     79.0776E-03     54.6845E-03    -27.2773E-03    -27.4078E-03    -27.3284E-03     54.6786E-03    -27.3508E-03     1.21927E-03     55.4011E-03     175.227E+06    -31.1747E+06    -37.5375E+06    -209.493E+06    -36.5701E+06    -209.415E+06    -32.2199E+06    -265.808E+03
            1516     79.1028E-03     1.94662E-03     79.0788E-03     54.6201E-03    -27.2343E-03    -27.3865E-03    -27.2335E-03     54.6104E-03    -27.3776E-03     1.77687E-03     55.4725E-03     178.670E+06    -23.9669E+06    -30.7403E+06    -205.904E+06    -30.7988E+06    -205.845E+06    -23.9669E+06     1.50727E+06
            1517     79.1348E-03     2.91971E-03     79.0809E-03     54.7072E-03    -27.2768E-03    -27.4318E-03    -27.3384E-03     54.6911E-03    -27.3540E-03     2.24403E-03     56.4342E-03     178.729E+06    -22.8586E+06    -27.7731E+06    -203.969E+06    -26.8512E+06    -203.941E+06    -23.8083E+06    -580.458E+03
            1518     79.1796E-03     3.89309E-03     79.0838E-03     54.8513E-03    -27.3480E-03    -27.5033E-03    -27.4685E-03     54.8165E-03    -27.3480E-03     3.31359E-03     57.8371E-03     175.675E+06    -23.9989E+06    -28.0914E+06    -201.679E+06    -25.0025E+06    -201.569E+06    -27.1983E+06    -3.88815E+06
            1519     79.2372E-03     4.86621E-03     79.0876E-03     54.8318E-03    -27.3518E-03    -27.4795E-03    -27.4130E-03     54.7653E-03    -27.3518E-03     4.62448E-03     59.3781E-03     167.909E+06    -24.4143E+06    -28.2769E+06    -194.212E+06    -24.6093E+06    -194.017E+06    -28.2769E+06    -5.69707E+06
            1520     79.3087E-03     5.83957E-03     79.0934E-03     54.8675E-03    -27.3572E-03    -27.5120E-03    -27.4075E-03     54.7630E-03    -27.3572E-03     5.83648E-03     61.4883E-03     156.785E+06    -23.4960E+06    -25.3301E+06    -181.181E+06    -23.7981E+06    -180.921E+06    -25.2886E+06    -6.28628E+06
            1521     79.3924E-03     6.81235E-03     79.0995E-03     54.8694E-03    -27.3318E-03    -27.5360E-03    -27.3577E-03     54.7197E-03    -27.3603E-03     6.98433E-03     64.0743E-03     149.759E+06    -21.4614E+06    -22.4985E+06    -171.736E+06    -21.9976E+06    -171.241E+06    -22.4570E+06    -8.21204E+06
            1522     79.4891E-03     7.78593E-03     79.1069E-03     54.7479E-03    -27.2976E-03    -27.4556E-03    -27.1913E-03     54.5121E-03    -27.3262E-03     8.71840E-03     67.1512E-03     138.919E+06    -18.8884E+06    -23.8461E+06    -160.183E+06    -19.6269E+06    -159.445E+06    -23.8461E+06    -9.95233E+06
            1523     79.6010E-03     8.75952E-03     79.1175E-03     54.7052E-03    -27.2799E-03    -27.4178E-03    -27.1209E-03     54.4084E-03    -27.2799E-03     9.85705E-03     70.9740E-03     119.901E+06    -17.6758E+06    -23.7635E+06    -140.494E+06    -18.3977E+06    -139.772E+06    -23.7635E+06    -9.32557E+06
            1524     79.7241E-03     9.73258E-03     79.1278E-03     54.7310E-03    -27.2525E-03    -27.4842E-03    -27.0659E-03     54.3127E-03    -27.2525E-03     11.5744E-03     76.2456E-03     103.854E+06    -16.8171E+06    -21.1260E+06    -122.749E+06    -17.4442E+06    -122.122E+06    -21.1260E+06    -7.99640E+06
            1525     79.8631E-03     10.7065E-03     79.1422E-03     54.7565E-03    -27.1848E-03    -27.6134E-03    -26.9749E-03     54.1179E-03    -27.1848E-03     14.4021E-03     82.8576E-03     78.9023E+06    -14.8725E+06    -25.4986E+06    -98.1619E+06    -15.5202E+06    -97.5142E+06    -25.4986E+06    -7.13392E+06
            1526     80.0152E-03     11.6800E-03     79.1581E-03     54.6462E-03    -27.0825E-03    -27.6035E-03    -26.7378E-03     53.7805E-03    -27.0825E-03     16.7394E-03     89.7522E-03     41.1735E+06    -13.9999E+06    -31.2858E+06    -59.5743E+06    -14.8528E+06    -58.7213E+06    -31.2858E+06    -5.72708E+06
            1527     80.1815E-03     12.6539E-03     79.1767E-03     54.9293E-03    -26.9480E-03    -28.0000E-03    -26.5449E-03     53.4742E-03    -26.9480E-03     21.4990E-03     101.072E-03     38.0083E+06     1.00066E+06    -24.1252E+06    -42.3543E+06    -15.5222E+06    -10.5539E+06    -39.4027E+06    -3.54806E+06
            1528     80.3679E-03     13.6282E-03     79.2039E-03     56.0333E-03    -26.7806E-03    -29.2517E-03    -26.4348E-03     53.2164E-03    -26.7806E-03     30.0972E-03     118.623E-03     101.159E+06     63.2912E+06    -16.8626E+06    -49.0645E+06    -16.7642E+06     63.1928E+06    -49.0645E+06    -1.78962E+06
            1529     80.5745E-03     14.6026E-03     79.2402E-03     60.7346E-03    -26.8424E-03    -33.8988E-03    -26.3719E-03     53.2078E-03    -26.8424E-03     49.7073E-03     147.103E-03     149.422E+06     128.210E+06    -1.58059E+06    -35.1305E+06    -18.1968E+06     128.200E+06    -18.5050E+06    -498.830E+03
            1530     80.8228E-03     15.5745E-03     79.3080E-03     78.5109E-03    -27.1435E-03    -51.3759E-03    -27.4027E-03     54.5377E-03    -27.1435E-03     98.6095E-03     217.293E-03     161.330E+06     166.507E+06     54.8872E+06    -14.9367E+06    -14.9262E+06     166.497E+06     54.8872E+06     643.412E+03
            1531     81.1556E-03     16.5530E-03     79.4495E-03     78.5979E-03    -27.4189E-03    -51.1786E-03    -26.9810E-03     54.4003E-03    -27.4189E-03     99.1210E-03     247.810E-03     181.786E+06     197.511E+06     126.547E+06    -7.51377E+06    -7.50371E+06     197.501E+06     126.547E+06     50.0949E+03
            1532     80.1383E-03     973.475E-06     80.1324E-03     54.6331E-03    -27.2047E-03    -27.4271E-03    -27.3731E-03     54.6307E-03    -27.2563E-03     676.787E-06     55.3229E-03     172.773E+06    -35.1847E+06    -39.4242E+06    -210.022E+06    -38.8696E+06    -210.000E+06    -35.7620E+06    -260.913E+03
            1533     80.1578E-03     1.94656E-03     80.1342E-03     54.5805E-03    -27.2456E-03    -27.3338E-03    -27.2456E-03     54.5716E-03    -27.3249E-03     1.59661E-03     55.4201E-03     171.189E+06    -32.8365E+06    -36.2163E+06    -205.676E+06    -35.2851E+06    -205.615E+06    -33.8283E+06    -1.55505E+06
            1534     80.1894E-03     2.91994E-03     80.1362E-03     54.6586E-03    -27.2818E-03    -27.3769E-03    -27.3294E-03     54.6387E-03    -27.3095E-03     2.51194E-03     56.3589E-03     168.207E+06    -30.5988E+06    -32.9654E+06    -199.971E+06    -31.1804E+06    -199.815E+06    -32.5403E+06    -3.48518E+06
            1535     80.2336E-03     3.89312E-03     80.1391E-03     54.8086E-03    -27.3326E-03    -27.4753E-03    -27.4402E-03     54.7735E-03    -27.3326E-03     3.36994E-03     57.7605E-03     169.074E+06    -27.7982E+06    -29.9898E+06    -197.954E+06    -28.1092E+06    -197.726E+06    -29.9065E+06    -6.00411E+06
            1536     80.2907E-03     4.86621E-03     80.1431E-03     54.8464E-03    -27.3532E-03    -27.4932E-03    -27.4304E-03     54.7837E-03    -27.3532E-03     4.48787E-03     59.4007E-03     165.280E+06    -25.1298E+06    -27.6869E+06    -191.666E+06    -25.5431E+06    -191.337E+06    -27.6030E+06    -7.24856E+06
            1537     80.3608E-03     5.83940E-03     80.1483E-03     54.7564E-03    -27.3333E-03    -27.4245E-03    -27.3117E-03     54.6549E-03    -27.3446E-03     5.73655E-03     61.3499E-03     154.178E+06    -23.2344E+06    -26.2958E+06    -178.905E+06    -23.8187E+06    -178.405E+06    -26.2120E+06    -8.62246E+06
            1538     80.4443E-03     6.81319E-03     80.1553E-03     54.8207E-03    -27.3223E-03    -27.4967E-03    -27.3425E-03     54.6779E-03    -27.3336E-03     6.82542E-03     64.0315E-03     144.487E+06    -22.2952E+06    -24.7920E+06    -168.004E+06    -23.0659E+06    -167.234E+06    -24.7920E+06    -10.4139E+06
            1539     80.5396E-03     7.78593E-03     80.1624E-03     54.9064E-03    -27.3244E-03    -27.5795E-03    -27.3552E-03     54.6820E-03    -27.3244E-03     8.50906E-03     67.3792E-03     135.081E+06    -21.5325E+06    -24.7387E+06    -158.159E+06    -22.5329E+06    -157.158E+06    -24.7387E+06    -11.5816E+06
            1540     80.6498E-03     8.75913E-03     80.1728E-03     54.7305E-03    -27.2733E-03    -27.4429E-03    -27.1308E-03     54.4300E-03    -27.2850E-03     9.91037E-03     71.0143E-03     118.614E+06    -19.6126E+06    -25.8872E+06    -141.163E+06    -20.7893E+06    -139.986E+06    -25.8872E+06    -11.7127E+06
            1541     80.7718E-03     9.73284E-03     80.1833E-03     54.7039E-03    -27.2363E-03    -27.4802E-03    -27.0305E-03     54.2659E-03    -27.2480E-03     11.8480E-03     76.2771E-03     103.624E+06    -15.7333E+06    -23.9989E+06    -123.191E+06    -17.0025E+06    -121.922E+06    -23.9989E+06    -11.4605E+06
            1542     80.9085E-03     10.7061E-03     80.1971E-03     54.7239E-03    -27.1778E-03    -27.5893E-03    -26.9426E-03     54.0772E-03    -27.1778E-03     14.5002E-03     82.8962E-03     80.4646E+06    -13.5794E+06    -28.1785E+06    -99.9012E+06    -14.7806E+06       -98.7E+06    -28.1785E+06    -9.99549E+06
            1543     81.0592E-03     11.6802E-03     80.2132E-03     54.7427E-03    -27.0768E-03    -27.7017E-03    -26.8439E-03     53.8848E-03    -27.0768E-03     16.6890E-03     89.9031E-03     43.9705E+06    -13.0978E+06    -34.2623E+06    -62.1579E+06    -14.2422E+06    -61.0134E+06    -34.2623E+06    -7.21354E+06
            1544     81.2239E-03     12.6537E-03     80.2322E-03     55.0434E-03    -26.9542E-03    -28.1096E-03    -26.6682E-03     53.6020E-03    -26.9542E-03     21.4187E-03     101.297E-03     40.1108E+06     679.326E+03    -25.1260E+06    -44.8637E+06    -14.5787E+06    -12.9768E+06    -41.7548E+06    -4.35624E+06
            1545     81.4072E-03     13.6277E-03     80.2585E-03     55.9223E-03    -26.7833E-03    -29.1437E-03    -26.3432E-03     53.1218E-03    -26.7833E-03     29.9659E-03     118.486E-03     101.883E+06     61.4441E+06    -17.0444E+06    -52.0745E+06    -16.8620E+06     61.2617E+06    -52.0745E+06    -2.04697E+06
            1546     81.6126E-03     14.6021E-03     80.2956E-03     60.7629E-03    -26.8409E-03    -33.9317E-03    -26.4784E-03     53.3096E-03    -26.8409E-03     49.5418E-03     147.078E-03     149.667E+06     127.037E+06    -3.21159E+06    -36.3729E+06    -17.9483E+06     127.014E+06    -21.6129E+06    -975.234E+03
            1547     81.8598E-03     15.5786E-03     80.3638E-03     78.5662E-03    -27.1577E-03    -51.4161E-03    -27.5588E-03     54.7088E-03    -27.1577E-03     98.3883E-03     217.533E-03     160.991E+06     166.154E+06     53.6769E+06    -14.3021E+06    -14.2762E+06     166.128E+06     53.6769E+06    -1.22081E+06
            1548     82.1881E-03     16.5496E-03     80.5047E-03     78.6422E-03    -27.4449E-03    -51.1992E-03    -26.9237E-03     54.3667E-03    -27.4449E-03     99.3619E-03     247.937E-03     181.906E+06     197.686E+06     126.610E+06    -7.50395E+06    -7.48602E+06     197.668E+06     126.610E+06    -32.0592E+03
            1549     81.1942E-03     972.805E-06     81.1884E-03     54.6922E-03    -27.1629E-03    -27.5281E-03    -27.4797E-03     54.6906E-03    -27.2097E-03     634.660E-06     55.1781E-03     170.884E+06    -35.7413E+06    -38.6641E+06    -208.058E+06    -37.5738E+06    -208.037E+06    -36.8524E+06     35.7501E+03
            1550     81.2120E-03     1.94645E-03     81.1887E-03     54.6136E-03    -27.2644E-03    -27.3478E-03    -27.2643E-03     54.6046E-03    -27.3389E-03     1.57133E-03     55.4521E-03     166.747E+06    -34.2644E+06    -36.3197E+06    -202.026E+06    -34.9018E+06    -201.919E+06    -35.7900E+06    -3.61662E+06
            1551     81.2441E-03     2.91991E-03     81.1916E-03     54.6632E-03    -27.2909E-03    -27.3713E-03    -27.3192E-03     54.6428E-03    -27.3226E-03     2.56296E-03     56.3674E-03     160.849E+06    -33.1654E+06    -34.7459E+06    -194.794E+06    -33.9114E+06    -194.467E+06    -34.3262E+06    -7.05816E+06
            1552     81.2878E-03     3.89292E-03     81.1945E-03     54.8006E-03    -27.3332E-03    -27.4674E-03    -27.4280E-03     54.7652E-03    -27.3372E-03     3.38117E-03     57.7873E-03     162.143E+06    -31.5967E+06    -33.5288E+06    -194.691E+06    -32.2218E+06    -194.149E+06    -33.4455E+06    -9.07624E+06
            1553     81.3443E-03     4.86617E-03     81.1986E-03     54.8553E-03    -27.3524E-03    -27.5050E-03    -27.4439E-03     54.7942E-03    -27.3524E-03     4.44510E-03     59.4482E-03     158.792E+06    -28.4455E+06    -32.1956E+06    -189.058E+06    -29.2825E+06    -188.305E+06    -32.1117E+06    -10.5581E+06
            1554     81.4135E-03     5.83932E-03     81.2038E-03     54.8025E-03    -27.3339E-03    -27.4692E-03    -27.3644E-03     54.7090E-03    -27.3452E-03     5.52250E-03     61.3703E-03     148.287E+06    -25.0199E+06    -30.2281E+06    -175.819E+06    -26.0989E+06    -174.824E+06    -30.1442E+06    -11.9612E+06
            1555     81.4953E-03     6.81239E-03     81.2101E-03     54.8191E-03    -27.3336E-03    -27.4812E-03    -27.3297E-03     54.6788E-03    -27.3449E-03     6.74471E-03     64.0759E-03     141.868E+06    -21.5845E+06    -25.9148E+06    -165.557E+06    -22.7610E+06    -164.381E+06    -25.9148E+06    -12.7942E+06
            1556     81.5909E-03     7.78582E-03     81.2185E-03     54.8495E-03    -27.3401E-03    -27.4985E-03    -27.2845E-03     54.6355E-03    -27.3401E-03     8.33428E-03     67.3426E-03     135.353E+06    -18.2169E+06    -22.8992E+06    -155.781E+06    -19.6531E+06    -154.344E+06    -22.8992E+06    -13.8359E+06
            1557     81.6985E-03     8.75911E-03     81.2276E-03     54.7379E-03    -27.2661E-03    -27.4533E-03    -27.1449E-03     54.4412E-03    -27.2778E-03     9.83418E-03     70.9389E-03     119.220E+06    -15.3553E+06    -27.2444E+06    -139.874E+06    -17.2957E+06    -137.933E+06    -27.2444E+06    -15.2428E+06
            1558     81.8196E-03     9.73283E-03     81.2386E-03     54.7186E-03    -27.2235E-03    -27.5035E-03    -27.0645E-03     54.2914E-03    -27.2352E-03     11.7493E-03     76.2035E-03     104.147E+06    -13.7560E+06    -27.8916E+06    -124.199E+06    -15.9303E+06    -122.024E+06    -27.8916E+06    -15.2417E+06
            1559     81.9548E-03     10.7065E-03     81.2524E-03     54.7275E-03    -27.1788E-03    -27.5815E-03    -26.9602E-03     54.1062E-03    -27.1788E-03     14.1928E-03     82.8502E-03     82.7150E+06    -12.3305E+06    -30.2424E+06    -101.999E+06    -14.2715E+06    -100.058E+06    -30.2424E+06    -12.9607E+06
            1560     82.1034E-03     11.6798E-03     81.2684E-03     54.7513E-03    -27.0738E-03    -27.7069E-03    -26.8248E-03     53.8692E-03    -27.0738E-03     16.8939E-03     89.7893E-03     48.5012E+06    -11.3997E+06    -37.0156E+06    -65.8094E+06    -13.1546E+06    -64.0546E+06    -37.0156E+06    -9.41419E+06
            1561     82.2668E-03     12.6535E-03     81.2878E-03     55.1261E-03    -26.9469E-03    -28.1971E-03    -26.7491E-03     53.6782E-03    -26.9469E-03     21.5566E-03     101.238E-03     44.1800E+06     606.208E+03    -26.1283E+06    -49.3515E+06    -13.1320E+06    -16.2762E+06    -45.4653E+06    -5.99265E+06
            1562     82.4473E-03     13.6277E-03     81.3132E-03     56.0779E-03    -26.7850E-03    -29.2980E-03    -26.4864E-03     53.2663E-03    -26.7850E-03     30.0280E-03     118.359E-03     101.465E+06     59.3308E+06    -14.2159E+06    -54.5136E+06    -13.7804E+06     58.8953E+06    -54.5136E+06    -2.95774E+06
            1563     82.6514E-03     14.6018E-03     81.3513E-03     60.8937E-03    -26.8552E-03    -34.0497E-03    -26.3894E-03     53.2334E-03    -26.8552E-03     50.1803E-03     147.011E-03     148.005E+06     127.307E+06     496.795E+03    -35.1130E+06    -14.1211E+06     127.275E+06    -20.4638E+06    -1.54563E+06
            1564     82.8950E-03     15.5736E-03     81.4189E-03     78.5827E-03    -27.1704E-03    -51.4251E-03    -27.4085E-03     54.5661E-03    -27.1704E-03     98.7731E-03     217.517E-03     161.118E+06     167.128E+06     55.4013E+06    -13.4194E+06    -13.3895E+06     167.098E+06     55.4013E+06    -807.590E+03
            1565     83.2222E-03     16.5527E-03     81.5595E-03     78.6639E-03    -27.4446E-03    -51.2262E-03    -26.8604E-03     54.2981E-03    -27.4446E-03     99.5953E-03     247.836E-03     182.447E+06     196.341E+06     125.541E+06    -9.51871E+06    -9.49359E+06     196.316E+06     125.541E+06     505.815E+03
            1566     82.2489E-03     973.725E-06     82.2432E-03     54.5708E-03    -27.0255E-03    -27.5444E-03    -27.3145E-03     54.5684E-03    -27.2529E-03     582.691E-06     54.9984E-03     169.405E+06    -32.5103E+06    -38.3283E+06    -204.730E+06    -35.3059E+06    -204.677E+06    -35.5862E+06    -2.36973E+06
            1567     82.2676E-03     1.94647E-03     82.2445E-03     54.8578E-03    -27.3412E-03    -27.5158E-03    -27.5064E-03     54.8485E-03    -27.3412E-03     1.68627E-03     55.6860E-03     162.987E+06    -32.2156E+06    -34.8256E+06    -196.489E+06    -33.8438E+06    -196.321E+06    -33.3655E+06    -4.65777E+06
            1568     82.2984E-03     2.91945E-03     82.2466E-03     54.8276E-03    -27.3653E-03    -27.4613E-03    -27.4256E-03     54.8088E-03    -27.3822E-03     2.46346E-03     56.5256E-03     154.995E+06    -32.4438E+06    -34.4486E+06    -188.428E+06    -33.2793E+06    -187.929E+06    -34.1121E+06    -8.49579E+06
            1569     82.3421E-03     3.89296E-03     82.2501E-03     54.7986E-03    -27.3619E-03    -27.4368E-03    -27.3771E-03     54.7647E-03    -27.3876E-03     3.29424E-03     57.7859E-03     156.949E+06    -30.5755E+06    -34.1655E+06    -189.281E+06    -31.4934E+06    -188.363E+06    -34.1655E+06    -11.9338E+06
            1570     82.3978E-03     4.86588E-03     82.2539E-03     54.8345E-03    -27.3565E-03    -27.4815E-03    -27.4129E-03     54.7747E-03    -27.3653E-03     4.39730E-03     59.4309E-03     153.114E+06    -28.6665E+06    -36.9078E+06    -185.685E+06    -30.0664E+06    -184.285E+06    -36.9078E+06    -14.5438E+06
            1571     82.4662E-03     5.83908E-03     82.2592E-03     54.7739E-03    -27.3133E-03    -27.4627E-03    -27.3361E-03     54.6766E-03    -27.3425E-03     5.61474E-03     61.3559E-03     142.044E+06    -26.4155E+06    -36.7654E+06    -173.323E+06    -28.1837E+06    -171.555E+06    -36.7654E+06    -15.8741E+06
            1572     82.5474E-03     6.81228E-03     82.2659E-03     54.7681E-03    -27.2989E-03    -27.4592E-03    -27.2698E-03     54.6079E-03    -27.3282E-03     7.18555E-03     63.9580E-03     135.686E+06    -23.0393E+06    -33.3127E+06    -163.437E+06    -25.1733E+06    -161.303E+06    -33.3127E+06    -16.9097E+06
            1573     82.6412E-03     7.78560E-03     82.2736E-03     54.7723E-03    -27.3083E-03    -27.4548E-03    -27.2343E-03     54.5517E-03    -27.3083E-03     8.49381E-03     67.1886E-03     128.696E+06    -19.1643E+06    -30.7317E+06    -153.131E+06    -21.8147E+06    -150.481E+06    -30.7317E+06    -18.2709E+06
            1574     82.7480E-03     8.75930E-03     82.2831E-03     54.7522E-03    -27.2668E-03    -27.4790E-03    -27.1838E-03     54.4570E-03    -27.2668E-03     9.79142E-03     70.9205E-03     115.649E+06    -16.1062E+06    -31.3733E+06    -138.550E+06    -19.1120E+06    -135.544E+06    -31.3733E+06    -18.7173E+06
            1575     82.8675E-03     9.73224E-03     82.2941E-03     54.7588E-03    -27.2333E-03    -27.5342E-03    -27.1018E-03     54.3265E-03    -27.2333E-03     11.8383E-03     76.1530E-03     102.968E+06    -14.4079E+06    -31.0323E+06    -124.647E+06    -17.4748E+06    -121.580E+06    -31.0323E+06    -18.0869E+06
            1576     83.0008E-03     10.7057E-03     82.3074E-03     54.7034E-03    -27.1812E-03    -27.5544E-03    -26.9260E-03     54.0751E-03    -27.1812E-03     14.2577E-03     82.7207E-03     83.8807E+06    -12.7115E+06    -33.2767E+06    -104.465E+06    -15.7254E+06    -101.451E+06    -33.2767E+06    -16.1966E+06
            1577     83.1481E-03     11.6800E-03     82.3237E-03     54.6885E-03    -27.0665E-03    -27.6566E-03    -26.7664E-03     53.7983E-03    -27.0665E-03     16.9664E-03     89.6905E-03     53.5600E+06    -10.6127E+06    -40.9523E+06    -70.5338E+06    -13.8621E+06    -67.2844E+06    -40.9523E+06    -13.1550E+06
            1578     83.3096E-03     12.6540E-03     82.3430E-03     55.1498E-03    -26.9346E-03    -28.2338E-03    -26.7619E-03     53.6779E-03    -26.9346E-03     21.7199E-03     101.098E-03     47.8359E+06     837.231E+03    -29.3865E+06    -52.9052E+06    -13.0273E+06    -19.6214E+06    -48.8058E+06    -9.19739E+06
            1579     83.4889E-03     13.6272E-03     82.3692E-03     56.1346E-03    -26.7903E-03    -29.3463E-03    -26.5638E-03     53.3520E-03    -26.7903E-03     29.9570E-03     118.450E-03     99.4170E+06     56.8228E+06    -14.0292E+06    -55.0792E+06    -12.9555E+06     55.7491E+06    -55.0792E+06    -5.07702E+06
            1580     83.6893E-03     14.6017E-03     82.4056E-03     60.6820E-03    -26.8530E-03    -33.8386E-03    -26.1031E-03     52.9465E-03    -26.8530E-03     50.1242E-03     146.773E-03     146.305E+06     124.989E+06      386.81E+03    -35.8391E+06    -14.1542E+06     124.935E+06    -21.2438E+06    -1.08285E+06
            1581     83.9338E-03     15.5794E-03     82.4752E-03     78.4961E-03    -27.1452E-03    -51.3649E-03    -27.1966E-03     54.3278E-03    -27.1452E-03     99.1275E-03     216.454E-03     161.223E+06     166.138E+06     53.5420E+06    -14.5021E+06    -14.4872E+06     166.123E+06     53.5420E+06     1.40261E+06
            1582     84.2555E-03     16.5501E-03     82.6141E-03     78.6982E-03    -27.4188E-03    -51.2862E-03    -27.0554E-03     54.4674E-03    -27.4188E-03     99.3317E-03     247.832E-03     182.459E+06     196.271E+06     124.063E+06    -9.86671E+06    -9.85653E+06     196.261E+06     124.063E+06     764.167E+03
            1583     83.3043E-03     973.341E-06     83.2986E-03     54.7217E-03    -27.1137E-03    -27.6069E-03    -27.2553E-03     54.7177E-03    -27.4613E-03     846.074E-06     55.1641E-03     163.758E+06    -33.3161E+06    -38.8145E+06    -199.739E+06    -36.3722E+06    -199.639E+06    -35.8582E+06    -2.32328E+06
            1584     83.3227E-03     1.94647E-03     83.3000E-03     54.9995E-03    -27.3631E-03    -27.6362E-03    -27.5804E-03     54.9924E-03    -27.4118E-03     1.46605E-03     55.8481E-03     152.414E+06    -34.9458E+06    -38.0767E+06    -188.897E+06    -37.7947E+06    -188.563E+06    -35.5619E+06    -6.51763E+06
            1585     83.3537E-03     2.91925E-03     83.3026E-03     54.9159E-03    -27.3834E-03    -27.5311E-03    -27.4506E-03     54.8970E-03    -27.4450E-03     2.40760E-03     56.6193E-03     146.453E+06    -33.9419E+06    -36.8901E+06    -181.843E+06    -35.1164E+06    -180.995E+06    -36.5634E+06    -10.8016E+06
            1586     83.3960E-03     3.89213E-03     83.3051E-03     54.8488E-03    -27.4099E-03    -27.4391E-03    -27.3801E-03     54.8118E-03    -27.4319E-03     3.44212E-03     57.7983E-03     148.616E+06    -31.4360E+06    -37.2572E+06    -182.861E+06    -32.9084E+06    -181.389E+06    -37.2572E+06    -14.5774E+06
            1587     83.4516E-03     4.86571E-03     83.3096E-03     54.7074E-03    -27.2870E-03    -27.4233E-03    -27.2562E-03     54.6457E-03    -27.3924E-03     4.46138E-03     59.2560E-03     146.804E+06    -28.4918E+06    -38.4649E+06    -179.993E+06    -30.6685E+06    -177.816E+06    -38.4649E+06    -17.7502E+06
            1588     83.5190E-03     5.83891E-03     83.3147E-03     54.6515E-03    -27.2105E-03    -27.4439E-03    -27.2146E-03     54.5477E-03    -27.3361E-03     5.77772E-03     61.2323E-03     138.320E+06    -25.5645E+06    -40.0318E+06    -170.483E+06    -28.5342E+06    -167.513E+06    -40.0318E+06    -20.2413E+06
            1589     83.5989E-03     6.81265E-03     83.3209E-03     54.7813E-03    -27.2745E-03    -27.5023E-03    -27.3142E-03     54.6224E-03    -27.3037E-03     7.18281E-03     63.9442E-03     130.544E+06    -23.0663E+06    -38.8437E+06    -160.702E+06    -26.6065E+06    -157.162E+06    -38.8437E+06    -21.5591E+06
            1590     83.6925E-03     7.78584E-03     83.3295E-03     54.7909E-03    -27.2987E-03    -27.4846E-03    -27.2729E-03     54.5792E-03    -27.2987E-03     8.30884E-03     67.1691E-03     122.993E+06    -21.0474E+06    -34.7278E+06    -150.265E+06    -25.0760E+06    -146.236E+06    -34.7278E+06    -22.3803E+06
            1591     83.7971E-03     8.75866E-03     83.3381E-03     54.6677E-03    -27.2701E-03    -27.3864E-03    -27.0889E-03     54.3701E-03    -27.2701E-03     9.81072E-03     70.8536E-03     112.822E+06    -18.4388E+06    -33.3796E+06    -137.941E+06    -22.9417E+06    -133.438E+06    -33.3796E+06    -22.6252E+06
            1592     83.9159E-03     9.73276E-03     83.3495E-03     54.6940E-03    -27.2302E-03    -27.4702E-03    -27.0267E-03     54.2505E-03    -27.2302E-03     11.9841E-03     76.0194E-03     102.254E+06    -15.8093E+06    -32.9895E+06    -125.563E+06    -20.1923E+06    -121.180E+06    -32.9895E+06    -21.3510E+06
            1593     84.0473E-03     10.7063E-03     83.3625E-03     54.8041E-03    -27.1791E-03    -27.6504E-03    -27.0252E-03     54.1789E-03    -27.1791E-03     14.2559E-03     82.8415E-03     84.2818E+06    -14.0891E+06    -35.3056E+06    -106.637E+06    -18.5827E+06    -102.143E+06    -35.3056E+06    -19.6568E+06
            1594     84.1928E-03     11.6796E-03     83.3788E-03     54.8097E-03    -27.0734E-03    -27.7686E-03    -26.8963E-03     53.9374E-03    -27.0734E-03     16.8145E-03     89.9292E-03     56.9348E+06    -11.8264E+06    -43.8718E+06    -75.2884E+06    -17.2827E+06    -69.8321E+06    -43.8718E+06    -17.3630E+06
            1595     84.3524E-03     12.6532E-03     83.3980E-03     55.0931E-03    -26.9432E-03    -28.1750E-03    -26.7120E-03     53.6301E-03    -26.9432E-03     21.6260E-03     101.134E-03     50.3572E+06    -459.945E+03    -34.5388E+06    -57.0822E+06    -16.0855E+06    -23.5329E+06    -52.4625E+06    -13.0978E+06
            1596     84.5306E-03     13.6278E-03     83.4249E-03     56.0911E-03    -26.8035E-03    -29.2904E-03    -26.5703E-03     53.3710E-03    -26.8035E-03     29.6582E-03     118.563E-03     98.2711E+06     52.8991E+06    -18.5562E+06    -57.8966E+06    -16.2775E+06     50.6204E+06    -57.8966E+06    -7.34734E+06
            1597     84.7284E-03     14.6015E-03     83.4608E-03     60.4587E-03    -26.8574E-03    -33.6093E-03    -26.3264E-03     53.1758E-03    -26.8574E-03     48.7139E-03     146.860E-03     144.927E+06     120.021E+06    -5.54680E+06    -37.9714E+06    -16.4631E+06     119.930E+06    -26.9635E+06    -1.92419E+06
            1598     84.9676E-03     15.5747E-03     83.5280E-03     77.9014E-03    -27.1373E-03    -50.7743E-03    -26.7589E-03     53.8860E-03    -27.1373E-03     97.9169E-03     215.952E-03     160.267E+06     164.218E+06     48.2426E+06    -14.0542E+06    -14.0138E+06     164.177E+06     48.2426E+06     1.74046E+06
            1599     85.2934E-03     16.5535E-03     83.6717E-03     78.6179E-03    -27.4035E-03    -51.2161E-03    -26.6845E-03     54.0864E-03    -27.4035E-03     99.5951E-03     247.935E-03     181.982E+06     197.688E+06     123.394E+06    -8.13193E+06    -8.09969E+06     197.655E+06     123.394E+06     1.72439E+06
            1600     84.3600E-03     973.098E-06     84.3544E-03     55.0224E-03    -27.2674E-03    -27.7540E-03    -27.5347E-03     55.0144E-03    -27.4787E-03     1.25764E-03     55.4009E-03     157.200E+06    -37.0182E+06    -39.9668E+06    -195.666E+06    -40.0889E+06    -195.544E+06    -37.0182E+06    -569.027E+03
            1601     84.3785E-03     1.94555E-03     84.3561E-03     54.9892E-03    -27.3705E-03    -27.6189E-03    -27.4677E-03     54.9779E-03    -27.5103E-03     1.82817E-03     55.8326E-03     143.241E+06    -33.4703E+06    -36.6454E+06    -178.269E+06    -36.3660E+06    -177.727E+06    -34.2918E+06    -8.04807E+06
            1602     84.4082E-03     2.91922E-03     84.3577E-03     54.9537E-03    -27.4080E-03    -27.5452E-03    -27.4448E-03     54.9335E-03    -27.4882E-03     2.49093E-03     56.6640E-03     140.114E+06    -32.6985E+06    -35.5099E+06    -174.193E+06    -34.1949E+06    -173.023E+06    -35.1832E+06    -12.7035E+06
            1603     84.4510E-03     3.89252E-03     84.3612E-03     54.7942E-03    -27.3388E-03    -27.4556E-03    -27.3076E-03     54.7558E-03    -27.4483E-03     3.52109E-03     57.7405E-03     140.026E+06    -31.7768E+06    -37.6813E+06    -174.640E+06    -33.8493E+06    -172.567E+06    -37.6813E+06    -16.8345E+06
            1604     84.5049E-03     4.86532E-03     84.3647E-03     54.6690E-03    -27.2201E-03    -27.4499E-03    -27.2115E-03     54.6050E-03    -27.3945E-03     4.53543E-03     59.2594E-03     138.996E+06    -29.3140E+06    -39.4780E+06    -173.096E+06    -32.7742E+06    -169.636E+06    -39.4780E+06    -21.7153E+06
            1605     84.5714E-03     5.83942E-03     84.3696E-03     54.7628E-03    -27.2513E-03    -27.5134E-03    -27.3128E-03     54.6586E-03    -27.3476E-03     5.81229E-03     61.3810E-03     134.118E+06    -25.8406E+06    -40.3528E+06    -166.563E+06    -30.4073E+06    -161.996E+06    -40.3528E+06    -24.7211E+06
            1606     84.6515E-03     6.81192E-03     84.3770E-03     54.8206E-03    -27.3252E-03    -27.4915E-03    -27.3375E-03     54.6666E-03    -27.3252E-03     7.07785E-03     63.9911E-03     127.666E+06    -22.9132E+06    -38.8790E+06    -157.746E+06    -28.0903E+06    -152.569E+06    -38.8790E+06    -25.7714E+06
            1607     84.7428E-03     7.78509E-03     84.3844E-03     54.7330E-03    -27.3208E-03    -27.4030E-03    -27.1926E-03     54.5226E-03    -27.3208E-03     8.27377E-03     67.1412E-03     122.051E+06    -19.8099E+06    -33.9984E+06    -148.298E+06    -25.3301E+06    -142.778E+06    -33.9984E+06    -25.8996E+06
            1608     84.8472E-03     8.75918E-03     84.3939E-03     54.6809E-03    -27.2846E-03    -27.3776E-03    -27.0940E-03     54.3973E-03    -27.2846E-03     9.59843E-03     70.9178E-03     112.433E+06    -17.0519E+06    -33.1249E+06    -136.618E+06    -23.0055E+06    -130.665E+06    -33.1249E+06    -25.9244E+06
            1609     84.9634E-03     9.73233E-03     84.4041E-03     54.7158E-03    -27.2408E-03    -27.4713E-03    -27.0513E-03     54.2958E-03    -27.2408E-03     11.6433E-03     76.0159E-03     103.078E+06    -15.1694E+06    -34.3668E+06    -126.476E+06    -21.4212E+06    -120.224E+06    -34.3668E+06    -25.5505E+06
            1610     85.0946E-03     10.7058E-03     84.4185E-03     54.7996E-03    -27.1873E-03    -27.6346E-03    -27.0274E-03     54.1923E-03    -27.1873E-03     14.0538E-03     82.8756E-03     87.1377E+06    -12.3433E+06    -36.6951E+06    -108.718E+06    -18.7904E+06    -102.271E+06    -36.6951E+06    -23.9158E+06
            1611     85.2377E-03     11.6793E-03     84.4338E-03     54.8495E-03    -27.0846E-03    -27.8037E-03    -26.9227E-03     53.9686E-03    -27.0846E-03     16.8831E-03     89.9943E-03     61.8436E+06    -9.49231E+06    -44.9978E+06    -78.7943E+06    -16.7710E+06    -71.5156E+06    -44.9978E+06    -20.9278E+06
            1612     85.3962E-03     12.6532E-03     84.4536E-03     55.1635E-03    -26.9499E-03    -28.2448E-03    -26.7425E-03     53.6612E-03    -26.9499E-03     21.9401E-03     101.173E-03     53.9544E+06    -1.65881E+06    -37.7869E+06    -62.4823E+06    -16.6343E+06    -28.7677E+06    -56.5261E+06    -16.0224E+06
            1613     85.5713E-03     13.6266E-03     84.4794E-03     56.2493E-03    -26.8070E-03    -29.4472E-03    -26.6385E-03     53.4405E-03    -26.8070E-03     30.1562E-03     118.670E-03     98.5102E+06     48.1590E+06    -22.0380E+06    -63.2236E+06    -17.8731E+06     43.9941E+06    -63.2236E+06    -9.37860E+06
            1614     85.7689E-03     14.6007E-03     84.5170E-03     60.8837E-03    -26.8714E-03    -34.0225E-03    -26.7253E-03     53.5864E-03    -26.8714E-03     49.1454E-03     147.030E-03     143.942E+06     115.360E+06    -9.96352E+06    -40.8917E+06    -18.2816E+06     115.197E+06    -32.4099E+06    -3.47220E+06
            1615     86.0053E-03     15.5759E-03     84.5831E-03     77.5961E-03    -27.1596E-03    -50.4453E-03    -26.8483E-03     53.9991E-03    -27.1596E-03     96.8463E-03     216.205E-03     159.410E+06     162.027E+06     42.4624E+06    -14.3424E+06    -14.3070E+06     161.992E+06     42.4624E+06     365.485E+03
            1616     86.3240E-03     16.5513E-03     84.7224E-03     78.1865E-03    -27.4198E-03    -50.7670E-03    -26.0266E-03     53.4460E-03    -27.4198E-03     99.8724E-03     248.261E-03     181.665E+06     197.927E+06     120.558E+06    -7.72933E+06    -7.69544E+06     197.893E+06     120.558E+06     1.35489E+06
            1617     85.4149E-03     972.614E-06     85.4094E-03     54.9679E-03    -27.2508E-03    -27.7158E-03    -27.4845E-03     54.9609E-03    -27.4752E-03     1.05642E-03     55.3464E-03     151.681E+06    -34.2714E+06    -39.1666E+06    -188.317E+06    -35.6647E+06    -188.040E+06    -38.0507E+06    -4.17531E+06
            1618     85.4341E-03     1.94684E-03     85.4119E-03     54.9369E-03    -27.3795E-03    -27.5571E-03    -27.4514E-03     54.9224E-03    -27.4706E-03     2.14546E-03     55.7521E-03     134.975E+06    -32.3170E+06    -36.6707E+06    -169.408E+06    -34.7203E+06    -168.702E+06     -34.974E+06    -9.28088E+06
            1619     85.4635E-03     2.91892E-03     85.4136E-03     54.9907E-03    -27.4443E-03    -27.5467E-03    -27.4955E-03     54.9710E-03    -27.4758E-03     2.53402E-03     56.7103E-03     132.099E+06    -30.1633E+06    -33.4991E+06    -163.896E+06    -32.5255E+06    -162.268E+06    -32.7648E+06    -14.2382E+06
            1620     85.5051E-03     3.89200E-03     85.4165E-03     54.8153E-03    -27.3435E-03    -27.4719E-03    -27.3290E-03     54.7817E-03    -27.4528E-03     3.28710E-03     57.8214E-03     134.596E+06    -27.5505E+06    -34.4650E+06    -165.421E+06    -30.3909E+06    -162.581E+06    -34.4650E+06    -19.2716E+06
            1621     85.5584E-03     4.86615E-03     85.4199E-03     54.8386E-03    -27.3341E-03    -27.5048E-03    -27.3662E-03     54.7778E-03    -27.4119E-03     4.42557E-03     59.4917E-03     133.363E+06    -25.5486E+06    -36.7462E+06    -164.136E+06    -30.0010E+06    -159.684E+06    -36.7462E+06    -24.2468E+06
            1622     85.6251E-03     5.83818E-03     85.4258E-03     54.8602E-03    -27.3523E-03    -27.5074E-03    -27.3630E-03     54.7552E-03    -27.3917E-03     5.82372E-03     61.5232E-03     130.876E+06    -23.7459E+06    -37.0996E+06    -160.774E+06    -29.7755E+06    -154.744E+06    -37.0996E+06    -27.9829E+06
            1623     85.7031E-03     6.81198E-03     85.4320E-03     54.7344E-03    -27.3133E-03    -27.4141E-03    -27.2147E-03     54.5743E-03    -27.3526E-03     7.20789E-03     63.9087E-03     125.465E+06    -21.5991E+06    -38.2299E+06    -154.525E+06    -28.4534E+06    -147.671E+06    -38.2299E+06    -29.2971E+06
            1624     85.7942E-03     7.78564E-03     85.4402E-03     54.7901E-03    -27.3214E-03    -27.4538E-03    -27.2398E-03     54.5761E-03    -27.3214E-03     8.36143E-03     67.2347E-03     119.409E+06    -19.3603E+06    -37.1708E+06    -146.651E+06    -26.7863E+06    -139.225E+06    -37.1708E+06    -29.7499E+06
            1625     85.8966E-03     8.75831E-03     85.4489E-03     54.8208E-03    -27.2971E-03    -27.4956E-03    -27.2176E-03     54.5428E-03    -27.2971E-03     9.52553E-03     71.1272E-03     111.161E+06    -15.8296E+06    -35.4967E+06    -135.404E+06    -24.0600E+06    -127.174E+06    -35.4967E+06    -30.0548E+06
            1626     86.0124E-03     9.73184E-03     85.4600E-03     54.7555E-03    -27.2648E-03    -27.4887E-03    -27.0642E-03     54.3310E-03    -27.2648E-03     11.6862E-03     76.1735E-03     104.595E+06    -11.7143E+06    -35.2395E+06    -126.026E+06    -20.3733E+06    -117.367E+06    -35.2395E+06    -30.1087E+06
            1627     86.1410E-03     10.7055E-03     85.4732E-03     54.6920E-03    -27.2016E-03    -27.5197E-03    -26.8928E-03     54.0651E-03    -27.2016E-03     14.2615E-03     82.7819E-03     92.2743E+06    -8.83287E+06    -38.7971E+06    -111.962E+06    -17.6221E+06    -103.173E+06    -38.7971E+06    -28.6743E+06
            1628     86.2836E-03     11.6794E-03     85.4895E-03     54.7752E-03    -27.0888E-03    -27.7189E-03    -26.8286E-03     53.8849E-03    -27.0888E-03     16.9711E-03     89.9297E-03     67.4876E+06    -6.82741E+06    -46.8985E+06    -83.1858E+06    -16.0717E+06    -73.9415E+06    -46.8985E+06    -24.6343E+06
            1629     86.4393E-03     12.6531E-03     85.5082E-03     55.2158E-03    -26.9518E-03    -28.2910E-03    -26.7951E-03     53.7199E-03    -26.9518E-03     21.9111E-03     101.157E-03     57.5648E+06    -1.34804E+06    -40.2955E+06    -66.5625E+06    -15.4321E+06    -34.1207E+06    -58.6532E+06    -19.1477E+06
            1630     86.6142E-03     13.6274E-03     85.5355E-03     56.1855E-03    -26.7975E-03    -29.3943E-03    -26.5182E-03     53.3094E-03    -26.7975E-03     30.4249E-03     118.637E-03     96.8520E+06     43.0266E+06    -23.2256E+06    -67.3546E+06    -15.7855E+06     35.5865E+06    -67.3546E+06    -11.5734E+06
            1631     86.8087E-03     14.6012E-03     85.5719E-03     60.8627E-03    -26.8357E-03    -34.0362E-03    -26.4254E-03     53.2520E-03    -26.8357E-03     50.0974E-03     146.785E-03     141.109E+06     109.356E+06    -12.2924E+06    -42.9742E+06    -16.9561E+06     109.109E+06    -38.0638E+06    -3.94500E+06
            1632     87.0442E-03     15.5743E-03     85.6396E-03     77.9572E-03    -27.1356E-03    -50.8302E-03    -27.4517E-03     54.5786E-03    -27.1356E-03     97.2441E-03     216.235E-03     159.255E+06     159.512E+06     37.8161E+06    -15.1061E+06    -15.0990E+06     159.505E+06     37.8161E+06    -1.10268E+06
            1633     87.3567E-03     16.5498E-03     85.7747E-03     78.4870E-03    -27.4408E-03    -51.0462E-03    -26.3693E-03     53.8101E-03    -27.4408E-03     100.524E-03     248.622E-03     182.143E+06     198.367E+06     119.916E+06     -7.9852E+06    -7.97872E+06     198.360E+06     119.916E+06    -269.776E+03
            1634     86.4715E-03     973.695E-06     86.4660E-03     54.9787E-03    -27.3348E-03    -27.6428E-03    -27.5056E-03     54.9746E-03    -27.4680E-03     1.04500E-03     55.3596E-03     143.866E+06    -32.1273E+06    -36.7254E+06    -178.216E+06    -33.3680E+06    -177.794E+06    -35.9066E+06    -7.70498E+06
            1635     86.4886E-03     1.94556E-03     86.4667E-03     54.9752E-03    -27.3860E-03    -27.5887E-03    -27.4931E-03     54.9646E-03    -27.4710E-03     1.83396E-03     55.7983E-03     125.011E+06    -31.0857E+06    -36.0532E+06    -158.470E+06    -33.1533E+06    -157.313E+06    -35.1426E+06    -10.9134E+06
            1636     86.5196E-03     2.91950E-03     86.4703E-03     54.8776E-03    -27.3784E-03    -27.5000E-03    -27.3981E-03     54.8607E-03    -27.4634E-03     2.34025E-03     56.5923E-03     121.499E+06    -28.6790E+06    -34.5559E+06    -152.991E+06    -31.9357E+06    -150.469E+06    -33.8216E+06    -17.1251E+06
            1637     86.5589E-03     3.89256E-03     86.4713E-03     55.0077E-03    -27.4560E-03    -27.5526E-03    -27.5215E-03     54.9765E-03    -27.4560E-03     3.14581E-03     58.0419E-03     126.471E+06    -26.2099E+06    -34.7131E+06    -156.691E+06    -30.1875E+06    -152.714E+06    -34.7131E+06    -22.2214E+06
            1638     86.6130E-03     4.86466E-03     86.4763E-03     54.9491E-03    -27.3981E-03    -27.5514E-03    -27.4352E-03     54.8866E-03    -27.4519E-03     4.47366E-03     59.6110E-03     125.939E+06    -23.3838E+06    -34.6142E+06    -154.554E+06    -28.9087E+06    -149.029E+06    -34.6142E+06    -26.1382E+06
            1639     86.6778E-03     5.83879E-03     86.4809E-03     54.8238E-03    -27.3414E-03    -27.4823E-03    -27.2886E-03     54.7234E-03    -27.4345E-03     5.69693E-03     61.4940E-03     126.328E+06    -20.8299E+06    -33.8038E+06    -153.131E+06    -28.0040E+06    -145.957E+06    -33.8038E+06    -29.8537E+06
            1640     86.7554E-03     6.81188E-03     86.4876E-03     54.7874E-03    -27.3454E-03    -27.4389E-03    -27.2488E-03     54.6366E-03    -27.3847E-03     6.97307E-03     63.9841E-03     124.240E+06    -18.3440E+06    -36.4263E+06    -150.563E+06    -26.8312E+06    -142.076E+06    -36.4263E+06    -32.3336E+06
            1641     86.8451E-03     7.78485E-03     86.4954E-03     54.8148E-03    -27.3403E-03    -27.4653E-03    -27.2510E-03     54.6005E-03    -27.3403E-03     8.36348E-03     67.2271E-03     118.373E+06    -15.9699E+06    -37.7828E+06    -143.706E+06    -25.5386E+06    -134.137E+06    -37.7828E+06    -33.4991E+06
            1642     86.9472E-03     8.75839E-03     86.5049E-03     54.8086E-03    -27.3072E-03    -27.4736E-03    -27.1902E-03     54.5253E-03    -27.3072E-03     9.61670E-03     71.0481E-03     110.754E+06    -12.5015E+06    -37.0386E+06    -133.414E+06    -23.5696E+06    -122.346E+06    -37.0386E+06    -34.7483E+06
            1643     87.0604E-03     9.73176E-03     86.5148E-03     54.7263E-03    -27.2712E-03    -27.4498E-03    -27.0256E-03     54.3021E-03    -27.2712E-03     11.6854E-03     76.1564E-03     105.524E+06    -9.67886E+06    -37.5044E+06    -126.312E+06    -21.1172E+06    -114.874E+06    -37.5044E+06    -34.6233E+06
            1644     87.1885E-03     10.7054E-03     86.5288E-03     54.6851E-03    -27.2062E-03    -27.5067E-03    -26.8843E-03     54.0626E-03    -27.2062E-03     14.2085E-03     82.7611E-03     95.1907E+06    -7.78644E+06    -42.0274E+06    -114.936E+06    -19.1891E+06    -103.534E+06    -42.0274E+06    -32.8941E+06
            1645     87.3285E-03     11.6791E-03     86.5440E-03     54.8026E-03    -27.0937E-03    -27.7430E-03    -26.8455E-03     53.9051E-03    -27.0937E-03     17.0346E-03     89.9909E-03     74.0226E+06    -5.04087E+06    -50.6328E+06    -89.0508E+06    -17.3607E+06    -76.7309E+06    -50.6328E+06    -29.4763E+06
            1646     87.4843E-03     12.6528E-03     86.5644E-03     55.1759E-03    -26.9630E-03    -28.2426E-03    -26.7536E-03     53.6869E-03    -26.9630E-03     21.8740E-03     101.223E-03     62.8040E+06     879.645E+03    -45.5619E+06    -70.2479E+06    -15.3284E+06    -39.0276E+06    -60.5741E+06    -23.9561E+06
            1647     87.6552E-03     13.6263E-03     86.5896E-03     55.8683E-03    -26.8003E-03    -29.0752E-03    -26.2477E-03     53.0409E-03    -26.8003E-03     30.0503E-03     118.434E-03     92.6221E+06     36.6193E+06    -26.1483E+06    -69.6846E+06    -14.5995E+06     25.0704E+06    -69.6846E+06    -15.0124E+06
            1648     87.8494E-03     14.6018E-03     86.6274E-03     60.4230E-03    -26.7895E-03    -33.6400E-03    -25.9719E-03     52.7549E-03    -26.7895E-03     49.9579E-03     146.703E-03     136.013E+06     101.659E+06    -14.1031E+06    -44.1854E+06    -14.1670E+06     101.047E+06    -43.5092E+06    -5.76376E+06
            1649     88.0828E-03     15.5784E-03     86.6943E-03     77.9315E-03    -27.0676E-03    -50.8720E-03    -27.3538E-03     54.4133E-03    -27.0676E-03     97.6063E-03     216.350E-03     159.386E+06     159.218E+06     34.4435E+06    -14.0015E+06    -13.0949E+06     159.193E+06     33.5615E+06    -1.34430E+06
            1650     88.3964E-03     16.5511E-03     86.8331E-03     78.6142E-03    -27.4050E-03    -51.2113E-03    -26.9016E-03     54.3045E-03    -27.4050E-03     99.8323E-03     247.953E-03     182.297E+06     198.399E+06     118.420E+06    -8.15755E+06    -8.15445E+06     198.396E+06     118.420E+06    -122.615E+03
            1651     87.5265E-03     972.628E-06     87.5211E-03     55.1570E-03    -27.4390E-03    -27.7178E-03    -27.6427E-03     55.1522E-03    -27.5092E-03     1.20864E-03     55.5287E-03     136.126E+06    -28.0468E+06    -31.1221E+06    -165.676E+06    -30.4469E+06    -165.114E+06    -29.2838E+06    -7.36923E+06
            1652     87.5456E-03     1.94605E-03     87.5239E-03     55.0197E-03    -27.3681E-03    -27.6516E-03    -27.4866E-03     55.0099E-03    -27.5233E-03     1.78892E-03     55.8582E-03     114.614E+06    -27.5389E+06    -33.8817E+06    -145.128E+06    -29.3261E+06    -143.517E+06    -33.7054E+06    -12.7588E+06
            1653     87.5729E-03     2.91884E-03     87.5243E-03     54.9363E-03    -27.3829E-03    -27.5542E-03    -27.4274E-03     54.9179E-03    -27.4913E-03     2.40239E-03     56.6591E-03     111.393E+06    -26.7634E+06    -34.1689E+06    -141.640E+06    -30.2669E+06    -138.136E+06    -34.1689E+06    -19.3518E+06
            1654     87.6155E-03     3.89184E-03     87.5290E-03     54.9907E-03    -27.4198E-03    -27.5713E-03    -27.4652E-03     54.9585E-03    -27.4937E-03     3.21392E-03     57.9974E-03     118.841E+06    -24.9893E+06    -31.9845E+06    -147.158E+06    -30.0877E+06    -142.060E+06    -31.9845E+06    -24.2398E+06
            1655     87.6661E-03     4.86540E-03     87.5309E-03     54.9718E-03    -27.3678E-03    -27.6038E-03    -27.4349E-03     54.9071E-03    -27.4721E-03     4.52331E-03     59.5989E-03     117.939E+06    -22.7107E+06    -33.6219E+06    -145.709E+06    -29.5227E+06    -138.897E+06    -33.6219E+06    -27.9196E+06
            1656     87.7316E-03     5.83803E-03     87.5371E-03     54.9432E-03    -27.3948E-03    -27.5470E-03    -27.3856E-03     54.8434E-03    -27.4564E-03     5.71660E-03     61.6099E-03     118.932E+06    -19.5440E+06    -33.4016E+06    -144.787E+06    -28.5067E+06    -135.824E+06    -33.4016E+06    -32.1129E+06
            1657     87.8073E-03     6.81115E-03     87.5428E-03     54.8462E-03    -27.3927E-03    -27.4523E-03    -27.2731E-03     54.6947E-03    -27.4203E-03     6.97699E-03     64.0590E-03     121.524E+06    -16.1308E+06    -35.5833E+06    -146.127E+06    -26.8996E+06    -135.359E+06    -35.5833E+06    -35.6638E+06
            1658     87.8967E-03     7.78485E-03     87.5513E-03     54.7223E-03    -27.3366E-03    -27.3808E-03    -27.1343E-03     54.4956E-03    -27.3565E-03     8.58997E-03     67.0760E-03     117.563E+06    -11.7465E+06    -38.6750E+06    -140.326E+06    -24.1182E+06    -127.955E+06    -38.6750E+06    -37.8059E+06
            1659     87.9970E-03     8.75814E-03     87.5600E-03     54.7316E-03    -27.3061E-03    -27.3957E-03    -27.1061E-03     54.4420E-03    -27.3061E-03     9.72300E-03     70.9305E-03     110.828E+06    -8.32863E+06    -38.0177E+06    -130.900E+06    -21.9254E+06    -117.303E+06    -38.0177E+06    -38.4073E+06
            1660     88.1099E-03     9.73155E-03     87.5708E-03     54.7628E-03    -27.2775E-03    -27.4717E-03    -27.0581E-03     54.3492E-03    -27.2775E-03     11.5558E-03     76.2042E-03     106.653E+06    -7.39148E+06    -37.4585E+06    -125.839E+06    -21.3891E+06    -111.841E+06    -37.4585E+06    -38.1869E+06
            1661     88.2350E-03     10.7052E-03     87.5832E-03     54.7716E-03    -27.2167E-03    -27.5820E-03    -26.9557E-03     54.1452E-03    -27.2167E-03     14.2437E-03     82.8712E-03     98.5048E+06    -5.08911E+06    -42.8180E+06    -116.402E+06    -19.6331E+06    -101.858E+06    -42.8180E+06    -37.3883E+06
            1662     88.3751E-03     11.6788E-03     87.6000E-03     54.8353E-03    -27.1004E-03    -27.7770E-03    -26.8621E-03     53.9204E-03    -27.1004E-03     17.2138E-03     89.9419E-03     81.9305E+06    -1.16467E+06    -53.0868E+06    -94.3054E+06    -17.1729E+06    -78.2972E+06    -53.0868E+06    -34.9221E+06
            1663     88.5276E-03     12.6527E-03     87.6187E-03     55.0481E-03    -26.9671E-03    -28.1111E-03    -26.6139E-03     53.5509E-03    -26.9671E-03     21.8985E-03     101.122E-03     70.1728E+06     3.63648E+06    -52.0389E+06    -75.0450E+06    -15.6445E+06    -44.3162E+06    -63.4868E+06    -29.4398E+06
            1664     88.6985E-03     13.6272E-03     87.6454E-03     55.6814E-03    -26.7988E-03    -28.8878E-03    -26.1247E-03     52.9183E-03    -26.7988E-03     29.6995E-03     118.076E-03     90.7987E+06     30.2548E+06    -31.4808E+06    -73.4072E+06    -14.7550E+06     13.5290E+06    -73.4072E+06    -19.6708E+06
            1665     88.8875E-03     14.6016E-03     87.6800E-03     60.4134E-03    -26.7618E-03    -33.6606E-03    -25.9491E-03     52.7020E-03    -26.7618E-03     49.9403E-03     146.582E-03     132.531E+06     92.9988E+06    -15.7275E+06    -50.1319E+06    -14.2526E+06     91.5238E+06    -50.1319E+06    -8.47021E+06
            1666     89.1219E-03     15.5751E-03     87.7503E-03     77.7139E-03    -27.0147E-03    -50.7083E-03    -27.1705E-03     54.1760E-03    -27.0147E-03     97.5137E-03     216.071E-03     159.810E+06     157.522E+06     29.5094E+06    -16.9510E+06    -12.9863E+06     157.483E+06     25.5836E+06    -1.65102E+06
            1667     89.4317E-03     16.5525E-03     87.8866E-03     78.0078E-03    -27.3615E-03    -50.6477E-03    -26.8327E-03     54.1929E-03    -27.3615E-03     98.2645E-03     247.016E-03     182.118E+06     197.853E+06     113.191E+06    -8.48731E+06    -8.48659E+06     197.852E+06     113.191E+06     169.287E+03
            1668     88.5841E-03     972.986E-06     88.5787E-03     55.2626E-03    -27.5525E-03    -27.7112E-03    -27.6065E-03     55.2589E-03    -27.6535E-03     1.07267E-03     55.5956E-03     127.252E+06    -22.6116E+06    -26.0983E+06    -151.568E+06    -24.2038E+06    -150.995E+06    -25.0788E+06    -6.32714E+06
            1669     88.5998E-03     1.94600E-03     88.5784E-03     55.0460E-03    -27.4309E-03    -27.6157E-03    -27.4694E-03     55.0373E-03    -27.5684E-03     1.63961E-03     55.8692E-03     105.619E+06    -23.4119E+06    -28.2855E+06    -131.332E+06    -25.4479E+06    -129.296E+06    -28.2855E+06    -14.0945E+06
            1670     88.6302E-03     2.91891E-03     88.5821E-03     54.9801E-03    -27.4038E-03    -27.5758E-03    -27.4308E-03     54.9597E-03    -27.5285E-03     2.53360E-03     56.6843E-03     104.599E+06    -22.2261E+06    -27.7244E+06    -129.419E+06    -26.1024E+06    -125.543E+06    -27.7244E+06    -19.6980E+06
            1671     88.6687E-03     3.89206E-03     88.5832E-03     54.9929E-03    -27.4034E-03    -27.5890E-03    -27.4399E-03     54.9571E-03    -27.5166E-03     3.40668E-03     57.9946E-03     112.126E+06    -21.0619E+06    -27.2682E+06     -136.15E+06    -26.8525E+06    -130.359E+06    -27.2682E+06    -24.9575E+06
            1672     88.7214E-03     4.86501E-03     88.5879E-03     55.0295E-03    -27.3940E-03    -27.6347E-03    -27.4748E-03     54.9681E-03    -27.4926E-03     4.44312E-03     59.6532E-03     113.482E+06    -17.4358E+06    -28.9750E+06    -136.182E+06    -25.6792E+06    -127.938E+06    -28.9750E+06    -29.9166E+06
            1673     88.7846E-03     5.83813E-03     88.5925E-03     54.9322E-03    -27.3925E-03    -27.5376E-03    -27.3593E-03     54.8292E-03    -27.4679E-03     5.77885E-03     61.5589E-03     114.662E+06    -14.1748E+06    -30.2862E+06    -136.033E+06    -24.5766E+06    -125.632E+06    -30.2862E+06    -34.0316E+06
            1674     88.8605E-03     6.81142E-03     88.5990E-03     54.8531E-03    -27.3786E-03    -27.4751E-03    -27.2696E-03     54.6948E-03    -27.4257E-03     7.17461E-03     64.0532E-03     117.500E+06    -11.9474E+06    -33.4837E+06    -138.615E+06    -24.5574E+06    -126.005E+06    -33.4837E+06    -37.7983E+06
            1675     88.9475E-03     7.78453E-03     88.6062E-03     54.7667E-03    -27.3415E-03    -27.4222E-03    -27.1749E-03     54.5393E-03    -27.3613E-03     8.60305E-03     67.1179E-03     114.677E+06    -8.94263E+06    -38.3608E+06    -135.374E+06    -24.5597E+06    -119.757E+06    -38.3608E+06    -41.4149E+06
            1676     89.0478E-03     8.75820E-03     88.6160E-03     54.6792E-03    -27.2970E-03    -27.3613E-03    -27.0540E-03     54.3870E-03    -27.3121E-03     9.76326E-03     70.8639E-03     112.066E+06    -5.60704E+06    -39.1928E+06    -130.597E+06    -22.7878E+06    -113.417E+06    -39.1928E+06    -42.9227E+06
            1677     89.1585E-03     9.73160E-03     88.6258E-03     54.7409E-03    -27.2662E-03    -27.4720E-03    -27.0425E-03     54.3264E-03    -27.2813E-03     11.5671E-03     76.1724E-03     109.015E+06    -3.13409E+06    -37.1950E+06    -125.083E+06    -19.8757E+06    -108.342E+06    -37.1950E+06    -41.9379E+06
            1678     89.2832E-03     10.7050E-03     88.6391E-03     54.8134E-03    -27.2211E-03    -27.6269E-03    -26.9947E-03     54.1813E-03    -27.2211E-03     14.3126E-03     82.9609E-03     100.946E+06    -1.13091E+06    -41.9326E+06    -115.624E+06    -18.7971E+06    -97.9577E+06    -41.9326E+06    -41.1811E+06
            1679     89.4206E-03     11.6788E-03     88.6547E-03     54.7833E-03    -27.1005E-03    -27.7318E-03    -26.8045E-03     53.8560E-03    -27.1005E-03     17.3183E-03     89.8889E-03     88.8047E+06     2.56650E+06    -54.4395E+06    -98.5505E+06    -17.6903E+06    -78.2937E+06    -54.4395E+06    -40.2831E+06
            1680     89.5726E-03     12.6525E-03     88.6745E-03     54.9954E-03    -26.9598E-03    -28.0641E-03    -26.5734E-03     53.5047E-03    -26.9598E-03     21.8613E-03     101.044E-03     79.8650E+06     7.79356E+06    -58.9474E+06    -80.4249E+06    -15.1678E+06    -49.7620E+06    -66.6489E+06    -35.8314E+06
            1681     89.7397E-03     13.6267E-03     88.6991E-03     55.7839E-03    -26.7993E-03    -28.9861E-03    -26.3317E-03     53.1294E-03    -26.7993E-03     29.2160E-03     118.106E-03     91.5023E+06     25.3196E+06    -38.1751E+06    -77.6178E+06    -13.7924E+06     936.907E+03    -77.6178E+06    -24.8212E+06
            1682     89.9290E-03     14.6017E-03     88.7356E-03     60.3586E-03    -26.7399E-03    -33.6256E-03    -26.0139E-03     52.7469E-03    -26.7399E-03     49.4314E-03     146.182E-03     129.443E+06     82.5395E+06    -17.1329E+06    -59.9302E+06    -14.1137E+06     79.5203E+06    -59.9302E+06    -11.0321E+06
            1683     90.1603E-03     15.5781E-03     88.8043E-03     77.8703E-03    -26.9657E-03    -50.9096E-03    -26.9157E-03     53.8764E-03    -26.9657E-03     98.3372E-03     215.477E-03     160.139E+06     153.220E+06     25.4842E+06    -24.0503E+06    -12.8993E+06     153.125E+06     14.4281E+06    -2.71757E+06
            1684     90.4701E-03     16.5502E-03     88.9434E-03     78.1953E-03    -27.3248E-03    -50.8693E-03    -26.6500E-03     53.9760E-03    -27.3248E-03     98.9825E-03     246.980E-03     181.304E+06     197.305E+06     108.436E+06    -8.05657E+06    -8.05294E+06     197.301E+06     108.436E+06    -17.1797E+03
            1685     89.6385E-03     972.774E-06     89.6332E-03     55.2528E-03    -27.5935E-03    -27.6603E-03    -27.6246E-03     55.2479E-03    -27.6242E-03     970.090E-06     55.5754E-03     119.700E+06    -16.7065E+06    -19.5408E+06    -137.796E+06    -18.0048E+06    -137.123E+06    -18.9155E+06    -7.78426E+06
            1686     89.6571E-03     1.94553E-03     89.6360E-03     55.1405E-03    -27.5202E-03    -27.6210E-03    -27.5320E-03     55.1308E-03    -27.5994E-03     1.73055E-03     55.9720E-03     100.417E+06    -15.1617E+06    -17.4985E+06    -116.724E+06    -17.6675E+06    -114.648E+06    -17.0689E+06    -13.7299E+06
            1687     89.6839E-03     2.91894E-03     89.6364E-03     55.0306E-03    -27.4547E-03    -27.5761E-03    -27.4382E-03     55.0140E-03    -27.5761E-03     2.30047E-03     56.7306E-03     101.942E+06    -13.5121E+06    -16.3204E+06    -116.817E+06    -17.7145E+06    -113.044E+06    -15.8908E+06    -19.2192E+06
            1688     89.7248E-03     3.89217E-03     89.6403E-03     55.0416E-03    -27.4307E-03    -27.6109E-03    -27.4678E-03     55.0063E-03    -27.5385E-03     3.35046E-03     58.0200E-03     108.137E+06    -11.0099E+06    -18.9777E+06    -122.780E+06    -17.2547E+06    -116.535E+06    -18.9777E+06    -25.4032E+06
            1689     89.7753E-03     4.86470E-03     89.6434E-03     54.9631E-03    -27.3857E-03    -27.5774E-03    -27.4048E-03     54.8989E-03    -27.4941E-03     4.55789E-03     59.5563E-03     110.436E+06    -8.62975E+06    -24.0793E+06    -125.869E+06    -17.9459E+06    -116.553E+06    -24.0793E+06    -31.6331E+06
            1690     89.8383E-03     5.83817E-03     89.6484E-03     54.8903E-03    -27.3899E-03    -27.4993E-03    -27.3284E-03     54.7870E-03    -27.4574E-03     5.78805E-03     61.4941E-03     111.950E+06    -7.67844E+06    -26.6146E+06    -127.869E+06    -18.6921E+06    -116.855E+06    -26.6146E+06    -34.6374E+06
            1691     89.9127E-03     6.81145E-03     89.6543E-03     54.9021E-03    -27.3997E-03    -27.5035E-03    -27.3264E-03     54.7484E-03    -27.4230E-03     7.08162E-03     64.0695E-03     112.537E+06    -6.43359E+06    -28.4038E+06    -128.251E+06    -19.9329E+06    -114.751E+06    -28.4038E+06    -38.0566E+06
            1692     89.9997E-03     7.78464E-03     89.6624E-03     54.7977E-03    -27.3612E-03    -27.4347E-03    -27.2061E-03     54.5730E-03    -27.3650E-03     8.54185E-03     67.1160E-03     111.640E+06    -3.46096E+06    -33.7369E+06    -126.897E+06    -21.1981E+06    -109.160E+06    -33.7369E+06    -43.2069E+06
            1693     90.0975E-03     8.75774E-03     89.6709E-03     54.6280E-03    -27.2873E-03    -27.3287E-03    -27.0111E-03     54.3255E-03    -27.3024E-03     9.91919E-03     70.7340E-03     112.769E+06    -1.28396E+06    -39.2923E+06    -128.031E+06    -21.6995E+06    -107.616E+06    -39.2923E+06    -46.5630E+06
            1694     90.2081E-03     9.73150E-03     89.6816E-03     54.6590E-03    -27.2401E-03    -27.4260E-03    -26.9700E-03     54.2180E-03    -27.2552E-03     11.9072E-03     76.0245E-03     111.363E+06    -325.304E+03    -40.7986E+06    -126.223E+06    -20.6593E+06    -105.889E+06    -40.7986E+06    -46.2443E+06
            1695     90.3307E-03     10.7051E-03     89.6942E-03     54.8133E-03    -27.1992E-03    -27.6588E-03    -27.0060E-03     54.1605E-03    -27.1992E-03     14.5635E-03     82.9109E-03     103.746E+06     3.72846E+06    -42.9271E+06    -114.793E+06    -17.8678E+06    -93.1964E+06    -42.9271E+06    -45.5415E+06
            1696     90.4672E-03     11.6787E-03     89.7102E-03     54.7418E-03    -27.0859E-03    -27.7232E-03    -26.8028E-03     53.8214E-03    -27.0859E-03     17.2547E-03     89.8503E-03     96.5361E+06     9.54533E+06    -54.8004E+06    -100.225E+06    -15.2974E+06    -75.3822E+06    -54.8004E+06    -45.8345E+06
            1697     90.6164E-03     12.6530E-03     89.7286E-03     54.9492E-03    -26.9448E-03    -28.0440E-03    -26.5224E-03     53.4277E-03    -26.9448E-03     22.0295E-03     100.844E-03     88.4130E+06     10.9337E+06    -66.4767E+06    -84.5059E+06    -14.9233E+06    -55.6413E+06    -69.4843E+06    -41.2986E+06
            1698     90.7835E-03     13.6268E-03     89.7550E-03     56.1876E-03    -26.8054E-03    -29.3873E-03    -26.6102E-03     53.4105E-03    -26.8054E-03     30.0136E-03     118.467E-03     90.9557E+06     19.7538E+06    -47.9650E+06    -80.2349E+06    -15.5533E+06    -12.6580E+06    -80.2349E+06    -29.5985E+06
            1699     90.9689E-03     14.6002E-03     89.7896E-03     60.4330E-03    -26.7196E-03    -33.7190E-03    -26.2978E-03     53.0117E-03    -26.7196E-03     49.0978E-03     146.527E-03     127.162E+06     72.4492E+06    -20.8829E+06    -70.4401E+06    -14.8398E+06     66.4061E+06    -70.4401E+06    -15.4238E+06
            1700     91.1977E-03     15.5751E-03     89.8578E-03     77.4685E-03    -26.8987E-03    -50.5718E-03    -26.3483E-03     53.2450E-03    -26.8987E-03     98.0109E-03     215.183E-03     160.408E+06     146.832E+06     19.6414E+06    -32.7797E+06    -12.1819E+06     146.529E+06    -653.589E+03    -4.66319E+06
            1701     91.5080E-03     16.5546E-03     89.9982E-03     78.0734E-03    -27.2556E-03    -50.8175E-03    -26.0866E-03     53.3425E-03    -27.2556E-03     99.5379E-03     246.703E-03     180.239E+06     195.824E+06     100.905E+06    -7.71759E+06    -7.71318E+06     195.819E+06     100.905E+06    -228.058E+03
            1702     90.6962E-03     973.224E-06     90.6909E-03     55.1367E-03    -27.5127E-03    -27.6244E-03    -27.5789E-03     55.1295E-03    -27.5510E-03     1.18497E-03     55.4744E-03     113.863E+06    -6.42185E+06    -10.1194E+06    -122.084E+06    -9.16618E+06    -121.099E+06    -8.36023E+06    -10.2511E+06
            1703     90.7121E-03     1.94623E-03     90.6912E-03     55.2043E-03    -27.5631E-03    -27.6419E-03    -27.6211E-03     55.1955E-03    -27.5751E-03     1.60691E-03     56.0443E-03     97.1807E+06    -4.23769E+06    -8.49401E+06    -103.463E+06    -7.75125E+06    -101.513E+06    -6.93061E+06    -13.4082E+06
            1704     90.7406E-03     2.91873E-03     90.6936E-03     55.0995E-03    -27.5156E-03    -27.5839E-03    -27.5046E-03     55.0805E-03    -27.5759E-03     2.41554E-03     56.8062E-03     97.6972E+06    -2.86098E+06    -8.30590E+06    -103.093E+06    -7.35940E+06    -99.0239E+06    -7.87632E+06    -19.4293E+06
            1705     90.7790E-03     3.89144E-03     90.6956E-03     54.9269E-03    -27.4004E-03    -27.5274E-03    -27.3606E-03     54.8870E-03    -27.5274E-03     3.56690E-03     57.8736E-03     103.505E+06     -810.29E+03    -12.0934E+06    -109.359E+06    -7.43602E+06    -102.733E+06    -12.0934E+06    -25.9050E+06
            1706     90.8301E-03     4.86555E-03     90.6997E-03     54.9372E-03    -27.4028E-03    -27.5359E-03    -27.3916E-03     54.8716E-03    -27.4815E-03     4.61597E-03     59.4653E-03     106.774E+06    -374.776E+03    -15.6253E+06    -113.894E+06    -9.30204E+06    -104.966E+06    -15.6253E+06    -30.4771E+06
            1707     90.8917E-03     5.83836E-03     90.7040E-03     55.0149E-03    -27.4612E-03    -27.5517E-03    -27.4525E-03     54.9157E-03    -27.4612E-03     5.68603E-03     61.5975E-03     110.981E+06      721.83E+03    -17.7591E+06    -118.247E+06    -10.9296E+06    -106.596E+06    -17.7591E+06    -35.3160E+06
            1708     90.9660E-03     6.81130E-03     90.7106E-03     54.8528E-03    -27.3963E-03    -27.4619E-03    -27.2775E-03     54.6980E-03    -27.4258E-03     7.07546E-03     63.9842E-03     113.169E+06     4.70031E+06    -20.9814E+06    -118.934E+06    -9.92324E+06    -104.310E+06    -20.9814E+06    -39.8600E+06
            1709     91.0508E-03     7.78467E-03     90.7174E-03     54.7009E-03    -27.3267E-03    -27.3819E-03    -27.1151E-03     54.4726E-03    -27.3652E-03     8.61003E-03     66.9605E-03     112.076E+06     7.76324E+06    -24.6448E+06    -116.698E+06    -10.0984E+06    -98.8367E+06    -24.6448E+06    -43.5684E+06
            1710     91.1486E-03     8.75846E-03     90.7268E-03     54.5950E-03    -27.2657E-03    -27.3191E-03    -26.9847E-03     54.2914E-03    -27.2964E-03     9.93088E-03     70.6481E-03     112.662E+06     6.53731E+06    -31.1017E+06    -120.009E+06    -13.6521E+06    -99.8199E+06    -31.1017E+06    -46.3030E+06
            1711     91.2566E-03     9.73191E-03     90.7362E-03     54.6062E-03    -27.2051E-03    -27.4052E-03    -26.9166E-03     54.1393E-03    -27.2269E-03     12.2232E-03     75.8517E-03     114.109E+06     7.04172E+06    -37.6846E+06    -122.491E+06    -15.7167E+06    -99.7327E+06    -37.6846E+06    -49.2025E+06
            1712     91.3794E-03     10.7056E-03     90.7501E-03     54.7516E-03    -27.1505E-03    -27.6435E-03    -26.9512E-03     54.0593E-03    -27.1505E-03     15.0020E-03     82.6360E-03     110.425E+06     12.2091E+06    -43.2373E+06    -114.637E+06    -14.2889E+06    -88.1392E+06    -43.2373E+06    -51.4311E+06
            1713     91.5134E-03     11.6791E-03     90.7651E-03     54.7473E-03    -27.0559E-03    -27.7573E-03    -26.8243E-03     53.8143E-03    -27.0559E-03     17.3951E-03     89.6918E-03     100.611E+06     13.5633E+06    -53.2049E+06    -101.421E+06    -14.4137E+06    -73.4436E+06    -53.2049E+06    -49.2857E+06
            1714     91.6611E-03     12.6527E-03     90.7836E-03     54.9193E-03    -26.9298E-03    -28.0277E-03    -26.4921E-03     53.3837E-03    -26.9298E-03     22.1009E-03     100.645E-03     91.1200E+06     10.6975E+06    -68.4010E+06    -87.2880E+06    -16.7721E+06    -59.7878E+06    -68.4316E+06    -43.9170E+06
            1715     91.8260E-03     13.6278E-03     90.8091E-03     56.1002E-03    -26.7748E-03    -29.3322E-03    -26.3583E-03     53.1262E-03    -26.7748E-03     30.9085E-03     118.087E-03     92.8270E+06     16.3835E+06    -57.7135E+06    -84.6096E+06    -17.4651E+06    -25.2576E+06    -83.2169E+06    -35.1045E+06
            1716     92.0128E-03     14.6016E-03     90.8469E-03     60.7650E-03    -26.6517E-03    -34.1282E-03    -26.5831E-03     53.2199E-03    -26.6517E-03     50.0285E-03     146.367E-03     127.574E+06     63.8438E+06    -28.3760E+06    -81.1754E+06    -16.5762E+06     52.0440E+06    -81.1754E+06    -21.0799E+06
            1717     92.2348E-03     15.5767E-03     90.9100E-03     77.5557E-03    -26.8036E-03    -50.7601E-03    -26.8137E-03     53.6094E-03    -26.8036E-03     97.5888E-03     215.333E-03     160.337E+06     137.239E+06     7.58424E+06    -41.6259E+06    -13.5615E+06     136.501E+06    -19.7424E+06    -7.80908E+06
            1718     92.5432E-03     16.5515E-03     91.0511E-03     77.7413E-03    -27.1918E-03    -50.5490E-03    -25.6529E-03     52.8452E-03    -27.1918E-03     99.8079E-03     246.767E-03     178.680E+06     192.656E+06     89.9627E+06    -6.97476E+06    -6.93539E+06     192.616E+06     89.9627E+06    -1.72846E+06
            1719     91.7517E-03     973.027E-06     91.7465E-03     55.2443E-03    -27.3485E-03    -27.8964E-03    -27.7318E-03     55.2397E-03    -27.5084E-03     972.973E-06     55.5907E-03     108.477E+06     6.34424E+06     127.875E+03    -105.090E+06     1.52822E+06    -103.862E+06     3.71562E+06    -8.71689E+06
            1720     91.7688E-03     1.94564E-03     91.7482E-03     54.9718E-03    -27.3722E-03    -27.5996E-03    -27.4095E-03     54.9638E-03    -27.5543E-03     1.48904E-03     55.8104E-03     93.4961E+06     6.07511E+06    -2.35934E+06    -91.2730E+06     2.30790E+06    -88.6396E+06    -1.22552E+06    -15.5143E+06
            1721     91.7956E-03     2.91904E-03     91.7492E-03     54.8983E-03    -27.3775E-03    -27.5199E-03    -27.3974E-03     54.8764E-03    -27.4781E-03     2.61267E-03     56.5788E-03     91.9629E+06     7.23930E+06    -4.35536E+06    -89.9253E+06     2.57492E+06    -85.2609E+06    -4.35536E+06    -20.4345E+06
            1722     91.8345E-03     3.89277E-03     91.7520E-03     55.0117E-03    -27.4168E-03    -27.5956E-03    -27.4983E-03     54.9729E-03    -27.4754E-03     3.54199E-03     57.9624E-03     99.0730E+06     7.86910E+06    -3.24520E+06    -96.2498E+06     1.07569E+06    -89.4564E+06    -3.24520E+06    -25.7034E+06
            1723     91.8841E-03     4.86507E-03     91.7552E-03     55.0079E-03    -27.4055E-03    -27.6037E-03    -27.4699E-03     54.9421E-03    -27.4736E-03     4.58971E-03     59.5755E-03     106.782E+06     11.1080E+06    -4.17339E+06    -102.132E+06     1.44763E+06    -92.4715E+06    -4.17339E+06    -31.3353E+06
            1724     91.9464E-03     5.83816E-03     91.7609E-03     54.8799E-03    -27.3828E-03    -27.4964E-03    -27.3248E-03     54.7733E-03    -27.4478E-03     5.86873E-03     61.4496E-03     113.923E+06     16.1273E+06    -6.03708E+06    -107.012E+06     3.30169E+06    -94.1865E+06    -6.03708E+06    -37.5461E+06
            1725     92.0180E-03     6.81162E-03     91.7655E-03     54.7777E-03    -27.3549E-03    -27.4228E-03    -27.2167E-03     54.6126E-03    -27.3958E-03     7.30426E-03     63.8558E-03     116.260E+06     17.2286E+06    -11.1740E+06    -110.457E+06     2.33171E+06    -95.5603E+06    -11.1740E+06    -40.9091E+06
            1726     92.1032E-03     7.78529E-03     91.7736E-03     54.6105E-03    -27.2575E-03    -27.3619E-03    -27.0441E-03     54.3751E-03    -27.3399E-03     8.74213E-03     66.8173E-03     111.010E+06     15.8507E+06    -14.3042E+06    -107.058E+06    -1.05557E+06    -90.1520E+06    -14.3042E+06    -42.3016E+06
            1727     92.1986E-03     8.75845E-03     91.7816E-03     54.5395E-03    -27.2103E-03    -27.3302E-03    -26.9395E-03     54.2273E-03    -27.2888E-03     10.0568E-03     70.5868E-03     113.960E+06     16.5304E+06    -16.4965E+06    -110.202E+06    -2.62516E+06    -91.0462E+06    -16.4965E+06    -45.3651E+06
            1728     92.3063E-03     9.73234E-03     91.7918E-03     54.6185E-03    -27.1790E-03    -27.4417E-03    -26.9357E-03     54.1342E-03    -27.2007E-03     12.4497E-03     75.7485E-03     115.758E+06     18.8115E+06    -25.9201E+06    -112.444E+06    -4.27858E+06    -89.3541E+06    -25.9201E+06    -49.8538E+06
            1729     92.4269E-03     10.7061E-03     91.8048E-03     54.6549E-03    -27.1134E-03    -27.5735E-03    -26.8691E-03     53.9505E-03    -27.1134E-03     15.1229E-03     82.4093E-03     111.809E+06     18.1514E+06    -36.1151E+06    -110.200E+06    -9.11754E+06    -82.9307E+06    -36.1151E+06    -52.4085E+06
            1730     92.5606E-03     11.6800E-03     91.8207E-03     54.6610E-03    -27.0248E-03    -27.6953E-03    -26.7628E-03     53.7285E-03    -27.0248E-03     17.3783E-03     89.4214E-03     102.957E+06     15.9768E+06    -47.0095E+06    -102.238E+06    -12.5462E+06    -73.7153E+06    -47.0095E+06    -50.5347E+06
            1731     92.7061E-03     12.6541E-03     91.8384E-03     55.0005E-03    -26.9027E-03    -28.1382E-03    -26.6124E-03     53.4746E-03    -26.9027E-03     22.0645E-03     100.621E-03     96.8138E+06     16.5028E+06    -63.2835E+06    -89.5496E+06    -12.6909E+06    -60.3558E+06    -63.2835E+06    -47.2837E+06
            1732     92.8691E-03     13.6275E-03     91.8638E-03     55.8816E-03    -26.7436E-03    -29.1474E-03    -26.2140E-03     52.9482E-03    -26.7436E-03     30.6171E-03     117.711E-03     96.6524E+06     19.3242E+06    -61.8949E+06    -86.0833E+06    -12.6605E+06    -34.7344E+06    -81.2591E+06    -40.6058E+06
            1733     93.0530E-03     14.6038E-03     91.8998E-03     60.3853E-03    -26.5545E-03    -33.8475E-03    -26.1331E-03     52.6710E-03    -26.5545E-03     50.2123E-03     145.580E-03     128.438E+06     56.4423E+06    -33.5648E+06    -90.1169E+06    -12.8606E+06     35.7380E+06    -90.1169E+06    -27.0919E+06
            1734     93.2779E-03     15.5764E-03     91.9681E-03     77.8048E-03    -26.6683E-03    -51.1473E-03    -27.4519E-03     54.1094E-03    -26.6683E-03     97.8752E-03     215.421E-03     160.793E+06     126.988E+06     364.428E+03    -51.8195E+06    -12.5735E+06     124.930E+06    -36.8234E+06    -12.6851E+06
            1735     93.5770E-03     16.5532E-03     92.1013E-03     77.7843E-03    -27.1084E-03    -50.6752E-03    -26.0329E-03     53.1420E-03    -27.1084E-03     99.8859E-03     247.016E-03     176.361E+06     187.877E+06     78.2257E+06    -7.91022E+06    -7.79494E+06     187.761E+06     78.2257E+06    -3.17719E+06
            1736     92.8084E-03     972.264E-06     92.8033E-03     54.9716E-03    -27.1918E-03    -27.7804E-03    -27.5458E-03     54.9674E-03    -27.4222E-03     865.498E-06     55.3305E-03     106.596E+06     22.0068E+06     15.3516E+06    -87.7517E+06     17.7638E+06    -86.9210E+06     18.7639E+06    -4.06736E+06
            1737     92.8240E-03     1.94636E-03     92.8036E-03     54.7606E-03    -27.2470E-03    -27.5132E-03    -27.3192E-03     54.7487E-03    -27.4292E-03     1.92246E-03     55.5932E-03     91.6030E+06     18.5958E+06     11.8600E+06    -76.0604E+06     14.6356E+06    -73.0586E+06     12.8183E+06    -15.5207E+06
            1738     92.8513E-03     2.91975E-03     92.8053E-03     54.8860E-03    -27.3307E-03    -27.5546E-03    -27.4726E-03     54.8644E-03    -27.3912E-03     2.63723E-03     56.5390E-03     91.7169E+06     19.1926E+06     8.31003E+06    -77.3303E+06     13.7896E+06    -71.9273E+06     8.31003E+06    -22.0186E+06
            1739     92.8897E-03     3.89211E-03     92.8081E-03     54.9370E-03    -27.3589E-03    -27.5786E-03    -27.4889E-03     54.8935E-03    -27.4052E-03     3.68144E-03     57.8511E-03     99.1903E+06     21.3455E+06     6.64091E+06    -84.2061E+06     13.8703E+06    -76.7309E+06     6.64091E+06    -27.0339E+06
            1740     92.9393E-03     4.86532E-03     92.8119E-03     54.7331E-03    -27.2732E-03    -27.4605E-03    -27.2811E-03     54.6545E-03    -27.3739E-03     4.99966E-03     59.2541E-03     104.939E+06     24.5748E+06     1.79922E+06    -89.5001E+06     13.3554E+06    -78.2806E+06     1.79922E+06    -33.6432E+06
            1741     92.9990E-03     5.83920E-03     92.8155E-03     54.6137E-03    -27.2709E-03    -27.3419E-03    -27.1450E-03     54.4866E-03    -27.3408E-03     6.40260E-03     61.1147E-03     110.962E+06     23.9025E+06    -220.735E+03    -96.8907E+06     10.5132E+06    -83.5014E+06    -220.735E+03    -37.8680E+06
            1742     93.0717E-03     6.81256E-03     92.8221E-03     54.6425E-03    -27.2912E-03    -27.3485E-03    -27.1513E-03     54.4606E-03    -27.3065E-03     7.69336E-03     63.6176E-03     114.609E+06     22.6681E+06    -1.84700E+06    -101.990E+06     7.73703E+06    -87.0587E+06    -1.84700E+06    -40.2972E+06
            1743     93.1543E-03     7.78558E-03     92.8283E-03     54.5127E-03    -27.1960E-03    -27.3121E-03    -27.0120E-03     54.2604E-03    -27.2437E-03     9.03132E-03     66.5761E-03     111.669E+06     24.8361E+06    -6.11525E+06    -98.9908E+06     7.69046E+06    -81.8451E+06    -6.11525E+06    -42.7566E+06
            1744     93.2497E-03     8.75991E-03     92.8374E-03     54.4602E-03    -27.1516E-03    -27.2983E-03    -26.9089E-03     54.1186E-03    -27.1994E-03     10.5213E-03     70.3623E-03     113.445E+06     25.6818E+06    -7.83687E+06    -100.656E+06     6.77542E+06    -81.7499E+06    -7.83687E+06    -45.0162E+06
            1745     93.3556E-03     9.73323E-03     92.8468E-03     54.5604E-03    -27.1181E-03    -27.4452E-03    -26.9261E-03     54.0413E-03    -27.1181E-03     12.8969E-03     75.5207E-03     112.673E+06     25.5839E+06    -17.9046E+06    -102.018E+06     3.19317E+06    -79.6271E+06    -17.9046E+06    -48.4792E+06
            1746     93.4756E-03     10.7068E-03     92.8604E-03     54.6415E-03    -27.0412E-03    -27.6322E-03    -26.8857E-03     53.8949E-03    -27.0412E-03     15.5648E-03     82.1964E-03     111.031E+06     25.1321E+06    -28.9292E+06    -102.415E+06     42.7906E+03    -77.3256E+06    -28.9292E+06    -50.6646E+06
            1747     93.6068E-03     11.6806E-03     92.8752E-03     54.6569E-03    -26.9569E-03    -27.7504E-03    -26.7763E-03     53.6828E-03    -26.9569E-03     17.7607E-03     89.1642E-03     107.516E+06     25.0752E+06    -40.3864E+06    -98.3479E+06    -2.43071E+06    -70.8420E+06    -40.3864E+06    -51.2656E+06
            1748     93.7517E-03     12.6544E-03     92.8938E-03     54.9697E-03    -26.8352E-03    -28.1720E-03    -26.6004E-03     53.3981E-03    -26.8352E-03     22.3879E-03     100.461E-03     102.581E+06     23.9575E+06    -58.8552E+06    -89.5995E+06    -5.84143E+06    -59.8005E+06    -58.8552E+06    -49.8735E+06
            1749     93.9122E-03     13.6291E-03     92.9180E-03     56.0510E-03    -26.7061E-03    -29.3561E-03    -26.3614E-03     53.0562E-03    -26.7061E-03     31.0127E-03     117.802E-03     98.2256E+06     23.1701E+06    -64.6640E+06    -82.5114E+06    -8.37780E+06    -40.7992E+06    -74.8284E+06    -44.6223E+06
            1750     94.0943E-03     14.6022E-03     92.9544E-03     60.2398E-03    -26.5083E-03    -33.7415E-03    -25.9362E-03     52.4345E-03    -26.5083E-03     50.3683E-03     145.862E-03     122.383E+06     49.9724E+06    -38.3409E+06    -87.8509E+06    -8.35385E+06     19.9853E+06    -87.8509E+06    -33.5009E+06
            1751     94.3162E-03     15.5815E-03     93.0202E-03     77.8082E-03    -26.5257E-03    -51.2891E-03    -26.8527E-03     53.3718E-03    -26.5257E-03     99.0621E-03     215.078E-03     154.168E+06     114.638E+06    -5.72110E+06    -55.5950E+06    -8.28474E+06     110.286E+06    -48.6792E+06    -16.5372E+06
            1752     94.6208E-03     16.5523E-03     93.1617E-03     77.6574E-03    -26.9091E-03    -50.7481E-03    -25.8335E-03     52.7429E-03    -26.9091E-03     99.9222E-03     245.918E-03     173.848E+06     181.667E+06     65.2191E+06    -10.5532E+06    -6.78473E+06     181.511E+06     61.6067E+06    -3.46205E+06
            1753     93.8638E-03     974.506E-06     93.8587E-03     54.1823E-03    -26.8648E-03    -27.3175E-03    -27.0645E-03     54.1775E-03    -27.1130E-03     1.06403E-03     54.5357E-03     106.692E+06     33.5620E+06     30.1450E+06    -74.7869E+06     31.9274E+06    -74.3257E+06     31.3184E+06    -3.56568E+06
            1754     93.8798E-03     1.94695E-03     93.8596E-03     54.7378E-03    -27.1941E-03    -27.5438E-03    -27.5304E-03     54.7244E-03    -27.1941E-03     2.05201E-03     55.5584E-03     93.3964E+06     37.3877E+06     35.9330E+06    -56.7193E+06     33.6276E+06    -54.2228E+06     37.1966E+06    -13.8254E+06
            1755     93.9070E-03     2.91939E-03     93.8616E-03     54.7076E-03    -27.2266E-03    -27.4811E-03    -27.3965E-03     54.6792E-03    -27.2827E-03     2.97857E-03     56.3551E-03     97.5231E+06     37.6905E+06     30.4035E+06    -63.1056E+06     32.4681E+06    -57.9734E+06     30.4937E+06    -21.9795E+06
            1756     93.9445E-03     3.89312E-03     93.8638E-03     54.4507E-03    -27.1333E-03    -27.3175E-03    -27.1564E-03     54.3920E-03    -27.2358E-03     4.30001E-03     57.2959E-03     100.675E+06     37.3310E+06     18.7847E+06    -71.2324E+06     29.5647E+06    -63.4662E+06     18.7847E+06    -27.7779E+06
            1757     93.9931E-03     4.86700E-03     93.8670E-03     54.4035E-03    -27.1332E-03    -27.2704E-03    -27.1311E-03     54.3153E-03    -27.1843E-03     5.35516E-03     58.8384E-03     101.879E+06     35.6590E+06     12.8444E+06    -75.6096E+06     25.1584E+06    -65.1090E+06     12.8444E+06    -32.3704E+06
            1758     94.0529E-03     5.84004E-03     93.8715E-03     54.3882E-03    -27.1514E-03    -27.2357E-03    -27.0725E-03     54.2505E-03    -27.1769E-03     6.62301E-03     60.8148E-03     110.517E+06     33.4345E+06     12.2273E+06    -85.9635E+06     21.0981E+06    -73.6271E+06     12.2273E+06      -36.22E+06
            1759     94.1240E-03     6.81355E-03     93.8771E-03     54.2835E-03    -27.1108E-03    -27.1742E-03    -26.9417E-03     54.0717E-03    -27.1314E-03     8.25799E-03     63.0910E-03     115.572E+06     34.8875E+06     8.04895E+06    -91.4772E+06     19.5533E+06    -76.1430E+06     8.04895E+06    -41.1138E+06
            1760     94.2066E-03     7.78761E-03     93.8841E-03     54.3014E-03    -27.0662E-03    -27.2337E-03    -26.9420E-03     54.0097E-03    -27.0662E-03     9.69611E-03     66.1451E-03     114.932E+06     35.5743E+06     1.18675E+06    -92.6193E+06     18.1478E+06    -75.1928E+06     1.18675E+06    -43.9165E+06
            1761     94.2997E-03     8.76061E-03     93.8919E-03     54.2965E-03    -27.0358E-03    -27.2600E-03    -26.8592E-03     53.8957E-03    -27.0358E-03     11.3405E-03     69.9695E-03     113.926E+06     35.0809E+06     22.0909E+03    -92.2206E+06     16.3706E+06    -73.5103E+06     22.0909E+03    -45.0089E+06
            1762     94.4056E-03     9.73470E-03     93.9023E-03     54.3688E-03    -26.9697E-03    -27.4222E-03    -26.8177E-03     53.7643E-03    -26.9697E-03     13.8866E-03     75.0997E-03     113.658E+06     36.8439E+06    -7.35940E+06    -91.9262E+06     15.4525E+06    -70.5348E+06    -7.35940E+06    -47.8862E+06
            1763     94.5236E-03     10.7086E-03     93.9150E-03     54.5982E-03    -26.8931E-03    -27.7426E-03    -26.8888E-03     53.7444E-03    -26.8931E-03     16.6361E-03     81.7988E-03     113.886E+06     36.2163E+06    -20.4173E+06    -94.7503E+06     12.8757E+06    -71.4097E+06    -20.4173E+06    -50.0699E+06
            1764     94.6545E-03     11.6823E-03     93.9308E-03     54.6688E-03    -26.8219E-03    -27.8806E-03    -26.7856E-03     53.5738E-03    -26.8219E-03     18.8462E-03     88.7928E-03     108.890E+06     33.5926E+06    -31.9340E+06    -91.6752E+06     7.95459E+06    -66.0372E+06    -31.9340E+06    -50.4221E+06
            1765     94.7963E-03     12.6565E-03     93.9476E-03     55.0460E-03    -26.7159E-03    -28.3492E-03    -26.6429E-03     53.3397E-03    -26.7159E-03     23.3767E-03     100.144E-03     104.199E+06     30.4925E+06    -50.7554E+06    -85.8288E+06     3.11121E+06    -58.4475E+06    -50.7554E+06    -49.2439E+06
            1766     94.9565E-03     13.6304E-03     93.9731E-03     56.0755E-03    -26.5920E-03    -29.4890E-03    -26.3787E-03     52.9652E-03    -26.5920E-03     31.6704E-03     117.591E-03     101.454E+06     28.5878E+06    -63.3836E+06    -80.1241E+06    -1.84186E+06    -43.2923E+06    -69.7856E+06    -46.2294E+06
            1767     95.1362E-03     14.6064E-03     94.0082E-03     60.5680E-03    -26.4233E-03    -34.1558E-03    -26.1961E-03     52.6083E-03    -26.4233E-03     51.0983E-03     145.532E-03     114.507E+06     42.5782E+06    -42.7798E+06    -84.7538E+06    -6.78836E+06     6.58671E+06    -84.7538E+06    -36.4898E+06
            1768     95.3551E-03     15.5777E-03     94.0741E-03     77.5064E-03    -26.3641E-03    -51.1499E-03    -26.2585E-03     52.6150E-03    -26.3641E-03     99.3641E-03     214.140E-03     143.988E+06     96.7096E+06    -15.6156E+06    -62.0057E+06    -8.86429E+06     89.9583E+06    -62.0057E+06    -19.1191E+06
            1769     95.6577E-03     16.5612E-03     94.2131E-03     76.9319E-03    -26.6791E-03    -50.2534E-03    -25.2629E-03     51.9414E-03    -26.6791E-03     99.0658E-03     244.885E-03     171.874E+06     173.201E+06     55.3747E+06    -17.3218E+06    -6.14601E+06     172.844E+06     44.5564E+06    -5.50407E+06
            1770     94.9187E-03     973.720E-06     94.9137E-03     53.8956E-03    -26.5526E-03    -27.3420E-03    -27.0896E-03     53.8900E-03    -26.7994E-03     1.24379E-03     54.2278E-03     108.834E+06     50.7177E+06     45.8017E+06     -60.368E+06     49.5311E+06    -59.3965E+06     46.0168E+06    -8.68612E+06
            1771     94.9359E-03     1.94709E-03     94.9159E-03     53.9408E-03    -26.7513E-03    -27.1894E-03    -26.9996E-03     53.9235E-03    -26.9238E-03     2.27520E-03     54.7361E-03     90.3734E+06     49.3300E+06     42.5314E+06    -44.0711E+06     47.0874E+06    -42.1338E+06     42.8368E+06    -13.1050E+06
            1772     94.9619E-03     2.92096E-03     94.9169E-03     53.9148E-03    -26.8162E-03    -27.0989E-03    -26.9400E-03     53.8772E-03    -26.9375E-03     3.43489E-03     55.5433E-03     90.3531E+06     47.5156E+06     40.8916E+06    -45.8261E+06     43.1720E+06    -41.5727E+06     40.9818E+06    -18.9148E+06
            1773     94.9987E-03     3.89474E-03     94.9188E-03     53.9467E-03    -26.8667E-03    -27.0803E-03    -26.9549E-03     53.8775E-03    -26.9229E-03     4.67611E-03     56.7367E-03     99.2321E+06     47.8094E+06     34.7182E+06    -57.1259E+06     40.4264E+06    -49.7429E+06     34.7182E+06    -26.6710E+06
            1774     95.0474E-03     4.86788E-03     94.9227E-03     53.9257E-03    -26.8947E-03    -27.0316E-03    -26.9156E-03     53.8098E-03    -26.8947E-03     6.02698E-03     58.2712E-03     103.728E+06     48.2488E+06     27.9580E+06    -64.0607E+06     38.9643E+06    -54.7761E+06     27.9580E+06    -30.8739E+06
            1775     95.1061E-03     5.84164E-03     94.9266E-03     53.9013E-03    -26.8583E-03    -27.0442E-03    -26.8441E-03     53.7218E-03    -26.8789E-03     7.52038E-03     60.1697E-03     112.152E+06     49.5625E+06     25.1361E+06    -72.7363E+06     37.6322E+06    -60.8059E+06     25.1361E+06    -36.2082E+06
            1776     95.1763E-03     6.81583E-03     94.9320E-03     53.8161E-03    -26.8202E-03    -26.9969E-03    -26.7119E-03     53.5516E-03    -26.8408E-03     9.16991E-03     62.4034E-03     116.908E+06     48.7532E+06     20.1810E+06    -79.7507E+06     34.5332E+06    -65.5306E+06     20.1810E+06    -40.2379E+06
            1777     95.2580E-03     7.78948E-03     94.9390E-03     53.7898E-03    -26.7844E-03    -27.0090E-03    -26.6374E-03     53.4183E-03    -26.7844E-03     10.8683E-03     65.3375E-03     117.105E+06     46.0879E+06     12.8641E+06    -83.9498E+06     29.9836E+06    -67.8454E+06     12.8641E+06    -42.7083E+06
            1778     95.3508E-03     8.76379E-03     94.9472E-03     53.9146E-03    -26.7389E-03    -27.1790E-03    -26.6699E-03     53.4055E-03    -26.7389E-03     12.7469E-03     69.1348E-03     116.606E+06     46.8365E+06     8.49648E+06    -84.0823E+06     27.7677E+06    -65.0135E+06     8.49648E+06    -46.1291E+06
            1779     95.4545E-03     9.73770E-03     94.9565E-03     54.1622E-03    -26.7044E-03    -27.4822E-03    -26.7434E-03     53.4235E-03    -26.7044E-03     15.3683E-03     74.3363E-03     114.708E+06     45.5767E+06     2.60171E+06    -84.3542E+06     25.1174E+06    -63.8950E+06     2.60171E+06    -47.3207E+06
            1780     95.5725E-03     10.7114E-03     94.9704E-03     54.4102E-03    -26.6610E-03    -27.7911E-03    -26.7952E-03     53.4144E-03    -26.6610E-03     17.9445E-03     81.0560E-03     111.845E+06     41.3718E+06    -8.42305E+06    -86.6115E+06     20.0530E+06    -65.2927E+06    -8.42305E+06    -47.6624E+06
            1781     95.7011E-03     11.6855E-03     94.9850E-03     54.5909E-03    -26.6088E-03    -28.0140E-03    -26.7798E-03     53.3568E-03    -26.6088E-03     20.0027E-03     88.1590E-03     107.948E+06     39.3241E+06    -19.7592E+06    -85.0107E+06     15.3420E+06    -61.0286E+06    -19.7592E+06    -48.9698E+06
            1782     95.8426E-03     12.6593E-03     95.0029E-03     55.1626E-03    -26.5371E-03    -28.6388E-03    -26.7684E-03     53.2922E-03    -26.5371E-03     24.5287E-03     99.6625E-03     103.855E+06     36.1743E+06    -36.7139E+06    -81.7579E+06     11.0160E+06    -56.5996E+06    -36.7139E+06    -48.3093E+06
            1783     96.0003E-03     13.6334E-03     95.0273E-03     56.2861E-03    -26.4506E-03    -29.8371E-03    -26.6252E-03     53.0742E-03    -26.4506E-03     32.3606E-03     117.464E-03     96.0219E+06     29.9260E+06    -52.1730E+06    -74.8301E+06     4.47575E+06    -45.6992E+06    -55.8537E+06    -43.5210E+06
            1784     96.1776E-03     14.6072E-03     95.0618E-03     60.5721E-03    -26.3117E-03    -34.2695E-03    -26.1540E-03     52.4566E-03    -26.3117E-03     51.4932E-03     145.074E-03     98.6761E+06     33.9249E+06    -40.5051E+06    -75.6932E+06    -4.00844E+06    -4.96426E+06    -73.3008E+06    -34.1911E+06
            1785     96.3971E-03     15.5857E-03     95.1288E-03     77.3625E-03    -26.1871E-03    -51.1817E-03    -26.5223E-03     52.7030E-03    -26.1871E-03     99.2370E-03     213.916E-03     133.443E+06     81.9043E+06    -17.5527E+06    -68.0213E+06    -8.17112E+06     72.5227E+06    -68.0213E+06    -22.2776E+06
            1786     96.6903E-03     16.5568E-03     95.2621E-03     77.1026E-03    -26.4555E-03    -50.6488E-03    -25.5337E-03     51.9875E-03    -26.4555E-03     99.9340E-03     245.493E-03     170.015E+06     163.521E+06     48.4143E+06    -28.5685E+06    -6.11634E+06     162.422E+06     27.0608E+06    -9.21912E+06
            1787     95.9741E-03     973.199E-06     95.9692E-03     53.2863E-03    -26.2825E-03    -27.0035E-03    -26.6192E-03     53.2775E-03    -26.6579E-03     1.57509E-03     53.6163E-03     107.512E+06     66.1952E+06     61.2909E+06    -43.5592E+06     65.2194E+06    -42.5834E+06     61.2909E+06    -9.85309E+06
            1788     95.9896E-03     1.94820E-03     95.9698E-03     52.8066E-03    -26.2890E-03    -26.5173E-03    -26.2705E-03     52.7831E-03    -26.5123E-03     2.66953E-03     53.5543E-03     90.3291E+06     61.1766E+06     51.6351E+06    -33.4627E+06     59.3931E+06    -31.6792E+06     51.6351E+06    -12.4278E+06
            1789     96.0161E-03     2.92282E-03     95.9716E-03     52.9440E-03    -26.3812E-03    -26.5626E-03    -26.4498E-03     52.8964E-03    -26.4463E-03     3.82626E-03     54.4975E-03     87.5108E+06     61.4095E+06     53.4093E+06    -29.7481E+06     57.5594E+06    -25.8979E+06     53.4093E+06    -17.7840E+06
            1790     96.0531E-03     3.89614E-03     95.9741E-03     53.0477E-03    -26.4364E-03    -26.6120E-03    -26.4976E-03     52.9617E-03    -26.4648E-03     5.16768E-03     55.7643E-03     101.275E+06     63.8921E+06     53.8023E+06    -41.9602E+06     57.1917E+06    -35.2599E+06     53.8023E+06    -25.6255E+06
            1791     96.1004E-03     4.87075E-03     95.9768E-03     52.8948E-03    -26.3831E-03    -26.5133E-03    -26.3209E-03     52.7308E-03    -26.4114E-03     7.09021E-03     57.0433E-03     108.122E+06     63.6173E+06     42.4970E+06    -53.2902E+06     54.3666E+06    -44.0396E+06     42.4970E+06    -31.4600E+06
            1792     96.1591E-03     5.84520E-03     95.9813E-03     53.0017E-03    -26.3694E-03    -26.6338E-03    -26.3786E-03     52.7464E-03    -26.3694E-03     8.94811E-03     58.9694E-03     111.529E+06     61.7230E+06     35.9819E+06    -60.3468E+06     50.5247E+06    -49.1484E+06     35.9819E+06    -35.1543E+06
            1793     96.2282E-03     6.81874E-03     95.9863E-03     53.0625E-03    -26.3592E-03    -26.7061E-03    -26.3433E-03     52.6997E-03    -26.3592E-03     10.6324E-03     61.2861E-03     118.580E+06     59.7317E+06     33.1774E+06    -69.8011E+06     47.2546E+06     -57.324E+06     33.1774E+06    -38.1245E+06
            1794     96.3088E-03     7.79349E-03     95.9930E-03     53.0495E-03    -26.3016E-03    -26.7549E-03    -26.2337E-03     52.5283E-03    -26.3016E-03     12.7519E-03     64.0494E-03     118.425E+06     59.4403E+06     24.6440E+06    -72.3545E+06     44.5605E+06    -57.4747E+06     24.6440E+06    -41.5821E+06
            1795     96.4008E-03     8.76786E-03     96.0013E-03     53.3757E-03    -26.2613E-03    -27.1144E-03    -26.4295E-03     52.6908E-03    -26.2613E-03     14.7035E-03     67.8481E-03     116.120E+06     55.7417E+06     16.6090E+06    -74.8830E+06     38.8164E+06    -57.9576E+06     16.6090E+06    -43.7559E+06
            1796     96.5045E-03     9.74178E-03     96.0115E-03     53.7853E-03    -26.2536E-03    -27.5399E-03    -26.5971E-03     52.8424E-03    -26.2536E-03     17.2768E-03     73.0458E-03     111.373E+06     48.9133E+06     8.59485E+06    -76.9493E+06     31.2784E+06    -59.3144E+06     8.59485E+06    -43.5724E+06
            1797     96.6203E-03     10.7159E-03     96.0242E-03     54.1040E-03    -26.2314E-03    -27.9004E-03    -26.6400E-03     52.8436E-03    -26.2314E-03     20.0907E-03     79.6542E-03     106.706E+06     44.1760E+06    -2.62936E+06    -77.8168E+06     24.9414E+06    -58.5822E+06    -2.62936E+06    -44.3972E+06
            1798     96.7488E-03     11.6897E-03     96.0400E-03     54.5469E-03    -26.2089E-03    -28.3709E-03    -26.8164E-03     52.9925E-03    -26.2089E-03     22.4002E-03     86.9298E-03     102.600E+06     40.5135E+06    -15.1068E+06    -77.6811E+06     18.3586E+06    -55.5262E+06    -15.1068E+06    -46.0291E+06
            1799     96.8883E-03     12.6636E-03     96.0572E-03     55.2898E-03    -26.1877E-03    -29.1188E-03    -26.9254E-03     53.0965E-03    -26.1877E-03     26.6604E-03     98.5898E-03     99.1986E+06     35.1250E+06    -31.9355E+06    -78.3716E+06     11.4644E+06    -54.7111E+06    -31.9355E+06    -46.1030E+06
            1800     97.0451E-03     13.6377E-03     96.0820E-03     56.6382E-03    -26.1602E-03    -30.4783E-03    -26.8359E-03     52.9958E-03    -26.1602E-03     34.5557E-03     116.621E-03     91.8597E+06     28.6435E+06    -48.4593E+06    -71.9092E+06     6.67234E+06    -49.9381E+06    -48.4593E+06    -41.4679E+06
            1801     97.2210E-03     14.6117E-03     96.1167E-03     60.9349E-03    -26.0911E-03    -34.8466E-03    -26.4683E-03     52.5566E-03    -26.0911E-03     52.8536E-03     144.989E-03     87.5954E+06     32.5567E+06    -37.4854E+06    -63.8803E+06     4.01213E+06    -13.4890E+06    -59.3321E+06    -33.0600E+06
            1802     97.4337E-03     15.5855E-03     96.1791E-03     78.1091E-03    -25.9462E-03    -52.1647E-03    -26.9770E-03     52.9214E-03    -25.9462E-03     100.786E-03     213.896E-03     120.650E+06     72.1771E+06    -11.9751E+06    -65.7569E+06     895.255E+03     59.3067E+06    -65.7569E+06    -22.2648E+06
            1803     97.7341E-03     16.5650E-03     96.3201E-03     77.6987E-03    -26.1484E-03    -51.5524E-03    -25.8350E-03     51.9813E-03    -26.1484E-03     101.571E-03     244.995E-03     162.535E+06     151.367E+06     41.8618E+06    -34.8420E+06    -1.66878E+06     150.129E+06     9.92674E+06    -9.65953E+06
            1804     97.0275E-03     975.339E-06     97.0226E-03     51.6622E-03    -25.6134E-03    -26.0484E-03    -25.7689E-03     51.6508E-03    -25.8815E-03     1.81164E-03     52.0154E-03     104.814E+06     76.6480E+06     74.7908E+06    -29.0776E+06     74.9597E+06    -28.3734E+06     75.7750E+06    -7.48358E+06
            1805     97.0427E-03     1.94947E-03     97.0231E-03     51.7288E-03    -25.7708E-03    -25.9573E-03    -25.8715E-03     51.6938E-03    -25.8217E-03     3.11300E-03     52.4469E-03     95.3111E+06     79.1452E+06     72.8166E+06    -19.1057E+06     76.5784E+06    -16.9988E+06     73.2764E+06    -13.5667E+06
            1806     97.0693E-03     2.92380E-03     97.0253E-03     51.4734E-03    -25.6689E-03    -25.8039E-03    -25.6300E-03     51.3934E-03    -25.7627E-03     4.82528E-03     52.9093E-03     91.0658E+06     79.5012E+06     65.9849E+06    -17.3598E+06     75.3604E+06    -13.2190E+06     65.9849E+06    -19.3454E+06
            1807     97.1060E-03     3.89941E-03     97.0276E-03     51.4108E-03    -25.5898E-03    -25.8210E-03    -25.5622E-03     51.2742E-03    -25.7120E-03     6.36230E-03     53.9195E-03     98.7485E+06     77.9335E+06     63.2965E+06    -27.1139E+06     71.9576E+06    -21.1380E+06     63.2965E+06    -24.2165E+06
            1808     97.1521E-03     4.87425E-03     97.0297E-03     51.5452E-03    -25.6424E-03    -25.9036E-03    -25.6443E-03     51.3142E-03    -25.6707E-03     8.30141E-03     55.3933E-03     108.223E+06     75.8512E+06     57.1522E+06    -40.3014E+06     67.6245E+06    -32.0746E+06     57.1522E+06    -29.6321E+06
            1809     97.2107E-03     5.84917E-03     97.0345E-03     51.4920E-03    -25.6141E-03    -25.8787E-03    -25.5144E-03     51.1278E-03    -25.6141E-03     10.4834E-03     56.9922E-03     112.596E+06     72.6852E+06     47.1828E+06    -50.3543E+06     62.8811E+06    -40.5502E+06     47.1828E+06    -33.2888E+06
            1810     97.2793E-03     6.82466E-03     97.0396E-03     51.6476E-03    -25.5768E-03    -26.0711E-03    -25.5408E-03     51.1173E-03    -25.5768E-03     12.6728E-03     59.2285E-03     118.089E+06     70.2428E+06     41.5651E+06    -59.4482E+06     58.7516E+06    -47.9569E+06     41.5651E+06    -36.7673E+06
            1811     97.3586E-03     7.79941E-03     97.0457E-03     52.0973E-03    -25.5389E-03    -26.5604E-03    -25.8005E-03     51.3374E-03    -25.5389E-03     15.2551E-03     62.2996E-03     115.915E+06     66.3815E+06     32.3730E+06    -62.6765E+06     53.1408E+06    -49.4358E+06     32.3730E+06    -39.1320E+06
            1812     97.4506E-03     8.77404E-03     97.0548E-03     52.5319E-03    -25.5428E-03    -26.9926E-03    -25.9909E-03     51.5303E-03    -25.5428E-03     17.6169E-03     65.9743E-03     113.703E+06     61.0523E+06     25.3667E+06    -66.1922E+06     47.2076E+06    -52.3475E+06     25.3667E+06    -39.6005E+06
            1813     97.5531E-03     9.74862E-03     97.0648E-03     53.0695E-03    -25.5530E-03    -27.5304E-03    -26.1878E-03     51.7269E-03    -25.5530E-03     20.4530E-03     71.0089E-03     112.384E+06     57.1581E+06     16.5637E+06    -69.7132E+06      42.965E+06    -55.5200E+06     16.5637E+06    -39.8653E+06
            1814     97.6688E-03     10.7229E-03     97.0784E-03     53.7335E-03    -25.5571E-03    -28.1854E-03    -26.4525E-03     52.0006E-03    -25.5571E-03     23.4669E-03     77.6203E-03     104.093E+06     50.5402E+06     4.51536E+06    -68.5715E+06     35.9167E+06    -53.9481E+06     4.51536E+06    -38.7239E+06
            1815     97.7956E-03     11.6973E-03     97.0935E-03     54.4688E-03    -25.5774E-03    -28.8991E-03    -26.8031E-03     52.3728E-03    -25.5774E-03     26.0059E-03     84.9320E-03     95.6530E+06     43.8306E+06    -8.12487E+06    -66.2242E+06     26.2286E+06    -48.6223E+06    -8.12487E+06    -39.9258E+06
            1816     97.9355E-03     12.6709E-03     97.1123E-03     55.6752E-03    -25.5972E-03    -30.0881E-03    -27.3339E-03     52.9210E-03    -25.5972E-03     30.0993E-03     96.8298E-03     96.4699E+06     38.1289E+06    -30.2436E+06    -71.6720E+06     17.9708E+06    -51.5139E+06    -30.2436E+06    -42.3812E+06
            1817     98.0895E-03     13.6443E-03     97.1359E-03     57.0948E-03    -25.6305E-03    -31.4597E-03    -27.4064E-03     53.0415E-03    -25.6305E-03     36.8000E-03     115.178E-03     96.9682E+06     32.7797E+06    -51.7821E+06    -72.1804E+06     11.9981E+06    -51.3988E+06    -51.7821E+06    -41.6637E+06
            1818     98.2645E-03     14.6191E-03     97.1709E-03     61.5688E-03    -25.6411E-03    -35.9236E-03    -27.2672E-03     52.9124E-03    -25.6411E-03     54.3289E-03     143.915E-03     92.5951E+06     32.7546E+06    -42.2439E+06    -68.5219E+06     7.27636E+06    -20.7873E+06    -64.5002E+06    -35.1341E+06
            1819     98.4767E-03     15.5939E-03     97.2342E-03     78.4493E-03    -25.5919E-03    -52.8581E-03    -27.5389E-03     53.1300E-03    -25.5919E-03     101.432E-03     212.755E-03     111.903E+06     60.2318E+06    -14.2084E+06    -68.4281E+06     1.64619E+06     44.3772E+06    -68.4281E+06    -21.3869E+06
            1820     98.7697E-03     16.5680E-03     97.3702E-03     77.7971E-03    -25.8202E-03    -51.9775E-03    -26.2371E-03     52.0567E-03    -25.8202E-03     101.795E-03     244.349E-03     151.191E+06     139.228E+06     35.8108E+06    -34.2421E+06    -1.23671E+06     138.186E+06     3.84744E+06    -7.59421E+06
            1821     98.0795E-03     975.801E-06     98.0747E-03     49.4173E-03    -24.5945E-03    -24.8219E-03    -24.7729E-03     49.3969E-03    -24.6231E-03     2.08509E-03     49.7626E-03     99.5644E+06     85.7644E+06     83.1874E+06    -15.0597E+06     83.9654E+06    -14.2448E+06     84.1716E+06    -7.58898E+06
            1822     98.0951E-03     1.95136E-03     98.0756E-03     49.4496E-03    -24.6326E-03    -24.8167E-03    -24.7008E-03     49.3872E-03    -24.6860E-03     4.08503E-03     50.1121E-03     89.3376E+06     88.0465E+06     81.7090E+06    -4.22964E+06     84.9927E+06    -1.63565E+06     82.1688E+06    -14.7943E+06
            1823     98.1205E-03     2.92757E-03     98.0768E-03     49.2180E-03    -24.4918E-03    -24.7259E-03    -24.4723E-03     49.0831E-03    -24.6105E-03     6.16903E-03     50.5203E-03     87.4185E+06     86.9724E+06     71.8673E+06    -6.83506E+06     82.4159E+06    -2.27859E+06     71.8673E+06    -20.0148E+06
            1824     98.1559E-03     3.90382E-03     98.0783E-03     49.2854E-03    -24.4528E-03    -24.8318E-03    -24.4997E-03     49.0472E-03    -24.5466E-03     8.24038E-03     51.5280E-03     92.3969E+06     84.4688E+06     65.3057E+06    -15.8739E+06     78.4356E+06    -9.84061E+06     65.3057E+06    -23.7555E+06
            1825     98.2033E-03     4.87957E-03     98.0820E-03     49.4738E-03    -24.5484E-03    -24.9249E-03    -24.5510E-03     49.0999E-03    -24.5484E-03     10.3567E-03     52.9393E-03     104.146E+06     83.4734E+06     65.5601E+06    -28.3891E+06     76.1778E+06    -21.0935E+06     65.5601E+06    -27.5418E+06
            1826     98.2598E-03     5.85551E-03     98.0852E-03     49.4836E-03    -24.5134E-03    -24.9702E-03    -24.4030E-03     48.9163E-03    -24.5134E-03     12.7691E-03     54.3949E-03     112.449E+06     82.5082E+06     59.3443E+06    -39.6118E+06     73.5662E+06    -30.6698E+06     59.3443E+06    -31.7739E+06
            1827     98.3284E-03     6.83210E-03     98.0907E-03     49.8306E-03    -24.4727E-03    -25.3568E-03    -24.5314E-03     49.0053E-03    -24.4727E-03     15.4876E-03     56.5697E-03     117.108E+06     78.6698E+06     51.3211E+06    -49.6414E+06     68.7053E+06    -39.6769E+06     51.3211E+06    -34.2020E+06
            1828     98.4079E-03     7.80790E-03     98.0977E-03     50.4938E-03    -24.4650E-03    -26.0291E-03    -24.8800E-03     49.3448E-03    -24.4650E-03     18.4235E-03     59.6135E-03     115.385E+06     72.8165E+06     43.7390E+06    -54.2525E+06     62.4291E+06    -43.8652E+06     43.7390E+06    -34.6141E+06
            1829     98.4987E-03     8.78335E-03     98.1063E-03     51.1143E-03    -24.4739E-03    -26.6417E-03    -25.1242E-03     49.5969E-03    -24.4739E-03     21.3322E-03     63.1246E-03     112.659E+06     68.3359E+06     33.9321E+06    -57.4556E+06     56.5534E+06    -45.6731E+06     33.9321E+06    -36.5541E+06
            1830     98.6010E-03     9.75887E-03     98.1169E-03     52.0338E-03    -24.5077E-03    -27.5364E-03    -25.5354E-03     50.0329E-03    -24.5077E-03     24.7136E-03     68.0441E-03     112.656E+06     61.8812E+06     22.3473E+06    -65.0737E+06     50.0916E+06    -53.2842E+06     22.3473E+06    -36.7738E+06
            1831     98.7160E-03     10.7338E-03     98.1307E-03     53.2850E-03    -24.5675E-03    -28.7237E-03    -26.2304E-03     50.7917E-03    -24.5675E-03     28.0110E-03     74.8532E-03     103.435E+06     54.1274E+06     10.0037E+06    -63.7435E+06     43.8413E+06    -53.4574E+06     10.0037E+06    -33.2194E+06
            1832     98.8430E-03     11.7077E-03     98.1471E-03     54.4672E-03    -24.6841E-03    -29.7767E-03    -26.9076E-03     51.5981E-03    -24.6841E-03     30.4448E-03     82.5083E-03      88.418E+06     48.0991E+06     3.69516E+06    -53.3155E+06     35.9850E+06    -41.2015E+06     3.69516E+06    -32.4575E+06
            1833     98.9815E-03     12.6818E-03     98.1657E-03     56.2126E-03    -24.8026E-03    -31.4068E-03    -27.7863E-03     52.5921E-03    -24.8026E-03     34.7087E-03     94.5313E-03     88.4099E+06     39.7193E+06    -17.2260E+06    -60.9097E+06     24.8328E+06    -46.0232E+06    -17.2260E+06    -35.6642E+06
            1834     99.1370E-03     13.6538E-03     98.1922E-03     58.3331E-03    -24.9432E-03    -33.3804E-03    -28.5826E-03     53.5353E-03    -24.9432E-03     40.7044E-03     113.688E-03     86.3737E+06     27.1606E+06    -44.2757E+06    -67.9265E+06     10.7682E+06    -51.5340E+06    -44.2757E+06    -35.6073E+06
            1835     99.3068E-03     14.6255E-03     98.2239E-03     62.9914E-03    -25.0588E-03    -37.9208E-03    -28.5830E-03     53.6536E-03    -25.0588E-03     57.3103E-03     142.862E-03     85.9453E+06     24.2163E+06    -43.9537E+06    -71.0082E+06    -1.11723E+06    -24.5951E+06    -65.0333E+06    -33.0779E+06
            1836     99.5197E-03     15.5987E-03     98.2896E-03     79.2933E-03    -25.1151E-03    -54.1755E-03    -29.0029E-03     54.1207E-03    -25.1151E-03     102.624E-03     211.498E-03     107.570E+06     48.4523E+06    -23.4800E+06    -75.0603E+06    -5.41467E+06     30.3870E+06    -75.0603E+06    -25.0588E+06
            1837     99.8076E-03     16.5757E-03     98.4216E-03     78.0049E-03    -25.4459E-03    -52.5579E-03    -27.1411E-03     52.5881E-03    -25.4459E-03     102.059E-03     244.489E-03     142.682E+06     126.887E+06     29.5501E+06    -36.7403E+06    -3.84268E+06     124.490E+06    -950.541E+03    -8.71500E+06
            1838     99.1283E-03     977.221E-06     99.1234E-03     46.2603E-03    -23.0359E-03    -23.2241E-03    -23.0368E-03     46.2293E-03    -23.1923E-03     2.44530E-03     46.5651E-03     95.4138E+06     98.6724E+06     92.4593E+06     439.981E+03     96.4785E+06     1.67458E+06     93.4187E+06    -8.55143E+06
            1839     99.1440E-03     1.95513E-03     99.1247E-03     45.9800E-03    -22.8784E-03    -23.1015E-03    -22.8534E-03     45.8859E-03    -23.0325E-03     4.97178E-03     46.5493E-03     83.0849E+06     96.9283E+06     88.6735E+06     10.1060E+06     93.9658E+06     13.0685E+06     88.6735E+06    -15.5347E+06
            1840     99.1683E-03     2.93271E-03     99.1249E-03     46.2592E-03    -22.9589E-03    -23.3004E-03    -23.0667E-03     46.0503E-03    -22.9837E-03     7.41517E-03     47.3857E-03     86.4174E+06     95.3633E+06     84.2554E+06     4.00288E+06     90.9689E+06     8.39731E+06     84.2554E+06    -19.4214E+06
            1841     99.2049E-03     3.90965E-03     99.1278E-03     46.3594E-03    -22.9627E-03    -23.3958E-03    -23.0199E-03     45.9834E-03    -22.9627E-03     10.0631E-03     48.2846E-03     91.1252E+06     94.0020E+06     75.7035E+06    -4.85198E+06     88.0103E+06     1.13978E+06     75.7035E+06    -23.5082E+06
            1842     99.2503E-03     4.88745E-03     99.1299E-03     46.3961E-03    -22.9416E-03    -23.4539E-03    -22.8534E-03     45.7956E-03    -22.9416E-03     12.7087E-03     49.3479E-03     101.145E+06     91.0715E+06     69.9009E+06    -18.9040E+06     83.9604E+06    -11.7929E+06     69.9009E+06    -27.0039E+06
            1843     99.3073E-03     5.86536E-03     99.1339E-03     46.8571E-03    -22.9256E-03    -23.9313E-03    -23.0233E-03     45.9491E-03    -22.9256E-03     15.7271E-03     51.0470E-03     107.094E+06     86.8795E+06     65.1885E+06    -29.3305E+06     79.1209E+06    -21.5720E+06     65.1885E+06    -28.9502E+06
            1844     99.3747E-03     6.84213E-03     99.1389E-03     47.4968E-03    -22.9183E-03    -24.5791E-03    -23.2457E-03     46.1634E-03    -22.9183E-03     19.1662E-03     53.2204E-03     112.297E+06     80.4021E+06     54.7050E+06    -42.4180E+06     72.5032E+06    -34.5191E+06     54.7050E+06    -30.0606E+06
            1845     99.4546E-03     7.81960E-03     99.1467E-03     48.2103E-03    -22.9179E-03    -25.2940E-03    -23.4736E-03     46.3899E-03    -22.9179E-03     22.6068E-03     55.8921E-03     109.852E+06     74.9655E+06     43.8156E+06    -46.8696E+06     66.4794E+06    -38.3835E+06     43.8156E+06    -30.9178E+06
            1846     99.5451E-03     8.79675E-03     99.1556E-03     49.2132E-03    -22.9689E-03    -26.2437E-03    -23.9515E-03     46.9211E-03    -22.9689E-03     25.7088E-03     59.4372E-03     104.815E+06     66.5458E+06     35.8083E+06    -49.8460E+06     57.8207E+06    -41.1208E+06     35.8083E+06    -30.3631E+06
            1847     99.6474E-03     9.77311E-03     99.1670E-03     50.7276E-03    -23.0776E-03    -27.6468E-03    -24.7129E-03     47.7937E-03    -23.0776E-03     29.5568E-03     64.5302E-03     101.995E+06     52.7735E+06     25.6884E+06    -59.7339E+06     45.0056E+06    -51.9660E+06     25.6884E+06    -28.1935E+06
            1848     99.7626E-03     10.7486E-03     99.1819E-03     52.6121E-03    -23.2119E-03    -29.3991E-03    -25.8198E-03     49.0327E-03    -23.2119E-03     33.3628E-03     71.5180E-03     90.8508E+06     39.9998E+06     10.1330E+06    -61.2720E+06     32.2930E+06    -53.5652E+06     10.1330E+06    -26.7193E+06
            1849     99.8900E-03     11.7230E-03     99.1997E-03     54.4770E-03    -23.4563E-03    -31.0147E-03    -27.0265E-03     50.4888E-03    -23.4563E-03     35.9337E-03     79.7183E-03     73.1291E+06     35.4726E+06     8.98114E+06    -46.5632E+06     24.0462E+06    -35.1368E+06     8.98114E+06    -26.9718E+06
            1850     100.028E-03     12.6958E-03     99.2194E-03     56.8403E-03    -23.7335E-03    -33.1006E-03    -28.3363E-03     52.0760E-03    -23.7335E-03     40.1545E-03     92.1569E-03     74.7517E+06     31.2924E+06    -4.17680E+06    -53.4283E+06     18.6873E+06    -40.8231E+06    -4.17680E+06    -28.8871E+06
            1851     100.184E-03     13.6686E-03     99.2472E-03     59.7176E-03    -24.0170E-03    -35.6987E-03    -29.8107E-03     53.8296E-03    -24.0170E-03     45.8679E-03     111.780E-03     74.4038E+06     20.2222E+06    -31.0927E+06    -64.0027E+06     10.8799E+06    -54.6603E+06    -31.0927E+06    -25.8775E+06
            1852     100.355E-03     14.6393E-03     99.2815E-03     64.7737E-03    -24.2796E-03    -40.4904E-03    -30.4453E-03     54.7285E-03    -24.2796E-03     60.9722E-03     141.809E-03     74.9690E+06     23.3280E+06    -33.5773E+06    -61.4237E+06    -477.980E+03    -18.8845E+06    -52.3105E+06    -25.6408E+06
            1853     100.563E-03     15.6111E-03     99.3436E-03     81.8710E-03    -24.4737E-03    -57.3971E-03    -31.5996E-03     56.0734E-03    -24.4737E-03     106.459E-03     211.166E-03     100.612E+06     39.3822E+06    -25.4329E+06    -76.2627E+06    -8.39582E+06     22.3452E+06    -76.2627E+06    -26.7530E+06
            1854     100.852E-03     16.5800E-03     99.4797E-03     78.6437E-03    -24.9436E-03    -53.7007E-03    -29.0094E-03     53.9524E-03    -24.9436E-03     101.252E-03     244.489E-03     136.548E+06     111.436E+06     21.7256E+06    -45.4162E+06    -7.75218E+06     105.869E+06    -10.3710E+06    -14.0822E+06
            1855     100.174E-03     979.181E-06     100.169E-03     41.8178E-03    -20.7588E-03    -21.0592E-03    -20.8802E-03     41.7666E-03    -20.8866E-03     2.61621E-03     42.0799E-03     91.6510E+06     111.492E+06     104.411E+06     16.6397E+06     109.630E+06     17.5414E+06     105.370E+06    -6.35732E+06
            1856     100.188E-03     1.95916E-03     100.169E-03     41.9409E-03    -20.7488E-03    -21.1927E-03    -20.9302E-03     41.7790E-03    -20.8494E-03     6.12857E-03     42.4004E-03     75.3683E+06     102.180E+06     94.8411E+06     23.5208E+06     99.7542E+06     25.9462E+06     94.8411E+06    -12.4702E+06
            1857     100.214E-03     2.93844E-03     100.171E-03     42.2030E-03    -20.8676E-03    -21.3360E-03    -21.0065E-03     41.8735E-03    -20.8676E-03     8.90312E-03     43.0939E-03     77.9717E+06     97.9348E+06     87.2702E+06     15.2688E+06     93.9735E+06     19.2300E+06     87.2702E+06    -17.5296E+06
            1858     100.249E-03     3.91806E-03     100.173E-03     42.2443E-03    -20.8338E-03    -21.4099E-03    -20.8352E-03     41.6696E-03    -20.8338E-03     11.8407E-03     43.7503E-03     79.7530E+06     93.0869E+06     74.4837E+06     5.88137E+06     87.6458E+06     11.3225E+06     74.4837E+06    -20.9621E+06
            1859     100.294E-03     4.89779E-03     100.175E-03     42.5334E-03    -20.7763E-03    -21.7567E-03    -20.8199E-03     41.5966E-03    -20.7763E-03     15.1615E-03     44.8165E-03     85.8502E+06     85.8034E+06     59.4242E+06    -9.81941E+06     79.4103E+06    -3.42636E+06     59.4242E+06    -23.8036E+06
            1860     100.351E-03     5.87716E-03     100.179E-03     43.1991E-03    -20.7547E-03    -22.4447E-03    -21.0162E-03     41.7706E-03    -20.7547E-03     18.8998E-03     46.4402E-03     88.6216E+06     75.3953E+06     47.2501E+06    -23.4493E+06     69.3332E+06    -17.3872E+06     47.2501E+06    -23.6944E+06
            1861     100.419E-03     6.85683E-03     100.185E-03     44.1859E-03    -20.7853E-03    -23.4008E-03    -21.3624E-03     42.1474E-03    -20.7853E-03     22.8798E-03     48.6797E-03     90.0613E+06     65.7008E+06     38.6145E+06    -34.5429E+06     59.4234E+06    -28.2655E+06     38.6145E+06    -24.2274E+06
            1862     100.498E-03     7.83558E-03     100.192E-03     45.4632E-03    -20.8625E-03    -24.5998E-03    -21.8647E-03     42.7281E-03    -20.8625E-03     26.9392E-03     51.5648E-03     88.8188E+06     56.2981E+06     31.4833E+06    -41.8943E+06     49.3021E+06    -34.8983E+06     31.4833E+06    -25.1752E+06
            1863     100.589E-03     8.81389E-03     100.202E-03     47.0877E-03    -21.0313E-03    -26.0522E-03    -22.7061E-03     43.7416E-03    -21.0313E-03     30.3926E-03     55.4297E-03     87.1165E+06     45.3736E+06     30.3922E+06    -47.5661E+06     39.8968E+06    -42.0893E+06     30.3922E+06    -21.6141E+06
            1864     100.691E-03     9.79136E-03     100.214E-03     49.2488E-03    -21.2735E-03    -27.9696E-03    -23.8916E-03     45.1709E-03    -21.2735E-03     34.3816E-03     60.9910E-03     87.3316E+06     36.4581E+06     25.1979E+06    -55.7943E+06     30.2205E+06    -52.3183E+06     27.9595E+06    -16.7569E+06
            1865     100.808E-03     10.7676E-03     100.231E-03     51.7908E-03    -21.5307E-03    -30.2581E-03    -25.3989E-03     46.9315E-03    -21.5307E-03     38.6272E-03     68.2460E-03     75.6252E+06     28.0187E+06     13.2185E+06    -53.8479E+06     20.7701E+06    -49.3609E+06     15.9801E+06    -17.2756E+06
            1866     100.936E-03     11.7419E-03     100.250E-03     54.3705E-03    -21.8882E-03    -32.4789E-03    -27.2146E-03     49.1062E-03    -21.8882E-03     41.3730E-03     76.8591E-03     58.7535E+06     24.8468E+06     11.6439E+06    -39.3675E+06     13.9622E+06    -28.4830E+06     11.6439E+06    -22.5817E+06
            1867     101.076E-03     12.7151E-03     100.273E-03     57.5936E-03    -22.3486E-03    -35.2437E-03    -29.3300E-03     51.6799E-03    -22.3486E-03     45.2902E-03     90.2297E-03     61.6056E+06     17.3336E+06    -938.045E+03    -50.9549E+06     6.58101E+06    -40.2022E+06    -938.045E+03    -22.9777E+06
            1868     101.231E-03     13.6850E-03     100.302E-03     61.1835E-03    -22.8202E-03    -38.3691E-03    -31.4922E-03     54.3066E-03    -22.8202E-03     50.4643E-03     110.619E-03     66.0338E+06     9.32942E+06    -29.0311E+06    -64.1808E+06     1.07639E+06    -55.9278E+06    -29.0311E+06    -21.7004E+06
            1869     101.404E-03     14.6543E-03     100.339E-03     66.4653E-03    -23.3285E-03    -43.1443E-03    -33.0364E-03     56.3575E-03    -23.3285E-03     62.9543E-03     141.935E-03     66.1442E+06     25.7803E+06    -27.4335E+06    -47.9481E+06     452.029E+03    -10.0057E+06    -40.0475E+06    -23.6585E+06
            1870     101.609E-03     15.6228E-03     100.400E-03     83.3999E-03    -23.7632E-03    -59.6409E-03    -34.3404E-03     58.0993E-03    -23.7632E-03     107.054E-03     212.495E-03     86.3948E+06     35.3526E+06    -16.8228E+06    -62.8629E+06    -1.87922E+06     20.4090E+06    -62.8629E+06    -23.3465E+06
            1871     101.901E-03     16.5937E-03     100.541E-03     79.5409E-03    -24.4073E-03    -55.1334E-03    -32.1437E-03     56.5512E-03    -24.4073E-03     97.8247E-03     245.619E-03     124.215E+06     96.2686E+06     23.0552E+06    -46.2813E+06    -4.95000E+06     88.3633E+06    -10.3709E+06    -17.1500E+06
            1872     101.213E-03     983.154E-06     101.208E-03     36.3036E-03    -17.9522E-03    -18.3515E-03    -18.2459E-03     36.2306E-03    -17.9848E-03     3.11400E-03     36.5004E-03     76.1706E+06     104.301E+06     97.6603E+06     25.0891E+06     101.660E+06     25.3048E+06     100.086E+06    -2.99179E+06
            1873     101.229E-03     1.96444E-03     101.210E-03     36.8723E-03    -18.1498E-03    -18.7227E-03    -18.4776E-03     36.6271E-03    -18.1498E-03     7.12136E-03     37.2060E-03     56.4374E+06     96.5789E+06     91.2380E+06     37.7265E+06     95.4833E+06     38.8221E+06     91.2380E+06    -6.70239E+06
            1874     101.254E-03     2.94617E-03     101.211E-03     36.9565E-03    -18.1996E-03    -18.7563E-03    -18.2606E-03     36.4609E-03    -18.1996E-03     10.2696E-03     37.5891E-03     59.5636E+06     90.8431E+06     78.9639E+06     26.4510E+06     87.6972E+06     29.5970E+06     78.9639E+06    -13.2644E+06
            1875     101.289E-03     3.92855E-03     101.212E-03     37.2355E-03    -18.1467E-03    -19.0878E-03    -18.2076E-03     36.3553E-03    -18.1467E-03     13.7007E-03     38.2882E-03     61.9553E+06     83.0490E+06     62.2948E+06     13.5315E+06     78.9148E+06     17.6657E+06     62.2948E+06    -15.8314E+06
            1876     101.334E-03     4.91046E-03     101.215E-03     37.9204E-03    -18.1052E-03    -19.8156E-03    -18.4011E-03     36.5058E-03    -18.1052E-03     17.6108E-03     39.5192E-03     63.6033E+06     70.5768E+06     43.2724E+06    -2.06032E+06     66.6518E+06     1.86467E+06     43.2724E+06    -15.8719E+06
            1877     101.390E-03     5.89253E-03     101.219E-03     38.9397E-03    -18.1354E-03    -20.8051E-03    -18.7078E-03     36.8423E-03    -18.1354E-03     21.7655E-03     41.2503E-03     66.6083E+06     56.7514E+06     29.6175E+06    -18.8977E+06     53.2434E+06    -15.3897E+06     29.6175E+06    -15.5786E+06
            1878     101.458E-03     6.87403E-03     101.225E-03     40.3677E-03    -18.2510E-03    -22.1166E-03    -19.2449E-03     37.4959E-03    -18.2510E-03     25.9895E-03     43.6757E-03     63.7973E+06     42.7607E+06     25.0577E+06    -27.5374E+06     39.2431E+06    -24.2646E+06     25.3026E+06    -13.9840E+06
            1879     101.538E-03     7.85494E-03     101.233E-03     42.3379E-03    -18.4628E-03    -23.8744E-03    -20.1522E-03     38.6157E-03    -18.4628E-03     30.3480E-03     47.0325E-03     63.8210E+06     32.9494E+06     20.4200E+06    -35.8215E+06     24.3379E+06    -32.5695E+06     25.7795E+06    -13.2964E+06
            1880     101.629E-03     8.83477E-03     101.245E-03     44.7367E-03    -18.7549E-03    -25.9790E-03    -21.4625E-03     40.2202E-03    -18.7549E-03     34.4704E-03     51.4101E-03     68.7804E+06     26.5414E+06     14.0268E+06    -47.0192E+06     13.1668E+06    -44.1796E+06     24.5618E+06    -12.9130E+06
            1881     101.733E-03     9.81271E-03     101.259E-03     47.6502E-03    -19.1289E-03    -28.5167E-03    -23.1436E-03     42.2771E-03    -19.1289E-03     38.8858E-03     57.5394E-03     74.6009E+06     23.3985E+06     12.2236E+06    -55.7447E+06     10.1332E+06    -53.5151E+06     23.2592E+06    -11.7147E+06
            1882     101.850E-03     10.7893E-03     101.277E-03     51.1123E-03    -19.5553E-03    -31.5554E-03    -25.2919E-03     44.8487E-03    -19.5553E-03     43.6691E-03     65.4797E-03     65.8536E+06     23.5602E+06     13.5303E+06    -46.6032E+06     11.9551E+06    -40.9801E+06     19.5124E+06    -14.6262E+06
            1883     101.982E-03     11.7639E-03     101.301E-03     54.5582E-03    -20.1130E-03    -34.4463E-03    -27.9703E-03     48.0822E-03    -20.1130E-03     46.1739E-03     75.0958E-03     51.8322E+06     23.0929E+06     11.0628E+06    -33.4244E+06     9.50659E+06    -25.5213E+06     16.7461E+06    -15.5933E+06
            1884     102.123E-03     12.7353E-03     101.326E-03     58.6120E-03    -20.8151E-03    -37.7976E-03    -30.9878E-03     51.8022E-03    -20.8151E-03     49.3892E-03     89.6453E-03     53.4395E+06     12.1227E+06     15.4668E+03    -46.1526E+06     1.58375E+06    -40.9301E+06     5.33190E+06    -13.8438E+06
            1885     102.282E-03     13.7047E-03     101.359E-03     62.9765E-03    -21.5256E-03    -41.4508E-03    -33.9418E-03     55.4674E-03    -21.5256E-03     53.9498E-03     110.846E-03     57.2563E+06     6.64282E+06    -22.4484E+06    -55.9355E+06    -3.45631E+06    -45.8363E+06    -22.4484E+06    -21.6944E+06
            1886     102.454E-03     14.6705E-03     101.399E-03     69.0874E-03    -22.3331E-03    -46.7584E-03    -36.4910E-03     58.8200E-03    -22.3331E-03     65.5146E-03     143.907E-03     60.4085E+06     24.3832E+06    -27.9683E+06    -41.1792E+06    -4.03676E+06    -8.48971E+06    -32.2379E+06    -26.5498E+06
            1887     102.661E-03     15.6341E-03     101.463E-03     84.4264E-03    -23.0931E-03    -61.3366E-03    -37.7332E-03     60.8230E-03    -23.0931E-03     105.382E-03     215.419E-03     74.2395E+06     34.6164E+06    -18.9019E+06    -46.9259E+06    -3.99083E+06     19.7053E+06    -46.9259E+06    -23.7104E+06
            1888     102.943E-03     16.6009E-03     101.596E-03     81.0272E-03    -24.0104E-03    -57.0151E-03    -36.3437E-03     60.3558E-03    -24.0104E-03     94.2209E-03     248.252E-03     104.740E+06      86.085E+06     27.4251E+06    -33.3299E+06    -1.30867E+06     77.8182E+06     3.67066E+06    -18.6718E+06
            1889     102.248E-03     985.071E-06     102.243E-03     30.3789E-03    -14.9551E-03    -15.4236E-03    -15.2771E-03     30.2650E-03    -14.9877E-03     4.24420E-03     30.5495E-03     60.8093E+06     95.8700E+06     85.1001E+06     30.6002E+06     93.0462E+06     30.9982E+06     87.5259E+06    -3.57705E+06
            1890     102.263E-03     1.97013E-03     102.244E-03     30.6250E-03    -15.0803E-03    -15.5441E-03    -15.2120E-03     30.2929E-03    -15.0803E-03     7.48252E-03     30.8369E-03     39.7423E+06     89.0137E+06     77.1459E+06     45.3974E+06     88.5084E+06     45.9027E+06     77.1459E+06    -4.52917E+06
            1891     102.288E-03     2.95570E-03     102.245E-03     30.8885E-03    -15.0684E-03    -15.8193E-03    -15.1235E-03     30.1927E-03    -15.0684E-03     11.0958E-03     31.2638E-03     38.9792E+06     80.0558E+06     65.4201E+06     36.5095E+06     78.6455E+06     37.9198E+06     65.4201E+06    -5.96845E+06
            1892     102.322E-03     3.94061E-03     102.246E-03     31.6121E-03    -15.0567E-03    -16.5549E-03    -15.3258E-03     30.3830E-03    -15.0567E-03     14.9651E-03     32.2418E-03     42.7268E+06     64.6132E+06     47.8636E+06     16.1082E+06     62.9585E+06     17.7629E+06     47.8636E+06    -5.51128E+06
            1893     102.368E-03     4.92574E-03     102.249E-03     32.7310E-03    -15.0881E-03    -17.6432E-03    -15.7017E-03     30.7895E-03    -15.0881E-03     19.2019E-03     33.7237E-03     40.3335E+06     46.4755E+06     28.6161E+06     471.292E+03     43.9943E+06     2.95247E+06     28.6161E+06    -2.26783E+06
            1894     102.424E-03     5.90991E-03     102.253E-03     34.3851E-03    -15.2301E-03    -19.1552E-03    -16.3560E-03     31.5858E-03    -15.2301E-03     23.6614E-03     35.9130E-03     41.4675E+06     30.3453E+06     14.5360E+06    -16.3377E+06     25.0527E+06    -13.7049E+06     17.1958E+06    -2.17213E+06
            1895     102.493E-03     6.89342E-03     102.261E-03     36.4864E-03    -15.4764E-03    -21.0098E-03    -17.2590E-03     32.7355E-03    -15.4764E-03     28.2584E-03     38.8187E-03     41.5276E+06     17.7525E+06     7.58072E+06    -27.4936E+06     10.2233E+06    -26.1064E+06     13.7229E+06    -893.891E+03
            1896     102.573E-03     7.87601E-03     102.270E-03     39.0672E-03    -15.8227E-03    -23.2445E-03    -18.4923E-03     34.3149E-03    -15.8227E-03     32.9578E-03     42.6361E-03     44.4780E+06     17.2308E+06     1.31863E+06    -32.1155E+06    -212.468E+03    -30.5844E+06     17.2308E+06     259.078E+03
            1897     102.667E-03     8.85684E-03     102.284E-03     42.1279E-03    -16.2601E-03    -25.8678E-03    -20.1567E-03     36.4168E-03    -16.2601E-03     37.6204E-03     47.4817E-03     53.6706E+06     18.7573E+06    -7.24410E+06    -42.2276E+06    -8.53517E+06    -40.9366E+06     18.7573E+06    -3.08204E+06
            1898     102.772E-03     9.83638E-03     102.300E-03     46.0282E-03    -16.7689E-03    -29.2578E-03    -22.5295E-03     39.2999E-03    -16.7689E-03     42.8761E-03     54.4010E-03     59.0107E+06     13.4755E+06    -8.33854E+06    -52.1958E+06    -12.2858E+06    -48.2486E+06     13.4755E+06    -10.7711E+06
            1899     102.892E-03     10.8132E-03     102.322E-03     50.6630E-03    -17.4233E-03    -33.2373E-03    -25.6465E-03     43.0723E-03    -17.4233E-03     48.0972E-03     63.5445E-03     54.4874E+06     14.1929E+06    -2.58645E+06    -45.2942E+06    -12.4789E+06    -35.4018E+06     14.1929E+06    -15.1287E+06
            1900     103.026E-03     11.7865E-03     102.350E-03     55.1447E-03    -18.2585E-03    -36.8852E-03    -29.2768E-03     47.5364E-03    -18.2585E-03     50.6206E-03     74.4015E-03     48.9332E+06     16.2463E+06    -1.15769E+06    -37.8545E+06    -10.2966E+06    -28.7156E+06     16.2463E+06    -12.7057E+06
            1901     103.171E-03     12.7563E-03     102.380E-03     60.2481E-03    -19.2387E-03    -41.0081E-03    -33.2723E-03     52.5123E-03    -19.2387E-03     53.7773E-03     89.9681E-03     53.3177E+06     15.5389E+06     3.90166E+06    -42.3560E+06    -1.57171E+06    -34.1123E+06     12.7687E+06    -15.6416E+06
            1902     103.332E-03     13.7218E-03     102.417E-03     65.4492E-03    -20.2685E-03    -45.1767E-03    -37.1329E-03     57.4054E-03    -20.2685E-03     57.4270E-03     112.205E-03     56.4234E+06     17.2587E+06    -6.10533E+06    -44.7746E+06     5.58339E+06    -33.0992E+06    -6.10533E+06    -23.1924E+06
            1903     103.508E-03     14.6851E-03     102.461E-03     72.2356E-03    -21.3983E-03    -50.8373E-03    -40.6207E-03     62.0191E-03    -21.3983E-03     67.6475E-03     147.189E-03     54.0261E+06     24.0983E+06    -19.7336E+06    -34.7124E+06     2.02187E+06    -11.7131E+06    -20.6565E+06    -23.5789E+06
            1904     103.716E-03     15.6462E-03     102.529E-03     85.7938E-03    -22.5276E-03    -63.2694E-03    -42.2926E-03     64.8171E-03    -22.5276E-03     102.000E-03     218.773E-03     62.1399E+06     36.7678E+06    -19.6930E+06    -29.3485E+06    -6.22345E+06     23.2982E+06    -29.3485E+06    -23.4614E+06
            1905     103.993E-03     16.6071E-03     102.659E-03     82.8774E-03    -23.7880E-03    -59.0909E-03    -40.6333E-03     64.4198E-03    -23.7880E-03     92.0759E-03     250.643E-03     93.8442E+06     76.4726E+06     30.4849E+06    -25.1285E+06    -8.90705E+06     68.9838E+06     21.7523E+06    -21.0974E+06
            1906     103.275E-03     988.333E-06     103.270E-03     23.9355E-03    -11.8250E-03    -12.1101E-03    -11.9122E-03     23.7687E-03    -11.8560E-03     4.65904E-03     24.0718E-03     44.0210E+06     82.4679E+06     73.4486E+06     34.7964E+06     79.5226E+06     36.0469E+06     75.1433E+06    -5.29574E+06
            1907     103.290E-03     1.97699E-03     103.271E-03     23.9488E-03    -11.7690E-03    -12.1801E-03    -11.7419E-03     23.5106E-03    -11.7690E-03     7.67194E-03     24.0627E-03     27.0665E+06     71.9756E+06     61.8391E+06     41.8115E+06     71.4386E+06     46.2783E+06     57.9093E+06    -1.62911E+06
            1908     103.314E-03     2.96541E-03     103.272E-03     24.5329E-03    -11.7056E-03    -12.8279E-03    -11.9304E-03     23.6354E-03    -11.7056E-03     11.2382E-03     24.7190E-03     28.8595E+06     59.9800E+06     41.9204E+06     27.8580E+06     56.1409E+06     35.6269E+06     37.9906E+06     4.44465E+06
            1909     103.350E-03     3.95382E-03     103.274E-03     25.7192E-03    -11.8019E-03    -13.9173E-03    -12.3692E-03     24.1711E-03    -11.8019E-03     15.1806E-03     26.0485E-03     35.8108E+06     43.8719E+06     26.4953E+06     4.29206E+06     36.0446E+06     12.1194E+06     26.4953E+06     11.3224E+06
            1910     103.395E-03     4.94114E-03     103.277E-03     27.4700E-03    -11.9910E-03    -15.4788E-03    -13.0513E-03     25.0425E-03    -11.9910E-03     19.6704E-03     28.0409E-03     37.2028E+06     27.7708E+06     18.8795E+06    -12.6068E+06     16.4364E+06    -1.27240E+06     18.8795E+06     15.7015E+06
            1911     103.453E-03     5.92800E-03     103.283E-03     29.7620E-03    -12.2660E-03    -17.4960E-03    -14.0433E-03     26.3093E-03    -12.2660E-03     24.4773E-03     30.7370E-03     38.0775E+06     15.6163E+06     8.24719E+06    -25.0800E+06    -808.470E+03    -12.3638E+06     11.9557E+06     15.9094E+06
            1912     103.522E-03     6.91348E-03     103.291E-03     32.5836E-03    -12.6536E-03    -19.9295E-03    -15.3501E-03     28.0041E-03    -12.6536E-03     29.5254E-03     34.2577E-03     40.0155E+06     9.24423E+06    -5.04990E+06    -35.3082E+06    -13.3843E+06    -26.9738E+06     9.24423E+06     11.7841E+06
            1913     103.605E-03     7.89734E-03     103.303E-03     35.7996E-03    -13.1198E-03    -22.6793E-03    -16.8732E-03     29.9935E-03    -13.1198E-03     34.8792E-03     38.5881E-03     39.6365E+06     10.7650E+06    -12.0443E+06    -34.9581E+06    -17.9649E+06    -29.0374E+06     10.7650E+06     8.35873E+06
            1914     103.699E-03     8.88010E-03     103.318E-03     39.6934E-03    -13.7037E-03    -25.9907E-03    -19.0817E-03     32.7844E-03    -13.7037E-03     40.2396E-03     44.1824E-03     45.7242E+06     15.8237E+06    -13.6216E+06    -36.7706E+06    -16.9420E+06    -33.4502E+06     15.8237E+06     2.94904E+06
            1915     103.808E-03     9.86016E-03     103.339E-03     44.7347E-03    -14.4311E-03    -30.3044E-03    -22.3052E-03     36.7355E-03    -14.4311E-03     46.2754E-03     52.2472E-03     52.0879E+06     18.6174E+06    -15.1536E+06    -40.2304E+06    -18.0537E+06    -37.3303E+06     18.6174E+06    -5.48857E+06
            1916     103.932E-03     10.8364E-03     103.365E-03     50.4309E-03    -15.3217E-03    -35.1091E-03    -26.1881E-03     41.5099E-03    -15.3217E-03     52.2398E-03     62.3896E-03     52.4940E+06     19.2066E+06    -12.2417E+06    -40.0658E+06    -20.4315E+06    -31.8759E+06     19.2066E+06    -11.8387E+06
            1917     104.070E-03     11.8087E-03     103.398E-03     56.0618E-03    -16.3806E-03    -39.6787E-03    -30.6129E-03     46.9960E-03    -16.3806E-03     55.9660E-03     74.0530E-03     52.7901E+06     17.9154E+06    -579.205E+03    -40.1343E+06    -15.5463E+06    -25.1672E+06     17.9154E+06    -18.1412E+06
            1918     104.220E-03     12.7767E-03     103.434E-03     62.4061E-03    -17.6165E-03    -44.7858E-03    -35.5524E-03     53.1727E-03    -17.6165E-03     60.0968E-03     90.3433E-03     57.4002E+06     17.0406E+06     10.3244E+06    -43.2218E+06    -6.09779E+06    -23.6790E+06     13.9200E+06    -26.2953E+06
            1919     104.387E-03     13.7402E-03     103.478E-03     69.1500E-03    -18.9933E-03    -50.1538E-03    -40.8922E-03     59.8884E-03    -18.9933E-03     63.7657E-03     114.100E-03     55.6739E+06     13.7730E+06    -2.23490E+06    -47.0532E+06    -1.15106E+06    -32.1291E+06    -2.23490E+06    -25.5623E+06
            1920     104.565E-03     14.6984E-03     103.526E-03     76.9483E-03    -20.5158E-03    -56.4303E-03    -45.6648E-03     66.1827E-03    -20.5158E-03     72.5380E-03     151.264E-03     43.4597E+06     16.8572E+06    -10.7110E+06    -31.9916E+06    -1.44419E+06    -13.2308E+06    -11.1704E+06    -19.9038E+06
            1921     104.777E-03     15.6520E-03     103.602E-03     88.6227E-03    -22.0357E-03    -66.5876E-03    -47.3129E-03     69.3481E-03    -22.0357E-03     101.161E-03     221.512E-03     55.5232E+06     42.5170E+06    -7.22729E+06    -16.1790E+06    -1.25447E+06     30.6842E+06    -10.3190E+06    -21.8889E+06
            1922     105.044E-03     16.6091E-03     103.723E-03     84.7791E-03    -23.5995E-03    -61.1828E-03    -44.3562E-03     67.9525E-03    -23.5995E-03     90.6474E-03     251.094E-03     82.5631E+06     77.5916E+06     31.8943E+06    -9.41121E+06          96.375     60.8138E+06     39.2608E+06    -20.0433E+06
            1923     104.296E-03     991.630E-06     104.291E-03     17.2135E-03    -8.49509E-03    -8.71837E-03    -8.50901E-03     17.0352E-03    -8.52615E-03     4.06687E-03     17.3015E-03     25.4052E+06     56.5840E+06     50.8345E+06     29.2293E+06     49.1824E+06     34.9362E+06     52.5293E+06     812.299E+03
            1924     104.310E-03     1.98359E-03     104.291E-03     17.5833E-03    -8.48996E-03    -9.09356E-03    -8.58710E-03     17.0768E-03    -8.48996E-03     7.06567E-03     17.6516E-03     25.0787E+06     50.3419E+06     38.7627E+06     22.3806E+06     37.6602E+06     38.9921E+06     34.8329E+06     8.07415E+06
            1925     104.335E-03     2.97507E-03     104.293E-03     18.5541E-03    -8.54069E-03    -10.0136E-03    -8.97646E-03     17.5170E-03    -8.54069E-03     10.5394E-03     18.6511E-03     36.5968E+06     40.5340E+06     20.2986E+06    -7.06669E+03     21.9499E+06     22.5068E+06     16.3688E+06     17.6580E+06
            1926     104.370E-03     3.96595E-03     104.295E-03     20.2044E-03    -8.75449E-03    -11.4495E-03    -9.64177E-03     18.3966E-03    -8.75449E-03     14.5441E-03     20.3829E-03     49.6599E+06     32.3703E+06     11.3998E+06    -22.6045E+06     9.07497E+06     690.740E+03     11.3998E+06     26.9619E+06
            1927     104.418E-03     4.95620E-03     104.300E-03     22.5282E-03    -9.08651E-03    -13.4416E-03    -10.6212E-03     19.7079E-03    -9.08651E-03     19.2260E-03     22.8980E-03     58.6475E+06     27.1086E+06     15.4660E+06    -36.1546E+06    -191.449E+03    -8.85457E+06     15.4660E+06     31.1544E+06
            1928     104.476E-03     5.94501E-03     104.306E-03     25.3962E-03    -9.49449E-03    -15.9017E-03    -11.9089E-03     21.4034E-03    -9.49449E-03     24.3185E-03     26.1152E-03     59.0947E+06     21.2675E+06     16.5753E+06    -40.0224E+06    -7.02689E+06    -12.7767E+06      17.624E+06     29.8740E+06
            1929     104.548E-03     6.93240E-03     104.318E-03     28.6598E-03    -9.99194E-03    -18.6673E-03    -13.3762E-03     23.3687E-03    -9.99194E-03     29.7442E-03     29.9963E-03     57.4888E+06     19.1377E+06     6.06887E+06    -42.8685E+06    -13.1817E+06    -22.8301E+06     18.3499E+06     23.9806E+06
            1930     104.631E-03     7.91846E-03     104.331E-03     32.6431E-03    -10.5590E-03    -22.0836E-03    -15.3262E-03     25.8857E-03    -10.5590E-03     35.9438E-03     34.9972E-03     47.4946E+06     17.7007E+06    -5.21165E+06    -36.2958E+06    -18.3394E+06    -23.1681E+06     17.7007E+06     14.4247E+06
            1931     104.729E-03     8.90223E-03     104.350E-03     37.6005E-03    -11.2763E-03    -26.3245E-03    -18.2172E-03     29.4932E-03    -11.2763E-03     42.4885E-03     41.6038E-03     46.5027E+06     19.8850E+06    -13.0435E+06    -32.5437E+06    -19.5547E+06    -26.0324E+06     19.8850E+06     5.23765E+06
            1932     104.841E-03     9.88227E-03     104.375E-03     43.6309E-03    -12.1859E-03    -31.4458E-03    -21.8897E-03     34.0749E-03    -12.1859E-03     49.9591E-03     50.5112E-03     51.0346E+06     25.8308E+06    -15.9725E+06    -30.2155E+06    -16.8061E+06    -29.3820E+06     25.8308E+06    -898.659E+03
            1933     104.970E-03     10.8589E-03     104.407E-03     50.3648E-03    -13.2423E-03    -37.1236E-03    -26.2864E-03     39.5277E-03    -13.2423E-03     57.5423E-03     61.4071E-03     48.9731E+06     26.0968E+06    -7.21860E+06    -28.6888E+06    -13.6453E+06    -22.2621E+06     26.0968E+06    -9.15308E+06
            1934     105.113E-03     11.8313E-03     104.445E-03     57.1722E-03    -14.4921E-03    -42.6778E-03    -31.5038E-03     45.9981E-03    -14.4921E-03     62.8367E-03     73.8697E-03     51.6888E+06     22.2714E+06     5.88369E+06    -34.6995E+06    -14.4907E+06    -14.3250E+06     22.2714E+06    -18.7569E+06
            1935     105.270E-03     12.7982E-03     104.489E-03     64.8230E-03    -15.9663E-03    -48.8519E-03    -37.5487E-03     53.5198E-03    -15.9663E-03     67.9493E-03     91.2565E-03     57.0209E+06     14.8365E+06     6.92346E+06    -45.5018E+06    -21.3282E+06    -15.4173E+06     13.0036E+06    -24.3772E+06
            1936     105.441E-03     13.7594E-03     104.540E-03     73.2905E-03    -17.6437E-03    -55.6415E-03    -44.3470E-03     61.9960E-03    -17.6437E-03     72.7777E-03     116.302E-03     58.5642E+06     3.91536E+06    -9.47268E+06    -59.8795E+06    -25.3082E+06    -33.1090E+06    -7.01961E+06    -27.6924E+06
            1937     105.630E-03     14.7126E-03     104.600E-03     82.0747E-03    -19.5113E-03    -62.5480E-03    -50.0110E-03     69.5378E-03    -19.5113E-03     81.2942E-03     154.613E-03     50.9120E+06     11.9434E+06    -11.2864E+06    -45.9153E+06    -18.0744E+06    -15.8975E+06    -11.2864E+06    -26.9167E+06
            1938     105.841E-03     15.6635E-03     104.676E-03     93.5152E-03    -21.4052E-03    -72.0982E-03    -52.7344E-03     74.1514E-03    -21.4052E-03     105.678E-03     223.882E-03     64.7607E+06     49.8344E+06    -866.084E+03    -21.5443E+06    -8.40850E+06     36.6986E+06    -866.084E+03    -25.9841E+06
            1939     106.106E-03     16.6150E-03     104.797E-03     88.3135E-03    -23.3067E-03    -65.0077E-03    -49.5361E-03     72.8419E-03    -23.3067E-03     88.8550E-03     250.446E-03     81.7971E+06     80.6067E+06     21.5589E+06    -10.4227E+06    -3.50090E+06     51.2099E+06     44.0339E+06    -20.3771E+06
            1940     105.310E-03     995.037E-06     105.305E-03     11.3655E-03    -5.52643E-03    -5.83915E-03    -5.68086E-03     11.2072E-03    -5.52643E-03     3.10607E-03     11.4309E-03     24.2301E+06     32.9009E+06     19.3340E+06     5.94903E+06     17.2528E+06     21.5971E+06     19.3340E+06     11.5103E+06
            1941     105.324E-03     1.98905E-03     105.306E-03     12.1453E-03    -5.69374E-03    -6.45145E-03    -5.93807E-03     11.6319E-03    -5.69374E-03     5.89659E-03     12.2157E-03     42.3597E+06     38.2310E+06     14.3236E+06    -9.59758E+06     7.50681E+06     21.1266E+06     14.3236E+06     22.5012E+06
            1942     105.350E-03     2.98323E-03     105.308E-03     13.4818E-03    -5.91655E-03    -7.56512E-03    -6.45425E-03     12.3709E-03    -5.91655E-03     9.29335E-03     13.5916E-03     59.9783E+06     33.8965E+06     12.2998E+06    -33.2403E+06    -3.69711E+06     4.35327E+06     12.2998E+06     33.0776E+06
            1943     105.386E-03     3.97639E-03     105.311E-03     15.5256E-03    -6.20155E-03    -9.32394E-03    -7.33442E-03     13.5361E-03    -6.20155E-03     13.3714E-03     15.7177E-03     69.1788E+06     26.1345E+06     7.94788E+06    -50.0852E+06    -11.5750E+06    -12.3757E+06     7.94788E+06     38.0214E+06
            1944     105.434E-03     4.96870E-03     105.317E-03     18.2153E-03    -6.58171E-03    -11.6334E-03    -8.51537E-03     15.0973E-03    -6.58171E-03     18.1786E-03     18.5791E-03     71.7609E+06     23.6875E+06     8.51614E+06    -54.1301E+06    -13.6874E+06    -16.7552E+06     8.51614E+06     38.8649E+06
            1945     105.495E-03     5.95959E-03     105.326E-03     21.2549E-03    -7.05834E-03    -14.1962E-03    -9.79830E-03     16.8570E-03    -7.05834E-03     23.2944E-03     21.9138E-03     70.8020E+06     22.9598E+06     14.3112E+06    -51.5892E+06    -13.5629E+06    -15.0666E+06     14.3112E+06     37.2213E+06
            1946     105.567E-03     6.94925E-03     105.338E-03     24.8600E-03    -7.61219E-03    -17.2471E-03    -11.3653E-03     18.9782E-03    -7.61219E-03     29.1285E-03     26.0586E-03     63.3514E+06     23.0425E+06     14.0407E+06    -44.1201E+06    -11.6188E+06    -16.3928E+06     20.9748E+06     29.8382E+06
            1947     105.654E-03     7.93725E-03     105.355E-03     29.7479E-03    -8.26548E-03    -21.4818E-03    -13.7897E-03     22.0557E-03    -8.26548E-03     36.5344E-03     31.9117E-03     51.9911E+06     27.3211E+06     8.94841E+06    -30.8553E+06    -7.60003E+06    -14.3068E+06     27.3211E+06     19.2156E+06
            1948     105.755E-03     8.92186E-03     105.378E-03     35.4869E-03    -9.07549E-03    -26.4109E-03    -16.9798E-03     26.0557E-03    -9.07549E-03     44.4205E-03     39.1756E-03      50.871E+06     29.2797E+06    -458.486E+03    -27.7978E+06    -8.16141E+06    -20.0949E+06     29.2797E+06     11.0981E+06
            1949     105.872E-03     9.90383E-03     105.407E-03     42.2426E-03    -10.0422E-03    -32.2000E-03    -20.7843E-03     30.8269E-03    -10.0422E-03     53.5752E-03     48.4877E-03     47.0404E+06     28.2175E+06    -6.95091E+06    -23.5868E+06    -10.4213E+06    -20.1165E+06     28.2175E+06     1.62845E+06
            1950     106.006E-03     10.8819E-03     105.446E-03     50.2026E-03    -11.2040E-03    -38.9981E-03    -25.8459E-03     37.0504E-03    -11.2040E-03     63.1577E-03     60.3923E-03     41.3723E+06     28.5159E+06    -1.80562E+06    -18.0090E+06    -9.09140E+06    -10.7232E+06     28.5159E+06    -7.86858E+06
            1951     106.156E-03     11.8540E-03     105.492E-03     58.1634E-03    -12.6363E-03    -45.5258E-03    -32.0446E-03     44.6822E-03    -12.6363E-03     69.6249E-03     74.0511E-03     44.9630E+06     28.0860E+06     1.43511E+06    -22.5899E+06    -11.3080E+06    -9.84681E+06     28.0860E+06    -9.92929E+06
            1952     106.319E-03     12.8205E-03     105.543E-03     67.2835E-03    -14.3326E-03    -52.9488E-03    -39.1642E-03     53.4989E-03    -14.3326E-03     76.5187E-03     92.9151E-03     46.9325E+06     23.9572E+06     2.91636E+06    -27.9843E+06    -17.8246E+06    -7.24336E+06     23.9572E+06    -12.1675E+06
            1953     106.501E-03     13.7785E-03     105.606E-03     77.0604E-03    -16.2423E-03    -60.8052E-03    -46.8514E-03     63.1067E-03    -16.2423E-03     83.0145E-03     118.926E-03     58.5773E+06     18.1368E+06    -1.63225E+06    -47.3015E+06    -20.4012E+06    -16.6060E+06     6.21032E+06    -27.4098E+06
            1954     106.695E-03     14.7316E-03     105.673E-03     86.3270E-03    -18.3402E-03    -67.9541E-03    -53.4245E-03     71.7975E-03    -18.3402E-03     90.1023E-03     157.601E-03     65.2177E+06     18.3205E+06    -10.9376E+06    -55.9005E+06    -17.3459E+06    -20.2341E+06    -10.9376E+06    -36.3487E+06
            1955     106.912E-03     15.6788E-03     105.756E-03     98.9613E-03    -20.5654E-03    -78.3755E-03    -58.5128E-03     79.0987E-03    -20.5654E-03     111.476E-03     226.937E-03     81.9368E+06     58.4498E+06    -581.572E+03    -34.2865E+06    -14.3572E+06     38.5205E+06    -581.572E+03    -29.7253E+06
            1956     107.176E-03     16.6211E-03     105.880E-03     93.5674E-03    -22.8933E-03    -70.6739E-03    -56.7585E-03     79.6521E-03    -22.8933E-03     85.0014E-03     248.169E-03     99.4579E+06     84.7224E+06     17.2459E+06    -28.2164E+06    -11.7932E+06     42.5225E+06     43.0226E+06    -23.3200E+06
            1957     106.319E-03     996.501E-06     106.314E-03     7.17007E-03    -3.48393E-03    -3.68611E-03    -3.54995E-03     7.03631E-03    -3.48632E-03     2.21186E-03     7.24781E-03     40.7728E+06     10.5250E+06    -10.0129E+06    -35.4235E+06    -15.4801E+06    -9.41842E+06    -10.0129E+06     21.1055E+06
            1958     106.334E-03     1.99343E-03     106.315E-03     8.01325E-03    -3.65442E-03    -4.35872E-03    -3.88630E-03     7.54084E-03    -3.65442E-03     4.59597E-03     8.14647E-03     63.3374E+06     24.3473E+06    -5.71293E+06    -47.4381E+06    -18.9216E+06    -4.16920E+06    -5.71293E+06     34.8103E+06
            1959     106.360E-03     2.98907E-03     106.318E-03     9.50299E-03    -3.91179E-03    -5.59121E-03    -4.47365E-03     8.38543E-03    -3.91179E-03     7.80256E-03     9.71064E-03     78.8662E+06     25.5695E+06     94.6748E+03    -62.8030E+06    -20.4495E+06    -16.7839E+06     94.6748E+03     43.9798E+06
            1960     106.397E-03     3.98453E-03     106.322E-03     11.8718E-03    -4.23112E-03    -7.64075E-03    -5.47553E-03     9.70659E-03    -4.23112E-03     12.1590E-03     12.1998E-03     81.7409E+06     25.0683E+06     4.30807E+06    -64.8796E+06    -18.2536E+06    -21.5578E+06     4.30807E+06     44.8133E+06
            1961     106.446E-03     4.97819E-03     106.330E-03     14.7815E-03    -4.64489E-03    -10.1362E-03    -6.73985E-03     11.3851E-03    -4.64489E-03     17.0347E-03     15.2774E-03     76.6382E+06     22.5839E+06     8.30635E+06    -59.9320E+06    -13.9903E+06    -23.3577E+06     8.30635E+06     40.6664E+06
            1962     106.508E-03     5.97104E-03     106.341E-03     17.7254E-03    -5.12210E-03    -12.6030E-03    -7.90279E-03     13.0252E-03    -5.12210E-03     21.8975E-03     18.4415E-03     72.7971E+06     25.7247E+06     14.4899E+06    -51.8275E+06    -7.67157E+06    -18.4312E+06     14.4899E+06     37.8750E+06
            1963     106.583E-03     6.96288E-03     106.355E-03     21.6813E-03    -5.67279E-03    -16.0083E-03    -9.55603E-03     15.2290E-03    -5.67279E-03     28.3380E-03     22.8795E-03     63.5883E+06     28.8298E+06     20.1028E+06    -38.4755E+06    -3.41213E+06    -9.75262E+06     23.6219E+06     31.4860E+06
            1964     106.672E-03     7.95229E-03     106.375E-03     27.0023E-03    -6.33142E-03    -20.6708E-03    -12.0094E-03     18.3409E-03    -6.33142E-03     36.7012E-03     29.0843E-03     52.7532E+06     27.7632E+06     16.9958E+06     -29.217E+06    -4.00391E+06    -8.21730E+06     27.7632E+06     22.5831E+06
            1965     106.778E-03     8.93956E-03     106.403E-03     33.0533E-03    -7.13718E-03    -25.9162E-03    -15.0679E-03     22.2049E-03    -7.13718E-03     45.6175E-03     36.4931E-03     48.7704E+06     29.5249E+06     9.07980E+06    -25.4926E+06    -2.52339E+06    -13.8894E+06     29.5249E+06     14.9427E+06
            1966     106.898E-03     9.92307E-03     106.436E-03     40.7820E-03    -8.12163E-03    -32.6598E-03    -19.2789E-03     27.4011E-03    -8.12163E-03     56.6189E-03     46.6265E-03     41.5675E+06     34.1345E+06     6.53819E+06    -12.8130E+06     529.181E+03    -6.80396E+06     34.1345E+06     4.86495E+06
            1967     107.038E-03     10.9023E-03     106.482E-03     49.9704E-03    -9.36407E-03    -40.6056E-03    -25.0391E-03     34.4039E-03    -9.36407E-03     68.2393E-03     59.7599E-03     41.8753E+06     37.8474E+06     4.14081E+06    -8.89379E+06    -950.270E+03    -3.80271E+06     37.8474E+06    -3.30919E+06
            1968     107.197E-03     11.8755E-03     106.537E-03     59.0425E-03    -10.9056E-03    -48.1362E-03    -31.9877E-03     42.8939E-03    -10.9056E-03     76.5065E-03     74.5915E-03     47.0896E+06     39.3267E+06     3.42627E+06    -13.5831E+06     156.678E+03    -10.3135E+06     39.3267E+06    -5.35902E+06
            1969     107.368E-03     12.8410E-03     106.598E-03     69.3797E-03    -12.7169E-03    -56.6625E-03    -39.7201E-03     52.4374E-03    -12.7169E-03     85.8621E-03     94.4756E-03     41.0522E+06     40.6844E+06     14.8916E+06    -5.94669E+06     7.74135E+06     1.20353E+06     40.6844E+06    -8.61159E+06
            1970     107.561E-03     13.8005E-03     106.672E-03     80.5227E-03    -14.7872E-03    -65.7271E-03    -48.3867E-03     63.1823E-03    -14.7872E-03     94.3198E-03     121.317E-03     48.1986E+06     41.3972E+06     22.2256E+06    -13.1501E+06     9.27600E+06     9.77158E+06     31.4251E+06    -22.2384E+06
            1971     107.764E-03     14.7497E-03     106.749E-03     91.4121E-03    -17.0979E-03    -74.2955E-03    -57.3368E-03     74.4535E-03    -17.0979E-03     100.344E-03     161.491E-03     67.5128E+06     30.1685E+06     264.351E+03    -46.7397E+06     3.17719E+06    -19.7484E+06     264.351E+03    -32.6632E+06
            1972     107.987E-03     15.6927E-03     106.840E-03     104.940E-03    -19.6271E-03    -85.3027E-03    -64.0318E-03     83.6686E-03    -19.6271E-03     119.610E-03     230.176E-03     97.2225E+06     72.4879E+06     3.53049E+06    -37.1455E+06    -678.354E+03     36.0207E+06     3.53049E+06    -29.1557E+06
            1973     108.259E-03     16.6310E-03     106.974E-03     100.589E-03    -22.3436E-03    -78.2466E-03    -64.5424E-03     86.8850E-03    -22.3436E-03     84.4576E-03     243.872E-03     109.845E+06     90.8847E+06     19.3949E+06    -32.6735E+06     666.069E+03     35.0807E+06     41.8594E+06    -23.7327E+06
            1974     107.324E-03     998.151E-06     107.319E-03     4.58303E-03    -2.21454E-03    -2.36848E-03    -2.24038E-03     4.45733E-03    -2.21694E-03     1.65759E-03     4.72794E-03     46.9133E+06    -20.4362E+06    -41.4931E+06    -73.8857E+06    -44.6439E+06    -49.6780E+06    -41.4931E+06     24.1417E+06
            1975     107.339E-03     1.99530E-03     107.321E-03     5.35071E-03    -2.35071E-03    -2.99997E-03    -2.50373E-03     4.85446E-03    -2.35071E-03     3.80343E-03     5.64259E-03     68.1862E+06     2.93320E+06    -27.4197E+06     -75.031E+06    -37.6504E+06    -34.4474E+06    -27.4197E+06     37.9574E+06
            1976     107.366E-03     2.99300E-03     107.324E-03     6.89211E-03    -2.56769E-03    -4.32426E-03    -3.12947E-03     5.69732E-03    -2.56769E-03     6.82962E-03     7.27265E-03     79.2655E+06     12.3663E+06    -16.1808E+06    -77.1680E+06    -27.6983E+06    -37.1035E+06    -16.1808E+06     44.1832E+06
            1977     107.404E-03     3.98940E-03     107.330E-03     9.33176E-03    -2.87726E-03    -6.45427E-03    -4.09475E-03     6.97224E-03    -2.87726E-03     11.1843E-03     9.84185E-03     80.8670E+06     20.1959E+06    -4.72494E+06    -70.1644E+06    -20.3133E+06    -29.6552E+06    -4.72494E+06     44.8853E+06
            1978     107.455E-03     4.98521E-03     107.340E-03     12.0063E-03    -3.27149E-03    -8.73441E-03    -5.17132E-03     8.44320E-03    -3.27149E-03     15.6142E-03     12.6359E-03     75.8100E+06     19.7131E+06     3.00584E+06    -62.8176E+06    -16.5522E+06    -26.5522E+06     3.00584E+06     40.6670E+06
            1979     107.518E-03     5.97943E-03     107.352E-03     14.9109E-03    -3.70463E-03    -11.2061E-03    -6.31234E-03     10.0172E-03    -3.70463E-03     20.3409E-03     15.7126E-03     67.2002E+06     19.1826E+06     7.61137E+06    -52.9246E+06    -12.3028E+06    -21.4392E+06     7.61137E+06     34.9978E+06
            1980     107.594E-03     6.97273E-03     107.368E-03     19.1193E-03    -4.20826E-03    -14.9111E-03    -7.90981E-03     12.1179E-03    -4.20826E-03     27.4628E-03     20.3750E-03     60.2179E+06     25.8748E+06     15.8617E+06    -38.5615E+06    -6.25853E+06    -6.89744E+06     16.3309E+06     31.2884E+06
            1981     107.687E-03     7.96412E-03     107.392E-03     24.4414E-03    -4.82494E-03    -19.6168E-03    -10.0672E-03     14.8917E-03    -4.82494E-03     36.2526E-03     26.4690E-03     52.7745E+06     27.0918E+06     20.2754E+06    -28.5689E+06    -1.79591E+06    -3.22108E+06     23.8153E+06     25.3562E+06
            1982     107.795E-03     8.95307E-03     107.422E-03     30.8170E-03    -5.58994E-03    -25.2268E-03    -13.0111E-03     18.6013E-03    -5.58994E-03     46.2232E-03     34.1000E-03     43.7885E+06     32.4077E+06     14.1340E+06    -15.2028E+06     2.57104E+06    -3.63985E+06     32.4077E+06     13.6533E+06
            1983     107.921E-03     9.93958E-03     107.462E-03     39.4761E-03    -6.55694E-03    -32.9186E-03    -17.5135E-03     24.0711E-03    -6.55694E-03     59.1969E-03     45.1139E-03     40.8078E+06     42.7739E+06     11.6918E+06    -3.23999E+06     7.67129E+06     780.496E+03     42.7739E+06     5.33509E+06
            1984     108.068E-03     10.9201E-03     107.515E-03     49.5807E-03    -7.78574E-03    -41.7950E-03    -23.5610E-03     31.3467E-03    -7.78574E-03     72.9253E-03     59.0737E-03     44.8761E+06     48.4746E+06     13.0123E+06    -1.80655E+06     10.6540E+06     551.721E+03     48.4746E+06     2.48449E+06
            1985     108.234E-03     11.8946E-03     107.579E-03     59.5931E-03    -9.30524E-03    -50.2878E-03    -30.7384E-03     40.0437E-03    -9.30524E-03     83.8604E-03     74.5332E-03     48.9727E+06     48.6146E+06     17.6813E+06    -6.45542E+06     13.7924E+06    -2.56657E+06     48.6146E+06    -6.79832E+06
            1986     108.416E-03     12.8625E-03     107.650E-03     71.0137E-03    -11.1214E-03    -59.8921E-03    -39.0684E-03     50.1900E-03    -11.1214E-03     95.6073E-03     94.9913E-03     43.3574E+06     46.5849E+06     28.0205E+06    -2.66710E+06     18.9116E+06     6.44175E+06     46.5849E+06    -13.6542E+06
            1987     108.618E-03     13.8217E-03     107.735E-03     83.7862E-03    -13.2799E-03    -70.5073E-03    -48.9054E-03     62.1844E-03    -13.2799E-03     106.828E-03     122.879E-03     36.9598E+06     47.2377E+06     36.5876E+06     6.31597E+06     20.4315E+06     25.0359E+06     44.6738E+06    -15.5126E+06
            1988     108.836E-03     14.7719E-03     107.829E-03     97.1107E-03    -15.7721E-03    -81.3388E-03    -60.2237E-03     75.9956E-03    -15.7721E-03     114.995E-03     164.122E-03     57.7739E+06     34.8010E+06     15.2191E+06    -29.7132E+06     15.1309E+06    -10.9149E+06     16.0910E+06    -23.3255E+06
            1989     109.068E-03     15.7085E-03     107.931E-03     112.047E-03    -18.5685E-03    -93.4774E-03    -69.6747E-03     88.2440E-03    -18.5685E-03     131.386E-03     232.331E-03     94.5322E+06     76.3799E+06     12.8894E+06    -28.9751E+06     12.2690E+06     35.1358E+06     12.8894E+06    -26.3534E+06
            1990     109.342E-03     16.6445E-03     108.067E-03     109.680E-03    -21.7096E-03    -87.9704E-03    -73.8290E-03     95.5385E-03    -21.7096E-03     88.0069E-03     240.456E-03     114.625E+06     89.1360E+06     20.9323E+06    -38.6377E+06     8.31236E+06     21.3266E+06     41.7916E+06    -18.0993E+06
            1991     108.327E-03     998.163E-06     108.323E-03     3.02300E-03    -1.44559E-03    -1.57738E-03    -1.48523E-03     2.93522E-03    -1.44997E-03     1.12723E-03     3.13706E-03     67.8240E+06    -67.1391E+06    -123.439E+06    -139.282E+06    -123.003E+06    -82.4695E+06    -124.387E+06     13.3778E+06
            1992     108.343E-03     1.99720E-03     108.324E-03     3.68800E-03    -1.57465E-03    -2.11332E-03    -1.71188E-03     3.28656E-03    -1.57465E-03     2.83200E-03     3.93122E-03     78.9283E+06    -37.4952E+06    -97.5567E+06    -121.691E+06    -98.6968E+06    -59.0587E+06    -98.9872E+06     21.3843E+06
            1993     108.370E-03     2.99494E-03     108.328E-03     5.20813E-03    -1.81611E-03    -3.39198E-03    -2.29700E-03     4.11315E-03    -1.81611E-03     5.68560E-03     5.57021E-03     65.9312E+06    -25.1180E+06    -65.8475E+06    -97.1067E+06    -69.3060E+06    -52.4365E+06    -66.3297E+06     26.8135E+06
            1994     108.409E-03     3.99242E-03     108.335E-03     7.52044E-03    -2.11527E-03    -5.40502E-03    -3.13116E-03     5.24658E-03    -2.11527E-03     9.80986E-03     8.06498E-03     59.6908E+06    -7.68481E+06    -38.3379E+06    -73.8892E+06    -41.2475E+06    -40.3265E+06    -38.3379E+06     30.5005E+06
            1995     108.462E-03     4.98848E-03     108.347E-03     9.78638E-03    -2.45157E-03    -7.33443E-03    -3.89461E-03     6.34656E-03    -2.45157E-03     13.7100E-03     10.4426E-03     60.5126E+06     8.34170E+06    -17.0142E+06    -58.9837E+06    -19.7242E+06    -30.9177E+06    -17.0142E+06     32.7369E+06
            1996     108.525E-03     5.98460E-03     108.360E-03     12.7630E-03    -2.82859E-03    -9.93413E-03    -4.94872E-03     7.77760E-03    -2.82859E-03     18.7657E-03     13.5955E-03     63.2753E+06     18.2967E+06    -1.08655E+06    -51.9614E+06    -9.15059E+06    -24.5141E+06    -1.08655E+06     32.5898E+06
            1997     108.604E-03     6.97883E-03     108.379E-03     17.1111E-03    -3.26309E-03    -13.8481E-03    -6.49173E-03     9.75476E-03    -3.26309E-03     26.3296E-03     18.3779E-03     59.6739E+06     25.2912E+06     9.87058E+06    -40.4914E+06    -6.88128E+06    -8.31891E+06     9.87058E+06     30.6659E+06
            1998     108.697E-03     7.97200E-03     108.405E-03     22.2404E-03    -3.79840E-03    -18.4420E-03    -8.34304E-03     12.1414E-03    -3.79840E-03     35.1256E-03     24.1774E-03     48.3155E+06     26.7603E+06     18.3535E+06    -25.0153E+06    -3.49285E+06     3.94336E+06     19.6480E+06     23.5197E+06
            1999     108.809E-03     8.96350E-03     108.439E-03     28.9822E-03    -4.49590E-03    -24.4857E-03    -11.1731E-03     15.6696E-03    -4.49590E-03     46.2046E-03     32.1044E-03     41.4202E+06     34.0582E+06     21.4848E+06    -10.2270E+06     2.18991E+06     9.06781E+06     34.0582E+06     11.5815E+06
            2000     108.939E-03     9.95069E-03     108.484E-03     38.1873E-03    -5.39244E-03    -32.7945E-03    -15.5080E-03     20.9008E-03    -5.39244E-03     60.8750E-03     43.5113E-03     45.1380E+06     44.5239E+06     15.7061E+06    -6.42406E+06     6.47964E+06     2.80236E+06     44.5239E+06     3.95197E+06
            2001     109.094E-03     10.9343E-03     108.544E-03     48.7157E-03    -6.50215E-03    -42.2138E-03    -21.1344E-03     27.6364E-03    -6.50215E-03     76.6312E-03     57.4714E-03     43.7151E+06     49.2708E+06     17.4598E+06    -537.016E+03     13.0973E+06     3.82545E+06     49.2708E+06     1.17929E+06
            2002     109.268E-03     11.9120E-03     108.617E-03     59.5056E-03    -7.90446E-03    -51.6006E-03    -28.3018E-03     36.2068E-03    -7.90446E-03     90.2695E-03     73.2744E-03     44.1280E+06     53.9704E+06     28.7297E+06     3.89172E+06     18.9956E+06     13.6258E+06     53.9704E+06    -7.71019E+06
            2003     109.460E-03     12.8820E-03     108.699E-03     72.1841E-03    -9.66419E-03    -62.5193E-03    -37.4188E-03     47.0836E-03    -9.66419E-03     104.727E-03     94.3952E-03     47.1622E+06     50.3673E+06     27.5426E+06    -3.35821E+06     18.4006E+06     5.78376E+06     50.3673E+06    -12.8772E+06
            2004     109.674E-03     13.8433E-03     108.797E-03     86.6679E-03    -11.8143E-03    -74.8550E-03    -48.3992E-03     60.2120E-03    -11.8143E-03     119.309E-03     123.187E-03     46.5121E+06     54.8561E+06     37.6889E+06     3.01346E+06     15.1313E+06     30.0102E+06     50.4170E+06    -11.2030E+06
            2005     109.907E-03     14.7935E-03     108.907E-03     101.671E-03    -14.3916E-03    -87.2807E-03    -61.2919E-03     75.6827E-03    -14.3916E-03     129.844E-03     164.414E-03     62.7714E+06     44.5415E+06     30.2854E+06    -24.0469E+06     14.6984E+06     4.92441E+06     31.1573E+06    -19.7414E+06
            2006     110.156E-03     15.7333E-03     109.027E-03     120.225E-03    -17.4450E-03    -102.779E-03    -75.7761E-03     93.2223E-03    -17.4450E-03     145.454E-03     234.241E-03     86.6745E+06     68.7671E+06     25.4130E+06    -27.4601E+06     10.3590E+06     30.9480E+06     25.4130E+06    -21.1515E+06
            2007     110.438E-03     16.6547E-03     109.175E-03     121.200E-03    -21.1013E-03    -100.098E-03    -85.0723E-03     106.174E-03    -21.1013E-03     94.7498E-03     239.883E-03     118.707E+06     86.5698E+06     22.4483E+06    -47.8985E+06     3.69175E+06     5.26695E+06     52.1609E+06    -8.22105E+06
            2008     109.330E-03     998.415E-06     109.325E-03     3.30301E-03    -1.60139E-03    -1.70165E-03    -1.67073E-03     3.27647E-03    -1.60576E-03     553.260E-06     3.37406E-03     86.4499E+06    -91.7602E+06    -175.951E+06    -180.177E+06    -176.808E+06    -92.2792E+06    -178.801E+06    -1.17414E+06
            2009     109.346E-03     1.99568E-03     109.327E-03     3.71761E-03    -1.70258E-03    -2.01500E-03    -1.85461E-03     3.55721E-03    -1.70258E-03     1.56048E-03     3.86434E-03     97.7017E+06    -64.7000E+06    -161.146E+06    -163.595E+06    -160.654E+06    -66.1713E+06    -162.616E+06    -3.91395E+06
            2010     109.373E-03     2.99396E-03     109.332E-03     4.71947E-03    -1.88580E-03    -2.83367E-03    -2.21019E-03     4.09599E-03    -1.88580E-03     3.89731E-03     4.98870E-03     82.7111E+06    -55.2323E+06    -135.964E+06    -139.590E+06    -135.744E+06    -58.4430E+06    -136.600E+06    -3.41099E+06
            2011     109.413E-03     3.99133E-03     109.340E-03     6.08702E-03    -2.02797E-03    -4.05901E-03    -2.56232E-03     4.59034E-03    -2.02797E-03     7.03730E-03     6.48140E-03     80.0407E+06    -37.3740E+06    -109.793E+06    -122.593E+06    -103.493E+06    -48.0418E+06    -118.225E+06    -2.02677E+06
            2012     109.466E-03     4.98907E-03     109.353E-03     7.63324E-03    -2.18648E-03    -5.44639E-03    -2.90130E-03     5.08815E-03    -2.18648E-03     10.3078E-03     8.08038E-03     77.9026E+06    -18.7390E+06    -77.7458E+06    -106.251E+06    -68.5296E+06    -38.5603E+06    -95.6464E+06     3.62505E+06
            2013     109.530E-03     5.98597E-03     109.366E-03     10.5227E-03    -2.49896E-03    -8.02303E-03    -3.79241E-03     6.29206E-03    -2.49896E-03     15.5423E-03     11.1427E-03     63.1766E+06    -2.55663E+06    -38.4846E+06    -74.4287E+06    -33.0484E+06    -30.7792E+06    -51.6424E+06     10.5256E+06
            2014     109.611E-03     6.98204E-03     109.388E-03     14.7642E-03    -2.89930E-03    -11.8646E-03    -5.19804E-03     8.09768E-03    -2.89930E-03     23.0653E-03     15.7864E-03     51.6254E+06     16.8425E+06    -6.86376E+06    -41.3564E+06    -3.71433E+06    -17.2638E+06    -10.3995E+06     19.4717E+06
            2015     109.706E-03     7.97588E-03     109.415E-03     19.9701E-03    -3.35797E-03    -16.6120E-03    -6.97036E-03     10.3284E-03    -3.35797E-03     32.2302E-03     21.6135E-03     44.1092E+06     34.7165E+06     17.1955E+06    -14.2870E+06     8.70785E+06     10.9166E+06     18.0005E+06     21.3804E+06
            2016     109.819E-03     8.96801E-03     109.452E-03     27.0749E-03    -3.96573E-03    -23.1092E-03    -9.66539E-03     13.6311E-03    -3.96573E-03     44.4464E-03     29.8121E-03     42.6588E+06     39.3898E+06     27.7159E+06    -7.68139E+06     7.13696E+06     16.6928E+06     35.5945E+06     15.3293E+06
            2017     109.955E-03     9.95810E-03     109.503E-03     36.3127E-03    -4.74062E-03    -31.5723E-03    -13.4173E-03     18.1578E-03    -4.74062E-03     60.0802E-03     40.9395E-03     49.0370E+06     44.1109E+06     23.4731E+06    -11.0943E+06     2.92557E+06     9.45326E+06     44.1109E+06     7.46323E+06
            2018     110.113E-03     10.9436E-03     109.568E-03     46.9356E-03    -5.69545E-03    -41.2401E-03    -18.2565E-03     23.9520E-03    -5.69545E-03     77.3719E-03     54.4863E-03     47.5502E+06     49.2990E+06     19.9608E+06    -5.07125E+06     3.84699E+06     11.0425E+06     49.2990E+06    -3.58960E+06
            2019     110.296E-03     11.9249E-03     109.649E-03     58.3965E-03    -6.92062E-03    -51.4761E-03    -25.0616E-03     31.9820E-03    -6.92062E-03     93.7666E-03     70.2804E-03     48.3975E+06     57.8760E+06     30.9762E+06     2.60573E+06     9.82309E+06     23.7588E+06     57.8760E+06    -9.58582E+06
            2020     110.499E-03     12.8985E-03     109.743E-03     72.3212E-03    -8.53368E-03    -63.7877E-03    -34.7832E-03     43.3167E-03    -8.53368E-03     111.301E-03     91.9691E-03     60.5232E+06     56.6663E+06     29.5866E+06    -12.0378E+06     14.5474E+06     3.00134E+06     56.6663E+06    -9.37575E+06
            2021     110.726E-03     13.8624E-03     109.855E-03     88.6208E-03    -10.5987E-03    -78.0233E-03    -47.0760E-03     57.6734E-03    -10.5987E-03     129.401E-03     121.591E-03     71.3363E+06     70.7837E+06     45.7038E+06    -8.96130E+06     14.9353E+06     30.9332E+06     61.6577E+06    -5.29829E+06
            2022     110.977E-03     14.8145E-03     109.983E-03     105.809E-03    -13.1926E-03    -92.6179E-03    -62.2749E-03     75.4662E-03    -13.1926E-03     142.420E-03     163.254E-03     72.8999E+06     60.8038E+06     43.0081E+06    -19.2926E+06     9.23024E+06     27.4327E+06     47.8564E+06    -14.3013E+06
            2023     111.243E-03     15.7502E-03     110.122E-03     128.787E-03    -16.4499E-03    -112.336E-03    -81.3440E-03     97.7943E-03    -16.4499E-03     161.296E-03     237.169E-03     67.8300E+06     51.4488E+06     28.0119E+06    -24.3585E+06     4.81638E+06     17.4256E+06     32.8602E+06    -18.0553E+06
            2024     111.555E-03     16.6689E-03     110.303E-03     132.837E-03    -20.5432E-03    -112.293E-03    -95.3295E-03     115.874E-03    -20.5432E-03     103.406E-03     240.768E-03     107.649E+06     75.7345E+06     25.7009E+06    -47.6493E+06     5.31722E+06    -12.4985E+06     60.9673E+06     513.998E+03
            2025     110.334E-03     996.604E-06     110.330E-03     5.66686E-03    -2.72902E-03    -2.93794E-03    -2.84911E-03     5.66230E-03    -2.81329E-03     386.472E-06     5.77979E-03     67.7559E+06    -80.7859E+06    -145.928E+06    -150.422E+06    -146.975E+06    -82.2728E+06    -147.888E+06    -8.47692E+06
            2026     110.350E-03     1.99384E-03     110.332E-03     6.16962E-03    -2.90637E-03    -3.26332E-03    -3.22607E-03     6.13237E-03    -2.90637E-03     862.597E-06     6.38380E-03     90.6470E+06    -55.4740E+06    -143.665E+06    -148.129E+06    -145.496E+06    -58.0087E+06    -143.763E+06    -14.3835E+06
            2027     110.377E-03     2.98980E-03     110.337E-03     6.63431E-03    -3.06335E-03    -3.57099E-03    -3.37290E-03     6.43621E-03    -3.06335E-03     2.24942E-03     7.00359E-03     97.1339E+06    -45.6504E+06    -138.377E+06    -146.339E+06    -140.756E+06    -51.0797E+06    -138.531E+06    -21.7709E+06
            2028     110.417E-03     3.98628E-03     110.345E-03     6.68722E-03    -2.99692E-03    -3.69029E-03    -3.07314E-03     6.16898E-03    -3.09582E-03     3.84305E-03     7.16699E-03     105.123E+06    -36.7467E+06    -130.178E+06    -149.585E+06    -133.248E+06    -44.6507E+06    -138.610E+06    -26.6438E+06
            2029     110.469E-03     4.98328E-03     110.356E-03     7.19386E-03    -2.98748E-03    -4.20626E-03    -2.95040E-03     6.03690E-03    -3.08639E-03     6.27290E-03     7.72859E-03     105.856E+06    -28.2665E+06    -112.350E+06    -147.033E+06    -118.314E+06    -39.0844E+06    -130.251E+06    -29.3315E+06
            2030     110.534E-03     5.98057E-03     110.372E-03     9.06346E-03    -3.17685E-03    -5.88620E-03    -3.42415E-03     6.60142E-03    -3.17685E-03     10.7568E-03     9.69074E-03     82.8891E+06    -24.5781E+06    -91.0514E+06    -116.867E+06    -92.0264E+06    -36.2612E+06    -104.209E+06    -26.4897E+06
            2031     110.615E-03     6.97682E-03     110.394E-03     12.2199E-03    -3.33650E-03    -8.88285E-03    -4.29454E-03     7.63157E-03    -3.33650E-03     17.2533E-03     12.9822E-03     72.1266E+06    -6.41790E+06    -69.6450E+06    -83.9669E+06    -54.8597E+06    -29.6990E+06    -75.4710E+06    -17.5578E+06
            2032     110.712E-03     7.97321E-03     110.425E-03     16.9688E-03    -3.63365E-03    -13.3350E-03    -5.73948E-03     9.37331E-03    -3.63365E-03     26.2216E-03     18.0552E-03     62.2251E+06     25.3313E+06    -23.2899E+06    -42.7422E+06    -12.5028E+06     3.00692E+06    -31.2048E+06    -2.36480E+06
            2033     110.828E-03     8.96693E-03     110.464E-03     24.1940E-03    -4.19357E-03    -20.0003E-03    -8.21301E-03     12.4067E-03    -4.19357E-03     39.0782E-03     26.1255E-03     44.2053E+06     42.8490E+06     24.8688E+06    -6.87778E+06     19.7655E+06     15.5829E+06     25.4917E+06     8.75915E+06
            2034     110.966E-03     9.95707E-03     110.519E-03     33.4253E-03    -4.86864E-03    -28.5562E-03    -11.4644E-03     16.3334E-03    -4.86864E-03     55.3952E-03     36.8740E-03     55.2445E+06     59.6382E+06     48.2397E+06     98.9459E+03     34.7827E+06     13.7275E+06     59.4667E+06     10.9612E+06
            2035     111.129E-03     10.9455E-03     110.589E-03     44.1250E-03    -5.63094E-03    -38.4935E-03    -15.6679E-03     21.2993E-03    -5.63094E-03     73.8806E-03     50.0223E-03     58.7446E+06     69.4587E+06     48.6092E+06     4.83643E+06     30.9957E+06     22.6214E+06     69.2872E+06     6.80884E+06
            2036     111.318E-03     11.9293E-03     110.677E-03     56.1156E-03    -6.63629E-03    -49.4796E-03    -21.9359E-03     28.5719E-03    -6.63629E-03     92.6763E-03     65.7055E-03     56.2419E+06     71.3213E+06     37.4805E+06     7.97180E+06     16.7601E+06     28.6922E+06     71.3213E+06    -615.516E+03
            2037     111.531E-03     12.9073E-03     110.782E-03     71.0323E-03    -8.03655E-03    -62.9961E-03    -31.7281E-03     39.7643E-03    -8.03655E-03     113.243E-03     87.3525E-03     70.3396E+06     67.6580E+06     29.9942E+06    -11.3281E+06     10.8837E+06     7.78236E+06     67.6580E+06    -8.21989E+06
            2038     111.773E-03     13.8741E-03     110.909E-03     88.9798E-03    -9.93752E-03    -79.0438E-03    -45.1781E-03     55.1141E-03    -9.93752E-03     134.601E-03     117.289E-03     72.2015E+06     73.2155E+06     38.4536E+06    -7.75099E+06     15.3540E+06     20.0356E+06     68.5285E+06    -3.51624E+06
            2039     112.042E-03     14.8280E-03     111.056E-03     108.763E-03    -12.4779E-03    -96.2864E-03    -61.9661E-03     74.4426E-03    -12.4779E-03     152.717E-03     158.320E-03     67.4348E+06     71.5588E+06     50.8145E+06    -1.21633E+06     9.84180E+06     44.4433E+06     66.8718E+06     2.90917E+06
            2040     112.334E-03     15.7627E-03     111.222E-03     136.990E-03    -15.7208E-03    -121.270E-03    -84.0347E-03     99.7553E-03    -15.7208E-03     181.191E-03     234.797E-03     58.0827E+06     40.1016E+06     30.1808E+06    -21.9850E+06    -9.76854E+06     22.3811E+06     35.6848E+06    -7.90037E+06
            2041     112.671E-03     16.6757E-03     111.431E-03     144.286E-03    -20.0247E-03    -124.263E-03    -103.126E-03     123.149E-03    -20.0247E-03     121.471E-03     243.622E-03     99.1227E+06     54.0085E+06     2.23596E+06    -57.2890E+06    -15.3760E+06    -35.2603E+06     49.5917E+06    -3.07365E+06
            2042     111.341E-03     995.839E-06     111.336E-03     9.54407E-03    -4.62505E-03    -4.91911E-03    -4.82341E-03     9.53926E-03    -4.71594E-03     108.110E-06     9.66885E-03     42.8035E+06    -62.8823E+06    -98.6867E+06    -108.321E+06    -102.925E+06    -68.2192E+06    -98.7458E+06    -6.51364E+06
            2043     111.358E-03     1.99013E-03     111.340E-03     10.2099E-03    -4.88367E-03    -5.32631E-03    -5.31900E-03     10.2026E-03    -4.88367E-03    -2.61977E-06     10.4281E-03     64.8336E+06    -37.3151E+06    -96.7114E+06    -106.015E+06    -101.526E+06    -41.7454E+06    -96.7705E+06    -15.6876E+06
            2044     111.385E-03     2.98433E-03     111.345E-03     10.3913E-03    -5.03376E-03    -5.35758E-03    -5.28387E-03     10.3644E-03    -5.08056E-03     402.358E-06     10.7752E-03     73.0956E+06    -27.2580E+06    -89.8842E+06    -106.796E+06    -98.1387E+06    -35.9157E+06    -89.8842E+06    -24.2235E+06
            2045     111.424E-03     3.97894E-03     111.353E-03     10.1303E-03    -4.94505E-03    -5.18510E-03    -4.91161E-03     10.0593E-03    -5.14755E-03     1.13265E-03     10.7165E-03     80.0722E+06    -18.7146E+06    -82.0369E+06    -108.086E+06    -94.9363E+06    -31.8639E+06    -82.0369E+06    -31.1779E+06
            2046     111.475E-03     4.97419E-03     111.364E-03     10.1639E-03    -4.93590E-03    -5.22774E-03    -4.75360E-03     9.88728E-03    -5.13344E-03     2.97930E-03     10.9830E-03     89.5107E+06    -10.4239E+06    -77.3498E+06    -111.792E+06    -94.3316E+06    -27.8843E+06    -77.3498E+06    -37.9110E+06
            2047     111.540E-03     5.96910E-03     111.380E-03     10.8350E-03    -5.06240E-03    -5.77238E-03    -4.86915E-03     9.97357E-03    -5.10424E-03     6.23417E-03     11.9054E-03     95.5935E+06    -9.64280E+06    -79.8850E+06    -117.034E+06    -93.9115E+06    -32.7655E+06    -79.8850E+06    -43.4514E+06
            2048     111.620E-03     6.96461E-03     111.402E-03     12.4149E-03    -5.08835E-03    -7.32631E-03    -5.23457E-03     10.3232E-03    -5.08835E-03     11.1118E-03     13.6311E-03     102.439E+06    -3.56709E+06    -81.5529E+06    -116.336E+06    -87.8580E+06    -29.7544E+06    -83.8432E+06    -46.4789E+06
            2049     111.717E-03     7.95895E-03     111.433E-03     15.4413E-03    -5.21284E-03    -10.2285E-03    -5.97615E-03     11.1890E-03    -5.21284E-03     18.3269E-03     16.7382E-03     96.2805E+06     8.15425E+06    -57.9080E+06    -99.5017E+06    -70.4402E+06    -12.9923E+06    -65.8229E+06    -39.7189E+06
            2050     111.835E-03     8.95368E-03     111.476E-03     20.7325E-03    -5.51744E-03    -15.2152E-03    -7.32213E-03     12.8395E-03    -5.51744E-03     29.3649E-03     22.1476E-03     76.5388E+06     22.8252E+06    -23.5563E+06    -64.0455E+06    -40.6337E+06     2.71283E+06    -26.8557E+06    -22.2285E+06
            2051     111.976E-03     9.94702E-03     111.533E-03     28.5597E-03    -5.96587E-03    -22.5938E-03    -9.48254E-03     15.4485E-03    -5.96587E-03     44.5428E-03     30.5642E-03     73.4556E+06     40.2788E+06     12.5436E+06    -39.2367E+06    -9.09417E+06     7.81107E+06     14.8688E+06    -8.31634E+06
            2052     112.141E-03     10.9368E-03     111.607E-03     39.0360E-03    -6.56972E-03    -32.4665E-03    -12.8308E-03     19.4002E-03    -6.56972E-03     63.8015E-03     42.6927E-03     64.6414E+06     62.3222E+06     39.6441E+06    -7.67452E+06     18.5023E+06     18.6581E+06     57.1313E+06     3.81330E+06
            2053     112.336E-03     11.9231E-03     111.701E-03     52.1076E-03    -7.36243E-03    -44.7452E-03    -18.7724E-03     26.1347E-03    -7.36243E-03     85.7847E-03     58.8022E-03     57.4616E+06     84.6541E+06     44.7439E+06     20.1070E+06     32.5600E+06     32.2910E+06     84.6541E+06     11.1367E+06
            2054     112.557E-03     12.9021E-03     111.815E-03     68.6996E-03    -8.51638E-03    -60.1829E-03    -28.9512E-03     37.4680E-03    -8.51638E-03     110.357E-03     81.1347E-03     72.5927E+06     84.7109E+06     40.3537E+06     2.22046E+06     23.5388E+06     19.0353E+06     84.7109E+06     8.19843E+06
            2055     112.814E-03     13.8720E-03     111.958E-03     87.8846E-03    -10.2152E-03    -77.6698E-03    -42.5611E-03     52.7760E-03    -10.2152E-03     135.185E-03     110.346E-03     74.2199E+06     76.9306E+06     29.1677E+06    -7.51843E+06     8.89264E+06     12.7566E+06     76.9306E+06     2.21891E+06
            2056     113.101E-03     14.8273E-03     112.125E-03     108.525E-03    -12.5525E-03    -95.9722E-03    -58.0290E-03     70.5816E-03    -12.5525E-03     158.773E-03     147.239E-03     78.7238E+06     83.0963E+06     44.2124E+06     -3.9138E+06     7.42994E+06     32.8686E+06     83.0963E+06     13.7340E+06
            2057     113.417E-03     15.7706E-03     112.315E-03     141.563E-03    -15.4432E-03    -126.120E-03    -80.4998E-03     95.9432E-03    -15.4432E-03     200.963E-03     220.645E-03     82.6005E+06     75.6476E+06     45.4036E+06    -15.4916E+06     1.34681E+06     45.7541E+06     58.4588E+06     20.9583E+06
            2058     113.796E-03     16.6892E-03     112.565E-03     154.543E-03    -19.5525E-03    -134.994E-03    -106.410E-03     125.960E-03    -19.5525E-03     152.013E-03     248.341E-03     119.631E+06     72.3192E+06     9.71361E+06    -62.0420E+06    -8.17796E+06    -26.9616E+06     55.1304E+06     339.898E+03
            2059     112.353E-03     992.530E-06     112.349E-03     15.2387E-03    -7.37790E-03    -7.86090E-03    -7.83581E-03     15.2203E-03    -7.38452E-03     14.4816E-06     15.3597E-03     32.5777E+06    -36.3849E+06    -54.4279E+06    -71.5598E+06    -53.5848E+06    -53.8402E+06    -54.9476E+06    -5.40949E+06
            2060     112.370E-03     1.98475E-03     112.353E-03     15.3323E-03    -7.43547E-03    -7.89691E-03    -7.68544E-03     15.3049E-03    -7.61948E-03    -1.42175E-03     15.5036E-03     41.3791E+06    -15.7243E+06    -49.4255E+06    -61.0763E+06    -51.9850E+06    -24.2960E+06    -49.9451E+06    -16.5888E+06
            2061     112.398E-03     2.97714E-03     112.358E-03     15.0762E-03    -7.35415E-03    -7.72219E-03    -7.39744E-03     15.0465E-03    -7.64921E-03    -1.47421E-03     15.3370E-03     48.2974E+06    -10.1283E+06    -44.9382E+06    -64.5828E+06    -52.8956E+06    -21.8155E+06    -44.9382E+06    -21.5371E+06
            2062     112.435E-03     3.96975E-03     112.365E-03     15.2474E-03    -7.47386E-03    -7.77351E-03    -7.58548E-03     15.2272E-03    -7.64170E-03    -1.07448E-03     15.6670E-03     57.8371E+06    -4.26115E+06    -44.0264E+06    -70.5654E+06    -56.6071E+06    -18.2194E+06    -44.0264E+06    -26.7655E+06
            2063     112.486E-03     4.96185E-03     112.376E-03     15.6180E-03    -7.59894E-03    -8.01892E-03    -7.88896E-03     15.5867E-03    -7.69757E-03    -128.173E-06     16.3212E-03     67.9755E+06     1.22578E+06    -43.9568E+06    -76.8571E+06    -60.7804E+06    -14.8508E+06    -43.9568E+06    -31.4537E+06
            2064     112.550E-03     5.95408E-03     112.392E-03     16.1238E-03    -7.78826E-03    -8.33525E-03    -8.16740E-03     15.9978E-03    -7.83010E-03     1.78785E-03     17.2744E-03     79.1797E+06     3.60453E+06    -39.9490E+06    -87.3205E+06    -65.6379E+06    -18.0780E+06    -39.9490E+06    -38.2388E+06
            2065     112.629E-03     6.94544E-03     112.415E-03     17.0328E-03    -8.00069E-03    -9.03212E-03    -8.56451E-03     16.5652E-03    -8.00069E-03     5.09427E-03     18.6581E-03     92.0265E+06     6.80438E+06    -35.2469E+06    -97.9837E+06    -71.1763E+06    -20.0030E+06    -35.2469E+06    -45.3459E+06
            2066     112.726E-03     7.93697E-03     112.446E-03     18.7254E-03    -8.19327E-03    -10.5326E-03    -9.18784E-03     17.3807E-03    -8.19327E-03     10.2488E-03     20.7281E-03     96.4770E+06     7.06260E+06    -34.5978E+06    -102.429E+06    -77.8727E+06    -17.4938E+06    -34.5978E+06    -45.3072E+06
            2067     112.842E-03     8.92699E-03     112.488E-03     21.3268E-03    -8.39330E-03    -12.9337E-03    -9.71870E-03     18.1118E-03    -8.39330E-03     17.7894E-03     23.4257E-03     97.2348E+06     8.51482E+06    -38.3806E+06    -100.678E+06    -82.4657E+06    -9.69736E+06    -38.3806E+06    -38.8842E+06
            2068     112.982E-03     9.91755E-03     112.546E-03     25.3986E-03    -8.68524E-03    -16.7129E-03    -10.1515E-03     18.8371E-03    -8.68524E-03     28.7619E-03     27.4257E-03     90.6999E+06     12.3744E+06    -23.5208E+06    -87.7459E+06    -75.8189E+06     447.376E+03    -23.5208E+06    -30.9689E+06
            2069     113.149E-03     10.9088E-03     112.622E-03     32.4971E-03    -9.11122E-03    -23.3861E-03    -11.5010E-03     20.6120E-03    -9.11122E-03     44.6809E-03     34.7902E-03     87.0937E+06     27.7045E+06     2.05536E+06    -66.8468E+06    -55.7859E+06     5.65617E+06     13.0429E+06    -24.6897E+06
            2070     113.347E-03     11.8984E-03     112.721E-03     44.0507E-03    -9.68562E-03    -34.3656E-03    -15.6103E-03     25.2954E-03    -9.68562E-03     66.5023E-03     47.6881E-03     88.9543E+06     58.6892E+06     25.5359E+06    -39.4291E+06    -26.3059E+06     17.0863E+06     54.0158E+06    -8.21504E+06
            2071     113.579E-03     12.8819E-03     112.846E-03     61.3320E-03    -10.5864E-03    -50.7458E-03    -24.4370E-03     35.0232E-03    -10.5864E-03     94.9118E-03     68.9193E-03     90.9029E+06     85.3969E+06     33.3771E+06    -14.6302E+06     2.67889E+06     16.0680E+06     85.3969E+06     10.0015E+06
            2072     113.849E-03     13.8518E-03     113.003E-03     81.7505E-03    -11.9442E-03    -69.8063E-03    -36.8877E-03     48.8320E-03    -11.9442E-03     124.927E-03     96.6056E-03     93.3154E+06     97.9809E+06     37.0079E+06    -5.24274E+06     13.6625E+06     18.1027E+06     97.9809E+06     14.2862E+06
            2073     114.150E-03     14.8135E-03     113.184E-03     102.430E-03    -13.7767E-03    -88.6529E-03    -50.4766E-03     64.2535E-03    -13.7767E-03     152.750E-03     128.947E-03     91.3873E+06     89.8210E+06     40.0067E+06    -15.0181E+06     12.0941E+06     12.8946E+06     89.8210E+06     17.8851E+06
            2074     114.484E-03     15.7638E-03     113.393E-03     138.068E-03    -16.1046E-03    -121.964E-03    -71.2972E-03     87.4015E-03    -16.1046E-03     205.885E-03     194.853E-03     85.6615E+06     94.8496E+06     55.3334E+06    -1.67142E+06     23.8842E+06     45.9252E+06     78.7022E+06     26.3050E+06
            2075     114.904E-03     16.6979E-03     113.685E-03     156.977E-03    -19.5738E-03    -137.404E-03    -101.201E-03     120.774E-03    -19.5738E-03     177.999E-03     240.055E-03     113.578E+06     85.1385E+06     49.8455E+06    -39.7846E+06     26.9589E+06     3.08455E+06     65.1559E+06     20.3241E+06
            2076     113.372E-03     989.194E-06     113.368E-03     22.3143E-03    -9.94516E-03    -12.3694E-03    -10.1903E-03     22.2145E-03    -12.0245E-03    -2.26274E-03     22.5403E-03     43.4290E+06     1.51831E+06    -19.1612E+06    -45.8025E+06    -8.52290E+06    -35.2417E+06    -19.6808E+06    -13.5083E+06
            2077     113.389E-03     1.97797E-03     113.371E-03     20.8872E-03    -9.98682E-03    -10.9007E-03    -10.0081E-03     20.8355E-03    -10.8276E-03    -2.46620E-03     20.9964E-03     30.0697E+06     4.12918E+06    -19.0748E+06    -29.1947E+06    -13.2578E+06    -11.2881E+06    -19.5944E+06    -15.5414E+06
            2078     113.414E-03     2.96873E-03     113.375E-03     20.9040E-03    -10.2366E-03    -10.6675E-03    -10.2445E-03     20.8501E-03    -10.6058E-03    -2.54893E-03     21.0473E-03     30.5256E+06     2.77810E+06    -15.2123E+06    -32.1091E+06    -17.1783E+06    -12.1527E+06    -15.2123E+06    -16.6415E+06
            2079     113.453E-03     3.95853E-03     113.384E-03     21.7037E-03    -10.5710E-03    -11.1330E-03    -11.0155E-03     21.6505E-03    -10.6352E-03    -2.62873E-03     21.9535E-03      37.556E+06     7.03996E+06    -13.0005E+06    -35.7167E+06    -21.2587E+06    -7.41799E+06    -13.0005E+06    -19.1547E+06
            2080     113.503E-03     4.94695E-03     113.395E-03     22.9084E-03    -10.8526E-03    -12.0564E-03    -12.0056E-03     22.8576E-03    -10.8526E-03    -2.58878E-03     23.3674E-03     46.5874E+06     9.58037E+06    -12.5689E+06    -42.7854E+06    -27.7971E+06    -5.40792E+06    -12.5689E+06    -22.7788E+06
            2081     113.567E-03     5.93428E-03     113.412E-03     24.2039E-03    -11.2146E-03    -12.9899E-03    -12.9560E-03     24.1699E-03    -11.2146E-03    -1.84292E-03     25.0047E-03     54.1701E+06     9.65042E+06    -9.49784E+06    -50.5077E+06    -36.4012E+06    -5.90161E+06    -8.05225E+06    -24.9270E+06
            2082     113.646E-03     6.92105E-03     113.435E-03     25.7235E-03    -11.6659E-03    -14.0565E-03    -14.0104E-03     25.6774E-03    -11.6659E-03    -259.651E-06     27.0035E-03     67.1405E+06     10.6375E+06    -6.54669E+06    -63.2097E+06    -47.5243E+06    -8.84097E+06    -2.75364E+06    -28.8344E+06
            2083     113.742E-03     7.90632E-03     113.467E-03     27.4621E-03    -12.1528E-03    -15.3049E-03    -15.1395E-03     27.2967E-03    -12.1528E-03     2.49777E-03     29.3456E-03     74.5355E+06     7.43090E+06    -9.29138E+06    -73.9468E+06    -57.2196E+06    -14.6795E+06    -3.90817E+06    -30.8684E+06
            2084     113.858E-03     8.89056E-03     113.511E-03     29.2624E-03    -12.6741E-03    -16.5844E-03    -16.0319E-03     28.7099E-03    -12.6741E-03     6.64807E-03     31.8042E-03     79.7202E+06     8.71823E+06    -5.30241E+06    -76.7676E+06    -61.8376E+06    -9.24748E+06    -2.26665E+06    -30.7662E+06
            2085     113.995E-03     9.87361E-03     113.567E-03     31.2122E-03    -13.2079E-03    -18.0023E-03    -16.4562E-03     29.6661E-03    -13.2079E-03     12.6304E-03     34.2285E-03     84.5906E+06     12.9947E+06     3.06573E+03    -77.0665E+06    -64.3133E+06    -1.88505E+06     2.12971E+06    -29.9744E+06
            2086     114.159E-03     10.8568E-03     113.642E-03     34.1488E-03    -13.7488E-03    -20.3983E-03    -16.7979E-03     30.5483E-03    -13.7488E-03     21.6427E-03     37.3245E-03     93.8031E+06     17.1942E+06     4.36873E+06    -82.2412E+06    -71.5125E+06     3.28236E+06     7.55190E+06    -27.5952E+06
            2087     114.354E-03     11.8397E-03     113.739E-03     39.8765E-03    -14.3693E-03    -25.5076E-03    -18.1249E-03     32.4939E-03    -14.3693E-03     36.2338E-03     43.3916E-03     102.941E+06     23.9896E+06     6.18060E+06    -86.3496E+06    -76.3896E+06     894.020E+03     19.3161E+06    -24.5121E+06
            2088     114.590E-03     12.8215E-03     113.870E-03     50.3839E-03    -15.1633E-03    -35.2212E-03    -21.8048E-03     36.9674E-03    -15.1633E-03     58.7587E-03     55.3024E-03     109.440E+06     42.2567E+06     5.29345E+06    -72.2132E+06    -66.1696E+06    -478.935E+03     41.9854E+06    -17.1094E+06
            2089     114.870E-03     13.8020E-03     114.037E-03     64.0446E-03    -16.1563E-03    -47.8875E-03    -27.3265E-03     43.4836E-03    -16.1563E-03     85.3001E-03     71.9108E-03     113.270E+06     65.8369E+06     13.8532E+06    -55.8370E+06    -46.4978E+06     4.78533E+06     65.5656E+06     987.098E+03
            2090     115.185E-03     14.7694E-03     114.234E-03     83.2303E-03    -17.4255E-03    -65.8047E-03    -37.9819E-03     55.4076E-03    -17.4255E-03     115.836E-03     99.1356E-03     108.612E+06     79.9717E+06     32.0468E+06    -43.7368E+06    -24.0316E+06     12.3416E+06     79.9717E+06     6.90820E+06
            2091     115.530E-03     15.7283E-03     114.454E-03     118.008E-03    -19.1453E-03    -98.8623E-03    -56.2197E-03     75.3654E-03    -19.1453E-03     172.143E-03     154.916E-03     93.3150E+06     81.9522E+06     40.2539E+06    -20.4602E+06    -7.80883E+06     28.5452E+06     81.0095E+06     3.92234E+06
            2092     115.980E-03     16.6696E-03     114.776E-03     138.463E-03    -21.4453E-03    -117.017E-03    -75.5728E-03     97.0192E-03    -21.4453E-03     181.241E-03     198.446E-03     86.0000E+06     54.2887E+06     22.9504E+06    -37.9991E+06    -10.1579E+06    -112.806E+03     49.5107E+06     18.3988E+06
            2093     114.397E-03     983.023E-06     114.393E-03     29.0951E-03    -12.5785E-03    -16.5165E-03    -13.8222E-03     28.9672E-03    -15.1449E-03    -4.39984E-03     29.3738E-03     46.7139E+06      30.962E+06     14.2310E+06    -20.6344E+06     21.3002E+06    -14.2371E+06     17.4955E+06    -14.6923E+06
            2094     114.411E-03     1.97315E-03     114.394E-03     26.9531E-03    -12.8856E-03    -14.0678E-03    -12.8440E-03     26.9115E-03    -14.0678E-03    -2.48772E-03     27.0247E-03     26.8412E+06     17.4019E+06     3.58468E+06    -12.1891E+06     10.4726E+06    -5.25979E+06     3.58468E+06    -11.3134E+06
            2095     114.438E-03     2.95928E-03     114.400E-03     27.8656E-03    -13.6405E-03    -14.2252E-03    -14.0258E-03     27.8254E-03    -13.7997E-03    -2.50460E-03     27.9383E-03     23.0412E+06     10.7254E+06    -541.975E+03    -15.1083E+06     545.298E+03    -4.92817E+06    -541.975E+03    -11.6691E+06
            2096     114.477E-03     3.94478E-03     114.409E-03     29.3604E-03    -14.0445E-03    -15.3163E-03    -15.2610E-03     29.3052E-03    -14.0445E-03    -3.06042E-03     29.4879E-03     24.2178E+06     11.3668E+06     2.85838E+06    -15.5747E+06    -4.83631E+06    -264.346E+03     3.75108E+06    -12.0301E+06
            2097     114.529E-03     4.92925E-03     114.423E-03     31.4844E-03    -14.5300E-03    -16.9547E-03    -16.8897E-03     31.4194E-03    -14.5300E-03    -3.49497E-03     31.7416E-03     29.3548E+06     12.5930E+06     4.24383E+06    -19.4586E+06    -10.9722E+06    -1.27269E+06     9.62312E+06    -11.4206E+06
            2098     114.593E-03     5.91150E-03     114.440E-03     34.3595E-03    -15.2073E-03    -19.1521E-03    -19.0844E-03     34.2918E-03    -15.2073E-03    -3.78106E-03     34.8608E-03     36.0734E+06     15.6714E+06     3.78421E+06    -24.0222E+06    -17.7881E+06    -1.50707E+06     14.7286E+06    -11.1957E+06
            2099     114.673E-03     6.89136E-03     114.466E-03     37.5591E-03    -16.0779E-03    -21.4803E-03    -21.4126E-03     37.4914E-03    -16.0779E-03    -3.92715E-03     38.4361E-03     48.1369E+06     23.6499E+06     3.54676E+06    -29.0387E+06    -24.0794E+06    -1.41246E+06     23.6499E+06    -11.2058E+06
            2100     114.770E-03     7.86846E-03     114.500E-03     40.7241E-03    -17.0677E-03    -23.6518E-03    -23.5762E-03     40.6486E-03    -17.0677E-03    -3.83518E-03     42.1466E-03     63.6205E+06     30.1080E+06    -151.876E+03    -39.2292E+06    -31.4799E+06    -7.90117E+06     30.1080E+06    -15.1511E+06
            2101     114.886E-03     8.84378E-03     114.545E-03     43.8650E-03    -18.0845E-03    -25.7753E-03    -25.6767E-03     43.7663E-03    -18.0845E-03    -3.29536E-03     46.0341E-03     69.5564E+06     28.8086E+06     2.28441E+06    -46.4329E+06    -37.4798E+06    -6.46038E+06     28.6003E+06    -18.0004E+06
            2102     115.023E-03     9.81668E-03     114.603E-03     47.4478E-03    -19.1873E-03    -28.2590E-03    -28.0673E-03     47.2561E-03    -19.1873E-03    -2.66258E-03     50.6390E-03     71.8448E+06     28.0075E+06     7.65113E+06    -49.8883E+06    -42.7132E+06     684.404E+03     27.7992E+06    -17.7605E+06
            2103     115.183E-03     10.7863E-03     114.677E-03     51.1014E-03    -20.4339E-03    -30.6655E-03    -30.2059E-03     50.6419E-03    -20.4339E-03    -1.47294E-03     55.4962E-03     76.4645E+06     32.9043E+06     5.60880E+06    -49.8817E+06    -44.6585E+06     385.656E+03     32.9043E+06    -12.9737E+06
            2104     115.375E-03     11.7531E-03     114.775E-03     54.3573E-03    -21.7554E-03    -32.5999E-03    -31.4423E-03     53.1997E-03    -21.7554E-03     2.16225E-03     59.9742E-03     83.6122E+06     37.9198E+06     10.2886E+06    -52.5913E+06    -46.5471E+06     4.24446E+06     37.9198E+06    -11.8445E+06
            2105     115.602E-03     12.7181E-03     114.901E-03     55.7198E-03    -23.0193E-03    -32.6996E-03    -30.0553E-03     53.0755E-03    -23.0193E-03     11.0337E-03     62.3911E-03     96.9446E+06     31.1877E+06     9.73521E+06    -72.9701E+06    -56.6807E+06    -6.28293E+06     30.9164E+06    -12.2877E+06
            2106     115.877E-03     13.6793E-03     115.067E-03     55.9071E-03    -23.6759E-03    -32.2307E-03    -26.3704E-03     50.4999E-03    -24.1290E-03     24.1365E-03     63.7572E-03     96.5429E+06     33.4615E+06     3.25746E+06    -72.0564E+06    -57.8304E+06    -10.6972E+06     33.1902E+06    -10.8512E+06
            2107     116.183E-03     14.6575E-03     115.254E-03     67.4554E-03    -24.9803E-03    -42.4751E-03    -32.5325E-03     57.9660E-03    -25.4334E-03     43.6730E-03     80.3977E-03     97.7458E+06     61.3872E+06     13.4421E+06    -47.0405E+06    -43.4836E+06     9.88518E+06     61.3872E+06    -8.87323E+06
            2108     116.560E-03     15.6136E-03     115.510E-03     81.5827E-03    -22.3784E-03    -59.2031E-03    -37.5232E-03     64.5714E-03    -27.0470E-03     71.6111E-03     105.680E-03     95.5678E+06     71.8076E+06     11.7458E+06    -33.2488E+06    -29.9295E+06     8.42645E+06     71.8076E+06     2.37960E+06
            2109     116.985E-03     16.5699E-03     115.806E-03     77.3376E-03    -11.5699E-03    -65.7661E-03    -27.0624E-03     55.0468E-03    -27.9828E-03     87.8478E-03     109.586E-03     99.6429E+06     47.5820E+06     1.64638E+06    -62.5017E+06    -16.5123E+06    -1.53914E+06     4.77813E+06     7.52948E+06


