********************************************************************************
Field Output Report, written Mon Apr 21 01:58:24 2025

Source 1
---------

   ODB: F:/Abaqus_calc/Vel_20/odb/Correct/1020_2a_24_rd_1500_cal_10_v_20_f_0100.odb
   Step: Step-1
   Frame: Increment   6562398: Step Time =   0.7888

Loc 1 : Nodal values from source 1

Output sorted by column "Nodal Label".

Field Output reported at nodes for region: DIE_2A_24_D0_36-1.Region_1
   Computation algorithm: EXTRAPOLATE_COMPUTE_AVERAGE
   Averaged at nodes
   Averaging regions: ODB_REGIONS

      Node Label  COORD.Magnitude     COORD.COOR1     COORD.COOR2
                          @Loc 1          @Loc 1          @Loc 1
------------------------------------------------------------------
               1     213.986E-03     18.4810E-03     213.186E-03


Field Output reported at nodes for region: DIE_2A_24_D0_36-1.Region_2
   Computation algorithm: EXTRAPOLATE_COMPUTE_AVERAGE
   Averaged at nodes
   Averaging regions: ODB_REGIONS

      Node Label  COORD.Magnitude     COORD.COOR1     COORD.COOR2
                          @Loc 1          @Loc 1          @Loc 1
------------------------------------------------------------------
               1     213.986E-03     18.4810E-03     213.186E-03


Field Output reported at nodes for part: WIRE_1-1
   Computation algorithm: EXTRAPOLATE_COMPUTE_AVERAGE
   Averaged at nodes
   Averaging regions: ODB_REGIONS

      Node Label  COORD.Magnitude     COORD.COOR1     COORD.COOR2    PE.Max. Prin    PE.Mid. Prin    PE.Min. Prin         PE.PE11         PE.PE22         PE.PE33         PE.PE12            PEEQ         S.Mises     S.Max. Prin     S.Mid. Prin     S.Min. Prin           S.S11           S.S22           S.S33           S.S12
                          @Loc 1          @Loc 1          @Loc 1          @Loc 1          @Loc 1          @Loc 1          @Loc 1          @Loc 1          @Loc 1          @Loc 1          @Loc 1          @Loc 1          @Loc 1          @Loc 1          @Loc 1          @Loc 1          @Loc 1          @Loc 1          @Loc 1
----------------------------------------------------------------------------------------------------------------------------------------------------------------------------------------------------------------------------------------------------------------------------------------------------------------------------------
               1     80.3847E-03     15.1298E-03     78.9480E-03     356.370E-03    -174.931E-03    -181.439E-03    -175.448E-03     350.379E-03    -174.931E-03     112.897E-03     421.275E-03     126.149E+06     137.232E+06     99.0989E+06    -3.58246E+06    -3.57834E+06     99.0948E+06     137.232E+06     441.321E+03
               2     77.4443E-03     495.588E-09     77.4443E-03     350.066E-03    -174.127E-03    -175.939E-03    -175.938E-03     350.065E-03    -174.127E-03    -703.841E-06     350.422E-03     175.802E+06    -146.976E+06    -149.196E+06    -323.878E+06    -148.223E+06    -323.833E+06    -147.994E+06     450.178E+03
               3     1.88079E-06     1.88079E-06    -485.723E-18     528.396E-03    -264.017E-03    -264.379E-03    -264.365E-03     528.382E-03    -264.017E-03     6.70152E-03     528.864E-03     195.862E+06    -70.8385E+06    -71.7565E+06    -267.158E+06    -71.8178E+06    -267.097E+06    -70.8385E+06     3.45967E+06
               4     14.8786E-03     14.8786E-03    -485.723E-18     604.114E-03    -182.492E-03    -421.622E-03    -404.423E-03     586.915E-03    -182.492E-03     263.410E-03     658.072E-03     131.149E+06     155.794E+06     90.5615E+06     4.81978E+06     4.82438E+06     90.5569E+06     155.794E+06     627.945E+03
               5     158.026E-03     15.3084E-03     157.283E-03     226.802E-03    -61.4211E-03    -165.381E-03    -61.4193E-03     226.800E-03    -165.381E-03    -1.43386E-03     329.074E-03     173.321E+06     95.5375E+06     77.5589E+06    -86.0724E+06    -79.5184E+06     71.0048E+06     95.5375E+06    -32.0857E+06
               6     152.565E-03     1.04629E-06     152.565E-03     288.972E-03    -143.914E-03    -145.059E-03    -144.602E-03     288.515E-03    -143.914E-03    -28.1461E-03     292.042E-03     71.8509E+06     58.3703E+06     54.2822E+06    -15.4374E+06     53.2590E+06    -14.4142E+06     58.3703E+06    -8.38393E+06
               7     80.0769E-03     14.2880E-03     78.7919E-03     365.689E-03    -174.891E-03    -190.798E-03    -178.066E-03     352.957E-03    -174.891E-03     160.471E-03     460.958E-03     118.431E+06     123.505E+06     92.0163E+06    -7.41226E+06    -7.40941E+06     92.0135E+06     123.505E+06     350.676E+03
               8     79.6474E-03     13.4475E-03     78.5040E-03     365.564E-03    -174.808E-03    -190.756E-03    -177.603E-03     352.410E-03    -174.808E-03     164.235E-03     469.868E-03     101.212E+06     95.6661E+06     72.7013E+06    -15.0497E+06    -15.0430E+06     72.6946E+06     95.6661E+06     195.388E+03
               9     79.3524E-03     12.6082E-03     78.3443E-03     357.020E-03    -174.763E-03    -182.257E-03    -174.452E-03     349.216E-03    -174.763E-03     128.555E-03     442.981E-03     88.7966E+06     76.0034E+06     52.4251E+06    -22.1508E+06    -22.1440E+06     52.4183E+06     76.0034E+06    -102.691E+03
              10     79.0407E-03     11.7635E-03     78.1605E-03     355.915E-03    -174.769E-03    -181.146E-03    -173.973E-03     348.742E-03    -174.769E-03     122.548E-03     438.605E-03     86.5446E+06     68.5411E+06     40.9471E+06    -28.4256E+06    -28.4103E+06     40.9317E+06     68.5411E+06    -542.624E+03
              11     78.7835E-03     10.9239E-03     78.0225E-03     353.517E-03    -174.757E-03    -178.759E-03    -173.472E-03     348.229E-03    -174.757E-03     105.532E-03     428.301E-03     86.6537E+06     61.9820E+06     33.9268E+06    -35.2173E+06    -35.1972E+06     33.9066E+06     61.9820E+06    -484.253E+03
              12     78.5389E-03     10.0859E-03     77.8886E-03     351.954E-03    -174.735E-03    -177.219E-03    -172.722E-03     347.457E-03    -174.735E-03     96.9988E-03     422.600E-03     86.5394E+06     52.8355E+06     28.9107E+06    -43.0998E+06    -43.0911E+06     28.9020E+06     52.8355E+06    -448.504E+03
              13     78.3222E-03     9.24160E-03     77.7750E-03     350.423E-03    -174.750E-03    -175.672E-03    -172.178E-03     346.928E-03    -174.750E-03     85.2469E-03     415.887E-03     87.8885E+06     44.3317E+06     24.4361E+06    -51.7927E+06    -51.7895E+06     24.4329E+06     44.3317E+06    -349.054E+03
              14     78.1311E-03     8.40242E-03     77.6780E-03     349.522E-03    -174.470E-03    -175.052E-03    -172.162E-03     346.952E-03    -174.790E-03     72.9785E-03     409.256E-03     90.3002E+06     37.2383E+06     18.1794E+06    -61.0698E+06    -61.0685E+06     18.1781E+06     37.2383E+06     35.0454E+03
              15     77.9647E-03     7.56101E-03     77.5972E-03     348.887E-03    -174.057E-03    -174.830E-03    -172.277E-03     347.106E-03    -174.830E-03     60.5885E-03     401.550E-03     88.6456E+06     27.1369E+06     1.24889E+06    -71.2973E+06    -71.2957E+06     1.24725E+06     27.1369E+06     124.562E+03
              16     77.8267E-03     6.72180E-03     77.5359E-03     348.510E-03    -173.641E-03    -174.868E-03    -172.503E-03     347.372E-03    -174.868E-03     48.3042E-03     392.950E-03     81.7991E+06     8.48405E+06    -42.3558E+06     -82.387E+06    -82.3714E+06    -42.3714E+06     8.48405E+06     406.880E+03
              17     77.7149E-03     5.88076E-03     77.4921E-03     348.066E-03    -173.132E-03    -174.933E-03    -172.494E-03     347.428E-03    -174.933E-03     35.8929E-03     383.810E-03     82.5098E+06    -14.7917E+06    -85.7208E+06    -105.254E+06    -93.5393E+06    -97.4352E+06    -14.7917E+06     265.108E+03
              18     77.6263E-03     5.03823E-03     77.4627E-03     348.485E-03    -173.484E-03    -175.001E-03    -173.178E-03     348.178E-03    -175.001E-03     24.8272E-03     375.590E-03     93.4266E+06    -38.2065E+06    -104.983E+06    -143.966E+06    -104.989E+06    -143.960E+06    -38.2065E+06    -185.059E+03
              19     77.5572E-03     4.19981E-03     77.4434E-03     349.175E-03    -174.176E-03    -174.998E-03    -174.048E-03     349.046E-03    -174.998E-03     15.8594E-03     368.489E-03     108.147E+06    -62.3004E+06    -115.862E+06    -186.164E+06    -115.880E+06    -186.146E+06    -62.3004E+06     129.904E+03
              20     77.5081E-03     3.35947E-03     77.4352E-03     349.232E-03    -174.276E-03    -174.956E-03    -174.235E-03     349.191E-03    -174.956E-03     8.79442E-03     361.905E-03     126.054E+06    -86.9255E+06    -125.711E+06    -227.440E+06    -125.725E+06    -227.426E+06    -86.9255E+06     107.112E+03
              21     77.4762E-03     2.51939E-03     77.4352E-03     349.319E-03    -174.363E-03    -174.955E-03    -174.352E-03     349.308E-03    -174.955E-03     4.59197E-03     356.675E-03     144.375E+06    -109.563E+06    -134.613E+06    -264.663E+06    -134.615E+06    -264.660E+06    -109.563E+06     83.4154E+03
              22     77.4563E-03     1.67953E-03     77.4381E-03     349.633E-03    -174.645E-03    -174.988E-03    -174.641E-03     349.630E-03    -174.988E-03     2.33772E-03     353.078E-03     158.937E+06    -128.426E+06    -141.233E+06    -293.268E+06    -141.244E+06    -293.257E+06    -128.426E+06     393.668E+03
              23     77.4438E-03     839.041E-06     77.4392E-03     349.939E-03    -174.466E-03    -175.473E-03    -175.371E-03     349.938E-03    -174.567E-03     382.610E-06     351.050E-03     170.340E+06    -141.968E+06    -146.450E+06    -314.485E+06    -145.972E+06    -314.454E+06    -142.477E+06     389.987E+03
              24     76.0221E-03     1.50462E-06     76.0221E-03     350.466E-03    -174.429E-03    -176.037E-03    -176.036E-03     350.465E-03    -174.429E-03    -356.173E-06     350.827E-03     171.949E+06    -146.132E+06    -150.611E+06    -320.267E+06    -147.371E+06    -320.229E+06    -149.409E+06     775.783E+03
              25     74.6062E-03    -816.284E-09     74.6062E-03     349.945E-03    -174.557E-03    -175.388E-03    -174.983E-03     349.945E-03    -174.961E-03    -185.680E-06     350.315E-03     172.267E+06    -145.547E+06    -152.812E+06    -321.331E+06    -149.547E+06    -321.319E+06    -148.824E+06    -1.40264E+06
              26     73.1868E-03     188.115E-09     73.1868E-03     348.777E-03    -174.082E-03    -174.695E-03    -174.290E-03     348.777E-03    -174.486E-03    -1.10753E-03     349.121E-03     174.463E+06    -146.371E+06    -153.940E+06    -324.495E+06    -150.367E+06    -324.487E+06    -149.952E+06     27.5845E+03
              27     71.7740E-03     126.799E-09     71.7740E-03     348.841E-03    -174.302E-03    -174.539E-03    -174.538E-03     348.841E-03    -174.302E-03    -249.923E-06     349.181E-03     172.826E+06    -147.256E+06    -153.468E+06    -323.102E+06    -149.892E+06    -323.097E+06    -150.837E+06     365.321E+03
              28     70.3566E-03    -39.8790E-09     70.3566E-03     350.443E-03    -174.525E-03    -175.918E-03    -175.917E-03     350.441E-03    -174.525E-03    -997.780E-06     350.810E-03     172.027E+06    -147.727E+06    -152.655E+06    -322.165E+06    -150.366E+06    -322.158E+06    -150.024E+06     496.244E+03
              29     68.9355E-03     2.30820E-06     68.9355E-03     350.602E-03    -174.259E-03    -176.343E-03    -176.342E-03     350.600E-03    -174.259E-03    -417.006E-06     350.948E-03     172.094E+06    -146.842E+06    -151.930E+06    -321.423E+06    -149.650E+06    -321.407E+06    -149.138E+06    -184.944E+03
              30     67.5179E-03    -1.05957E-06     67.5179E-03     349.610E-03    -174.229E-03    -175.381E-03    -174.947E-03     349.609E-03    -174.661E-03     11.3414E-06     349.950E-03     172.964E+06    -147.940E+06    -154.413E+06    -324.048E+06    -150.742E+06    -324.038E+06    -151.621E+06    -885.085E+03
              31     66.1014E-03     296.545E-09     66.1014E-03     348.991E-03    -174.053E-03    -174.938E-03    -174.505E-03     348.990E-03    -174.485E-03    -1.00600E-03     349.340E-03     175.060E+06    -145.778E+06    -152.744E+06    -324.217E+06    -149.066E+06    -324.213E+06    -149.460E+06     615.471E+03
              32     64.6867E-03     508.701E-09     64.6867E-03     349.077E-03    -174.201E-03    -174.876E-03    -174.875E-03     349.076E-03    -174.201E-03    -935.889E-06     349.416E-03     174.464E+06    -143.878E+06    -150.831E+06    -321.715E+06    -147.170E+06    -321.707E+06    -147.548E+06    -9.87944E+03
              33     63.2690E-03    -172.842E-09     63.2690E-03     349.342E-03    -174.312E-03    -175.030E-03    -175.029E-03     349.342E-03    -174.312E-03    -901.930E-06     349.694E-03     172.173E+06    -145.022E+06    -151.733E+06    -320.451E+06    -148.083E+06    -320.431E+06    -148.691E+06     562.030E+03
              34     61.8509E-03     1.04739E-06     61.8509E-03     349.811E-03    -174.426E-03    -175.385E-03    -175.385E-03     349.811E-03    -174.426E-03     77.2521E-06     350.166E-03     170.520E+06    -146.119E+06    -151.010E+06    -319.029E+06    -149.182E+06    -319.008E+06    -147.968E+06     475.420E+03
              35     60.4334E-03    -281.260E-09     60.4334E-03     350.198E-03    -174.583E-03    -175.615E-03    -175.614E-03     350.197E-03    -174.583E-03    -569.236E-06     350.546E-03     171.309E+06    -145.750E+06    -148.628E+06    -318.478E+06    -146.791E+06    -318.467E+06    -147.598E+06     34.2304E+03
              36     59.0162E-03     1.25164E-06     59.0162E-03     350.378E-03    -174.687E-03    -175.692E-03    -175.690E-03     350.377E-03    -174.687E-03    -84.4350E-06     350.719E-03     172.412E+06    -145.125E+06    -147.087E+06    -318.510E+06    -146.179E+06    -318.485E+06    -146.057E+06    -558.198E+03
              37     57.5943E-03    -520.492E-09     57.5943E-03     349.379E-03    -173.952E-03    -175.427E-03    -174.386E-03     349.377E-03    -174.990E-03    -443.936E-06     349.721E-03     172.874E+06    -148.443E+06    -149.461E+06    -321.822E+06    -148.466E+06    -321.799E+06    -149.461E+06    -686.183E+03
              38     56.1840E-03    -1.22241E-06     56.1840E-03     349.457E-03    -173.469E-03    -175.988E-03    -174.949E-03     349.455E-03    -174.507E-03    -840.661E-06     349.817E-03     172.587E+06    -147.831E+06    -148.128E+06    -320.566E+06    -148.054E+06    -320.554E+06    -147.916E+06     1.42786E+06
              39     54.7612E-03     3.72372E-06     54.7612E-03     351.388E-03    -173.744E-03    -177.644E-03    -177.643E-03     351.388E-03    -173.744E-03    -380.350E-06     351.754E-03     168.711E+06    -147.270E+06    -148.359E+06    -316.522E+06      -147.5E+06    -316.504E+06    -148.148E+06    -85.7491E+03
              40     53.3420E-03     329.207E-09     53.3420E-03     349.729E-03    -173.110E-03    -176.619E-03    -175.528E-03     349.728E-03    -174.200E-03    -578.710E-06     350.095E-03     168.110E+06    -148.006E+06    -149.566E+06    -316.890E+06    -148.700E+06    -316.878E+06    -148.884E+06    -512.574E+03
              41     51.9275E-03    -2.14603E-06     51.9275E-03     348.326E-03    -173.434E-03    -174.892E-03    -173.433E-03     348.325E-03    -174.892E-03    -444.227E-06     348.669E-03     169.179E+06    -148.453E+06    -149.431E+06    -318.118E+06    -149.433E+06    -318.116E+06    -148.453E+06     283.205E+03
              42     50.5119E-03     1.53528E-06     50.5119E-03     349.679E-03    -174.209E-03    -175.470E-03    -175.101E-03     349.678E-03    -174.577E-03    -748.161E-06     350.016E-03     170.022E+06    -148.222E+06    -149.530E+06    -318.893E+06    -148.518E+06    -318.892E+06    -149.235E+06     152.154E+03
              43     49.0912E-03    -38.7426E-09     49.0912E-03     350.372E-03    -174.696E-03    -175.677E-03    -175.677E-03     350.372E-03    -174.696E-03     149.651E-06     350.726E-03     171.184E+06    -145.670E+06    -147.705E+06    -317.862E+06    -146.693E+06    -317.861E+06    -146.683E+06     230.580E+03
              44     47.6751E-03     207.778E-09     47.6751E-03     350.178E-03    -174.676E-03    -175.502E-03    -175.501E-03     350.177E-03    -174.676E-03    -974.119E-06     350.530E-03     170.200E+06    -148.022E+06    -149.827E+06    -319.117E+06    -149.051E+06    -319.110E+06    -148.805E+06    -806.061E+03
              45     46.2560E-03     1.02556E-06     46.2560E-03     348.999E-03    -173.783E-03    -175.216E-03    -175.215E-03     348.998E-03    -173.783E-03    -1.35642E-03     349.335E-03     170.776E+06    -148.809E+06    -150.042E+06    -320.198E+06    -149.275E+06    -320.183E+06    -149.591E+06     118.786E+03
              46     44.8425E-03     156.346E-09     44.8425E-03     348.835E-03    -174.018E-03    -174.817E-03    -174.817E-03     348.835E-03    -174.018E-03     349.673E-06     349.175E-03     171.317E+06    -146.809E+06    -147.332E+06    -318.387E+06    -147.270E+06    -318.378E+06    -146.881E+06     714.362E+03
              47     43.4208E-03     25.8375E-09     43.4208E-03     349.928E-03    -174.901E-03    -175.028E-03    -175.027E-03     349.928E-03    -174.901E-03     433.376E-06     350.268E-03     170.983E+06    -146.765E+06    -147.770E+06    -318.247E+06    -146.766E+06    -318.245E+06    -147.770E+06    -437.091E+03
              48     42.0087E-03     11.4476E-09     42.0087E-03     350.406E-03    -175.043E-03    -175.363E-03    -175.066E-03     350.405E-03    -175.339E-03    -1.05888E-03     350.771E-03     172.077E+06    -146.312E+06    -147.400E+06    -318.929E+06    -146.467E+06    -318.928E+06    -147.246E+06    -219.546E+03
              49     40.5870E-03    -502.334E-09     40.5870E-03     350.205E-03    -174.271E-03    -175.935E-03    -175.638E-03     350.204E-03    -174.566E-03    -1.47210E-03     350.565E-03     172.537E+06    -146.591E+06    -147.023E+06    -319.343E+06    -147.023E+06    -319.343E+06    -146.591E+06    -1.62980E+03
              50     39.1680E-03     2.81006E-06     39.1680E-03     350.062E-03    -174.285E-03    -175.777E-03    -175.776E-03     350.061E-03    -174.285E-03     294.140E-06     350.379E-03     170.562E+06    -147.670E+06    -149.033E+06    -318.908E+06    -147.949E+06    -318.908E+06    -148.755E+06     161.725E+03
              51     37.7526E-03    -2.60581E-06     37.7526E-03     349.418E-03    -174.508E-03    -174.910E-03    -174.906E-03     349.414E-03    -174.508E-03    -982.958E-06     349.770E-03     169.922E+06    -147.239E+06    -150.143E+06    -318.593E+06    -149.062E+06    -318.589E+06    -148.324E+06     734.398E+03
              52     36.3341E-03     3.09242E-06     36.3341E-03     348.690E-03    -173.842E-03    -174.848E-03    -174.844E-03     348.686E-03    -173.842E-03    -683.171E-06     349.034E-03     168.907E+06    -145.758E+06    -149.152E+06    -316.336E+06    -147.584E+06    -316.329E+06    -147.332E+06    -60.4303E+03
              53     34.9205E-03    -1.87771E-06     34.9205E-03     349.488E-03    -174.152E-03    -175.336E-03    -174.879E-03     349.487E-03    -174.608E-03     576.171E-06     349.825E-03     168.532E+06    -144.681E+06    -147.551E+06    -314.630E+06    -145.983E+06    -314.623E+06    -146.256E+06    -64.2977E+03
              54     33.4991E-03     1.13545E-06     33.4991E-03     350.128E-03    -174.360E-03    -175.768E-03    -175.313E-03     350.128E-03    -174.815E-03    -600.855E-06     350.491E-03     168.575E+06    -144.211E+06    -146.602E+06    -313.969E+06    -145.508E+06    -313.966E+06    -145.308E+06     515.688E+03
              55     32.0839E-03     462.532E-09     32.0839E-03     349.928E-03    -174.118E-03    -175.810E-03    -175.809E-03     349.927E-03    -174.118E-03    -481.811E-06     350.278E-03     164.739E+06    -148.394E+06     -150.41E+06    -314.132E+06    -149.317E+06    -314.128E+06    -149.491E+06    -546.708E+03
              56     30.6661E-03     795.083E-09     30.6661E-03     350.035E-03    -174.628E-03    -175.406E-03    -175.366E-03     350.034E-03    -174.668E-03    -823.599E-06     350.384E-03     166.382E+06    -148.852E+06    -151.680E+06    -316.628E+06    -149.774E+06    -316.625E+06    -150.761E+06    -582.253E+03
              57     29.2476E-03    -876.172E-09     29.2476E-03     349.696E-03    -174.686E-03    -175.010E-03    -174.969E-03     349.695E-03    -174.726E-03    -921.044E-06     350.039E-03     168.701E+06    -144.692E+06    -149.015E+06    -315.513E+06    -147.108E+06    -315.510E+06    -146.602E+06     458.201E+03
              58     27.8292E-03     1.38802E-06     27.8292E-03     349.291E-03    -173.450E-03    -175.841E-03    -175.840E-03     349.291E-03    -173.450E-03    -997.740E-06     349.619E-03     169.339E+06    -145.393E+06    -148.616E+06    -316.314E+06    -147.829E+06    -316.292E+06    -146.202E+06    -827.484E+03
              59     26.4155E-03     2.14690E-06     26.4155E-03     348.861E-03    -173.260E-03    -175.600E-03    -175.600E-03     348.860E-03    -173.260E-03    -518.217E-06     349.202E-03     171.845E+06    -146.685E+06    -147.969E+06    -319.169E+06    -146.728E+06    -319.126E+06    -147.969E+06     84.9996E+03
              60     24.9966E-03    -1.75076E-06     24.9966E-03     348.149E-03    -173.291E-03    -174.859E-03    -173.524E-03     348.149E-03    -174.625E-03    -64.9446E-06     348.494E-03     171.496E+06    -145.129E+06    -146.089E+06    -317.103E+06    -145.642E+06    -317.076E+06    -145.603E+06     797.078E+03
              61     23.5834E-03    -478.449E-09     23.5834E-03     348.161E-03    -172.657E-03    -175.504E-03    -174.169E-03     348.161E-03    -173.992E-03    -839.727E-06     348.505E-03     171.592E+06    -143.487E+06    -145.196E+06    -315.925E+06    -143.977E+06    -315.921E+06    -144.710E+06    -563.568E+03
              62     22.1666E-03     3.01168E-06     22.1666E-03     347.773E-03    -172.705E-03    -175.068E-03    -175.067E-03     347.772E-03    -172.705E-03    -633.509E-06     348.104E-03     170.890E+06    -145.610E+06    -148.817E+06    -318.080E+06    -147.594E+06    -318.079E+06    -146.833E+06    -94.3764E+03
              63     20.7547E-03    -1.55107E-06     20.7547E-03     344.473E-03    -171.800E-03    -172.673E-03    -172.668E-03     344.468E-03    -171.800E-03    -2.07765E-03     344.775E-03     171.426E+06    -145.337E+06    -149.505E+06    -318.809E+06    -147.321E+06    -318.809E+06    -147.522E+06    -104.725E+03
              64     19.3464E-03     1.55954E-06     19.3464E-03     339.762E-03    -169.777E-03    -169.985E-03    -169.980E-03     339.757E-03    -169.777E-03    -1.66256E-03     340.046E-03     171.729E+06    -144.411E+06    -147.452E+06    -317.637E+06    -145.277E+06    -317.628E+06    -146.595E+06     912.609E+03
              65     17.9465E-03    -1.22873E-06     17.9465E-03     333.846E-03    -166.590E-03    -167.255E-03    -167.246E-03     333.836E-03    -166.590E-03    -2.52131E-03     334.115E-03     171.195E+06    -143.217E+06    -144.437E+06    -315.019E+06    -144.091E+06    -315.001E+06    -143.581E+06     44.4551E+03
              66     16.5562E-03     2.03267E-06     16.5562E-03     323.265E-03    -160.858E-03    -162.407E-03    -162.396E-03     323.254E-03    -160.858E-03    -4.36719E-03     323.489E-03     170.626E+06    -145.872E+06    -146.254E+06    -316.689E+06    -145.899E+06    -316.680E+06    -146.235E+06    -1.09925E+06
              67     15.1848E-03    -201.358E-09     15.1848E-03     308.500E-03    -153.642E-03    -154.858E-03    -154.844E-03     308.485E-03    -153.642E-03    -4.72152E-03     308.672E-03     170.545E+06    -148.361E+06    -149.138E+06    -319.293E+06    -148.383E+06    -319.290E+06    -149.120E+06     164.637E+03
              68     13.8358E-03     439.001E-09     13.8358E-03     289.775E-03    -144.784E-03    -144.991E-03    -144.962E-03     289.745E-03    -144.784E-03    -7.12694E-03     289.919E-03     168.609E+06    -149.463E+06    -150.964E+06    -318.818E+06    -150.214E+06    -318.809E+06    -150.222E+06    -307.297E+03
              69     12.5160E-03    -341.374E-09     12.5160E-03     266.998E-03    -133.276E-03    -133.722E-03    -133.673E-03     266.949E-03    -133.276E-03    -8.65942E-03     267.125E-03     164.763E+06    -153.979E+06    -155.605E+06    -319.549E+06    -154.744E+06    -319.526E+06    -154.862E+06     433.693E+03
              70     11.2259E-03     974.884E-09     11.2259E-03     242.667E-03    -121.038E-03    -121.629E-03    -121.567E-03     242.605E-03    -121.038E-03    -9.49973E-03     242.819E-03     159.176E+06    -156.229E+06    -157.909E+06    -316.238E+06    -157.043E+06    -316.222E+06    -157.113E+06     1.02688E+06
              71     9.97148E-03    -645.902E-09     9.97148E-03     224.035E-03    -111.383E-03    -112.653E-03    -112.604E-03     223.987E-03    -111.383E-03    -8.03483E-03     224.262E-03     149.780E+06    -160.788E+06    -161.776E+06    -311.058E+06    -161.782E+06    -311.052E+06    -160.788E+06     512.554E+03
              72     8.72972E-03     2.52070E-06     8.72972E-03     220.873E-03    -109.897E-03    -110.976E-03    -110.943E-03     220.854E-03    -109.911E-03    -3.66369E-03     221.232E-03     146.930E+06    -162.387E+06    -163.608E+06    -309.922E+06    -163.616E+06    -309.915E+06    -162.387E+06     276.631E+03
              73     7.48411E-03    -2.49760E-06     7.48411E-03     240.839E-03    -120.180E-03    -120.659E-03    -120.174E-03     240.833E-03    -120.659E-03     1.99800E-03     241.326E-03     151.763E+06    -159.140E+06    -162.420E+06    -312.513E+06    -160.181E+06    -312.502E+06    -161.391E+06    -1.22527E+06
              74     6.19356E-03     1.78203E-06     6.19356E-03     289.429E-03    -144.452E-03    -144.977E-03    -144.389E-03     289.366E-03    -144.977E-03     9.54716E-03     289.902E-03     164.740E+06    -148.225E+06    -151.205E+06    -314.429E+06    -148.981E+06    -314.402E+06    -150.476E+06     369.753E+03
              75     4.81690E-03    -1.65551E-06     4.81690E-03     362.537E-03    -181.119E-03    -181.419E-03    -181.238E-03     362.418E-03    -181.180E-03     16.1035E-03     362.943E-03     187.635E+06    -117.213E+06    -119.685E+06    -306.070E+06    -117.993E+06    -306.020E+06    -118.956E+06     3.06645E+06
              76     3.31873E-03     2.24336E-06     3.31873E-03     441.809E-03    -220.619E-03    -221.191E-03    -221.087E-03     441.706E-03    -220.619E-03     16.3840E-03     442.310E-03     199.604E+06    -89.7288E+06    -92.8088E+06    -290.855E+06    -91.1128E+06    -290.808E+06    -91.4718E+06     2.99483E+06
              77     1.70149E-03    -1.59045E-06     1.70149E-03     504.111E-03    -251.799E-03    -252.312E-03    -252.265E-03     504.063E-03    -251.799E-03     11.0048E-03     504.646E-03     197.072E+06    -77.4967E+06    -79.2927E+06    -275.459E+06    -79.3368E+06    -275.415E+06    -77.4967E+06     2.87984E+06
              78     761.871E-06     761.871E-06    -485.723E-18     523.871E-03    -260.691E-03    -263.180E-03    -260.829E-03     523.828E-03    -262.999E-03     10.7549E-03     524.264E-03     200.154E+06    -68.9300E+06    -71.5946E+06    -270.398E+06    -71.6534E+06    -270.339E+06    -68.9300E+06     3.41817E+06
              79     1.53201E-03     1.53201E-03    -485.723E-18     511.625E-03    -251.679E-03    -259.946E-03    -251.576E-03     511.522E-03    -259.946E-03     17.5210E-03     511.977E-03     201.074E+06    -65.9250E+06    -71.2098E+06    -269.588E+06    -71.2512E+06    -269.547E+06    -65.9250E+06     2.82092E+06
              80     2.31111E-03     2.31111E-03    -485.723E-18     493.824E-03    -238.658E-03    -255.167E-03    -238.476E-03     493.643E-03    -255.167E-03     22.8375E-03     494.318E-03     188.685E+06    -64.2722E+06    -71.2948E+06    -256.367E+06    -71.3147E+06    -256.347E+06    -64.2722E+06     1.90035E+06
              81     3.10189E-03     3.10189E-03    -485.723E-18     471.777E-03    -222.680E-03    -249.096E-03    -222.418E-03     471.514E-03    -249.096E-03     26.8873E-03     472.617E-03     163.267E+06    -63.0150E+06    -71.1054E+06    -230.174E+06    -71.1178E+06    -230.162E+06    -63.0150E+06     1.40488E+06
              82     3.90815E-03     3.90815E-03    -485.723E-18     447.087E-03    -205.075E-03    -242.012E-03    -204.740E-03     446.752E-03    -242.012E-03     29.4643E-03     448.426E-03     127.900E+06    -61.9028E+06    -69.2564E+06    -193.321E+06    -69.3126E+06    -193.265E+06    -61.9028E+06    -994.659E+03
              83     4.72898E-03     4.72898E-03    -485.723E-18     421.800E-03    -187.535E-03    -234.265E-03    -187.150E-03     421.415E-03    -234.265E-03     30.6053E-03     423.753E-03     87.1297E+06    -59.6723E+06    -65.1549E+06    -149.413E+06    -65.3995E+06    -149.168E+06    -59.6723E+06    -4.09574E+06
              84     5.56604E-03     5.56604E-03    -485.723E-18     397.362E-03    -171.145E-03    -226.217E-03    -170.715E-03     396.932E-03    -226.217E-03     31.2150E-03     400.087E-03     42.1390E+06    -54.2243E+06    -57.3933E+06    -97.8567E+06    -58.9243E+06    -95.4327E+06    -55.1172E+06    -6.59692E+06
              85     6.41411E-03     6.41411E-03    -485.723E-18     374.486E-03    -156.327E-03    -218.159E-03    -155.871E-03     374.031E-03    -218.159E-03     31.0826E-03     378.138E-03     33.7554E+06    -22.7166E+06    -46.3336E+06    -58.1898E+06    -50.0217E+06    -30.8847E+06    -46.3336E+06    -7.70060E+06
              86     7.27815E-03     7.27815E-03    -485.723E-18     353.779E-03    -143.412E-03    -210.367E-03    -142.951E-03     353.318E-03    -210.367E-03     30.2369E-03     358.469E-03     47.8383E+06     10.0460E+06    -30.8421E+06    -42.1558E+06    -41.6302E+06     9.52043E+06    -30.8421E+06    -4.25938E+06
              87     8.14833E-03     8.14833E-03    -485.723E-18     335.659E-03    -132.682E-03    -202.977E-03    -132.208E-03     335.185E-03    -202.977E-03     29.7722E-03     341.380E-03     46.9695E+06     17.7171E+06    -14.9514E+06    -35.9101E+06    -35.8228E+06     17.6298E+06    -14.9514E+06    -2.05858E+06
              88     9.03126E-03     9.03126E-03    -485.723E-18     321.253E-03    -125.153E-03    -196.099E-03    -124.652E-03     320.752E-03    -196.099E-03     29.8767E-03     328.198E-03     48.7725E+06     24.9257E+06     1.77194E+06    -30.6371E+06    -30.5344E+06     24.8230E+06     1.77194E+06    -2.34203E+06
              89     9.91615E-03     9.91615E-03    -485.723E-18     310.512E-03    -120.620E-03    -189.892E-03    -120.191E-03     310.083E-03    -189.892E-03     27.0338E-03     318.844E-03     51.4550E+06     29.0632E+06     20.0685E+06    -25.7560E+06    -25.7167E+06     29.0240E+06     20.0685E+06    -581.513E+03
              90     10.8095E-03     10.8095E-03    -485.723E-18     303.767E-03    -119.305E-03    -184.462E-03    -118.888E-03     303.350E-03    -184.462E-03     26.4132E-03     313.273E-03     58.0771E+06     41.2967E+06     29.3352E+06    -21.1361E+06    -21.1170E+06     29.6614E+06     40.9513E+06    -176.734E+03
              91     11.6931E-03     11.6931E-03    -485.723E-18     305.155E-03    -125.160E-03    -179.994E-03    -124.767E-03     304.761E-03    -179.994E-03     25.7230E-03     315.854E-03     71.7310E+06     62.3753E+06     42.0693E+06    -17.1665E+06    -17.1497E+06     42.0524E+06     62.3753E+06    -215.549E+03
              92     12.5858E-03     12.5858E-03    -485.723E-18     319.566E-03    -142.635E-03    -176.931E-03    -142.004E-03     318.935E-03    -176.931E-03     32.9292E-03     331.837E-03     89.5394E+06     85.1976E+06     64.5912E+06    -12.8448E+06    -12.5781E+06     64.3245E+06     85.1976E+06     3.69848E+06
              93     13.4194E-03     13.4194E-03    -485.723E-18     356.470E-03    -165.459E-03    -191.011E-03    -178.509E-03     354.504E-03    -175.995E-03     63.3545E-03     372.010E-03     110.805E+06     112.465E+06     75.6272E+06    -11.7327E+06    -10.8541E+06     74.7486E+06     112.465E+06     8.54714E+06
              94     14.2425E-03     14.2425E-03    -485.723E-18     493.231E-03    -179.325E-03    -313.906E-03    -303.829E-03     483.153E-03    -179.325E-03     173.308E-03     529.168E-03     126.588E+06     140.633E+06     83.0952E+06    -4.38335E+06    -3.76557E+06     82.4774E+06     140.633E+06     5.51748E+06
              95     15.1459E-03     15.0019E-03     2.08317E-03     530.069E-03    -181.197E-03    -348.872E-03    -326.131E-03     507.328E-03    -181.197E-03     272.798E-03     634.622E-03     132.723E+06     147.582E+06     87.9268E+06    -4.35830E+06    -4.29058E+06     87.8591E+06     147.582E+06     2.11078E+06
              96     15.4604E-03     15.0690E-03     3.45660E-03     416.394E-03    -179.102E-03    -237.292E-03    -211.502E-03     390.604E-03    -179.102E-03     254.488E-03     574.742E-03     132.350E+06     143.361E+06     92.4667E+06    -6.86182E+06    -6.71479E+06     92.3197E+06     143.361E+06     3.81348E+06
              97     15.8467E-03     15.1006E-03     4.80531E-03     378.212E-03    -177.005E-03    -201.206E-03    -185.486E-03     362.491E-03    -177.005E-03     181.852E-03     499.641E-03     127.955E+06     139.924E+06     94.0142E+06    -4.64917E+06    -4.55098E+06     93.9160E+06     139.924E+06     2.91575E+06
              98     16.3624E-03     15.1206E-03     6.25270E-03     384.293E-03    -175.126E-03    -209.167E-03    -201.856E-03     376.981E-03    -175.126E-03     130.643E-03     455.188E-03     125.264E+06     137.297E+06     92.5589E+06    -4.19105E+06    -4.16027E+06     92.5281E+06     137.297E+06     73.7307E+03
              99     16.9809E-03     15.1249E-03     7.71940E-03     393.076E-03    -174.292E-03    -218.784E-03    -212.501E-03     386.793E-03    -174.292E-03     123.334E-03     452.523E-03     125.480E+06     139.620E+06     93.2498E+06    -2.44253E+06    -2.42702E+06     93.2343E+06     139.620E+06    -1.07543E+06
             100     17.7108E-03     15.1277E-03     9.21008E-03     397.341E-03    -173.987E-03    -223.355E-03    -216.832E-03     390.818E-03    -173.987E-03     126.518E-03     456.677E-03     126.186E+06     138.860E+06     90.9768E+06    -4.25799E+06    -4.25619E+06     90.9749E+06     138.860E+06    -403.483E+03
             101     18.5208E-03     15.1293E-03     10.6830E-03     397.460E-03    -173.918E-03    -223.542E-03    -216.476E-03     390.394E-03    -173.918E-03     131.725E-03     458.842E-03     126.988E+06     140.457E+06     91.4903E+06    -3.72392E+06    -3.72311E+06     91.4895E+06     140.457E+06    -275.519E+03
             102     19.4117E-03     15.1288E-03     12.1628E-03     396.476E-03    -173.954E-03    -222.522E-03    -215.158E-03     389.112E-03    -173.954E-03     134.212E-03     460.117E-03     127.403E+06     140.543E+06     91.0777E+06    -4.17538E+06    -4.17445E+06     91.0768E+06     140.543E+06     48.6344E+03
             103     20.3645E-03     15.1284E-03     13.6326E-03     393.446E-03    -174.079E-03    -219.367E-03    -211.508E-03     385.588E-03    -174.079E-03     137.861E-03     458.983E-03     127.264E+06     140.430E+06     91.1048E+06    -4.11357E+06    -4.11291E+06     91.1041E+06     140.430E+06     119.934E+03
             104     21.3727E-03     15.1285E-03     15.0971E-03     387.597E-03    -174.233E-03    -213.364E-03    -205.102E-03     379.335E-03    -174.233E-03     139.942E-03     454.490E-03     126.820E+06     140.433E+06     91.7154E+06    -3.52081E+06    -3.52001E+06     91.7146E+06     140.433E+06    -239.825E+03
             105     22.4190E-03     15.1301E-03     16.5436E-03     381.057E-03    -174.366E-03    -206.691E-03    -198.409E-03     372.775E-03    -174.366E-03     138.549E-03     449.141E-03     126.091E+06     139.111E+06     91.2573E+06    -3.90194E+06    -3.89873E+06     91.2541E+06     139.111E+06    -531.196E+03
             106     23.4995E-03     15.1292E-03     17.9814E-03     375.229E-03    -174.509E-03    -200.720E-03    -192.891E-03     367.400E-03    -174.509E-03     133.360E-03     443.732E-03     125.406E+06     137.573E+06     90.3301E+06    -4.59236E+06    -4.58988E+06     90.3276E+06     137.573E+06    -309.227E+03
             107     24.6148E-03     15.1290E-03     19.4165E-03     368.297E-03    -174.717E-03    -193.580E-03    -186.155E-03     360.872E-03    -174.717E-03     128.322E-03     436.412E-03     124.756E+06     137.402E+06     90.5206E+06    -4.00281E+06    -4.00279E+06     90.5206E+06     137.402E+06     43.3453E+03
             108     25.7470E-03     15.1286E-03     20.8335E-03     362.445E-03    -174.900E-03    -187.544E-03    -180.516E-03     355.417E-03    -174.900E-03     123.516E-03     429.763E-03     124.288E+06     137.360E+06     90.5983E+06    -3.52627E+06    -3.52627E+06     90.5983E+06     137.360E+06     24.8307E+03
             109     26.9054E-03     15.1277E-03     22.2498E-03     359.062E-03    -174.984E-03    -184.077E-03    -177.514E-03     352.498E-03    -174.984E-03     118.691E-03     425.291E-03     123.620E+06     136.114E+06     89.8985E+06    -3.95503E+06    -3.95192E+06     89.8953E+06     136.114E+06     396.313E+03
             110     28.0898E-03     15.1292E-03     23.6674E-03     356.994E-03    -174.995E-03    -181.998E-03    -175.525E-03     350.521E-03    -174.995E-03     117.421E-03     422.681E-03     123.200E+06     135.413E+06     89.6552E+06    -4.11951E+06    -4.11501E+06     89.6508E+06     135.413E+06     637.034E+03
             111     29.2915E-03     15.1295E-03     25.0817E-03     356.932E-03    -174.975E-03    -181.957E-03    -175.677E-03     350.652E-03    -174.975E-03     115.643E-03     422.487E-03     123.306E+06     136.048E+06     90.1595E+06    -3.62260E+06    -3.62116E+06     90.1581E+06     136.048E+06     207.923E+03
             112     30.5136E-03     15.1283E-03     26.4993E-03     357.448E-03    -174.968E-03    -182.480E-03    -176.475E-03     351.443E-03    -174.968E-03     113.245E-03     422.990E-03     123.505E+06     135.403E+06     89.3423E+06    -4.51253E+06    -4.50954E+06     89.3393E+06     135.403E+06    -419.143E+03
             113     31.7529E-03     15.1292E-03     27.9169E-03     356.860E-03    -174.969E-03    -181.891E-03    -175.858E-03     350.827E-03    -174.969E-03     113.379E-03     422.671E-03     123.581E+06     135.575E+06     89.5594E+06    -4.41208E+06    -4.40722E+06     89.5546E+06     135.575E+06    -72.0532E+03
             114     33.0082E-03     15.1297E-03     29.3366E-03     356.462E-03    -174.965E-03    -181.497E-03    -175.318E-03     350.283E-03    -174.965E-03     114.640E-03     422.400E-03     123.384E+06     136.334E+06     90.8117E+06    -3.34264E+06    -3.34008E+06     90.8091E+06     136.334E+06     125.868E+03
             115     34.2734E-03     15.1292E-03     30.7534E-03     356.604E-03    -174.962E-03    -181.642E-03    -175.428E-03     350.390E-03    -174.962E-03     114.996E-03     422.301E-03     122.998E+06     135.558E+06     90.7927E+06    -3.55240E+06    -3.55175E+06     90.7921E+06     135.558E+06    -164.686E+03
             116     35.5492E-03     15.1296E-03     32.1690E-03     356.743E-03    -174.942E-03    -181.802E-03    -175.681E-03     350.623E-03    -174.942E-03     114.169E-03     422.038E-03     122.980E+06     135.352E+06     90.8545E+06    -3.68370E+06    -3.68370E+06     90.8545E+06     135.352E+06     10.2720E+03
             117     36.8369E-03     15.1300E-03     33.5863E-03     356.418E-03    -174.930E-03    -181.488E-03    -175.598E-03     350.528E-03    -174.930E-03     111.940E-03     421.522E-03     123.363E+06     136.086E+06     91.3273E+06    -3.40800E+06    -3.40707E+06     91.3263E+06     136.086E+06    -209.712E+03
             118     38.1320E-03     15.1296E-03     35.0021E-03     356.024E-03    -174.931E-03    -181.093E-03    -175.210E-03     350.141E-03    -174.931E-03     111.798E-03     421.266E-03     123.373E+06     135.955E+06     91.4017E+06    -3.50569E+06    -3.50457E+06     91.4006E+06     135.955E+06    -117.114E+03
             119     39.4388E-03     15.1305E-03     36.4209E-03     356.462E-03    -174.912E-03    -181.551E-03    -175.517E-03     350.429E-03    -174.912E-03     113.308E-03     421.568E-03     123.478E+06     135.259E+06     90.8660E+06    -4.27823E+06    -4.27794E+06     90.8658E+06     135.259E+06     164.047E+03
             120     40.7521E-03     15.1297E-03     37.8395E-03     357.096E-03    -174.905E-03    -182.191E-03    -176.207E-03     351.112E-03    -174.905E-03     112.980E-03     422.005E-03     123.570E+06     135.807E+06     91.5310E+06    -3.80124E+06    -3.80112E+06     91.5309E+06     135.807E+06     91.0114E+03
             121     42.0708E-03     15.1296E-03     39.2562E-03     357.337E-03    -174.926E-03    -182.411E-03    -176.552E-03     351.478E-03    -174.926E-03     111.852E-03     422.277E-03     123.457E+06     135.728E+06     91.7580E+06    -3.69425E+06    -3.69363E+06     91.7573E+06     135.728E+06     190.976E+03
             122     43.3982E-03     15.1286E-03     40.6759E-03     357.123E-03    -174.958E-03    -182.165E-03    -176.316E-03     351.274E-03    -174.958E-03     111.710E-03     421.971E-03     123.605E+06     135.529E+06     91.5102E+06    -4.06077E+06    -4.05741E+06     91.5069E+06     135.529E+06     533.821E+03
             123     44.7305E-03     15.1292E-03     42.0943E-03     356.102E-03    -174.969E-03    -181.132E-03    -175.239E-03     350.208E-03    -174.969E-03     111.919E-03     421.044E-03     123.266E+06     135.268E+06     91.9486E+06    -3.80844E+06    -3.80279E+06     91.9429E+06     135.268E+06    -8.68662E+03
             124     46.0629E-03     15.1301E-03     43.5072E-03     355.556E-03    -174.941E-03    -180.615E-03    -174.702E-03     349.642E-03    -174.941E-03     111.995E-03     420.622E-03     123.419E+06     135.205E+06     92.1034E+06    -3.98456E+06    -3.98152E+06     92.1003E+06     135.205E+06    -285.870E+03
             125     47.4074E-03     15.1304E-03     44.9281E-03     356.349E-03    -174.919E-03    -181.430E-03    -175.469E-03     350.388E-03    -174.919E-03     112.611E-03     421.278E-03     124.019E+06     136.201E+06      92.623E+06    -3.72449E+06    -3.72349E+06      92.622E+06     136.201E+06     287.634E+03
             126     48.7521E-03     15.1292E-03     46.3451E-03     356.861E-03    -174.923E-03    -181.938E-03    -176.012E-03     350.935E-03    -174.923E-03     112.389E-03     421.852E-03     123.875E+06     135.405E+06     92.2219E+06    -4.28168E+06    -4.28060E+06     92.2208E+06     135.405E+06     309.352E+03
             127     50.1002E-03     15.1299E-03     47.7610E-03     356.614E-03    -174.934E-03    -181.680E-03    -175.836E-03     350.769E-03    -174.934E-03     111.569E-03     421.765E-03     123.960E+06     136.171E+06     93.1138E+06    -3.57618E+06    -3.57143E+06     93.1090E+06     136.171E+06    -359.126E+03
             128     51.4554E-03     15.1294E-03     49.1809E-03     356.659E-03    -174.936E-03    -181.723E-03    -175.806E-03     350.742E-03    -174.936E-03     112.256E-03     421.696E-03     124.478E+06     136.651E+06     93.2049E+06    -3.72811E+06    -3.72003E+06     93.1968E+06     136.651E+06    -50.8798E+03
             129     52.8122E-03     15.1300E-03     50.5985E-03     356.761E-03    -174.938E-03    -181.823E-03    -175.886E-03     350.824E-03    -174.938E-03     112.468E-03     421.756E-03     124.634E+06     136.595E+06     93.2752E+06    -3.91776E+06    -3.91371E+06     93.2711E+06     136.595E+06     569.853E+03
             130     54.1717E-03     15.1292E-03     52.0161E-03     356.114E-03    -174.953E-03    -181.160E-03    -175.299E-03     350.253E-03    -174.953E-03     111.621E-03     421.166E-03     124.624E+06     136.534E+06     93.4885E+06    -3.90716E+06    -3.90585E+06     93.4872E+06     136.534E+06    -46.8740E+03
             131     55.5324E-03     15.1301E-03     53.4315E-03     355.807E-03    -174.955E-03    -180.853E-03    -174.944E-03     349.899E-03    -174.955E-03     111.996E-03     420.925E-03     124.967E+06     136.418E+06     93.2647E+06    -4.40610E+06    -4.40489E+06     93.2635E+06     136.418E+06    -338.512E+03
             132     56.8979E-03     15.1296E-03     54.8495E-03     356.566E-03    -174.938E-03    -181.628E-03    -175.676E-03     350.614E-03    -174.938E-03     112.568E-03     421.816E-03     125.088E+06     137.146E+06     94.1725E+06    -3.76393E+06    -3.76310E+06     94.1716E+06     137.146E+06     9.63080E+03
             133     58.2679E-03     15.1296E-03     56.2693E-03     356.736E-03    -174.930E-03    -181.805E-03    -175.779E-03     350.709E-03    -174.930E-03     113.300E-03     421.934E-03     125.088E+06     137.057E+06     94.4372E+06    -3.77191E+06    -3.77019E+06     94.4355E+06     137.057E+06     398.342E+03
             134     59.6365E-03     15.1305E-03     57.6851E-03     356.369E-03    -174.923E-03    -181.446E-03    -175.452E-03     350.375E-03    -174.923E-03     112.908E-03     421.524E-03     124.929E+06     136.295E+06     94.2464E+06    -4.23242E+06    -4.23111E+06     94.2451E+06     136.295E+06     294.573E+03
             135     61.0078E-03     15.1296E-03     59.1021E-03     356.311E-03    -174.920E-03    -181.390E-03    -175.514E-03     350.435E-03    -174.920E-03     111.804E-03     421.534E-03     124.749E+06     136.295E+06     94.8175E+06    -3.90937E+06    -3.90910E+06     94.8172E+06     136.295E+06    -62.8916E+03
             136     62.3820E-03     15.1304E-03     60.5193E-03     356.263E-03    -174.925E-03    -181.338E-03    -175.428E-03     350.353E-03    -174.925E-03     112.109E-03     421.448E-03     125.042E+06     136.895E+06     95.4130E+06    -3.61578E+06    -3.61546E+06     95.4127E+06     136.895E+06    -41.3796E+03
             137     63.7592E-03     15.1297E-03     61.9381E-03     356.566E-03    -174.926E-03    -181.640E-03    -175.665E-03     350.591E-03    -174.926E-03     112.788E-03     421.700E-03     125.415E+06     137.210E+06     95.6063E+06    -3.72081E+06    -3.72040E+06     95.6058E+06     137.210E+06    -60.7939E+03
             138     65.1366E-03     15.1300E-03     63.3551E-03     356.676E-03    -174.915E-03    -181.761E-03    -175.779E-03     350.694E-03    -174.915E-03     112.868E-03     421.669E-03     125.758E+06     137.198E+06     95.6033E+06    -4.08820E+06    -4.08745E+06     95.6025E+06     137.198E+06     20.5074E+03
             139     66.5160E-03     15.1306E-03     64.7722E-03     356.276E-03    -174.902E-03    -181.374E-03    -175.465E-03     350.368E-03    -174.902E-03     112.101E-03     421.254E-03     125.855E+06     137.277E+06      96.089E+06    -4.01105E+06    -4.01059E+06     96.0885E+06     137.277E+06     178.461E+03
             140     67.8973E-03     15.1302E-03     66.1900E-03     356.242E-03    -174.916E-03    -181.326E-03    -175.397E-03     350.312E-03    -174.916E-03     112.291E-03     421.408E-03     125.812E+06     137.298E+06     96.6385E+06     -3.8148E+06    -3.81464E+06     96.6384E+06     137.298E+06     113.230E+03
             141     69.2805E-03     15.1297E-03     67.6083E-03     356.550E-03    -174.940E-03    -181.610E-03    -175.612E-03     350.552E-03    -174.940E-03     112.998E-03     421.715E-03     125.753E+06     136.762E+06     96.5180E+06    -4.18708E+06    -4.18671E+06     96.5177E+06     136.762E+06     191.766E+03
             142     70.6636E-03     15.1294E-03     69.0250E-03     356.473E-03    -174.937E-03    -181.535E-03    -175.510E-03     350.447E-03    -174.937E-03     113.231E-03     421.573E-03     125.812E+06     137.206E+06     97.3645E+06    -3.70319E+06    -3.70086E+06     97.3622E+06     137.206E+06     435.064E+03
             143     72.0480E-03     15.1310E-03     70.4412E-03     356.182E-03    -174.906E-03    -181.276E-03    -175.273E-03     350.178E-03    -174.906E-03     112.968E-03     421.247E-03     126.114E+06     137.428E+06     97.9184E+06    -3.70965E+06    -3.70689E+06     97.9156E+06     137.428E+06     138.036E+03
             144     73.4356E-03     15.1303E-03     71.8600E-03     356.543E-03    -174.893E-03    -181.650E-03    -175.664E-03     350.557E-03    -174.893E-03     112.889E-03     421.565E-03     126.224E+06     137.199E+06     98.1533E+06    -3.93463E+06    -3.93211E+06     98.1508E+06     137.199E+06     119.820E+03
             145     74.8232E-03     15.1301E-03     73.2775E-03     356.954E-03    -174.905E-03    -182.049E-03    -176.070E-03     350.975E-03    -174.905E-03     112.906E-03     421.914E-03     126.585E+06     137.478E+06     98.4932E+06    -4.01362E+06    -4.01178E+06     98.4913E+06     137.478E+06     318.814E+03
             146     76.2123E-03     15.1299E-03     74.6954E-03     356.452E-03    -174.915E-03    -181.537E-03    -175.644E-03     350.558E-03    -174.915E-03     111.996E-03     421.400E-03     126.609E+06     137.731E+06     99.2034E+06    -3.66562E+06    -3.66562E+06     99.2034E+06     137.731E+06     14.1700E+03
             147     77.6000E-03     15.1305E-03     76.1106E-03     356.234E-03    -174.916E-03    -181.318E-03    -175.451E-03     350.366E-03    -174.916E-03     111.708E-03     421.319E-03     126.698E+06     137.042E+06     99.1003E+06    -4.29188E+06    -4.29185E+06     99.1003E+06     137.042E+06    -38.2833E+03
             148     78.9932E-03     15.1296E-03     77.5308E-03     356.607E-03    -174.927E-03    -181.680E-03    -175.775E-03     350.701E-03    -174.927E-03     112.143E-03     421.669E-03     126.744E+06     137.348E+06     98.9135E+06    -4.16359E+06    -4.16355E+06     98.9135E+06     137.348E+06    -58.8216E+03
             149     81.7763E-03     15.1306E-03     80.3644E-03     356.113E-03    -174.916E-03    -181.196E-03    -175.236E-03     350.152E-03    -174.916E-03     112.548E-03     421.075E-03     126.346E+06     136.455E+06     99.4407E+06    -4.26374E+06    -4.25887E+06     99.4358E+06     136.455E+06     260.502E+03
             150     83.1696E-03     15.1298E-03     81.7819E-03     356.526E-03    -174.915E-03    -181.611E-03    -175.731E-03     350.646E-03    -174.915E-03     111.885E-03     421.680E-03     127.012E+06     137.223E+06     100.281E+06    -4.16379E+06    -4.16287E+06     100.280E+06     137.223E+06    -289.743E+03
             151     84.5639E-03     15.1300E-03     83.1993E-03     356.211E-03    -174.915E-03    -181.296E-03    -175.385E-03     350.299E-03    -174.915E-03     112.116E-03     421.301E-03     126.871E+06     137.563E+06     100.758E+06    -3.64057E+06    -3.64014E+06     100.758E+06     137.563E+06     31.3235E+03
             152     85.9593E-03     15.1311E-03     84.6171E-03     355.991E-03    -174.900E-03    -181.091E-03    -175.098E-03     349.998E-03    -174.900E-03     112.833E-03     420.991E-03     126.783E+06     136.797E+06     99.9993E+06    -4.31372E+06    -4.31275E+06     99.9984E+06     136.797E+06    -68.5687E+03
             153     87.3541E-03     15.1301E-03     86.0338E-03     356.749E-03    -174.903E-03    -181.845E-03    -175.916E-03     350.819E-03    -174.903E-03     112.397E-03     421.766E-03     127.040E+06     138.307E+06     100.451E+06    -3.35661E+06    -3.35122E+06     100.445E+06     138.307E+06     302.508E+03
             154     88.7520E-03     15.1298E-03     87.4528E-03     356.331E-03    -174.929E-03    -181.402E-03    -175.489E-03     350.418E-03    -174.929E-03     112.147E-03     421.312E-03     127.108E+06     137.754E+06     100.496E+06    -3.81407E+06    -3.80933E+06     100.491E+06     137.754E+06     451.581E+03
             155     90.1479E-03     15.1305E-03     88.8691E-03     356.214E-03    -174.932E-03    -181.282E-03    -175.252E-03     350.184E-03    -174.932E-03     113.228E-03     421.294E-03     126.799E+06     136.730E+06     100.477E+06    -4.24640E+06    -4.24632E+06     100.477E+06     136.730E+06     8.32096E+03
             156     91.5451E-03     15.1295E-03     90.2862E-03     356.981E-03    -174.913E-03    -182.068E-03    -176.136E-03     351.048E-03    -174.913E-03     112.474E-03     421.907E-03     127.146E+06     137.535E+06     101.169E+06    -3.83148E+06    -3.83139E+06     101.169E+06     137.535E+06         309.777
             157     92.9448E-03     15.1306E-03     91.7050E-03     356.344E-03    -174.908E-03    -181.437E-03    -175.581E-03     350.489E-03    -174.908E-03     111.621E-03     421.194E-03     127.387E+06     137.872E+06     101.059E+06    -3.86619E+06    -3.86551E+06     101.058E+06     137.872E+06     132.558E+03
             158     94.3421E-03     15.1307E-03     93.1209E-03     355.785E-03    -174.900E-03    -180.885E-03    -174.956E-03     349.856E-03    -174.900E-03     112.189E-03     420.850E-03     127.577E+06     138.167E+06     101.202E+06    -3.80980E+06    -3.80898E+06     101.201E+06     138.167E+06     278.403E+03
             159     95.7422E-03     15.1310E-03     94.5390E-03     356.199E-03    -174.887E-03    -181.312E-03    -175.349E-03     350.236E-03    -174.887E-03     112.597E-03     421.317E-03     127.755E+06     138.086E+06     101.572E+06    -3.95052E+06    -3.94977E+06     101.571E+06     138.086E+06     270.183E+03
             160     97.1424E-03     15.1304E-03     95.9569E-03     356.353E-03    -174.899E-03    -181.454E-03    -175.537E-03     350.437E-03    -174.899E-03     112.197E-03     421.447E-03     127.754E+06     138.184E+06     102.578E+06    -3.59198E+06    -3.59035E+06     102.577E+06     138.184E+06     411.562E+03
             161     98.5411E-03     15.1302E-03     97.3727E-03     355.970E-03    -174.912E-03    -181.058E-03    -175.195E-03     350.107E-03    -174.912E-03     111.614E-03     421.109E-03     128.279E+06     137.881E+06     103.142E+06    -4.18955E+06    -4.18844E+06     103.141E+06     137.881E+06     184.504E+03
             162     99.9409E-03     15.1310E-03     98.7889E-03     356.004E-03    -174.889E-03    -181.116E-03    -175.201E-03     350.090E-03    -174.889E-03     112.099E-03     421.169E-03     128.926E+06     138.311E+06     103.639E+06    -4.40510E+06    -4.40394E+06     103.637E+06     138.311E+06    -297.975E+03
             163     101.344E-03     15.1312E-03     100.208E-03     356.589E-03    -174.861E-03    -181.728E-03    -175.766E-03     350.627E-03    -174.861E-03     112.675E-03     421.687E-03     128.955E+06     138.934E+06     104.348E+06    -3.78751E+06    -3.78257E+06     104.343E+06     138.934E+06     210.296E+03
             164     102.747E-03     15.1308E-03     101.627E-03     356.629E-03    -174.873E-03    -181.757E-03    -175.830E-03     350.702E-03    -174.873E-03     112.354E-03     421.727E-03     129.122E+06     138.635E+06     104.825E+06    -4.02572E+06    -4.02042E+06     104.819E+06     138.635E+06     171.891E+03
             165     104.147E-03     15.1304E-03     103.042E-03     356.503E-03    -174.904E-03    -181.599E-03    -175.729E-03     350.633E-03    -174.904E-03     111.792E-03     421.554E-03     129.171E+06     138.684E+06     103.923E+06    -4.29924E+06    -4.29661E+06     103.921E+06     138.684E+06    -532.235E+03
             166     105.552E-03     15.1300E-03     104.462E-03     356.599E-03    -174.918E-03    -181.682E-03    -175.754E-03     350.672E-03    -174.918E-03     112.345E-03     421.591E-03     129.638E+06     140.319E+06     103.646E+06    -3.70479E+06    -3.70212E+06     103.643E+06     140.319E+06     35.5222E+03
             167     106.955E-03     15.1310E-03     105.879E-03     356.019E-03    -174.903E-03    -181.117E-03    -175.133E-03     350.035E-03    -174.903E-03     112.754E-03     421.016E-03     129.863E+06     140.402E+06     103.715E+06    -3.85781E+06    -3.85241E+06     103.710E+06     140.402E+06     741.513E+03
             168     108.357E-03     15.1316E-03     107.295E-03     355.526E-03    -174.880E-03    -180.646E-03    -174.696E-03     349.576E-03    -174.880E-03     112.337E-03     420.641E-03     130.171E+06     140.228E+06     104.248E+06    -4.14641E+06    -4.14080E+06     104.243E+06     140.228E+06     150.243E+03
             169     109.759E-03     15.1314E-03     108.711E-03     355.927E-03    -174.854E-03    -181.073E-03    -175.169E-03     350.023E-03    -174.854E-03     111.993E-03     421.124E-03     130.626E+06     141.144E+06     105.514E+06    -3.60026E+06    -3.59424E+06     105.508E+06     141.144E+06     176.769E+03
             170     111.163E-03     15.1320E-03     110.128E-03     355.746E-03    -174.828E-03    -180.918E-03    -175.033E-03     349.861E-03    -174.828E-03     111.777E-03     420.963E-03     132.495E+06     141.659E+06     107.374E+06    -4.59470E+06    -4.59036E+06     107.369E+06     141.659E+06     446.983E+03
             171     112.567E-03     15.1328E-03     111.545E-03     355.847E-03    -174.794E-03    -181.054E-03    -175.047E-03     349.841E-03    -174.794E-03     112.938E-03     420.898E-03     134.033E+06     143.979E+06     109.422E+06    -3.93583E+06    -3.92853E+06     109.415E+06     143.979E+06     599.299E+03
             172     113.971E-03     15.1332E-03     112.962E-03     356.353E-03    -174.758E-03    -181.595E-03    -175.664E-03     350.422E-03    -174.758E-03     112.333E-03     421.162E-03     135.615E+06     145.955E+06     111.080E+06    -3.67797E+06    -3.67068E+06     111.072E+06     145.955E+06     627.900E+03
             173     115.378E-03     15.1331E-03     114.381E-03     355.788E-03    -174.743E-03    -181.044E-03    -175.110E-03     349.853E-03    -174.743E-03     112.250E-03     420.833E-03     137.667E+06     147.578E+06     114.277E+06    -3.68496E+06    -3.65156E+06     114.243E+06     147.578E+06     1.39166E+06
             174     116.780E-03     15.1350E-03     115.795E-03     355.418E-03    -174.700E-03    -180.717E-03    -174.640E-03     349.340E-03    -174.700E-03     113.511E-03     420.552E-03     140.841E+06     148.730E+06     118.317E+06    -4.79710E+06    -4.76222E+06     118.282E+06     148.730E+06     1.70852E+06
             175     118.188E-03     15.1349E-03     117.215E-03     355.612E-03    -174.648E-03    -180.964E-03    -174.883E-03     349.531E-03    -174.648E-03     113.595E-03     420.729E-03     143.794E+06     151.277E+06     123.259E+06    -4.46339E+06    -4.42265E+06     123.218E+06     151.277E+06     1.88473E+06
             176     119.590E-03     15.1362E-03     118.628E-03     354.942E-03    -174.598E-03    -180.344E-03    -174.307E-03     348.906E-03    -174.598E-03     113.047E-03     420.118E-03     147.334E+06     154.178E+06     128.373E+06    -4.32459E+06    -4.28471E+06     128.333E+06     154.178E+06     1.78570E+06
             177     120.993E-03     15.1380E-03     120.042E-03     353.683E-03    -174.492E-03    -179.192E-03    -173.188E-03     347.679E-03    -174.492E-03     112.487E-03     418.830E-03     150.045E+06     156.243E+06     132.246E+06    -4.35140E+06    -4.34077E+06     132.236E+06     156.243E+06     1.02949E+06
             178     122.395E-03     15.1415E-03     121.455E-03     354.098E-03    -174.333E-03    -179.764E-03    -173.650E-03     347.984E-03    -174.333E-03     113.607E-03     419.159E-03     153.801E+06     159.281E+06     136.693E+06    -4.54296E+06    -4.52495E+06     136.675E+06     159.281E+06     1.58983E+06
             179     123.804E-03     15.1419E-03     122.875E-03     354.466E-03    -174.195E-03    -180.271E-03    -174.210E-03     348.406E-03    -174.195E-03     113.204E-03     419.761E-03     157.998E+06     162.667E+06     141.913E+06    -4.68163E+06    -4.66770E+06     141.900E+06     162.667E+06     1.42518E+06
             180     125.204E-03     15.1453E-03     124.284E-03     352.933E-03    -174.054E-03    -178.879E-03    -172.789E-03     346.843E-03    -174.054E-03     113.155E-03     418.565E-03     160.820E+06     164.859E+06     145.191E+06    -4.88153E+06    -4.86808E+06     145.178E+06     164.859E+06     1.41905E+06
             181     126.607E-03     15.1492E-03     125.698E-03     351.403E-03    -173.827E-03    -177.576E-03    -171.264E-03     345.091E-03    -173.827E-03     114.867E-03     416.881E-03     164.520E+06     168.366E+06     148.882E+06    -5.02421E+06    -5.00473E+06     148.863E+06     168.366E+06     1.71947E+06
             182     128.009E-03     15.1549E-03     127.108E-03     349.808E-03    -173.514E-03    -176.293E-03    -169.872E-03     343.386E-03    -173.514E-03     115.532E-03     415.389E-03     167.163E+06     171.403E+06     149.531E+06    -5.61801E+06    -5.58746E+06     149.500E+06     171.403E+06    -255.852E+03
             183     129.401E-03     15.1614E-03     128.510E-03     347.250E-03    -173.087E-03    -174.162E-03    -167.660E-03     340.748E-03    -173.087E-03     115.720E-03     413.026E-03     168.521E+06     176.443E+06     149.564E+06    -3.86343E+06    -3.79942E+06     149.500E+06     176.443E+06     629.684E+03
             184     130.798E-03     15.1730E-03     129.915E-03     342.570E-03    -170.106E-03    -172.464E-03    -163.174E-03     335.613E-03    -172.439E-03     118.557E-03     408.129E-03     174.029E+06     182.070E+06     153.157E+06    -4.58491E+06    -4.51826E+06     153.090E+06     182.070E+06     3.16881E+06
             185     132.180E-03     15.1908E-03     131.305E-03     335.083E-03    -163.695E-03    -171.388E-03    -155.873E-03     327.261E-03    -171.388E-03     123.850E-03     400.510E-03     180.170E+06     189.223E+06     158.557E+06    -4.28104E+06    -4.14879E+06     158.425E+06     189.223E+06     4.30127E+06
             186     133.551E-03     15.2201E-03     132.680E-03     327.173E-03    -157.447E-03    -169.726E-03    -148.700E-03     318.426E-03    -169.726E-03     128.962E-03     393.097E-03     187.490E+06     195.743E+06     163.993E+06    -5.56322E+06    -5.41719E+06     163.847E+06     195.743E+06     4.74616E+06
             187     134.914E-03     15.2559E-03     134.049E-03     324.545E-03    -157.009E-03    -167.536E-03    -147.924E-03     315.460E-03    -167.536E-03     131.023E-03     392.591E-03     191.240E+06     200.225E+06     168.380E+06    -4.91608E+06    -4.75527E+06     168.219E+06     200.225E+06     5.01108E+06
             188     136.284E-03     15.2866E-03     135.424E-03     333.224E-03    -161.673E-03    -171.551E-03    -159.687E-03     324.968E-03    -165.281E-03     127.358E-03     405.052E-03     194.058E+06     199.310E+06     165.163E+06    -9.54977E+06    -9.26609E+06     164.879E+06     199.310E+06    -554.492E+03
             189     137.679E-03     15.3029E-03     136.826E-03     353.108E-03    -163.557E-03    -189.551E-03    -182.604E-03     346.161E-03    -163.557E-03     121.729E-03     427.678E-03     192.110E+06     206.866E+06     154.612E+06    -5.02449E+06    -4.82496E+06     154.413E+06     206.866E+06    -2.10518E+06
             190     139.117E-03     15.3064E-03     138.272E-03     374.475E-03    -162.625E-03    -211.850E-03    -205.553E-03     368.178E-03    -162.625E-03     120.843E-03     449.614E-03     199.808E+06     218.192E+06     147.558E+06      -7.258E+06    -7.11112E+06     147.411E+06     218.192E+06    -1.32688E+06
             191     140.576E-03     15.3057E-03     139.740E-03     390.007E-03    -162.185E-03    -227.822E-03    -221.262E-03     383.448E-03    -162.185E-03     126.633E-03     463.804E-03     199.960E+06     221.661E+06     144.249E+06    -5.02676E+06    -4.82619E+06     144.049E+06     221.661E+06    -568.001E+03
             192     142.044E-03     15.3070E-03     141.217E-03     400.350E-03    -161.920E-03    -238.430E-03    -231.740E-03     393.659E-03    -161.920E-03     130.033E-03     472.679E-03     198.930E+06     217.415E+06     140.862E+06    -7.98704E+06    -7.72589E+06     140.601E+06     217.415E+06    -1.32662E+06
             193     143.527E-03     15.3046E-03     142.708E-03     406.180E-03    -161.788E-03    -244.392E-03    -237.688E-03     399.476E-03    -161.788E-03     131.390E-03     477.994E-03     194.712E+06     216.464E+06     137.607E+06    -4.52159E+06    -4.01320E+06     137.098E+06     216.464E+06     599.073E+03
             194     145.007E-03     15.3069E-03     144.197E-03     410.071E-03    -161.714E-03    -248.357E-03    -241.479E-03     403.193E-03    -161.714E-03     133.881E-03     480.632E-03     195.652E+06     211.620E+06     123.159E+06    -12.3955E+06    -10.5674E+06     121.331E+06     211.620E+06    -6.38863E+06
             195     146.499E-03     15.3043E-03     145.698E-03     413.014E-03    -161.626E-03    -251.388E-03    -244.618E-03     406.244E-03    -161.626E-03     133.445E-03     483.078E-03     184.329E+06     206.905E+06     106.839E+06    -3.01249E+06     195.416E+03     103.631E+06     206.905E+06    -3.72899E+06
             196     147.987E-03     15.3071E-03     147.193E-03     413.887E-03    -161.592E-03    -252.295E-03    -245.663E-03     407.255E-03    -161.592E-03     132.269E-03     484.048E-03     186.552E+06     200.977E+06     91.0334E+06    -12.6925E+06    -9.26470E+06     87.6056E+06     200.977E+06    -4.01865E+06
             197     149.478E-03     15.3048E-03     148.692E-03     413.082E-03    -161.583E-03    -251.500E-03    -245.224E-03     406.807E-03    -161.583E-03     128.515E-03     482.586E-03     190.355E+06     204.538E+06     79.4534E+06    -8.89135E+06    -1.78808E+06     72.3501E+06     204.538E+06    -3.83340E+06
             198     150.961E-03     15.3089E-03     150.183E-03     411.770E-03    -161.539E-03    -250.231E-03    -244.498E-03     406.037E-03    -161.539E-03     122.657E-03     479.428E-03     195.167E+06     201.396E+06     64.6620E+06    -18.0738E+06    -10.0825E+06     56.6706E+06     201.396E+06    -5.77698E+06
             199     152.447E-03     15.3064E-03     151.676E-03     405.133E-03    -161.644E-03    -243.488E-03    -238.342E-03     399.986E-03    -161.644E-03     115.057E-03     467.314E-03     214.075E+06     215.883E+06     67.2428E+06    -26.4374E+06    -166.204E+03     40.9717E+06     215.883E+06    -5.59345E+06
             200     153.926E-03     15.3142E-03     153.162E-03     389.019E-03    -161.901E-03    -227.118E-03    -222.556E-03     384.457E-03    -161.901E-03     105.639E-03     447.822E-03     215.828E+06     212.726E+06     55.2595E+06    -31.3903E+06    -6.49898E+06     30.3682E+06     212.726E+06    -1.09393E+06
             201     155.345E-03     15.3092E-03     154.588E-03     368.683E-03    -162.174E-03    -206.509E-03    -202.799E-03     364.973E-03    -162.174E-03     91.8859E-03     440.520E-03     215.233E+06     213.219E+06     72.7241E+06    -34.5161E+06     9.74312E+06     28.4649E+06     213.219E+06     3.84212E+06
             202     156.754E-03     15.3233E-03     156.004E-03     292.559E-03    -111.873E-03    -180.686E-03    -127.164E-03     291.017E-03    -163.853E-03     40.5076E-03     385.846E-03     184.708E+06     174.592E+06     99.5286E+06    -28.8679E+06     17.4547E+06     53.2061E+06     174.592E+06    -3.70673E+06
             203     157.760E-03     14.2819E-03     157.112E-03     224.183E-03    -56.0093E-03    -168.174E-03    -55.8802E-03     224.054E-03    -168.174E-03    -9.06760E-03     330.926E-03     185.377E+06     101.059E+06     32.1790E+06    -103.684E+06    -46.4691E+06    -25.0363E+06     101.059E+06    -18.4730E+06
             204     157.329E-03     13.2979E-03     156.766E-03     216.502E-03    -43.1412E-03    -173.361E-03    -40.2011E-03     213.562E-03    -173.361E-03    -45.2036E-03     319.523E-03     167.796E+06     128.342E+06     25.6860E+06    -65.2910E+06    -10.2739E+06    -29.3311E+06     128.342E+06     -8.6491E+06
             205     156.873E-03     12.3770E-03     156.384E-03     211.039E-03    -32.7838E-03    -178.255E-03    -26.0101E-03     204.265E-03    -178.255E-03    -79.7831E-03     300.055E-03     148.397E+06     143.389E+06     42.0308E+06    -26.5648E+06     5.16227E+06     10.3038E+06     143.389E+06    -632.706E+03
             206     156.411E-03     11.4617E-03     155.991E-03     218.093E-03    -35.0587E-03    -183.034E-03    -24.2176E-03     207.251E-03    -183.034E-03    -101.816E-03     294.897E-03     143.952E+06     136.781E+06     25.7644E+06    -25.6942E+06     6.23660E+06    -6.16637E+06     136.781E+06     713.920E+03
             207     155.949E-03     10.5658E-03     155.591E-03     236.439E-03    -49.3587E-03    -187.080E-03    -31.7972E-03     218.878E-03    -187.080E-03    -136.841E-03     301.549E-03     137.516E+06     136.067E+06     18.7500E+06    -14.9993E+06    -70.1088E+03     3.82084E+06     136.067E+06    -2.81380E+06
             208     155.498E-03     9.69956E-03     155.195E-03     259.393E-03    -69.6739E-03    -189.719E-03    -44.6960E-03     234.415E-03    -189.719E-03    -174.163E-03     313.336E-03     139.271E+06     139.443E+06     16.7034E+06    -11.8968E+06     5.82419E+06    -1.01759E+06     139.443E+06    -4.50356E+06
             209     155.054E-03     8.85323E-03     154.801E-03     282.705E-03    -92.2588E-03    -190.446E-03    -59.9135E-03     250.359E-03    -190.446E-03    -210.445E-03     325.634E-03     136.726E+06     137.181E+06     16.1395E+06    -11.0870E+06     5.47850E+06    -425.935E+03     137.181E+06    -7.63584E+06
             210     154.629E-03     8.03761E-03     154.420E-03     304.843E-03    -115.756E-03    -189.087E-03    -77.5307E-03     266.618E-03    -189.087E-03    -241.797E-03     337.583E-03     134.062E+06     131.689E+06     12.3003E+06    -13.3282E+06     4.84950E+06    -5.87741E+06     131.689E+06    -7.54251E+06
             211     154.239E-03     7.24051E-03     154.069E-03     323.640E-03    -137.920E-03    -185.720E-03    -97.1180E-03     282.838E-03    -185.720E-03    -262.021E-03     347.458E-03     126.574E+06     125.207E+06     13.2023E+06    -12.1100E+06     4.51058E+06    -3.41833E+06     125.207E+06    -10.2868E+06
             212     153.880E-03     6.46019E-03     153.744E-03     335.177E-03    -154.391E-03    -180.787E-03    -115.125E-03     295.911E-03    -180.787E-03    -265.745E-03     352.075E-03     120.494E+06     118.034E+06     15.4433E+06    -14.4425E+06     6.27119E+06    -5.27035E+06     118.034E+06    -12.5737E+06
             213     153.567E-03     5.68239E-03     153.462E-03     340.408E-03    -165.581E-03    -174.827E-03    -131.356E-03     306.183E-03    -174.827E-03    -253.757E-03     352.035E-03     115.455E+06     114.324E+06     23.0526E+06    -15.4170E+06     12.2103E+06    -4.57475E+06     114.324E+06    -16.0771E+06
             214     153.297E-03     4.90293E-03     153.218E-03     339.530E-03    -167.610E-03    -171.920E-03    -144.065E-03     312.317E-03    -168.252E-03    -228.779E-03     347.500E-03     110.021E+06     108.108E+06     26.3029E+06    -16.9013E+06     19.6811E+06    -10.2796E+06     108.108E+06    -15.5549E+06
             215     153.074E-03     4.11929E-03     153.018E-03     331.326E-03    -161.621E-03    -169.706E-03    -150.664E-03     312.285E-03    -161.621E-03    -190.499E-03     336.944E-03     99.0005E+06     100.627E+06     35.1761E+06    -13.0515E+06     28.6875E+06    -6.56289E+06     100.627E+06    -16.3591E+06
             216     152.891E-03     3.31996E-03     152.855E-03     318.864E-03    -155.651E-03    -163.213E-03    -151.244E-03     306.895E-03    -155.651E-03    -149.077E-03     323.040E-03     90.9707E+06     92.4792E+06     44.3438E+06    -12.1771E+06     39.6371E+06    -7.47035E+06     92.4792E+06    -15.3997E+06
             217     152.753E-03     2.50217E-03     152.733E-03     306.248E-03    -150.859E-03    -155.389E-03    -148.342E-03     299.201E-03    -150.859E-03    -112.091E-03     309.701E-03     82.4072E+06     84.2651E+06     53.3465E+06    -8.87714E+06     50.2724E+06    -5.80303E+06     84.2651E+06    -13.4015E+06
             218     152.651E-03     1.67143E-03     152.642E-03     296.561E-03    -147.443E-03    -149.117E-03    -145.570E-03     293.013E-03    -147.443E-03    -77.5822E-03     299.636E-03     74.2710E+06     73.6065E+06     57.6461E+06    -7.19102E+06     55.4858E+06    -5.03072E+06     73.6065E+06    -11.5901E+06
             219     152.592E-03     836.579E-06     152.590E-03     290.861E-03    -145.000E-03    -145.861E-03    -144.578E-03     289.578E-03    -145.000E-03    -44.4475E-03     293.847E-03     71.9703E+06     63.3171E+06     56.2339E+06    -11.8860E+06     54.7994E+06    -10.4516E+06     63.3171E+06    -9.65469E+06
             220     151.237E-03     345.963E-09     151.237E-03     236.595E-03    -117.839E-03    -118.755E-03    -118.139E-03     236.321E-03    -118.183E-03    -19.0482E-03     238.296E-03     48.2009E+06     10.6914E+06    -1.22901E+06    -39.9557E+06     625.012E+03    -31.9333E+06     815.056E+03    -11.0338E+06
             221     150.033E-03    -787.786E-09     150.033E-03     154.574E-03    -76.8737E-03    -77.7002E-03    -76.8272E-03     154.527E-03    -77.7002E-03    -4.20510E-03     154.789E-03     41.6778E+06    -71.1815E+06    -110.176E+06    -114.603E+06    -107.386E+06    -78.3987E+06    -110.176E+06    -12.1573E+06
             222     148.901E-03    -17.7961E-09     148.901E-03     109.297E-03    -54.3527E-03    -54.9438E-03    -54.4178E-03     109.254E-03    -54.8359E-03     4.17293E-03     109.384E-03     90.6200E+06    -128.863E+06    -218.106E+06    -220.797E+06    -219.034E+06    -130.626E+06    -218.106E+06    -12.2309E+06
             223     147.806E-03     172.717E-09     147.806E-03     89.7646E-03    -44.6797E-03    -45.0848E-03    -44.9297E-03     89.6094E-03    -44.6797E-03     8.82241E-03     89.8319E-03     139.777E+06    -183.162E+06    -318.505E+06    -326.940E+06    -324.391E+06    -185.711E+06    -318.505E+06    -18.7973E+06
             224     146.719E-03     208.458E-09     146.719E-03     93.0281E-03    -46.1302E-03    -46.8978E-03    -46.6076E-03     92.7378E-03    -46.1302E-03     12.7018E-03     93.0793E-03     166.980E+06    -235.293E+06    -394.631E+06    -408.983E+06    -399.164E+06    -237.064E+06    -402.679E+06    -12.1875E+06
             225     145.616E-03     228.822E-09     145.616E-03     116.645E-03    -57.8606E-03    -58.7842E-03    -58.4366E-03     116.297E-03    -57.8606E-03     15.5557E-03     116.675E-03     110.185E+06    -239.194E+06    -340.603E+06    -355.804E+06    -344.498E+06    -242.453E+06    -348.651E+06     8.00126E+06
             226     144.475E-03     363.262E-09     144.475E-03     153.795E-03    -76.4790E-03    -77.3163E-03    -77.0151E-03     153.494E-03    -76.4790E-03     16.5222E-03     153.809E-03     42.6244E+06    -177.424E+06    -199.522E+06    -224.710E+06    -200.263E+06    -201.870E+06    -199.522E+06     14.2292E+06
             227     143.286E-03     100.093E-09     143.286E-03     193.721E-03    -96.1833E-03    -97.5378E-03    -96.3546E-03     193.508E-03    -97.1537E-03     15.5119E-03     193.762E-03     46.5265E+06    -118.558E+06    -125.839E+06    -168.215E+06    -122.689E+06    -166.556E+06    -123.368E+06     5.58870E+06
             228     142.048E-03    -1.94437E-06     142.048E-03     229.245E-03    -113.438E-03    -115.808E-03    -114.708E-03     229.116E-03    -114.408E-03     13.1383E-03     229.334E-03     65.6152E+06    -94.4227E+06    -99.5055E+06    -162.426E+06    -97.1012E+06    -162.218E+06    -97.0344E+06    -3.21686E+06
             229     140.770E-03     4.31200E-06     140.770E-03     258.137E-03    -128.344E-03    -129.793E-03    -129.690E-03     258.034E-03    -128.344E-03     12.6622E-03     258.262E-03     88.5354E+06    -90.1689E+06    -95.0606E+06    -181.046E+06    -92.8874E+06    -180.607E+06    -92.7805E+06    -6.21746E+06
             230     139.459E-03    -4.29754E-06     139.459E-03     281.463E-03    -140.582E-03    -140.881E-03    -140.557E-03     281.389E-03    -140.832E-03     10.6896E-03     281.638E-03     111.511E+06    -93.6132E+06    -98.1652E+06    -207.330E+06    -96.1679E+06    -207.055E+06    -95.8851E+06    -4.91216E+06
             231     138.123E-03     3.81251E-06     138.123E-03     300.603E-03    -149.081E-03    -151.522E-03    -151.238E-03     300.569E-03    -149.331E-03     7.81501E-03     300.822E-03     125.083E+06    -101.811E+06    -104.871E+06    -228.389E+06    -101.932E+06    -228.268E+06    -104.871E+06    -3.84149E+06
             232     136.759E-03    -90.0089E-09     136.759E-03     313.471E-03    -155.575E-03    -157.897E-03    -157.871E-03     313.446E-03    -155.575E-03     6.82258E-03     313.707E-03     128.966E+06    -114.381E+06    -115.682E+06    -243.992E+06    -115.011E+06    -243.875E+06    -115.169E+06    -3.78094E+06
             233     135.388E-03     308.637E-09     135.388E-03     322.252E-03    -160.872E-03    -161.380E-03    -161.364E-03     322.236E-03    -160.872E-03     5.60310E-03     322.524E-03     130.383E+06    -130.348E+06    -131.086E+06    -261.098E+06    -131.241E+06    -260.943E+06    -130.348E+06    -4.28271E+06
             234     134.003E-03     330.405E-09     134.003E-03     329.088E-03    -164.206E-03    -164.882E-03    -164.872E-03     329.078E-03    -164.206E-03     4.31489E-03     329.401E-03     135.113E+06    -143.812E+06    -146.079E+06    -280.037E+06    -144.167E+06    -279.906E+06    -145.855E+06    -3.61095E+06
             235     132.609E-03     158.671E-09     132.609E-03     332.559E-03    -165.878E-03    -166.681E-03    -166.677E-03     332.555E-03    -165.878E-03     2.85354E-03     332.876E-03     145.663E+06    -151.522E+06    -155.230E+06    -299.004E+06    -153.305E+06    -298.887E+06    -153.564E+06    -3.64062E+06
             236     131.219E-03     716.954E-09     131.219E-03     335.418E-03    -166.718E-03    -168.700E-03    -168.699E-03     335.417E-03    -166.718E-03     1.58335E-03     335.747E-03     148.093E+06    -167.116E+06    -170.295E+06    -316.773E+06    -168.889E+06    -316.666E+06    -168.629E+06    -2.90345E+06
             237     129.817E-03     1.77486E-06     129.817E-03     338.232E-03    -167.949E-03    -170.283E-03    -170.282E-03     338.231E-03    -167.949E-03     786.981E-06     338.592E-03     154.683E+06    -172.817E+06    -175.730E+06    -328.936E+06    -174.303E+06    -328.850E+06    -174.331E+06    -2.73470E+06
             238     128.416E-03    -308.507E-09     128.416E-03     340.418E-03    -169.549E-03    -170.869E-03    -170.868E-03     340.416E-03    -169.549E-03     1.49753E-03     340.763E-03     163.562E+06    -181.529E+06    -184.003E+06    -346.314E+06    -184.117E+06    -346.201E+06    -181.529E+06    -4.11643E+06
             239     127.007E-03     1.11471E-06     127.007E-03     343.058E-03    -171.194E-03    -171.864E-03    -171.862E-03     343.055E-03    -171.194E-03     2.22706E-03     343.406E-03     169.899E+06    -184.238E+06    -191.938E+06    -357.792E+06    -185.347E+06    -357.758E+06    -190.863E+06    -704.635E+03
             240     125.599E-03    -840.550E-09     125.599E-03     344.107E-03    -171.894E-03    -172.213E-03    -172.211E-03     344.105E-03    -171.894E-03     459.155E-06     344.464E-03     178.836E+06    -171.379E+06    -185.228E+06    -356.737E+06    -178.611E+06    -356.730E+06    -178.004E+06     565.566E+03
             241     124.193E-03     1.12213E-06     124.193E-03     344.412E-03    -171.517E-03    -172.896E-03    -172.895E-03     344.412E-03    -171.517E-03    -606.497E-06     344.758E-03     188.121E+06    -172.130E+06    -185.026E+06    -366.360E+06    -179.433E+06    -366.280E+06    -177.802E+06    -3.02136E+06
             242     122.781E-03     949.143E-09     122.781E-03     346.755E-03    -172.658E-03    -174.097E-03    -174.097E-03     346.755E-03    -172.658E-03     681.644E-06     347.139E-03     197.173E+06    -172.511E+06    -180.934E+06    -373.742E+06    -175.422E+06    -373.581E+06    -178.184E+06     38.4883E+03
             243     121.366E-03    -611.256E-09     121.366E-03     347.940E-03    -173.854E-03    -174.086E-03    -174.028E-03     347.938E-03    -173.910E-03    -497.338E-06     348.337E-03     202.207E+06    -166.908E+06    -170.702E+06    -370.981E+06    -170.840E+06    -370.843E+06    -166.908E+06     452.495E+03
             244     119.951E-03     531.662E-09     119.951E-03     346.927E-03    -173.127E-03    -173.800E-03    -173.742E-03     346.925E-03    -173.183E-03    -523.579E-06     347.348E-03     205.887E+06    -161.041E+06    -167.621E+06    -370.104E+06    -162.175E+06    -370.014E+06    -166.577E+06    -485.283E+03
             245     118.539E-03     451.241E-09     118.539E-03     347.629E-03    -173.150E-03    -174.479E-03    -174.479E-03     347.629E-03    -173.150E-03     385.121E-06     348.057E-03     208.197E+06    -152.289E+06    -164.024E+06    -366.105E+06    -158.521E+06    -366.071E+06    -157.826E+06     1.73479E+06
             246     117.124E-03     824.385E-09     117.124E-03     349.028E-03    -173.698E-03    -175.330E-03    -175.330E-03     349.028E-03    -173.698E-03    -373.182E-06     349.500E-03     205.134E+06    -153.251E+06    -164.976E+06    -363.995E+06    -159.450E+06    -363.994E+06    -158.778E+06     112.868E+03
             247     115.706E-03     664.328E-09     115.706E-03     349.254E-03    -174.052E-03    -175.202E-03    -175.201E-03     349.254E-03    -174.052E-03    -498.485E-06     349.758E-03     204.362E+06    -151.561E+06    -161.932E+06    -360.909E+06    -156.424E+06    -360.890E+06    -157.088E+06     1.65951E+06
             248     114.292E-03    -216.730E-09     114.292E-03     349.100E-03    -174.243E-03    -174.857E-03    -174.857E-03     349.100E-03    -174.243E-03    -946.902E-06     349.519E-03     206.747E+06    -144.653E+06    -153.539E+06    -355.699E+06    -149.519E+06    -355.676E+06    -148.696E+06     769.106E+03
             249     112.873E-03     821.503E-09     112.873E-03     348.973E-03    -174.228E-03    -174.745E-03    -174.612E-03     348.972E-03    -174.360E-03    -58.3847E-06     349.392E-03     205.735E+06    -145.806E+06    -153.294E+06    -355.182E+06    -149.255E+06    -355.177E+06    -149.849E+06    -887.227E+03
             250     111.458E-03    -995.768E-09     111.458E-03     349.378E-03    -174.308E-03    -175.070E-03    -174.936E-03     349.376E-03    -174.440E-03    -470.431E-06     349.811E-03     203.626E+06    -146.265E+06    -153.530E+06    -353.426E+06    -149.728E+06    -353.408E+06    -150.084E+06     1.05279E+06
             251     110.042E-03     2.01196E-06     110.042E-03     349.495E-03    -173.657E-03    -175.838E-03    -175.837E-03     349.493E-03    -173.657E-03    -1.37997E-03     349.882E-03     202.285E+06    -142.176E+06    -149.105E+06    -347.835E+06    -145.303E+06    -347.818E+06    -145.995E+06     1.16483E+06
             252     108.624E-03     636.703E-09     108.624E-03     349.439E-03    -173.646E-03    -175.793E-03    -175.793E-03     349.439E-03    -173.646E-03     172.011E-06     349.811E-03     202.310E+06    -143.906E+06    -149.989E+06    -349.189E+06    -147.044E+06    -349.162E+06    -146.879E+06    -1.83964E+06
             253     107.206E-03     337.936E-09     107.206E-03     349.885E-03    -174.408E-03    -175.477E-03    -175.477E-03     349.885E-03    -174.408E-03     58.9401E-06     350.265E-03     199.863E+06    -146.120E+06    -150.208E+06    -347.989E+06    -147.370E+06    -347.854E+06    -149.093E+06     1.56635E+06
             254     105.790E-03     477.307E-09     105.790E-03     349.589E-03    -174.220E-03    -175.369E-03    -175.368E-03     349.588E-03    -174.220E-03    -1.12069E-03     349.957E-03     194.776E+06    -146.000E+06    -147.397E+06    -341.469E+06    -147.568E+06    -341.298E+06    -146.000E+06     771.793E+03
             255     104.373E-03     666.658E-09     104.373E-03     349.317E-03    -174.089E-03    -175.228E-03    -175.228E-03     349.317E-03    -174.089E-03    -606.425E-06     349.684E-03     192.400E+06    -147.111E+06    -150.069E+06    -340.961E+06    -147.505E+06    -340.850E+06    -149.787E+06    -302.090E+03
             256     102.956E-03     90.0556E-09     102.956E-03     350.088E-03    -174.526E-03    -175.562E-03    -175.562E-03     350.087E-03    -174.526E-03    -336.271E-06     350.460E-03     189.590E+06    -142.711E+06      -148.5E+06    -335.129E+06    -145.873E+06    -335.081E+06    -145.386E+06     2.12446E+06
             257     101.537E-03     913.713E-09     101.537E-03     350.399E-03    -174.782E-03    -175.618E-03    -175.617E-03     350.399E-03    -174.782E-03    -228.322E-06     350.752E-03     187.514E+06    -142.859E+06    -149.020E+06    -333.378E+06    -145.986E+06    -333.364E+06    -145.907E+06    -1.19010E+06
             258     100.118E-03    -500.271E-09     100.118E-03     349.560E-03    -174.282E-03    -175.278E-03    -175.277E-03     349.559E-03    -174.282E-03    -408.020E-06     349.917E-03     184.943E+06    -146.181E+06    -152.825E+06    -334.356E+06    -149.826E+06    -334.308E+06    -149.229E+06     601.758E+03
             259     98.7022E-03     1.77982E-06     98.7022E-03     348.878E-03    -173.770E-03    -175.108E-03    -175.107E-03     348.878E-03    -173.770E-03    -381.396E-06     349.239E-03     181.667E+06    -149.476E+06    -155.154E+06    -333.911E+06    -153.142E+06    -333.841E+06    -151.557E+06    -46.7735E+03
             260     97.2891E-03    -780.074E-09     97.2891E-03     349.504E-03    -174.402E-03    -175.102E-03    -175.101E-03     349.503E-03    -174.402E-03    -690.304E-06     349.862E-03     182.386E+06    -149.747E+06    -152.743E+06    -333.610E+06    -149.858E+06    -333.499E+06    -152.743E+06     857.777E+03
             261     95.8682E-03     934.246E-09     95.8682E-03     350.001E-03    -174.349E-03    -175.651E-03    -175.651E-03     350.000E-03    -174.349E-03    -750.571E-06     350.353E-03     181.917E+06    -143.697E+06    -147.529E+06    -327.492E+06    -146.717E+06    -327.388E+06    -144.613E+06     1.09216E+06
             262     94.4497E-03     1.13360E-06     94.4497E-03     349.878E-03    -174.145E-03    -175.732E-03    -175.732E-03     349.878E-03    -174.145E-03     210.502E-06     350.229E-03     179.931E+06    -145.173E+06    -152.296E+06    -328.556E+06    -148.119E+06    -328.526E+06    -149.379E+06    -2.01344E+06
             263     93.0364E-03    -534.049E-09     93.0364E-03     349.823E-03    -174.682E-03    -175.141E-03    -175.062E-03     349.822E-03    -174.760E-03    -943.017E-06     350.185E-03     179.436E+06    -147.119E+06    -156.546E+06    -331.080E+06    -152.371E+06    -331.048E+06    -151.325E+06     1.14499E+06
             264     91.6148E-03     465.977E-09     91.6148E-03     349.547E-03    -174.401E-03    -175.146E-03    -175.067E-03     349.546E-03    -174.479E-03    -1.25383E-03     349.886E-03     176.380E+06    -145.114E+06    -154.957E+06    -326.209E+06    -150.366E+06    -326.177E+06    -149.736E+06     1.09347E+06
             265     90.2014E-03     606.356E-09     90.2014E-03     349.461E-03    -173.834E-03    -175.627E-03    -175.627E-03     349.461E-03    -173.834E-03    -802.654E-06     349.809E-03     176.179E+06    -145.587E+06    -153.451E+06    -325.562E+06    -148.831E+06    -325.559E+06    -150.210E+06    -590.374E+03
             266     88.7806E-03     1.32888E-06     88.7806E-03     349.544E-03    -173.837E-03    -175.706E-03    -175.706E-03     349.543E-03    -173.837E-03    -50.3833E-06     349.904E-03     177.569E+06    -147.420E+06    -152.189E+06    -327.319E+06    -150.661E+06    -327.319E+06    -148.948E+06    -266.895E+03
             267     87.3651E-03    -91.6369E-09     87.3651E-03     350.073E-03    -174.594E-03    -175.479E-03    -175.479E-03     350.073E-03    -174.594E-03     179.474E-06     350.430E-03     176.240E+06    -147.853E+06    -151.510E+06    -325.892E+06    -147.855E+06    -325.890E+06    -151.510E+06     201.194E+03
             268     85.9475E-03     313.293E-09     85.9475E-03     350.374E-03    -174.657E-03    -175.718E-03    -175.717E-03     350.373E-03    -174.657E-03    -1.22775E-03     350.741E-03     177.092E+06    -146.996E+06    -152.114E+06    -326.590E+06    -149.988E+06    -326.588E+06    -149.124E+06     364.334E+03
             269     84.5276E-03     1.26730E-06     84.5276E-03     349.248E-03    -173.515E-03    -175.733E-03    -174.432E-03     349.246E-03    -174.814E-03     32.3447E-06     349.595E-03     177.721E+06    -143.140E+06    -149.166E+06    -323.797E+06    -146.131E+06    -323.796E+06    -146.176E+06     257.167E+03
             270     83.1120E-03    -3.47784E-06     83.1120E-03     349.156E-03    -173.914E-03    -175.242E-03    -173.912E-03     349.154E-03    -175.242E-03    -178.598E-06     349.516E-03     174.372E+06    -143.252E+06    -149.316E+06    -320.578E+06    -146.283E+06    -320.576E+06    -146.288E+06    -12.2943E+03
             271     81.6971E-03     3.46246E-06     81.6971E-03     350.586E-03    -174.141E-03    -176.445E-03    -176.414E-03     350.585E-03    -174.171E-03    -1.32222E-03     350.965E-03     171.958E+06    -149.611E+06    -154.996E+06    -324.198E+06    -152.642E+06    -324.196E+06    -151.968E+06    -514.514E+03
             272     80.2751E-03     335.287E-09     80.2751E-03     350.078E-03    -173.642E-03    -176.436E-03    -176.436E-03     350.078E-03    -173.642E-03    -685.218E-06     350.426E-03     173.162E+06    -149.985E+06    -153.823E+06    -325.033E+06    -151.474E+06    -325.025E+06    -152.341E+06     536.403E+03
             273     78.8585E-03     561.872E-09     78.8585E-03     349.183E-03    -174.016E-03    -175.167E-03    -175.167E-03     349.183E-03    -174.016E-03    -318.931E-06     349.527E-03     175.735E+06    -147.114E+06    -149.613E+06    -324.084E+06    -148.617E+06    -324.063E+06    -148.132E+06    -391.102E+03
             274     78.6819E-03     14.2894E-03     77.3735E-03     365.862E-03    -174.883E-03    -190.979E-03    -178.213E-03     353.096E-03    -174.883E-03     160.505E-03     461.214E-03     118.922E+06     123.644E+06     91.5245E+06    -7.97737E+06    -7.97596E+06     91.5231E+06     123.644E+06    -10.9162E+03
             275     78.2513E-03     13.4480E-03     77.0871E-03     365.843E-03    -174.794E-03    -191.049E-03    -177.757E-03     352.551E-03    -174.794E-03     165.244E-03     470.181E-03     101.823E+06     96.5805E+06     73.2865E+06    -14.8699E+06    -14.8648E+06     73.2814E+06     96.5805E+06     271.993E+03
             276     77.9509E-03     12.6057E-03     76.9249E-03     357.370E-03    -174.731E-03    -182.639E-03    -174.848E-03     349.580E-03    -174.731E-03     128.603E-03     443.363E-03     89.0675E+06     77.2438E+06     53.9614E+06    -21.0979E+06    -21.0934E+06     53.9569E+06     77.2438E+06     173.303E+03
             277     77.6439E-03     11.7673E-03     76.7471E-03     355.736E-03    -174.720E-03    -181.017E-03    -173.876E-03     348.595E-03    -174.720E-03     122.345E-03     438.291E-03     86.1478E+06     68.1166E+06     40.9240E+06    -28.3375E+06    -28.3227E+06     40.9093E+06     68.1166E+06    -496.788E+03
             278     77.3758E-03     10.9259E-03     76.6005E-03     353.018E-03    -174.730E-03    -178.288E-03    -172.925E-03     347.655E-03    -174.730E-03     106.163E-03     427.724E-03     86.5153E+06     60.8468E+06     33.4127E+06    -36.0481E+06    -36.0237E+06     33.3883E+06     60.8468E+06    -654.648E+03
             279     77.1363E-03     10.0830E-03     76.4745E-03     351.949E-03    -174.733E-03    -177.216E-03    -172.705E-03     347.438E-03    -174.733E-03     97.1022E-03     422.689E-03     86.6666E+06     52.5206E+06     28.8206E+06    -43.4923E+06    -43.4801E+06     28.8083E+06     52.5206E+06    -467.636E+03
             280     76.9148E-03     9.24383E-03     76.3573E-03     350.361E-03    -174.568E-03    -175.792E-03    -172.121E-03     346.874E-03    -174.753E-03     85.1651E-03     415.746E-03     87.8247E+06     44.3185E+06     24.2115E+06    -51.8092E+06    -51.8069E+06     24.2091E+06     44.3185E+06    -120.447E+03
             281     76.7216E-03     8.40207E-03     76.2601E-03     349.195E-03    -174.190E-03    -175.006E-03    -171.784E-03     346.599E-03    -174.816E-03     73.2958E-03     408.734E-03     90.0520E+06     36.8387E+06     17.7977E+06    -61.2104E+06    -61.2096E+06     17.7968E+06     36.8387E+06    -11.6021E+03
             282     76.5557E-03     7.56136E-03     76.1814E-03     348.624E-03    -173.721E-03    -174.903E-03    -171.906E-03     346.808E-03    -174.903E-03     61.1783E-03     401.156E-03     88.3861E+06     26.7844E+06     796.054E+03    -71.3888E+06    -71.3850E+06     792.198E+03     26.7844E+06     174.617E+03
             283     76.4136E-03     6.71856E-03     76.1176E-03     348.572E-03    -173.593E-03    -174.979E-03    -172.468E-03     347.448E-03    -174.979E-03     47.8120E-03     393.008E-03     81.9909E+06     8.84880E+06    -42.3340E+06    -82.3199E+06    -82.2929E+06    -42.3610E+06     8.84880E+06     284.315E+03
             284     76.3018E-03     5.87853E-03     76.0750E-03     348.890E-03    -173.892E-03    -174.998E-03    -173.291E-03     348.288E-03    -174.998E-03     34.9652E-03     384.663E-03     82.3739E+06    -14.6598E+06    -86.1003E+06    -104.736E+06    -94.1146E+06    -96.7212E+06    -14.6598E+06     129.728E+03
             285     76.2109E-03     5.04065E-03     76.0440E-03     348.974E-03    -174.014E-03    -174.960E-03    -173.712E-03     348.671E-03    -174.960E-03     24.7176E-03     376.073E-03     92.8208E+06    -38.9051E+06    -105.696E+06    -143.714E+06    -105.700E+06    -143.711E+06    -38.9051E+06     148.970E+03
             286     76.1414E-03     4.19954E-03     76.0255E-03     348.748E-03    -173.811E-03    -174.938E-03    -173.683E-03     348.621E-03    -174.938E-03     15.7289E-03     368.112E-03     107.260E+06    -63.4400E+06    -116.463E+06    -186.315E+06    -116.467E+06    -186.311E+06    -63.4400E+06    -236.731E+03
             287     76.0928E-03     3.35944E-03     76.0186E-03     348.795E-03    -173.801E-03    -174.994E-03    -173.763E-03     348.757E-03    -174.994E-03     8.52350E-03     361.509E-03     125.813E+06    -87.3424E+06    -126.278E+06    -227.657E+06    -126.281E+06    -227.653E+06    -87.3424E+06    -468.644E+03
             288     76.0599E-03     2.51855E-03     76.0182E-03     349.372E-03    -174.281E-03    -175.091E-03    -174.272E-03     349.362E-03    -175.091E-03     4.02216E-03     356.736E-03     143.252E+06    -110.285E+06    -135.153E+06    -264.160E+06    -135.156E+06    -264.157E+06    -110.285E+06    -495.023E+03
             289     76.0376E-03     1.67874E-03     76.0190E-03     349.958E-03    -174.789E-03    -175.169E-03    -174.787E-03     349.956E-03    -175.169E-03     1.57211E-03     353.415E-03     157.699E+06    -129.960E+06    -143.275E+06    -293.829E+06    -143.281E+06    -293.823E+06    -129.960E+06    -353.648E+03
             290     76.0268E-03     839.779E-06     76.0221E-03     350.315E-03    -174.695E-03    -175.620E-03    -175.498E-03     350.314E-03    -174.816E-03     174.951E-06     351.436E-03     168.759E+06    -142.147E+06    -148.792E+06    -314.114E+06    -147.177E+06    -314.090E+06    -143.785E+06     305.561E+03
             291     77.2904E-03     14.2885E-03     75.9582E-03     365.808E-03    -174.877E-03    -190.931E-03    -178.132E-03     353.009E-03    -174.877E-03     160.607E-03     461.027E-03     118.918E+06     123.769E+06     91.6116E+06    -7.87288E+06    -7.87052E+06     91.6093E+06     123.769E+06     64.6020E+03
             292     76.8530E-03     13.4468E-03     75.6674E-03     365.880E-03    -174.793E-03    -191.087E-03    -177.779E-03     352.573E-03    -174.793E-03     165.225E-03     470.074E-03     102.178E+06     96.7652E+06     73.1050E+06    -15.1637E+06    -15.1613E+06     73.1026E+06     96.7652E+06     79.6840E+03
             293     76.5535E-03     12.6080E-03     75.5081E-03     357.395E-03    -174.731E-03    -182.664E-03    -174.835E-03     349.565E-03    -174.731E-03     128.872E-03     443.461E-03     89.9179E+06     77.2298E+06     54.0861E+06    -21.9551E+06    -21.9508E+06     54.0817E+06     77.2298E+06    -251.527E+03
             294     76.2395E-03     11.7663E-03     75.3261E-03     355.801E-03    -174.725E-03    -181.076E-03    -173.834E-03     348.559E-03    -174.725E-03     123.189E-03     438.504E-03     86.6988E+06     68.8997E+06     41.5963E+06    -28.1457E+06    -28.1409E+06     41.5916E+06     68.8997E+06    -216.535E+03
             295     75.9791E-03     10.9238E-03     75.1898E-03     352.878E-03    -174.749E-03    -178.129E-03    -172.665E-03     347.414E-03    -174.749E-03     107.140E-03     427.603E-03     86.4962E+06     61.2498E+06     33.9864E+06    -35.5747E+06    -35.5638E+06     33.9756E+06     61.2498E+06    -200.574E+03
             296     75.7259E-03     10.0841E-03     75.0514E-03     352.019E-03    -174.762E-03    -177.257E-03    -172.691E-03     347.453E-03    -174.762E-03     97.6406E-03     422.682E-03     86.3492E+06     51.1741E+06     28.4616E+06    -44.2280E+06    -44.2166E+06     28.4502E+06     51.1741E+06    -404.704E+03
             297     75.5110E-03     9.24325E-03     74.9431E-03     350.569E-03    -174.596E-03    -175.974E-03    -172.301E-03     347.081E-03    -174.780E-03     85.2518E-03     416.032E-03     87.6046E+06     43.1551E+06     23.4604E+06    -52.6167E+06    -52.6094E+06     23.4531E+06     43.1551E+06    -422.444E+03
             298     75.3134E-03     8.40095E-03     74.8434E-03     349.298E-03    -174.241E-03    -175.057E-03    -171.871E-03     346.708E-03    -174.837E-03     73.1707E-03     408.839E-03     90.1650E+06     37.0051E+06     17.7181E+06    -61.2422E+06    -61.2353E+06     17.7112E+06     37.0051E+06    -178.533E+03
             299     75.1450E-03     7.55953E-03     74.7638E-03     348.887E-03    -173.988E-03    -174.899E-03    -172.249E-03     347.147E-03    -174.899E-03     59.8374E-03     401.372E-03     88.6146E+06     26.9059E+06     1.06256E+06    -71.5010E+06    -71.4942E+06     1.05576E+06     26.9059E+06     65.1005E+03
             300     75.0023E-03     6.72066E-03     74.7006E-03     348.622E-03    -173.684E-03    -174.938E-03    -172.631E-03     347.570E-03    -174.938E-03     46.3128E-03     393.018E-03     82.2406E+06     8.37943E+06    -42.7292E+06    -82.9011E+06    -82.8824E+06    -42.7480E+06     8.37943E+06    -283.545E+03
             301     74.8865E-03     5.88074E-03     74.6553E-03     348.582E-03    -173.622E-03    -174.960E-03    -173.036E-03     347.996E-03    -174.960E-03     34.6418E-03     384.308E-03     82.4564E+06    -14.4102E+06    -86.1840E+06    -104.438E+06    -93.9807E+06    -96.6410E+06    -14.4102E+06    -2.97005E+03
             302     74.7961E-03     5.03949E-03     74.6262E-03     348.736E-03    -173.779E-03    -174.956E-03    -173.466E-03     348.422E-03    -174.956E-03     25.1331E-03     375.903E-03     92.3430E+06    -38.5626E+06    -105.331E+06    -142.768E+06    -105.343E+06    -142.756E+06    -38.5626E+06     405.812E+03
             303     74.7268E-03     4.20007E-03     74.6087E-03     348.727E-03    -173.766E-03    -174.961E-03    -173.634E-03     348.595E-03    -174.961E-03     15.9960E-03     368.129E-03     107.042E+06    -63.4003E+06    -116.202E+06    -185.975E+06    -116.210E+06    -185.967E+06    -63.4003E+06    -171.506E+03
             304     74.6775E-03     3.35905E-03     74.6019E-03     349.133E-03    -174.153E-03    -174.981E-03    -174.112E-03     349.093E-03    -174.981E-03     8.66634E-03     361.841E-03     126.011E+06    -87.3743E+06    -126.374E+06    -227.935E+06    -126.378E+06    -227.930E+06    -87.3743E+06    -300.269E+03
             305     74.6425E-03     2.51968E-03     74.5999E-03     349.557E-03    -174.594E-03    -174.963E-03    -174.595E-03     349.549E-03    -174.954E-03     3.54923E-03     356.891E-03     142.751E+06    -110.690E+06    -135.828E+06    -264.156E+06    -135.831E+06    -264.152E+06    -110.690E+06    -78.7612E+03
             306     74.6207E-03     1.67968E-03     74.6018E-03     349.592E-03    -174.662E-03    -174.930E-03    -174.671E-03     349.591E-03    -174.920E-03     935.093E-06     353.036E-03     157.464E+06    -131.152E+06    -143.141E+06    -294.154E+06    -143.147E+06    -294.148E+06    -131.152E+06    -101.449E+03
             307     74.6075E-03     839.400E-06     74.6027E-03     349.768E-03    -174.614E-03    -175.154E-03    -174.827E-03     349.767E-03    -174.941E-03     138.643E-06     350.891E-03     169.131E+06    -142.928E+06    -149.543E+06    -315.261E+06    -147.913E+06    -315.252E+06    -144.566E+06    -721.921E+03
             308     75.8965E-03     14.2889E-03     74.5393E-03     366.088E-03    -174.863E-03    -191.225E-03    -178.489E-03     353.352E-03    -174.863E-03     160.430E-03     461.099E-03     119.004E+06     123.936E+06     91.7449E+06    -7.78512E+06    -7.78332E+06     91.7431E+06     123.936E+06     247.369E+03
             309     75.4590E-03     13.4489E-03     74.2509E-03     365.579E-03    -174.769E-03    -190.810E-03    -177.606E-03     352.374E-03    -174.769E-03     164.561E-03     469.683E-03     102.142E+06     96.7011E+06     73.5584E+06    -15.0216E+06    -15.0165E+06     73.5533E+06     96.7011E+06    -1.39032E+03
             310     75.1540E-03     12.6059E-03     74.0892E-03     356.436E-03    -174.744E-03    -181.692E-03    -173.846E-03     348.589E-03    -174.744E-03     128.740E-03     442.567E-03     89.8175E+06     77.1692E+06     54.3424E+06    -21.8137E+06    -21.8049E+06     54.3337E+06     77.1692E+06    -373.012E+03
             311     74.8414E-03     11.7647E-03     73.9109E-03     355.783E-03    -174.777E-03    -181.006E-03    -173.748E-03     348.525E-03    -174.777E-03     123.240E-03     438.577E-03     87.1724E+06     68.3446E+06     41.1811E+06    -29.1585E+06    -29.1502E+06     41.1728E+06     68.3446E+06    -392.119E+03
             312     74.5743E-03     10.9254E-03     73.7697E-03     353.345E-03    -174.790E-03    -178.555E-03    -173.156E-03     347.946E-03    -174.790E-03     106.594E-03     428.011E-03     87.2616E+06     61.2835E+06     33.9023E+06    -36.3710E+06    -36.3665E+06     33.8978E+06     61.2835E+06    -60.2799E+03
             313     74.3249E-03     10.0827E-03     73.6378E-03     351.777E-03    -174.799E-03    -176.978E-03    -172.407E-03     347.206E-03    -174.799E-03     97.7083E-03     422.278E-03     86.5895E+06     51.7202E+06     28.8733E+06    -43.9658E+06    -43.9623E+06     28.8698E+06     51.7202E+06    -65.6828E+03
             314     74.1008E-03     9.24129E-03     73.5223E-03     350.961E-03    -174.810E-03    -176.151E-03    -172.694E-03     347.503E-03    -174.810E-03     84.8284E-03     416.544E-03     87.2511E+06     43.1119E+06     23.7631E+06    -52.1845E+06    -52.1765E+06     23.7552E+06     43.1119E+06    -647.289E+03
             315     73.9073E-03     8.40278E-03     73.4281E-03     350.135E-03    -174.602E-03    -175.533E-03    -172.824E-03     347.621E-03    -174.796E-03     72.2846E-03     409.846E-03     90.0196E+06     36.6099E+06     17.3889E+06    -61.4674E+06    -61.4578E+06     17.3793E+06     36.6099E+06    -530.875E+03
             316     73.7337E-03     7.56258E-03     73.3449E-03     348.782E-03    -173.900E-03    -174.882E-03    -172.239E-03     347.041E-03    -174.802E-03     59.8812E-03     401.260E-03     88.6903E+06     26.7232E+06     1.09515E+06    -71.7464E+06    -71.7376E+06     1.08635E+06     26.7232E+06    -198.138E+03
             317     73.5904E-03     6.72146E-03     73.2828E-03     348.204E-03    -173.349E-03    -174.854E-03    -172.258E-03     347.112E-03    -174.854E-03     47.2557E-03     392.528E-03     82.0272E+06     7.86840E+06    -42.8617E+06    -82.9768E+06    -82.9697E+06    -42.8688E+06     7.86840E+06    -38.0102E+03
             318     73.4753E-03     5.87955E-03     73.2397E-03     348.244E-03    -173.328E-03    -174.916E-03    -172.714E-03     347.630E-03    -174.916E-03     35.2897E-03     383.932E-03     82.0760E+06    -15.4345E+06    -87.2751E+06    -104.853E+06    -94.6996E+06    -97.4290E+06    -15.4345E+06     43.2567E+03
             319     73.3809E-03     5.03942E-03     73.2077E-03     348.352E-03    -173.382E-03    -174.970E-03    -173.084E-03     348.054E-03    -174.970E-03     24.3973E-03     375.525E-03     92.3095E+06    -38.1972E+06    -105.167E+06    -142.295E+06    -105.183E+06    -142.279E+06    -38.1972E+06     58.1799E+03
             320     73.3120E-03     4.19861E-03     73.1916E-03     348.863E-03    -173.863E-03    -175.000E-03    -173.738E-03     348.738E-03    -175.000E-03     15.7267E-03     368.262E-03     106.743E+06    -63.1130E+06    -116.084E+06    -185.374E+06    -116.098E+06    -185.360E+06    -63.1130E+06     7.96861E+03
             321     73.2605E-03     3.35956E-03     73.1834E-03     349.498E-03    -174.538E-03    -174.960E-03    -174.495E-03     349.455E-03    -174.960E-03     8.97652E-03     362.185E-03     125.547E+06    -87.8922E+06    -126.838E+06    -227.944E+06    -126.846E+06    -227.936E+06    -87.8922E+06     130.268E+03
             322     73.2251E-03     2.51995E-03     73.1817E-03     349.611E-03    -174.752E-03    -174.860E-03    -174.768E-03     349.602E-03    -174.834E-03     3.97607E-03     356.931E-03     142.540E+06    -111.036E+06    -135.736E+06    -264.112E+06    -135.738E+06    -264.110E+06    -111.036E+06     158.368E+03
             323     73.2043E-03     1.68048E-03     73.1851E-03     349.447E-03    -174.565E-03    -174.882E-03    -174.787E-03     349.446E-03    -174.659E-03     1.31687E-03     352.911E-03     157.324E+06    -130.863E+06    -142.686E+06    -293.667E+06    -142.690E+06    -293.663E+06    -130.863E+06    -112.171E+03
             324     73.1913E-03     840.290E-06     73.1865E-03     349.060E-03    -174.231E-03    -174.829E-03    -174.532E-03     349.059E-03    -174.527E-03    -282.457E-06     350.187E-03     170.284E+06    -142.668E+06    -149.672E+06    -316.336E+06    -147.888E+06    -316.330E+06    -144.459E+06    -109.168E+03
             325     74.5040E-03     14.2894E-03     73.1209E-03     366.127E-03    -174.856E-03    -191.271E-03    -178.418E-03     353.274E-03    -174.856E-03     161.189E-03     461.376E-03     119.180E+06     124.001E+06     92.0741E+06    -7.80220E+06    -7.80038E+06     92.0723E+06     124.001E+06     53.0958E+03
             326     74.0631E-03     13.4484E-03     72.8319E-03     365.454E-03    -174.773E-03    -190.681E-03    -177.382E-03     352.155E-03    -174.773E-03     165.055E-03     469.766E-03     102.394E+06     96.6172E+06     73.8127E+06    -15.2563E+06    -15.2518E+06     73.8082E+06     96.6172E+06    -291.933E+03
             327     73.7620E-03     12.6074E-03     72.6765E-03     356.542E-03    -174.748E-03    -181.793E-03    -174.019E-03     348.767E-03    -174.748E-03     128.235E-03     442.559E-03     89.8414E+06     76.7687E+06     54.0937E+06    -22.2034E+06    -22.1987E+06     54.0889E+06     76.7687E+06    -27.4022E+03
             328     73.4406E-03     11.7646E-03     72.4922E-03     355.394E-03    -174.786E-03    -180.608E-03    -173.386E-03     348.173E-03    -174.786E-03     122.982E-03     438.005E-03     87.0363E+06     67.7268E+06     41.3163E+06    -29.4412E+06    -29.4349E+06     41.3099E+06     67.7268E+06     142.314E+03
             329     73.1708E-03     10.9233E-03     72.3508E-03     353.352E-03    -174.815E-03    -178.538E-03    -173.134E-03     347.949E-03    -174.815E-03     106.615E-03     428.095E-03     87.4852E+06     60.8127E+06     34.2206E+06    -36.8692E+06    -36.8565E+06     34.2078E+06     60.8127E+06    -350.755E+03
             330     72.9231E-03     10.0837E-03     72.2225E-03     352.409E-03    -174.799E-03    -177.610E-03    -173.126E-03     347.925E-03    -174.799E-03     96.9078E-03     422.989E-03     87.3745E+06     52.6416E+06     29.5212E+06    -43.9517E+06    -43.9401E+06     29.5096E+06     52.6416E+06    -709.410E+03
             331     72.6939E-03     9.24283E-03     72.1039E-03     350.813E-03    -174.665E-03    -176.148E-03    -172.583E-03     347.366E-03    -174.783E-03     84.7457E-03     416.206E-03     87.8397E+06     44.1397E+06     23.9325E+06    -52.0345E+06    -52.0304E+06     23.9283E+06     44.1397E+06    -390.970E+03
             332     72.4960E-03     8.40231E-03     72.0074E-03     349.942E-03    -174.645E-03    -175.297E-03    -172.586E-03     347.367E-03    -174.780E-03     73.1375E-03     409.628E-03     89.7619E+06     36.2452E+06     17.1596E+06    -61.5220E+06    -61.5183E+06     17.1559E+06     36.2452E+06    -174.626E+03
             333     72.3256E-03     7.56211E-03     71.9292E-03     348.921E-03    -174.048E-03    -174.874E-03    -172.338E-03     347.132E-03    -174.793E-03     60.7210E-03     401.437E-03     88.3435E+06     26.1100E+06     336.522E+03    -71.9834E+06    -71.9756E+06     328.704E+03     26.1100E+06    -169.378E+03
             334     72.1808E-03     6.71975E-03     71.8673E-03     348.266E-03    -173.428E-03    -174.838E-03    -172.324E-03     347.162E-03    -174.838E-03     47.4945E-03     392.505E-03     82.0236E+06     7.87377E+06    -42.9249E+06    -83.2978E+06    -83.2820E+06    -42.9406E+06     7.87377E+06     262.599E+03
             335     72.0603E-03     5.88087E-03     71.8199E-03     348.359E-03    -173.481E-03    -174.879E-03    -172.877E-03     347.755E-03    -174.879E-03     34.9371E-03     384.089E-03     81.8977E+06    -15.3680E+06    -86.3356E+06    -104.959E+06    -94.4003E+06    -96.8940E+06    -15.3680E+06    -152.045E+03
             336     71.9692E-03     5.04047E-03     71.7925E-03     348.436E-03    -173.539E-03    -174.898E-03    -173.250E-03     348.148E-03    -174.898E-03     24.0511E-03     375.685E-03     92.3563E+06    -38.5640E+06    -105.379E+06    -142.857E+06    -105.401E+06    -142.835E+06    -38.5640E+06    -551.020E+03
             337     71.8965E-03     4.19958E-03     71.7737E-03     348.686E-03    -173.778E-03    -174.908E-03    -173.659E-03     348.567E-03    -174.908E-03     15.2449E-03     368.043E-03     106.510E+06    -63.1091E+06    -116.428E+06    -185.148E+06    -116.435E+06    -185.141E+06    -63.1091E+06     274.528E+03
             338     71.8431E-03     3.35938E-03     71.7645E-03     348.947E-03    -174.023E-03    -174.924E-03    -173.985E-03     348.908E-03    -174.924E-03     8.54739E-03     361.634E-03     125.145E+06    -88.3377E+06    -127.052E+06    -227.875E+06    -127.057E+06    -227.870E+06    -88.3377E+06     552.485E+03
             339     71.8092E-03     2.51946E-03     71.7650E-03     349.405E-03    -174.473E-03    -174.933E-03    -174.479E-03     349.395E-03    -174.916E-03     4.43131E-03     356.746E-03     141.286E+06    -112.089E+06    -136.409E+06    -263.777E+06    -136.414E+06    -263.772E+06    -112.089E+06     346.734E+03
             340     71.7859E-03     1.67956E-03     71.7663E-03     349.763E-03    -174.756E-03    -175.007E-03    -174.967E-03     349.761E-03    -174.794E-03     1.73726E-03     353.225E-03     155.940E+06    -131.477E+06    -143.651E+06    -293.063E+06    -143.656E+06    -293.058E+06    -131.477E+06     259.073E+03
             341     71.7755E-03     840.860E-06     71.7706E-03     349.302E-03    -174.489E-03    -174.813E-03    -174.805E-03     349.302E-03    -174.498E-03     121.448E-06     350.433E-03     169.353E+06    -143.429E+06    -150.170E+06    -316.045E+06    -148.382E+06    -316.042E+06    -145.219E+06     247.741E+03
             342     73.1121E-03     14.2891E-03     71.7021E-03     365.328E-03    -174.865E-03    -190.463E-03    -177.662E-03     352.527E-03    -174.865E-03     160.669E-03     460.693E-03     119.064E+06     123.761E+06     91.8993E+06    -7.89663E+06    -7.89431E+06     91.8970E+06     123.761E+06    -10.4966E+03
             343     72.6718E-03     13.4465E-03     71.4170E-03     365.057E-03    -174.820E-03    -190.237E-03    -176.896E-03     351.715E-03    -174.820E-03     165.428E-03     469.403E-03     102.260E+06     96.3392E+06     73.6012E+06    -15.3754E+06    -15.3721E+06     73.5979E+06     96.3392E+06     198.626E+03
             344     72.3612E-03     12.6060E-03     71.2547E-03     357.370E-03    -174.797E-03    -182.573E-03    -174.627E-03     349.424E-03    -174.797E-03     129.842E-03     443.447E-03     89.8907E+06     76.7189E+06     54.2078E+06    -22.2621E+06    -22.2598E+06     54.2054E+06     76.7189E+06     227.320E+03
             345     72.0466E-03     11.7669E-03     71.0792E-03     356.278E-03    -174.792E-03    -181.487E-03    -174.229E-03     349.021E-03    -174.792E-03     123.399E-03     438.904E-03     87.4072E+06     68.4922E+06     42.3948E+06    -28.9756E+06    -28.9730E+06     42.3922E+06     68.4922E+06     187.865E+03
             346     71.7706E-03     10.9230E-03     70.9345E-03     353.346E-03    -174.782E-03    -178.563E-03    -173.226E-03     348.008E-03    -174.782E-03     105.973E-03     427.987E-03     87.2382E+06     61.0195E+06     35.0714E+06    -36.2315E+06    -36.2207E+06     35.0607E+06     61.0195E+06    -256.927E+03
             347     71.5135E-03     10.0835E-03     70.7991E-03     352.192E-03    -174.762E-03    -177.430E-03    -172.979E-03     347.741E-03    -174.762E-03     96.5227E-03     422.870E-03     86.8297E+06     51.6824E+06     29.4676E+06    -44.0805E+06    -44.0691E+06     29.4562E+06     51.6824E+06    -771.092E+03
             348     71.2926E-03     9.24404E-03     70.6908E-03     350.681E-03    -174.641E-03    -176.040E-03    -172.433E-03     347.192E-03    -174.759E-03     85.2898E-03     415.992E-03     87.8466E+06     43.5063E+06     23.4514E+06    -52.6289E+06    -52.6185E+06     23.4410E+06     43.5063E+06    -634.061E+03
             349     71.0872E-03     8.40105E-03     70.5890E-03     349.526E-03    -174.463E-03    -175.064E-03    -172.172E-03     346.959E-03    -174.787E-03     72.8463E-03     409.066E-03     89.9834E+06     36.1978E+06     16.7845E+06    -61.9052E+06    -61.8971E+06     16.7764E+06     36.1978E+06    -336.748E+03
             350     70.9154E-03     7.56052E-03     70.5112E-03     349.112E-03    -174.309E-03    -174.803E-03    -172.601E-03     347.404E-03    -174.803E-03     59.3458E-03     401.836E-03     87.8245E+06     25.7799E+06    -14.0683E+03    -71.7807E+06    -71.7776E+06    -17.2072E+03     25.7799E+06    -135.304E+03
             351     70.7690E-03     6.72256E-03     70.4490E-03     348.519E-03    -173.708E-03    -174.811E-03    -172.627E-03     347.438E-03    -174.811E-03     47.1197E-03     392.934E-03     81.5841E+06     7.90259E+06    -42.9189E+06    -82.7952E+06    -82.7814E+06    -42.9328E+06     7.90259E+06    -3.36659E+03
             352     70.6491E-03     5.88033E-03     70.4039E-03     348.186E-03    -173.348E-03    -174.837E-03    -172.731E-03     347.568E-03    -174.837E-03     35.3677E-03     383.847E-03     81.4856E+06    -15.3378E+06    -86.5805E+06    -104.169E+06    -94.7849E+06    -95.9647E+06    -15.3378E+06     539.224E+03
             353     70.5542E-03     5.03977E-03     70.3740E-03     348.552E-03    -173.709E-03    -174.843E-03    -173.407E-03     348.249E-03    -174.843E-03     24.6574E-03     375.735E-03     91.4963E+06    -39.9359E+06    -106.798E+06    -142.955E+06    -106.925E+06    -142.828E+06    -39.9359E+06     410.914E+03
             354     70.4813E-03     4.20116E-03     70.3560E-03     348.514E-03    -173.672E-03    -174.842E-03    -173.542E-03     348.384E-03    -174.842E-03     15.9738E-03     367.850E-03     106.339E+06    -64.4718E+06    -117.702E+06    -186.305E+06    -117.703E+06    -186.304E+06    -64.4718E+06     164.153E+03
             355     70.4298E-03     3.36001E-03     70.3496E-03     348.629E-03    -173.729E-03    -174.900E-03    -173.684E-03     348.584E-03    -174.900E-03     9.14329E-03     361.260E-03     124.756E+06    -88.5085E+06    -127.111E+06    -227.615E+06    -127.114E+06    -227.612E+06    -88.5085E+06     490.363E+03
             356     70.3917E-03     2.51879E-03     70.3466E-03     349.247E-03    -174.273E-03    -174.973E-03    -174.263E-03     349.236E-03    -174.973E-03     4.26392E-03     356.565E-03     140.745E+06    -111.946E+06    -136.136E+06    -263.042E+06    -136.143E+06    -263.036E+06    -111.946E+06     588.018E+03
             357     70.3684E-03     1.67945E-03     70.3484E-03     349.664E-03    -174.613E-03    -175.052E-03    -174.611E-03     349.663E-03    -175.052E-03     1.11221E-03     353.140E-03     155.651E+06    -131.299E+06    -143.599E+06    -292.652E+06    -143.603E+06    -292.648E+06    -131.299E+06     250.449E+03
             358     70.3580E-03     838.708E-06     70.3530E-03     350.126E-03    -174.615E-03    -175.511E-03    -175.311E-03     350.126E-03    -174.815E-03    -550.927E-06     351.282E-03     168.660E+06    -143.423E+06    -149.626E+06    -315.088E+06    -148.481E+06    -315.084E+06    -144.571E+06     253.118E+03
             359     71.7248E-03     14.2890E-03     70.2870E-03     365.209E-03    -174.878E-03    -190.331E-03    -177.599E-03     352.477E-03    -174.878E-03     160.332E-03     460.495E-03     119.051E+06     123.809E+06     91.9198E+06    -7.82624E+06    -7.82411E+06     91.9177E+06     123.809E+06     256.451E+03
             360     71.2804E-03     13.4474E-03     70.0005E-03     364.808E-03    -174.836E-03    -189.972E-03    -176.766E-03     351.602E-03    -174.836E-03     164.482E-03     469.068E-03     102.075E+06      96.284E+06     73.7104E+06    -15.1874E+06    -15.1847E+06     73.7077E+06      96.284E+06     398.203E+03
             361     70.9669E-03     12.6040E-03     69.8387E-03     357.014E-03    -174.825E-03    -182.189E-03    -174.358E-03     349.183E-03    -174.825E-03     128.813E-03     443.058E-03     89.5906E+06     76.9093E+06     54.4847E+06    -21.7416E+06    -21.7394E+06     54.4825E+06     76.9093E+06     200.811E+03
             362     70.6423E-03     11.7625E-03     69.6561E-03     356.852E-03    -174.804E-03    -182.048E-03    -174.861E-03     349.665E-03    -174.804E-03     122.944E-03     439.516E-03     87.4710E+06     68.7092E+06     42.8014E+06    -28.7736E+06    -28.7711E+06     42.7989E+06     68.7092E+06    -180.380E+03
             363     70.3708E-03     10.9279E-03     69.5171E-03     353.726E-03    -174.757E-03    -178.969E-03    -173.579E-03     348.337E-03    -174.757E-03     106.576E-03     428.466E-03     87.4303E+06     61.3410E+06     35.5335E+06    -36.0711E+06    -36.0677E+06     35.5301E+06     61.3410E+06    -203.379E+03
             364     70.1148E-03     10.0838E-03     69.3859E-03     351.797E-03    -174.739E-03    -177.058E-03    -172.528E-03     347.267E-03    -174.739E-03     97.2585E-03     422.492E-03     86.4264E+06     51.3616E+06     29.7619E+06    -43.7966E+06    -43.7952E+06     29.7606E+06     51.3616E+06    -45.8810E+03
             365     69.8827E-03     9.24144E-03     69.2689E-03     350.826E-03    -174.742E-03    -176.084E-03    -172.646E-03     347.388E-03    -174.742E-03     84.6065E-03     416.310E-03     87.1611E+06     42.5718E+06     23.3351E+06    -52.5997E+06    -52.5918E+06     23.3272E+06     42.5718E+06    -305.803E+03
             366     69.6832E-03     8.40378E-03     69.1746E-03     349.665E-03    -174.428E-03    -175.237E-03    -172.372E-03     347.122E-03    -174.750E-03     72.6249E-03     409.203E-03     89.8936E+06     35.9463E+06     16.6059E+06    -62.0429E+06    -62.0346E+06     16.5977E+06     35.9463E+06    -452.902E+03
             367     69.5041E-03     7.56270E-03     69.0915E-03     348.650E-03    -173.871E-03    -174.779E-03    -172.109E-03     346.889E-03    -174.779E-03     60.1662E-03     401.246E-03     87.9084E+06     24.9825E+06    -491.659E+03    -72.6280E+06    -72.6267E+06    -492.928E+03     24.9825E+06    -26.0249E+03
             368     69.3586E-03     6.72044E-03     69.0323E-03     348.423E-03    -173.604E-03    -174.818E-03    -172.506E-03     347.324E-03    -174.818E-03     47.4649E-03     392.901E-03     80.9637E+06     5.85000E+06    -43.5849E+06    -84.2450E+06    -84.1661E+06    -43.6639E+06     5.85000E+06     660.865E+03
             369     69.2376E-03     5.88076E-03     68.9875E-03     348.375E-03    -173.530E-03    -174.846E-03    -172.896E-03     347.741E-03    -174.846E-03     35.9082E-03     383.918E-03     80.8946E+06    -16.4993E+06    -87.0303E+06    -104.786E+06    -95.5785E+06    -96.2374E+06    -16.4993E+06     992.879E+03
             370     69.1393E-03     5.04090E-03     68.9553E-03     348.353E-03    -173.485E-03    -174.867E-03    -173.174E-03     348.042E-03    -174.867E-03     24.8795E-03     375.437E-03     90.9153E+06    -39.3901E+06    -106.323E+06    -141.649E+06    -106.452E+06    -141.521E+06    -39.3901E+06     730.755E+03
             371     69.0682E-03     4.19877E-03     68.9405E-03     348.625E-03    -173.737E-03    -174.888E-03    -173.611E-03     348.500E-03    -174.888E-03     15.6978E-03     367.999E-03     106.868E+06    -63.8497E+06    -117.450E+06    -186.263E+06    -117.458E+06    -186.255E+06    -63.8497E+06     227.463E+03
             372     69.0132E-03     3.35894E-03     68.9314E-03     349.028E-03    -174.138E-03    -174.890E-03    -174.094E-03     348.984E-03    -174.890E-03     9.06581E-03     361.636E-03     125.059E+06    -88.3663E+06    -128.012E+06    -228.098E+06    -128.014E+06    -228.096E+06    -88.3663E+06     293.777E+03
             373     68.9756E-03     2.52034E-03     68.9295E-03     349.146E-03    -174.249E-03    -174.897E-03    -174.239E-03     349.136E-03    -174.897E-03     4.09997E-03     356.459E-03     139.696E+06    -112.188E+06    -136.709E+06    -262.294E+06    -136.713E+06    -262.291E+06    -112.188E+06     379.166E+03
             374     68.9520E-03     1.67913E-03     68.9315E-03     349.400E-03    -174.392E-03    -175.009E-03    -174.391E-03     349.399E-03    -175.009E-03     902.334E-06     352.879E-03     154.651E+06    -132.318E+06    -143.664E+06    -292.229E+06    -143.667E+06    -292.226E+06    -132.318E+06    -116.748E+03
             375     68.9395E-03     839.754E-06     68.9344E-03     350.144E-03    -174.420E-03    -175.725E-03    -175.461E-03     350.143E-03    -174.682E-03    -301.817E-06     351.278E-03     167.960E+06    -143.706E+06    -149.302E+06    -314.378E+06    -148.164E+06    -314.368E+06    -144.854E+06    -257.328E+03
             376     70.3354E-03     14.2881E-03     68.8688E-03     365.707E-03    -174.895E-03    -190.812E-03    -178.146E-03     353.041E-03    -174.895E-03     160.198E-03     461.156E-03     119.090E+06     124.204E+06     92.0497E+06    -7.54394E+06    -7.54136E+06     92.0472E+06     124.204E+06     184.339E+03
             377     69.8893E-03     13.4473E-03     68.5834E-03     365.585E-03    -174.803E-03    -190.782E-03    -177.717E-03     352.520E-03    -174.803E-03     163.763E-03     470.050E-03     102.601E+06     97.0085E+06     74.3833E+06    -15.0160E+06    -15.0125E+06     74.3798E+06     97.0085E+06     184.477E+03
             378     69.5747E-03     12.6076E-03     68.4229E-03     356.984E-03    -174.748E-03    -182.236E-03    -174.483E-03     349.231E-03    -174.748E-03     128.136E-03     442.829E-03     89.8398E+06     76.8255E+06     54.7120E+06    -21.9864E+06    -21.9842E+06     54.7098E+06     76.8255E+06     276.487E+03
             379     69.2453E-03     11.7673E-03     68.2381E-03     355.437E-03    -174.766E-03    -180.671E-03    -173.500E-03     348.266E-03    -174.766E-03     122.512E-03     437.870E-03     86.8802E+06     68.2652E+06     42.5299E+06    -28.5495E+06    -28.5472E+06     42.5276E+06     68.2652E+06    -133.465E+03
             380     68.9680E-03     10.9211E-03     68.0978E-03     353.331E-03    -174.784E-03    -178.547E-03    -173.175E-03     347.960E-03    -174.784E-03     106.301E-03     428.223E-03     87.0499E+06     61.0763E+06     35.4337E+06    -35.8850E+06    -35.8820E+06     35.4307E+06     61.0763E+06    -24.2315E+03
             381     68.7123E-03     10.0841E-03     67.9683E-03     352.550E-03    -174.754E-03    -177.795E-03    -173.256E-03     348.011E-03    -174.754E-03     97.5190E-03     423.217E-03     86.7162E+06     51.4203E+06     29.9129E+06    -44.0123E+06    -44.0105E+06     29.9110E+06     51.4203E+06     343.305E+03
             382     68.4790E-03     9.24488E-03     67.8521E-03     350.648E-03    -174.642E-03    -176.006E-03    -172.408E-03     347.147E-03    -174.739E-03     85.3513E-03     416.068E-03     87.0168E+06     42.6847E+06     23.6274E+06    -52.2774E+06    -52.2746E+06     23.6246E+06     42.6847E+06     419.993E+03
             383     68.2745E-03     8.40187E-03     67.7555E-03     349.466E-03    -174.482E-03    -174.984E-03    -172.073E-03     346.846E-03    -174.773E-03     73.7018E-03     409.120E-03     89.1334E+06     35.2875E+06     16.8104E+06    -61.6354E+06    -61.6323E+06     16.8073E+06     35.2875E+06     310.720E+03
             384     68.0978E-03     7.56081E-03     67.6768E-03     348.825E-03    -174.001E-03    -174.825E-03    -172.195E-03     347.020E-03    -174.825E-03     60.8929E-03     401.323E-03     87.6795E+06     24.6679E+06    -1.70083E+06    -72.7926E+06    -72.7830E+06    -1.71044E+06     24.6679E+06     496.935E+03
             385     67.9472E-03     6.72063E-03     67.6140E-03     348.602E-03    -173.744E-03    -174.859E-03    -172.650E-03     347.508E-03    -174.859E-03     47.3501E-03     392.988E-03     80.9150E+06     6.36774E+06    -43.7714E+06    -84.1551E+06    -84.0695E+06    -43.8569E+06     6.36774E+06     1.01794E+06
             386     67.8244E-03     5.88050E-03     67.5690E-03     348.566E-03    -173.703E-03    -174.863E-03    -173.089E-03     347.952E-03    -174.863E-03     35.2866E-03     384.222E-03     80.5861E+06    -16.0009E+06    -85.2009E+06    -104.476E+06    -94.2972E+06    -95.3801E+06    -16.0009E+06     530.519E+03
             387     67.7275E-03     5.03917E-03     67.5398E-03     348.448E-03    -173.586E-03    -174.862E-03    -173.290E-03     348.152E-03    -174.862E-03     24.2992E-03     375.528E-03     90.5713E+06     -39.117E+06    -105.425E+06    -141.261E+06    -105.450E+06    -141.237E+06     -39.117E+06     52.6999E+03
             388     67.6522E-03     4.20043E-03     67.5216E-03     348.806E-03    -173.955E-03    -174.850E-03    -173.838E-03     348.688E-03    -174.850E-03     15.1386E-03     368.147E-03     107.407E+06    -62.8229E+06    -116.646E+06    -185.818E+06    -116.672E+06    -185.792E+06    -62.8229E+06     612.306E+03
             389     67.5979E-03     3.36076E-03     67.5143E-03     348.928E-03    -174.108E-03    -174.820E-03    -174.070E-03     348.890E-03    -174.820E-03     8.52317E-03     361.606E-03     125.705E+06    -87.2110E+06    -127.070E+06    -227.677E+06    -127.086E+06    -227.662E+06    -87.2110E+06     566.291E+03
             390     67.5593E-03     2.51915E-03     67.5123E-03     348.977E-03    -174.149E-03    -174.827E-03    -174.140E-03     348.967E-03    -174.827E-03     4.18531E-03     356.286E-03     140.740E+06    -111.074E+06    -136.476E+06    -262.587E+06    -136.478E+06    -262.586E+06    -111.074E+06     384.227E+03
             391     67.5356E-03     1.68005E-03     67.5147E-03     349.426E-03    -174.519E-03    -174.906E-03    -174.574E-03     349.424E-03    -174.850E-03     1.37344E-03     352.863E-03     153.838E+06    -131.974E+06    -143.962E+06    -291.326E+06    -143.973E+06    -291.315E+06    -131.974E+06     606.598E+03
             392     67.5215E-03     839.556E-06     67.5163E-03     349.640E-03    -174.468E-03    -175.171E-03    -174.884E-03     349.639E-03    -174.756E-03     173.423E-06     350.750E-03     166.338E+06    -144.880E+06    -150.916E+06    -314.141E+06    -149.089E+06    -314.127E+06    -146.721E+06    -157.022E+03
             393     68.9470E-03     14.2886E-03     67.4502E-03     365.904E-03    -174.892E-03    -191.011E-03    -178.340E-03     353.233E-03    -174.892E-03     160.235E-03     461.359E-03     119.062E+06     123.849E+06     91.6127E+06    -7.88008E+06    -7.87849E+06     91.6111E+06     123.849E+06     60.7024E+03
             394     68.4984E-03     13.4483E-03     67.1653E-03     366.022E-03    -174.785E-03    -191.236E-03    -178.077E-03     352.863E-03    -174.785E-03     164.639E-03     470.459E-03     103.012E+06     96.9916E+06     74.8647E+06    -15.2850E+06    -15.2805E+06     74.8602E+06     96.9916E+06     22.5940E+03
             395     68.1788E-03     12.6078E-03     67.0029E-03     357.300E-03    -174.717E-03    -182.583E-03    -174.683E-03     349.400E-03    -174.717E-03     129.430E-03     443.249E-03     90.4187E+06     77.4120E+06     55.6145E+06    -21.8833E+06    -21.8801E+06     55.6114E+06     77.4120E+06     104.179E+03
             396     67.8529E-03     11.7648E-03     66.8252E-03     355.477E-03    -174.730E-03    -180.747E-03    -173.491E-03     348.222E-03    -174.730E-03     123.205E-03     437.946E-03     86.9642E+06     68.5522E+06     42.6349E+06    -28.3961E+06    -28.3927E+06     42.6315E+06     68.5522E+06     289.788E+03
             397     67.5706E-03     10.9260E-03     66.6814E-03     352.902E-03    -174.762E-03    -178.140E-03    -172.786E-03     347.548E-03    -174.762E-03     106.045E-03     427.525E-03     86.6044E+06     60.7483E+06     34.8531E+06    -35.8208E+06    -35.8160E+06     34.8482E+06     60.7483E+06     472.355E+03
             398     67.3066E-03     10.0832E-03     66.5470E-03     351.880E-03    -174.773E-03    -177.107E-03    -172.617E-03     347.390E-03    -174.773E-03     96.8770E-03     422.544E-03     86.1212E+06     50.9435E+06     29.6743E+06    -43.7934E+06    -43.7895E+06     29.6703E+06     50.9435E+06     525.432E+03
             399     67.0765E-03     9.24170E-03     66.4368E-03     350.613E-03    -174.695E-03    -175.918E-03    -172.306E-03     347.098E-03    -174.792E-03     85.5605E-03     416.109E-03     86.7035E+06     42.3524E+06      23.762E+06    -52.1352E+06    -52.1303E+06     23.7570E+06     42.3524E+06     613.659E+03
             400     66.8687E-03     8.40119E-03     66.3388E-03     349.714E-03    -174.536E-03    -175.178E-03    -172.301E-03     347.127E-03    -174.826E-03     73.1529E-03     409.358E-03     89.1460E+06     35.0777E+06     16.5829E+06     -61.864E+06    -61.8553E+06     16.5742E+06     35.0777E+06     780.532E+03
             401     66.6877E-03     7.56125E-03     66.2576E-03     349.083E-03    -174.229E-03    -174.854E-03    -172.485E-03     347.339E-03    -174.854E-03     60.0060E-03     401.635E-03     87.3740E+06     25.2177E+06    -1.63294E+06    -72.0264E+06    -72.0123E+06    -1.64708E+06     25.2177E+06     870.238E+03
             402     66.5372E-03     6.72102E-03     66.1968E-03     348.844E-03    -173.984E-03    -174.861E-03    -172.886E-03     347.746E-03    -174.861E-03     47.4338E-03     393.227E-03     80.8751E+06     8.13123E+06    -43.0621E+06    -82.2521E+06    -82.2433E+06    -43.0709E+06     8.13123E+06     458.425E+03
             403     66.4117E-03     5.88040E-03     66.1509E-03     348.630E-03    -173.795E-03    -174.836E-03    -173.200E-03     348.036E-03    -174.836E-03     34.6452E-03     384.361E-03     80.4335E+06    -15.5407E+06    -85.4107E+06    -103.455E+06    -94.1430E+06    -94.7228E+06    -15.5407E+06     646.140E+03
             404     66.3143E-03     5.04149E-03     66.1224E-03     348.400E-03    -173.585E-03    -174.815E-03    -173.296E-03     348.111E-03    -174.815E-03     24.2133E-03     375.471E-03     90.1936E+06    -39.8697E+06    -105.637E+06    -141.425E+06    -105.704E+06    -141.358E+06    -39.8697E+06     816.098E+03
             405     66.2372E-03     4.20008E-03     66.1039E-03     348.588E-03    -173.774E-03    -174.814E-03    -173.641E-03     348.455E-03    -174.814E-03     16.1302E-03     367.910E-03     106.489E+06    -63.8896E+06    -116.585E+06    -185.836E+06    -116.628E+06    -185.793E+06    -63.8896E+06     282.911E+03
             406     66.1826E-03     3.35968E-03     66.0973E-03     348.982E-03    -174.135E-03    -174.846E-03    -174.148E-03     348.939E-03    -174.791E-03     8.87591E-03     361.661E-03     125.280E+06    -87.1310E+06    -126.482E+06    -227.038E+06    -126.511E+06    -227.009E+06    -87.1310E+06     300.079E+03
             407     66.1444E-03     2.52038E-03     66.0963E-03     349.144E-03    -174.352E-03    -174.791E-03    -174.398E-03     349.135E-03    -174.736E-03     3.96322E-03     356.419E-03     142.481E+06    -109.079E+06    -135.002E+06    -262.559E+06    -135.008E+06    -262.553E+06    -109.079E+06     674.363E+03
             408     66.1176E-03     1.67935E-03     66.0963E-03     349.219E-03    -174.507E-03    -174.712E-03    -174.562E-03     349.218E-03    -174.656E-03     1.08457E-03     352.648E-03     154.916E+06    -129.241E+06    -142.912E+06    -290.451E+06    -142.923E+06    -290.439E+06    -129.241E+06     782.129E+03
             409     66.1050E-03     840.560E-06     66.0997E-03     349.145E-03    -174.316E-03    -174.829E-03    -174.598E-03     349.145E-03    -174.547E-03    -536.340E-06     350.274E-03     167.348E+06    -142.124E+06    -149.661E+06    -313.111E+06    -147.831E+06    -313.100E+06    -143.965E+06     654.150E+03
             410     67.5621E-03     14.2885E-03     66.0339E-03     365.680E-03    -174.877E-03    -190.802E-03    -178.002E-03     352.879E-03    -174.877E-03     160.700E-03     460.941E-03     118.929E+06     123.743E+06     91.3418E+06    -7.88874E+06    -7.88803E+06     91.3411E+06     123.743E+06     223.060E+03
             411     67.1059E-03     13.4472E-03     65.7448E-03     365.657E-03    -174.798E-03    -190.858E-03    -177.586E-03     352.384E-03    -174.798E-03     164.949E-03     469.922E-03     102.807E+06     96.4296E+06     74.9928E+06    -15.4020E+06    -15.4001E+06     74.9909E+06     96.4296E+06    -44.9732E+03
             412     66.7878E-03     12.6058E-03     65.5874E-03     357.138E-03    -174.751E-03    -182.387E-03    -174.581E-03     349.333E-03    -174.751E-03     128.617E-03     443.273E-03     90.4854E+06     76.8369E+06     55.5512E+06    -22.3448E+06    -22.3427E+06     55.5492E+06     76.8369E+06    -294.622E+03
             413     66.4558E-03     11.7667E-03     65.4058E-03     356.098E-03    -174.750E-03    -181.349E-03    -174.050E-03     348.800E-03    -174.750E-03     123.817E-03     438.745E-03     87.2526E+06     68.1886E+06     42.3860E+06    -29.0358E+06    -29.0316E+06     42.3818E+06     68.1886E+06     206.418E+03
             414     66.1723E-03     10.9247E-03     65.2643E-03     353.222E-03    -174.760E-03    -178.463E-03    -172.957E-03     347.717E-03    -174.760E-03     107.586E-03     427.799E-03     86.6516E+06     60.6672E+06     34.6572E+06    -35.9973E+06    -35.9912E+06     34.6511E+06     60.6672E+06     593.730E+03
             415     65.9087E-03     10.0836E-03     65.1328E-03     351.645E-03    -174.780E-03    -176.866E-03    -172.350E-03     347.129E-03    -174.780E-03     97.0509E-03     422.262E-03     85.9822E+06     51.0996E+06     29.4103E+06    -43.6190E+06    -43.6086E+06     29.3999E+06     51.0996E+06     811.600E+03
             416     65.6720E-03     9.24201E-03     65.0184E-03     350.748E-03    -174.800E-03    -175.947E-03    -172.521E-03     347.321E-03    -174.800E-03     84.4967E-03     416.320E-03     86.8009E+06     42.4803E+06     23.7004E+06    -52.1701E+06    -52.1472E+06     23.6774E+06     42.4803E+06     1.17868E+06
             417     65.4611E-03     8.40267E-03     64.9195E-03     349.871E-03    -174.600E-03    -175.270E-03    -172.525E-03     347.335E-03    -174.810E-03     72.5168E-03     409.579E-03     89.2873E+06      35.548E+06     16.8663E+06    -61.6015E+06    -61.5786E+06     16.8434E+06      35.548E+06     1.22553E+06
             418     65.2814E-03     7.56130E-03     64.8420E-03     349.073E-03    -174.255E-03    -174.818E-03    -172.509E-03     347.327E-03    -174.818E-03     60.0486E-03     401.672E-03     87.6652E+06     25.2980E+06    -447.044E+03    -72.0722E+06    -72.0631E+06    -456.083E+03     25.2980E+06     740.909E+03
             419     65.1249E-03     6.72040E-03     64.7772E-03     348.656E-03    -173.831E-03    -174.825E-03    -172.745E-03     347.571E-03    -174.825E-03     47.0918E-03     392.999E-03     81.2205E+06     7.09868E+06    -42.9933E+06    -83.4647E+06    -83.4488E+06    -43.0093E+06     7.09868E+06     496.004E+03
             420     65.0000E-03     5.88146E-03     64.7334E-03     348.283E-03    -173.446E-03    -174.837E-03    -172.848E-03     347.685E-03    -174.837E-03     34.9181E-03     383.923E-03     80.6917E+06    -15.5663E+06    -86.0472E+06    -103.578E+06    -94.8165E+06    -94.8082E+06    -15.5663E+06     633.154E+03
             421     64.9012E-03     5.03972E-03     64.7052E-03     348.450E-03    -173.604E-03    -174.846E-03    -173.296E-03     348.141E-03    -174.846E-03     24.9368E-03     375.598E-03     90.5116E+06    -39.1195E+06    -105.570E+06    -140.834E+06    -105.633E+06    -140.771E+06    -39.1195E+06     840.898E+03
             422     64.8241E-03     4.19976E-03     64.6879E-03     348.751E-03    -173.922E-03    -174.829E-03    -173.792E-03     348.621E-03    -174.829E-03     15.8439E-03     368.100E-03     105.611E+06    -63.5890E+06    -115.925E+06    -184.523E+06    -115.956E+06    -184.491E+06    -63.5890E+06     355.437E+03
             423     64.7658E-03     3.35981E-03     64.6786E-03     349.034E-03    -174.194E-03    -174.840E-03    -174.210E-03     348.995E-03    -174.785E-03     8.50573E-03     361.682E-03     125.187E+06    -87.4564E+06    -126.328E+06    -227.137E+06    -126.353E+06    -227.112E+06    -87.4564E+06    -277.890E+03
             424     64.7277E-03     2.52027E-03     64.6786E-03     349.247E-03    -174.493E-03    -174.754E-03    -174.550E-03     349.238E-03    -174.688E-03     4.18554E-03     356.559E-03     142.241E+06    -109.720E+06    -135.367E+06    -262.859E+06    -135.377E+06    -262.849E+06    -109.720E+06     192.028E+03
             425     64.7022E-03     1.68132E-03     64.6804E-03     349.062E-03    -174.480E-03    -174.583E-03    -174.488E-03     349.060E-03    -174.572E-03     1.68156E-03     352.486E-03     154.783E+06    -129.638E+06    -141.922E+06    -290.076E+06    -141.926E+06    -290.072E+06    -129.638E+06     317.058E+03
             426     64.6882E-03     839.817E-06     64.6827E-03     348.990E-03    -174.290E-03    -174.700E-03    -174.627E-03     348.990E-03    -174.363E-03    -169.463E-06     350.099E-03     168.093E+06    -141.289E+06    -147.719E+06    -312.502E+06    -145.890E+06    -312.496E+06    -143.124E+06     3.95002E+03
             427     66.1788E-03     14.2894E-03     64.6177E-03     365.605E-03    -174.868E-03    -190.737E-03    -177.913E-03     352.781E-03    -174.868E-03     160.745E-03     460.682E-03     119.077E+06     124.204E+06     91.3272E+06    -7.71429E+06    -7.71101E+06     91.3239E+06     124.204E+06     411.185E+03
             428     65.7185E-03     13.4473E-03     64.3280E-03     365.284E-03    -174.804E-03    -190.479E-03    -177.199E-03     352.003E-03    -174.804E-03     164.800E-03     469.480E-03     102.969E+06     97.0785E+06     75.6433E+06    -14.9155E+06    -14.9106E+06     75.6384E+06     97.0785E+06     441.243E+03
             429     65.3952E-03     12.6071E-03     64.1685E-03     356.873E-03    -174.778E-03    -182.095E-03    -174.291E-03     349.069E-03    -174.778E-03     128.516E-03     443.050E-03     90.4758E+06     76.7156E+06     55.7244E+06    -22.3587E+06    -22.3532E+06     55.7189E+06     76.7156E+06     238.585E+03
             430     65.0619E-03     11.7642E-03     63.9895E-03     356.104E-03    -174.788E-03    -181.316E-03    -174.009E-03     348.797E-03    -174.788E-03     123.851E-03     438.774E-03     87.3043E+06     67.0607E+06     41.8330E+06    -30.0670E+06    -30.0631E+06     41.8292E+06     67.0607E+06     148.670E+03
             431     64.7737E-03     10.9236E-03     63.8460E-03     353.503E-03    -174.785E-03    -178.718E-03    -173.332E-03     348.117E-03    -174.785E-03     106.435E-03     428.170E-03     87.1130E+06     59.7826E+06     34.3373E+06    -37.2109E+06    -37.2085E+06     34.3348E+06     59.7826E+06     58.3846E+03
             432     64.5085E-03     10.0832E-03     63.7155E-03     352.277E-03    -174.761E-03    -177.515E-03    -173.059E-03     347.821E-03    -174.761E-03     96.6182E-03     422.814E-03     86.7731E+06     50.9332E+06     28.8390E+06    -44.7329E+06    -44.7239E+06     28.8300E+06     50.9332E+06     424.977E+03
             433     64.2680E-03     9.24379E-03     63.5997E-03     350.731E-03    -174.747E-03    -175.985E-03    -172.541E-03     347.288E-03    -174.747E-03     84.6557E-03     416.184E-03     87.1223E+06     42.5400E+06     23.4525E+06    -52.5379E+06    -52.5174E+06     23.4320E+06     42.5400E+06     881.276E+03
             434     64.0570E-03     8.40151E-03     63.5037E-03     349.550E-03    -174.626E-03    -174.924E-03    -172.254E-03     347.016E-03    -174.762E-03     72.5053E-03     409.289E-03     88.7704E+06     35.7330E+06     17.6948E+06    -60.6705E+06    -60.6525E+06     17.6767E+06     35.7330E+06       887.4E+03
             435     63.8716E-03     7.56167E-03     63.4224E-03     348.968E-03    -174.179E-03    -174.789E-03    -172.410E-03     347.199E-03    -174.789E-03     60.3858E-03     401.608E-03     87.1801E+06     26.1439E+06     114.368E+03    -70.6949E+06    -70.6786E+06      97.993E+03     26.1439E+06     931.241E+03
             436     63.7158E-03     6.72255E-03     63.3602E-03     348.199E-03    -173.365E-03    -174.835E-03    -172.268E-03     347.103E-03    -174.835E-03     47.3396E-03     392.632E-03     81.0962E+06     8.61835E+06    -42.4220E+06    -81.8160E+06    -81.7887E+06    -42.4493E+06     8.61835E+06     847.922E+03
             437     63.5900E-03     5.87943E-03     63.3176E-03     348.226E-03    -173.335E-03    -174.891E-03    -172.720E-03     347.611E-03    -174.891E-03     35.3474E-03     383.934E-03     81.3265E+06    -13.9884E+06    -84.5094E+06    -102.925E+06    -92.8739E+06    -94.5601E+06    -13.9884E+06     425.700E+03
             438     63.4873E-03     5.03985E-03     63.2869E-03     348.847E-03    -173.962E-03    -174.885E-03    -173.660E-03     348.545E-03    -174.885E-03     24.5361E-03     376.017E-03     91.3204E+06    -37.8677E+06    -104.374E+06    -140.824E+06    -104.387E+06    -140.811E+06    -37.8677E+06     298.420E+03
             439     63.4084E-03     4.20074E-03     63.2690E-03     348.754E-03    -173.914E-03    -174.840E-03    -173.791E-03     348.631E-03    -174.840E-03     15.5931E-03     368.108E-03     105.598E+06    -62.8000E+06    -115.589E+06    -183.773E+06    -115.599E+06    -183.763E+06    -62.8000E+06     785.631E+03
             440     63.3521E-03     3.36055E-03     63.2629E-03     348.782E-03    -173.942E-03    -174.841E-03    -173.895E-03     348.736E-03    -174.841E-03     9.51372E-03     361.424E-03     125.020E+06    -86.8504E+06    -125.439E+06    -226.233E+06    -125.463E+06    -226.210E+06    -86.8504E+06     741.242E+03
             441     63.3106E-03     2.51964E-03     63.2605E-03     349.309E-03    -174.478E-03    -174.830E-03    -174.479E-03     349.295E-03    -174.816E-03     4.66471E-03     356.629E-03     141.434E+06    -111.328E+06    -135.299E+06    -263.013E+06    -135.315E+06    -262.997E+06    -111.328E+06     29.7763E+03
             442     63.2861E-03     1.67904E-03     63.2638E-03     349.415E-03    -174.671E-03    -174.744E-03    -174.684E-03     349.413E-03    -174.729E-03     1.37957E-03     352.859E-03     154.400E+06    -131.148E+06    -142.422E+06    -290.785E+06    -142.424E+06    -290.784E+06    -131.148E+06     2.46061E+03
             443     63.2719E-03     840.166E-06     63.2663E-03     349.298E-03    -174.440E-03    -174.858E-03    -174.799E-03     349.297E-03    -174.498E-03    -200.839E-06     350.400E-03     167.341E+06    -141.583E+06    -148.026E+06    -312.049E+06    -146.203E+06    -312.038E+06    -143.418E+06     400.800E+03
             444     64.7947E-03     14.2887E-03     63.1995E-03     365.912E-03    -174.872E-03    -191.040E-03    -178.240E-03     353.112E-03    -174.872E-03     160.864E-03     461.052E-03     119.176E+06     124.433E+06     91.0876E+06    -7.72170E+06    -7.71821E+06     91.0841E+06     124.433E+06     344.003E+03
             445     64.3329E-03     13.4481E-03     62.9116E-03     365.149E-03    -174.801E-03    -190.348E-03    -177.121E-03     351.922E-03    -174.801E-03     164.543E-03     469.332E-03     103.293E+06     97.5170E+06     75.3981E+06    -15.0397E+06    -15.0334E+06     75.3918E+06     97.5170E+06     697.470E+03
             446     64.0054E-03     12.6048E-03     62.7520E-03     356.741E-03    -174.779E-03    -181.961E-03    -174.180E-03     348.960E-03    -174.779E-03     128.321E-03     442.811E-03     90.7262E+06     77.1886E+06     55.7662E+06    -22.2902E+06    -22.2776E+06     55.7537E+06     77.1886E+06     938.630E+03
             447     63.6677E-03     11.7653E-03     62.5712E-03     356.247E-03    -174.780E-03    -181.467E-03    -174.280E-03     349.060E-03    -174.780E-03     122.808E-03     438.911E-03     87.3295E+06     67.8062E+06     42.6042E+06    -29.3409E+06    -29.3275E+06     42.5909E+06     67.8062E+06     818.685E+03
             448     63.3767E-03     10.9251E-03     62.4279E-03     353.457E-03    -174.761E-03    -178.696E-03    -173.376E-03     348.137E-03    -174.761E-03     105.826E-03     428.189E-03     87.0541E+06     60.3161E+06     34.7692E+06    -36.6461E+06    -36.6374E+06     34.7605E+06     60.3161E+06     371.941E+03
             449     63.1087E-03     10.0847E-03     62.2977E-03     352.086E-03    -174.740E-03    -177.346E-03    -172.838E-03     347.578E-03    -174.740E-03     97.1503E-03     422.663E-03     86.4644E+06     50.9185E+06     29.0688E+06    -44.3462E+06    -44.3414E+06     29.0640E+06     50.9185E+06     192.039E+03
             450     62.8652E-03     9.24296E-03     62.1820E-03     350.785E-03    -174.733E-03    -176.052E-03    -172.556E-03     347.290E-03    -174.733E-03     85.2973E-03     416.178E-03     86.7812E+06     41.9260E+06     23.3731E+06    -52.6267E+06    -52.6240E+06     23.3704E+06     41.9260E+06    -185.388E+03
             451     62.6534E-03     8.40341E-03     62.0873E-03     349.695E-03    -174.610E-03    -175.085E-03    -172.370E-03     347.114E-03    -174.744E-03     73.1971E-03     409.316E-03     88.7563E+06     34.9602E+06     17.0507E+06    -61.3849E+06    -61.3810E+06     17.0468E+06     34.9602E+06    -84.6362E+03
             452     62.4633E-03     7.56207E-03     62.0038E-03     348.518E-03    -173.725E-03    -174.792E-03    -171.949E-03     346.742E-03    -174.792E-03     60.3742E-03     401.122E-03     87.0991E+06     25.7998E+06     167.193E+03    -70.8724E+06    -70.8592E+06     154.048E+03     25.7998E+06     489.529E+03
             453     62.3085E-03     6.71917E-03     61.9451E-03     348.153E-03    -173.281E-03    -174.872E-03    -172.193E-03     347.065E-03    -174.872E-03     47.1946E-03     392.617E-03     80.9214E+06     8.54487E+06    -42.1373E+06    -81.5607E+06    -81.5414E+06    -42.1566E+06     8.54487E+06     557.696E+03
             454     62.1778E-03     5.88033E-03     61.8991E-03     348.616E-03    -173.706E-03    -174.911E-03    -173.087E-03     347.997E-03    -174.911E-03     35.4473E-03     384.275E-03     81.2005E+06    -14.0381E+06    -84.4592E+06    -102.835E+06    -92.6584E+06    -94.6357E+06    -14.0381E+06     722.948E+03
             455     62.0729E-03     5.04074E-03     61.8679E-03     348.464E-03    -173.546E-03    -174.918E-03    -173.242E-03     348.159E-03    -174.918E-03     24.7052E-03     375.607E-03     91.0759E+06    -37.8734E+06    -103.937E+06    -140.612E+06    -103.968E+06    -140.581E+06    -37.8734E+06     878.608E+03
             456     61.9957E-03     4.19946E-03     61.8533E-03     348.618E-03    -173.672E-03    -174.946E-03    -173.540E-03     348.486E-03    -174.946E-03     16.2268E-03     368.055E-03     105.506E+06    -62.6309E+06    -114.810E+06    -183.437E+06    -114.820E+06    -183.427E+06    -62.6309E+06     591.445E+03
             457     61.9366E-03     3.35834E-03     61.8455E-03     349.264E-03    -174.314E-03    -174.950E-03    -174.266E-03     349.216E-03    -174.950E-03     9.37593E-03     361.931E-03     124.617E+06    -86.9651E+06    -125.120E+06    -225.846E+06    -125.134E+06    -225.833E+06    -86.9651E+06     852.817E+03
             458     61.8940E-03     2.51923E-03     61.8427E-03     349.416E-03    -174.496E-03    -174.921E-03    -174.488E-03     349.406E-03    -174.917E-03     3.90052E-03     356.730E-03     142.126E+06    -108.986E+06    -133.537E+06    -261.598E+06    -133.549E+06    -261.587E+06    -108.986E+06     649.407E+03
             459     61.8685E-03     1.68053E-03     61.8457E-03     349.524E-03    -174.607E-03    -174.917E-03    -174.611E-03     349.523E-03    -174.912E-03     1.02426E-03     353.013E-03     156.332E+06    -128.267E+06    -140.948E+06    -290.458E+06    -140.953E+06    -290.453E+06    -128.267E+06     301.771E+03
             460     61.8556E-03     839.744E-06     61.8499E-03     349.762E-03    -174.606E-03    -175.156E-03    -175.086E-03     349.761E-03    -174.675E-03     214.640E-06     350.897E-03     167.260E+06    -141.828E+06    -148.081E+06    -312.120E+06    -147.171E+06    -312.106E+06    -142.752E+06     539.898E+03
             461     63.4115E-03     14.2889E-03     61.7806E-03     365.837E-03    -174.886E-03    -190.952E-03    -178.142E-03     353.027E-03    -174.886E-03     160.877E-03     461.174E-03     118.826E+06     124.009E+06     90.6249E+06    -7.79725E+06    -7.79686E+06     90.6245E+06     124.009E+06     17.8077E+03
             462     62.9479E-03     13.4475E-03     61.4948E-03     365.630E-03    -174.802E-03    -190.828E-03    -177.622E-03     352.424E-03    -174.802E-03     164.420E-03     469.886E-03     102.720E+06     97.0015E+06     74.3785E+06    -15.1428E+06    -15.1401E+06     74.3759E+06     97.0015E+06     361.425E+03
             463     62.6185E-03     12.6075E-03     61.3362E-03     357.305E-03    -174.746E-03    -182.559E-03    -174.778E-03     349.525E-03    -174.746E-03     128.420E-03     443.230E-03     90.3120E+06     77.8719E+06     55.8325E+06    -21.3869E+06    -21.3725E+06     55.8181E+06     77.8719E+06     973.001E+03
             464     62.2726E-03     11.7659E-03     61.1510E-03     355.925E-03    -174.738E-03    -181.188E-03    -173.978E-03     348.716E-03    -174.738E-03     122.907E-03     438.509E-03     86.9755E+06     69.1353E+06     43.2534E+06    -27.8227E+06    -27.7983E+06     43.2290E+06     69.1353E+06     1.30482E+06
             465     61.9828E-03     10.9248E-03     61.0125E-03     353.002E-03    -174.749E-03    -178.253E-03    -172.867E-03     347.616E-03    -174.749E-03     106.411E-03     427.676E-03     86.3536E+06     61.1618E+06     35.0373E+06    -35.2244E+06    -35.2038E+06     35.0167E+06     61.1618E+06     1.18274E+06
             466     61.7082E-03     10.0830E-03     60.8789E-03     351.884E-03    -174.762E-03    -177.121E-03    -172.562E-03     347.324E-03    -174.762E-03     97.5984E-03     422.430E-03     86.1016E+06     51.8048E+06     30.0038E+06    -43.0682E+06    -43.0547E+06     29.9903E+06     51.8048E+06     871.829E+03
             467     61.4652E-03     9.24277E-03     60.7663E-03     350.795E-03    -174.775E-03    -176.020E-03    -172.493E-03     347.268E-03    -174.775E-03     85.7441E-03     416.218E-03     86.7751E+06     42.6803E+06     24.2801E+06    -51.8154E+06    -51.8028E+06     24.2675E+06     42.6803E+06     418.112E+03
             468     61.2456E-03     8.40160E-03     60.6666E-03     349.803E-03    -174.577E-03    -175.226E-03    -172.397E-03     347.187E-03    -174.790E-03     73.6165E-03     409.526E-03     88.8018E+06     34.5584E+06     16.6854E+06    -61.8203E+06    -61.8128E+06     16.6779E+06     34.5584E+06     3.91193E+03
             469     61.0598E-03     7.56146E-03     60.5898E-03     348.842E-03    -174.023E-03    -174.819E-03    -172.261E-03     347.080E-03    -174.819E-03     60.2229E-03     401.505E-03     87.1695E+06     24.2395E+06    -89.1725E+03    -72.2725E+06    -72.2717E+06    -89.9385E+03     24.2395E+06    -174.258E+03
             470     60.8991E-03     6.72146E-03     60.5270E-03     348.481E-03    -173.622E-03    -174.858E-03    -172.534E-03     347.392E-03    -174.858E-03     47.2008E-03     392.775E-03     80.6973E+06     6.79219E+06    -42.1376E+06    -82.9433E+06    -82.9338E+06    -42.1471E+06     6.79219E+06    -29.2269E+03
             471     60.7654E-03     5.88063E-03     60.4802E-03     348.112E-03    -173.198E-03    -174.914E-03    -172.583E-03     347.497E-03    -174.914E-03     35.3553E-03     383.735E-03     80.5931E+06    -15.4244E+06    -85.2868E+06    -103.590E+06    -93.7559E+06    -95.1206E+06    -15.4244E+06     279.870E+03
             472     60.6626E-03     5.03896E-03     60.4529E-03     348.272E-03    -173.282E-03    -174.990E-03    -172.975E-03     347.965E-03    -174.990E-03     24.7542E-03     375.489E-03     90.5299E+06    -38.1013E+06    -104.241E+06    -140.135E+06    -104.263E+06    -140.113E+06    -38.1013E+06     483.498E+03
             473     60.5812E-03     4.19827E-03     60.4355E-03     349.140E-03    -174.130E-03    -175.010E-03    -174.005E-03     349.015E-03    -175.010E-03     15.6615E-03     368.538E-03     105.938E+06    -62.1402E+06    -114.703E+06    -183.409E+06    -114.715E+06    -183.397E+06    -62.1402E+06     552.729E+03
             474     60.5191E-03     3.36046E-03     60.4257E-03     349.346E-03    -174.380E-03    -174.966E-03    -174.339E-03     349.305E-03    -174.966E-03     8.66859E-03     362.021E-03     124.782E+06    -86.4515E+06    -124.871E+06    -225.588E+06    -124.877E+06    -225.582E+06    -86.4515E+06     486.528E+03
             475     60.4789E-03     2.52040E-03     60.4264E-03     349.245E-03    -174.273E-03    -174.971E-03    -174.263E-03     349.234E-03    -174.971E-03     4.13996E-03     356.579E-03     141.434E+06    -108.276E+06    -133.583E+06    -260.495E+06    -133.584E+06    -260.494E+06    -108.276E+06     348.240E+03
             476     60.4519E-03     1.67828E-03     60.4286E-03     349.653E-03    -174.607E-03    -175.046E-03    -174.605E-03     349.651E-03    -175.046E-03     1.41826E-03     353.137E-03     156.260E+06    -127.352E+06    -140.615E+06    -289.712E+06    -140.624E+06    -289.703E+06    -127.352E+06     83.1041E+03
             477     60.4372E-03     839.438E-06     60.4314E-03     350.097E-03    -174.744E-03    -175.353E-03    -175.260E-03     350.096E-03    -174.837E-03    -138.750E-06     351.240E-03     167.829E+06    -141.005E+06    -146.167E+06    -311.342E+06    -145.257E+06    -311.328E+06    -141.930E+06    -45.6358E+03
             478     62.0329E-03     14.2882E-03     60.3650E-03     365.612E-03    -174.890E-03    -190.722E-03    -177.936E-03     352.826E-03    -174.890E-03     160.554E-03     460.942E-03     118.414E+06     123.721E+06     90.5430E+06    -7.59902E+06    -7.59854E+06     90.5425E+06     123.721E+06     48.6556E+03
             479     61.5620E-03     13.4468E-03     60.0755E-03     365.783E-03    -174.812E-03    -190.971E-03    -177.692E-03     352.504E-03    -174.812E-03     165.044E-03     470.013E-03     102.517E+06     96.6274E+06     74.2274E+06    -15.2351E+06    -15.2338E+06     74.2260E+06     96.6274E+06     142.252E+03
             480     61.2283E-03     12.6070E-03     59.9163E-03     357.599E-03    -174.754E-03    -182.845E-03    -174.925E-03     349.679E-03    -174.754E-03     129.618E-03     443.496E-03     90.3767E+06     77.0621E+06     55.0070E+06    -22.2636E+06    -22.2569E+06     55.0003E+06     77.0621E+06     412.802E+03
             481     60.8841E-03     11.7664E-03     59.7363E-03     356.102E-03    -174.744E-03    -181.359E-03    -174.046E-03     348.790E-03    -174.744E-03     123.781E-03     438.728E-03     87.1641E+06     68.3943E+06     42.5450E+06    -28.7534E+06    -28.7393E+06     42.5309E+06     68.3943E+06     731.543E+03
             482     60.5875E-03     10.9243E-03     59.5945E-03     353.122E-03    -174.749E-03    -178.373E-03    -173.026E-03     347.776E-03    -174.749E-03     106.023E-03     427.813E-03     86.5456E+06     61.4183E+06     35.3855E+06    -35.1438E+06    -35.1263E+06     35.3680E+06     61.4183E+06     958.582E+03
             483     60.3116E-03     10.0839E-03     59.4627E-03     351.747E-03    -174.757E-03    -176.990E-03    -172.536E-03     347.293E-03    -174.757E-03     96.4630E-03     422.299E-03     86.4157E+06     52.4896E+06     30.3802E+06    -42.8041E+06    -42.7857E+06     30.3618E+06     52.4896E+06     1.15948E+06
             484     60.0632E-03     9.24226E-03     59.3479E-03     350.312E-03    -174.707E-03    -175.605E-03    -172.052E-03     346.840E-03    -174.788E-03     85.0155E-03     415.778E-03     87.1249E+06     43.6851E+06     24.9144E+06    -51.2903E+06    -51.2679E+06     24.8920E+06     43.6851E+06     1.29527E+06
             485     59.8428E-03     8.40185E-03     59.2500E-03     349.528E-03    -174.541E-03    -174.987E-03    -172.105E-03     346.943E-03    -174.838E-03     73.1469E-03     409.219E-03     88.5842E+06     35.6613E+06     18.0599E+06    -60.4010E+06    -60.3818E+06     18.0407E+06     35.6613E+06     965.638E+03
             486     59.6522E-03     7.56067E-03     59.1711E-03     349.230E-03    -174.363E-03    -174.867E-03    -172.592E-03     347.459E-03    -174.867E-03     60.4982E-03     401.846E-03     86.5099E+06     24.7600E+06     375.868E+03    -71.0257E+06    -71.0183E+06     368.546E+03     24.7600E+06     121.854E+03
             487     59.4890E-03     6.72100E-03     59.1081E-03     348.673E-03    -173.789E-03    -174.885E-03    -172.674E-03     347.558E-03    -174.885E-03     47.7600E-03     393.014E-03     80.2115E+06     7.16528E+06    -42.1691E+06    -82.0942E+06    -82.0898E+06    -42.1734E+06     7.16528E+06    -197.184E+03
             488     59.3581E-03     5.87982E-03     59.0661E-03     348.193E-03    -173.263E-03    -174.929E-03    -172.658E-03     347.587E-03    -174.929E-03     34.9958E-03     383.908E-03     80.6463E+06    -15.3776E+06    -85.2805E+06    -103.604E+06    -93.5752E+06    -95.3089E+06    -15.3776E+06    -104.997E+03
             489     59.2494E-03     5.03897E-03     59.0347E-03     348.502E-03    -173.526E-03    -174.977E-03    -173.230E-03     348.206E-03    -174.977E-03     24.4259E-03     375.600E-03     90.3561E+06    -38.4813E+06    -104.882E+06    -140.329E+06    -104.885E+06    -140.326E+06    -38.4813E+06     114.371E+03
             490     59.1649E-03     4.20083E-03     59.0156E-03     348.872E-03    -173.870E-03    -175.002E-03    -173.739E-03     348.741E-03    -175.002E-03     16.0417E-03     368.168E-03     105.701E+06    -62.0037E+06    -115.490E+06    -183.096E+06    -115.498E+06    -183.088E+06    -62.0037E+06     472.019E+03
             491     59.1055E-03     3.35889E-03     59.0100E-03     349.116E-03    -174.090E-03    -175.027E-03    -174.044E-03     349.071E-03    -175.027E-03     9.14634E-03     361.840E-03     124.547E+06    -86.3036E+06    -125.386E+06    -225.316E+06    -125.392E+06    -225.311E+06    -86.3036E+06     404.573E+03
             492     59.0623E-03     2.51787E-03     59.0086E-03     349.530E-03    -174.490E-03    -175.040E-03    -174.480E-03     349.519E-03    -175.040E-03     4.03348E-03     356.871E-03     139.439E+06    -110.632E+06    -134.148E+06    -260.115E+06    -134.148E+06    -260.114E+06    -110.632E+06    -22.2188E+03
             493     59.0346E-03     1.68028E-03     59.0106E-03     349.811E-03    -174.746E-03    -175.065E-03    -174.745E-03     349.809E-03    -175.065E-03     1.22766E-03     353.263E-03     154.499E+06    -129.866E+06    -140.841E+06    -289.487E+06    -140.847E+06    -289.481E+06    -129.866E+06    -745.690E+03
             494     59.0189E-03     839.842E-06     59.0129E-03     350.113E-03    -174.721E-03    -175.392E-03    -175.223E-03     350.112E-03    -174.889E-03     227.128E-06     351.239E-03     168.263E+06    -141.061E+06    -145.210E+06    -311.346E+06    -144.761E+06    -311.328E+06    -141.527E+06    -906.778E+03
             495     60.6545E-03     14.2890E-03     58.9474E-03     365.635E-03    -174.885E-03    -190.750E-03    -177.982E-03     352.867E-03    -174.885E-03     160.394E-03     460.886E-03     118.336E+06     123.422E+06     90.1869E+06    -7.83288E+06    -7.83210E+06     90.1861E+06     123.422E+06     146.949E+03
             496     60.1809E-03     13.4478E-03     58.6592E-03     365.358E-03    -174.821E-03    -190.537E-03    -177.230E-03     352.051E-03    -174.821E-03     165.193E-03     469.426E-03     102.754E+06     96.4776E+06     74.1978E+06    -15.5860E+06    -15.5820E+06     74.1937E+06     96.4776E+06     374.943E+03
             497     59.8407E-03     12.6050E-03     58.4980E-03     357.147E-03    -174.795E-03    -182.353E-03    -174.479E-03     349.274E-03    -174.795E-03     129.183E-03     443.085E-03     90.4777E+06     77.1563E+06     55.2859E+06    -22.2101E+06    -22.2061E+06     55.2820E+06     77.1563E+06     121.110E+03
             498     59.4923E-03     11.7643E-03     58.3176E-03     356.404E-03    -174.790E-03    -181.615E-03    -174.353E-03     349.142E-03    -174.790E-03     123.501E-03     439.158E-03     87.2081E+06     68.5930E+06     42.6162E+06    -28.6322E+06    -28.6316E+06     42.6156E+06     68.5930E+06    -82.5990E+03
             499     59.1934E-03     10.9255E-03     58.1764E-03     353.584E-03    -174.771E-03    -178.813E-03    -173.402E-03     348.172E-03    -174.771E-03     106.753E-03     428.414E-03     86.8009E+06     60.9501E+06     34.6489E+06    -35.9468E+06    -35.9422E+06     34.6442E+06     60.9501E+06     285.235E+03
             500     58.9153E-03     10.0844E-03     58.0459E-03     352.069E-03    -174.756E-03    -177.313E-03    -172.763E-03     347.520E-03    -174.756E-03     97.5477E-03     422.713E-03     86.4183E+06     52.1077E+06     30.0549E+06    -43.1649E+06    -43.1487E+06     30.0387E+06     52.1077E+06     943.928E+03
             501     58.6644E-03     9.24357E-03     57.9316E-03     350.470E-03    -174.692E-03    -175.778E-03    -172.203E-03     346.976E-03    -174.774E-03     85.2394E-03     415.867E-03     86.9584E+06     43.6757E+06     25.1075E+06    -51.0632E+06    -51.0416E+06     25.0860E+06     43.6757E+06     1.23238E+06
             502     58.4408E-03     8.40100E-03     57.8338E-03     349.316E-03    -174.350E-03    -174.966E-03    -171.915E-03     346.744E-03    -174.829E-03     72.9970E-03     408.873E-03     88.7213E+06     36.4614E+06     18.6928E+06    -59.7981E+06    -59.7792E+06     18.6739E+06     36.4614E+06     1.16958E+06
             503     58.2445E-03     7.56101E-03     57.7516E-03     348.708E-03    -173.808E-03    -174.900E-03    -172.040E-03     346.940E-03    -174.900E-03     60.2992E-03     401.262E-03     86.8347E+06     26.0340E+06     1.59097E+06    -70.1239E+06    -70.0885E+06     1.55556E+06     26.0340E+06     1.09811E+06
             504     58.0820E-03     6.71966E-03     57.6920E-03     348.724E-03    -173.772E-03    -174.952E-03    -172.676E-03     347.627E-03    -174.952E-03     47.4196E-03     393.151E-03     80.3532E+06     7.32112E+06    -41.8537E+06    -82.0742E+06    -82.0467E+06    -41.8812E+06     7.32112E+06     600.655E+03
             505     57.9456E-03     5.88017E-03     57.6465E-03     348.948E-03    -173.999E-03    -174.949E-03    -173.389E-03     348.338E-03    -174.949E-03     35.1408E-03     384.615E-03     80.8488E+06    -15.3671E+06    -85.4862E+06    -103.798E+06    -93.8332E+06    -95.4505E+06    -15.3671E+06     398.780E+03
             506     57.8381E-03     5.04129E-03     57.6179E-03     348.501E-03    -173.563E-03    -174.938E-03    -173.263E-03     348.201E-03    -174.938E-03     24.6655E-03     375.533E-03     90.0808E+06    -38.4192E+06    -104.967E+06    -139.895E+06    -104.988E+06    -139.874E+06    -38.4192E+06     497.359E+03
             507     57.7524E-03     4.19765E-03     57.5996E-03     348.390E-03    -173.388E-03    -175.002E-03    -173.255E-03     348.258E-03    -175.002E-03     15.9585E-03     367.708E-03     104.426E+06    -62.8168E+06    -115.837E+06    -182.430E+06    -115.840E+06    -182.426E+06    -62.8168E+06     39.4576E+03
             508     57.6894E-03     3.35868E-03     57.5915E-03     349.193E-03    -174.115E-03    -175.079E-03    -174.073E-03     349.152E-03    -175.079E-03     8.77136E-03     361.898E-03     123.605E+06    -87.4827E+06    -126.170E+06    -225.422E+06    -126.173E+06    -225.419E+06    -87.4827E+06    -338.734E+03
             509     57.6453E-03     2.52057E-03     57.5901E-03     349.827E-03    -174.754E-03    -175.074E-03    -174.763E-03     349.817E-03    -175.054E-03     4.03396E-03     357.174E-03     138.839E+06    -110.837E+06    -134.566E+06    -259.804E+06    -134.568E+06    -259.802E+06    -110.837E+06    -230.566E+03
             510     57.6176E-03     1.67876E-03     57.5931E-03     349.945E-03    -174.746E-03    -175.200E-03    -175.012E-03     349.943E-03    -174.931E-03     873.186E-06     353.398E-03     153.331E+06    -130.697E+06    -141.269E+06    -288.943E+06    -141.272E+06    -288.940E+06    -130.697E+06     20.2548E+03
             511     57.6019E-03     839.052E-06     57.5957E-03     349.647E-03    -174.258E-03    -175.389E-03    -174.723E-03     349.645E-03    -174.921E-03    -353.918E-06     350.767E-03     167.763E+06    -143.929E+06    -146.952E+06    -313.172E+06    -146.456E+06    -313.158E+06    -144.438E+06    -280.610E+03
             512     59.2772E-03     14.2884E-03     57.5293E-03     365.651E-03    -174.885E-03    -190.766E-03    -178.015E-03     352.901E-03    -174.885E-03     160.551E-03     460.928E-03     118.378E+06     123.377E+06     89.8036E+06    -8.00826E+06    -8.00722E+06     89.8025E+06     123.377E+06     267.791E+03
             513     58.8006E-03     13.4468E-03     57.2425E-03     365.420E-03    -174.813E-03    -190.607E-03    -177.390E-03     352.204E-03    -174.813E-03     164.689E-03     469.569E-03     102.546E+06     97.0714E+06     74.8607E+06    -14.7560E+06    -14.7524E+06     74.8571E+06     97.0714E+06     349.997E+03
             514     58.4568E-03     12.6065E-03     57.0813E-03     356.864E-03    -174.785E-03    -182.079E-03    -174.262E-03     349.047E-03    -174.785E-03     128.666E-03     442.834E-03     90.1119E+06     77.7739E+06     56.0614E+06    -21.1655E+06    -21.1617E+06     56.0576E+06     77.7739E+06     161.730E+03
             515     58.1028E-03     11.7655E-03     56.8991E-03     355.707E-03    -174.811E-03    -180.896E-03    -173.663E-03     348.474E-03    -174.811E-03     123.133E-03     438.379E-03     86.9236E+06     68.4978E+06     42.3568E+06    -28.4751E+06    -28.4742E+06     42.3559E+06     68.4978E+06    -160.750E+03
             516     57.8002E-03     10.9229E-03     56.7587E-03     353.324E-03    -174.834E-03    -178.491E-03    -173.060E-03     347.893E-03    -174.834E-03     106.883E-03     428.090E-03     86.4684E+06     60.6570E+06     33.8912E+06    -36.0193E+06    -36.0188E+06     33.8907E+06     60.6570E+06    -33.5451E+03
             517     57.5183E-03     10.0824E-03     56.6277E-03     352.470E-03    -174.828E-03    -177.642E-03    -173.070E-03     347.899E-03    -174.828E-03     97.8584E-03     423.126E-03     86.7056E+06     52.1724E+06     29.3468E+06    -43.6246E+06    -43.6148E+06     29.3370E+06     52.1724E+06     236.263E+03
             518     57.2641E-03     9.24213E-03     56.5134E-03     351.160E-03    -174.811E-03    -176.349E-03    -172.833E-03     347.644E-03    -174.811E-03     85.6134E-03     416.587E-03     87.7554E+06     44.4846E+06     25.2030E+06    -51.2991E+06    -51.2846E+06     25.1885E+06     44.4846E+06     605.403E+03
             519     57.0394E-03     8.40328E-03     56.4170E-03     349.640E-03    -174.404E-03    -175.236E-03    -172.234E-03     347.055E-03    -174.821E-03     73.2290E-03     409.224E-03     89.4048E+06     36.6454E+06     18.1899E+06    -60.5462E+06     -60.528E+06     18.1717E+06     36.6454E+06     1.12972E+06
             520     56.8409E-03     7.56049E-03     56.3358E-03     348.613E-03    -173.737E-03    -174.877E-03    -171.979E-03     346.856E-03    -174.877E-03     60.0548E-03     401.101E-03     87.7016E+06     26.3903E+06     1.86901E+06    -70.7509E+06    -70.7090E+06     1.82711E+06     26.3903E+06     1.57053E+06
             521     56.6735E-03     6.71984E-03     56.2737E-03     348.477E-03    -173.536E-03    -174.942E-03    -172.463E-03     347.405E-03    -174.942E-03     46.8879E-03     392.788E-03     80.6924E+06     8.25269E+06    -40.2532E+06    -81.5002E+06    -81.4371E+06    -40.3164E+06     8.25269E+06     1.30466E+06
             522     56.5338E-03     5.87972E-03     56.2272E-03     348.654E-03    -173.679E-03    -174.976E-03    -173.075E-03     348.050E-03    -174.976E-03     34.9841E-03     384.359E-03     81.2013E+06    -14.6502E+06    -84.1968E+06    -103.860E+06    -92.7522E+06    -95.3043E+06    -14.6502E+06     688.446E+03
             523     56.4263E-03     5.03862E-03     56.2009E-03     348.855E-03    -173.894E-03    -174.961E-03    -173.599E-03     348.560E-03    -174.961E-03     24.3605E-03     376.070E-03     89.7302E+06    -38.0778E+06    -104.062E+06    -139.413E+06    -104.083E+06    -139.392E+06    -38.0778E+06     427.909E+03
             524     56.3396E-03     4.20112E-03     56.1827E-03     348.860E-03    -173.922E-03    -174.938E-03    -173.797E-03     348.735E-03    -174.938E-03     15.5785E-03     368.191E-03     104.475E+06    -62.6305E+06    -115.269E+06    -182.188E+06    -115.273E+06    -182.184E+06    -62.6305E+06     164.466E+03
             525     56.2743E-03     3.35939E-03     56.1739E-03     348.932E-03    -173.969E-03    -174.963E-03    -173.929E-03     348.892E-03    -174.963E-03     8.44129E-03     361.556E-03     124.195E+06    -85.9192E+06    -124.807E+06    -224.583E+06    -124.809E+06    -224.581E+06    -85.9192E+06    -228.889E+03
             526     56.2285E-03     2.51756E-03     56.1721E-03     349.418E-03    -174.408E-03    -175.011E-03    -174.418E-03     349.409E-03    -174.991E-03     3.77665E-03     356.757E-03     140.119E+06    -109.391E+06    -134.548E+06    -260.202E+06    -134.550E+06    -260.200E+06    -109.391E+06    -282.362E+03
             527     56.1993E-03     1.68045E-03     56.1742E-03     349.836E-03    -174.626E-03    -175.210E-03    -174.892E-03     349.833E-03    -174.941E-03     1.21429E-03     353.314E-03     153.903E+06    -129.731E+06    -142.624E+06    -289.579E+06    -142.631E+06    -289.572E+06    -129.731E+06     630.626E+03
             528     56.1844E-03     841.890E-06     56.1781E-03     349.705E-03    -174.017E-03    -175.688E-03    -175.004E-03     349.702E-03    -174.698E-03    -261.314E-06     350.849E-03     166.649E+06    -142.867E+06    -146.747E+06    -311.384E+06    -146.717E+06    -311.371E+06    -142.910E+06     1.40830E+06
             529     57.9016E-03     14.2885E-03     56.1109E-03     365.739E-03    -174.887E-03    -190.852E-03    -178.147E-03     353.034E-03    -174.887E-03     160.394E-03     461.121E-03     118.489E+06     123.865E+06     89.8826E+06    -7.74289E+06    -7.74187E+06     89.8816E+06     123.865E+06     283.281E+03
             530     57.4224E-03     13.4482E-03     55.8254E-03     365.459E-03    -174.808E-03    -190.652E-03    -177.433E-03     352.240E-03    -174.808E-03     164.917E-03     469.717E-03     102.754E+06     97.2723E+06     75.0184E+06    -14.7798E+06    -14.7771E+06     75.0157E+06     97.2723E+06     282.441E+03
             531     57.0728E-03     12.6067E-03     55.6631E-03     356.943E-03    -174.777E-03    -182.167E-03    -174.271E-03     349.047E-03    -174.777E-03     129.344E-03     442.871E-03     90.3591E+06     77.2387E+06     55.7352E+06    -21.8888E+06    -21.8861E+06     55.7324E+06     77.2387E+06     289.744E+03
             532     56.7179E-03     11.7644E-03     55.4844E-03     355.505E-03    -174.810E-03    -180.695E-03    -173.460E-03     348.270E-03    -174.810E-03     123.086E-03     438.151E-03     86.9624E+06     67.9602E+06     42.2673E+06    -28.9367E+06    -28.9360E+06     42.2665E+06     67.9602E+06     67.5115E+03
             533     56.4086E-03     10.9235E-03     55.3408E-03     353.012E-03    -174.850E-03    -178.162E-03    -172.792E-03     347.642E-03    -174.850E-03     106.214E-03     427.723E-03     86.3101E+06     60.3968E+06     34.3199E+06    -35.9328E+06    -35.9315E+06     34.3185E+06     60.3968E+06    -82.9428E+03
             534     56.1229E-03     10.0828E-03     55.2098E-03     352.242E-03    -174.864E-03    -177.378E-03    -172.873E-03     347.737E-03    -174.864E-03     97.1194E-03     422.885E-03     86.7293E+06     51.7787E+06     29.2937E+06    -43.9457E+06    -43.9426E+06     29.2906E+06     51.7787E+06    -315.066E+03
             535     55.8644E-03     9.24230E-03     55.0946E-03     351.242E-03    -174.854E-03    -176.387E-03    -172.901E-03     347.755E-03    -174.854E-03     85.2609E-03     416.763E-03     88.1447E+06     43.7903E+06     24.2923E+06    -52.4635E+06    -52.4580E+06     24.2869E+06     43.7903E+06    -23.3279E+03
             536     55.6366E-03     8.40061E-03     54.9988E-03     350.276E-03    -174.729E-03    -175.547E-03    -172.905E-03     347.731E-03    -174.827E-03     72.7149E-03     409.900E-03     89.6686E+06     35.9644E+06     17.3484E+06    -61.5505E+06    -61.5365E+06     17.3344E+06     35.9644E+06     782.571E+03
             537     55.4372E-03     7.56195E-03     54.9191E-03     349.166E-03    -174.156E-03    -175.009E-03    -172.630E-03     347.438E-03    -174.808E-03     59.6532E-03     401.644E-03     88.1280E+06     26.3732E+06     2.06206E+06    -71.1645E+06    -71.1498E+06     2.04735E+06     26.3732E+06     891.071E+03
             538     55.2657E-03     6.72146E-03     54.8554E-03     348.098E-03    -173.255E-03    -174.843E-03    -172.206E-03     347.049E-03    -174.843E-03     46.2829E-03     392.397E-03     81.4242E+06     8.86570E+06    -39.5121E+06    -81.7434E+06    -81.6791E+06    -39.5764E+06     8.86570E+06     1.07363E+06
             539     55.1267E-03     5.87961E-03     54.8122E-03     347.975E-03    -173.052E-03    -174.923E-03    -172.469E-03     347.392E-03    -174.923E-03     34.4124E-03     383.683E-03     80.8675E+06    -14.3714E+06    -83.9826E+06    -103.039E+06    -92.9196E+06    -94.1021E+06    -14.3714E+06     826.884E+03
             540     55.0117E-03     5.04014E-03     54.7803E-03     348.747E-03    -173.793E-03    -174.954E-03    -173.500E-03     348.454E-03    -174.954E-03     24.2364E-03     375.982E-03     89.2133E+06    -38.2957E+06    -104.322E+06    -138.787E+06    -104.331E+06    -138.777E+06    -38.2957E+06     145.148E+03
             541     54.9261E-03     4.19899E-03     54.7653E-03     349.231E-03    -174.335E-03    -174.896E-03    -174.210E-03     349.106E-03    -174.896E-03     15.7137E-03     368.656E-03     104.516E+06    -62.1649E+06    -115.204E+06    -181.847E+06    -115.210E+06    -181.841E+06    -62.1649E+06     355.361E+03
             542     54.8599E-03     3.36032E-03     54.7569E-03     349.040E-03    -174.215E-03    -174.825E-03    -174.172E-03     348.998E-03    -174.825E-03     8.74134E-03     361.680E-03     123.952E+06    -85.7955E+06    -125.427E+06    -224.386E+06    -125.430E+06    -224.384E+06    -85.7955E+06     399.860E+03
             543     54.8134E-03     2.52149E-03     54.7554E-03     348.810E-03    -173.943E-03    -174.867E-03    -173.933E-03     348.800E-03    -174.867E-03     3.84975E-03     356.111E-03     141.153E+06    -109.020E+06    -134.892E+06    -261.122E+06    -134.897E+06    -261.117E+06    -109.020E+06     339.228E+03
             544     54.7820E-03     1.67841E-03     54.7563E-03     349.216E-03    -174.099E-03    -175.117E-03    -174.096E-03     349.213E-03    -175.117E-03     1.51289E-03     352.694E-03     154.341E+06    -129.441E+06    -142.381E+06    -289.731E+06    -142.397E+06    -289.716E+06    -129.441E+06     226.547E+03
             545     54.7675E-03     836.878E-06     54.7611E-03     350.528E-03    -174.055E-03    -176.472E-03    -176.004E-03     350.526E-03    -174.522E-03     228.643E-06     351.679E-03     163.977E+06    -142.906E+06    -146.889E+06    -308.807E+06    -146.470E+06    -308.787E+06    -143.345E+06    -60.3593E+03
             546     56.5300E-03     14.2892E-03     54.6942E-03     365.713E-03    -174.903E-03    -190.810E-03    -177.987E-03     352.890E-03    -174.903E-03     160.845E-03     461.070E-03     118.576E+06     124.167E+06     89.7943E+06    -7.64115E+06    -7.64047E+06     89.7937E+06     124.167E+06     117.881E+03
             547     56.0446E-03     13.4466E-03     54.4076E-03     365.592E-03    -174.835E-03    -190.757E-03    -177.389E-03     352.224E-03    -174.835E-03     165.698E-03     469.812E-03     103.044E+06     97.1608E+06     74.5802E+06    -15.2946E+06    -15.2908E+06     74.5764E+06     97.1608E+06     489.962E+03
             548     55.6918E-03     12.6054E-03     54.2464E-03     357.226E-03    -174.800E-03    -182.427E-03    -174.570E-03     349.369E-03    -174.800E-03     129.110E-03     443.201E-03     90.6518E+06     77.4721E+06     55.9768E+06    -21.9579E+06    -21.9523E+06     55.9713E+06     77.4721E+06     259.546E+03
             549     55.3315E-03     11.7654E-03     54.0662E-03     355.866E-03    -174.808E-03    -181.058E-03    -173.871E-03     348.679E-03    -174.808E-03     122.770E-03     438.593E-03     87.2164E+06     68.6308E+06     42.8879E+06    -28.5372E+06    -28.5309E+06     42.8816E+06     68.6308E+06     204.134E+03
             550     55.0202E-03     10.9242E-03     53.9248E-03     353.156E-03    -174.824E-03    -178.333E-03    -172.934E-03     347.757E-03    -174.824E-03     106.546E-03     427.838E-03     86.5894E+06     60.3228E+06     34.7933E+06    -36.1380E+06    -36.1296E+06     34.7849E+06     60.3228E+06     454.883E+03
             551     54.7285E-03     10.0825E-03     53.7918E-03     352.156E-03    -174.827E-03    -177.328E-03    -172.821E-03     347.648E-03    -174.827E-03     97.0799E-03     422.688E-03     86.2234E+06     50.5028E+06     29.5705E+06    -44.2349E+06    -44.2294E+06     29.5650E+06     50.5028E+06     229.068E+03
             552     54.4667E-03     9.24146E-03     53.6770E-03     351.089E-03    -174.816E-03    -176.273E-03    -172.858E-03     347.674E-03    -174.816E-03     84.3604E-03     416.602E-03     87.2082E+06     41.9903E+06     23.7644E+06    -52.8881E+06    -52.8855E+06     23.7618E+06     41.9903E+06    -69.2510E+03
             553     54.2345E-03     8.40272E-03     53.5796E-03     350.182E-03    -174.708E-03    -175.474E-03    -172.884E-03     347.676E-03    -174.792E-03     72.1682E-03     409.925E-03     89.4180E+06     35.3119E+06     17.0870E+06    -61.8137E+06    -61.8086E+06     17.0819E+06     35.3119E+06    -330.553E+03
             554     54.0314E-03     7.56231E-03     53.4996E-03     349.126E-03    -174.154E-03    -174.972E-03    -172.624E-03     347.395E-03    -174.771E-03     59.7474E-03     401.823E-03      88.443E+06     25.9360E+06     1.65231E+06    -71.9302E+06    -71.9226E+06     1.64469E+06     25.9360E+06     171.512E+03
             555     53.8614E-03     6.72160E-03     53.4403E-03     348.214E-03    -173.422E-03    -174.792E-03    -172.340E-03     347.132E-03    -174.792E-03     47.0530E-03     392.642E-03     81.8583E+06     8.17025E+06    -40.1461E+06    -82.9530E+06    -82.9206E+06    -40.1786E+06     8.17025E+06     788.495E+03
             556     53.7175E-03     5.88135E-03     53.3945E-03     348.072E-03    -173.227E-03    -174.844E-03    -172.613E-03     347.457E-03    -174.844E-03     35.3280E-03     383.690E-03     80.2085E+06    -14.4375E+06    -84.5567E+06    -101.874E+06    -93.7884E+06    -92.6427E+06    -14.4375E+06     803.201E+03
             557     53.6020E-03     5.03928E-03     53.3645E-03     348.340E-03    -173.455E-03    -174.885E-03    -173.156E-03     348.040E-03    -174.885E-03     24.4215E-03     375.463E-03     89.2057E+06    -38.0672E+06    -104.815E+06    -138.043E+06    -104.836E+06    -138.022E+06    -38.0672E+06     452.146E+03
             558     53.5106E-03     4.20019E-03     53.3455E-03     348.745E-03    -173.852E-03    -174.893E-03    -173.731E-03     348.625E-03    -174.893E-03     15.4148E-03     368.153E-03     103.810E+06    -63.0114E+06    -115.934E+06    -181.972E+06    -115.941E+06    -181.965E+06    -63.0114E+06     203.207E+03
             559     53.4453E-03     3.36008E-03     53.3396E-03     349.034E-03    -174.151E-03    -174.883E-03    -174.106E-03     348.989E-03    -174.883E-03     9.22836E-03     361.686E-03     122.587E+06    -87.4127E+06    -126.417E+06    -224.388E+06    -126.420E+06    -224.385E+06    -87.4127E+06     254.870E+03
             560     53.3980E-03     2.51872E-03     53.3386E-03     349.177E-03    -174.157E-03    -175.020E-03    -174.272E-03     349.164E-03    -174.893E-03     4.63632E-03     356.483E-03     140.914E+06    -109.606E+06    -134.907E+06    -261.263E+06    -134.913E+06    -261.257E+06    -109.606E+06     347.883E+03
             561     53.3683E-03     1.67986E-03     53.3419E-03     349.533E-03    -174.209E-03    -175.324E-03    -174.619E-03     349.531E-03    -174.911E-03     1.24785E-03     352.971E-03     153.926E+06    -129.265E+06    -141.726E+06    -288.935E+06    -141.741E+06    -288.919E+06    -129.265E+06     149.645E+03
             562     53.3462E-03     840.806E-06     53.3396E-03     349.760E-03    -173.708E-03    -176.052E-03    -175.201E-03     349.759E-03    -174.558E-03    -327.001E-06     350.877E-03     163.676E+06    -143.231E+06    -147.259E+06    -308.860E+06    -146.837E+06    -308.844E+06    -143.670E+06    -302.566E+03
             563     55.1605E-03     14.2872E-03     53.2781E-03     365.499E-03    -174.928E-03    -190.570E-03    -177.748E-03     352.676E-03    -174.928E-03     160.728E-03     460.768E-03     118.440E+06     123.959E+06     89.4919E+06    -7.73050E+06    -7.72778E+06     89.4892E+06     123.959E+06     107.063E+03
             564     54.6686E-03     13.4465E-03     52.9891E-03     365.689E-03    -174.867E-03    -190.822E-03    -177.479E-03     352.346E-03    -174.867E-03     165.450E-03     470.026E-03     103.220E+06     97.4518E+06     75.1004E+06    -15.1035E+06    -15.0991E+06     75.0961E+06     97.4518E+06     271.312E+03
             565     54.3118E-03     12.6063E-03     52.8285E-03     357.310E-03    -174.830E-03    -182.480E-03    -174.576E-03     349.406E-03    -174.830E-03     129.441E-03     443.437E-03     90.9020E+06     77.3475E+06     56.1119E+06    -22.2484E+06    -22.2412E+06     56.1047E+06     77.3475E+06     56.1545E+03
             566     53.9468E-03     11.7647E-03     52.6484E-03     356.413E-03    -174.827E-03    -181.586E-03    -174.315E-03     349.143E-03    -174.827E-03     123.513E-03     439.105E-03     87.2335E+06     68.6585E+06     42.5727E+06    -28.6101E+06    -28.6009E+06     42.5635E+06     68.6585E+06     360.012E+03
             567     53.6322E-03     10.9238E-03     52.5080E-03     353.842E-03    -174.802E-03    -179.040E-03    -173.672E-03     348.474E-03    -174.802E-03     106.383E-03     428.561E-03     86.7407E+06     60.9896E+06     34.7076E+06    -35.8262E+06    -35.8113E+06     34.6928E+06     60.9896E+06     906.316E+03
             568     53.3355E-03     10.0838E-03     52.3736E-03     352.320E-03    -174.760E-03    -177.561E-03    -173.092E-03     347.852E-03    -174.760E-03     96.7027E-03     422.884E-03     86.3218E+06     51.2327E+06     30.0270E+06    -43.6787E+06    -43.6642E+06     30.0125E+06     51.2327E+06     982.392E+03
             569     53.0704E-03     9.24410E-03     52.2591E-03     350.705E-03    -174.745E-03    -175.960E-03    -172.523E-03     347.268E-03    -174.745E-03     84.6301E-03     416.204E-03     87.0255E+06     42.6545E+06     24.7962E+06    -51.9123E+06    -51.9072E+06     24.7912E+06     42.6545E+06     254.503E+03
             570     52.8337E-03     8.40222E-03     52.1613E-03     349.513E-03    -174.463E-03    -175.050E-03    -172.181E-03     346.948E-03    -174.767E-03     72.9052E-03     409.303E-03     89.2687E+06     35.2668E+06     17.3087E+06    -61.6148E+06    -61.6064E+06     17.3003E+06     35.2668E+06    -106.442E+03
             571     52.6288E-03     7.56128E-03     52.0828E-03     348.719E-03    -173.908E-03    -174.811E-03    -172.156E-03     346.967E-03    -174.811E-03     60.0452E-03     401.459E-03     88.2414E+06     25.4045E+06     791.565E+03    -72.3219E+06    -72.3081E+06     777.707E+03     25.4045E+06    -7.61123E+03
             572     52.4544E-03     6.72078E-03     52.0220E-03     348.597E-03    -173.753E-03    -174.844E-03    -172.656E-03     347.500E-03    -174.844E-03     47.4496E-03     393.052E-03     81.4733E+06     7.74287E+06    -40.4015E+06    -83.2038E+06    -83.1924E+06    -40.4129E+06     7.74287E+06     191.228E+03
             573     52.3096E-03     5.88003E-03     51.9781E-03     348.631E-03    -173.791E-03    -174.840E-03    -173.162E-03     348.002E-03    -174.840E-03     35.7514E-03     384.192E-03     79.9691E+06    -14.8625E+06    -84.5330E+06    -102.138E+06    -94.2562E+06    -92.4147E+06    -14.8625E+06     512.004E+03
             574     52.1901E-03     5.04151E-03     51.9460E-03     348.320E-03    -173.485E-03    -174.835E-03    -173.179E-03     348.015E-03    -174.835E-03     24.7074E-03     375.313E-03     88.8701E+06    -38.3201E+06    -105.052E+06    -137.846E+06    -105.069E+06    -137.829E+06    -38.3201E+06     501.297E+03
             575     52.0998E-03     4.19963E-03     51.9302E-03     348.254E-03    -173.367E-03    -174.887E-03    -173.243E-03     348.129E-03    -174.887E-03     15.6330E-03     367.594E-03     103.193E+06    -62.9887E+06    -115.270E+06    -181.161E+06    -115.274E+06    -181.156E+06    -62.9887E+06     57.8996E+03
             576     52.0300E-03     3.35844E-03     51.9215E-03     348.904E-03    -173.942E-03    -174.963E-03    -173.901E-03     348.864E-03    -174.963E-03     8.64146E-03     361.619E-03     122.546E+06    -87.2202E+06    -125.287E+06    -223.923E+06    -125.288E+06    -223.922E+06    -87.2202E+06    -182.925E+03
             577     51.9828E-03     2.51963E-03     51.9217E-03     349.755E-03    -174.627E-03    -175.128E-03    -174.825E-03     349.747E-03    -174.922E-03     3.98396E-03     357.096E-03     140.477E+06    -109.788E+06    -134.815E+06    -260.934E+06    -134.819E+06    -260.930E+06    -109.788E+06     71.3184E+03
             578     51.9482E-03     1.68010E-03     51.9210E-03     349.788E-03    -174.630E-03    -175.159E-03    -175.119E-03     349.787E-03    -174.667E-03     1.64000E-03     353.220E-03     153.048E+06    -129.687E+06    -142.685E+06    -288.722E+06    -142.693E+06    -288.713E+06    -129.687E+06     453.084E+03
             579     51.9323E-03     840.743E-06     51.9255E-03     348.896E-03    -173.922E-03    -174.974E-03    -174.207E-03     348.896E-03    -174.689E-03     190.944E-06     350.005E-03     164.065E+06    -143.607E+06    -147.782E+06    -309.691E+06    -147.788E+06    -309.685E+06    -143.607E+06     484.658E+03
             580     53.7929E-03     14.2883E-03     51.8606E-03     365.601E-03    -174.917E-03    -190.683E-03    -177.966E-03     352.883E-03    -174.917E-03     160.105E-03     460.769E-03     118.149E+06     123.321E+06     88.9783E+06    -8.03088E+06    -8.02826E+06     88.9757E+06     123.321E+06     194.481E+03
             581     53.2956E-03     13.4468E-03     51.5714E-03     365.252E-03    -174.855E-03    -190.397E-03    -177.185E-03     352.040E-03    -174.855E-03     164.498E-03     469.535E-03     103.203E+06     97.0771E+06     75.0266E+06    -15.3572E+06    -15.3540E+06     75.0235E+06     97.0771E+06     57.2038E+03
             582     52.9343E-03     12.6041E-03     51.4118E-03     356.905E-03    -174.837E-03    -182.068E-03    -174.230E-03     349.067E-03    -174.837E-03     128.787E-03     442.937E-03     90.8912E+06     77.7392E+06     56.7636E+06    -21.7551E+06    -21.7500E+06     56.7585E+06     77.7392E+06    -33.9118E+03
             583     52.5627E-03     11.7635E-03     51.2294E-03     356.694E-03    -174.832E-03    -181.862E-03    -174.630E-03     349.462E-03    -174.832E-03     123.234E-03     439.185E-03     87.2274E+06     68.1559E+06     42.2146E+06    -29.0701E+06    -29.0612E+06     42.2058E+06     68.1559E+06     450.180E+03
             584     52.2428E-03     10.9250E-03     51.0877E-03     354.180E-03    -174.780E-03    -179.399E-03    -174.076E-03     348.856E-03    -174.780E-03     106.019E-03     428.932E-03     87.1862E+06     60.7746E+06     34.1075E+06    -36.6157E+06    -36.6026E+06     34.0944E+06     60.7746E+06     565.744E+03
             585     51.9449E-03     10.0850E-03     50.9565E-03     352.136E-03    -174.732E-03    -177.404E-03    -172.885E-03     347.617E-03    -174.732E-03     97.2793E-03     422.897E-03     86.9509E+06     52.2392E+06     30.3321E+06    -43.5273E+06    -43.5160E+06     30.3208E+06     52.2392E+06     358.854E+03
             586     51.6752E-03     9.24273E-03     50.8419E-03     350.318E-03    -174.748E-03    -175.570E-03    -172.027E-03     346.775E-03    -174.748E-03     85.8408E-03     415.768E-03     87.3748E+06     43.3000E+06     25.2470E+06    -51.6873E+06    -51.6716E+06     25.2313E+06     43.3000E+06     637.599E+03
             587     51.4360E-03     8.40224E-03     50.7450E-03     349.271E-03    -174.369E-03    -174.902E-03    -171.852E-03     346.664E-03    -174.812E-03     73.4491E-03     408.910E-03     88.9565E+06     35.0617E+06     17.5907E+06    -61.3336E+06    -61.3174E+06     17.5744E+06     35.0617E+06     810.557E+03
             588     51.2263E-03     7.56110E-03     50.6652E-03     348.808E-03    -173.928E-03    -174.880E-03    -172.155E-03     347.035E-03    -174.880E-03     60.4118E-03     401.464E-03     87.2811E+06     25.4104E+06     1.17849E+06    -71.1739E+06    -71.1655E+06     1.17013E+06     25.4104E+06     164.109E+03
             589     51.0491E-03     6.72018E-03     50.6048E-03     349.010E-03    -174.107E-03    -174.903E-03    -173.002E-03     347.905E-03    -174.903E-03     47.6056E-03     393.403E-03     80.8902E+06     8.06266E+06    -40.5910E+06    -82.1004E+06    -82.0872E+06    -40.6042E+06     8.06266E+06    -187.782E+03
             590     50.8991E-03     5.88119E-03     50.5582E-03     348.861E-03    -173.995E-03    -174.866E-03    -173.382E-03     348.248E-03    -174.866E-03     35.2571E-03     384.490E-03     79.5175E+06    -14.8585E+06    -84.1978E+06    -101.627E+06    -93.3134E+06    -92.5118E+06    -14.8585E+06     11.2385E+03
             591     50.7811E-03     5.03952E-03     50.5304E-03     348.374E-03    -173.531E-03    -174.843E-03    -173.236E-03     348.079E-03    -174.843E-03     24.3439E-03     375.434E-03     88.3230E+06    -38.2968E+06    -103.934E+06    -137.414E+06    -103.939E+06    -137.410E+06    -38.2968E+06    -101.543E+03
             592     50.6870E-03     4.19994E-03     50.5127E-03     348.450E-03    -173.578E-03    -174.873E-03    -173.454E-03     348.327E-03    -174.873E-03     15.5463E-03     367.802E-03     103.918E+06    -62.3415E+06    -114.732E+06    -181.377E+06    -114.743E+06    -181.367E+06    -62.3415E+06     192.269E+03
             593     50.6169E-03     3.36023E-03     50.5052E-03     348.978E-03    -174.078E-03    -174.900E-03    -174.037E-03     348.937E-03    -174.900E-03     8.89204E-03     361.675E-03     122.573E+06    -86.6561E+06    -125.258E+06    -223.529E+06    -125.272E+06    -223.515E+06    -86.6561E+06     670.185E+03
             594     50.5647E-03     2.51955E-03     50.5019E-03     349.448E-03    -174.506E-03    -174.943E-03    -174.574E-03     349.437E-03    -174.864E-03     4.40390E-03     356.779E-03     140.264E+06    -109.650E+06    -134.582E+06    -260.525E+06    -134.592E+06    -260.515E+06    -109.650E+06     327.740E+03
             595     50.5329E-03     1.68015E-03     50.5049E-03     349.430E-03    -174.554E-03    -174.876E-03    -174.631E-03     349.429E-03    -174.797E-03     1.34542E-03     352.917E-03     153.521E+06    -129.130E+06    -141.545E+06    -288.380E+06    -141.550E+06    -288.375E+06    -129.130E+06    -20.7135E+03
             596     50.5151E-03     839.297E-06     50.5082E-03     349.470E-03    -174.350E-03    -175.120E-03    -174.796E-03     349.470E-03    -174.674E-03    -287.400E-06     350.606E-03     164.386E+06    -143.025E+06    -146.948E+06    -309.319E+06    -146.442E+06    -309.318E+06    -143.531E+06     30.3130E+03
             597     52.4273E-03     14.2888E-03     50.4426E-03     365.855E-03    -174.895E-03    -190.960E-03    -178.228E-03     353.123E-03    -174.895E-03     160.386E-03     461.045E-03     118.294E+06     123.979E+06     89.2145E+06    -7.64375E+06    -7.64172E+06     89.2125E+06     123.979E+06     277.485E+03
             598     51.9268E-03     13.4475E-03     50.1553E-03     365.422E-03    -174.813E-03    -190.609E-03    -177.454E-03     352.267E-03    -174.813E-03     164.126E-03     469.629E-03     103.166E+06     97.5557E+06     75.0929E+06    -14.9767E+06    -14.9697E+06      75.086E+06     97.5557E+06     366.561E+03
             599     51.5604E-03     12.6068E-03     49.9954E-03     357.085E-03    -174.764E-03    -182.321E-03    -174.608E-03     349.371E-03    -174.764E-03     127.861E-03     442.896E-03     90.8853E+06     76.8869E+06     56.0609E+06    -22.5653E+06    -22.5518E+06     56.0474E+06     76.8869E+06     589.423E+03
             600     51.1818E-03     11.7657E-03     49.8111E-03     355.900E-03    -174.762E-03    -181.138E-03    -173.966E-03     348.728E-03    -174.762E-03     122.670E-03     438.315E-03     87.4255E+06     67.5466E+06     42.2750E+06    -29.7045E+06    -29.6901E+06     42.2607E+06     67.5466E+06     285.394E+03
             601     50.8552E-03     10.9244E-03     49.6680E-03     353.093E-03    -174.777E-03    -178.316E-03    -172.943E-03     347.719E-03    -174.777E-03     106.285E-03     427.805E-03     87.1342E+06     60.7525E+06     34.9655E+06    -36.3490E+06    -36.3400E+06     34.9565E+06     60.7525E+06    -134.556E+03
             602     50.5557E-03     10.0833E-03     49.5399E-03     352.026E-03    -174.783E-03    -177.243E-03    -172.697E-03     347.480E-03    -174.783E-03     97.5356E-03     422.756E-03     86.8962E+06     51.4787E+06     30.0361E+06    -44.0999E+06    -44.0968E+06     30.0330E+06     51.4787E+06    -156.680E+03
             603     50.2821E-03     9.24272E-03     49.4254E-03     350.584E-03    -174.804E-03    -175.780E-03    -172.259E-03     347.063E-03    -174.804E-03     85.5870E-03     415.962E-03     87.6083E+06     42.9231E+06     24.6678E+06    -52.3713E+06    -52.3512E+06     24.6477E+06     42.9231E+06     201.678E+03
             604     50.0378E-03     8.40100E-03     49.3275E-03     349.398E-03    -174.476E-03    -174.922E-03    -171.972E-03     346.829E-03    -174.857E-03     72.9353E-03     408.937E-03     89.1277E+06     35.8399E+06     18.2562E+06    -60.7685E+06    -60.7501E+06     18.2379E+06     35.8399E+06     139.251E+03
             605     49.8255E-03     7.55996E-03     49.2486E-03     349.112E-03    -174.208E-03    -174.904E-03    -172.445E-03     347.349E-03    -174.904E-03     60.2897E-03     401.665E-03     87.0737E+06     25.6090E+06     1.67965E+06    -70.6842E+06    -70.6832E+06     1.67862E+06     25.6090E+06     142.000E+03
             606     49.6417E-03     6.72040E-03     49.1847E-03     348.985E-03    -174.075E-03    -174.910E-03    -172.984E-03     347.894E-03    -174.910E-03     47.2699E-03     393.347E-03     80.2719E+06     7.51259E+06    -40.4491E+06    -81.9575E+06    -81.9499E+06    -40.4567E+06     7.51259E+06    -28.5053E+03
             607     49.4913E-03     5.87994E-03     49.1408E-03     348.614E-03    -173.715E-03    -174.899E-03    -173.115E-03     348.014E-03    -174.899E-03     34.8720E-03     384.392E-03     79.4282E+06    -14.9047E+06    -83.9608E+06    -101.680E+06    -93.0689E+06    -92.5718E+06    -14.9047E+06    -294.894E+03
             608     49.3709E-03     5.04095E-03     49.1129E-03     348.585E-03    -173.699E-03    -174.887E-03    -173.402E-03     348.289E-03    -174.887E-03     24.4219E-03     375.757E-03     88.4535E+06    -38.4979E+06    -104.549E+06    -137.791E+06    -104.581E+06    -137.760E+06    -38.4979E+06     298.706E+03
             609     49.2749E-03     4.20000E-03     49.0955E-03     348.807E-03    -173.939E-03    -174.868E-03    -173.811E-03     348.679E-03    -174.868E-03     15.8702E-03     368.129E-03     103.827E+06    -63.0128E+06    -116.106E+06    -181.983E+06    -116.144E+06    -181.945E+06    -63.0128E+06     737.410E+03
             610     49.2025E-03     3.35937E-03     49.0877E-03     348.965E-03    -174.118E-03    -174.847E-03    -174.073E-03     348.920E-03    -174.847E-03     9.26086E-03     361.604E-03     122.189E+06    -86.9802E+06    -125.916E+06    -223.508E+06    -125.930E+06    -223.494E+06    -86.9802E+06     774.578E+03
             611     49.1496E-03     2.51984E-03     49.0850E-03     349.017E-03    -174.145E-03    -174.872E-03    -174.133E-03     349.005E-03    -174.872E-03     4.41085E-03     356.344E-03     139.053E+06    -109.654E+06    -133.824E+06    -259.004E+06    -133.832E+06    -258.996E+06    -109.654E+06     304.033E+03
             612     49.1159E-03     1.67920E-03     49.0872E-03     349.397E-03    -174.406E-03    -174.991E-03    -174.404E-03     349.396E-03    -174.991E-03     1.40602E-03     352.872E-03     153.587E+06    -128.738E+06    -140.716E+06    -287.886E+06    -140.722E+06    -287.880E+06    -128.738E+06    -473.753E+03
             613     49.0986E-03     839.985E-06     49.0914E-03     350.078E-03    -174.702E-03    -175.376E-03    -175.192E-03     350.078E-03    -174.885E-03     372.733E-06     351.218E-03     165.722E+06    -141.400E+06    -145.882E+06    -309.302E+06    -145.379E+06    -309.298E+06    -141.906E+06    -216.810E+03
             614     51.0641E-03     14.2885E-03     49.0243E-03     365.955E-03    -174.892E-03    -191.063E-03    -178.309E-03     353.201E-03    -174.892E-03     160.498E-03     461.275E-03     118.318E+06     124.238E+06      89.201E+06    -7.48910E+06    -7.48411E+06     89.1960E+06     124.238E+06     118.958E+03
             615     50.5592E-03     13.4476E-03     48.7381E-03     366.082E-03    -174.793E-03    -191.289E-03    -178.024E-03     352.817E-03    -174.793E-03     165.137E-03     470.345E-03     103.359E+06     97.7478E+06     74.4121E+06    -15.2758E+06    -15.2640E+06     74.4003E+06     97.7478E+06     809.570E+03
             616     50.1850E-03     12.6076E-03     48.5756E-03     357.651E-03    -174.714E-03    -182.937E-03    -175.069E-03     349.784E-03    -174.714E-03     129.254E-03     443.473E-03     91.2815E+06      77.863E+06     56.4038E+06    -22.2137E+06    -22.1857E+06     56.3758E+06      77.863E+06     1.45205E+06
             617     49.8058E-03     11.7672E-03     48.3958E-03     355.475E-03    -174.712E-03    -180.763E-03    -173.508E-03     348.219E-03    -174.712E-03     123.249E-03     437.945E-03     87.0626E+06     68.2576E+06     43.1633E+06    -28.5664E+06    -28.5464E+06     43.1433E+06     68.2576E+06     557.206E+03
             618     49.4744E-03     10.9239E-03     48.2533E-03     352.291E-03    -174.769E-03    -177.522E-03    -172.131E-03     346.900E-03    -174.769E-03     106.292E-03     426.940E-03     86.0856E+06     60.0308E+06     34.9276E+06    -35.7928E+06    -35.7889E+06     34.9237E+06     60.0308E+06    -212.282E+03
             619     49.1658E-03     10.0822E-03     48.1210E-03     351.863E-03    -174.815E-03    -177.048E-03    -172.542E-03     347.357E-03    -174.815E-03     97.0285E-03     422.518E-03     86.1598E+06     50.8263E+06     30.4176E+06    -43.6754E+06    -43.6721E+06     30.4143E+06     50.8263E+06     27.8645E+03
             620     48.8888E-03     9.24230E-03     48.0072E-03     350.951E-03    -174.826E-03    -176.125E-03    -172.681E-03     347.507E-03    -174.826E-03     84.7095E-03     416.455E-03     87.2085E+06     42.6421E+06     24.9517E+06    -52.0531E+06    -52.0450E+06     24.9435E+06     42.6421E+06    -334.183E+03
             621     48.6428E-03     8.40192E-03     47.9117E-03     349.864E-03    -174.674E-03    -175.191E-03    -172.499E-03     347.332E-03    -174.833E-03     72.5021E-03     409.429E-03     89.3832E+06     35.8774E+06     18.0083E+06    -61.0898E+06    -61.0839E+06     18.0024E+06     35.8774E+06    -364.437E+03
             622     48.4234E-03     7.56151E-03     47.8294E-03     349.127E-03    -174.201E-03    -174.926E-03    -172.549E-03     347.389E-03    -174.840E-03     59.8458E-03     401.538E-03     87.8465E+06     25.0513E+06     1.38326E+06    -72.0263E+06    -72.0261E+06     1.38310E+06     25.0513E+06     39.6074E+03
             623     48.2376E-03     6.72098E-03     47.7670E-03     348.317E-03    -173.447E-03    -174.869E-03    -172.388E-03     347.258E-03    -174.869E-03     46.5041E-03     392.638E-03     80.6054E+06     6.99635E+06    -39.6573E+06    -82.9448E+06    -82.9446E+06    -39.6575E+06     6.99635E+06     33.3489E+03
             624     48.0848E-03     5.88025E-03     47.7239E-03     348.126E-03    -173.191E-03    -174.934E-03    -172.599E-03     347.533E-03    -174.934E-03     34.7539E-03     383.881E-03     79.9713E+06    -15.3376E+06    -84.0924E+06    -103.072E+06    -94.0181E+06    -93.1460E+06    -15.3376E+06     11.8671E+03
             625     47.9598E-03     5.03874E-03     47.6944E-03     348.612E-03    -173.636E-03    -174.976E-03    -173.330E-03     348.306E-03    -174.976E-03     24.8038E-03     375.834E-03     89.2698E+06    -38.8261E+06    -105.640E+06    -139.103E+06    -105.674E+06    -139.069E+06    -38.8261E+06     493.142E+03
             626     47.8629E-03     4.19970E-03     47.6783E-03     349.133E-03    -174.182E-03    -174.951E-03    -174.046E-03     348.996E-03    -174.951E-03     16.4818E-03     368.512E-03     102.856E+06    -63.1175E+06    -115.902E+06    -180.929E+06    -115.937E+06    -180.895E+06    -63.1175E+06     693.827E+03
             627     47.7879E-03     3.36041E-03     47.6696E-03     349.274E-03    -174.386E-03    -174.887E-03    -174.338E-03     349.225E-03    -174.887E-03     9.35864E-03     361.924E-03     121.797E+06    -87.2299E+06    -125.865E+06    -223.307E+06    -125.874E+06    -223.298E+06    -87.2299E+06     41.3451E+03
             628     47.7352E-03     2.51973E-03     47.6686E-03     349.052E-03    -174.172E-03    -174.879E-03    -174.163E-03     349.043E-03    -174.879E-03     4.06011E-03     356.343E-03     137.559E+06    -110.098E+06    -134.787E+06    -258.135E+06    -134.792E+06    -258.130E+06    -110.098E+06     193.371E+03
             629     47.7002E-03     1.67917E-03     47.6707E-03     349.420E-03    -174.441E-03    -174.980E-03    -174.439E-03     349.419E-03    -174.980E-03     1.41699E-03     352.834E-03     151.690E+06    -129.944E+06    -141.527E+06    -286.989E+06    -141.533E+06    -286.983E+06    -129.944E+06         665.139
             630     47.6787E-03     838.907E-06     47.6714E-03     350.041E-03    -174.762E-03    -175.279E-03    -175.174E-03     350.040E-03    -174.866E-03    -254.594E-06     351.165E-03     165.538E+06    -143.252E+06    -147.085E+06    -310.663E+06    -146.700E+06    -310.656E+06    -143.644E+06    -792.980E+03
             631     49.7067E-03     14.2886E-03     47.6088E-03     366.126E-03    -174.884E-03    -191.242E-03    -178.528E-03     353.412E-03    -174.884E-03     160.213E-03     461.391E-03     118.083E+06     123.525E+06     88.5596E+06    -7.95052E+06    -7.94709E+06     88.5562E+06     123.525E+06     20.3233E+03
             632     49.1916E-03     13.4474E-03     47.3178E-03     365.822E-03    -174.788E-03    -191.034E-03    -177.797E-03     352.586E-03    -174.788E-03     164.878E-03     470.029E-03     103.419E+06     97.9161E+06     74.0120E+06    -15.3584E+06    -15.3520E+06     74.0056E+06     97.9161E+06     316.707E+03
             633     48.8143E-03     12.6067E-03     47.1583E-03     357.024E-03    -174.743E-03    -182.282E-03    -174.370E-03     349.113E-03    -174.743E-03     129.413E-03     442.999E-03     91.1916E+06     78.5423E+06     56.4324E+06    -21.6536E+06    -21.6368E+06     56.4156E+06     78.5423E+06     627.281E+03
             634     48.4281E-03     11.7652E-03     46.9773E-03     355.912E-03    -174.754E-03    -181.158E-03    -173.837E-03     348.591E-03    -174.754E-03     123.817E-03     438.541E-03     87.1706E+06     68.8515E+06     43.8818E+06    -28.0612E+06    -28.0308E+06     43.8513E+06     68.8515E+06     1.08913E+06
             635     48.0964E-03     10.9253E-03     46.8391E-03     353.234E-03    -174.766E-03    -178.468E-03    -173.049E-03     347.815E-03    -174.766E-03     106.775E-03     427.927E-03     86.3067E+06     60.5539E+06     35.8205E+06    -35.4014E+06    -35.3815E+06     35.8006E+06     60.5539E+06     613.987E+03
             636     47.7796E-03     10.0836E-03     46.7034E-03     351.831E-03    -174.773E-03    -177.058E-03    -172.557E-03     347.331E-03    -174.773E-03     96.9240E-03     422.279E-03     85.8992E+06     50.7609E+06     30.6291E+06    -43.3834E+06    -43.3800E+06     30.6257E+06     50.7609E+06     56.9912E+03
             637     47.4973E-03     9.24214E-03     46.5894E-03     350.752E-03    -174.784E-03    -175.968E-03    -172.571E-03     347.354E-03    -174.784E-03     84.1319E-03     416.194E-03     86.8395E+06     42.4123E+06     25.1376E+06    -51.7653E+06    -51.7611E+06     25.1335E+06     42.4123E+06     192.454E+03
             638     47.2457E-03     8.40206E-03     46.4926E-03     350.075E-03    -174.735E-03    -175.340E-03    -172.763E-03     347.540E-03    -174.777E-03     72.5989E-03     409.656E-03     89.1234E+06     35.0283E+06     17.5039E+06    -61.5548E+06    -61.5532E+06     17.5023E+06     35.0283E+06     155.020E+03
             639     47.0238E-03     7.56225E-03     46.4117E-03     348.763E-03    -173.887E-03    -174.875E-03    -172.217E-03     347.007E-03    -174.790E-03     60.1139E-03     401.199E-03     87.7063E+06     25.8988E+06     1.52928E+06    -71.1543E+06    -71.1543E+06     1.52921E+06     25.8988E+06    -6.55121E+03
             640     46.8355E-03     6.72108E-03     46.3508E-03     347.920E-03    -173.057E-03    -174.863E-03    -171.973E-03     346.836E-03    -174.863E-03     47.0648E-03     392.336E-03     80.8133E+06     8.25015E+06    -39.5561E+06    -82.0492E+06    -82.0445E+06    -39.5608E+06     8.25015E+06     153.048E+03
             641     46.6790E-03     5.87963E-03     46.3072E-03     347.991E-03    -173.027E-03    -174.964E-03    -172.422E-03     347.387E-03    -174.964E-03     34.9832E-03     383.696E-03     80.0232E+06    -15.3203E+06    -84.0732E+06    -103.145E+06    -93.8902E+06    -93.3280E+06    -15.3203E+06     250.300E+03
             642     46.5506E-03     5.03974E-03     46.2769E-03     348.392E-03    -173.339E-03    -175.053E-03    -173.034E-03     348.086E-03    -175.053E-03     24.8653E-03     375.612E-03     89.4643E+06    -38.7772E+06    -104.887E+06    -139.411E+06    -104.891E+06    -139.406E+06    -38.7772E+06     54.7190E+03
             643     46.4501E-03     4.19851E-03     46.2599E-03     349.202E-03    -174.122E-03    -175.080E-03    -173.980E-03     349.060E-03    -175.080E-03     16.7413E-03     368.608E-03     103.004E+06    -62.5838E+06    -115.273E+06    -180.679E+06    -115.281E+06    -180.672E+06    -62.5838E+06     172.878E+03
             644     46.3724E-03     3.35882E-03     46.2506E-03     349.681E-03    -174.664E-03    -175.017E-03    -174.617E-03     349.634E-03    -175.017E-03     9.19909E-03     362.329E-03     121.638E+06    -86.7379E+06    -125.475E+06    -222.625E+06    -125.487E+06    -222.613E+06    -86.7379E+06     268.286E+03
             645     46.3211E-03     2.51972E-03     46.2526E-03     349.728E-03    -174.622E-03    -175.106E-03    -174.844E-03     349.719E-03    -174.875E-03     3.91948E-03     357.010E-03     137.300E+06    -110.195E+06    -134.918E+06    -258.007E+06    -134.928E+06    -257.997E+06    -110.195E+06     95.8684E+03
             646     46.2828E-03     1.68003E-03     46.2523E-03     349.518E-03    -174.537E-03    -174.981E-03    -174.820E-03     349.516E-03    -174.696E-03     1.15068E-03     352.926E-03     151.508E+06    -129.453E+06    -141.824E+06    -286.667E+06    -141.831E+06    -286.661E+06    -129.453E+06     388.798E+03
             647     46.2623E-03     840.684E-06     46.2547E-03     349.137E-03    -174.173E-03    -174.964E-03    -174.942E-03     349.136E-03    -174.195E-03    -687.457E-06     350.233E-03     165.949E+06    -143.313E+06    -147.395E+06    -311.242E+06    -147.015E+06    -311.230E+06    -143.704E+06     395.991E+03
             648     48.3480E-03     14.2887E-03     46.1883E-03     366.095E-03    -174.878E-03    -191.217E-03    -178.457E-03     353.335E-03    -174.878E-03     160.589E-03     461.349E-03     118.076E+06     123.706E+06     88.6371E+06    -7.78740E+06    -7.78549E+06     88.6352E+06     123.706E+06     28.0991E+03
             649     47.8311E-03     13.4490E-03     45.9014E-03     365.451E-03    -174.796E-03    -190.655E-03    -177.374E-03     352.170E-03    -174.796E-03     165.130E-03     469.767E-03     103.158E+06     97.5298E+06     74.2688E+06    -15.2588E+06    -15.2557E+06     74.2658E+06     97.5298E+06    -222.198E+03
             650     47.4476E-03     12.6062E-03     45.7423E-03     356.662E-03    -174.773E-03    -181.889E-03    -174.005E-03     348.779E-03    -174.773E-03     129.146E-03     442.614E-03     90.5780E+06     76.8849E+06     55.3139E+06    -22.4917E+06    -22.4896E+06     55.3118E+06     76.8849E+06     27.8554E+03
             651     47.0546E-03     11.7642E-03     45.5603E-03     355.951E-03    -174.802E-03    -181.149E-03    -173.875E-03     348.677E-03    -174.802E-03     123.490E-03     438.600E-03     87.5057E+06     68.3009E+06     43.5071E+06    -28.9201E+06    -28.9003E+06     43.4873E+06     68.3009E+06     632.487E+03
             652     46.7134E-03     10.9236E-03     45.4183E-03     353.957E-03    -174.791E-03    -179.165E-03    -173.730E-03     348.521E-03    -174.791E-03     107.065E-03     428.666E-03     87.3143E+06     61.1890E+06     36.8890E+06    -35.6896E+06    -35.6581E+06     36.8575E+06     61.1890E+06     909.575E+03
             653     46.3968E-03     10.0846E-03     45.2876E-03     352.635E-03    -174.738E-03    -177.896E-03    -173.376E-03     348.114E-03    -174.738E-03     97.3172E-03     422.969E-03     86.4949E+06     51.4535E+06     31.1679E+06    -43.3575E+06    -43.3438E+06     31.1542E+06     51.4535E+06     625.923E+03
             654     46.1083E-03     9.24353E-03     45.1722E-03     350.735E-03    -174.707E-03    -176.028E-03    -172.612E-03     347.319E-03    -174.707E-03     84.3443E-03     415.935E-03     86.9610E+06     42.3839E+06     24.9312E+06    -51.9775E+06    -51.9743E+06     24.9279E+06     42.3839E+06     380.853E+03
             655     45.8504E-03     8.40288E-03     45.0739E-03     349.221E-03    -174.210E-03    -175.011E-03    -171.966E-03     346.699E-03    -174.732E-03     72.3015E-03     408.825E-03     88.7188E+06     35.4495E+06     18.3649E+06    -60.5689E+06    -60.5672E+06     18.3632E+06     35.4495E+06     150.469E+03
             656     45.6260E-03     7.56167E-03     44.9951E-03     348.211E-03    -173.394E-03    -174.816E-03    -171.631E-03     346.448E-03    -174.816E-03     60.2150E-03     400.927E-03     86.9342E+06     25.7809E+06     1.41732E+06    -70.4304E+06    -70.4300E+06     1.41691E+06     25.7809E+06     57.1987E+03
             657     45.4347E-03     6.72001E-03     44.9350E-03     347.999E-03    -173.068E-03    -174.931E-03    -171.952E-03     346.883E-03    -174.931E-03     47.7809E-03     392.444E-03     80.2574E+06     7.89555E+06    -40.2481E+06    -81.8769E+06    -81.8704E+06    -40.2546E+06     7.89555E+06     296.646E+03
             658     45.2719E-03     5.88014E-03     44.8884E-03     348.320E-03    -173.292E-03    -175.028E-03    -172.663E-03     347.691E-03    -175.028E-03     35.6932E-03     384.019E-03     79.8959E+06    -14.7019E+06    -83.2192E+06    -102.448E+06    -92.9428E+06    -92.7239E+06    -14.7019E+06     236.256E+03
             659     45.1441E-03     5.03841E-03     44.8621E-03     348.927E-03    -173.866E-03    -175.062E-03    -173.555E-03     348.617E-03    -175.062E-03     24.9951E-03     376.090E-03     89.3700E+06    -38.2285E+06    -104.322E+06    -138.824E+06    -104.324E+06    -138.822E+06    -38.2285E+06     192.839E+03
             660     45.0359E-03     4.19873E-03     44.8398E-03     349.113E-03    -174.068E-03    -175.046E-03    -173.942E-03     348.988E-03    -175.046E-03     15.3673E-03     368.439E-03     103.106E+06    -62.9759E+06    -115.989E+06    -181.181E+06    -115.992E+06    -181.179E+06    -62.9759E+06     82.5918E+03
             661     44.9595E-03     3.35897E-03     44.8339E-03     349.329E-03    -174.301E-03    -175.029E-03    -174.267E-03     349.295E-03    -175.029E-03     8.07442E-03     361.998E-03     121.250E+06    -86.8682E+06    -126.131E+06    -222.510E+06    -126.135E+06    -222.506E+06    -86.8682E+06     184.626E+03
             662     44.9024E-03     2.51926E-03     44.8317E-03     349.941E-03    -174.734E-03    -175.207E-03    -175.025E-03     349.932E-03    -174.907E-03     3.92102E-03     357.270E-03     137.188E+06    -109.941E+06    -134.822E+06    -257.652E+06    -134.828E+06    -257.647E+06    -109.941E+06     250.888E+03
             663     44.8674E-03     1.68093E-03     44.8360E-03     349.630E-03    -174.623E-03    -175.008E-03    -174.975E-03     349.629E-03    -174.655E-03     1.29584E-03     353.084E-03     152.094E+06    -129.283E+06    -141.735E+06    -287.139E+06    -141.741E+06    -287.133E+06    -129.283E+06     128.546E+03
             664     44.8463E-03     840.191E-06     44.8384E-03     348.956E-03    -174.236E-03    -174.720E-03    -174.688E-03     348.956E-03    -174.268E-03     412.750E-06     350.072E-03     166.392E+06    -141.778E+06    -145.840E+06    -310.133E+06    -145.814E+06    -310.124E+06    -141.814E+06     527.878E+03
             665     46.9945E-03     14.2890E-03     44.7695E-03     365.515E-03    -174.890E-03    -190.625E-03    -177.785E-03     352.675E-03    -174.890E-03     160.896E-03     460.747E-03     117.616E+06     123.125E+06     88.1966E+06    -7.83727E+06    -7.83519E+06     88.1945E+06     123.125E+06     54.6716E+03
             666     46.4728E-03     13.4457E-03     44.4852E-03     365.460E-03    -174.830E-03    -190.630E-03    -177.306E-03     352.137E-03    -174.830E-03     165.225E-03     469.757E-03     102.303E+06     96.4488E+06     73.7922E+06    -15.2710E+06    -15.2692E+06     73.7903E+06     96.4488E+06     8.81503E+03
             667     46.0813E-03     12.6059E-03     44.3235E-03     357.270E-03    -174.796E-03    -182.474E-03    -174.644E-03     349.440E-03    -174.796E-03     128.859E-03     443.270E-03     90.5842E+06     77.2312E+06     55.9240E+06    -22.0667E+06    -22.0644E+06     55.9217E+06     77.2312E+06     347.492E+03
             668     45.6857E-03     11.7656E-03     44.1448E-03     356.124E-03    -174.793E-03    -181.331E-03    -174.106E-03     348.899E-03    -174.793E-03     123.141E-03     438.563E-03     87.9161E+06     68.0203E+06     43.3187E+06    -29.5981E+06    -29.5931E+06     43.3137E+06     68.0203E+06     395.288E+03
             669     45.3354E-03     10.9240E-03     43.9996E-03     353.547E-03    -174.785E-03    -178.762E-03    -173.375E-03     348.161E-03    -174.785E-03     106.498E-03     427.994E-03     87.8161E+06     60.4870E+06     36.4073E+06    -36.8438E+06    -36.8277E+06     36.3911E+06     60.4870E+06     459.697E+03
             670     45.0116E-03     10.0832E-03     43.8677E-03     352.617E-03    -174.749E-03    -177.868E-03    -173.336E-03     348.085E-03    -174.749E-03     97.4893E-03     423.164E-03     87.1026E+06     51.5071E+06     31.3973E+06    -43.8707E+06    -43.8574E+06     31.3839E+06     51.5071E+06     387.269E+03
             671     44.7200E-03     9.24464E-03     43.7540E-03     350.890E-03    -174.720E-03    -176.170E-03    -172.662E-03     347.382E-03    -174.720E-03     85.5013E-03     416.255E-03     87.1578E+06     43.0254E+06     25.6228E+06    -51.5187E+06    -51.5179E+06     25.6220E+06     43.0254E+06     156.752E+03
             672     44.4601E-03     8.40317E-03     43.6587E-03     349.008E-03    -174.118E-03    -174.890E-03    -171.658E-03     346.421E-03    -174.762E-03     73.1723E-03     408.707E-03     88.8128E+06     35.6855E+06     18.5409E+06    -60.4495E+06    -60.4444E+06     18.5359E+06     35.6855E+06     400.207E+03
             673     44.2305E-03     7.56040E-03     43.5795E-03     348.290E-03    -173.429E-03    -174.861E-03    -171.654E-03     346.515E-03    -174.861E-03     60.3839E-03     401.040E-03     86.7870E+06     24.8777E+06     1.60571E+06    -70.9575E+06    -70.9526E+06     1.60091E+06     24.8777E+06     371.547E+03
             674     44.0322E-03     6.72018E-03     43.5163E-03     348.341E-03    -173.384E-03    -174.957E-03    -172.300E-03     347.257E-03    -174.957E-03     47.0212E-03     392.739E-03     80.0416E+06     7.32873E+06    -39.9819E+06    -81.8383E+06    -81.8285E+06    -39.9916E+06     7.32873E+06    -46.6798E+03
             675     43.8692E-03     5.87784E-03     43.4737E-03     348.810E-03    -173.815E-03    -174.994E-03    -173.223E-03     348.217E-03    -174.994E-03     34.6498E-03     384.523E-03     80.1885E+06    -14.9424E+06    -84.1065E+06    -102.823E+06    -93.3912E+06    -93.5382E+06    -14.9424E+06     79.2404E+03
             676     43.7308E-03     5.03977E-03     43.4395E-03     349.094E-03    -174.144E-03    -174.950E-03    -173.858E-03     348.807E-03    -174.950E-03     23.9499E-03     376.238E-03     89.5515E+06    -38.0694E+06    -104.715E+06    -138.795E+06    -104.729E+06    -138.781E+06    -38.0694E+06     599.041E+03
             677     43.6267E-03     4.20109E-03     43.4239E-03     348.845E-03    -173.953E-03    -174.892E-03    -173.836E-03     348.728E-03    -174.892E-03     15.0762E-03     368.221E-03     102.559E+06    -62.4897E+06    -115.477E+06    -180.043E+06    -115.485E+06    -180.035E+06    -62.4897E+06     460.322E+03
             678     43.5461E-03     3.35968E-03     43.4163E-03     348.911E-03    -174.024E-03    -174.887E-03    -173.986E-03     348.873E-03    -174.887E-03     8.39365E-03     361.595E-03     121.144E+06    -86.8184E+06    -125.620E+06    -222.219E+06    -125.621E+06    -222.218E+06    -86.8184E+06    -136.321E+03
             679     43.4869E-03     2.51943E-03     43.4139E-03     349.181E-03    -174.199E-03    -174.982E-03    -174.259E-03     349.173E-03    -174.914E-03     3.60715E-03     356.511E-03     137.644E+06    -109.842E+06    -134.633E+06    -257.997E+06    -134.638E+06    -257.993E+06    -109.842E+06    -324.511E+03
             680     43.4495E-03     1.67892E-03     43.4171E-03     349.557E-03    -174.532E-03    -175.025E-03    -174.600E-03     349.556E-03    -174.956E-03     899.939E-06     353.077E-03     151.540E+06    -129.871E+06    -141.578E+06    -286.817E+06    -141.583E+06    -286.812E+06    -129.871E+06    -254.132E+03
             681     43.4318E-03     839.690E-06     43.4236E-03     349.903E-03    -174.897E-03    -175.006E-03    -174.961E-03     349.903E-03    -174.943E-03     343.017E-06     351.052E-03     165.560E+06    -142.522E+06    -145.958E+06    -309.757E+06    -145.458E+06    -309.755E+06    -143.024E+06    -326.453E+03
             682     45.6507E-03     14.2877E-03     43.3572E-03     365.503E-03    -174.922E-03    -190.580E-03    -177.639E-03     352.561E-03    -174.922E-03     161.369E-03     460.601E-03     117.329E+06     122.946E+06     88.0940E+06    -7.71243E+06    -7.70163E+06     88.0832E+06     122.946E+06     406.741E+03
             683     45.1153E-03     13.4473E-03     43.0646E-03     365.899E-03    -174.867E-03    -191.032E-03    -177.648E-03     352.515E-03    -174.867E-03     165.458E-03     469.987E-03     102.392E+06     96.7672E+06     73.4171E+06    -15.2764E+06    -15.2641E+06     73.4049E+06     96.7672E+06     819.897E+03
             684     44.7211E-03     12.6059E-03     42.9077E-03     357.676E-03    -174.812E-03    -182.864E-03    -175.034E-03     349.846E-03    -174.812E-03     128.900E-03     443.816E-03     91.1247E+06     77.7112E+06     56.1026E+06    -22.2564E+06    -22.2510E+06     56.0972E+06     77.7112E+06     563.227E+03
             685     44.3143E-03     11.7650E-03     42.7240E-03     356.761E-03    -174.773E-03    -181.987E-03    -174.733E-03     349.506E-03    -174.773E-03     123.450E-03     439.339E-03     88.1981E+06     68.9734E+06     44.5114E+06    -28.8633E+06    -28.8582E+06     44.5063E+06     68.9734E+06     501.449E+03
             686     43.9635E-03     10.9255E-03     42.5843E-03     353.441E-03    -174.739E-03    -178.703E-03    -173.368E-03     348.106E-03    -174.739E-03     105.987E-03     427.859E-03     87.3528E+06     60.8280E+06     36.7275E+06    -36.0325E+06    -36.0282E+06     36.7232E+06     60.8280E+06    -21.1180E+03
             687     43.6308E-03     10.0838E-03     42.4496E-03     351.396E-03    -174.627E-03    -176.769E-03    -172.146E-03     346.893E-03    -174.748E-03     96.9489E-03     422.008E-03     86.6548E+06     51.2290E+06     31.2406E+06    -43.6483E+06    -43.6467E+06     31.2390E+06     51.2290E+06    -201.727E+03
             688     43.3327E-03     9.24137E-03     42.3358E-03     350.229E-03    -174.684E-03    -175.544E-03    -171.939E-03     346.744E-03    -174.805E-03     85.0894E-03     415.822E-03     87.1329E+06     42.6602E+06     25.3576E+06    -51.8248E+06    -51.8239E+06     25.3567E+06     42.6602E+06     46.6483E+03
             689     43.0697E-03     8.40067E-03     42.2425E-03     349.798E-03    -174.688E-03    -175.110E-03    -172.376E-03     347.228E-03    -174.852E-03     73.0186E-03     409.628E-03     89.0935E+06     35.3478E+06     18.0330E+06    -61.1320E+06    -61.1260E+06     18.0270E+06     35.3478E+06     200.700E+03
             690     42.8340E-03     7.56160E-03     42.1613E-03     349.178E-03    -174.228E-03    -174.950E-03    -172.558E-03     347.426E-03    -174.868E-03     60.0713E-03     401.875E-03     87.4452E+06     25.2352E+06     2.25890E+06    -71.2293E+06    -71.2217E+06     2.25136E+06     25.2352E+06     365.189E+03
             691     42.6334E-03     6.71994E-03     42.1005E-03     348.927E-03    -174.067E-03    -174.861E-03    -173.006E-03     347.867E-03    -174.861E-03     46.5868E-03     393.242E-03     80.5106E+06     7.08937E+06    -39.6972E+06    -82.4969E+06    -82.4696E+06    -39.7245E+06     7.08937E+06     286.825E+03
             692     42.4620E-03     5.88242E-03     42.0526E-03     348.731E-03    -173.906E-03    -174.826E-03    -173.320E-03     348.146E-03    -174.826E-03     34.4919E-03     384.346E-03     80.0954E+06    -15.9187E+06    -85.0285E+06    -103.683E+06    -94.3939E+06    -94.3177E+06    -15.9187E+06     531.966E+03
             693     42.3248E-03     5.04130E-03     42.0235E-03     348.246E-03    -173.437E-03    -174.809E-03    -173.145E-03     347.954E-03    -174.809E-03     24.1883E-03     375.410E-03     88.6384E+06    -38.7641E+06    -104.955E+06    -138.394E+06    -104.984E+06    -138.365E+06    -38.7641E+06     559.061E+03
             694     42.2157E-03     4.19875E-03     42.0064E-03     348.495E-03    -173.671E-03    -174.824E-03    -173.546E-03     348.371E-03    -174.824E-03     15.6183E-03     367.917E-03     101.838E+06    -62.4045E+06    -114.950E+06    -179.123E+06    -114.959E+06    -179.114E+06    -62.4045E+06     117.568E+03
             695     42.1325E-03     3.36032E-03     41.9983E-03     348.875E-03    -174.042E-03    -174.832E-03    -174.000E-03     348.832E-03    -174.832E-03     8.90626E-03     361.536E-03     120.570E+06    -86.8210E+06    -124.889E+06    -221.406E+06    -124.891E+06    -221.404E+06    -86.8210E+06    -45.2003E+03
             696     42.0734E-03     2.52024E-03     41.9978E-03     348.907E-03    -174.015E-03    -174.892E-03    -174.006E-03     348.897E-03    -174.892E-03     3.81045E-03     356.253E-03     138.239E+06    -109.998E+06    -133.730E+06    -258.383E+06    -133.734E+06    -258.378E+06    -109.998E+06    -376.819E+03
             697     42.0344E-03     1.67908E-03     42.0009E-03     349.473E-03    -174.433E-03    -175.040E-03    -174.433E-03     349.472E-03    -175.040E-03     791.369E-06     352.987E-03     152.089E+06    -129.787E+06    -141.418E+06    -287.266E+06    -141.421E+06    -287.263E+06    -129.787E+06    -199.691E+03
             698     42.0104E-03     839.345E-06     42.0020E-03     350.195E-03    -174.950E-03    -175.245E-03    -174.961E-03     350.195E-03    -175.233E-03    -521.021E-06     351.347E-03     165.336E+06    -142.578E+06    -146.238E+06    -309.695E+06    -145.772E+06    -309.694E+06    -143.045E+06     35.2024E+03
             699     44.3046E-03     14.2872E-03     41.9377E-03     365.879E-03    -174.938E-03    -190.941E-03    -178.107E-03     353.044E-03    -174.938E-03     160.871E-03     460.862E-03     117.595E+06     123.164E+06     87.9727E+06    -7.86146E+06    -7.84914E+06     87.9604E+06     123.164E+06     572.258E+03
             700     43.7643E-03     13.4455E-03     41.6477E-03     365.980E-03    -174.860E-03    -191.120E-03    -177.855E-03     352.715E-03    -174.860E-03     164.801E-03     470.042E-03     102.664E+06     97.3171E+06     73.3164E+06    -15.2165E+06    -15.2035E+06     73.3034E+06     97.3171E+06     718.674E+03
             701     43.3608E-03     12.6052E-03     41.4881E-03     357.678E-03    -174.789E-03    -182.889E-03    -175.162E-03     349.952E-03    -174.789E-03     128.078E-03     443.684E-03     90.8138E+06     78.3394E+06     55.8777E+06    -21.5722E+06    -21.5674E+06     55.8729E+06     78.3394E+06     363.912E+03
             702     42.9490E-03     11.7656E-03     41.3060E-03     356.431E-03    -174.747E-03    -181.684E-03    -174.526E-03     349.273E-03    -174.747E-03     122.611E-03     439.037E-03     87.7641E+06     69.6016E+06     44.7925E+06    -27.8891E+06    -27.8873E+06     44.7906E+06     69.6016E+06     112.225E+03
             703     42.5892E-03     10.9253E-03     41.1640E-03     353.200E-03    -174.726E-03    -178.474E-03    -173.118E-03     347.844E-03    -174.726E-03     106.159E-03     427.918E-03     87.1280E+06     61.4633E+06     37.4113E+06    -35.1529E+06    -35.1482E+06     37.4066E+06     61.4633E+06     83.7016E+03
             704     42.2570E-03     10.0849E-03     41.0359E-03     351.487E-03    -174.618E-03    -176.869E-03    -172.256E-03     346.994E-03    -174.738E-03     96.8118E-03     422.162E-03     86.5735E+06     51.3883E+06     31.4007E+06    -43.4043E+06    -43.3988E+06     31.3953E+06     51.3883E+06     362.942E+03
             705     41.9515E-03     9.24205E-03     40.9208E-03     349.919E-03    -174.462E-03    -175.457E-03    -171.721E-03     346.518E-03    -174.797E-03     84.0272E-03     415.485E-03     86.8991E+06     42.3240E+06     25.2265E+06    -51.8517E+06    -51.8496E+06     25.2244E+06     42.3240E+06     172.419E+03
             706     41.6774E-03     8.40152E-03     40.8218E-03     349.704E-03    -174.639E-03    -175.065E-03    -172.331E-03     347.184E-03    -174.853E-03     72.3069E-03     409.493E-03     88.8586E+06     34.8595E+06     17.7942E+06    -61.2939E+06    -61.2911E+06     17.7913E+06     34.8595E+06     55.6642E+03
             707     41.4398E-03     7.56072E-03     40.7442E-03     349.758E-03    -174.757E-03    -175.001E-03    -173.184E-03     348.017E-03    -174.833E-03     59.9692E-03     402.336E-03     87.8503E+06     24.2085E+06     1.58741E+06    -72.5867E+06    -72.5781E+06     1.57885E+06     24.2085E+06     519.782E+03
             708     41.2320E-03     6.72259E-03     40.6802E-03     348.947E-03    -174.109E-03    -174.838E-03    -173.081E-03     347.861E-03    -174.780E-03     47.2667E-03     393.154E-03     80.7944E+06     6.59540E+06    -39.3713E+06    -83.3938E+06    -83.3666E+06    -39.3985E+06     6.59540E+06     893.307E+03
             709     41.0592E-03     5.88064E-03     40.6359E-03     348.223E-03    -173.454E-03    -174.769E-03    -172.833E-03     347.601E-03    -174.769E-03     35.5237E-03     383.817E-03     79.7456E+06    -15.5238E+06    -83.6968E+06    -103.205E+06    -93.5992E+06    -93.3024E+06    -15.5238E+06     669.978E+03
             710     40.9191E-03     5.03989E-03     40.6076E-03     348.266E-03    -173.490E-03    -174.776E-03    -173.186E-03     347.962E-03    -174.776E-03     24.6544E-03     375.413E-03     87.5996E+06    -39.0297E+06    -104.598E+06    -137.569E+06    -104.617E+06    -137.550E+06    -39.0297E+06     197.259E+03
             711     40.8055E-03     4.20134E-03     40.5886E-03     348.329E-03    -173.534E-03    -174.795E-03    -173.411E-03     348.206E-03    -174.795E-03     15.4706E-03     367.677E-03     100.917E+06    -63.5078E+06    -115.358E+06    -179.069E+06    -115.363E+06    -179.064E+06    -63.5078E+06    -289.131E+03
             712     40.7204E-03     3.35939E-03     40.5816E-03     348.503E-03    -173.627E-03    -174.876E-03    -173.586E-03     348.462E-03    -174.876E-03     8.84089E-03     361.171E-03     120.237E+06    -87.2236E+06    -125.175E+06    -221.501E+06    -125.179E+06    -221.497E+06    -87.2236E+06    -285.408E+03
             713     40.6588E-03     2.51881E-03     40.5807E-03     349.217E-03    -174.246E-03    -174.971E-03    -174.235E-03     349.206E-03    -174.971E-03     4.41517E-03     356.573E-03     138.969E+06    -109.654E+06    -133.818E+06    -258.916E+06    -133.823E+06    -258.910E+06    -109.654E+06     271.849E+03
             714     40.6178E-03     1.68010E-03     40.5830E-03     349.730E-03    -174.712E-03    -175.017E-03    -174.711E-03     349.728E-03    -175.017E-03     1.66481E-03     353.218E-03     153.187E+06    -129.172E+06    -140.663E+06    -287.681E+06    -140.668E+06    -287.676E+06    -129.172E+06     112.481E+03
             715     40.5939E-03     839.748E-06     40.5852E-03     349.997E-03    -174.516E-03    -175.481E-03    -175.199E-03     349.996E-03    -174.797E-03    -332.502E-06     351.144E-03     165.662E+06    -142.138E+06    -145.244E+06    -309.310E+06    -145.246E+06    -309.308E+06    -142.138E+06    -202.782E+03
             716     42.9655E-03     14.2887E-03     40.5200E-03     366.309E-03    -174.904E-03    -191.406E-03    -178.717E-03     353.621E-03    -174.904E-03     160.112E-03     461.439E-03     117.689E+06     123.525E+06     87.9945E+06    -7.67628E+06    -7.67406E+06     87.9923E+06     123.525E+06     391.908E+03
             717     42.4194E-03     13.4484E-03     40.2312E-03     365.906E-03    -174.797E-03    -191.109E-03    -177.943E-03     352.740E-03    -174.797E-03     164.364E-03     470.048E-03     102.553E+06     98.0289E+06     73.9944E+06    -14.4032E+06    -14.4012E+06     73.9925E+06     98.0289E+06     152.351E+03
             718     42.0054E-03     12.6076E-03     40.0687E-03     357.309E-03    -174.729E-03    -182.580E-03    -174.814E-03     349.544E-03    -174.729E-03     128.309E-03     443.250E-03     90.6301E+06     78.6408E+06     55.9024E+06    -21.1660E+06    -21.1602E+06     55.8967E+06     78.6408E+06    -126.633E+03
             719     41.5877E-03     11.7671E-03     39.8883E-03     355.759E-03    -174.719E-03    -181.041E-03    -173.871E-03     348.590E-03    -174.719E-03     122.540E-03     438.433E-03     87.6574E+06     69.0894E+06     43.9452E+06    -28.3884E+06    -28.3825E+06     43.9393E+06     69.0894E+06    -124.025E+03
             720     41.2230E-03     10.9242E-03     39.7492E-03     352.726E-03    -174.737E-03    -177.989E-03    -172.667E-03     347.403E-03    -174.737E-03     105.717E-03     427.637E-03     86.9146E+06     60.9853E+06     36.6595E+06    -35.4901E+06    -35.4847E+06     36.6542E+06     60.9853E+06     310.567E+03
             721     40.8786E-03     10.0826E-03     39.6157E-03     351.784E-03    -174.757E-03    -177.027E-03    -172.523E-03     347.280E-03    -174.757E-03     97.0183E-03     422.567E-03     86.2950E+06     51.4980E+06     31.4558E+06    -43.0188E+06    -43.0107E+06     31.4477E+06     51.4980E+06     672.736E+03
             722     40.5719E-03     9.24473E-03     39.5046E-03     350.804E-03    -174.553E-03    -176.250E-03    -172.537E-03     347.305E-03    -174.768E-03     85.3721E-03     416.198E-03     86.8197E+06     42.3737E+06     25.4827E+06    -51.6491E+06    -51.6273E+06     25.4609E+06     42.3737E+06     1.06014E+06
             723     40.2927E-03     8.40149E-03     39.4071E-03     349.859E-03    -174.477E-03    -175.382E-03    -172.510E-03     347.285E-03    -174.775E-03     73.0533E-03     409.387E-03     88.6109E+06     34.4374E+06     17.7014E+06    -61.3479E+06    -61.3209E+06     17.6744E+06     34.4374E+06     1.23742E+06
             724     40.0427E-03     7.56187E-03     39.3222E-03     349.027E-03    -174.160E-03    -174.867E-03    -172.514E-03     347.294E-03    -174.781E-03     59.7226E-03     401.458E-03     87.0158E+06     24.4799E+06     2.07492E+06    -71.3705E+06    -71.3570E+06     2.06139E+06     24.4799E+06     827.940E+03
             725     39.8348E-03     6.72098E-03     39.2638E-03     348.465E-03    -173.611E-03    -174.854E-03    -172.592E-03     347.388E-03    -174.796E-03     47.0199E-03     392.808E-03     80.2672E+06     7.16672E+06    -38.9961E+06    -82.2526E+06    -82.2387E+06    -39.0100E+06     7.16672E+06     567.913E+03
             726     39.6583E-03     5.88066E-03     39.2198E-03     348.415E-03    -173.607E-03    -174.808E-03    -172.992E-03     347.800E-03    -174.808E-03     35.2950E-03     384.064E-03     79.7005E+06    -15.1682E+06    -83.4771E+06    -102.720E+06    -93.2995E+06    -92.8978E+06    -15.1682E+06     351.142E+03
             727     39.5110E-03     5.04122E-03     39.1880E-03     348.372E-03    -173.569E-03    -174.803E-03    -173.270E-03     348.073E-03    -174.803E-03     24.5013E-03     375.483E-03     87.7171E+06    -38.1481E+06    -103.755E+06    -136.791E+06    -103.760E+06    -136.785E+06    -38.1481E+06    -33.8333E+03
             728     39.3975E-03     4.19975E-03     39.1730E-03     348.309E-03    -173.483E-03    -174.825E-03    -173.356E-03     348.182E-03    -174.825E-03     15.8360E-03     367.718E-03     100.999E+06    -62.6265E+06    -114.480E+06    -178.294E+06    -114.486E+06    -178.288E+06    -62.6265E+06    -199.300E+03
             729     39.3093E-03     3.35972E-03     39.1655E-03     348.667E-03    -173.768E-03    -174.899E-03    -173.725E-03     348.624E-03    -174.899E-03     8.97344E-03     361.353E-03     121.053E+06    -87.0022E+06    -124.944E+06    -222.111E+06    -124.947E+06    -222.108E+06    -87.0022E+06    -295.585E+03
             730     39.2440E-03     2.51934E-03     39.1631E-03     349.215E-03    -174.228E-03    -174.987E-03    -174.218E-03     349.205E-03    -174.987E-03     4.09418E-03     356.531E-03     139.788E+06    -108.940E+06    -133.667E+06    -259.270E+06    -133.673E+06    -259.264E+06    -108.940E+06    -53.4392E+03
             731     39.2003E-03     1.67858E-03     39.1644E-03     349.753E-03    -174.711E-03    -175.041E-03    -174.710E-03     349.751E-03    -175.041E-03     1.37492E-03     353.217E-03     152.733E+06    -128.872E+06    -140.986E+06    -287.190E+06    -140.996E+06    -287.180E+06    -128.872E+06     240.015E+03
             732     39.1769E-03     839.631E-06     39.1679E-03     350.043E-03    -174.628E-03    -175.416E-03    -175.373E-03     350.043E-03    -174.669E-03     390.197E-06     351.178E-03     164.413E+06    -143.142E+06    -146.836E+06    -309.352E+06    -146.299E+06    -309.346E+06    -143.685E+06     202.440E+03
             733     41.6308E-03     14.2889E-03     39.1018E-03     366.447E-03    -174.866E-03    -191.580E-03    -178.863E-03     353.729E-03    -174.866E-03     160.322E-03     461.765E-03     117.642E+06     123.585E+06     87.9524E+06    -7.60032E+06    -7.59954E+06     87.9516E+06     123.585E+06     1.81731E+03
             734     41.0760E-03     13.4482E-03     38.8121E-03     365.800E-03    -174.760E-03    -191.040E-03    -177.723E-03     352.483E-03    -174.760E-03     165.573E-03     469.968E-03     102.852E+06     97.2776E+06     73.9272E+06    -15.2253E+06    -15.2239E+06     73.9258E+06     97.2776E+06     74.3636E+03
             735     40.6563E-03     12.6073E-03     38.6522E-03     356.909E-03    -174.722E-03    -182.188E-03    -174.239E-03     348.961E-03    -174.722E-03     129.749E-03     442.944E-03     90.8747E+06     77.7727E+06     56.2380E+06    -21.8971E+06    -21.8923E+06     56.2331E+06     77.7727E+06    -152.393E+03
             736     40.2298E-03     11.7648E-03     38.4711E-03     355.726E-03    -174.746E-03    -180.981E-03    -173.699E-03     348.444E-03    -174.746E-03     123.487E-03     438.599E-03      87.637E+06     68.7246E+06     43.6258E+06    -28.7125E+06    -28.7075E+06     43.6208E+06     68.7246E+06    -246.334E+03
             737     39.8580E-03     10.9259E-03     38.3312E-03     353.092E-03    -174.763E-03    -178.329E-03    -172.952E-03     347.715E-03    -174.763E-03     106.308E-03     427.995E-03     86.8119E+06     60.2915E+06     35.7902E+06    -36.1191E+06    -36.1175E+06     35.7886E+06     60.2915E+06     187.066E+03
             738     39.5102E-03     10.0845E-03     38.2015E-03     351.913E-03    -174.770E-03    -177.144E-03    -172.643E-03     347.413E-03    -174.770E-03     96.9979E-03     422.672E-03     86.2312E+06     50.8023E+06     30.6245E+06    -43.7013E+06    -43.6946E+06     30.6177E+06     50.8023E+06     597.239E+03
             739     39.1895E-03     9.23976E-03     38.0847E-03     351.219E-03    -174.756E-03    -176.463E-03    -172.999E-03     347.755E-03    -174.756E-03     84.9831E-03     416.478E-03     86.9800E+06     42.2523E+06     24.9100E+06     -52.089E+06    -52.0644E+06     24.8855E+06     42.2523E+06     1.21725E+06
             740     38.9057E-03     8.40422E-03     37.9872E-03     350.061E-03    -174.514E-03    -175.548E-03    -172.777E-03     347.504E-03    -174.727E-03     72.9019E-03     409.536E-03     88.6931E+06     35.5232E+06     18.6431E+06    -60.3963E+06    -60.3684E+06     18.6152E+06     35.5232E+06     1.30754E+06
             741     38.6546E-03     7.56249E-03     37.9077E-03     348.445E-03    -173.699E-03    -174.746E-03    -171.948E-03     346.694E-03    -174.746E-03     59.9765E-03     400.980E-03     87.0771E+06     25.6571E+06     3.38924E+06    -70.2239E+06    -70.2073E+06     3.37262E+06     25.6571E+06     919.069E+03
             742     38.4382E-03     6.72046E-03     37.8462E-03     348.186E-03    -173.378E-03    -174.808E-03    -172.305E-03     347.113E-03    -174.808E-03     46.8650E-03     392.591E-03     80.1789E+06     7.45377E+06    -38.8510E+06    -81.6300E+06    -81.6078E+06    -38.8732E+06     7.45377E+06     321.403E+03
             743     38.2551E-03     5.88114E-03     37.8003E-03     348.342E-03    -173.490E-03    -174.851E-03    -172.874E-03     347.726E-03    -174.851E-03     35.4334E-03     384.067E-03     79.5291E+06    -14.4790E+06    -83.1324E+06    -101.617E+06    -92.2702E+06    -92.4791E+06    -14.4790E+06     75.6520E+03
             744     38.1076E-03     5.03996E-03     37.7728E-03     348.262E-03    -173.379E-03    -174.883E-03    -173.070E-03     347.953E-03    -174.883E-03     24.8419E-03     375.428E-03     88.3427E+06    -37.2613E+06    -102.958E+06    -136.624E+06    -102.963E+06    -136.620E+06    -37.2613E+06        -643.557
             745     37.9883E-03     4.19962E-03     37.7555E-03     348.657E-03    -173.745E-03    -174.912E-03    -173.618E-03     348.530E-03    -174.912E-03     15.8701E-03     368.054E-03     101.880E+06    -61.7175E+06    -114.096E+06    -178.489E+06    -114.101E+06    -178.485E+06    -61.7175E+06     96.1597E+03
             746     37.8968E-03     3.35962E-03     37.7476E-03     349.173E-03    -174.267E-03    -174.905E-03    -174.223E-03     349.129E-03    -174.905E-03     9.12312E-03     361.842E-03     121.692E+06    -85.9758E+06    -124.563E+06    -221.880E+06    -124.564E+06    -221.879E+06    -85.9758E+06     261.029E+03
             747     37.8302E-03     2.51992E-03     37.7462E-03     349.379E-03    -174.437E-03    -174.942E-03    -174.511E-03     349.368E-03    -174.857E-03     4.17707E-03     356.658E-03     140.006E+06    -108.728E+06    -133.537E+06    -259.303E+06    -133.542E+06    -259.299E+06    -108.728E+06     143.174E+03
             748     37.7847E-03     1.68009E-03     37.7473E-03     349.448E-03    -174.556E-03    -174.892E-03    -174.651E-03     349.447E-03    -174.796E-03     866.631E-06     352.854E-03     152.644E+06    -128.237E+06    -141.074E+06    -286.813E+06    -141.083E+06    -286.804E+06    -128.237E+06     630.009E+03
             749     37.7579E-03     839.677E-06     37.7486E-03     349.457E-03    -174.607E-03    -174.850E-03    -174.818E-03     349.455E-03    -174.637E-03    -728.008E-06     350.574E-03     164.159E+06    -142.081E+06    -147.332E+06    -308.787E+06    -146.796E+06    -308.781E+06    -142.624E+06     919.498E+03
             750     40.2996E-03     14.2893E-03     37.6812E-03     365.928E-03    -174.856E-03    -191.072E-03    -178.379E-03     353.235E-03    -174.856E-03     160.290E-03     461.246E-03     117.484E+06     122.958E+06     87.3383E+06    -8.04865E+06    -8.04645E+06     87.3361E+06     122.958E+06    -259.918E+03
             751     39.7417E-03     13.4481E-03     37.3972E-03     365.221E-03    -174.776E-03    -190.445E-03    -177.194E-03     351.969E-03    -174.776E-03     165.120E-03     469.555E-03     102.561E+06     96.6783E+06     74.1857E+06    -15.2369E+06    -15.2343E+06     74.1831E+06     96.6783E+06    -176.047E+03
             752     39.3097E-03     12.6058E-03     37.2337E-03     356.817E-03    -174.756E-03    -182.061E-03    -174.139E-03     348.895E-03    -174.756E-03     129.546E-03     442.821E-03     90.5406E+06     76.9965E+06     56.4300E+06    -22.0109E+06    -22.0101E+06     56.4292E+06     76.9965E+06     23.2584E+03
             753     38.8785E-03     11.7658E-03     37.0554E-03     355.584E-03    -174.792E-03    -180.792E-03    -173.569E-03     348.361E-03    -174.792E-03     122.989E-03     438.310E-03     87.2501E+06     68.1060E+06     43.2998E+06    -28.8466E+06    -28.8460E+06     43.2991E+06     68.1060E+06    -216.679E+03
             754     38.4943E-03     10.9223E-03     36.9123E-03     353.365E-03    -174.814E-03    -178.551E-03    -173.143E-03     347.957E-03    -174.814E-03     106.675E-03     428.194E-03     86.8888E+06     60.2554E+06     35.6874E+06    -36.2531E+06    -36.2474E+06     35.6817E+06     60.2554E+06     283.239E+03
             755     38.1405E-03     10.0826E-03     36.7836E-03     353.002E-03    -174.771E-03    -178.231E-03    -173.710E-03     348.481E-03    -174.771E-03     97.3887E-03     423.556E-03     86.3763E+06     50.4338E+06     29.8693E+06    -44.3477E+06    -44.3366E+06     29.8582E+06     50.4338E+06     859.810E+03
             756     37.8148E-03     9.24662E-03     36.6669E-03     351.107E-03    -174.634E-03    -176.473E-03    -172.927E-03     347.644E-03    -174.717E-03     84.9952E-03     416.392E-03     86.9708E+06     43.0046E+06     25.3257E+06    -51.4428E+06    -51.4358E+06     25.3186E+06     43.0046E+06     656.253E+03
             757     37.5218E-03     8.40166E-03     36.5690E-03     349.361E-03    -174.394E-03    -174.967E-03    -172.071E-03     346.796E-03    -174.725E-03     72.8627E-03     409.041E-03     88.9921E+06     36.1710E+06     18.9625E+06    -60.1682E+06    -60.1625E+06     18.9567E+06     36.1710E+06     608.548E+03
             758     37.2667E-03     7.56155E-03     36.4915E-03     348.646E-03    -173.876E-03    -174.770E-03    -172.109E-03     346.879E-03    -174.770E-03     60.3305E-03     401.270E-03     87.6333E+06     25.8872E+06     3.80142E+06    -70.5525E+06    -70.5394E+06     3.78825E+06     25.8872E+06     600.976E+03
             759     37.0430E-03     6.72210E-03     36.4280E-03     348.101E-03    -173.266E-03    -174.836E-03    -172.151E-03     346.987E-03    -174.836E-03     47.7499E-03     392.437E-03     80.4045E+06     8.22390E+06    -37.5032E+06    -80.9843E+06    -80.9434E+06    -37.5441E+06     8.22390E+06     324.216E+03
             760     36.8571E-03     5.87965E-03     36.3851E-03     348.087E-03    -173.170E-03    -174.918E-03    -172.546E-03     347.464E-03    -174.918E-03     35.5134E-03     383.785E-03     79.1601E+06    -14.8031E+06    -83.2855E+06    -101.463E+06    -92.4268E+06    -92.3216E+06    -14.8031E+06     136.356E+03
             761     36.7018E-03     5.03934E-03     36.3542E-03     348.523E-03    -173.555E-03    -174.968E-03    -173.253E-03     348.221E-03    -174.968E-03     24.6105E-03     375.732E-03     88.1171E+06    -38.2457E+06    -104.106E+06    -137.264E+06    -104.107E+06    -137.263E+06    -38.2457E+06     112.899E+03
             762     36.5803E-03     4.19960E-03     36.3384E-03     349.041E-03    -174.080E-03    -174.962E-03    -173.951E-03     348.913E-03    -174.962E-03     15.9700E-03     368.423E-03     101.814E+06    -62.3668E+06    -114.835E+06    -179.032E+06    -114.838E+06    -179.030E+06    -62.3668E+06     398.377E+03
             763     36.4845E-03     3.35943E-03     36.3295E-03     349.453E-03    -174.542E-03    -174.911E-03    -174.519E-03     349.409E-03    -174.890E-03     8.95905E-03     362.103E-03     121.515E+06    -85.7415E+06    -124.626E+06    -221.573E+06    -124.629E+06    -221.571E+06    -85.7415E+06     492.146E+03
             764     36.4157E-03     2.51972E-03     36.3284E-03     349.549E-03    -174.677E-03    -174.871E-03    -174.807E-03     349.540E-03    -174.733E-03     3.89401E-03     356.820E-03     139.801E+06    -108.405E+06    -134.006E+06    -259.055E+06    -134.011E+06    -259.049E+06    -108.405E+06     779.600E+03
             765     36.3682E-03     1.68049E-03     36.3294E-03     349.188E-03    -174.528E-03    -174.660E-03    -174.658E-03     349.187E-03    -174.528E-03     995.292E-06     352.600E-03     151.937E+06    -128.667E+06    -141.578E+06    -286.548E+06    -141.584E+06    -286.542E+06    -128.667E+06     900.324E+03
             766     36.3435E-03     840.784E-06     36.3338E-03     348.787E-03    -174.135E-03    -174.652E-03    -174.650E-03     348.785E-03    -174.135E-03    -390.349E-06     349.901E-03     163.100E+06    -141.543E+06    -146.762E+06    -307.180E+06    -145.980E+06    -307.175E+06    -142.331E+06     302.367E+03
             767     38.9777E-03     14.2888E-03     36.2641E-03     365.736E-03    -174.876E-03    -190.860E-03    -178.066E-03     352.942E-03    -174.876E-03     160.886E-03     461.033E-03     117.371E+06     123.157E+06     87.4819E+06    -7.74483E+06    -7.74257E+06     87.4797E+06     123.157E+06    -15.9376E+03
             768     38.4102E-03     13.4474E-03     35.9794E-03     365.502E-03    -174.799E-03    -190.702E-03    -177.475E-03     352.274E-03    -174.799E-03     164.721E-03     469.896E-03     102.478E+06     96.8643E+06     74.2252E+06    -15.0172E+06    -15.0145E+06     74.2225E+06     96.8643E+06    -66.5184E+03
             769     37.9720E-03     12.6065E-03     35.8183E-03     356.685E-03    -174.773E-03    -181.912E-03    -174.033E-03     348.806E-03    -174.773E-03     129.074E-03     442.701E-03     90.4944E+06     76.7488E+06     56.5818E+06    -22.0967E+06    -22.0938E+06     56.5789E+06     76.7488E+06     185.125E+03
             770     37.5274E-03     11.7644E-03     35.6357E-03     355.668E-03    -174.811E-03    -180.858E-03    -173.612E-03     348.422E-03    -174.811E-03     123.100E-03     438.224E-03     87.2043E+06     67.4205E+06     43.3144E+06    -29.2784E+06    -29.2751E+06     43.3112E+06     67.4205E+06     215.000E+03
             771     37.1425E-03     10.9244E-03     35.4996E-03     353.856E-03    -174.814E-03    -179.043E-03    -173.672E-03     348.486E-03    -174.814E-03     106.421E-03     428.483E-03     86.7772E+06     59.7403E+06     34.9962E+06    -36.7125E+06    -36.7067E+06     34.9904E+06     59.7403E+06     336.573E+03
             772     36.7688E-03     10.0839E-03     35.3590E-03     352.599E-03    -174.769E-03    -177.830E-03    -173.333E-03     348.102E-03    -174.769E-03     97.0478E-03     423.134E-03     86.3313E+06     51.3106E+06     30.5523E+06    -43.4778E+06    -43.4618E+06     30.5363E+06     51.3106E+06     88.2171E+03
             773     36.4419E-03     9.24169E-03     35.2506E-03     350.670E-03    -174.669E-03    -176.001E-03    -172.426E-03     347.179E-03    -174.753E-03     85.3272E-03     416.224E-03     87.0416E+06     42.9853E+06     25.5434E+06    -51.4522E+06    -51.4388E+06     25.5300E+06     42.9853E+06     54.1091E+03
             774     36.1440E-03     8.40307E-03     35.1537E-03     349.421E-03    -174.358E-03    -175.063E-03    -171.978E-03     346.772E-03    -174.794E-03     74.0536E-03     409.084E-03     88.9625E+06     35.4857E+06     18.4459E+06    -60.7638E+06    -60.7582E+06     18.4402E+06     35.4857E+06     395.680E+03
             775     35.8779E-03     7.56185E-03     35.0719E-03     348.826E-03    -173.974E-03    -174.852E-03    -172.168E-03     347.021E-03    -174.852E-03     60.9406E-03     401.375E-03     87.6947E+06     25.9053E+06     4.13758E+06    -70.5108E+06    -70.4985E+06     4.12526E+06     25.9053E+06     346.143E+03
             776     35.6524E-03     6.71947E-03     35.0134E-03     348.602E-03    -173.705E-03    -174.896E-03    -172.600E-03     347.496E-03    -174.896E-03     47.5269E-03     392.940E-03     80.8379E+06     8.07433E+06    -37.5151E+06    -81.6139E+06    -81.5816E+06    -37.5474E+06     8.07433E+06     555.485E+03
             777     35.4568E-03     5.88004E-03     34.9658E-03     348.324E-03    -173.390E-03    -174.934E-03    -172.791E-03     347.725E-03    -174.934E-03     34.7851E-03     383.980E-03     78.8517E+06    -15.1525E+06    -83.6742E+06    -101.302E+06    -93.1459E+06    -91.8305E+06    -15.1525E+06     488.679E+03
             778     35.2998E-03     5.03974E-03     34.9382E-03     348.513E-03    -173.546E-03    -174.967E-03    -173.252E-03     348.219E-03    -174.967E-03     24.4001E-03     375.715E-03     87.7367E+06    -38.8313E+06    -104.550E+06    -137.211E+06    -104.558E+06    -137.204E+06    -38.8313E+06     225.314E+03
             779     35.1706E-03     4.19895E-03     34.9191E-03     349.208E-03    -174.267E-03    -174.941E-03    -174.138E-03     349.080E-03    -174.941E-03     15.7641E-03     368.585E-03     101.722E+06    -62.7499E+06    -115.149E+06    -179.348E+06    -115.153E+06    -179.345E+06    -62.7499E+06     449.527E+03
             780     35.0731E-03     3.36005E-03     34.9118E-03     349.430E-03    -174.573E-03    -174.856E-03    -174.555E-03     349.391E-03    -174.835E-03     8.57640E-03     362.058E-03     120.696E+06    -86.4936E+06    -124.811E+06    -221.289E+06    -124.816E+06    -221.284E+06    -86.4936E+06     647.370E+03
             781     35.0007E-03     2.52071E-03     34.9098E-03     349.193E-03    -174.414E-03    -174.778E-03    -174.458E-03     349.183E-03    -174.725E-03     4.01375E-03     356.491E-03     139.179E+06    -109.192E+06    -133.907E+06    -258.896E+06    -133.910E+06    -258.892E+06    -109.192E+06     537.586E+03
             782     34.9541E-03     1.68033E-03     34.9137E-03     349.088E-03    -174.372E-03    -174.715E-03    -174.406E-03     349.086E-03    -174.680E-03     1.48973E-03     352.549E-03     151.326E+06    -128.805E+06    -140.590E+06    -285.562E+06    -140.593E+06    -285.559E+06    -128.805E+06     307.103E+03
             783     34.9267E-03     839.753E-06     34.9166E-03     349.300E-03    -174.290E-03    -175.010E-03    -174.656E-03     349.300E-03    -174.644E-03     645.908E-06     350.423E-03     162.446E+06    -141.128E+06    -145.282E+06    -305.604E+06    -144.499E+06    -305.599E+06    -141.915E+06     35.7208E+03
             784     37.6644E-03     14.2877E-03     34.8492E-03     365.664E-03    -174.900E-03    -190.764E-03    -177.955E-03     352.855E-03    -174.900E-03     160.651E-03     460.845E-03     117.398E+06     123.593E+06     87.6833E+06    -7.40015E+06    -7.39771E+06     87.6809E+06     123.593E+06     228.859E+03
             785     37.0822E-03     13.4471E-03     34.5581E-03     365.633E-03    -174.828E-03    -190.805E-03    -177.536E-03     352.364E-03    -174.828E-03     164.815E-03     469.999E-03     102.452E+06     96.8102E+06       73.65E+06    -15.2221E+06    -15.2200E+06     73.6479E+06     96.8102E+06     189.788E+03
             786     36.6401E-03     12.6069E-03     34.4029E-03     356.946E-03    -174.791E-03    -182.155E-03    -174.338E-03     349.129E-03    -174.791E-03     128.615E-03     443.121E-03     90.5265E+06     76.9173E+06     56.4446E+06    -22.0722E+06    -22.0656E+06     56.4379E+06     76.9173E+06     385.419E+03
             787     36.1868E-03     11.7638E-03     34.2214E-03     356.245E-03    -174.798E-03    -181.447E-03    -174.177E-03     348.975E-03    -174.798E-03     123.490E-03     438.617E-03     87.2699E+06     68.0011E+06     43.8090E+06    -28.7848E+06    -28.7749E+06     43.7990E+06     68.0011E+06     819.187E+03
             788     35.7829E-03     10.9242E-03     34.0746E-03     353.628E-03    -174.789E-03    -178.840E-03    -173.441E-03     348.230E-03    -174.789E-03     106.643E-03     428.236E-03     86.6286E+06     60.2282E+06     35.5676E+06    -36.0423E+06    -36.0384E+06     35.5637E+06     60.2282E+06     235.103E+03
             789     35.4131E-03     10.0844E-03     33.9469E-03     351.613E-03    -174.797E-03    -176.816E-03    -172.254E-03     347.051E-03    -174.797E-03     97.5946E-03     422.336E-03     86.2942E+06     50.6521E+06     30.4188E+06    -43.9296E+06    -43.9189E+06     30.4080E+06     50.6521E+06    -328.081E+03
             790     35.0716E-03     9.24260E-03     33.8318E-03     350.549E-03    -174.845E-03    -175.704E-03    -172.182E-03     347.026E-03    -174.845E-03     85.5602E-03     416.024E-03     87.0610E+06     42.2668E+06     25.1803E+06    -52.0681E+06    -52.0508E+06     25.1629E+06     42.2668E+06    -331.044E+03
             791     34.7658E-03     8.40065E-03     33.7355E-03     349.968E-03    -174.647E-03    -175.322E-03    -172.503E-03     347.384E-03    -174.881E-03     73.2151E-03     409.601E-03     88.9335E+06     35.3819E+06     18.2923E+06    -60.8549E+06    -60.8475E+06     18.2849E+06     35.3819E+06    -177.329E+03
             792     34.4949E-03     7.55921E-03     33.6565E-03     349.138E-03    -174.208E-03    -174.930E-03    -172.473E-03     347.374E-03    -174.901E-03     60.2265E-03     401.693E-03     87.8944E+06     25.6881E+06     3.29591E+06    -71.1033E+06    -71.0953E+06     3.28792E+06     25.6881E+06     217.873E+03
             793     34.2577E-03     6.72121E-03     33.5919E-03     348.775E-03    -173.857E-03    -174.918E-03    -172.780E-03     347.699E-03    -174.918E-03     46.9418E-03     393.145E-03     80.8965E+06     8.06495E+06    -37.5698E+06    -81.9445E+06    -81.9214E+06    -37.5929E+06     8.06495E+06     604.398E+03
             794     34.0620E-03     5.88087E-03     33.5505E-03     348.615E-03    -173.692E-03    -174.922E-03    -173.093E-03     348.015E-03    -174.922E-03     34.9005E-03     384.356E-03     78.9119E+06    -14.8397E+06    -83.1224E+06    -101.171E+06    -93.0539E+06    -91.2392E+06    -14.8397E+06     660.788E+03
             795     33.8968E-03     5.03939E-03     33.5202E-03     348.745E-03    -173.841E-03    -174.903E-03    -173.542E-03     348.445E-03    -174.903E-03     24.5670E-03     375.791E-03     87.6465E+06    -38.4098E+06    -104.066E+06    -136.657E+06    -104.094E+06    -136.630E+06    -38.4098E+06     795.712E+03
             796     33.7632E-03     4.20040E-03     33.5009E-03     348.803E-03    -173.930E-03    -174.873E-03    -173.804E-03     348.677E-03    -174.873E-03     15.6432E-03     368.018E-03     101.373E+06    -62.9502E+06    -115.184E+06    -179.181E+06    -115.199E+06    -179.166E+06    -62.9502E+06     577.986E+03
             797     33.6615E-03     3.36009E-03     33.4934E-03     348.815E-03    -173.932E-03    -174.883E-03    -173.890E-03     348.773E-03    -174.883E-03     9.00596E-03     361.457E-03     120.145E+06    -86.8981E+06    -125.079E+06    -221.067E+06    -125.084E+06    -221.063E+06    -86.8981E+06     469.777E+03
             798     33.5885E-03     2.51929E-03     33.4939E-03     349.159E-03    -174.225E-03    -174.934E-03    -174.212E-03     349.146E-03    -174.934E-03     4.61200E-03     356.516E-03     137.981E+06    -110.048E+06    -133.554E+06    -258.067E+06    -133.560E+06    -258.061E+06    -110.048E+06    -50.1927E+03
             799     33.5382E-03     1.67899E-03     33.4962E-03     349.621E-03    -174.602E-03    -175.020E-03    -174.623E-03     349.620E-03    -174.996E-03     1.49213E-03     353.113E-03     151.318E+06    -128.875E+06    -140.254E+06    -285.482E+06    -140.259E+06    -285.477E+06    -128.875E+06    -644.801E+03
             800     33.5103E-03     839.368E-06     33.4998E-03     349.991E-03    -174.568E-03    -175.422E-03    -175.068E-03     349.990E-03    -174.922E-03    -130.478E-06     351.127E-03     163.154E+06    -140.257E+06    -144.711E+06    -305.574E+06    -144.165E+06    -305.572E+06    -140.805E+06     3.14652E+03
             801     36.3564E-03     14.2890E-03     33.4307E-03     365.523E-03    -174.899E-03    -190.624E-03    -177.855E-03     352.754E-03    -174.899E-03     160.375E-03     460.738E-03     117.305E+06     123.151E+06     87.1268E+06    -7.77226E+06    -7.77014E+06     87.1247E+06     123.151E+06     9.67914E+03
             802     35.7667E-03     13.4468E-03     33.1427E-03     365.195E-03    -174.844E-03    -190.351E-03    -177.105E-03     351.949E-03    -174.844E-03     164.616E-03     469.390E-03     102.473E+06      97.012E+06     73.5524E+06    -15.1437E+06    -15.1395E+06     73.5482E+06      97.012E+06     303.913E+03
             803     35.3099E-03     12.6041E-03     32.9837E-03     357.501E-03    -174.804E-03    -182.697E-03    -174.925E-03     349.730E-03    -174.804E-03     128.438E-03     443.631E-03     91.0724E+06     77.8911E+06     56.4914E+06    -21.9498E+06    -21.9430E+06     56.4845E+06     77.8911E+06     501.060E+03
             804     34.8492E-03     11.7671E-03     32.8025E-03     356.422E-03    -174.784E-03    -181.639E-03    -174.362E-03     349.146E-03    -174.784E-03     123.737E-03     438.879E-03     87.8982E+06     69.0368E+06     44.1325E+06    -28.6090E+06    -28.5980E+06     44.1214E+06     69.0368E+06     797.944E+03
             805     34.4378E-03     10.9249E-03     32.6590E-03     352.742E-03    -174.801E-03    -177.941E-03    -172.520E-03     347.321E-03    -174.801E-03     106.631E-03     427.306E-03     86.7938E+06     61.0765E+06     36.5641E+06    -35.3186E+06    -35.3114E+06     36.5569E+06     61.0765E+06     418.381E+03
             806     34.0564E-03     10.0811E-03     32.5301E-03     351.617E-03    -174.844E-03    -176.773E-03    -172.270E-03     347.114E-03    -174.844E-03     96.9724E-03     422.319E-03     86.1601E+06     50.8190E+06     31.0812E+06    -43.4650E+06    -43.4615E+06     31.0777E+06     50.8190E+06    -54.5458E+03
             807     33.7053E-03     9.24066E-03     32.4138E-03     350.904E-03    -174.874E-03    -176.030E-03    -172.542E-03     347.416E-03    -174.874E-03     85.1893E-03     416.312E-03     86.9385E+06     41.5331E+06     24.8114E+06    -52.5504E+06    -52.5420E+06     24.8030E+06     41.5331E+06    -388.032E+03
             808     33.3918E-03     8.40135E-03     32.3176E-03     350.156E-03    -174.880E-03    -175.276E-03    -172.756E-03     347.636E-03    -174.880E-03     72.3095E-03     409.807E-03     88.9455E+06     34.5760E+06     17.5104E+06    -61.6644E+06    -61.6589E+06     17.5049E+06     34.5760E+06    -434.321E+03
             809     33.1123E-03     7.56290E-03     32.2370E-03     349.061E-03    -174.122E-03    -174.939E-03    -172.441E-03     347.328E-03    -174.888E-03     59.8012E-03     401.603E-03     87.6082E+06     25.2129E+06     2.54450E+06    -71.3585E+06    -71.3558E+06     2.54184E+06     25.2129E+06     96.7449E+03
             810     32.8704E-03     6.71982E-03     32.1762E-03     348.399E-03    -173.467E-03    -174.932E-03    -172.366E-03     347.298E-03    -174.932E-03     47.4821E-03     392.708E-03     80.4478E+06     7.61835E+06    -37.7417E+06    -82.1332E+06    -82.1148E+06    -37.7601E+06     7.61835E+06     466.449E+03
             811     32.6648E-03     5.87885E-03     32.1314E-03     349.004E-03    -174.063E-03    -174.942E-03    -173.446E-03     348.387E-03    -174.942E-03     35.4046E-03     384.548E-03     78.9019E+06    -15.1055E+06    -82.8972E+06    -101.650E+06    -93.3415E+06    -91.2062E+06    -15.1055E+06     818.311E+03
             812     32.4950E-03     5.04123E-03     32.1015E-03     348.956E-03    -174.077E-03    -174.879E-03    -173.777E-03     348.656E-03    -174.879E-03     24.5610E-03     375.905E-03     87.4827E+06    -38.3424E+06    -104.599E+06    -136.399E+06    -104.641E+06    -136.357E+06    -38.3424E+06     909.993E+03
             813     32.3580E-03     4.20008E-03     32.0843E-03     348.305E-03    -173.427E-03    -174.878E-03    -173.300E-03     348.178E-03    -174.878E-03     15.8424E-03     367.549E-03     100.855E+06    -62.5976E+06    -115.122E+06    -178.140E+06    -115.139E+06    -178.124E+06    -62.5976E+06     640.019E+03
             814     32.2530E-03     3.35866E-03     32.0777E-03     348.634E-03    -173.646E-03    -174.988E-03    -173.603E-03     348.591E-03    -174.988E-03     8.95316E-03     361.297E-03     119.971E+06    -86.6952E+06    -125.252E+06    -220.845E+06    -125.262E+06    -220.836E+06    -86.6952E+06     69.9034E+03
             815     32.1742E-03     2.51861E-03     32.0755E-03     349.437E-03    -174.339E-03    -175.098E-03    -174.329E-03     349.427E-03    -175.098E-03     4.00160E-03     356.791E-03     137.580E+06    -108.891E+06    -134.251E+06    -257.192E+06    -134.263E+06    -257.180E+06    -108.891E+06    -208.453E+03
             816     32.1223E-03     1.67945E-03     32.0783E-03     350.034E-03    -174.868E-03    -175.166E-03    -174.918E-03     350.033E-03    -175.116E-03     1.24002E-03     353.520E-03     150.219E+06    -129.456E+06    -142.526E+06    -285.674E+06    -142.534E+06    -285.667E+06    -129.456E+06    -300.304E+03
             817     32.0917E-03     840.100E-06     32.0807E-03     350.110E-03    -174.607E-03    -175.503E-03    -175.503E-03     350.110E-03    -174.607E-03    -82.1656E-06     351.247E-03     160.594E+06    -143.856E+06    -148.652E+06    -306.772E+06    -148.106E+06    -306.769E+06    -144.405E+06    -506.889E+03
             818     35.0562E-03     14.2882E-03     32.0123E-03     365.613E-03    -174.909E-03    -190.705E-03    -177.987E-03     352.896E-03    -174.909E-03     160.594E-03     461.066E-03     117.177E+06     123.275E+06     87.1684E+06    -7.54970E+06    -7.54945E+06     87.1682E+06     123.275E+06    -94.3587E+03
             819     34.4599E-03     13.4467E-03     31.7281E-03     365.412E-03    -174.842E-03    -190.570E-03    -177.389E-03     352.231E-03    -174.842E-03     164.667E-03     469.436E-03     102.828E+06     97.6767E+06     73.5603E+06    -15.0560E+06    -15.0505E+06     73.5549E+06     97.6767E+06     364.075E+03
             820     33.9884E-03     12.6072E-03     31.5638E-03     357.389E-03    -174.802E-03    -182.587E-03    -174.718E-03     349.520E-03    -174.802E-03     129.242E-03     443.263E-03     91.4495E+06     78.6481E+06     56.1485E+06    -21.9176E+06    -21.9122E+06     56.1431E+06     78.6481E+06     543.000E+03
             821     33.5164E-03     11.7642E-03     31.3839E-03     355.891E-03    -174.805E-03    -181.085E-03    -173.864E-03     348.669E-03    -174.805E-03     123.086E-03     438.626E-03     88.1716E+06     69.6156E+06     44.2113E+06    -28.4623E+06    -28.4580E+06     44.2071E+06     69.6156E+06     313.751E+03
             822     33.0987E-03     10.9229E-03     31.2444E-03     353.099E-03    -174.826E-03    -178.273E-03    -172.866E-03     347.692E-03    -174.826E-03     106.588E-03     427.697E-03     87.4965E+06     61.5253E+06     36.8704E+06    -35.6403E+06    -35.6350E+06     36.8651E+06     61.5253E+06     400.333E+03
             823     32.7047E-03     10.0840E-03     31.1112E-03     352.234E-03    -174.828E-03    -177.407E-03    -172.946E-03     347.774E-03    -174.828E-03     96.5746E-03     422.814E-03     86.8974E+06     51.6798E+06     31.6943E+06    -43.4293E+06    -43.4216E+06     31.6866E+06     51.6798E+06     313.444E+03
             824     32.3465E-03     9.24315E-03     30.9977E-03     350.703E-03    -174.688E-03    -176.015E-03    -172.453E-03     347.278E-03    -174.825E-03     84.4859E-03     416.076E-03     86.9429E+06     41.6552E+06     25.2024E+06    -52.3365E+06    -52.3247E+06     25.1906E+06     41.6552E+06     363.298E+03
             825     32.0194E-03     8.40175E-03     30.8975E-03     349.486E-03    -174.396E-03    -175.090E-03    -172.031E-03     346.897E-03    -174.866E-03     73.2543E-03     408.928E-03     88.3731E+06     33.7410E+06     17.3649E+06    -61.6737E+06    -61.6679E+06     17.3590E+06     33.7410E+06     72.5585E+03
             826     31.7339E-03     7.55962E-03     30.8204E-03     349.158E-03    -174.097E-03    -175.061E-03    -172.473E-03     347.386E-03    -174.914E-03     60.3664E-03     401.613E-03     87.2167E+06     24.3750E+06     2.13830E+06    -71.6413E+06    -71.6376E+06     2.13460E+06     24.3750E+06    -68.9899E+03
             827     31.4852E-03     6.72009E-03     30.7597E-03     348.955E-03    -173.907E-03    -175.048E-03    -172.957E-03     347.880E-03    -174.923E-03     46.9222E-03     393.077E-03     80.4934E+06     6.89847E+06    -38.4871E+06    -82.9477E+06    -82.9440E+06    -38.4908E+06     6.89847E+06     111.297E+03
             828     31.2696E-03     5.88064E-03     30.7117E-03     348.628E-03    -173.708E-03    -174.920E-03    -173.110E-03     348.030E-03    -174.920E-03     34.8546E-03     383.993E-03     79.3016E+06    -14.9616E+06    -83.2839E+06    -101.835E+06    -93.8768E+06    -91.2425E+06    -14.9616E+06     441.072E+03
             829     31.0941E-03     5.03944E-03     30.6830E-03     348.565E-03    -173.648E-03    -174.917E-03    -173.359E-03     348.276E-03    -174.917E-03     24.0412E-03     375.674E-03     87.4883E+06    -38.0805E+06    -104.837E+06    -135.971E+06    -104.864E+06    -135.944E+06    -38.0805E+06     583.778E+03
             830     30.9553E-03     4.19944E-03     30.6691E-03     348.701E-03    -173.780E-03    -174.921E-03    -173.661E-03     348.582E-03    -174.921E-03     15.3359E-03     368.058E-03     100.866E+06    -62.1697E+06    -115.375E+06    -177.806E+06    -115.382E+06    -177.799E+06    -62.1697E+06     271.857E+03
             831     30.8427E-03     3.35966E-03     30.6591E-03     348.906E-03    -173.949E-03    -174.957E-03    -173.909E-03     348.866E-03    -174.957E-03     8.58405E-03     361.513E-03     120.029E+06    -85.8477E+06    -125.231E+06    -220.223E+06    -125.257E+06    -220.197E+06    -85.8477E+06     432.916E+03
             832     30.7622E-03     2.51964E-03     30.6588E-03     349.335E-03    -174.328E-03    -175.007E-03    -174.320E-03     349.326E-03    -175.007E-03     3.87302E-03     356.614E-03     136.876E+06    -109.290E+06    -135.089E+06    -257.049E+06    -135.114E+06    -257.025E+06    -109.290E+06     391.739E+03
             833     30.7052E-03     1.67887E-03     30.6593E-03     349.783E-03    -174.724E-03    -175.059E-03    -174.750E-03     349.782E-03    -175.032E-03     1.06965E-03     353.216E-03     149.692E+06    -129.494E+06    -142.539E+06    -285.157E+06    -142.545E+06    -285.152E+06    -129.494E+06     85.9901E+03
             834     30.6744E-03     839.307E-06     30.6629E-03     349.993E-03    -174.745E-03    -175.248E-03    -175.141E-03     349.992E-03    -174.852E-03    -468.287E-06     351.113E-03     161.329E+06    -143.618E+06    -148.457E+06    -307.300E+06    -147.505E+06    -307.297E+06    -144.572E+06    -256.131E+03
             835     33.7651E-03     14.2875E-03     30.5932E-03     365.604E-03    -174.930E-03    -190.674E-03    -177.992E-03     352.922E-03    -174.930E-03     160.605E-03     461.117E-03     117.316E+06     123.556E+06     87.0473E+06    -7.52206E+06    -7.52112E+06     87.0464E+06     123.556E+06    -227.483E+03
             836     33.1597E-03     13.4475E-03     30.3105E-03     365.666E-03    -174.857E-03    -190.809E-03    -177.590E-03     352.447E-03    -174.857E-03     165.337E-03     469.811E-03     103.072E+06     98.0133E+06     73.6511E+06    -15.0432E+06    -15.0395E+06     73.6474E+06     98.0133E+06     181.501E+03
             837     32.6751E-03     12.6051E-03     30.1459E-03     357.377E-03    -174.817E-03    -182.560E-03    -174.593E-03     349.410E-03    -174.817E-03     130.087E-03     443.263E-03     91.1500E+06     78.5906E+06     55.7623E+06    -21.7579E+06    -21.7545E+06     55.7589E+06     78.5906E+06     322.729E+03
             838     32.1946E-03     11.7652E-03     29.9678E-03     355.871E-03    -174.824E-03    -181.047E-03    -173.918E-03     348.742E-03    -174.824E-03     122.240E-03     438.583E-03     87.9496E+06     69.3244E+06     43.8078E+06    -28.5612E+06    -28.5600E+06     43.8066E+06     69.3244E+06     84.6769E+03
             839     31.7638E-03     10.9244E-03     29.8261E-03     353.390E-03    -174.830E-03    -178.560E-03    -173.172E-03     348.003E-03    -174.830E-03     106.498E-03     428.005E-03     87.6568E+06     61.1712E+06     36.5884E+06    -36.1456E+06    -36.1388E+06     36.5815E+06     61.1712E+06     532.020E+03
             840     31.3578E-03     10.0825E-03     29.6927E-03     352.457E-03    -174.818E-03    -177.638E-03    -173.053E-03     347.871E-03    -174.818E-03     97.9883E-03     422.763E-03     86.8415E+06     51.5324E+06     31.2534E+06    -43.6138E+06    -43.6025E+06     31.2421E+06     51.5324E+06     831.849E+03
             841     30.9896E-03     9.24295E-03     29.5791E-03     350.893E-03    -174.673E-03    -176.220E-03    -172.613E-03     347.423E-03    -174.809E-03     84.9803E-03     416.072E-03     86.7540E+06     42.8392E+06     26.4100E+06    -50.9511E+06    -50.9385E+06     26.3974E+06     42.8392E+06     911.865E+03
             842     30.6578E-03     8.40082E-03     29.4844E-03     349.527E-03    -174.364E-03    -175.163E-03    -172.166E-03     347.001E-03    -174.835E-03     72.3632E-03     408.913E-03     88.2428E+06     34.9537E+06     18.7671E+06    -60.2611E+06    -60.2516E+06     18.7576E+06     34.9537E+06     620.528E+03
             843     30.3568E-03     7.56014E-03     29.4003E-03     349.213E-03    -174.197E-03    -175.017E-03    -172.666E-03     347.522E-03    -174.856E-03     58.9183E-03     401.603E-03     87.0424E+06     24.6045E+06     1.96673E+06    -71.3217E+06    -71.3176E+06     1.96260E+06     24.6045E+06    -153.389E+03
             844     30.0993E-03     6.72159E-03     29.3392E-03     348.790E-03    -173.817E-03    -174.973E-03    -172.920E-03     347.769E-03    -174.848E-03     45.8636E-03     392.918E-03     80.5506E+06     7.69943E+06    -38.4706E+06    -82.2783E+06    -82.2719E+06    -38.4770E+06     7.69943E+06    -114.469E+03
             845     29.8808E-03     5.88076E-03     29.2964E-03     348.026E-03    -173.148E-03    -174.878E-03    -172.548E-03     347.426E-03    -174.878E-03     34.9392E-03     383.498E-03     79.7274E+06    -14.7070E+06    -83.0440E+06    -102.240E+06    -93.5107E+06    -91.7736E+06    -14.7070E+06     141.632E+03
             846     29.6969E-03     5.03955E-03     29.2662E-03     348.283E-03    -173.344E-03    -174.939E-03    -173.049E-03     347.988E-03    -174.939E-03     24.2115E-03     375.324E-03     87.4012E+06    -37.6440E+06    -104.181E+06    -135.639E+06    -104.188E+06    -135.632E+06    -37.6440E+06     86.0311E+03
             847     29.5493E-03     4.19994E-03     29.2493E-03     349.037E-03    -174.094E-03    -174.943E-03    -173.975E-03     348.918E-03    -174.943E-03     15.3277E-03     368.341E-03     101.130E+06    -61.7397E+06    -114.946E+06    -177.592E+06    -114.962E+06    -177.576E+06    -61.7397E+06     392.725E+03
             848     29.4358E-03     3.35993E-03     29.2435E-03     349.273E-03    -174.348E-03    -174.925E-03    -174.349E-03     349.232E-03    -174.883E-03     8.81675E-03     361.840E-03     120.083E+06    -86.2952E+06    -125.541E+06    -220.722E+06    -125.575E+06    -220.689E+06    -86.2952E+06     695.985E+03
             849     29.3489E-03     2.51922E-03     29.2405E-03     349.305E-03    -174.461E-03    -174.844E-03    -174.494E-03     349.296E-03    -174.802E-03     3.84146E-03     356.536E-03     135.784E+06    -109.968E+06    -134.134E+06    -255.968E+06    -134.159E+06    -255.944E+06    -109.968E+06     480.603E+03
             850     29.2904E-03     1.68037E-03     29.2422E-03     349.288E-03    -174.526E-03    -174.762E-03    -174.525E-03     349.287E-03    -174.762E-03     624.156E-06     352.688E-03     150.255E+06    -129.591E+06    -140.960E+06    -285.136E+06    -140.969E+06    -285.126E+06    -129.591E+06    -164.332E+03
             851     29.2571E-03     839.983E-06     29.2450E-03     349.461E-03    -174.574E-03    -174.888E-03    -174.715E-03     349.461E-03    -174.746E-03    -714.763E-06     350.575E-03     163.685E+06    -140.921E+06    -146.434E+06    -307.287E+06    -145.485E+06    -307.282E+06    -141.876E+06    -32.1742E+03
             852     32.4870E-03     14.2881E-03     29.1763E-03     365.603E-03    -174.933E-03    -190.670E-03    -177.949E-03     352.881E-03    -174.933E-03     160.753E-03     460.805E-03     117.378E+06     123.813E+06     86.9885E+06    -7.39473E+06    -7.38960E+06     86.9834E+06     123.813E+06     224.268E+03
             853     31.8675E-03     13.4454E-03     28.8922E-03     365.661E-03    -174.856E-03    -190.805E-03    -177.691E-03     352.547E-03    -174.856E-03     164.243E-03     469.542E-03     102.955E+06     97.4927E+06     73.5641E+06    -15.2994E+06    -15.2938E+06     73.5586E+06     97.4927E+06     83.1878E+03
             854     31.3726E-03     12.6058E-03     28.7287E-03     357.029E-03    -174.813E-03    -182.216E-03    -174.430E-03     349.243E-03    -174.813E-03     128.454E-03     442.991E-03     91.2472E+06     77.8369E+06     55.8111E+06    -22.3628E+06    -22.3596E+06     55.8079E+06     77.8369E+06    -287.212E+03
             855     30.8776E-03     11.7643E-03     28.5487E-03     355.869E-03    -174.826E-03    -181.043E-03    -173.867E-03     348.693E-03    -174.826E-03     122.714E-03     438.322E-03     87.8518E+06     68.6846E+06     43.3523E+06    -29.0399E+06    -29.0351E+06     43.3475E+06     68.6846E+06    -294.828E+03
             856     30.4370E-03     10.9237E-03     28.4092E-03     353.720E-03    -174.823E-03    -178.897E-03    -173.508E-03     348.331E-03    -174.823E-03     106.544E-03     428.161E-03     86.9886E+06     61.0111E+06     36.5388E+06    -35.5765E+06    -35.5684E+06     36.5307E+06     61.0111E+06     245.117E+03
             857     30.0198E-03     10.0830E-03     28.2758E-03     352.171E-03    -174.803E-03    -177.368E-03    -172.892E-03     347.695E-03    -174.803E-03     96.7627E-03     422.374E-03     86.2392E+06     51.5362E+06     31.4807E+06    -42.9335E+06    -42.9279E+06     31.4750E+06     51.5362E+06     511.736E+03
             858     29.6376E-03     9.24132E-03     28.1600E-03     351.117E-03    -174.781E-03    -176.335E-03    -172.956E-03     347.738E-03    -174.781E-03     83.8853E-03     416.299E-03     86.9056E+06     42.6887E+06     25.8350E+06    -51.4063E+06    -51.4030E+06     25.8317E+06     42.6887E+06     361.301E+03
             859     29.2970E-03     8.40352E-03     28.0659E-03     350.388E-03    -174.732E-03    -175.656E-03    -173.182E-03     347.914E-03    -174.732E-03     71.7869E-03     409.776E-03     88.6473E+06     35.6730E+06     19.0628E+06    -60.1041E+06    -60.0961E+06     19.0548E+06     35.6730E+06     645.476E+03
             860     28.9869E-03     7.56390E-03     27.9826E-03     348.639E-03    -173.772E-03    -174.867E-03    -172.213E-03     346.926E-03    -174.713E-03     59.3268E-03     400.764E-03     86.9009E+06     25.7158E+06      3.1784E+06    -70.0497E+06    -70.0290E+06     3.15769E+06     25.7158E+06     822.173E+03
             861     28.7202E-03     6.72106E-03     27.9227E-03     347.838E-03    -173.063E-03    -174.775E-03    -172.020E-03     346.795E-03    -174.775E-03     46.1443E-03     391.899E-03     79.9355E+06     7.98764E+06    -38.4249E+06    -80.9459E+06    -80.9252E+06    -38.4456E+06     7.98764E+06     439.002E+03
             862     28.4927E-03     5.88009E-03     27.8794E-03     348.181E-03    -173.342E-03    -174.839E-03    -172.759E-03     347.598E-03    -174.839E-03     34.3844E-03     383.660E-03     78.9065E+06    -14.6610E+06    -83.3808E+06    -100.781E+06    -92.6722E+06    -91.4895E+06    -14.6610E+06     44.6239E+03
             863     28.3014E-03     5.04006E-03     27.8490E-03     348.289E-03    -173.417E-03    -174.871E-03    -173.133E-03     348.004E-03    -174.871E-03     23.8133E-03     375.167E-03     87.5914E+06    -37.6926E+06    -104.133E+06    -135.779E+06    -104.137E+06    -135.775E+06    -37.6926E+06    -128.253E+03
             864     28.1468E-03     4.19880E-03     27.8318E-03     348.829E-03    -173.959E-03    -174.869E-03    -173.846E-03     348.715E-03    -174.869E-03     14.7731E-03     368.091E-03     101.337E+06    -61.5086E+06    -114.647E+06    -177.656E+06    -114.662E+06    -177.641E+06    -61.5086E+06     209.084E+03
             865     28.0264E-03     3.35941E-03     27.8243E-03     349.396E-03    -174.585E-03    -174.812E-03    -174.593E-03     349.362E-03    -174.769E-03     7.86257E-03     361.987E-03     120.111E+06    -86.2452E+06    -124.908E+06    -220.501E+06    -124.925E+06    -220.484E+06    -86.2452E+06     27.7822E+03
             866     27.9372E-03     2.52121E-03     27.8232E-03     349.075E-03    -174.402E-03    -174.673E-03    -174.437E-03     349.068E-03    -174.631E-03     3.46725E-03     356.312E-03     136.539E+06    -108.829E+06    -133.425E+06    -255.815E+06    -133.432E+06    -255.808E+06    -108.829E+06    -1.88932E+03
             867     27.8762E-03     1.68011E-03     27.8255E-03     348.859E-03    -174.266E-03    -174.593E-03    -174.265E-03     348.858E-03    -174.593E-03     1.24457E-03     352.273E-03     150.535E+06    -128.420E+06    -140.396E+06    -284.468E+06    -140.413E+06    -284.451E+06    -128.420E+06     506.971E+03
             868     27.8417E-03     840.030E-06     27.8290E-03     349.156E-03    -173.930E-03    -175.226E-03    -175.125E-03     349.156E-03    -174.030E-03    -195.605E-06     350.267E-03     164.025E+06    -141.579E+06    -146.202E+06    -307.858E+06    -145.822E+06    -307.834E+06    -141.984E+06    -177.197E+03
             869     31.2228E-03     14.2876E-03     27.7620E-03     366.284E-03    -174.919E-03    -191.365E-03    -178.602E-03     353.521E-03    -174.919E-03     160.893E-03     461.294E-03     117.440E+06     123.816E+06     86.8299E+06    -7.48426E+06    -7.47577E+06     86.8214E+06     123.816E+06     498.790E+03
             870     30.5863E-03     13.4484E-03     27.4712E-03     365.783E-03    -174.820E-03    -190.963E-03    -177.840E-03     352.659E-03    -174.820E-03     164.044E-03     469.481E-03     102.846E+06     98.0798E+06     74.6957E+06    -14.4160E+06    -14.4081E+06     74.6877E+06     98.0798E+06     476.650E+03
             871     30.0824E-03     12.6072E-03     27.3132E-03     356.779E-03    -174.773E-03    -182.005E-03    -174.273E-03     349.046E-03    -174.773E-03     127.906E-03     442.690E-03     91.0199E+06     77.9866E+06     56.7708E+06    -21.7215E+06    -21.7181E+06     56.7674E+06     77.9866E+06    -271.522E+03
             872     29.5740E-03     11.7642E-03     27.1335E-03     355.873E-03    -174.786E-03    -181.087E-03    -173.936E-03     348.722E-03    -174.786E-03     122.383E-03     437.999E-03     87.3954E+06     68.5097E+06     43.2468E+06    -28.7198E+06    -28.7156E+06     43.2426E+06     68.5097E+06    -359.817E+03
             873     29.1147E-03     10.9238E-03     26.9877E-03     353.692E-03    -174.770E-03    -178.922E-03    -173.647E-03     348.417E-03    -174.770E-03     105.434E-03     428.010E-03     86.7340E+06     60.4532E+06     35.8365E+06    -35.9056E+06    -35.8935E+06     35.8244E+06     60.4532E+06    -522.235E+03
             874     28.6899E-03     10.0849E-03     26.8590E-03     352.443E-03    -174.717E-03    -177.726E-03    -173.331E-03     348.048E-03    -174.717E-03     95.9538E-03     422.656E-03     86.3472E+06     50.8884E+06     30.8075E+06    -43.7063E+06    -43.6960E+06     30.7972E+06     50.8884E+06    -193.676E+03
             875     28.2963E-03     9.24421E-03     26.7437E-03     350.976E-03    -174.672E-03    -176.305E-03    -172.913E-03     347.584E-03    -174.672E-03     84.1313E-03     415.725E-03     87.0318E+06     42.5361E+06     25.4207E+06    -51.7785E+06    -51.7773E+06     25.4195E+06     42.5361E+06     216.557E+03
             876     27.9370E-03     8.40299E-03     26.6433E-03     349.816E-03    -174.510E-03    -175.307E-03    -172.682E-03     347.323E-03    -174.641E-03     71.8631E-03     408.973E-03     88.6671E+06     35.3286E+06     18.6137E+06    -60.5063E+06    -60.5010E+06     18.6085E+06     35.3286E+06     461.471E+03
             877     27.6241E-03     7.56235E-03     26.5688E-03     348.621E-03    -173.867E-03    -174.754E-03    -172.306E-03     346.942E-03    -174.636E-03     58.7986E-03     400.674E-03     87.4383E+06     26.1674E+06     3.97227E+06    -70.0776E+06    -70.0584E+06     3.95313E+06     26.1674E+06     950.394E+03
             878     27.3450E-03     6.72133E-03     26.5061E-03     348.071E-03    -173.415E-03    -174.656E-03    -172.395E-03     347.051E-03    -174.656E-03     45.5339E-03     391.853E-03     80.4608E+06     8.23647E+06    -37.6932E+06    -81.1935E+06    -81.1777E+06    -37.7090E+06     8.23647E+06     508.968E+03
             879     27.1066E-03     5.88157E-03     26.4608E-03     348.131E-03    -173.468E-03    -174.663E-03    -172.934E-03     347.597E-03    -174.663E-03     32.8584E-03     383.466E-03     79.0248E+06    -14.2460E+06    -82.8044E+06    -100.616E+06    -92.2048E+06    -91.2159E+06    -14.2460E+06     76.2113E+03
             880     26.9091E-03     5.04108E-03     26.4327E-03     348.219E-03    -173.585E-03    -174.634E-03    -173.332E-03     347.966E-03    -174.634E-03     22.5551E-03     375.102E-03     87.8240E+06    -37.0132E+06    -102.994E+06    -135.489E+06    -102.996E+06    -135.487E+06    -37.0132E+06     103.727E+03
             881     26.7464E-03     4.20139E-03     26.4143E-03     348.351E-03    -173.766E-03    -174.585E-03    -173.665E-03     348.249E-03    -174.585E-03     13.9849E-03     367.547E-03     101.763E+06    -61.4394E+06    -114.139E+06    -178.091E+06    -114.144E+06    -178.086E+06    -61.4394E+06    -432.408E+03
             882     26.6189E-03     3.36143E-03     26.4058E-03     348.387E-03    -173.838E-03    -174.549E-03    -173.809E-03     348.358E-03    -174.549E-03     7.25507E-03     360.983E-03     120.365E+06    -84.9932E+06    -124.192E+06    -219.687E+06    -124.197E+06    -219.682E+06    -84.9932E+06    -492.215E+03
             883     26.5270E-03     2.52006E-03     26.4071E-03     348.562E-03    -173.981E-03    -174.581E-03    -174.022E-03     348.556E-03    -174.534E-03     3.25451E-03     355.854E-03     137.714E+06    -108.344E+06    -133.762E+06    -256.788E+06    -133.764E+06    -256.787E+06    -108.344E+06     94.2090E+03
             884     26.4633E-03     1.67997E-03     26.4100E-03     348.839E-03    -174.267E-03    -174.572E-03    -174.333E-03     348.838E-03    -174.505E-03     1.05134E-03     352.271E-03     150.103E+06    -127.924E+06    -140.611E+06    -283.863E+06    -140.623E+06    -283.852E+06    -127.924E+06     591.891E+03
             885     26.4238E-03     839.946E-06     26.4105E-03     348.897E-03    -173.836E-03    -175.061E-03    -175.026E-03     348.896E-03    -173.870E-03    -189.903E-06     349.993E-03     163.554E+06    -141.372E+06    -145.456E+06    -306.908E+06    -144.846E+06    -306.877E+06    -142.014E+06     493.474E+03
             886     29.9679E-03     14.2888E-03     26.3421E-03     366.556E-03    -174.913E-03    -191.643E-03    -178.802E-03     353.715E-03    -174.913E-03     161.294E-03     461.657E-03     117.456E+06     123.173E+06     86.1002E+06    -8.16576E+06    -8.15984E+06     86.0943E+06     123.173E+06    -149.924E+03
             887     29.3190E-03     13.4473E-03     26.0533E-03     365.676E-03    -174.816E-03    -190.860E-03    -177.632E-03     352.448E-03    -174.816E-03     164.604E-03     469.380E-03     103.015E+06     97.6786E+06     74.7606E+06    -14.8223E+06    -14.8148E+06     74.7530E+06     97.6786E+06    -63.8830E+03
             888     28.8022E-03     12.6051E-03     25.8975E-03     357.543E-03    -174.757E-03    -182.786E-03    -174.978E-03     349.735E-03    -174.757E-03     128.703E-03     443.193E-03     91.1045E+06     78.2096E+06     57.4370E+06    -21.4229E+06    -21.4133E+06     57.4274E+06     78.2096E+06     160.567E+03
             889     28.2773E-03     11.7672E-03     25.7126E-03     356.704E-03    -174.714E-03    -181.989E-03    -174.825E-03     349.539E-03    -174.714E-03     122.610E-03     438.593E-03     87.5617E+06     68.6881E+06     43.5023E+06    -28.6971E+06    -28.6904E+06     43.4956E+06     68.6881E+06     348.135E+03
             890     27.8102E-03     10.9263E-03     25.5739E-03     353.532E-03    -174.661E-03    -178.871E-03    -173.613E-03     348.274E-03    -174.661E-03     105.270E-03     427.409E-03     87.1215E+06     60.3611E+06     35.9451E+06    -36.3437E+06    -36.3322E+06     35.9336E+06     60.3611E+06    -159.749E+03
             891     27.3634E-03     10.0838E-03     25.4376E-03     352.469E-03    -174.594E-03    -177.875E-03    -173.509E-03     348.103E-03    -174.594E-03     95.5656E-03     422.227E-03       86.56E+06     50.9885E+06     30.8716E+06    -43.8381E+06    -43.8200E+06     30.8534E+06     50.9885E+06    -499.614E+03
             892     26.9613E-03     9.24527E-03     25.3266E-03     350.819E-03    -174.525E-03    -176.295E-03    -172.988E-03     347.512E-03    -174.525E-03     83.0808E-03     415.231E-03     87.1075E+06     42.3669E+06     25.0897E+06    -52.0812E+06    -52.0732E+06     25.0818E+06     42.3669E+06    -337.450E+03
             893     26.5908E-03     8.40403E-03     25.2278E-03     349.228E-03    -174.353E-03    -174.875E-03    -172.342E-03     346.834E-03    -174.492E-03     70.2604E-03     408.119E-03     88.9503E+06     35.3349E+06     18.1702E+06    -60.9455E+06    -60.9408E+06     18.1655E+06     35.3349E+06    -129.476E+03
             894     26.2624E-03     7.56333E-03     25.1497E-03     348.713E-03    -174.253E-03    -174.461E-03    -172.700E-03     347.160E-03    -174.461E-03     56.5835E-03     400.621E-03     88.1708E+06     26.2381E+06     3.76772E+06    -70.8684E+06    -70.8642E+06     3.76347E+06     26.2381E+06     70.3136E+03
             895     25.9741E-03     6.72471E-03     25.0885E-03     348.200E-03    -173.798E-03    -174.401E-03    -172.841E-03     347.243E-03    -174.401E-03     44.2191E-03     391.812E-03     81.2990E+06     8.77865E+06    -37.0943E+06    -81.6410E+06    -81.6371E+06    -37.0981E+06     8.77865E+06     303.829E+03
             896     25.7266E-03     5.88348E-03     25.0448E-03     347.638E-03    -173.288E-03    -174.350E-03    -172.768E-03     347.118E-03    -174.350E-03     32.4069E-03     382.724E-03     78.8927E+06    -14.2220E+06    -82.5338E+06    -100.488E+06    -92.3907E+06    -90.6315E+06    -14.2220E+06     176.972E+03
             897     25.5184E-03     5.04314E-03     25.0151E-03     347.628E-03    -173.326E-03    -174.303E-03    -173.073E-03     347.376E-03    -174.303E-03     22.5241E-03     374.340E-03     87.0878E+06    -37.6108E+06    -103.441E+06    -135.165E+06    -103.442E+06    -135.164E+06    -37.6108E+06    -8.30205E+03
             898     25.3483E-03     4.20290E-03     24.9975E-03     347.396E-03    -173.110E-03    -174.286E-03    -173.005E-03     347.291E-03    -174.286E-03     14.2993E-03     366.423E-03     101.263E+06    -61.6614E+06    -114.018E+06    -177.662E+06    -114.022E+06    -177.658E+06    -61.6614E+06    -239.782E+03
             899     25.2166E-03     3.36126E-03     24.9915E-03     347.531E-03    -173.186E-03    -174.345E-03    -173.153E-03     347.499E-03    -174.345E-03     7.78486E-03     360.026E-03     120.659E+06    -85.5783E+06    -124.160E+06    -220.438E+06    -124.163E+06    -220.435E+06    -85.5783E+06    -183.234E+03
             900     25.1175E-03     2.52062E-03     24.9907E-03     348.386E-03    -173.929E-03    -174.456E-03    -174.018E-03     348.379E-03    -174.361E-03     3.12430E-03     355.640E-03     137.984E+06    -108.233E+06    -133.113E+06    -256.753E+06    -133.116E+06    -256.750E+06    -108.233E+06     133.235E+03
             901     25.0484E-03     1.68108E-03     24.9920E-03     348.579E-03    -174.229E-03    -174.350E-03    -174.344E-03     348.578E-03    -174.234E-03     318.794E-06     351.996E-03     150.176E+06    -128.398E+06    -139.981E+06    -283.912E+06    -139.984E+06    -283.910E+06    -128.398E+06    -10.4352E+03
             902     25.0107E-03     840.796E-06     24.9965E-03     348.231E-03    -173.710E-03    -174.520E-03    -173.848E-03     348.231E-03    -174.383E-03    -285.612E-06     349.337E-03     163.709E+06    -141.214E+06    -144.419E+06    -306.482E+06    -144.196E+06    -306.468E+06    -141.452E+06     291.806E+03
             903     28.7274E-03     14.2879E-03     24.9223E-03     366.120E-03    -174.931E-03    -191.189E-03    -178.314E-03     353.245E-03    -174.931E-03     161.889E-03     461.318E-03     117.037E+06     122.643E+06     85.9323E+06    -8.16100E+06    -8.15777E+06     85.9290E+06     122.643E+06    -236.958E+03
             904     28.0686E-03     13.4465E-03     24.6381E-03     366.112E-03    -174.830E-03    -191.282E-03    -178.159E-03     352.989E-03    -174.830E-03     164.128E-03     469.508E-03     102.975E+06     96.3709E+06     73.7395E+06    -15.9972E+06    -15.9902E+06     73.7325E+06     96.3709E+06    -367.627E+03
             905     27.5327E-03     12.6072E-03     24.4767E-03     358.214E-03    -174.730E-03    -183.484E-03    -175.734E-03     350.463E-03    -174.730E-03     128.417E-03     443.297E-03     91.7397E+06     77.8277E+06      57.082E+06    -22.4456E+06    -22.4302E+06     57.0666E+06     77.8277E+06     24.1817E+03
             906     26.9933E-03     11.7658E-03     24.2941E-03     357.142E-03    -174.637E-03    -182.505E-03    -175.445E-03     350.082E-03    -174.637E-03     121.795E-03     438.562E-03     88.0503E+06     69.2330E+06     43.8843E+06    -28.6980E+06    -28.6870E+06     43.8733E+06     69.2330E+06     101.591E+03
             907     26.5114E-03     10.9264E-03     24.1550E-03     354.175E-03    -174.516E-03    -179.659E-03    -174.529E-03     349.045E-03    -174.516E-03     104.108E-03     427.386E-03      87.426E+06     61.4169E+06     36.9111E+06    -35.6211E+06    -35.6186E+06     36.9085E+06     61.4169E+06     150.299E+03
             908     26.0533E-03     10.0882E-03     24.0209E-03     352.400E-03    -174.380E-03    -178.021E-03    -173.804E-03     348.184E-03    -174.380E-03     93.9325E-03     421.508E-03     86.6675E+06     51.3254E+06     31.5396E+06    -43.5016E+06    -43.4908E+06     31.5287E+06     51.3254E+06    -64.3826E+03
             909     25.6333E-03     9.24657E-03     23.9075E-03     350.599E-03    -174.260E-03    -176.339E-03    -173.234E-03     347.494E-03    -174.260E-03     80.4162E-03     414.668E-03     87.1502E+06     42.6464E+06     25.4460E+06    -51.8203E+06    -51.8048E+06     25.4305E+06     42.6464E+06    -642.382E+03
             910     25.2526E-03     8.40732E-03     23.8120E-03     349.146E-03    -174.153E-03    -174.993E-03    -172.744E-03     346.906E-03    -174.161E-03     68.1081E-03     407.513E-03     89.0176E+06     35.3811E+06     17.9572E+06    -61.0594E+06    -61.0405E+06     17.9383E+06     35.3811E+06    -1.13222E+06
             911     24.9089E-03     7.56712E-03     23.7316E-03     347.887E-03    -173.746E-03    -174.140E-03    -172.300E-03     346.390E-03    -174.090E-03     55.4361E-03     399.114E-03     87.6287E+06     25.5878E+06     2.75207E+06    -71.0543E+06    -71.0385E+06     2.73627E+06     25.5878E+06    -788.350E+03
             912     24.6087E-03     6.72552E-03     23.6719E-03     347.301E-03    -173.260E-03    -174.041E-03    -172.352E-03     346.394E-03    -174.041E-03     43.0168E-03     390.515E-03     80.6702E+06     8.53313E+06    -37.3624E+06    -81.3479E+06    -81.3403E+06    -37.3700E+06     8.53313E+06    -98.3724E+03
             913     24.3509E-03     5.88555E-03     23.6289E-03     347.008E-03    -173.015E-03    -173.993E-03    -172.514E-03     346.507E-03    -173.993E-03     31.8384E-03     381.671E-03     78.6276E+06    -14.0628E+06    -82.2422E+06    -99.9831E+06    -92.2662E+06    -89.9591E+06    -14.0628E+06     42.5389E+03
             914     24.1323E-03     5.04469E-03     23.5991E-03     346.556E-03    -172.583E-03    -173.974E-03    -172.342E-03     346.316E-03    -173.974E-03     21.7904E-03     372.916E-03     86.9594E+06    -37.5711E+06    -103.192E+06    -134.898E+06    -103.193E+06    -134.897E+06    -37.5711E+06    -155.786E+03
             915     23.9550E-03     4.20289E-03     23.5834E-03     346.532E-03    -172.506E-03    -174.026E-03    -172.412E-03     346.438E-03    -174.026E-03     13.4882E-03     365.317E-03     101.260E+06    -61.7313E+06    -113.666E+06    -177.737E+06    -113.667E+06    -177.736E+06    -61.7313E+06    -232.258E+03
             916     23.8152E-03     3.36179E-03     23.5767E-03     347.306E-03    -173.223E-03    -174.084E-03    -173.193E-03     347.276E-03    -174.084E-03     7.44211E-03     359.553E-03     121.161E+06     -85.699E+06    -123.412E+06    -220.819E+06    -123.413E+06    -220.818E+06     -85.699E+06     101.741E+03
             917     23.7077E-03     2.52182E-03     23.5732E-03     347.764E-03    -173.642E-03    -174.122E-03    -173.684E-03     347.758E-03    -174.074E-03     2.97825E-03     354.831E-03     138.460E+06    -107.796E+06    -131.708E+06    -256.486E+06    -131.709E+06    -256.485E+06    -107.796E+06     48.9656E+03
             918     23.6373E-03     1.68116E-03     23.5774E-03     347.848E-03    -173.744E-03    -174.104E-03    -173.791E-03     347.847E-03    -174.056E-03     468.046E-06     351.201E-03     151.333E+06    -127.170E+06    -138.990E+06    -283.959E+06    -138.991E+06    -283.958E+06    -127.170E+06    -195.531E+03
             919     23.5958E-03     840.376E-06     23.5808E-03     348.060E-03    -173.278E-03    -174.782E-03    -174.034E-03     348.060E-03    -174.026E-03    -488.032E-06     349.171E-03     164.953E+06    -139.848E+06    -143.861E+06    -306.745E+06    -143.252E+06    -306.742E+06    -140.459E+06    -354.443E+03
             920     27.5055E-03     14.2865E-03     23.5042E-03     366.531E-03    -174.941E-03    -191.590E-03    -178.769E-03     353.710E-03    -174.941E-03     162.140E-03     461.557E-03     117.015E+06     122.868E+06     86.1505E+06    -7.92046E+06    -7.91590E+06     86.1460E+06     122.868E+06     358.287E+03
             921     26.8310E-03     13.4471E-03     23.2180E-03     366.945E-03    -174.790E-03    -192.155E-03    -179.251E-03     354.041E-03    -174.790E-03     162.983E-03     469.583E-03     103.232E+06     97.3242E+06     74.4967E+06    -15.3718E+06    -15.3675E+06     74.4924E+06     97.3242E+06     223.597E+03
             922     26.2787E-03     12.6072E-03     23.0571E-03     358.832E-03    -174.609E-03    -184.223E-03    -176.727E-03     351.336E-03    -174.609E-03     126.508E-03     442.900E-03     91.9736E+06     78.3234E+06     57.8277E+06    -22.1198E+06    -22.1080E+06     57.8159E+06     78.3234E+06    -419.614E+03
             923     25.7259E-03     11.7687E-03     22.8761E-03     357.503E-03    -174.428E-03    -183.075E-03    -176.372E-03     350.801E-03    -174.428E-03     118.734E-03     437.659E-03     87.8614E+06     69.0914E+06     43.4656E+06    -28.6947E+06    -28.6826E+06     43.4536E+06     69.0914E+06    -745.902E+03
             924     25.2244E-03     10.9301E-03     22.7333E-03     354.317E-03    -174.213E-03    -180.103E-03    -175.346E-03     349.559E-03    -174.213E-03     100.329E-03     426.316E-03     87.1347E+06     61.4461E+06     36.1625E+06    -35.4919E+06    -35.4891E+06     36.1598E+06     61.4461E+06    -202.812E+03
             925     24.7538E-03     10.0901E-03     22.6040E-03     352.218E-03    -173.987E-03    -178.231E-03    -174.317E-03     348.305E-03    -173.987E-03     90.5297E-03     420.140E-03     86.7317E+06     52.0240E+06     32.0850E+06    -42.9143E+06    -42.9081E+06     32.0788E+06     52.0240E+06    -144.154E+03
             926     24.3181E-03     9.25170E-03     22.4894E-03     350.006E-03    -173.800E-03    -176.206E-03    -173.298E-03     347.098E-03    -173.800E-03     77.7633E-03     412.620E-03     87.1834E+06     43.5422E+06     26.3284E+06    -50.9630E+06    -50.9505E+06     26.3158E+06     43.5422E+06    -322.321E+03
             927     23.9224E-03     8.41151E-03     22.3948E-03     348.314E-03    -173.655E-03    -174.660E-03    -172.569E-03     346.223E-03    -173.655E-03     65.7467E-03     405.316E-03     88.4703E+06     35.2395E+06     18.2559E+06    -60.4912E+06    -60.4749E+06     18.2396E+06     35.2395E+06    -676.546E+03
             928     23.5661E-03     7.57042E-03     22.3171E-03     346.881E-03    -173.123E-03    -173.758E-03    -171.936E-03     345.493E-03    -173.556E-03     53.2431E-03     396.847E-03     86.8416E+06     24.8039E+06     2.23673E+06    -70.9194E+06    -70.8849E+06     2.20213E+06     24.8039E+06    -1.27812E+06
             929     23.2519E-03     6.72957E-03     22.2568E-03     346.117E-03    -172.615E-03    -173.502E-03    -171.800E-03     345.302E-03    -173.502E-03     40.6574E-03     388.262E-03     80.1092E+06     7.89881E+06    -38.0026E+06    -81.4202E+06    -81.3888E+06    -38.0340E+06     7.89881E+06    -1.07347E+06
             930     22.9803E-03     5.88803E-03     22.2132E-03     345.791E-03    -172.327E-03    -173.463E-03    -171.899E-03     345.363E-03    -173.463E-03     29.1888E-03     379.663E-03     78.4492E+06    -14.3232E+06    -82.0966E+06    -100.201E+06    -92.0766E+06    -90.2207E+06    -14.3232E+06    -521.621E+03
             931     22.7523E-03     5.04679E-03     22.1855E-03     345.520E-03    -172.072E-03    -173.449E-03    -171.884E-03     345.332E-03    -173.449E-03     19.1285E-03     371.278E-03      87.131E+06    -37.1259E+06    -102.420E+06    -134.821E+06    -102.448E+06    -134.793E+06    -37.1259E+06    -495.273E+03
             932     22.5658E-03     4.20492E-03     22.1706E-03     345.873E-03    -172.426E-03    -173.448E-03    -172.358E-03     345.806E-03    -173.448E-03     11.2381E-03     364.205E-03     101.923E+06    -60.9437E+06    -112.973E+06    -177.713E+06    -112.976E+06    -177.711E+06    -60.9437E+06    -250.824E+03
             933     22.4140E-03     3.36412E-03     22.1601E-03     346.145E-03    -172.707E-03    -173.438E-03    -172.689E-03     346.127E-03    -173.438E-03     5.19364E-03     358.083E-03     121.499E+06    -84.8631E+06    -123.440E+06    -220.606E+06    -123.441E+06    -220.605E+06    -84.8631E+06     63.0292E+03
             934     22.3034E-03     2.52258E-03     22.1603E-03     346.111E-03    -172.622E-03    -173.489E-03    -172.619E-03     346.108E-03    -173.489E-03     1.12362E-03     353.000E-03     138.089E+06    -108.454E+06    -132.867E+06    -256.914E+06    -132.867E+06    -256.913E+06    -108.454E+06     49.7824E+03
             935     22.2258E-03     1.68078E-03     22.1621E-03     346.640E-03    -172.991E-03    -173.649E-03    -172.990E-03     346.639E-03    -173.649E-03    -542.817E-06     349.912E-03     150.409E+06    -128.074E+06    -139.872E+06    -283.942E+06    -139.872E+06    -283.942E+06    -128.074E+06    -260.077E+03
             936     22.1817E-03     840.355E-06     22.1658E-03     347.446E-03    -173.034E-03    -174.412E-03    -174.215E-03     347.445E-03    -173.230E-03    -709.783E-06     348.515E-03     163.879E+06    -140.846E+06    -145.781E+06    -307.119E+06    -145.171E+06    -307.118E+06    -141.458E+06    -250.222E+03
             937     26.3048E-03     14.2884E-03     22.0859E-03     368.136E-03    -174.871E-03    -193.265E-03    -180.693E-03     355.564E-03    -174.871E-03     161.438E-03     462.309E-03     117.805E+06     123.832E+06     86.2149E+06    -8.02396E+06    -8.02068E+06     86.2116E+06     123.832E+06     298.059E+03
             938     25.6116E-03     13.4489E-03     21.7964E-03     367.806E-03    -174.598E-03    -193.208E-03    -180.836E-03     355.434E-03    -174.598E-03     159.567E-03     468.612E-03     104.255E+06     98.6502E+06     75.2397E+06    -15.2620E+06    -15.2602E+06     75.2380E+06     98.6502E+06     81.0280E+03
             939     25.0445E-03     12.6112E-03     21.6376E-03     359.604E-03    -174.277E-03    -185.327E-03    -178.368E-03     352.645E-03    -174.277E-03     122.154E-03     441.583E-03     92.5213E+06     78.9562E+06     58.8543E+06    -21.9204E+06    -21.9151E+06      58.849E+06     78.9562E+06    -295.876E+03
             940     24.4716E-03     11.7740E-03     21.4531E-03     357.732E-03    -173.949E-03    -183.783E-03    -177.653E-03     351.602E-03    -173.949E-03     113.544E-03     435.374E-03     87.7839E+06     68.6757E+06     43.3165E+06    -28.9471E+06    -28.9267E+06     43.2961E+06     68.6757E+06    -944.997E+03
             941     23.9578E-03     10.9359E-03     21.3163E-03     353.598E-03    -173.621E-03    -179.978E-03    -175.710E-03     349.330E-03    -173.621E-03     94.9741E-03     423.129E-03     87.0085E+06     60.8485E+06     35.3877E+06    -36.0096E+06    -35.9892E+06     35.3673E+06     60.8485E+06    -951.045E+03
             942     23.4679E-03     10.0981E-03     21.1842E-03     351.239E-03    -173.314E-03    -177.924E-03    -174.435E-03     347.749E-03    -173.314E-03     85.3803E-03     416.492E-03     86.6998E+06     51.8006E+06     31.7769E+06    -43.1295E+06    -43.1187E+06     31.7662E+06     51.8006E+06    -727.547E+03
             943     23.0184E-03     9.25772E-03     21.0747E-03     348.912E-03    -173.050E-03    -175.862E-03    -173.305E-03     346.355E-03    -173.050E-03     72.7931E-03     408.838E-03     86.8979E+06     42.9525E+06     25.9284E+06    -51.1960E+06    -51.1877E+06     25.9201E+06     42.9525E+06    -542.537E+03
             944     22.6046E-03     8.41662E-03     20.9793E-03     346.991E-03    -172.836E-03    -174.155E-03    -172.379E-03     345.215E-03    -172.836E-03     60.2281E-03     401.499E-03     88.2343E+06     35.5791E+06     18.7418E+06    -59.8602E+06    -59.8568E+06     18.7383E+06     35.5791E+06    -212.873E+03
             945     22.2333E-03     7.57647E-03     20.9026E-03     345.506E-03    -172.519E-03    -172.988E-03    -171.726E-03     344.389E-03    -172.663E-03     47.5524E-03     393.339E-03     86.5584E+06     25.6064E+06     3.45577E+06    -69.7206E+06    -69.6974E+06     3.43262E+06     25.6064E+06    -609.508E+03
             946     21.9048E-03     6.73493E-03     20.8437E-03     344.504E-03    -171.950E-03    -172.554E-03    -171.329E-03     343.865E-03    -172.536E-03     35.6014E-03     384.810E-03     79.9494E+06     7.85260E+06    -38.2951E+06    -80.9509E+06    -80.8598E+06    -38.3862E+06     7.85260E+06    -1.17677E+06
             947     21.6188E-03     5.89364E-03     20.8000E-03     343.891E-03    -171.445E-03    -172.446E-03    -171.146E-03     343.592E-03    -172.446E-03     23.9833E-03     376.319E-03     77.8189E+06    -14.6475E+06    -82.9872E+06    -99.2995E+06    -92.0928E+06    -90.1939E+06    -14.6475E+06    -1.09248E+06
             948     21.3797E-03     5.05111E-03     20.7744E-03     343.961E-03    -171.606E-03    -172.356E-03    -171.492E-03     343.847E-03    -172.356E-03     14.5537E-03     368.653E-03     87.0640E+06    -37.6288E+06    -102.943E+06    -135.025E+06    -102.989E+06    -134.979E+06    -37.6288E+06    -971.375E+03
             949     21.1783E-03     4.21034E-03     20.7556E-03     344.000E-03    -171.754E-03    -172.246E-03    -171.720E-03     343.965E-03    -172.246E-03     7.36914E-03     361.558E-03     102.422E+06    -61.0003E+06    -113.547E+06    -178.447E+06    -113.567E+06    -178.426E+06    -61.0003E+06    -242.941E+03
             950     21.0215E-03     3.36855E-03     20.7499E-03     343.595E-03    -171.405E-03    -172.190E-03    -171.400E-03     343.590E-03    -172.190E-03     2.00535E-03     355.086E-03     121.811E+06    -84.3737E+06    -123.740E+06    -220.619E+06    -123.744E+06    -220.615E+06    -84.3737E+06     241.596E+03
             951     20.9013E-03     2.52586E-03     20.7481E-03     343.723E-03    -171.495E-03    -172.229E-03    -171.493E-03     343.722E-03    -172.229E-03    -1.08209E-03     350.392E-03     138.628E+06    -107.209E+06    -132.754E+06    -256.647E+06    -132.754E+06    -256.647E+06    -107.209E+06    -115.101E+03
             952     20.8193E-03     1.68387E-03     20.7510E-03     344.266E-03    -171.894E-03    -172.371E-03    -171.997E-03     344.263E-03    -172.266E-03    -2.33354E-03     347.412E-03     150.059E+06    -128.130E+06    -140.264E+06    -283.767E+06    -140.269E+06    -283.762E+06    -128.130E+06     306.765E+03
             953     20.7681E-03     841.436E-06     20.7510E-03     344.489E-03    -171.913E-03    -172.576E-03    -172.451E-03     344.485E-03    -172.034E-03    -2.32779E-03     345.503E-03     163.720E+06    -141.524E+06    -146.523E+06    -307.679E+06    -145.436E+06    -307.674E+06    -142.616E+06     293.058E+03
             954     25.1202E-03     14.2900E-03     20.6596E-03     370.851E-03    -174.679E-03    -196.172E-03    -184.022E-03     358.701E-03    -174.679E-03     160.663E-03     463.547E-03     118.406E+06     124.648E+06     86.5075E+06    -7.96558E+06    -7.96513E+06     86.5071E+06     124.648E+06    -12.0258E+03
             955     24.4185E-03     13.4557E-03     20.3767E-03     369.755E-03    -174.174E-03    -195.581E-03    -184.074E-03     358.248E-03    -174.174E-03     154.623E-03     467.468E-03     104.847E+06     99.2303E+06     75.1285E+06    -15.5163E+06    -15.5110E+06     75.1232E+06     99.2303E+06    -343.504E+03
             956     23.8287E-03     12.6193E-03     20.2129E-03     360.364E-03    -173.629E-03    -186.736E-03    -180.465E-03     354.094E-03    -173.629E-03     116.302E-03     439.133E-03     93.2555E+06     79.9529E+06     59.1237E+06    -21.9149E+06    -21.9100E+06     59.1188E+06     79.9529E+06    -277.455E+03
             957     23.2422E-03     11.7841E-03     20.0333E-03     357.064E-03    -173.125E-03    -183.939E-03    -178.579E-03     351.704E-03    -173.125E-03     106.170E-03     430.692E-03     88.3309E+06     69.3798E+06     44.1420E+06    -28.7926E+06    -28.7788E+06     44.1283E+06     69.3798E+06    -322.404E+03
             958     22.7098E-03     10.9469E-03     19.8973E-03     352.835E-03    -172.646E-03    -180.189E-03    -176.508E-03     349.154E-03    -172.646E-03     88.1566E-03     418.370E-03     86.9460E+06     60.5375E+06     35.6141E+06    -36.1195E+06    -36.0949E+06     35.5895E+06     60.5375E+06    -996.047E+03
             959     22.2029E-03     10.1073E-03     19.7689E-03     350.344E-03    -172.171E-03    -178.173E-03    -175.317E-03     347.488E-03    -172.171E-03     76.8238E-03     411.549E-03     86.3570E+06     50.9342E+06     31.1599E+06    -43.5654E+06    -43.5428E+06     31.1373E+06     50.9342E+06    -1.24474E+06
             960     21.7347E-03     9.26831E-03     19.6595E-03     347.342E-03    -171.728E-03    -175.615E-03    -173.683E-03     345.411E-03    -171.728E-03     62.8741E-03     403.480E-03     86.7371E+06     42.6641E+06     25.7080E+06    -51.2981E+06    -51.2772E+06     25.6870E+06     42.6641E+06    -1.19007E+06
             961     21.3043E-03     8.42984E-03     19.5655E-03     345.000E-03    -171.345E-03    -173.655E-03    -172.388E-03     343.733E-03    -171.345E-03     50.5062E-03     395.999E-03     88.3494E+06     35.5517E+06     18.4871E+06    -60.0848E+06    -60.0714E+06     18.4737E+06     35.5517E+06    -952.498E+03
             962     20.9170E-03     7.58792E-03     19.4921E-03     343.192E-03    -171.006E-03    -172.186E-03    -171.460E-03     342.466E-03    -171.006E-03     37.7896E-03     387.975E-03     87.0576E+06     26.0306E+06     4.11291E+06    -69.7700E+06    -69.7574E+06     4.10025E+06     26.0306E+06    -634.019E+03
             963     20.5694E-03     6.74666E-03     19.4315E-03     341.620E-03    -170.528E-03    -171.091E-03    -170.538E-03     341.263E-03    -170.726E-03     25.5746E-03     379.368E-03     80.2367E+06     8.62286E+06    -36.7943E+06    -80.4802E+06    -80.4081E+06    -36.8663E+06     8.62286E+06    -814.615E+03
             964     20.2713E-03     5.90368E-03     19.3926E-03     340.681E-03    -170.144E-03    -170.536E-03    -170.040E-03     340.545E-03    -170.506E-03     15.2078E-03     370.954E-03     78.0617E+06    -14.2688E+06    -82.2718E+06    -99.4574E+06    -91.7583E+06    -89.9709E+06    -14.2688E+06    -1.13780E+06
             965     20.0134E-03     5.06178E-03     19.3627E-03     340.273E-03    -169.938E-03    -170.335E-03    -169.917E-03     340.231E-03    -170.314E-03     7.32995E-03     363.318E-03     87.3022E+06    -37.8226E+06    -102.991E+06    -135.641E+06    -103.081E+06    -135.551E+06    -37.8226E+06    -600.563E+03
             966     19.8030E-03     4.21852E-03     19.3485E-03     339.743E-03    -169.569E-03    -170.174E-03    -169.560E-03     339.733E-03    -170.174E-03     1.35630E-03     356.207E-03     101.940E+06    -62.0929E+06    -114.070E+06    -178.947E+06    -114.122E+06    -178.895E+06    -62.0929E+06    -364.769E+03
             967     19.6338E-03     3.37436E-03     19.3416E-03     339.634E-03    -169.522E-03    -170.112E-03    -169.515E-03     339.626E-03    -170.110E-03    -2.42101E-03     350.414E-03     121.570E+06    -84.9103E+06    -123.678E+06    -220.766E+06    -123.701E+06    -220.743E+06    -84.9103E+06    -516.386E+03
             968     19.5067E-03     2.53079E-03     19.3419E-03     339.876E-03    -169.820E-03    -170.056E-03    -169.810E-03     339.864E-03    -170.054E-03    -4.11997E-03     346.116E-03     139.073E+06    -106.443E+06    -132.189E+06    -256.426E+06    -132.192E+06    -256.423E+06    -106.443E+06     144.011E+03
             969     19.4147E-03     1.68744E-03     19.3413E-03     339.873E-03    -169.803E-03    -170.070E-03    -169.900E-03     339.864E-03    -169.964E-03    -4.01933E-03     342.803E-03     150.472E+06    -126.718E+06    -139.978E+06    -283.277E+06    -139.986E+06    -283.270E+06    -126.718E+06     692.777E+03
             970     19.3642E-03     844.847E-06     19.3458E-03     339.781E-03    -169.725E-03    -170.056E-03    -169.928E-03     339.775E-03    -169.847E-03    -2.71664E-03     340.731E-03     163.997E+06    -140.286E+06    -145.487E+06    -306.806E+06    -144.404E+06    -306.797E+06    -141.378E+06     834.959E+03
             971     23.9582E-03     14.2946E-03     19.2265E-03     374.668E-03    -174.340E-03    -200.328E-03    -188.803E-03     363.144E-03    -174.340E-03     158.701E-03     465.654E-03     118.756E+06     125.156E+06     86.8976E+06    -7.85374E+06     -7.8535E+06     86.8973E+06     125.156E+06     36.7208E+03
             972     23.2470E-03     13.4642E-03     18.9509E-03     371.961E-03    -173.530E-03    -198.431E-03    -187.901E-03     361.431E-03    -173.530E-03     149.073E-03     466.308E-03     105.159E+06     100.325E+06     75.5080E+06    -14.9877E+06    -14.9799E+06     75.5003E+06     100.325E+06    -546.588E+03
             973     22.6391E-03     12.6330E-03     18.7867E-03     361.839E-03    -172.693E-03    -189.147E-03    -183.528E-03     356.221E-03    -172.693E-03     110.643E-03     437.013E-03     93.4749E+06     80.5294E+06     58.6550E+06    -21.9080E+06    -21.8984E+06     58.6454E+06     80.5294E+06    -752.444E+03
             974     22.0392E-03     11.7982E-03     18.6153E-03     357.533E-03    -171.903E-03    -185.631E-03    -181.107E-03     353.010E-03    -171.903E-03     97.6083E-03     426.749E-03     88.5299E+06     69.9697E+06     44.8989E+06    -28.3769E+06    -28.3698E+06     44.8918E+06     69.9697E+06    -356.836E+03
             975     21.4855E-03     10.9611E-03     18.4792E-03     352.922E-03    -171.114E-03    -181.808E-03    -178.932E-03     350.046E-03    -171.114E-03     77.7353E-03     413.950E-03     87.0390E+06     61.4377E+06     36.9771E+06    -35.1967E+06    -35.1765E+06     36.9570E+06     61.4377E+06    -902.356E+03
             976     20.9606E-03     10.1271E-03     18.3518E-03     349.517E-03    -170.303E-03    -179.214E-03    -177.205E-03     347.507E-03    -170.303E-03     64.2579E-03     406.043E-03     86.2694E+06     51.4983E+06     31.1922E+06    -43.0894E+06    -43.0638E+06     31.1666E+06     51.4983E+06    -1.26404E+06
             977     20.4763E-03     9.29039E-03     18.2474E-03     345.638E-03    -169.517E-03    -176.121E-03    -174.901E-03     344.418E-03    -169.517E-03     49.5470E-03     397.373E-03     86.7617E+06     42.9612E+06     25.5553E+06    -51.1798E+06    -51.1585E+06     25.5340E+06     42.9612E+06    -1.16564E+06
             978     20.0263E-03     8.44858E-03     18.1570E-03     342.228E-03    -168.803E-03    -173.425E-03    -172.724E-03     341.527E-03    -168.803E-03     36.4535E-03     389.021E-03     88.3279E+06     35.3144E+06     18.3321E+06    -60.2714E+06    -60.2461E+06     18.3068E+06     35.3144E+06    -1.36953E+06
             979     19.6178E-03     7.60943E-03     18.0819E-03     339.223E-03    -168.176E-03    -171.047E-03    -170.720E-03     338.896E-03    -168.176E-03     23.7728E-03     380.214E-03     87.2687E+06     25.4218E+06     3.97665E+06    -70.4683E+06    -70.4438E+06     3.95214E+06     25.4218E+06    -1.29508E+06
             980     19.2563E-03     6.76715E-03     18.0281E-03     336.847E-03    -167.659E-03    -169.187E-03    -169.074E-03     336.733E-03    -167.659E-03     12.6415E-03     371.302E-03     80.0617E+06     8.34254E+06    -34.9648E+06    -80.9844E+06    -80.9448E+06    -35.0044E+06     8.34254E+06    -1.02010E+06
             981     18.9380E-03     5.92363E-03     17.9878E-03     335.078E-03    -167.260E-03    -167.818E-03    -167.786E-03     335.046E-03    -167.260E-03     3.90451E-03     362.605E-03     78.4262E+06    -14.2997E+06    -80.5253E+06    -100.798E+06    -91.8224E+06    -89.5006E+06    -14.2997E+06    -897.845E+03
             982     18.6654E-03     5.07817E-03     17.9614E-03     333.680E-03    -166.645E-03    -167.035E-03    -166.669E-03     333.657E-03    -166.988E-03    -2.57580E-03     354.581E-03     87.2988E+06    -37.9631E+06    -103.122E+06    -136.077E+06    -103.200E+06    -136.000E+06    -37.9631E+06    -280.965E+03
             983     18.4399E-03     4.23170E-03     17.9478E-03     333.095E-03    -166.255E-03    -166.840E-03    -166.218E-03     333.058E-03    -166.840E-03    -6.95154E-03     348.001E-03     100.495E+06    -62.3588E+06    -113.835E+06    -177.474E+06    -113.879E+06    -177.429E+06    -62.3588E+06    -142.125E+03
             984     18.2581E-03     3.38563E-03     17.9414E-03     333.157E-03    -166.401E-03    -166.756E-03    -166.356E-03     333.110E-03    -166.755E-03    -8.87841E-03     342.912E-03     120.377E+06    -86.2342E+06    -123.960E+06    -220.589E+06    -123.984E+06    -220.564E+06    -86.2342E+06    -487.755E+03
             985     18.1191E-03     2.53976E-03     17.9402E-03     333.135E-03    -166.448E-03    -166.687E-03    -166.409E-03     333.094E-03    -166.685E-03    -8.69771E-03     338.758E-03     138.131E+06    -108.561E+06    -133.015E+06    -257.104E+06    -133.019E+06    -257.100E+06    -108.561E+06    -23.9156E+03
             986     18.0226E-03     1.69309E-03     17.9429E-03     333.032E-03    -166.342E-03    -166.690E-03    -166.316E-03     333.005E-03    -166.690E-03    -6.90526E-03     335.679E-03     149.792E+06    -127.880E+06    -139.322E+06    -282.946E+06    -139.325E+06    -282.943E+06    -127.880E+06     19.9569E+03
             987     17.9649E-03     844.880E-06     17.9450E-03     333.427E-03    -166.436E-03    -166.991E-03    -166.755E-03     333.414E-03    -166.659E-03    -4.07869E-03     334.290E-03     163.438E+06    -139.821E+06    -143.083E+06    -304.851E+06    -142.910E+06    -304.842E+06    -140.003E+06    -119.276E+03
             988     22.8280E-03     14.3036E-03     17.7911E-03     379.922E-03    -173.954E-03    -205.968E-03    -194.698E-03     368.653E-03    -173.954E-03     159.135E-03     469.516E-03     119.533E+06     126.355E+06     87.4168E+06    -7.64574E+06    -7.64432E+06     87.4154E+06     126.355E+06    -152.306E+03
             989     22.1033E-03     13.4758E-03     17.5203E-03     375.605E-03    -172.779E-03    -202.826E-03    -192.940E-03     365.719E-03    -172.779E-03     145.487E-03     467.412E-03     105.980E+06     101.624E+06     76.2694E+06    -14.6872E+06    -14.6837E+06     76.2659E+06     101.624E+06    -116.965E+03
             990     21.4756E-03     12.6456E-03     17.3577E-03     365.275E-03    -171.532E-03    -193.743E-03    -188.812E-03     360.344E-03    -171.532E-03     104.400E-03     437.762E-03     93.6368E+06     80.8204E+06     59.0299E+06    -21.7559E+06    -21.7386E+06     59.0127E+06     80.8204E+06    -787.011E+03
             991     20.8622E-03     11.8172E-03     17.1926E-03     360.612E-03    -170.247E-03    -190.365E-03    -186.722E-03     356.968E-03    -170.247E-03     88.0334E-03     426.549E-03     88.7002E+06     69.7025E+06     45.1809E+06    -28.6725E+06    -28.6422E+06     45.1505E+06     69.7025E+06    -1.41881E+06
             992     20.2914E-03     10.9889E-03     17.0582E-03     354.437E-03    -168.918E-03    -185.519E-03    -183.451E-03     352.369E-03    -168.918E-03     66.1457E-03     411.903E-03     88.0482E+06     61.8806E+06     37.5572E+06    -35.7666E+06    -35.7379E+06     37.5285E+06     61.8806E+06    -1.39387E+06
             993     19.7488E-03     10.1543E-03     16.9383E-03     348.924E-03    -167.587E-03    -181.337E-03    -180.064E-03     347.651E-03    -167.587E-03     50.7870E-03     401.331E-03     86.8806E+06     51.7401E+06     31.3740E+06    -43.4815E+06    -43.4517E+06     31.3443E+06     51.7401E+06    -1.30381E+06
             994     19.2421E-03     9.31811E-03     16.8354E-03     343.989E-03    -166.291E-03    -177.699E-03    -177.054E-03     343.344E-03    -166.291E-03     35.0374E-03     391.501E-03     86.7222E+06     42.3436E+06     25.3731E+06    -51.6038E+06    -51.5722E+06     25.3415E+06     42.3436E+06    -1.37985E+06
             995     18.7770E-03     8.48431E-03     16.7509E-03     338.856E-03    -165.079E-03    -173.777E-03    -173.520E-03     338.598E-03    -165.079E-03     21.1156E-03     381.455E-03     88.1269E+06     35.0066E+06     18.4372E+06    -60.2287E+06    -60.2031E+06     18.4116E+06     35.0066E+06    -1.08431E+06
             996     18.3491E-03     7.64174E-03     16.6821E-03     333.742E-03    -164.033E-03    -169.709E-03    -169.632E-03     333.665E-03    -164.033E-03     8.85943E-03     370.689E-03     87.2075E+06     24.8695E+06     4.50983E+06    -70.6392E+06    -70.6222E+06     4.49284E+06     24.8695E+06    -804.172E+03
             997     17.9661E-03     6.79736E-03     16.6306E-03     329.994E-03    -163.191E-03    -166.803E-03    -166.764E-03     329.955E-03    -163.191E-03    -1.42461E-03     360.772E-03     79.7985E+06     7.20248E+06    -33.4110E+06    -82.0654E+06    -82.0300E+06    -33.4465E+06     7.20248E+06    -925.541E+03
             998     17.6286E-03     5.95142E-03     16.5936E-03     327.120E-03    -162.545E-03    -164.574E-03    -164.496E-03     327.042E-03    -162.545E-03    -9.30564E-03     351.550E-03     78.0451E+06    -15.5380E+06    -80.2800E+06    -101.922E+06    -93.4006E+06    -88.8013E+06    -15.5380E+06    -522.204E+03
             999     17.3400E-03     5.10276E-03     16.5722E-03     324.900E-03    -161.947E-03    -162.953E-03    -162.675E-03     324.764E-03    -162.089E-03    -14.6874E-03     343.256E-03     85.7127E+06    -39.5050E+06    -104.506E+06    -135.569E+06    -104.521E+06    -135.554E+06    -39.5050E+06    -20.0690E+03
            1000     17.0947E-03     4.25297E-03     16.5572E-03     323.613E-03    -161.539E-03    -162.075E-03    -161.624E-03     323.441E-03    -161.817E-03    -17.2859E-03     336.559E-03     97.9411E+06    -64.1678E+06    -115.157E+06    -176.377E+06    -115.176E+06    -176.358E+06    -64.1678E+06     459.584E+03
            1001     16.8990E-03     3.40262E-03     16.5529E-03     323.056E-03    -161.354E-03    -161.702E-03    -161.192E-03     322.894E-03    -161.702E-03    -16.9938E-03     331.487E-03     117.305E+06    -88.0191E+06    -124.915E+06    -218.921E+06    -124.922E+06    -218.914E+06    -88.0191E+06     436.242E+03
            1002     16.7468E-03     2.55122E-03     16.5513E-03     323.028E-03    -161.348E-03    -161.680E-03    -161.224E-03     322.904E-03    -161.680E-03    -14.8598E-03     327.890E-03     136.067E+06    -110.693E+06    -133.669E+06    -256.600E+06    -133.676E+06    -256.593E+06    -110.693E+06    -545.651E+03
            1003     16.6418E-03     1.70045E-03     16.5547E-03     323.247E-03    -161.453E-03    -161.794E-03    -161.499E-03     323.173E-03    -161.674E-03    -11.4026E-03     325.556E-03     148.677E+06    -129.349E+06    -140.174E+06    -283.053E+06    -140.179E+06    -283.047E+06    -129.349E+06    -621.895E+03
            1004     16.5774E-03     851.404E-06     16.5555E-03     323.316E-03    -161.160E-03    -162.156E-03    -162.028E-03     323.289E-03    -161.261E-03    -6.71440E-03     324.058E-03     161.997E+06    -141.617E+06    -144.486E+06    -305.009E+06    -144.309E+06    -305.004E+06    -141.799E+06    -633.910E+03
            1005     21.7184E-03     14.3041E-03     16.3427E-03     385.374E-03    -173.627E-03    -211.748E-03    -200.733E-03     374.360E-03    -173.627E-03     159.489E-03     474.191E-03     120.270E+06     127.089E+06     87.4366E+06    -7.86008E+06    -7.85565E+06     87.4322E+06     127.089E+06    -474.342E+03
            1006     20.9867E-03     13.4846E-03     16.0812E-03     381.444E-03    -172.009E-03    -209.435E-03    -200.243E-03     372.252E-03    -172.009E-03     141.638E-03     472.434E-03     106.747E+06     101.858E+06     76.2811E+06    -15.2930E+06    -15.2878E+06     76.2758E+06     101.858E+06    -285.192E+03
            1007     20.3442E-03     12.6643E-03     15.9217E-03     371.192E-03    -170.194E-03    -200.998E-03    -196.681E-03     366.875E-03    -170.194E-03     98.9092E-03     442.555E-03     94.9772E+06     81.1902E+06     60.3800E+06    -22.4450E+06    -22.4286E+06     60.3636E+06     81.1902E+06    -757.853E+03
            1008     19.7142E-03     11.8428E-03     15.7606E-03     365.118E-03    -168.270E-03    -196.847E-03    -193.859E-03     362.130E-03    -168.270E-03     80.5210E-03     429.363E-03     90.1888E+06     70.4184E+06     46.5826E+06    -29.2693E+06    -29.2338E+06     46.5471E+06     70.4184E+06    -1.56962E+06
            1009     19.1260E-03     11.0171E-03     15.6342E-03     357.607E-03    -166.262E-03    -191.345E-03    -189.811E-03     356.073E-03    -166.262E-03     57.1496E-03     413.021E-03     88.8491E+06     62.0229E+06     37.4207E+06    -36.5304E+06    -36.4876E+06     37.3779E+06     62.0229E+06    -1.69947E+06
            1010     18.5696E-03     10.1908E-03     15.5234E-03     350.141E-03    -164.224E-03    -185.917E-03    -185.149E-03     349.372E-03    -164.224E-03     39.4142E-03     399.756E-03     87.5052E+06     51.8275E+06     31.5101E+06    -44.0083E+06    -43.9677E+06     31.4695E+06     51.8275E+06    -1.59168E+06
            1011     18.0442E-03     9.36060E-03     15.4263E-03     342.313E-03    -162.257E-03    -180.056E-03    -179.768E-03     342.026E-03    -162.257E-03     22.9463E-03     386.573E-03     86.9586E+06     41.7216E+06     25.3135E+06    -52.2680E+06    -52.2345E+06       25.28E+06     41.7216E+06    -1.50044E+06
            1012     17.5563E-03     8.52182E-03     15.3493E-03     335.187E-03    -160.440E-03    -174.747E-03    -174.670E-03     335.110E-03    -160.440E-03     8.20941E-03     374.408E-03     87.7255E+06     32.9083E+06     16.9819E+06    -61.6883E+06    -61.6732E+06     16.9667E+06     32.9083E+06    -721.236E+03
            1013     17.1122E-03     7.68288E-03     15.2905E-03     328.560E-03    -158.808E-03    -169.753E-03    -169.699E-03     328.506E-03    -158.808E-03    -4.74393E-03     362.112E-03     87.5694E+06     23.3910E+06     5.30768E+06    -71.7739E+06    -71.7650E+06     5.29881E+06     23.3910E+06     50.1862E+03
            1014     16.7074E-03     6.83814E-03     15.2439E-03     322.495E-03    -157.425E-03    -165.071E-03    -164.903E-03     322.328E-03    -157.425E-03    -15.7483E-03     349.988E-03     80.0690E+06     6.20569E+06    -31.0841E+06    -82.9648E+06    -82.9457E+06    -31.1033E+06     6.20569E+06     272.720E+03
            1015     16.3504E-03     5.98844E-03     15.2142E-03     317.781E-03    -156.324E-03    -161.457E-03    -161.128E-03     317.452E-03    -156.324E-03    -23.7715E-03     339.187E-03     76.0696E+06    -17.1422E+06    -80.0802E+06    -101.137E+06    -94.4202E+06    -86.7974E+06    -17.1422E+06     332.513E+03
            1016     16.0386E-03     5.13705E-03     15.1937E-03     314.176E-03    -155.481E-03    -158.694E-03    -158.242E-03     313.724E-03    -155.481E-03    -28.2127E-03     329.994E-03     83.9583E+06    -40.8221E+06    -105.442E+06    -134.452E+06    -105.462E+06    -134.433E+06    -40.8221E+06     411.417E+03
            1017     15.7776E-03     4.28294E-03     15.1851E-03     311.265E-03    -154.823E-03    -156.443E-03    -155.875E-03     310.784E-03    -154.909E-03    -29.1744E-03     322.259E-03     95.9286E+06    -65.5147E+06    -116.092E+06    -175.459E+06    -116.107E+06    -175.443E+06    -65.5147E+06     805.502E+03
            1018     15.5616E-03     3.42614E-03     15.1798E-03     309.554E-03    -154.433E-03    -155.121E-03    -154.523E-03     309.142E-03    -154.619E-03    -26.9607E-03     316.602E-03     113.123E+06    -89.6122E+06    -126.125E+06    -216.097E+06    -126.134E+06    -216.088E+06    -89.6122E+06     646.788E+03
            1019     15.3963E-03     2.56996E-03     15.1803E-03     309.078E-03    -154.395E-03    -154.683E-03    -154.280E-03     308.788E-03    -154.509E-03    -22.5490E-03     313.114E-03     134.009E+06    -111.273E+06    -135.036E+06    -255.382E+06    -135.043E+06    -255.375E+06    -111.273E+06    -10.6831E+03
            1020     15.2772E-03     1.71363E-03     15.1808E-03     308.990E-03    -154.392E-03    -154.598E-03    -154.419E-03     308.832E-03    -154.412E-03    -16.5380E-03     310.883E-03     147.297E+06    -130.570E+06    -142.569E+06    -283.410E+06    -142.580E+06    -283.399E+06    -130.570E+06    -533.591E+03
            1021     15.2086E-03     856.260E-06     15.1845E-03     308.712E-03    -153.989E-03    -154.724E-03    -154.660E-03     308.655E-03    -153.995E-03    -9.01909E-03     309.324E-03     160.301E+06    -143.897E+06    -147.456E+06    -305.925E+06    -147.082E+06    -305.919E+06    -144.276E+06    -299.095E+03
            1022     20.6521E-03     14.3114E-03     14.8894E-03     391.037E-03    -173.295E-03    -217.742E-03    -207.126E-03     380.421E-03    -173.295E-03     158.453E-03     479.665E-03     120.832E+06     127.858E+06     87.6029E+06    -7.81419E+06    -7.81082E+06     87.5995E+06     127.858E+06    -300.965E+03
            1023     19.9040E-03     13.4956E-03     14.6300E-03     387.339E-03    -171.227E-03    -216.112E-03    -207.443E-03     378.670E-03    -171.227E-03     139.072E-03     478.956E-03     107.660E+06     102.349E+06     76.8045E+06    -15.7084E+06    -15.7017E+06     76.7978E+06     102.349E+06    -593.953E+03
            1024     19.2424E-03     12.6818E-03     14.4722E-03     377.589E-03    -168.855E-03    -208.735E-03    -204.725E-03     373.580E-03    -168.855E-03     96.5395E-03     449.401E-03     96.6387E+06     82.3361E+06     62.1768E+06    -22.7803E+06    -22.7696E+06     62.1661E+06     82.3361E+06    -928.912E+03
            1025     18.6001E-03     11.8667E-03     14.3229E-03     370.656E-03    -166.279E-03    -204.378E-03    -201.695E-03     367.973E-03    -166.279E-03     77.1113E-03     435.176E-03     91.5777E+06     71.0812E+06     47.6701E+06    -29.8972E+06    -29.8716E+06     47.6445E+06     71.0812E+06    -1.35237E+06
            1026     17.9952E-03     11.0497E-03     14.2031E-03     362.012E-03    -163.549E-03    -198.463E-03    -197.189E-03     360.738E-03    -163.549E-03     52.5845E-03     417.072E-03     89.6462E+06     62.4876E+06     37.6057E+06    -36.9686E+06    -36.9302E+06     37.5673E+06     62.4876E+06    -1.57049E+06
            1027     17.4206E-03     10.2287E-03     14.1015E-03     352.807E-03    -160.738E-03    -192.069E-03    -191.510E-03     352.248E-03    -160.738E-03     33.7661E-03     401.701E-03     88.1534E+06     52.0871E+06     31.0920E+06    -44.6330E+06    -44.6068E+06     31.0658E+06     52.0871E+06    -1.22853E+06
            1028     16.8807E-03     9.40031E-03     14.0211E-03     342.869E-03    -157.967E-03    -184.902E-03    -184.745E-03     342.712E-03    -157.967E-03     15.4210E-03     385.924E-03     87.2844E+06     41.1032E+06     24.4413E+06    -53.3028E+06    -53.2894E+06     24.4280E+06     41.1032E+06    -513.410E+03
            1029     16.3741E-03     8.56862E-03     13.9532E-03     333.227E-03    -155.338E-03    -177.890E-03    -177.847E-03     333.184E-03    -155.338E-03    -2.02082E-03     370.719E-03     87.3838E+06     31.2682E+06     15.9415E+06    -62.7644E+06    -62.7551E+06     15.9321E+06     31.2682E+06     74.8770E+03
            1030     15.9071E-03     7.72917E-03     13.9031E-03     324.360E-03    -152.892E-03    -171.468E-03    -171.282E-03     324.174E-03    -152.892E-03    -17.0108E-03     356.115E-03     87.1996E+06     20.5763E+06     5.21512E+06    -73.2741E+06    -73.2634E+06     5.20447E+06     20.5763E+06     656.957E+03
            1031     15.4843E-03     6.88490E-03     13.8694E-03     315.996E-03    -150.700E-03    -165.296E-03    -164.818E-03     315.518E-03    -150.700E-03    -29.0490E-03     341.383E-03     79.8324E+06     3.74263E+06    -28.3851E+06    -84.7474E+06    -84.6927E+06    -28.4398E+06     3.74263E+06     1.43928E+06
            1032     15.1048E-03     6.03535E-03     13.8467E-03     308.311E-03    -148.850E-03    -159.461E-03    -158.688E-03     307.537E-03    -148.850E-03    -37.2552E-03     327.601E-03     74.6095E+06    -18.6417E+06    -78.8309E+06    -100.581E+06    -96.3880E+06    -83.0234E+06    -18.6417E+06     1.59449E+06
            1033     14.7722E-03     5.17991E-03     13.8343E-03     301.843E-03    -147.389E-03    -154.454E-03    -153.501E-03     300.890E-03    -147.389E-03    -41.0920E-03     315.860E-03     82.2975E+06    -41.9024E+06    -107.361E+06    -132.746E+06    -107.662E+06    -132.444E+06    -41.9024E+06     1.00240E+06
            1034     14.4891E-03     4.32051E-03     13.8300E-03     296.956E-03    -146.302E-03    -150.654E-03    -149.712E-03     296.014E-03    -146.302E-03    -40.5584E-03     306.465E-03     93.4630E+06    -66.5411E+06    -118.406E+06    -173.726E+06    -118.426E+06    -173.707E+06    -66.5411E+06     928.043E+03
            1035     14.2555E-03     3.45907E-03     13.8295E-03     293.446E-03    -145.560E-03    -147.887E-03    -147.112E-03     292.672E-03    -145.560E-03    -36.4844E-03     299.379E-03     108.821E+06    -91.4049E+06    -128.732E+06    -213.512E+06    -128.763E+06    -213.481E+06    -91.4049E+06     1.35048E+06
            1036     14.0711E-03     2.59446E-03     13.8299E-03     291.187E-03    -145.133E-03    -146.054E-03    -145.527E-03     290.660E-03    -145.133E-03    -29.7642E-03     294.479E-03     129.054E+06    -113.813E+06    -138.089E+06    -253.086E+06    -138.111E+06    -253.065E+06    -113.813E+06     1.09289E+06
            1037     13.9396E-03     1.72961E-03     13.8319E-03     290.129E-03    -144.924E-03    -145.205E-03    -144.915E-03     289.846E-03    -144.930E-03    -21.5188E-03     291.642E-03     143.600E+06    -134.145E+06    -145.497E+06    -282.945E+06    -145.505E+06    -282.938E+06    -134.145E+06    -195.789E+03
            1038     13.8622E-03     865.215E-06     13.8351E-03     289.808E-03    -144.819E-03    -144.989E-03    -144.880E-03     289.706E-03    -144.826E-03    -12.2172E-03     290.299E-03     158.314E+06    -146.804E+06    -149.807E+06    -306.590E+06    -149.437E+06    -306.580E+06    -147.184E+06    -735.773E+03
            1039     19.6297E-03     14.3153E-03     13.4311E-03     396.496E-03    -172.966E-03    -223.530E-03    -213.038E-03     386.004E-03    -172.966E-03     158.712E-03     485.378E-03     121.555E+06     129.050E+06     87.8642E+06    -7.60989E+06    -7.60779E+06     87.8621E+06     129.050E+06    -57.1759E+03
            1040     18.8617E-03     13.5053E-03     13.1671E-03     392.234E-03    -170.534E-03    -221.700E-03    -212.972E-03     383.506E-03    -170.534E-03     140.591E-03     485.421E-03     108.612E+06     104.185E+06     78.3831E+06    -14.8900E+06    -14.8854E+06     78.3785E+06     104.185E+06    -465.711E+03
            1041     18.1829E-03     12.6963E-03     13.0162E-03     382.710E-03    -167.735E-03    -214.975E-03    -210.977E-03     378.712E-03    -167.735E-03     97.3615E-03     456.337E-03     97.1624E+06     83.3274E+06     63.4621E+06    -22.2131E+06    -22.2053E+06     63.4544E+06     83.3274E+06    -724.507E+03
            1042     17.5214E-03     11.8873E-03     12.8721E-03     376.168E-03    -164.623E-03    -211.545E-03    -208.844E-03     373.467E-03    -164.623E-03     78.2428E-03     443.070E-03     91.8962E+06     71.8670E+06     48.2814E+06    -29.4916E+06    -29.4766E+06     48.2664E+06     71.8670E+06    -684.842E+03
            1043     16.8997E-03     11.0764E-03     12.7638E-03     367.016E-03    -161.243E-03    -205.773E-03    -204.492E-03     365.735E-03    -161.243E-03     53.2819E-03     424.368E-03     90.1522E+06     62.6705E+06     37.6926E+06    -37.3335E+06    -37.3195E+06     37.6786E+06     62.6705E+06    -683.068E+03
            1044     16.3091E-03     10.2592E-03     12.6781E-03     357.002E-03    -157.672E-03    -199.330E-03    -198.809E-03     356.481E-03    -157.672E-03     32.4453E-03     407.954E-03     88.2188E+06     51.2932E+06     29.9711E+06    -45.6065E+06    -45.5974E+06     29.9620E+06     51.2932E+06    -533.369E+03
            1045     15.7498E-03     9.44014E-03     12.6071E-03     346.067E-03    -154.014E-03    -192.054E-03    -191.945E-03     345.958E-03    -154.014E-03     11.8457E-03     390.805E-03     86.9361E+06     39.9348E+06     23.1189E+06    -54.1639E+06    -54.1526E+06     23.1075E+06     39.9348E+06     332.077E+03
            1046     15.2282E-03     8.61257E-03     12.5588E-03     334.331E-03    -150.386E-03    -183.945E-03    -183.880E-03     334.267E-03    -150.386E-03    -7.00544E-03     372.910E-03     86.7581E+06     29.7187E+06     15.1329E+06    -63.4061E+06    -63.3692E+06     15.0960E+06     29.7187E+06     1.43965E+06
            1047     14.7407E-03     7.77793E-03     12.5216E-03     322.389E-03    -146.912E-03    -175.477E-03    -175.132E-03     322.044E-03    -146.912E-03    -24.5048E-03     354.582E-03     86.8052E+06     18.7760E+06     4.65289E+06    -74.2234E+06    -74.1082E+06     4.53773E+06     18.7760E+06     2.47734E+06
            1048     14.2967E-03     6.93576E-03     12.5017E-03     310.750E-03    -143.713E-03    -167.038E-03    -166.244E-03     309.957E-03    -143.713E-03    -38.3032E-03     336.253E-03     80.0465E+06     2.21339E+06    -25.0521E+06    -86.4953E+06    -86.2756E+06    -25.2719E+06     2.21339E+06     3.21053E+06
            1049     13.8962E-03     6.08574E-03     12.4927E-03     299.672E-03    -140.919E-03    -158.753E-03    -157.546E-03     298.465E-03    -140.919E-03    -46.6691E-03     318.912E-03     74.0162E+06    -19.6268E+06    -76.2030E+06    -100.271E+06    -98.4860E+06    -77.9882E+06    -19.6268E+06     2.61971E+06
            1050     13.5430E-03     5.22794E-03     12.4933E-03     289.867E-03    -138.609E-03    -151.258E-03    -149.831E-03     288.440E-03    -138.609E-03    -49.9426E-03     303.573E-03     80.0545E+06    -42.8501E+06    -109.501E+06    -130.044E+06    -110.090E+06    -129.455E+06    -42.8501E+06     1.82524E+06
            1051     13.2361E-03     4.36387E-03     12.4961E-03     282.094E-03    -136.768E-03    -145.326E-03    -143.932E-03     280.700E-03    -136.768E-03    -48.5626E-03     291.214E-03     90.8651E+06    -67.4378E+06    -121.026E+06    -171.624E+06    -121.095E+06    -171.556E+06    -67.4378E+06     1.60454E+06
            1052     12.9812E-03     3.49531E-03     12.5018E-03     276.088E-03    -135.342E-03    -140.746E-03    -139.591E-03     274.933E-03    -135.342E-03    -43.5254E-03     281.646E-03     105.410E+06    -92.6016E+06    -131.136E+06    -211.319E+06    -131.181E+06    -211.274E+06    -92.6016E+06     1.85686E+06
            1053     12.7796E-03     2.62430E-03     12.5072E-03     271.434E-03    -134.320E-03    -137.114E-03    -136.319E-03     270.639E-03    -134.320E-03    -35.5851E-03     274.413E-03     122.638E+06    -116.795E+06    -140.192E+06    -249.192E+06    -140.227E+06    -249.157E+06    -116.795E+06     1.71325E+06
            1054     12.6328E-03     1.75003E-03     12.5110E-03     268.419E-03    -133.734E-03    -134.685E-03    -134.254E-03     267.989E-03    -133.734E-03    -25.6506E-03     269.751E-03     139.520E+06    -136.284E+06    -147.419E+06    -280.934E+06    -147.427E+06    -280.926E+06    -136.284E+06     445.960E+03
            1055     12.5445E-03     874.709E-06     12.5139E-03     267.203E-03    -133.415E-03    -133.788E-03    -133.635E-03     267.050E-03    -133.415E-03    -14.4271E-03     267.623E-03     156.399E+06    -149.132E+06    -152.959E+06    -307.387E+06    -152.530E+06    -307.375E+06    -149.574E+06      88.953E+03
            1056     18.6600E-03     14.3201E-03     11.9637E-03     399.841E-03    -172.738E-03    -227.104E-03    -216.489E-03     389.227E-03    -172.738E-03     159.876E-03     489.279E-03     121.674E+06     129.359E+06     88.1437E+06    -7.42712E+06    -7.42507E+06     88.1417E+06     129.359E+06    -202.444E+03
            1057     17.8736E-03     13.5122E-03     11.6999E-03     395.955E-03    -170.085E-03    -225.871E-03    -216.670E-03     386.754E-03    -170.085E-03     145.122E-03     491.556E-03     108.546E+06     104.306E+06     78.6919E+06    -14.6388E+06    -14.6358E+06     78.6888E+06     104.306E+06    -235.000E+03
            1058     17.1721E-03     12.7055E-03     11.5521E-03     386.339E-03    -167.020E-03    -219.319E-03    -215.035E-03     382.055E-03    -167.020E-03     101.450E-03     463.095E-03     97.2543E+06      83.699E+06     63.8045E+06    -21.9402E+06    -21.9366E+06     63.8009E+06      83.699E+06     119.665E+03
            1059     16.4884E-03     11.9002E-03     11.4128E-03     380.272E-03    -163.559E-03    -216.713E-03    -213.716E-03     377.275E-03    -163.559E-03     83.1017E-03     451.926E-03     91.8653E+06     72.2270E+06      48.641E+06    -29.1050E+06    -29.1005E+06     48.6365E+06     72.2270E+06     413.308E+03
            1060     15.8475E-03     11.0923E-03     11.3183E-03     372.139E-03    -159.681E-03    -212.458E-03    -211.013E-03     370.694E-03    -159.681E-03     57.0951E-03     434.521E-03     89.4590E+06     61.9299E+06     37.4412E+06    -37.2193E+06    -37.2019E+06     37.4238E+06     61.9299E+06     536.526E+03
            1061     15.2361E-03     10.2851E-03     11.2408E-03     362.149E-03    -155.445E-03    -206.705E-03    -206.094E-03     361.538E-03    -155.445E-03     35.7981E-03     418.095E-03     87.2570E+06     50.3442E+06     29.1305E+06    -45.5487E+06    -45.5159E+06     29.0977E+06     50.3442E+06     941.003E+03
            1062     14.6603E-03     9.46926E-03     11.1918E-03     350.537E-03    -150.967E-03    -199.570E-03    -199.418E-03     350.385E-03    -150.967E-03     14.5872E-03     400.221E-03     85.9681E+06     38.5617E+06     22.0461E+06    -54.4355E+06    -54.3717E+06     21.9823E+06     38.5617E+06     1.84684E+06
            1063     14.1158E-03     8.64850E-03     11.1561E-03     337.268E-03    -146.391E-03    -190.877E-03    -190.811E-03     337.202E-03    -146.391E-03    -6.04861E-03     380.359E-03     86.2025E+06     28.2026E+06     14.0493E+06    -64.1993E+06    -64.0620E+06     13.9121E+06     28.2026E+06     3.01141E+06
            1064     13.6123E-03     7.82056E-03     11.1415E-03     322.372E-03    -141.909E-03    -180.463E-03    -180.137E-03     322.046E-03    -141.909E-03    -23.8650E-03     358.469E-03     87.0064E+06     18.3806E+06     3.72947E+06      -75.02E+06    -74.7338E+06     3.44322E+06     18.3806E+06     4.61519E+06
            1065     13.1468E-03     6.98124E-03     11.1401E-03     307.327E-03    -137.711E-03    -169.615E-03    -168.836E-03     306.548E-03    -137.711E-03    -37.7401E-03     336.402E-03     80.7274E+06     2.63389E+06    -22.0906E+06    -86.7973E+06    -86.3330E+06    -22.5549E+06     2.63389E+06     5.33289E+06
            1066     12.7255E-03     6.13161E-03     11.1508E-03     293.268E-03    -133.936E-03    -159.332E-03    -158.098E-03     292.034E-03    -133.936E-03    -46.9112E-03     315.556E-03     73.0885E+06    -19.1545E+06    -70.2403E+06    -99.5306E+06    -98.1020E+06    -71.6689E+06    -19.1545E+06     4.17189E+06
            1067     12.3488E-03     5.27278E-03     11.1664E-03     280.582E-03    -130.641E-03    -149.941E-03    -148.443E-03     279.084E-03    -130.641E-03    -50.6465E-03     296.586E-03     78.2768E+06    -42.2946E+06    -107.082E+06    -128.251E+06    -110.163E+06    -125.170E+06    -42.2946E+06     2.76750E+06
            1068     12.0197E-03     4.40611E-03     11.1830E-03     269.462E-03    -127.824E-03    -141.637E-03    -140.120E-03     267.945E-03    -127.824E-03    -49.8482E-03     280.171E-03     89.0722E+06    -67.6054E+06    -122.204E+06    -169.628E+06    -122.328E+06    -169.505E+06    -67.6054E+06     2.27044E+06
            1069     11.7417E-03     3.53267E-03     11.1977E-03     260.190E-03    -125.504E-03    -134.686E-03    -133.370E-03     258.874E-03    -125.504E-03    -45.4516E-03     266.716E-03     103.264E+06    -93.0832E+06    -133.106E+06    -209.828E+06    -133.189E+06    -209.744E+06    -93.0832E+06     2.41432E+06
            1070     11.5203E-03     2.65392E-03     11.2105E-03     252.733E-03    -123.672E-03    -129.061E-03    -128.122E-03     251.794E-03    -123.672E-03    -37.5863E-03     256.243E-03     117.974E+06    -117.526E+06    -141.993E+06    -245.507E+06    -142.050E+06    -245.450E+06    -117.526E+06     2.25146E+06
            1071     11.3594E-03     1.77178E-03     11.2204E-03     247.178E-03    -122.353E-03    -124.825E-03    -124.312E-03     246.665E-03    -122.353E-03    -27.0295E-03     248.722E-03     133.987E+06    -138.382E+06    -149.633E+06    -277.528E+06    -149.668E+06    -277.492E+06    -138.382E+06     1.83238E+06
            1072     11.2602E-03     886.387E-06     11.2253E-03     243.802E-03    -121.436E-03    -122.367E-03    -122.183E-03     243.619E-03    -121.436E-03    -15.3355E-03     244.274E-03     151.918E+06    -151.535E+06    -155.541E+06    -305.395E+06    -155.128E+06    -305.367E+06    -151.976E+06     1.40600E+06
            1073     17.7561E-03     14.3205E-03     10.4977E-03     401.313E-03    -172.661E-03    -228.652E-03    -217.828E-03     390.488E-03    -172.661E-03     161.281E-03     491.516E-03     121.001E+06     128.467E+06     88.2564E+06    -7.35795E+06    -7.35544E+06     88.2539E+06     128.467E+06    -395.400E+03
            1074     16.9450E-03     13.5120E-03     10.2253E-03     397.302E-03    -169.941E-03    -227.361E-03    -217.637E-03     387.578E-03    -169.941E-03     149.689E-03     496.363E-03     107.597E+06     103.491E+06     78.8475E+06    -14.1923E+06    -14.1892E+06     78.8443E+06     103.491E+06    -43.1981E+03
            1075     16.2232E-03     12.7090E-03     10.0833E-03     387.867E-03    -166.802E-03    -221.065E-03    -216.354E-03     383.155E-03    -166.802E-03     106.667E-03     469.379E-03     95.7855E+06     82.7858E+06     62.8116E+06    -21.3715E+06    -21.3672E+06     62.8074E+06     82.7858E+06     569.556E+03
            1076     15.5151E-03     11.9028E-03     9.95203E-03     382.839E-03    -163.193E-03    -219.646E-03    -216.194E-03     379.387E-03    -163.193E-03     89.7228E-03     461.031E-03     89.9901E+06     70.5758E+06     46.7899E+06    -28.8967E+06    -28.8554E+06     46.7487E+06     70.5758E+06     1.33607E+06
            1077     14.8463E-03     11.1013E-03     9.85757E-03     375.256E-03    -159.072E-03    -216.183E-03    -214.372E-03     373.444E-03    -159.072E-03     64.4850E-03     444.846E-03     87.9660E+06     60.9936E+06     36.7086E+06    -36.5582E+06    -36.4265E+06     36.5769E+06     60.9936E+06     2.67535E+06
            1078     14.2147E-03     10.2937E-03     9.80295E-03     366.105E-03    -154.465E-03    -211.640E-03    -210.729E-03     365.194E-03    -154.465E-03     44.6236E-03     430.127E-03     86.5158E+06     49.4572E+06     29.0122E+06    -45.4176E+06    -45.1857E+06     28.7803E+06     49.4572E+06     3.77160E+06
            1079     13.6109E-03     9.48526E-03     9.76144E-03     354.141E-03    -149.490E-03    -204.651E-03    -204.322E-03     353.812E-03    -149.490E-03     24.2046E-03     412.174E-03     85.9841E+06     38.2424E+06     22.0216E+06    -54.6788E+06    -54.4178E+06     21.7606E+06     38.2424E+06     4.23617E+06
            1080     13.0491E-03     8.67084E-03     9.75171E-03     339.021E-03    -144.366E-03    -194.655E-03    -194.569E-03     338.935E-03    -144.366E-03     5.24317E-03     390.565E-03     86.5232E+06     28.1514E+06     13.2791E+06    -64.8415E+06    -64.4839E+06     12.9215E+06     28.1514E+06     5.09045E+06
            1081     12.5203E-03     7.84373E-03     9.75876E-03     322.568E-03    -139.315E-03    -183.253E-03    -183.117E-03     322.432E-03    -139.315E-03    -10.1060E-03     367.135E-03     87.2961E+06     18.0302E+06     2.73295E+06    -75.9032E+06    -75.3512E+06     2.18093E+06     18.0302E+06     6.42147E+06
            1082     12.0335E-03     7.00747E-03     9.78260E-03     306.237E-03    -134.476E-03    -171.761E-03    -171.397E-03     305.874E-03    -134.476E-03    -22.8554E-03     343.127E-03     82.0201E+06     3.01814E+06    -19.5302E+06    -87.5068E+06    -86.7809E+06    -20.2560E+06     3.01814E+06     6.87173E+06
            1083     11.5874E-03     6.16028E-03     9.81421E-03     290.735E-03    -129.937E-03    -160.798E-03    -160.140E-03     290.077E-03    -129.937E-03    -31.9298E-03     319.864E-03     73.1067E+06    -19.1671E+06    -64.8661E+06    -100.413E+06    -98.8681E+06    -66.4106E+06    -19.1671E+06     5.98164E+06
            1084     11.1868E-03     5.30312E-03     9.84993E-03     276.277E-03    -125.741E-03    -150.536E-03    -149.643E-03     275.384E-03    -125.741E-03    -37.2195E-03     297.896E-03     75.8732E+06    -43.2388E+06    -105.164E+06    -127.543E+06    -111.500E+06    -121.208E+06    -43.2388E+06     4.67950E+06
            1085     10.8331E-03     4.43631E-03     9.88305E-03     262.509E-03    -121.937E-03    -140.572E-03    -139.573E-03     261.510E-03    -121.937E-03    -39.0087E-03     277.350E-03     87.1483E+06    -68.0077E+06    -123.740E+06    -167.700E+06    -124.265E+06    -167.175E+06    -68.0077E+06     3.99122E+06
            1086     10.5330E-03     3.56095E-03     9.91280E-03     249.936E-03    -118.654E-03    -131.283E-03    -130.351E-03     249.005E-03    -118.654E-03    -36.9133E-03     259.235E-03     100.544E+06    -93.8852E+06    -135.638E+06    -208.008E+06    -135.845E+06    -207.801E+06    -93.8852E+06     3.61199E+06
            1087     10.2914E-03     2.67792E-03     9.93687E-03     239.576E-03    -115.972E-03    -123.604E-03    -122.899E-03     238.872E-03    -115.972E-03    -31.3502E-03     244.716E-03     112.879E+06    -119.391E+06    -146.123E+06    -242.980E+06    -146.257E+06    -242.846E+06    -119.391E+06     3.43065E+06
            1088     10.1144E-03     1.78872E-03     9.95498E-03     231.649E-03    -113.896E-03    -117.753E-03    -117.353E-03     231.249E-03    -113.896E-03    -22.9094E-03     233.958E-03     126.284E+06    -141.702E+06    -154.544E+06    -273.735E+06    -154.646E+06    -273.633E+06    -141.702E+06     3.25282E+06
            1089     10.0057E-03     896.369E-06     9.96543E-03     226.150E-03    -112.196E-03    -113.954E-03    -113.810E-03     226.006E-03    -112.196E-03    -13.0175E-03     226.874E-03     142.564E+06    -156.252E+06    -159.892E+06    -300.570E+06    -159.930E+06    -300.532E+06    -156.252E+06     1.77884E+06
            1090     16.9251E-03     14.3195E-03     9.02291E-03     400.552E-03    -172.768E-03    -227.784E-03    -216.642E-03     389.411E-03    -172.768E-03     162.048E-03     492.531E-03     120.327E+06     127.745E+06     88.5997E+06    -7.11448E+06    -7.11033E+06     88.5955E+06     127.745E+06    -593.091E+03
            1091     16.1023E-03     13.5135E-03     8.75610E-03     396.420E-03    -170.161E-03    -226.260E-03    -215.553E-03     385.714E-03    -170.161E-03     157.117E-03     500.896E-03     106.404E+06     101.870E+06     78.0398E+06    -14.3428E+06    -14.3386E+06     78.0356E+06     101.870E+06    -188.356E+03
            1092     15.3485E-03     12.7025E-03     8.61530E-03     387.711E-03    -167.151E-03    -220.560E-03    -215.048E-03     382.198E-03    -167.151E-03     115.118E-03     475.430E-03     93.3954E+06     79.8846E+06     60.4309E+06    -21.6606E+06    -21.6447E+06     60.4149E+06     79.8846E+06     868.119E+03
            1093     14.6138E-03     11.9011E-03     8.48087E-03     382.949E-03    -163.654E-03    -219.296E-03    -215.054E-03     378.707E-03    -163.654E-03     99.6093E-03     469.011E-03     87.3692E+06     68.6072E+06     44.9702E+06    -28.1236E+06    -28.0083E+06     44.8549E+06     68.6072E+06     2.52374E+06
            1094     13.9177E-03     11.0932E-03     8.40486E-03     375.760E-03    -159.627E-03    -216.133E-03    -213.663E-03     373.290E-03    -159.627E-03     75.4244E-03     454.149E-03     85.7713E+06     59.6344E+06     34.4342E+06    -35.9019E+06    -35.5535E+06     34.0858E+06     59.6344E+06     4.73856E+06
            1095     13.2506E-03     10.2891E-03     8.34943E-03     365.693E-03    -155.133E-03    -210.560E-03    -209.102E-03     364.235E-03    -155.133E-03     56.9248E-03     439.488E-03     85.2479E+06     49.3707E+06     28.5463E+06    -44.2739E+06    -43.6667E+06     27.9391E+06     49.3707E+06     6.49168E+06
            1096     12.6224E-03     9.48057E-03     8.33335E-03     351.946E-03    -150.397E-03    -201.550E-03    -200.663E-03     351.060E-03    -150.397E-03     42.1394E-03     420.811E-03     85.4555E+06     38.4788E+06     22.7310E+06    -53.7465E+06    -52.9105E+06     21.8950E+06     38.4788E+06     7.59022E+06
            1097     12.0263E-03     8.66095E-03     8.34385E-03     337.234E-03    -145.609E-03    -191.625E-03    -191.052E-03     336.660E-03    -145.609E-03     30.4306E-03     399.963E-03     85.9758E+06     28.0974E+06     13.3957E+06    -64.2792E+06    -63.3360E+06     12.4525E+06     28.0974E+06     8.17710E+06
            1098     11.4708E-03     7.83580E-03     8.37736E-03     322.492E-03    -140.833E-03    -181.659E-03    -181.261E-03     322.094E-03    -140.833E-03     19.9834E-03     377.925E-03     87.1843E+06     18.9342E+06     3.32455E+06    -74.9978E+06    -74.1350E+06     2.46173E+06     18.9342E+06     8.12844E+06
            1099     10.9517E-03     6.99968E-03     8.42285E-03     307.771E-03    -136.099E-03    -171.672E-03    -171.362E-03     307.461E-03    -136.099E-03     10.2937E-03     354.776E-03     82.6333E+06     5.49654E+06    -17.5666E+06    -85.8556E+06    -84.9549E+06    -18.4673E+06     5.49654E+06     7.71016E+06
            1100     10.4770E-03     6.15479E-03     8.47857E-03     293.624E-03    -131.428E-03    -162.196E-03    -161.921E-03     293.349E-03    -131.428E-03     2.11600E-03     331.704E-03     74.2495E+06    -16.9876E+06    -62.1113E+06    -100.052E+06    -97.4284E+06    -64.7346E+06    -16.9876E+06     7.53660E+06
            1101     10.0453E-03     5.30103E-03     8.53268E-03     279.469E-03    -126.859E-03    -152.609E-03    -152.331E-03     279.191E-03    -126.859E-03    -5.04993E-03     308.474E-03     75.5042E+06    -42.0550E+06    -103.067E+06    -126.359E+06    -110.814E+06    -118.612E+06    -42.0550E+06     7.14054E+06
            1102     9.66667E-03     4.43869E-03     8.58735E-03     265.096E-03    -122.520E-03    -142.576E-03    -142.273E-03     264.792E-03    -122.520E-03    -10.3685E-03     285.658E-03     88.1942E+06    -65.2429E+06    -121.834E+06    -166.041E+06    -122.955E+06    -164.920E+06    -65.2429E+06     6.15199E+06
            1103     9.34239E-03     3.56538E-03     8.63529E-03     251.341E-03    -118.580E-03    -132.761E-03    -132.470E-03     251.050E-03    -118.580E-03    -13.1219E-03     264.649E-03     101.163E+06    -90.9069E+06    -135.544E+06    -206.306E+06    -136.017E+06    -205.833E+06    -90.9069E+06     5.50417E+06
            1104     9.08008E-03     2.68301E-03     8.67463E-03     239.138E-03    -115.228E-03    -123.910E-03    -123.681E-03     238.909E-03    -115.228E-03    -13.3379E-03     246.690E-03     111.307E+06    -117.524E+06    -148.085E+06    -240.621E+06    -148.373E+06    -240.332E+06    -117.524E+06     4.61947E+06
            1105     8.88616E-03     1.79385E-03     8.70321E-03     229.461E-03    -112.653E-03    -116.808E-03    -116.668E-03     229.321E-03    -112.653E-03    -10.8919E-03     232.940E-03     122.535E+06    -139.337E+06    -156.501E+06    -269.366E+06    -156.591E+06    -269.276E+06    -139.337E+06     2.61879E+06
            1106     8.76921E-03     897.774E-06     8.72313E-03     223.125E-03    -110.738E-03    -112.388E-03    -112.326E-03     223.071E-03    -110.745E-03    -6.38347E-03     224.253E-03     137.506E+06    -155.543E+06    -161.533E+06    -295.863E+06    -161.553E+06    -295.844E+06    -155.543E+06     874.096E+03
            1107     16.1924E-03     14.3180E-03     7.56225E-03     397.709E-03    -173.207E-03    -224.503E-03    -212.453E-03     385.660E-03    -173.207E-03     166.286E-03     492.709E-03     119.278E+06     125.158E+06     87.7338E+06    -8.16796E+06    -8.15877E+06     87.7246E+06     125.158E+06    -784.195E+03
            1108     15.3391E-03     13.4974E-03     7.28758E-03     394.636E-03    -170.904E-03    -223.731E-03    -211.420E-03     382.324E-03    -170.904E-03     168.322E-03     505.816E-03     105.109E+06     97.9539E+06     75.3882E+06    -16.5364E+06    -16.5271E+06     75.3789E+06     97.9539E+06     266.545E+03
            1109     14.5653E-03     12.6935E-03     7.14307E-03     386.176E-03    -168.229E-03    -217.946E-03    -211.202E-03     379.431E-03    -168.229E-03     126.768E-03     480.853E-03     92.1162E+06     77.3365E+06     58.5194E+06    -22.6911E+06    -22.6523E+06     58.4807E+06     77.3365E+06     1.58439E+06
            1110     13.7999E-03     11.8795E-03     7.02233E-03     381.561E-03    -165.070E-03    -216.491E-03    -211.295E-03     376.365E-03    -165.070E-03     109.780E-03     474.295E-03     85.7775E+06     65.3856E+06     42.1173E+06    -29.5920E+06    -29.4410E+06     41.9664E+06     65.3856E+06     3.09827E+06
            1111     13.0692E-03     11.0749E-03     6.93906E-03     370.746E-03    -161.556E-03    -209.190E-03    -206.024E-03     367.579E-03    -161.556E-03     84.9748E-03     455.926E-03     83.8978E+06     57.3771E+06     31.6553E+06    -36.3689E+06    -35.9369E+06     31.2232E+06     57.3771E+06     5.25004E+06
            1112     12.3732E-03     10.2642E-03     6.90946E-03     356.387E-03    -158.005E-03    -198.382E-03    -195.878E-03     353.883E-03    -158.005E-03     73.3205E-03     436.936E-03     84.0927E+06     48.7263E+06     26.2536E+06    -44.2484E+06    -43.3516E+06     25.3568E+06     48.7263E+06     7.80356E+06
            1113     11.7010E-03     9.44081E-03     6.91259E-03     343.302E-03    -154.607E-03    -188.695E-03    -186.329E-03     340.935E-03    -154.607E-03     68.6643E-03     418.890E-03     85.1029E+06     39.5485E+06     22.1347E+06    -52.8835E+06    -51.5061E+06     20.7572E+06     39.5485E+06     10.0238E+06
            1114     11.0645E-03     8.61402E-03     6.94424E-03     332.552E-03    -151.279E-03    -181.272E-03    -179.006E-03     330.285E-03    -151.279E-03     65.0194E-03     401.345E-03     85.9979E+06     31.0448E+06     15.1765E+06    -61.7678E+06    -60.2928E+06     13.7015E+06     31.0448E+06     10.5286E+06
            1115     10.4615E-03     7.77976E-03     6.99409E-03     322.581E-03    -147.898E-03    -174.683E-03    -172.554E-03     320.452E-03    -147.898E-03     60.9193E-03     383.708E-03     87.8444E+06     23.5144E+06     6.34822E+06    -71.6350E+06    -70.5042E+06     5.21751E+06     23.5144E+06     9.24395E+06
            1116     9.90283E-03     6.94228E-03     7.06193E-03     313.234E-03    -144.371E-03    -168.863E-03    -166.867E-03     311.237E-03    -144.371E-03     56.7377E-03     365.889E-03     83.7912E+06     9.91879E+06    -18.5900E+06    -83.5813E+06    -82.2936E+06    -19.8776E+06     9.91879E+06     8.61871E+06
            1117     9.38423E-03     6.09930E-03     7.13179E-03     303.721E-03    -140.640E-03    -163.081E-03    -161.345E-03     301.985E-03    -140.640E-03     50.5342E-03     347.012E-03     77.6559E+06    -11.6263E+06    -62.8781E+06    -99.3233E+06    -94.9085E+06    -67.2929E+06    -11.6263E+06     9.47053E+06
            1118     8.91719E-03     5.25101E-03     7.20716E-03     293.063E-03    -136.755E-03    -156.308E-03    -154.941E-03     291.695E-03    -136.755E-03     42.3360E-03     326.758E-03     80.5103E+06    -34.7929E+06    -99.4457E+06    -124.908E+06    -107.603E+06    -116.751E+06    -34.7929E+06     8.83804E+06
            1119     8.50276E-03     4.39358E-03     7.27965E-03     281.828E-03    -132.835E-03    -148.993E-03    -148.015E-03     280.850E-03    -132.835E-03     33.5321E-03     306.334E-03     93.5891E+06    -58.6039E+06    -119.546E+06    -165.521E+06    -120.967E+06    -164.100E+06    -58.6039E+06     7.11885E+06
            1120     8.15000E-03     3.53006E-03     7.34583E-03     270.284E-03    -129.028E-03    -141.256E-03    -140.635E-03     269.663E-03    -129.028E-03     24.4070E-03     286.511E-03     106.596E+06    -82.6446E+06    -133.190E+06    -204.817E+06    -133.744E+06    -204.263E+06    -82.6446E+06     5.83625E+06
            1121     7.86436E-03     2.65807E-03     7.40154E-03     258.895E-03    -125.596E-03    -133.299E-03    -132.952E-03     258.548E-03    -125.596E-03     16.0750E-03     268.291E-03     114.363E+06    -107.780E+06    -144.268E+06    -235.583E+06    -144.485E+06    -235.366E+06    -107.780E+06     3.24790E+06
            1122     7.65359E-03     1.77651E-03     7.44455E-03     249.423E-03    -122.864E-03    -126.559E-03    -126.403E-03     249.266E-03    -122.864E-03     9.41057E-03     253.838E-03     123.606E+06    -134.167E+06    -153.553E+06    -266.008E+06    -153.581E+06    -265.980E+06    -134.167E+06     157.837E+03
            1123     7.52357E-03     890.537E-06     7.47068E-03     243.138E-03    -120.944E-03    -122.194E-03    -121.909E-03     243.093E-03    -121.183E-03     4.24523E-03     244.588E-03     140.255E+06    -153.260E+06    -160.128E+06    -296.763E+06    -159.019E+06    -296.747E+06    -154.385E+06    -1.15775E+06
            1124     15.5439E-03     14.2974E-03     6.09898E-03     393.663E-03    -174.333E-03    -219.329E-03    -204.656E-03     378.989E-03    -174.333E-03     180.953E-03     498.585E-03     118.908E+06     124.143E+06     87.9254E+06    -8.50840E+06    -8.47670E+06     87.8937E+06     124.143E+06     580.991E+03
            1125     14.6903E-03     13.4872E-03     5.82259E-03     397.433E-03    -172.461E-03    -224.972E-03    -209.601E-03     382.062E-03    -172.461E-03     187.960E-03     515.424E-03     104.135E+06     96.3852E+06     74.0155E+06    -17.0659E+06    -17.0350E+06     73.9847E+06     96.3852E+06     1.33503E+06
            1126     13.8803E-03     12.6624E-03     5.68553E-03     388.035E-03    -170.006E-03    -218.029E-03    -210.526E-03     380.531E-03    -170.006E-03     133.219E-03     483.664E-03     90.6314E+06     73.7079E+06     55.6166E+06    -24.5767E+06    -24.4830E+06     55.5228E+06     73.7079E+06     2.42891E+06
            1127     13.0906E-03     11.8570E-03     5.54753E-03     373.438E-03    -167.360E-03    -206.079E-03    -200.941E-03     368.301E-03    -167.360E-03     107.810E-03     463.155E-03     84.5709E+06     61.7499E+06     39.6900E+06    -31.6090E+06    -31.3662E+06     39.4473E+06     61.7499E+06     3.96558E+06
            1128     12.3340E-03     11.0401E-03     5.49924E-03     354.239E-03    -165.172E-03    -189.067E-03    -185.110E-03     350.283E-03    -165.172E-03     91.9605E-03     435.932E-03     83.5404E+06     53.8261E+06     28.7787E+06    -39.3715E+06    -38.8937E+06     28.3008E+06     53.8261E+06     5.58038E+06
            1129     11.5875E-03     10.2045E-03     5.49001E-03     340.760E-03    -162.299E-03    -178.461E-03    -172.933E-03     336.563E-03    -163.630E-03     91.9000E-03     416.019E-03     83.6237E+06     46.2195E+06     23.6473E+06    -46.3401E+06    -45.5578E+06     22.8651E+06     46.2195E+06     7.20136E+06
            1130     10.8671E-03     9.36543E-03     5.51201E-03     332.776E-03    -158.943E-03    -173.834E-03    -165.564E-03     328.106E-03    -162.542E-03     95.3277E-03     401.765E-03     84.5777E+06     40.0692E+06     20.5882E+06    -52.5435E+06    -51.5049E+06     19.5496E+06     40.0692E+06     8.43466E+06
            1131     10.1698E-03     8.52094E-03     5.55139E-03     327.966E-03    -156.771E-03    -171.196E-03    -161.329E-03     322.986E-03    -161.657E-03     97.4272E-03     389.778E-03     87.1714E+06     36.0763E+06     16.3329E+06    -59.2527E+06    -58.1087E+06     15.1889E+06     36.0763E+06     9.06925E+06
            1132     9.51300E-03     7.67772E-03     5.61692E-03     325.419E-03    -156.212E-03    -169.207E-03    -159.449E-03     320.191E-03    -160.741E-03     99.1634E-03     380.137E-03     90.0756E+06     31.3358E+06     8.03907E+06    -67.9749E+06    -66.7720E+06     6.83621E+06     31.3358E+06     9.37268E+06
            1133     8.89068E-03     6.83260E-03     5.68856E-03     324.106E-03    -156.278E-03    -167.828E-03    -159.234E-03     318.818E-03    -159.584E-03     99.5705E-03     371.575E-03     87.5434E+06     18.6867E+06    -22.2847E+06    -79.8153E+06    -78.1043E+06    -23.9956E+06     18.6867E+06     9.28952E+06
            1134     8.31725E-03     5.98975E-03     5.77057E-03     322.068E-03    -156.017E-03    -166.051E-03    -159.092E-03     317.151E-03    -158.059E-03     95.7817E-03     361.551E-03     84.6226E+06    -194.449E+03    -66.2220E+06    -94.0308E+06    -89.6672E+06    -70.5856E+06    -194.449E+03     8.35320E+06
            1135     7.79499E-03     5.14436E-03     5.85640E-03     318.902E-03    -155.496E-03    -163.406E-03    -158.517E-03     314.660E-03    -156.143E-03     88.4210E-03     350.259E-03     90.7816E+06    -21.4675E+06    -95.4038E+06    -122.027E+06    -100.608E+06    -116.822E+06    -21.4675E+06     6.65040E+06
            1136     7.33296E-03     4.29907E-03     5.94056E-03     314.475E-03    -153.883E-03    -160.592E-03    -157.247E-03     311.130E-03    -153.883E-03     77.7104E-03     337.755E-03     103.860E+06    -45.7408E+06    -110.586E+06    -164.576E+06    -111.414E+06    -163.748E+06    -45.7408E+06     4.16088E+06
            1137     6.93696E-03     3.44880E-03     6.01891E-03     308.597E-03    -151.406E-03    -157.191E-03    -154.858E-03     306.264E-03    -151.406E-03     63.9247E-03     324.378E-03     114.785E+06    -71.5939E+06    -120.881E+06    -202.153E+06    -121.149E+06    -201.885E+06    -71.5939E+06     1.09803E+06
            1138     6.61821E-03     2.59348E-03     6.08889E-03     302.045E-03    -148.946E-03    -153.099E-03    -151.703E-03     300.649E-03    -148.946E-03     48.5405E-03     311.411E-03     123.659E+06    -97.9151E+06    -129.755E+06    -233.753E+06    -129.816E+06    -233.692E+06    -97.9151E+06    -694.162E+03
            1139     6.38233E-03     1.73392E-03     6.14229E-03     295.829E-03    -146.810E-03    -149.020E-03    -148.347E-03     295.157E-03    -146.810E-03     32.7180E-03     300.318E-03     137.269E+06    -123.248E+06    -138.652E+06    -267.243E+06    -138.680E+06    -267.214E+06    -123.248E+06    -377.646E+03
            1140     6.23772E-03     868.048E-06     6.17703E-03     291.173E-03    -145.157E-03    -146.016E-03    -145.536E-03     290.955E-03    -145.419E-03     17.1700E-03     292.651E-03     155.007E+06    -141.888E+06    -147.243E+06    -299.481E+06    -146.152E+06    -299.446E+06    -143.013E+06     235.717E+03
            1141     15.0099E-03     14.2726E-03     4.64658E-03     400.342E-03    -176.361E-03    -223.980E-03    -204.418E-03     380.780E-03    -176.361E-03     213.553E-03     527.347E-03     120.735E+06     125.110E+06     87.1803E+06    -9.91504E+06    -9.84668E+06     87.1120E+06     125.110E+06     2.35489E+06
            1142     14.1224E-03     13.4335E-03     4.35700E-03     409.620E-03    -174.388E-03    -235.232E-03    -220.296E-03     394.684E-03    -174.388E-03     182.953E-03     516.380E-03     103.740E+06     95.2350E+06     71.3089E+06    -18.3179E+06    -18.2483E+06     71.2392E+06     95.2350E+06     2.23443E+06
            1143     13.3208E-03     12.6458E-03     4.18651E-03     380.437E-03    -171.976E-03    -208.461E-03    -202.931E-03     374.907E-03    -171.976E-03     110.695E-03     458.149E-03     88.9218E+06     71.0625E+06     53.6948E+06    -25.2608E+06    -25.0481E+06     53.4821E+06     71.0625E+06     3.76682E+06
            1144     12.5245E-03     11.8278E-03     4.11916E-03     351.522E-03    -166.287E-03    -185.235E-03    -176.333E-03     346.931E-03    -170.597E-03     98.3093E-03     422.219E-03     82.4940E+06     57.7618E+06     38.1684E+06    -32.7137E+06    -32.3095E+06     37.7642E+06     57.7618E+06     5.27285E+06
            1145     11.7111E-03     10.9737E-03     4.08990E-03     333.211E-03    -158.713E-03    -174.498E-03    -157.917E-03     328.549E-03    -170.632E-03     95.5658E-03     395.543E-03     81.4897E+06     51.5426E+06     27.8150E+06    -39.1634E+06    -38.7036E+06     27.3553E+06     51.5426E+06     5.41888E+06
            1146     10.9182E-03     10.1189E-03     4.10082E-03     325.747E-03    -153.686E-03    -172.060E-03    -148.762E-03     320.436E-03    -171.674E-03     100.174E-03     380.878E-03     82.1699E+06     45.9769E+06     23.4197E+06    -45.0782E+06    -44.7069E+06     23.0484E+06     45.9769E+06     4.79280E+06
            1147     10.1344E-03     9.25742E-03     4.12383E-03     324.407E-03    -151.065E-03    -173.342E-03    -144.957E-03     318.299E-03    -173.342E-03     107.022E-03     373.731E-03     83.7891E+06     40.9985E+06     20.1041E+06    -51.2495E+06    -50.9188E+06     19.7734E+06     40.9985E+06     4.18742E+06
            1148     9.37806E-03     8.39850E-03     4.17291E-03     326.957E-03    -151.587E-03    -175.370E-03    -145.032E-03     320.402E-03    -175.370E-03     111.223E-03     370.295E-03     88.2733E+06     40.4286E+06     16.3590E+06    -57.3525E+06    -56.9897E+06     15.9961E+06     40.4286E+06     3.96131E+06
            1149     8.64606E-03     7.53974E-03     4.23163E-03     332.626E-03    -155.155E-03    -177.471E-03    -148.181E-03     325.652E-03    -177.471E-03     115.805E-03     370.800E-03     89.8253E+06     37.3893E+06     5.37463E+06    -63.7200E+06    -63.1586E+06     4.81326E+06     37.3893E+06     4.44787E+06
            1150     7.95384E-03     6.69000E-03     4.30204E-03     339.749E-03    -160.361E-03    -179.389E-03    -153.277E-03     332.666E-03    -179.389E-03     118.176E-03     373.029E-03     83.4862E+06     24.0709E+06    -26.1075E+06    -70.3604E+06    -69.3994E+06    -27.0685E+06     24.0709E+06     3.75865E+06
            1151     7.30302E-03     5.84332E-03     4.38060E-03     346.937E-03    -165.991E-03    -180.946E-03    -159.261E-03     340.207E-03    -180.946E-03     116.687E-03     375.082E-03     82.3958E+06     5.12031E+06    -61.9167E+06    -86.1066E+06    -75.6234E+06    -72.3999E+06     5.12031E+06     922.390E+03
            1152     6.70613E-03     5.00436E-03     4.46414E-03     353.394E-03    -171.376E-03    -182.018E-03    -165.385E-03     347.396E-03    -182.011E-03     111.443E-03     376.205E-03     93.6167E+06    -17.2286E+06    -80.4386E+06    -121.859E+06    -82.1469E+06    -120.150E+06    -17.2286E+06    -1.40680E+06
            1153     6.16874E-03     4.16769E-03     4.54793E-03     358.162E-03    -175.309E-03    -182.854E-03    -170.708E-03     353.259E-03    -182.552E-03     101.589E-03     375.531E-03     111.128E+06    -40.9998E+06    -88.3589E+06    -165.981E+06    -88.6776E+06    -165.663E+06    -40.9998E+06    -2.81931E+06
            1154     5.70555E-03     3.33450E-03     4.62973E-03     361.205E-03    -177.875E-03    -183.330E-03    -175.010E-03     357.628E-03    -182.618E-03     87.1398E-03     373.333E-03     127.950E+06    -64.9553E+06    -95.9284E+06    -204.434E+06    -96.0497E+06    -204.313E+06    -64.9553E+06    -3.34529E+06
            1155     5.32606E-03     2.50237E-03     4.70161E-03     362.721E-03    -179.561E-03    -183.160E-03    -178.158E-03     360.476E-03    -182.318E-03     68.9379E-03     370.147E-03     145.281E+06    -88.0398E+06    -104.383E+06    -240.391E+06    -104.438E+06    -240.336E+06    -88.0398E+06    -1.63013E+06
            1156     5.04445E-03     1.66914E-03     4.76030E-03     362.888E-03    -180.472E-03    -182.417E-03    -179.889E-03     361.763E-03    -181.873E-03     48.2410E-03     366.551E-03     165.122E+06    -103.902E+06    -111.468E+06    -272.588E+06    -111.509E+06    -272.547E+06    -103.902E+06     1.52653E+06
            1157     4.87136E-03     835.453E-06     4.79919E-03     362.614E-03    -180.962E-03    -181.652E-03    -180.817E-03     362.231E-03    -181.413E-03     26.7840E-03     363.854E-03     181.081E+06    -113.441E+06    -117.033E+06    -296.276E+06    -116.217E+06    -296.220E+06    -114.312E+06     3.13674E+06
            1158     14.5437E-03     14.1995E-03     3.14513E-03     425.704E-03    -177.846E-03    -247.858E-03    -228.901E-03     406.747E-03    -177.846E-03     209.540E-03     548.862E-03     123.800E+06     129.917E+06     85.6323E+06    -9.82335E+06    -9.70165E+06     85.5106E+06     129.917E+06     3.17845E+06
            1159     13.7464E-03     13.4536E-03     2.82240E-03     400.241E-03    -172.442E-03    -227.799E-03    -217.746E-03     393.012E-03    -175.265E-03     118.207E-03     468.108E-03     104.828E+06     99.2558E+06     71.2089E+06    -16.5019E+06    -16.2616E+06     70.9686E+06     99.2558E+06     3.98570E+06
            1160     12.9309E-03     12.6324E-03     2.76200E-03     349.644E-03    -163.771E-03    -185.873E-03    -172.789E-03     346.693E-03    -173.904E-03     77.6943E-03     396.145E-03     87.5399E+06     70.8931E+06     53.3013E+06    -24.1032E+06    -23.7365E+06     52.9346E+06     70.8931E+06     5.19340E+06
            1161     12.0737E-03     11.7634E-03     2.71975E-03     326.822E-03    -151.731E-03    -175.091E-03    -148.358E-03     323.098E-03    -174.739E-03     83.7127E-03     369.098E-03     79.1658E+06     56.7529E+06     38.3190E+06    -29.9811E+06    -29.6596E+06     37.9975E+06     56.7529E+06     4.41758E+06
            1162     11.2338E-03     10.9009E-03     2.71440E-03     317.286E-03    -140.210E-03    -177.075E-03    -136.270E-03     313.345E-03    -177.075E-03     84.0880E-03     353.107E-03     77.2031E+06     50.9270E+06     29.3962E+06    -34.7380E+06    -34.5342E+06     29.1923E+06     50.9270E+06     3.17673E+06
            1163     10.3872E-03     10.0227E-03     2.72753E-03     315.832E-03    -135.388E-03    -180.444E-03    -130.930E-03     311.375E-03    -180.444E-03     88.6684E-03     346.931E-03     76.9699E+06     44.2102E+06     24.9716E+06    -40.4283E+06    -40.3376E+06     24.8809E+06     44.2102E+06     1.84763E+06
            1164     9.55124E-03     9.14627E-03     2.75171E-03     320.602E-03    -136.039E-03    -184.564E-03    -131.110E-03     315.674E-03    -184.564E-03     93.5012E-03     347.923E-03     76.3403E+06     35.7310E+06     21.7657E+06    -46.3283E+06    -46.2585E+06     21.9642E+06     35.4627E+06     55.1146E+03
            1165     8.72960E-03     8.27206E-03     2.78906E-03     329.908E-03    -140.742E-03    -189.167E-03    -135.650E-03     324.816E-03    -189.167E-03     96.1976E-03     353.217E-03     75.8540E+06     30.3629E+06     13.6310E+06    -52.0878E+06    -51.9246E+06     16.9975E+06     26.8332E+06    -1.86253E+06
            1166     7.93276E-03     7.40818E-03     2.83681E-03     342.212E-03    -148.197E-03    -194.015E-03    -142.900E-03     336.915E-03    -194.015E-03     99.9903E-03     362.760E-03     70.9583E+06     22.3414E+06    -2.34606E+06    -57.2692E+06    -56.6723E+06     3.74124E+06     15.6571E+06    -3.86560E+06
            1167     7.15796E-03     6.54835E-03     2.89059E-03     356.523E-03    -157.605E-03    -198.918E-03    -152.314E-03     351.232E-03    -198.918E-03     102.107E-03     374.502E-03      59.363E+06     3.23026E+06    -27.9059E+06    -63.5761E+06    -59.6306E+06    -28.4285E+06    -192.552E+03    -6.87873E+06
            1168     6.42100E-03     5.70191E-03     2.95254E-03     372.146E-03    -168.467E-03    -203.679E-03    -163.403E-03     367.082E-03    -203.679E-03     102.317E-03     387.546E-03     63.8788E+06    -16.2591E+06    -51.3849E+06    -87.6036E+06    -61.2820E+06    -77.7064E+06    -16.2591E+06    -8.89432E+06
            1169     5.72436E-03     4.86380E-03     3.01857E-03     387.812E-03    -179.734E-03    -208.077E-03    -175.155E-03     383.232E-03    -208.077E-03     99.6651E-03     400.513E-03     89.0099E+06    -32.1538E+06    -63.0660E+06    -130.611E+06    -64.2636E+06    -129.414E+06    -32.1538E+06    -7.95925E+06
            1170     5.08337E-03     4.03744E-03     3.08864E-03     402.501E-03    -190.553E-03    -211.948E-03    -186.736E-03     398.684E-03    -211.948E-03     93.0252E-03     412.383E-03     118.314E+06    -48.0305E+06    -68.9231E+06    -174.837E+06    -69.2825E+06    -174.477E+06    -48.0305E+06    -5.45244E+06
            1171     4.50800E-03     3.21885E-03     3.15611E-03     415.610E-03    -200.406E-03    -215.204E-03    -197.530E-03     412.734E-03    -215.204E-03     82.2676E-03     422.667E-03     147.750E+06    -61.3815E+06    -74.8591E+06    -215.264E+06    -74.9657E+06    -215.157E+06    -61.3815E+06    -1.94374E+06
            1172     4.01961E-03     2.40767E-03     3.21875E-03     426.608E-03    -208.842E-03    -217.766E-03    -206.974E-03     424.741E-03    -217.766E-03     67.0203E-03     431.050E-03     173.113E+06    -72.7432E+06    -80.9994E+06    -249.811E+06    -81.0699E+06    -249.741E+06    -72.7432E+06     1.94659E+06
            1173     3.64152E-03     1.60214E-03     3.27014E-03     434.909E-03    -215.323E-03    -219.586E-03    -214.372E-03     433.958E-03    -219.586E-03     47.6446E-03     437.196E-03     190.885E+06    -81.5492E+06    -86.4030E+06    -274.809E+06    -86.4960E+06    -274.716E+06    -81.5492E+06     3.96311E+06
            1174     3.39977E-03     799.448E-06     3.30444E-03     440.056E-03    -219.306E-03    -220.750E-03    -219.268E-03     439.731E-03    -220.464E-03     26.7297E-03     440.982E-03     198.655E+06    -87.2330E+06    -90.7166E+06    -287.603E+06    -89.9156E+06    -287.533E+06    -88.1044E+06     3.63601E+06
            1175     14.3580E-03     14.2780E-03     1.51324E-03     467.687E-03    -178.711E-03    -288.976E-03    -276.176E-03     454.887E-03    -178.711E-03     178.831E-03     538.411E-03     126.012E+06     138.231E+06     85.0235E+06    -5.53015E+06    -5.14356E+06     84.6369E+06     138.231E+06     4.65340E+06
            1176     13.5410E-03     13.4670E-03     1.41359E-03     369.578E-03    -167.529E-03    -202.049E-03    -191.831E-03     367.452E-03    -175.621E-03     68.3154E-03     399.137E-03     108.407E+06     108.855E+06     74.7555E+06    -12.1527E+06    -11.5194E+06     74.1222E+06     108.855E+06     7.03727E+06
            1177     12.6595E-03     12.5851E-03     1.37020E-03     324.545E-03    -148.632E-03    -175.913E-03    -147.096E-03     323.009E-03    -175.913E-03     50.3730E-03     345.998E-03     88.1969E+06     77.9251E+06     58.5804E+06    -18.3308E+06    -17.9741E+06     58.2236E+06     77.9251E+06     4.74125E+06
            1178     11.7994E-03     11.7215E-03     1.35426E-03     310.860E-03    -132.372E-03    -178.487E-03    -130.715E-03     309.203E-03    -178.487E-03     49.2430E-03     330.034E-03     74.5497E+06     60.2783E+06     40.8901E+06    -21.9522E+06    -21.8570E+06     40.7949E+06     60.2783E+06     1.46385E+06
            1179     10.9137E-03     10.8297E-03     1.35127E-03     307.279E-03    -124.877E-03    -182.402E-03    -123.158E-03     305.560E-03    -182.402E-03     49.5546E-03     323.527E-03     66.5199E+06     45.8015E+06     29.7142E+06    -26.9116E+06    -26.8814E+06     29.8566E+06     45.6288E+06     714.211E+03
            1180     10.0398E-03     9.94649E-03     1.36561E-03     311.577E-03    -124.271E-03    -187.307E-03    -122.319E-03     309.626E-03    -187.307E-03     52.4668E-03     325.797E-03     62.1010E+06     35.3224E+06     23.1134E+06    -31.6293E+06    -31.6002E+06     27.5815E+06     30.8251E+06    -79.7930E+03
            1181     9.16504E-03     9.06103E-03     1.37687E-03     320.654E-03    -127.666E-03    -192.987E-03    -125.633E-03     318.620E-03    -192.987E-03     54.8352E-03     332.862E-03     58.7276E+06     26.8283E+06     12.4231E+06    -36.5701E+06    -36.4835E+06     24.1817E+06     14.9831E+06    -2.06198E+06
            1182     8.30218E-03     8.18348E-03     1.39882E-03     333.871E-03    -134.598E-03    -199.273E-03    -132.597E-03     331.870E-03    -199.273E-03     55.3919E-03     344.007E-03     54.8062E+06     17.8608E+06    -2.00317E+06    -41.7689E+06    -41.5650E+06     17.6568E+06    -2.00317E+06    -3.20769E+06
            1183     7.44761E-03     7.31021E-03     1.42401E-03     350.475E-03    -144.483E-03    -205.992E-03    -142.445E-03     348.437E-03    -205.992E-03     57.1631E-03     359.237E-03     50.7838E+06     7.68211E+06    -19.4462E+06    -47.9811E+06    -47.1231E+06     6.82415E+06    -19.4462E+06    -6.00568E+06
            1184     6.61330E-03     6.45143E-03     1.45423E-03     369.537E-03    -156.514E-03    -213.023E-03    -154.520E-03     367.542E-03    -213.023E-03     58.2976E-03     376.929E-03     37.6094E+06    -19.5458E+06    -37.1514E+06    -60.2947E+06    -52.3442E+06    -29.8706E+06    -34.7771E+06    -9.99458E+06
            1185     5.79470E-03     5.60062E-03     1.48713E-03     390.563E-03    -170.363E-03    -220.200E-03    -168.472E-03     388.672E-03    -220.200E-03     58.5271E-03     396.671E-03     47.0100E+06    -44.3953E+06    -52.2579E+06    -94.7112E+06    -57.6875E+06    -88.8351E+06    -44.8418E+06    -9.99557E+06
            1186     5.00307E-03     4.76520E-03     1.52433E-03     412.780E-03    -185.529E-03    -227.250E-03    -183.805E-03     411.055E-03    -227.250E-03     57.5634E-03     417.681E-03     87.4581E+06    -51.4554E+06    -61.6879E+06    -143.446E+06    -62.5406E+06    -142.593E+06    -51.4554E+06    -6.58691E+06
            1187     4.24063E-03     3.94198E-03     1.56325E-03     435.184E-03    -201.282E-03    -233.902E-03    -199.808E-03     433.710E-03    -233.902E-03     54.8606E-03     438.921E-03     126.157E+06    -56.6652E+06    -66.2117E+06    -187.280E+06    -66.3498E+06    -187.142E+06    -56.6652E+06    -2.72708E+06
            1188     3.51989E-03     3.13336E-03     1.60365E-03     456.529E-03    -216.634E-03    -239.896E-03    -215.487E-03     455.383E-03    -239.896E-03     49.6158E-03     459.147E-03     161.276E+06    -60.7851E+06    -69.4831E+06    -226.231E+06    -69.5163E+06    -226.198E+06    -60.7851E+06     768.692E+03
            1189     2.85465E-03     2.33674E-03     1.63972E-03     475.503E-03    -230.541E-03    -244.962E-03    -229.777E-03     474.739E-03    -244.962E-03     41.3328E-03     477.162E-03     187.484E+06    -64.1813E+06    -71.7298E+06    -255.320E+06    -71.7953E+06    -255.255E+06    -64.1813E+06     3.12807E+06
            1190     2.27928E-03     1.55140E-03     1.66981E-03     490.674E-03    -241.840E-03    -248.834E-03    -241.444E-03     490.278E-03    -248.834E-03     30.0952E-03     491.612E-03     200.949E+06     -67.894E+06    -73.6674E+06    -271.666E+06    -73.7575E+06    -271.576E+06     -67.894E+06     4.00774E+06
            1191     1.86052E-03     774.631E-06     1.69160E-03     500.606E-03    -249.229E-03    -251.377E-03    -249.350E-03     500.470E-03    -251.120E-03     17.4130E-03     501.190E-03     201.163E+06    -73.5475E+06    -77.0125E+06    -276.414E+06    -77.0757E+06    -276.351E+06    -73.5475E+06     3.45726E+06
            1192     78.8621E-03     840.832E-06     78.8576E-03     349.227E-03    -174.320E-03    -174.907E-03    -174.896E-03     349.227E-03    -174.330E-03     242.235E-06     350.327E-03     170.546E+06    -143.429E+06    -147.448E+06    -315.941E+06    -146.956E+06    -315.924E+06    -143.939E+06     304.328E+03
            1193     78.8723E-03     1.68013E-03     78.8544E-03     349.179E-03    -174.509E-03    -174.670E-03    -174.509E-03     349.177E-03    -174.669E-03     1.66958E-03     352.590E-03     157.965E+06    -130.955E+06    -142.531E+06    -294.278E+06    -142.540E+06    -294.270E+06    -130.955E+06     903.888E+03
            1194     78.8930E-03     2.52055E-03     78.8527E-03     349.273E-03    -174.526E-03    -174.747E-03    -174.515E-03     349.262E-03    -174.747E-03     4.34624E-03     356.564E-03     143.100E+06    -110.746E+06    -136.106E+06    -264.592E+06    -136.114E+06    -264.584E+06    -110.746E+06     771.794E+03
            1195     78.9253E-03     3.35972E-03     78.8537E-03     349.530E-03    -174.655E-03    -174.874E-03    -174.607E-03     349.482E-03    -174.874E-03     9.43614E-03     362.191E-03     126.212E+06    -86.8331E+06    -126.876E+06    -227.867E+06    -126.894E+06    -227.848E+06    -86.8331E+06     627.485E+03
            1196     78.9739E-03     4.19833E-03     78.8622E-03     349.021E-03    -174.058E-03    -174.964E-03    -173.918E-03     348.882E-03    -174.964E-03     16.5924E-03     368.419E-03     107.968E+06    -61.9641E+06    -115.873E+06    -185.649E+06    -115.898E+06    -185.624E+06    -61.9641E+06     371.393E+03
            1197     79.0404E-03     5.04018E-03     78.8796E-03     348.168E-03    -173.226E-03    -174.942E-03    -172.920E-03     347.862E-03    -174.942E-03     24.8785E-03     375.376E-03     93.4489E+06    -37.7704E+06    -105.034E+06    -143.476E+06    -105.048E+06    -143.462E+06    -37.7704E+06     41.3018E+03
            1198     79.1252E-03     5.88067E-03     78.9064E-03     348.185E-03    -173.308E-03    -174.877E-03    -172.695E-03     347.572E-03    -174.877E-03     35.2271E-03     383.910E-03     82.9917E+06    -14.9481E+06    -86.3026E+06    -105.939E+06    -94.2695E+06    -97.9721E+06    -14.9481E+06    -120.753E+03
            1199     79.2406E-03     6.72118E-03     78.9550E-03     348.499E-03    -173.661E-03    -174.839E-03    -172.598E-03     347.437E-03    -174.839E-03     46.7277E-03     392.946E-03     81.9672E+06     8.18543E+06    -42.4816E+06    -82.8846E+06    -82.8742E+06    -42.4920E+06     8.18543E+06    -56.2190E+03
            1200     79.3763E-03     7.56182E-03     79.0153E-03     348.800E-03    -173.990E-03    -174.810E-03    -172.250E-03     347.060E-03    -174.810E-03     59.7546E-03     401.490E-03     88.8504E+06     27.1142E+06     1.40897E+06    -71.4905E+06    -71.4895E+06     1.40798E+06     27.1142E+06     88.1055E+03
            1201     79.5400E-03     8.40172E-03     79.0951E-03     349.644E-03    -174.524E-03    -175.121E-03    -172.283E-03     347.062E-03    -174.778E-03     73.1884E-03     409.347E-03     90.4312E+06     37.4797E+06     18.5627E+06    -60.9133E+06    -60.9122E+06     18.5616E+06     37.4797E+06     26.3294E+03
            1202     79.7297E-03     9.24471E-03     79.1920E-03     350.835E-03    -174.766E-03    -176.069E-03    -172.638E-03     347.404E-03    -174.766E-03     84.5866E-03     416.320E-03     87.8756E+06     44.4093E+06     24.7303E+06    -51.6311E+06    -51.6296E+06     24.7288E+06     44.4093E+06    -202.577E+03
            1203     79.9448E-03     10.0820E-03     79.3065E-03     351.917E-03    -174.768E-03    -177.149E-03    -172.648E-03     347.417E-03    -174.768E-03     96.9270E-03     422.585E-03     86.8525E+06     52.7377E+06     29.2705E+06    -43.3986E+06    -43.3927E+06     29.2646E+06     52.7377E+06    -491.303E+03
            1204     80.1880E-03     10.9249E-03     79.4403E-03     353.289E-03    -174.769E-03    -178.520E-03    -173.107E-03     347.876E-03    -174.769E-03     106.724E-03     428.000E-03     86.7012E+06     61.5591E+06     33.5648E+06    -35.6660E+06    -35.6541E+06     33.5529E+06     61.5591E+06    -574.925E+03
            1205     80.4442E-03     11.7668E-03     79.5790E-03     356.425E-03    -174.781E-03    -181.644E-03    -174.446E-03     349.227E-03    -174.781E-03     122.978E-03     439.218E-03     86.4442E+06     68.4196E+06     40.7070E+06    -28.4645E+06    -28.4561E+06     40.6986E+06     68.4196E+06    -149.764E+03
            1206     80.7506E-03     12.6041E-03     79.7608E-03     357.191E-03    -174.797E-03    -182.394E-03    -174.561E-03     349.358E-03    -174.797E-03     128.866E-03     443.256E-03     89.1275E+06     76.7476E+06     52.4390E+06    -21.9888E+06    -21.9834E+06     52.4336E+06     76.7476E+06     63.4436E+03
            1207     81.0451E-03     13.4468E-03     79.9217E-03     365.372E-03    -174.826E-03    -190.546E-03    -177.236E-03     352.063E-03    -174.826E-03     165.200E-03     469.533E-03     101.371E+06     95.3448E+06     71.7811E+06    -15.7228E+06    -15.7185E+06     71.7768E+06     95.3448E+06    -13.5312E+03
            1208     81.4720E-03     14.2888E-03     80.2092E-03     365.561E-03    -174.883E-03    -190.678E-03    -177.868E-03     352.751E-03    -174.883E-03     160.781E-03     460.801E-03     118.574E+06     122.538E+06     91.8986E+06    -8.28214E+06    -8.27971E+06     91.8962E+06     122.538E+06     122.078E+03
            1209     80.2782E-03     839.466E-06     80.2738E-03     349.708E-03    -174.041E-03    -175.668E-03    -175.439E-03     349.708E-03    -174.269E-03    -768.468E-06     350.842E-03     169.653E+06    -144.824E+06    -150.574E+06    -317.268E+06    -149.400E+06    -317.264E+06    -146.002E+06     120.445E+03
            1210     80.2890E-03     1.68023E-03     80.2714E-03     349.223E-03    -174.380E-03    -174.843E-03    -174.380E-03     349.222E-03    -174.842E-03     457.443E-06     352.657E-03     158.368E+06    -131.167E+06    -143.759E+06    -295.375E+06    -143.760E+06    -295.374E+06    -131.167E+06     27.5473E+03
            1211     80.3091E-03     2.51978E-03     80.2696E-03     349.085E-03    -174.290E-03    -174.794E-03    -174.281E-03     349.075E-03    -174.794E-03     3.90740E-03     356.386E-03     143.531E+06    -110.974E+06    -136.085E+06    -265.173E+06    -136.091E+06    -265.167E+06    -110.974E+06     521.949E+03
            1212     80.3423E-03     3.36015E-03     80.2720E-03     348.838E-03    -174.034E-03    -174.804E-03    -173.986E-03     348.790E-03    -174.804E-03     9.39662E-03     361.544E-03     125.783E+06    -87.0867E+06    -127.025E+06    -227.591E+06    -127.040E+06    -227.576E+06    -87.0867E+06     500.599E+03
            1213     80.3902E-03     4.20084E-03     80.2804E-03     348.506E-03    -173.701E-03    -174.804E-03    -173.568E-03     348.372E-03    -174.804E-03     16.2799E-03     367.899E-03     107.194E+06    -62.6312E+06    -116.761E+06    -185.509E+06    -116.782E+06    -185.488E+06    -62.6312E+06     269.257E+03
            1214     80.4527E-03     5.04051E-03     80.2946E-03     348.771E-03    -173.936E-03    -174.835E-03    -173.627E-03     348.462E-03    -174.835E-03     24.8937E-03     375.974E-03     93.5909E+06    -37.9766E+06    -105.812E+06    -143.691E+06    -105.829E+06    -143.674E+06    -37.9766E+06     324.528E+03
            1215     80.5418E-03     5.88015E-03     80.3269E-03     348.870E-03    -173.982E-03    -174.888E-03    -173.363E-03     348.251E-03    -174.888E-03     35.5141E-03     384.599E-03     83.3922E+06    -14.3321E+06    -86.3458E+06    -105.654E+06    -94.5109E+06    -97.4891E+06    -14.3321E+06     191.838E+03
            1216     80.6516E-03     6.71957E-03     80.3712E-03     348.394E-03    -173.512E-03    -174.882E-03    -172.424E-03     347.306E-03    -174.882E-03     47.1910E-03     392.834E-03     82.1270E+06     8.39119E+06    -42.5151E+06    -82.9059E+06    -82.8933E+06    -42.5277E+06     8.39119E+06    -100.387E+03
            1217     80.7867E-03     7.56127E-03     80.4321E-03     348.778E-03    -173.915E-03    -174.864E-03    -172.211E-03     347.044E-03    -174.833E-03     59.7669E-03     401.432E-03     88.5896E+06     26.7808E+06     1.33757E+06    -71.4571E+06    -71.4563E+06     1.33677E+06     26.7808E+06    -212.635E+03
            1218     80.9497E-03     8.40324E-03     80.5124E-03     349.826E-03    -174.647E-03    -175.179E-03    -172.491E-03     347.298E-03    -174.807E-03     72.4021E-03     409.369E-03     90.3267E+06     37.1804E+06     18.6176E+06    -60.9848E+06    -60.9840E+06     18.6169E+06     37.1804E+06    -230.471E+03
            1219     81.1389E-03     9.24063E-03     80.6110E-03     350.738E-03    -174.798E-03    -175.940E-03    -172.490E-03     347.288E-03    -174.798E-03     84.7455E-03     416.268E-03     87.8622E+06     44.5404E+06     24.8539E+06    -51.4874E+06    -51.4851E+06     24.8517E+06     44.5404E+06    -269.252E+03
            1220     81.3513E-03     10.0840E-03     80.7239E-03     351.872E-03    -174.788E-03    -177.084E-03    -172.587E-03     347.375E-03    -174.788E-03     96.9334E-03     422.664E-03     86.7552E+06     52.9297E+06     29.5485E+06    -43.0869E+06    -43.0838E+06     29.5454E+06     52.9297E+06    -144.696E+03
            1221     81.5889E-03     10.9253E-03     80.8541E-03     353.184E-03    -174.781E-03    -178.403E-03    -173.008E-03     347.789E-03    -174.781E-03     106.497E-03     427.689E-03     86.6096E+06     61.5240E+06     33.6501E+06    -35.5733E+06    -35.5643E+06     33.6411E+06     61.5240E+06    -157.301E+03
            1222     81.8513E-03     11.7641E-03     81.0015E-03     356.037E-03    -174.774E-03    -181.263E-03    -174.052E-03     348.825E-03    -174.774E-03     123.032E-03     438.686E-03     86.2629E+06     68.1646E+06     40.3434E+06    -28.5594E+06    -28.5499E+06     40.3339E+06     68.1646E+06    -161.849E+03
            1223     82.1497E-03     12.6071E-03     81.1765E-03     357.152E-03    -174.774E-03    -182.378E-03    -174.514E-03     349.288E-03    -174.774E-03     129.142E-03     443.293E-03     88.5663E+06     76.2781E+06     51.7787E+06    -21.9377E+06    -21.9323E+06     51.7733E+06     76.2781E+06     39.7418E+03
            1224     82.4435E-03     13.4480E-03     81.3393E-03     365.514E-03    -174.808E-03    -190.706E-03    -177.334E-03     352.142E-03    -174.808E-03     165.715E-03     469.618E-03     100.989E+06     95.7143E+06     71.3192E+06    -15.2313E+06    -15.2224E+06     71.3103E+06     95.7143E+06     367.010E+03
            1225     82.8675E-03     14.2889E-03     81.6263E-03     365.755E-03    -174.876E-03    -190.879E-03    -178.091E-03     352.967E-03    -174.876E-03     160.537E-03     460.989E-03     118.891E+06     123.407E+06     92.0932E+06    -7.96345E+06    -7.95792E+06     92.0877E+06     123.407E+06     201.569E+03
            1226     81.6964E-03     838.870E-06     81.6921E-03     350.293E-03    -174.439E-03    -175.854E-03    -175.610E-03     350.292E-03    -174.682E-03    -803.053E-06     351.463E-03     169.044E+06    -143.897E+06    -150.742E+06    -316.254E+06    -149.567E+06    -316.251E+06    -145.075E+06    -618.140E+03
            1227     81.7052E-03     1.67850E-03     81.6880E-03     349.634E-03    -174.487E-03    -175.148E-03    -174.520E-03     349.633E-03    -175.113E-03     962.285E-06     353.112E-03     160.351E+06    -129.293E+06    -142.816E+06    -295.898E+06    -142.817E+06    -295.897E+06    -129.293E+06    -374.679E+03
            1228     81.7257E-03     2.51948E-03     81.6868E-03     349.053E-03    -174.086E-03    -174.967E-03    -174.076E-03     349.043E-03    -174.967E-03     4.08804E-03     356.398E-03     145.381E+06    -110.228E+06    -135.074E+06    -266.269E+06    -135.075E+06    -266.267E+06    -110.228E+06     131.879E+03
            1229     81.7576E-03     3.35971E-03     81.6885E-03     348.553E-03    -173.696E-03    -174.857E-03    -173.659E-03     348.517E-03    -174.857E-03     8.39966E-03     361.259E-03     125.552E+06    -87.4472E+06    -126.045E+06    -227.356E+06    -126.055E+06    -227.346E+06    -87.4472E+06     320.458E+03
            1230     81.8036E-03     4.20080E-03     81.6957E-03     348.503E-03    -173.691E-03    -174.812E-03    -173.576E-03     348.388E-03    -174.812E-03     14.9485E-03     367.818E-03     107.364E+06    -61.9523E+06    -115.634E+06    -184.954E+06    -115.647E+06    -184.942E+06    -61.9523E+06    -19.7415E+03
            1231     81.8700E-03     5.04090E-03     81.7147E-03     348.756E-03    -173.915E-03    -174.841E-03    -173.614E-03     348.455E-03    -174.841E-03     24.5032E-03     375.884E-03     94.4155E+06    -37.3259E+06    -104.556E+06    -144.435E+06    -104.565E+06    -144.425E+06    -37.3259E+06    -109.062E+03
            1232     81.9562E-03     5.87998E-03     81.7450E-03     348.545E-03    -173.675E-03    -174.870E-03    -173.061E-03     347.931E-03    -174.870E-03     35.3676E-03     384.303E-03     83.7102E+06    -13.8424E+06    -84.8756E+06    -106.059E+06    -93.2053E+06    -97.7292E+06    -13.8424E+06     402.943E+03
            1233     82.0633E-03     6.72188E-03     81.7875E-03     348.612E-03    -173.753E-03    -174.858E-03    -172.658E-03     347.516E-03    -174.858E-03     47.3329E-03     393.030E-03     81.8769E+06     8.80759E+06    -41.8745E+06    -82.3179E+06    -82.3048E+06    -41.8876E+06     8.80759E+06     341.903E+03
            1234     82.1992E-03     7.56150E-03     81.8506E-03     349.189E-03    -174.315E-03    -174.874E-03    -172.576E-03     347.419E-03    -174.843E-03     60.4044E-03     401.792E-03     88.5478E+06     26.5889E+06     1.24670E+06    -71.5514E+06    -71.5500E+06     1.24523E+06     26.5889E+06    -2.08211E+03
            1235     82.3602E-03     8.39961E-03     81.9307E-03     349.590E-03    -174.671E-03    -174.920E-03    -172.176E-03     346.995E-03    -174.819E-03     73.2985E-03     409.243E-03     90.4087E+06     37.0964E+06     18.7921E+06    -61.0625E+06    -61.0615E+06     18.7911E+06     37.0964E+06    -149.848E+03
            1236     82.5464E-03     9.24409E-03     82.0272E-03     350.639E-03    -174.773E-03    -175.866E-03    -172.331E-03     347.116E-03    -174.785E-03     85.6549E-03     415.985E-03     88.2252E+06     44.5385E+06     24.7660E+06    -51.8862E+06    -51.8830E+06     24.7629E+06     44.5385E+06    -190.905E+03
            1237     82.7576E-03     10.0836E-03     82.1409E-03     352.430E-03    -174.789E-03    -177.641E-03    -173.157E-03     347.946E-03    -174.789E-03     96.9609E-03     423.109E-03     86.8571E+06     52.3584E+06     28.9395E+06    -43.7759E+06    -43.7661E+06     28.9297E+06     52.3584E+06    -292.287E+03
            1238     82.9962E-03     10.9223E-03     82.2744E-03     353.094E-03    -174.803E-03    -178.292E-03    -172.913E-03     347.716E-03    -174.803E-03     106.295E-03     427.859E-03     86.5126E+06     61.5437E+06     33.7329E+06    -35.4364E+06    -35.4254E+06     33.7219E+06     61.5437E+06     136.991E+03
            1239     83.2498E-03     11.7667E-03     82.4141E-03     355.461E-03    -174.766E-03    -180.694E-03    -173.364E-03     348.130E-03    -174.766E-03     123.876E-03     437.960E-03     86.1765E+06     68.3122E+06     40.2038E+06    -28.3976E+06    -28.3930E+06     40.1991E+06     68.3122E+06     267.852E+03
            1240     83.5541E-03     12.6067E-03     82.5975E-03     357.218E-03    -174.744E-03    -182.474E-03    -174.664E-03     349.408E-03    -174.744E-03     128.608E-03     443.242E-03     88.5039E+06     75.8493E+06     51.3560E+06    -22.2863E+06    -22.2836E+06     51.3533E+06     75.8493E+06    -206.026E+03
            1241     83.8398E-03     13.4471E-03     82.7544E-03     365.719E-03    -174.800E-03    -190.919E-03    -177.705E-03     352.505E-03    -174.800E-03     164.444E-03     469.988E-03     100.923E+06     95.5870E+06     71.2891E+06    -15.2650E+06    -15.2556E+06     71.2797E+06     95.5870E+06    -2.02160E+03
            1242     84.2658E-03     14.2892E-03     83.0454E-03     365.620E-03    -174.880E-03    -190.740E-03    -177.946E-03     352.826E-03    -174.880E-03     160.611E-03     460.859E-03     118.686E+06     123.471E+06     92.0390E+06    -7.73138E+06    -7.72375E+06     92.0314E+06     123.471E+06     125.801E+03
            1243     83.1155E-03     840.570E-06     83.1113E-03     349.641E-03    -174.384E-03    -175.257E-03    -174.592E-03     349.640E-03    -175.048E-03     81.8282E-06     350.796E-03     170.522E+06    -141.047E+06    -147.323E+06    -314.618E+06    -145.808E+06    -314.616E+06    -142.565E+06    -178.809E+03
            1244     83.1230E-03     1.67977E-03     83.1060E-03     349.970E-03    -174.746E-03    -175.223E-03    -175.027E-03     349.968E-03    -174.941E-03     1.31219E-03     353.458E-03     160.464E+06    -130.107E+06    -142.142E+06    -296.162E+06    -142.146E+06    -296.158E+06    -130.107E+06    -488.216E+03
            1245     83.1418E-03     2.51904E-03     83.1037E-03     349.448E-03    -174.359E-03    -175.089E-03    -174.422E-03     349.438E-03    -175.016E-03     4.17382E-03     356.777E-03     145.808E+06    -110.313E+06    -134.503E+06    -266.528E+06    -134.510E+06    -266.521E+06    -110.313E+06    -455.272E+03
            1246     83.1735E-03     3.35948E-03     83.1056E-03     349.164E-03    -174.168E-03    -174.996E-03    -174.129E-03     349.126E-03    -174.996E-03     8.58461E-03     361.811E-03     125.958E+06    -87.2216E+06    -125.058E+06    -227.388E+06    -125.066E+06    -227.380E+06    -87.2216E+06    -151.729E+03
            1247     83.2191E-03     4.19883E-03     83.1131E-03     348.993E-03    -173.993E-03    -175.000E-03    -173.876E-03     348.876E-03    -175.000E-03     15.1215E-03     368.384E-03     107.095E+06    -62.3923E+06    -114.919E+06    -184.994E+06    -114.924E+06    -184.989E+06    -62.3923E+06     131.512E+03
            1248     83.2848E-03     5.03910E-03     83.1322E-03     348.290E-03    -173.308E-03    -174.982E-03    -173.029E-03     348.011E-03    -174.982E-03     23.6809E-03     375.469E-03     94.5828E+06    -37.5091E+06    -104.298E+06    -144.886E+06    -104.300E+06    -144.883E+06    -37.5091E+06     77.6069E+03
            1249     83.3687E-03     5.88144E-03     83.1610E-03     348.044E-03    -173.133E-03    -174.910E-03    -172.550E-03     347.460E-03    -174.910E-03     34.3153E-03     383.701E-03     83.6955E+06    -14.3072E+06    -85.4488E+06    -106.417E+06    -93.2355E+06    -98.6306E+06    -14.3072E+06     18.8047E+03
            1250     83.4776E-03     6.72026E-03     83.2067E-03     348.437E-03    -173.588E-03    -174.849E-03    -172.498E-03     347.347E-03    -174.849E-03     47.1744E-03     392.785E-03     81.5925E+06     8.59719E+06    -42.2110E+06    -82.0613E+06    -82.0425E+06    -42.2298E+06     8.59719E+06     566.447E+03
            1251     83.6109E-03     7.56063E-03     83.2684E-03     348.765E-03    -173.960E-03    -174.804E-03    -172.165E-03     346.970E-03    -174.804E-03     60.7582E-03     401.377E-03     88.7256E+06     27.0450E+06     1.82666E+06    -71.2239E+06    -71.2138E+06     1.81656E+06     27.0450E+06     573.685E+03
            1252     83.7704E-03     8.40434E-03     83.3477E-03     349.517E-03    -174.421E-03    -175.095E-03    -172.172E-03     346.933E-03    -174.761E-03     73.2065E-03     409.178E-03     90.6311E+06     37.1725E+06     19.2200E+06    -61.0898E+06    -61.0890E+06     19.2193E+06     37.1725E+06     115.336E+03
            1253     83.9537E-03     9.24259E-03     83.4434E-03     350.940E-03    -174.734E-03    -176.206E-03    -172.658E-03     347.404E-03    -174.746E-03     85.7672E-03     416.172E-03     88.2018E+06     44.6156E+06     25.0592E+06    -51.7120E+06    -51.7099E+06     25.0571E+06     44.6156E+06     30.9193E+03
            1254     84.1686E-03     10.0827E-03     83.5625E-03     352.247E-03    -174.757E-03    -177.490E-03    -172.901E-03     347.658E-03    -174.757E-03     98.0328E-03     422.822E-03     86.7773E+06     52.8370E+06     29.0446E+06    -43.3098E+06    -43.2979E+06     29.0327E+06     52.8370E+06    -64.2332E+03
            1255     84.3991E-03     10.9253E-03     83.6890E-03     353.332E-03    -174.767E-03    -178.565E-03    -173.180E-03     347.947E-03    -174.767E-03     106.453E-03     428.126E-03     86.2178E+06     60.6366E+06     32.3227E+06    -36.1617E+06    -36.1477E+06     32.3087E+06     60.6366E+06     15.2445E+03
            1256     84.6523E-03     11.7650E-03     83.8308E-03     356.039E-03    -174.767E-03    -181.272E-03    -174.010E-03     348.778E-03    -174.767E-03     123.372E-03     438.614E-03     85.7593E+06     67.7488E+06     39.3272E+06    -28.6029E+06    -28.5993E+06     39.3236E+06     67.7488E+06     117.374E+03
            1257     84.9560E-03     12.6070E-03     84.0154E-03     357.014E-03    -174.766E-03    -182.248E-03    -174.439E-03     349.205E-03    -174.766E-03     128.570E-03     443.037E-03     88.5302E+06     76.9751E+06     52.3610E+06    -21.2113E+06    -21.2094E+06     52.3591E+06     76.9751E+06     280.847E+03
            1258     85.2413E-03     13.4474E-03     84.1739E-03     365.506E-03    -174.804E-03    -190.703E-03    -177.456E-03     352.260E-03    -174.804E-03     164.625E-03     469.790E-03     101.059E+06     96.1344E+06     72.0093E+06    -14.8026E+06    -14.7972E+06     72.0039E+06     96.1344E+06     178.187E+03
            1259     85.6604E-03     14.2880E-03     84.4604E-03     365.567E-03    -174.870E-03    -190.697E-03    -177.846E-03     352.716E-03    -174.870E-03     161.075E-03     460.811E-03     118.605E+06     123.212E+06     91.8586E+06    -7.88170E+06    -7.87774E+06     91.8546E+06     123.212E+06    -106.590E+03
            1260     84.5310E-03     840.223E-06     84.5268E-03     349.433E-03    -174.019E-03    -175.414E-03    -174.652E-03     349.432E-03    -174.780E-03     153.493E-06     350.550E-03     172.393E+06    -140.451E+06    -146.229E+06    -315.660E+06    -144.712E+06    -315.659E+06    -141.969E+06     214.889E+03
            1261     84.5422E-03     1.67987E-03     84.5255E-03     349.869E-03    -174.738E-03    -175.131E-03    -175.019E-03     349.869E-03    -174.850E-03     883.016E-06     353.329E-03     160.154E+06    -129.427E+06    -140.569E+06    -294.772E+06    -140.572E+06    -294.770E+06    -129.427E+06    -211.540E+03
            1262     84.5588E-03     2.51929E-03     84.5212E-03     349.920E-03    -174.793E-03    -175.127E-03    -174.891E-03     349.911E-03    -175.020E-03     3.71255E-03     357.242E-03     145.645E+06    -110.165E+06    -133.928E+06    -266.043E+06    -133.934E+06    -266.037E+06    -110.165E+06    -578.767E+03
            1263     84.5898E-03     3.35898E-03     84.5231E-03     349.428E-03    -174.340E-03    -175.088E-03    -174.296E-03     349.384E-03    -175.088E-03     9.05953E-03     362.099E-03     126.702E+06    -87.3299E+06    -125.254E+06    -228.289E+06    -125.260E+06    -228.283E+06    -87.3299E+06    -149.526E+03
            1264     84.6370E-03     4.19875E-03     84.5328E-03     348.896E-03    -173.822E-03    -175.074E-03    -173.689E-03     348.762E-03    -175.074E-03     16.1885E-03     368.275E-03     107.439E+06    -63.0916E+06    -115.561E+06    -186.077E+06    -115.568E+06    -186.070E+06    -63.0916E+06     499.042E+03
            1265     84.6982E-03     5.03890E-03     84.5482E-03     348.492E-03    -173.459E-03    -175.034E-03    -173.154E-03     348.188E-03    -175.034E-03     24.7576E-03     375.681E-03     94.2667E+06    -38.1350E+06    -104.781E+06    -145.075E+06    -104.793E+06    -145.063E+06    -38.1350E+06     589.494E+03
            1266     84.7820E-03     5.87856E-03     84.5779E-03     348.187E-03    -173.217E-03    -174.970E-03    -172.605E-03     347.576E-03    -174.970E-03     35.1657E-03     383.855E-03     83.7890E+06    -14.3488E+06    -85.8847E+06    -106.432E+06    -93.6413E+06    -98.6753E+06    -14.3488E+06     349.849E+03
            1267     84.8901E-03     6.72123E-03     84.6236E-03     347.975E-03    -173.098E-03    -174.877E-03    -172.015E-03     346.892E-03    -174.877E-03     47.0434E-03     392.316E-03     81.7058E+06     8.48983E+06    -43.0480E+06    -82.3271E+06    -82.3043E+06    -43.0708E+06     8.48983E+06     430.433E+03
            1268     85.0219E-03     7.56312E-03     84.6848E-03     348.431E-03    -173.644E-03    -174.787E-03    -171.902E-03     346.690E-03    -174.787E-03     59.8151E-03     400.927E-03     88.7807E+06     27.3785E+06     2.09406E+06    -70.8975E+06    -70.8798E+06     2.07636E+06     27.3785E+06     738.201E+03
            1269     85.1802E-03     8.40141E-03     84.7649E-03     349.661E-03    -174.469E-03    -175.192E-03    -172.365E-03     347.106E-03    -174.741E-03     72.7777E-03     409.208E-03     90.9637E+06     37.5645E+06     20.1425E+06    -60.8479E+06    -60.8393E+06     20.1339E+06     37.5645E+06     445.877E+03
            1270     85.3651E-03     9.24310E-03     84.8633E-03     350.530E-03    -174.721E-03    -175.809E-03    -172.299E-03     347.020E-03    -174.721E-03     85.4081E-03     415.951E-03     88.0627E+06     44.2457E+06     25.0109E+06    -51.8300E+06    -51.8272E+06     25.0081E+06     44.2457E+06     58.6778E+03
            1271     85.5727E-03     10.0856E-03     84.9762E-03     351.763E-03    -174.703E-03    -177.061E-03    -172.493E-03     347.196E-03    -174.703E-03     97.6935E-03     422.229E-03     86.6753E+06     52.4718E+06     28.7381E+06    -43.5524E+06    -43.5446E+06     28.7303E+06     52.4718E+06     144.748E+03
            1272     85.8078E-03     10.9254E-03     85.1094E-03     353.861E-03    -174.727E-03    -179.134E-03    -173.766E-03     348.493E-03    -174.727E-03     106.412E-03     428.490E-03     86.7919E+06     61.3540E+06     32.8591E+06    -36.0870E+06    -36.0804E+06     32.8524E+06     61.3540E+06     17.5981E+03
            1273     86.0580E-03     11.7647E-03     85.2500E-03     356.641E-03    -174.774E-03    -181.867E-03    -174.635E-03     349.409E-03    -174.774E-03     123.229E-03     439.451E-03     86.2422E+06     67.9669E+06     39.2479E+06    -28.9623E+06    -28.9580E+06     39.2436E+06     67.9669E+06    -298.021E+03
            1274     86.3550E-03     12.6052E-03     85.4301E-03     356.818E-03    -174.782E-03    -182.035E-03    -174.187E-03     348.969E-03    -174.782E-03     128.877E-03     442.881E-03     88.0799E+06     75.9281E+06     51.0780E+06    -21.8625E+06    -21.8575E+06     51.0730E+06     75.9281E+06    -75.2455E+03
            1275     86.6419E-03     13.4483E-03     85.5918E-03     364.982E-03    -174.796E-03    -190.186E-03    -176.946E-03     351.742E-03    -174.796E-03     164.603E-03     469.171E-03     100.626E+06     95.7171E+06     71.7541E+06    -14.7223E+06    -14.7192E+06     71.7510E+06     95.7171E+06     232.107E+03
            1276     87.0591E-03     14.2903E-03     85.8782E-03     365.736E-03    -174.860E-03    -190.876E-03    -178.105E-03     352.965E-03    -174.860E-03     160.528E-03     460.994E-03     118.736E+06     124.052E+06     92.4323E+06    -7.23545E+06    -7.23138E+06     92.4282E+06     124.052E+06     239.165E+03
            1277     85.9479E-03     839.076E-06     85.9438E-03     350.017E-03    -174.634E-03    -175.383E-03    -175.164E-03     350.016E-03    -174.853E-03    -321.038E-06     351.131E-03     171.930E+06    -142.176E+06    -148.502E+06    -317.175E+06    -147.442E+06    -317.171E+06    -143.241E+06     569.343E+03
            1278     85.9591E-03     1.67964E-03     85.9427E-03     349.653E-03    -174.603E-03    -175.050E-03    -174.636E-03     349.652E-03    -175.016E-03     1.19759E-03     353.084E-03     159.092E+06    -129.278E+06    -142.120E+06    -294.308E+06    -142.125E+06    -294.303E+06    -129.278E+06     672.185E+03
            1279     85.9774E-03     2.51920E-03     85.9405E-03     349.759E-03    -174.701E-03    -175.058E-03    -174.724E-03     349.748E-03    -175.024E-03     4.16381E-03     357.061E-03     144.448E+06    -110.068E+06    -135.325E+06    -265.284E+06    -135.328E+06    -265.282E+06    -110.068E+06     389.372E+03
            1280     86.0070E-03     3.35831E-03     85.9415E-03     349.361E-03    -174.295E-03    -175.066E-03    -174.251E-03     349.317E-03    -175.066E-03     9.16992E-03     362.092E-03     127.056E+06    -87.4599E+06    -126.764E+06    -229.176E+06    -126.764E+06    -229.175E+06    -87.4599E+06     14.3054E+03
            1281     86.0509E-03     4.19971E-03     85.9484E-03     348.513E-03    -173.492E-03    -175.022E-03    -173.363E-03     348.385E-03    -175.022E-03     15.8449E-03     367.942E-03     108.163E+06    -63.1982E+06    -116.209E+06    -187.071E+06    -116.213E+06    -187.066E+06    -63.1982E+06     182.113E+03
            1282     86.1145E-03     5.04047E-03     85.9669E-03     348.324E-03    -173.374E-03    -174.951E-03    -173.061E-03     348.012E-03    -174.951E-03     24.9978E-03     375.466E-03     94.0628E+06    -38.5320E+06    -105.269E+06    -145.103E+06    -105.290E+06    -145.082E+06    -38.5320E+06     708.120E+03
            1283     86.1964E-03     5.88086E-03     85.9955E-03     348.443E-03    -173.530E-03    -174.912E-03    -172.898E-03     347.810E-03    -174.912E-03     35.8462E-03     384.118E-03     83.7414E+06    -14.5787E+06    -86.3793E+06    -106.499E+06    -94.3227E+06    -98.5559E+06    -14.5787E+06     758.770E+03
            1284     86.3019E-03     6.71992E-03     86.0399E-03     348.455E-03    -173.579E-03    -174.875E-03    -172.485E-03     347.360E-03    -174.875E-03     47.3830E-03     392.857E-03     82.0875E+06     8.43187E+06    -43.4037E+06    -82.8735E+06    -82.8509E+06    -43.4263E+06     8.43187E+06     593.355E+03
            1285     86.4327E-03     7.56026E-03     86.1014E-03     348.710E-03    -173.886E-03    -174.825E-03    -172.143E-03     346.967E-03    -174.825E-03     59.8722E-03     401.223E-03     89.0685E+06     26.7878E+06     1.72452E+06    -71.6776E+06    -71.6611E+06     1.70807E+06     26.7878E+06     600.352E+03
            1286     86.5919E-03     8.40325E-03     86.1832E-03     349.286E-03    -174.401E-03    -174.885E-03    -171.953E-03     346.721E-03    -174.768E-03     72.8563E-03     408.834E-03     91.3319E+06     37.4924E+06     20.5124E+06    -61.1337E+06    -61.1220E+06     20.5007E+06     37.4924E+06     507.643E+03
            1287     86.7731E-03     9.24347E-03     86.2793E-03     350.487E-03    -174.698E-03    -175.789E-03    -172.325E-03     347.055E-03    -174.729E-03     84.5535E-03     415.891E-03     88.5128E+06     44.3044E+06     25.1389E+06    -52.2062E+06    -52.2011E+06     25.1338E+06     44.3044E+06     401.360E+03
            1288     86.9792E-03     10.0837E-03     86.3927E-03     352.048E-03    -174.730E-03    -177.317E-03    -172.858E-03     347.589E-03    -174.730E-03     96.5419E-03     422.501E-03     87.1764E+06     52.4429E+06     28.7140E+06    -44.0961E+06    -44.0894E+06     28.7073E+06     52.4429E+06     303.108E+03
            1289     87.2155E-03     10.9249E-03     86.5286E-03     353.144E-03    -174.742E-03    -178.402E-03    -173.026E-03     347.768E-03    -174.742E-03     106.325E-03     427.761E-03     87.2539E+06     61.6081E+06     33.3731E+06    -36.2556E+06    -36.2492E+06     33.3667E+06     61.6081E+06    -18.3700E+03
            1290     87.4633E-03     11.7660E-03     86.6682E-03     356.087E-03    -174.739E-03    -181.348E-03    -174.059E-03     348.798E-03    -174.739E-03     123.617E-03     438.730E-03     86.5464E+06     67.9928E+06     39.3484E+06    -29.2412E+06    -29.2366E+06     39.3438E+06     67.9928E+06    -313.984E+03
            1291     87.7591E-03     12.6068E-03     86.8489E-03     357.438E-03    -174.748E-03    -182.691E-03    -174.811E-03     349.558E-03    -174.748E-03     129.268E-03     443.534E-03     88.4217E+06     75.4802E+06     50.3744E+06    -22.7298E+06    -22.7212E+06     50.3658E+06     75.4802E+06    -575.461E+03
            1292     88.0391E-03     13.4471E-03     87.0060E-03     365.562E-03    -174.804E-03    -190.759E-03    -177.582E-03     352.386E-03    -174.804E-03     164.426E-03     470.069E-03     101.062E+06     95.2207E+06     71.4250E+06    -15.6100E+06    -15.6044E+06     71.4194E+06     95.2207E+06    -437.700E+03
            1293     88.4580E-03     14.2884E-03     87.2964E-03     365.618E-03    -174.887E-03    -190.730E-03    -178.034E-03     352.921E-03    -174.887E-03     160.096E-03     461.001E-03     118.975E+06     123.531E+06     92.4387E+06    -7.84486E+06    -7.84225E+06     92.4361E+06     123.531E+06     147.510E+03
            1294     87.3670E-03     839.795E-06     87.3630E-03     349.970E-03    -174.703E-03    -175.267E-03    -175.160E-03     349.970E-03    -174.810E-03     367.518E-06     351.088E-03     171.684E+06    -143.375E+06    -149.060E+06    -317.819E+06    -147.236E+06    -317.815E+06    -145.203E+06     466.033E+03
            1295     87.3756E-03     1.67892E-03     87.3594E-03     349.554E-03    -174.553E-03    -175.001E-03    -174.566E-03     349.552E-03    -174.986E-03     1.66350E-03     353.003E-03     159.335E+06    -130.374E+06    -143.706E+06    -295.857E+06    -143.712E+06    -295.852E+06    -130.374E+06     761.774E+03
            1296     87.3943E-03     2.51971E-03     87.3580E-03     349.202E-03    -174.273E-03    -174.928E-03    -174.260E-03     349.189E-03    -174.928E-03     4.76800E-03     356.513E-03     144.517E+06    -110.031E+06    -136.064E+06    -265.602E+06    -136.073E+06    -265.593E+06    -110.031E+06     892.909E+03
            1297     87.4245E-03     3.36012E-03     87.3599E-03     349.218E-03    -174.289E-03    -174.929E-03    -174.244E-03     349.173E-03    -174.929E-03     9.32325E-03     361.893E-03     127.074E+06    -86.7258E+06    -126.845E+06    -228.661E+06    -126.858E+06    -228.647E+06    -86.7258E+06     846.877E+03
            1298     87.4665E-03     4.19870E-03     87.3656E-03     348.855E-03    -173.905E-03    -174.950E-03    -173.782E-03     348.733E-03    -174.950E-03     15.5444E-03     368.350E-03     108.413E+06    -63.2708E+06    -117.236E+06    -187.497E+06    -117.243E+06    -187.490E+06    -63.2708E+06     389.278E+03
            1299     87.5277E-03     5.03968E-03     87.3825E-03     348.148E-03    -173.228E-03    -174.920E-03    -172.930E-03     347.851E-03    -174.920E-03     24.3528E-03     375.321E-03     94.3414E+06    -38.6860E+06    -105.890E+06    -145.593E+06    -105.903E+06    -145.580E+06    -38.6860E+06     421.109E+03
            1300     87.6111E-03     5.88060E-03     87.4135E-03     348.136E-03    -173.277E-03    -174.859E-03    -172.662E-03     347.521E-03    -174.859E-03     35.3054E-03     383.712E-03     83.7204E+06    -14.7357E+06    -86.3785E+06    -106.695E+06    -94.3892E+06    -98.6841E+06    -14.7357E+06     723.389E+03
            1301     87.7158E-03     6.72175E-03     87.4579E-03     348.684E-03    -173.857E-03    -174.828E-03    -172.741E-03     347.569E-03    -174.828E-03     47.7650E-03     393.028E-03     82.0730E+06     8.17118E+06    -43.8621E+06    -83.1987E+06    -83.1748E+06    -43.8861E+06     8.17118E+06     665.453E+03
            1302     87.8461E-03     7.56175E-03     87.5201E-03     349.117E-03    -174.218E-03    -174.899E-03    -172.524E-03     347.341E-03    -174.818E-03     60.5468E-03     401.732E-03     89.4468E+06     26.7795E+06     1.62039E+06    -72.0458E+06    -72.0289E+06     1.60344E+06     26.7795E+06     680.931E+03
            1303     88.0000E-03     8.40102E-03     87.5981E-03     349.744E-03    -174.520E-03    -175.224E-03    -172.401E-03     347.207E-03    -174.806E-03     72.5651E-03     409.404E-03     92.0624E+06     37.7321E+06     20.7608E+06    -61.6276E+06    -61.6154E+06     20.7486E+06     37.7321E+06     611.754E+03
            1304     88.1830E-03     9.24330E-03     87.6972E-03     350.820E-03    -174.770E-03    -176.050E-03    -172.612E-03     347.413E-03    -174.801E-03     84.2603E-03     416.300E-03     89.0486E+06     44.9985E+06     25.5518E+06    -52.1526E+06    -52.1489E+06     25.5482E+06     44.9985E+06     239.511E+03
            1305     88.3897E-03     10.0827E-03     87.8127E-03     351.846E-03    -174.797E-03    -177.049E-03    -172.579E-03     347.377E-03    -174.797E-03     96.6043E-03     422.527E-03     86.9638E+06     52.8915E+06     28.8430E+06    -43.5127E+06    -43.5086E+06     28.8389E+06     52.8915E+06      188.68E+03
            1306     88.6179E-03     10.9240E-03     87.9420E-03     352.653E-03    -174.771E-03    -177.882E-03    -172.482E-03     347.253E-03    -174.771E-03     106.453E-03     427.273E-03     86.5033E+06     61.8224E+06     33.1663E+06    -35.3615E+06    -35.3548E+06     33.1596E+06     61.8224E+06     238.168E+03
            1307     88.8685E-03     11.7668E-03     88.0860E-03     355.529E-03    -174.730E-03    -180.800E-03    -173.583E-03     348.312E-03    -174.730E-03     122.965E-03     438.047E-03     86.4421E+06     68.4117E+06     39.7342E+06    -28.7128E+06    -28.7095E+06     39.7309E+06     68.4117E+06     113.247E+03
            1308     89.1625E-03     12.6078E-03     88.2666E-03     357.317E-03    -174.729E-03    -182.589E-03    -174.822E-03     349.551E-03    -174.729E-03     128.342E-03     443.358E-03     88.6296E+06     76.5176E+06     50.9464E+06    -22.0525E+06    -22.0469E+06     50.9408E+06     76.5176E+06    -289.101E+03
            1309     89.4437E-03     13.4475E-03     88.4270E-03     366.065E-03    -174.801E-03    -191.264E-03    -178.039E-03     352.839E-03    -174.801E-03     164.755E-03     470.495E-03     100.774E+06     95.8683E+06     70.9248E+06    -15.0209E+06    -15.0152E+06     70.9192E+06     95.8683E+06    -445.459E+03
            1310     89.8555E-03     14.2875E-03     88.7123E-03     365.862E-03    -174.893E-03    -190.969E-03    -178.144E-03     353.037E-03    -174.893E-03     161.110E-03     461.254E-03     118.622E+06     123.022E+06     91.8969E+06    -8.02678E+06    -8.02649E+06     91.8966E+06     123.022E+06    -72.9264E+03
            1311     88.7849E-03     839.999E-06     88.7809E-03     349.481E-03    -174.225E-03    -175.255E-03    -175.174E-03     349.480E-03    -174.306E-03     71.9915E-06     350.614E-03     172.559E+06    -143.494E+06    -148.971E+06    -318.721E+06    -148.207E+06    -318.721E+06    -144.258E+06    -94.3431E+03
            1312     88.7927E-03     1.68029E-03     88.7768E-03     349.372E-03    -174.567E-03    -174.805E-03    -174.580E-03     349.370E-03    -174.790E-03     1.44125E-03     352.835E-03     161.193E+06    -130.250E+06    -142.312E+06    -297.040E+06    -142.315E+06    -297.037E+06    -130.250E+06     461.830E+03
            1313     88.8106E-03     2.51969E-03     88.7749E-03     349.041E-03    -174.242E-03    -174.799E-03    -174.231E-03     349.030E-03    -174.799E-03     4.46247E-03     356.352E-03     146.311E+06    -110.106E+06    -135.350E+06    -267.189E+06    -135.367E+06    -267.171E+06    -110.106E+06     1.35458E+06
            1314     88.8401E-03     3.35996E-03     88.7765E-03     348.700E-03    -173.917E-03    -174.784E-03    -173.871E-03     348.654E-03    -174.784E-03     9.34242E-03     361.319E-03     127.266E+06    -86.9737E+06    -126.769E+06    -229.009E+06    -126.795E+06    -228.983E+06    -86.9737E+06     1.61496E+06
            1315     88.8845E-03     4.20071E-03     88.7851E-03     348.844E-03    -174.038E-03    -174.806E-03    -173.906E-03     348.712E-03    -174.806E-03     16.2066E-03     368.224E-03     108.809E+06    -62.4614E+06    -116.722E+06    -187.130E+06    -116.753E+06    -187.099E+06    -62.4614E+06     1.21623E+06
            1316     88.9420E-03     5.03958E-03     88.7991E-03     348.821E-03    -173.955E-03    -174.867E-03    -173.646E-03     348.513E-03    -174.867E-03     24.8905E-03     375.980E-03     94.5967E+06    -38.3785E+06    -106.230E+06    -145.410E+06    -106.254E+06    -145.387E+06    -38.3785E+06     751.610E+03
            1317     89.0241E-03     5.88062E-03     88.8297E-03     348.398E-03    -173.514E-03    -174.885E-03    -172.906E-03     347.790E-03    -174.885E-03     35.1994E-03     384.094E-03     83.6303E+06    -14.7630E+06    -86.9000E+06    -106.353E+06    -94.6181E+06    -98.6347E+06    -14.7630E+06     257.983E+03
            1318     89.1293E-03     6.72089E-03     88.8756E-03     348.353E-03    -173.501E-03    -174.852E-03    -172.432E-03     347.284E-03    -174.852E-03     46.7748E-03     392.788E-03     82.1674E+06     8.39813E+06    -44.6339E+06    -83.1159E+06    -83.0845E+06    -44.6654E+06     8.39813E+06     369.818E+03
            1319     89.2586E-03     7.56176E-03     88.9377E-03     349.055E-03    -174.151E-03    -174.904E-03    -172.501E-03     347.324E-03    -174.823E-03     59.7208E-03     401.675E-03     89.9718E+06     27.2286E+06     1.23110E+06    -72.2829E+06    -72.2656E+06     1.21382E+06     27.2286E+06     737.356E+03
            1320     89.4134E-03     8.40258E-03     89.0177E-03     350.120E-03    -174.727E-03    -175.393E-03    -172.718E-03     347.540E-03    -174.823E-03     73.1555E-03     409.770E-03     92.5367E+06     38.0388E+06     21.2303E+06    -61.7437E+06    -61.7328E+06     21.2194E+06     38.0388E+06     616.973E+03
            1321     89.5930E-03     9.24021E-03     89.1153E-03     350.815E-03    -174.822E-03    -175.993E-03    -172.477E-03     347.298E-03    -174.822E-03     85.5944E-03     416.291E-03     89.1457E+06     45.1698E+06     25.9797E+06    -51.9920E+06    -51.9887E+06     25.9765E+06     45.1698E+06     262.651E+03
            1322     89.7957E-03     10.0835E-03     89.2277E-03     351.832E-03    -174.805E-03    -177.027E-03    -172.509E-03     347.314E-03    -174.805E-03     97.1747E-03     422.653E-03     86.9034E+06     52.9452E+06     28.9303E+06    -43.3816E+06    -43.3786E+06     28.9273E+06     52.9452E+06    -162.458E+03
            1323     90.0257E-03     10.9251E-03     89.3603E-03     353.148E-03    -174.795E-03    -178.353E-03    -173.006E-03     347.801E-03    -174.795E-03     106.040E-03     427.908E-03     86.2802E+06     61.6781E+06     32.5264E+06    -35.3857E+06    -35.3820E+06     32.5226E+06     61.6781E+06    -23.8507E+03
            1324     90.2715E-03     11.7646E-03     89.5016E-03     355.809E-03    -174.785E-03    -181.024E-03    -173.822E-03     348.607E-03    -174.785E-03     122.823E-03     438.452E-03     86.4310E+06     69.4342E+06     40.4819E+06    -27.7355E+06    -27.7313E+06     40.4778E+06     69.4342E+06     440.118E+03
            1325     90.5660E-03     12.6059E-03     89.6844E-03     356.731E-03    -174.768E-03    -181.964E-03    -174.184E-03     348.952E-03    -174.768E-03     128.285E-03     442.774E-03     88.4286E+06     77.2249E+06     51.4462E+06    -21.2135E+06    -21.2110E+06     51.4436E+06     77.2249E+06     255.983E+03
            1326     90.8454E-03     13.4481E-03     89.8445E-03     365.247E-03    -174.790E-03    -190.457E-03    -177.229E-03     352.019E-03    -174.790E-03     164.501E-03     469.447E-03     100.268E+06     95.5598E+06     69.7748E+06    -15.0733E+06    -15.0727E+06     69.7742E+06     95.5598E+06    -121.706E+03
            1327     91.2572E-03     14.2903E-03     90.1314E-03     366.003E-03    -174.866E-03    -191.138E-03    -178.344E-03     353.210E-03    -174.866E-03     160.733E-03     461.219E-03     118.584E+06     123.354E+06     91.7220E+06    -7.81762E+06    -7.81721E+06     91.7216E+06     123.354E+06    -128.738E+03
            1328     90.2002E-03     839.768E-06     90.1963E-03     349.434E-03    -174.212E-03    -175.221E-03    -175.140E-03     349.433E-03    -174.293E-03    -394.418E-06     350.571E-03     172.374E+06    -142.778E+06    -149.799E+06    -318.552E+06    -147.489E+06    -318.551E+06    -145.090E+06    -273.810E+03
            1329     90.2100E-03     1.67986E-03     90.1944E-03     349.313E-03    -174.517E-03    -174.796E-03    -174.547E-03     349.312E-03    -174.765E-03     964.573E-06     352.785E-03     162.317E+06    -130.884E+06    -143.003E+06    -298.825E+06    -143.006E+06    -298.822E+06    -130.884E+06     383.590E+03
            1330     90.2273E-03     2.52008E-03     90.1921E-03     348.993E-03    -174.223E-03    -174.770E-03    -174.214E-03     348.984E-03    -174.770E-03     3.86045E-03     356.306E-03     147.060E+06    -111.120E+06    -135.788E+06    -268.779E+06    -135.799E+06    -268.768E+06    -111.120E+06     880.750E+03
            1331     90.2556E-03     3.36031E-03     90.1930E-03     348.504E-03    -173.763E-03    -174.741E-03    -173.722E-03     348.463E-03    -174.741E-03     8.73589E-03     361.139E-03     127.789E+06    -87.6292E+06    -126.428E+06    -229.945E+06    -126.445E+06    -229.927E+06    -87.6292E+06     1.15436E+06
            1332     90.2985E-03     4.20110E-03     90.2007E-03     348.465E-03    -173.735E-03    -174.729E-03    -173.611E-03     348.340E-03    -174.729E-03     15.6239E-03     367.762E-03     109.296E+06    -62.0964E+06    -115.664E+06    -187.241E+06    -115.694E+06    -187.211E+06    -62.0964E+06     1.25796E+06
            1333     90.3603E-03     5.04159E-03     90.2196E-03     349.009E-03    -174.213E-03    -174.796E-03    -173.912E-03     348.709E-03    -174.796E-03     24.5620E-03     376.119E-03     94.8761E+06    -37.4747E+06    -104.846E+06    -144.946E+06    -104.926E+06    -144.866E+06    -37.4747E+06     1.32877E+06
            1334     90.4385E-03     5.87940E-03     90.2472E-03     349.010E-03    -174.124E-03    -174.886E-03    -173.509E-03     348.395E-03    -174.886E-03     35.3704E-03     384.811E-03     84.2547E+06    -14.1770E+06    -86.0284E+06    -106.814E+06    -94.6088E+06    -98.2337E+06    -14.1770E+06     1.15008E+06
            1335     90.5426E-03     6.72010E-03     90.2929E-03     348.621E-03    -173.715E-03    -174.906E-03    -172.616E-03     347.522E-03    -174.906E-03     47.4455E-03     393.049E-03     82.6529E+06     8.71155E+06    -45.1325E+06    -83.7208E+06    -83.6203E+06    -45.2329E+06     8.71155E+06     794.395E+03
            1336     90.6704E-03     7.56078E-03     90.3547E-03     348.869E-03    -174.003E-03    -174.866E-03    -172.237E-03     347.103E-03    -174.866E-03     60.3069E-03     401.418E-03     90.1888E+06     27.4441E+06     751.208E+03    -72.3293E+06    -72.3139E+06     735.817E+03     27.4441E+06     713.203E+03
            1337     90.8254E-03     8.40104E-03     90.4361E-03     349.450E-03    -174.486E-03    -174.965E-03    -172.070E-03     346.881E-03    -174.811E-03     72.9462E-03     409.109E-03     92.8383E+06     37.7824E+06     21.8663E+06    -61.9800E+06    -61.9689E+06     21.8552E+06     37.7824E+06     364.236E+03
            1338     91.0029E-03     9.24503E-03     90.5321E-03     350.547E-03    -174.692E-03    -175.855E-03    -172.287E-03     347.060E-03    -174.773E-03     85.1639E-03     415.999E-03     89.2630E+06     44.9002E+06     26.5019E+06    -52.1022E+06    -52.0931E+06     26.4928E+06     44.9002E+06    -148.128E+03
            1339     91.2053E-03     10.0836E-03     90.6461E-03     352.412E-03    -174.779E-03    -177.633E-03    -173.096E-03     347.875E-03    -174.779E-03     97.4751E-03     423.206E-03     87.3079E+06     53.4674E+06     29.3115E+06    -43.3058E+06    -43.2989E+06     29.3046E+06     53.4674E+06    -261.136E+03
            1340     91.4327E-03     10.9229E-03     90.7779E-03     353.813E-03    -174.819E-03    -178.994E-03    -173.638E-03     348.458E-03    -174.819E-03     106.263E-03     428.673E-03     86.7909E+06     61.9187E+06     32.3274E+06    -35.7830E+06    -35.7811E+06     32.3254E+06     61.9187E+06    -104.216E+03
            1341     91.6771E-03     11.7651E-03     90.9191E-03     356.014E-03    -174.833E-03    -181.181E-03    -173.979E-03     348.812E-03    -174.833E-03     122.835E-03     438.732E-03     86.4227E+06     68.6108E+06     39.5897E+06    -28.5632E+06    -28.5610E+06     39.5875E+06     68.6108E+06     155.389E+03
            1342     91.9699E-03     12.6060E-03     91.1018E-03     356.393E-03    -174.805E-03    -181.588E-03    -173.798E-03     348.603E-03    -174.805E-03     128.283E-03     442.572E-03     88.4688E+06     76.3805E+06     51.3380E+06    -21.8830E+06    -21.8806E+06     51.3356E+06     76.3805E+06     225.179E+03
            1343     92.2446E-03     13.4478E-03     91.2591E-03     365.044E-03    -174.807E-03    -190.237E-03    -176.979E-03     351.786E-03    -174.807E-03     164.605E-03     469.248E-03     100.427E+06     95.5778E+06     70.1307E+06    -15.1225E+06    -15.1212E+06     70.1294E+06     95.5778E+06     175.446E+03
            1344     92.6583E-03     14.2886E-03     91.5500E-03     365.748E-03    -174.869E-03    -190.879E-03    -178.090E-03     352.959E-03    -174.869E-03     160.501E-03     460.778E-03     118.717E+06     123.832E+06     91.6541E+06    -7.63766E+06    -7.63620E+06     91.6526E+06     123.832E+06     165.129E+03
            1345     91.6188E-03     840.160E-06     91.6150E-03     349.516E-03    -174.511E-03    -175.005E-03    -174.875E-03     349.515E-03    -174.641E-03    -386.838E-06     350.651E-03     172.961E+06    -142.191E+06    -151.285E+06    -319.515E+06    -148.994E+06    -319.495E+06    -144.502E+06     959.543E+03
            1346     91.6265E-03     1.67946E-03     91.6111E-03     349.428E-03    -174.566E-03    -174.862E-03    -174.613E-03     349.427E-03    -174.814E-03     1.26553E-03     352.898E-03     162.231E+06    -131.322E+06    -144.493E+06    -299.665E+06    -144.499E+06    -299.659E+06    -131.322E+06     190.642E+03
            1347     91.6435E-03     2.51969E-03     91.6089E-03     349.225E-03    -174.371E-03    -174.854E-03    -174.381E-03     349.218E-03    -174.836E-03     3.56181E-03     356.536E-03     146.529E+06    -112.109E+06    -136.582E+06    -269.169E+06    -136.584E+06    -269.167E+06    -112.109E+06    -241.699E+03
            1348     91.6713E-03     3.36000E-03     91.6097E-03     348.929E-03    -174.078E-03    -174.851E-03    -174.043E-03     348.894E-03    -174.851E-03     8.04335E-03     361.564E-03     127.893E+06    -88.4675E+06    -126.860E+06    -230.794E+06    -126.865E+06    -230.788E+06    -88.4675E+06     196.151E+03
            1349     91.7142E-03     4.19971E-03     91.6180E-03     348.570E-03    -173.719E-03    -174.851E-03    -173.601E-03     348.451E-03    -174.851E-03     15.1751E-03     367.894E-03     109.495E+06    -63.3871E+06    -116.420E+06    -188.718E+06    -116.444E+06    -188.694E+06    -63.3871E+06     825.394E+03
            1350     91.7747E-03     5.03996E-03     91.6362E-03     348.349E-03    -173.504E-03    -174.845E-03    -173.208E-03     348.053E-03    -174.845E-03     24.3456E-03     375.416E-03     95.4948E+06    -37.8472E+06    -105.159E+06    -146.095E+06    -105.249E+06    -146.005E+06    -37.8472E+06     1.50026E+06
            1351     91.8559E-03     5.88146E-03     91.6674E-03     348.626E-03    -173.776E-03    -174.850E-03    -173.160E-03     348.010E-03    -174.850E-03     35.3486E-03     384.231E-03       84.44E+06    -13.4079E+06    -85.3202E+06    -106.282E+06    -93.6937E+06    -97.9084E+06    -13.4079E+06     1.81039E+06
            1352     91.9554E-03     6.72072E-03     91.7095E-03     348.914E-03    -174.047E-03    -174.867E-03    -172.933E-03     347.800E-03    -174.867E-03     47.7845E-03     393.327E-03     82.2283E+06     9.24094E+06    -45.0759E+06    -82.7700E+06    -82.6231E+06    -45.2228E+06     9.24094E+06     1.68662E+06
            1353     92.0843E-03     7.56117E-03     91.7733E-03     349.008E-03    -174.152E-03    -174.856E-03    -172.364E-03     347.219E-03    -174.856E-03     60.7163E-03     401.698E-03     90.1312E+06     27.7834E+06     862.943E+03    -71.8560E+06    -71.8081E+06     814.966E+03     27.7834E+06     1.20457E+06
            1354     92.2356E-03     8.40264E-03     91.8521E-03     349.503E-03    -174.450E-03    -175.052E-03    -172.152E-03     346.966E-03    -174.815E-03     72.5508E-03     409.252E-03     93.2644E+06     38.7736E+06     23.4203E+06    -61.2098E+06    -61.1992E+06     23.4097E+06     38.7736E+06     409.239E+03
            1355     92.4120E-03     9.24127E-03     91.9488E-03     350.655E-03    -174.709E-03    -175.946E-03    -172.443E-03     347.233E-03    -174.790E-03     84.3823E-03     416.164E-03     89.8847E+06     45.7346E+06     27.4061E+06    -51.8718E+06    -51.8642E+06     27.3985E+06     45.7346E+06    -295.783E+03
            1356     92.6151E-03     10.0839E-03     92.0645E-03     352.315E-03    -174.799E-03    -177.516E-03    -173.030E-03     347.829E-03    -174.799E-03     96.9075E-03     422.906E-03     87.5410E+06     53.4323E+06     29.0721E+06    -43.6344E+06    -43.6254E+06     29.0631E+06     53.4323E+06    -489.713E+03
            1357     92.8421E-03     10.9250E-03     92.1970E-03     353.689E-03    -174.830E-03    -178.859E-03    -173.507E-03     348.337E-03    -174.830E-03     106.192E-03     428.477E-03     86.5920E+06     61.5053E+06     31.5192E+06    -36.0747E+06    -36.0696E+06     31.5141E+06     61.5053E+06    -292.642E+03
            1358     93.0839E-03     11.7633E-03     92.3376E-03     355.806E-03    -174.830E-03    -180.976E-03    -173.768E-03     348.599E-03    -174.830E-03     122.874E-03     438.706E-03     86.0751E+06     67.8745E+06     38.6198E+06    -28.9830E+06    -28.9825E+06     38.6193E+06     67.8745E+06    -57.1518E+03
            1359     93.3709E-03     12.6055E-03     92.5161E-03     356.588E-03    -174.798E-03    -181.790E-03    -173.914E-03     348.712E-03    -174.798E-03     129.074E-03     442.687E-03     88.3169E+06     76.2562E+06     51.4127E+06    -21.7909E+06    -21.7891E+06     51.4109E+06     76.2562E+06     208.135E+03
            1360     93.6478E-03     13.4474E-03     92.6773E-03     365.545E-03    -174.811E-03    -190.734E-03    -177.309E-03     352.120E-03    -174.811E-03     165.959E-03     469.538E-03     100.355E+06     95.8843E+06     70.5698E+06    -14.7035E+06    -14.7000E+06     70.5663E+06     95.8843E+06     498.537E+03
            1361     94.0587E-03     14.2888E-03     92.9671E-03     365.578E-03    -174.870E-03    -190.708E-03    -177.823E-03     352.693E-03    -174.870E-03     161.135E-03     460.638E-03     118.712E+06     123.911E+06     91.6233E+06    -7.58583E+06    -7.58345E+06     91.6209E+06     123.911E+06     442.611E+03
            1362     93.0341E-03     839.461E-06     93.0303E-03     349.714E-03    -174.696E-03    -175.018E-03    -174.885E-03     349.713E-03    -174.828E-03    -477.020E-06     350.850E-03     174.654E+06    -143.450E+06    -151.607E+06    -322.025E+06    -149.524E+06    -322.005E+06    -145.553E+06     933.238E+03
            1363     93.0442E-03     1.68041E-03     93.0290E-03     349.583E-03    -174.661E-03    -174.922E-03    -174.677E-03     349.582E-03    -174.905E-03     948.983E-06     353.030E-03     162.377E+06    -130.518E+06    -143.364E+06    -298.825E+06    -143.379E+06    -298.810E+06    -130.518E+06     664.513E+03
            1364     93.0606E-03     2.51945E-03     93.0265E-03     349.541E-03    -174.580E-03    -174.961E-03    -174.589E-03     349.533E-03    -174.944E-03     3.70423E-03     356.859E-03     147.210E+06    -110.391E+06    -135.838E+06    -268.496E+06    -135.852E+06    -268.482E+06    -110.391E+06    -59.0561E+03
            1365     93.0881E-03     3.35886E-03     93.0275E-03     349.172E-03    -174.200E-03    -174.972E-03    -174.161E-03     349.133E-03    -174.972E-03     8.50075E-03     361.820E-03     128.750E+06    -88.3044E+06    -127.185E+06    -231.679E+06    -127.193E+06    -231.671E+06    -88.3044E+06    -172.567E+03
            1366     93.1300E-03     4.19932E-03     93.0353E-03     348.637E-03    -173.683E-03    -174.954E-03    -173.551E-03     348.505E-03    -174.954E-03     15.9888E-03     367.952E-03     109.965E+06    -64.0403E+06    -117.352E+06    -189.877E+06    -117.375E+06    -189.854E+06    -64.0403E+06     614.460E+03
            1367     93.1896E-03     5.03988E-03     93.0532E-03     348.270E-03    -173.358E-03    -174.912E-03    -173.056E-03     347.968E-03    -174.912E-03     24.7165E-03     375.381E-03     95.4720E+06    -38.9836E+06    -106.000E+06    -147.340E+06    -106.031E+06    -147.309E+06    -38.9836E+06     738.868E+03
            1368     93.2682E-03     5.88054E-03     93.0826E-03     348.237E-03    -173.369E-03    -174.867E-03    -172.765E-03     347.632E-03    -174.867E-03     34.9832E-03     383.808E-03     84.1048E+06    -14.8806E+06    -86.4606E+06    -107.357E+06    -94.2870E+06    -99.5308E+06    -14.8806E+06     1.25663E+06
            1369     93.3725E-03     6.72138E-03     93.1303E-03     348.780E-03    -173.926E-03    -174.854E-03    -172.850E-03     347.704E-03    -174.854E-03     46.9953E-03     393.191E-03     82.3789E+06     8.83908E+06    -45.2832E+06    -83.1141E+06    -82.9495E+06    -45.4478E+06     8.83908E+06     1.90044E+06
            1370     93.4952E-03     7.56129E-03     93.1890E-03     349.170E-03    -174.314E-03    -174.856E-03    -172.593E-03     347.449E-03    -174.856E-03     59.5559E-03     401.978E-03     90.5381E+06     28.5398E+06     2.08615E+06    -71.4714E+06    -71.4192E+06     2.03394E+06     28.5398E+06     1.45170E+06
            1371     93.6488E-03     8.40126E-03     93.2712E-03     349.788E-03    -174.575E-03    -175.213E-03    -172.415E-03     347.259E-03    -174.845E-03     72.4200E-03     409.480E-03     93.8894E+06     39.9951E+06     24.4579E+06    -60.6885E+06    -60.6773E+06     24.4468E+06     39.9951E+06     776.002E+03
            1372     93.8228E-03     9.24321E-03     93.3663E-03     351.075E-03    -174.844E-03    -176.232E-03    -172.783E-03     347.626E-03    -174.844E-03     84.7991E-03     416.425E-03     90.4999E+06     46.6629E+06     28.0645E+06    -51.6610E+06    -51.6574E+06     28.0610E+06     46.6629E+06     461.689E+03
            1373     94.0242E-03     10.0821E-03     93.4821E-03     352.066E-03    -174.848E-03    -177.218E-03    -172.716E-03     347.563E-03    -174.848E-03     97.0079E-03     422.611E-03     87.6695E+06     53.6377E+06     29.0074E+06    -43.6343E+06    -43.6206E+06     28.9938E+06     53.6377E+06     253.132E+03
            1374     94.2492E-03     10.9225E-03     93.6142E-03     352.650E-03    -174.817E-03    -177.833E-03    -172.410E-03     347.227E-03    -174.817E-03     106.647E-03     427.392E-03     86.4243E+06     60.9294E+06     30.5745E+06    -36.5569E+06    -36.5390E+06     30.5566E+06     60.9294E+06    -290.846E+03
            1375     94.4907E-03     11.7662E-03     93.7553E-03     355.376E-03    -174.760E-03    -180.616E-03    -173.306E-03     348.066E-03    -174.760E-03     123.676E-03     438.112E-03     86.0225E+06     68.0204E+06     38.3210E+06    -28.8847E+06    -28.8763E+06     38.3125E+06     68.0204E+06    -517.074E+03
            1376     94.7746E-03     12.6074E-03     93.9324E-03     357.308E-03    -174.734E-03    -182.574E-03    -174.591E-03     349.325E-03    -174.734E-03     130.135E-03     443.160E-03     88.3710E+06     76.6041E+06     51.4788E+06    -21.5746E+06    -21.5688E+06     51.4730E+06     76.6041E+06     198.760E+03
            1377     95.0522E-03     13.4479E-03     94.0960E-03     365.788E-03    -174.781E-03    -191.007E-03    -177.618E-03     352.399E-03    -174.781E-03     165.995E-03     469.880E-03     100.532E+06     95.8892E+06     70.3883E+06    -14.9370E+06    -14.9325E+06     70.3838E+06     95.8892E+06     583.341E+03
            1378     95.4584E-03     14.2895E-03     94.3828E-03     365.501E-03    -174.855E-03    -190.646E-03    -177.838E-03     352.693E-03    -174.855E-03     160.751E-03     460.834E-03     118.919E+06     124.084E+06     91.9092E+06    -7.59813E+06    -7.59650E+06     91.9076E+06     124.084E+06     367.672E+03
            1379     94.4538E-03     840.002E-06     94.4501E-03     349.967E-03    -174.576E-03    -175.392E-03    -175.389E-03     349.967E-03    -174.578E-03     105.053E-06     351.087E-03     175.181E+06    -142.895E+06    -148.528E+06    -320.819E+06    -146.447E+06    -320.797E+06    -144.998E+06    -1.59609E+06
            1380     94.4604E-03     1.67837E-03     94.4455E-03     349.767E-03    -174.737E-03    -175.030E-03    -174.755E-03     349.765E-03    -175.010E-03     1.14149E-03     353.229E-03     163.041E+06    -131.686E+06    -142.176E+06    -299.603E+06    -142.193E+06    -299.585E+06    -131.686E+06    -226.301E+03
            1381     94.4783E-03     2.51946E-03     94.4447E-03     349.338E-03    -174.347E-03    -174.991E-03    -174.337E-03     349.328E-03    -174.991E-03     4.11856E-03     356.671E-03     147.122E+06    -111.057E+06    -135.741E+06    -268.724E+06    -135.770E+06    -268.695E+06    -111.057E+06     732.682E+03
            1382     94.5051E-03     3.35952E-03     94.4454E-03     349.142E-03    -174.169E-03    -174.973E-03    -174.129E-03     349.102E-03    -174.973E-03     8.74460E-03     361.834E-03     129.292E+06    -87.6735E+06    -127.161E+06    -231.789E+06    -127.186E+06    -231.765E+06    -87.6735E+06     493.513E+03
            1383     94.5449E-03     4.19982E-03     94.4516E-03     348.921E-03    -173.945E-03    -174.976E-03    -173.818E-03     348.793E-03    -174.976E-03     15.7588E-03     368.277E-03     110.856E+06    -63.4443E+06    -116.684E+06    -190.291E+06    -116.698E+06    -190.278E+06    -63.4443E+06     356.572E+03
            1384     94.6056E-03     5.04006E-03     94.4712E-03     348.647E-03    -173.671E-03    -174.976E-03    -173.378E-03     348.354E-03    -174.976E-03     24.3248E-03     375.820E-03     95.9338E+06    -39.6170E+06    -106.343E+06    -148.615E+06    -106.394E+06    -148.564E+06    -39.6170E+06     807.704E+03
            1385     94.6830E-03     5.87965E-03     94.5003E-03     348.419E-03    -173.464E-03    -174.955E-03    -172.860E-03     347.815E-03    -174.955E-03     34.9273E-03     384.107E-03     84.8913E+06    -15.8320E+06    -88.0056E+06    -109.163E+06    -95.5220E+06    -101.647E+06    -15.8320E+06     1.40968E+06
            1386     94.7847E-03     6.72052E-03     94.5462E-03     348.467E-03    -173.554E-03    -174.913E-03    -172.460E-03     347.373E-03    -174.913E-03     47.3338E-03     392.772E-03     82.9398E+06     8.51365E+06    -44.9486E+06    -83.7307E+06    -83.6013E+06    -45.0779E+06     8.51365E+06     1.57312E+06
            1387     94.9117E-03     7.56046E-03     94.6101E-03     349.109E-03    -174.171E-03    -174.938E-03    -172.497E-03     347.376E-03    -174.879E-03     59.7966E-03     401.693E-03     91.3295E+06     28.0091E+06     2.50834E+06    -72.7094E+06    -72.6790E+06     2.47789E+06     28.0091E+06     1.19165E+06
            1388     95.0576E-03     8.40172E-03     94.6856E-03     349.927E-03    -174.729E-03    -175.198E-03    -172.511E-03     347.375E-03    -174.864E-03     72.7275E-03     409.554E-03     94.6299E+06     39.2671E+06     23.9272E+06    -62.0936E+06    -62.0702E+06     23.9038E+06     39.2671E+06     1.09960E+06
            1389     95.2365E-03     9.24110E-03     94.7871E-03     350.566E-03    -174.840E-03    -175.726E-03    -172.216E-03     347.056E-03    -174.840E-03     85.4368E-03     415.939E-03     91.1072E+06     46.1896E+06     28.0884E+06    -52.5745E+06    -52.5569E+06     28.0707E+06     46.1896E+06     1.00236E+06
            1390     95.4327E-03     10.0825E-03     94.8986E-03     351.516E-03    -174.791E-03    -176.725E-03    -172.073E-03     346.864E-03    -174.791E-03     98.4578E-03     422.122E-03     88.2156E+06     53.7461E+06     29.3555E+06    -44.0154E+06    -44.0025E+06     29.3426E+06     53.7461E+06     517.862E+03
            1391     95.6563E-03     10.9257E-03     95.0303E-03     352.509E-03    -174.734E-03    -177.776E-03    -172.256E-03     346.990E-03    -174.734E-03     107.612E-03     427.225E-03     86.9512E+06     62.7491E+06     31.9440E+06    -35.3748E+06    -35.3581E+06     31.9273E+06     62.7491E+06     13.1358E+03
            1392     95.8940E-03     11.7669E-03     95.1693E-03     355.727E-03    -174.690E-03    -181.036E-03    -173.751E-03     348.441E-03    -174.690E-03     123.561E-03     438.237E-03     86.5686E+06     69.3355E+06     38.6906E+06    -28.3498E+06    -28.3401E+06     38.6809E+06     69.3355E+06    -297.949E+03
            1393     96.1829E-03     12.6079E-03     95.3530E-03     357.575E-03    -174.698E-03    -182.877E-03    -175.023E-03     349.721E-03    -174.698E-03     129.107E-03     443.430E-03     88.5530E+06     76.4738E+06     50.4881E+06    -22.1289E+06    -22.1230E+06     50.4821E+06     76.4738E+06    -145.836E+03
            1394     96.4551E-03     13.4479E-03     95.5131E-03     365.729E-03    -174.770E-03    -190.960E-03    -177.760E-03     352.530E-03    -174.770E-03     164.594E-03     470.056E-03     100.319E+06     95.5284E+06     69.5983E+06    -15.2050E+06    -15.2014E+06     69.5946E+06     95.5284E+06     120.587E+03
            1395     96.8595E-03     14.2893E-03     95.7997E-03     365.634E-03    -174.859E-03    -190.775E-03    -178.057E-03     352.916E-03    -174.859E-03     160.226E-03     461.031E-03     118.790E+06     123.727E+06     92.0147E+06    -7.69082E+06    -7.68967E+06     92.0136E+06     123.727E+06     323.046E+03
            1396     95.8709E-03     839.550E-06     95.8672E-03     349.799E-03    -174.486E-03    -175.313E-03    -175.157E-03     349.799E-03    -174.642E-03    -215.682E-06     350.927E-03     176.415E+06    -141.231E+06    -147.108E+06    -320.484E+06    -146.718E+06    -320.416E+06    -141.689E+06     610.149E+03
            1397     95.8790E-03     1.68033E-03     95.8643E-03     349.556E-03    -174.615E-03    -174.942E-03    -174.633E-03     349.554E-03    -174.922E-03     1.51203E-03     353.025E-03     163.701E+06    -131.173E+06    -143.423E+06    -300.583E+06    -143.441E+06    -300.566E+06    -131.173E+06    -122.880E+03
            1398     95.8942E-03     2.51914E-03     95.8611E-03     349.322E-03    -174.410E-03    -174.911E-03    -174.400E-03     349.311E-03    -174.911E-03     4.34610E-03     356.630E-03     147.812E+06    -112.072E+06    -135.747E+06    -270.095E+06    -135.764E+06    -270.078E+06    -112.072E+06     386.092E+03
            1399     95.9214E-03     3.35988E-03     95.8626E-03     349.349E-03    -174.399E-03    -174.949E-03    -174.357E-03     349.306E-03    -174.949E-03     8.94136E-03     361.988E-03     129.938E+06    -87.4715E+06    -126.244E+06    -232.004E+06    -126.286E+06    -231.962E+06    -87.4715E+06     1.14170E+06
            1400     95.9628E-03     4.19886E-03     95.8709E-03     349.316E-03    -174.297E-03    -175.019E-03    -174.174E-03     349.193E-03    -175.019E-03     15.6282E-03     368.716E-03     112.000E+06    -63.0055E+06    -116.867E+06    -191.168E+06    -116.915E+06    -191.121E+06    -63.0055E+06     1.34843E+06
            1401     96.0203E-03     5.03852E-03     95.8880E-03     348.768E-03    -173.715E-03    -175.052E-03    -173.417E-03     348.469E-03    -175.052E-03     24.4237E-03     375.960E-03     97.7129E+06    -38.5184E+06    -106.250E+06    -149.617E+06    -106.329E+06    -149.538E+06    -38.5184E+06     1.63773E+06
            1402     96.0982E-03     5.87980E-03     95.9182E-03     348.451E-03    -173.432E-03    -175.019E-03    -172.816E-03     347.835E-03    -175.019E-03     35.3533E-03     384.104E-03      85.788E+06    -14.7725E+06    -87.7804E+06    -108.994E+06    -94.7332E+06    -102.041E+06    -14.7725E+06     1.53726E+06
            1403     96.1988E-03     6.71963E-03     95.9639E-03     348.205E-03    -173.265E-03    -174.939E-03    -172.155E-03     347.094E-03    -174.939E-03     47.6330E-03     392.476E-03     82.4186E+06     7.76577E+06    -45.9178E+06    -83.7057E+06    -83.5950E+06    -46.0285E+06     7.76577E+06     1.71669E+06
            1404     96.3228E-03     7.56214E-03     96.0255E-03     348.530E-03    -173.621E-03    -174.909E-03    -171.879E-03     346.729E-03    -174.850E-03     60.8584E-03     400.991E-03     91.1475E+06     27.9087E+06     2.50279E+06    -72.5763E+06    -72.5208E+06     2.44729E+06     27.9087E+06     1.72029E+06
            1405     96.4740E-03     8.40092E-03     96.1075E-03     349.548E-03    -174.458E-03    -175.090E-03    -172.108E-03     346.891E-03    -174.783E-03     74.1703E-03     409.236E-03     95.1616E+06     39.2012E+06     24.0107E+06    -62.6408E+06    -62.6064E+06     23.9763E+06     39.2012E+06     1.18080E+06
            1406     96.6438E-03     9.24291E-03     96.2008E-03     350.247E-03    -174.731E-03    -175.516E-03    -171.946E-03     346.677E-03    -174.731E-03     86.1695E-03     415.849E-03     91.7321E+06     46.1673E+06     28.7742E+06    -52.9933E+06    -52.9768E+06     28.7577E+06     46.1673E+06     561.271E+03
            1407     96.8419E-03     10.0863E-03     96.3152E-03     351.251E-03    -174.681E-03    -176.570E-03    -172.016E-03     346.697E-03    -174.681E-03     97.4495E-03     421.830E-03     88.7556E+06     54.4995E+06     30.5423E+06    -43.6617E+06    -43.6569E+06     30.5375E+06     54.4995E+06    -130.642E+03
            1408     97.0636E-03     10.9262E-03     96.4467E-03     353.150E-03    -174.667E-03    -178.484E-03    -173.105E-03     347.772E-03    -174.667E-03     106.354E-03     427.703E-03     87.3489E+06     63.0955E+06     32.1433E+06    -35.4814E+06    -35.4765E+06     32.1385E+06     63.0955E+06    -180.170E+03
            1409     97.3017E-03     11.7668E-03     96.5876E-03     356.483E-03    -174.694E-03    -181.788E-03    -174.587E-03     349.282E-03    -174.694E-03     123.007E-03     439.141E-03     86.8298E+06     70.0058E+06     38.9176E+06    -28.0632E+06    -28.0601E+06     38.9145E+06     70.0058E+06     136.666E+03
            1410     97.5892E-03     12.6064E-03     96.7715E-03     357.268E-03    -174.726E-03    -182.542E-03    -174.742E-03     349.468E-03    -174.726E-03     128.615E-03     443.319E-03     88.6979E+06     77.1271E+06     50.1847E+06    -21.8867E+06    -21.8828E+06     50.1808E+06     77.1271E+06     130.707E+03
            1411     97.8583E-03     13.4481E-03     96.9298E-03     365.680E-03    -174.783E-03    -190.898E-03    -177.683E-03     352.466E-03    -174.783E-03     164.688E-03     469.992E-03     100.336E+06     95.2115E+06     68.6464E+06    -15.7287E+06    -15.7250E+06     68.6427E+06     95.2115E+06     117.416E+03
            1412     98.2632E-03     14.2887E-03     97.2188E-03     365.740E-03    -174.870E-03    -190.870E-03    -178.159E-03     353.029E-03    -174.870E-03     160.147E-03     461.140E-03     119.010E+06     123.394E+06     91.9855E+06    -8.16590E+06    -8.16506E+06     91.9847E+06     123.394E+06     201.786E+03
            1413     97.2873E-03     839.745E-06     97.2837E-03     349.385E-03    -174.411E-03    -174.974E-03    -174.817E-03     349.384E-03    -174.567E-03    -98.3089E-06     350.519E-03     176.336E+06    -144.460E+06    -149.741E+06    -323.349E+06    -148.310E+06    -323.282E+06    -145.958E+06     1.32826E+06
            1414     97.2955E-03     1.67952E-03     97.2810E-03     349.326E-03    -174.514E-03    -174.812E-03    -174.569E-03     349.324E-03    -174.755E-03     1.42291E-03     352.761E-03     163.655E+06    -130.123E+06    -143.876E+06    -300.100E+06    -143.891E+06    -300.084E+06    -130.123E+06     1.32700E+06
            1415     97.3118E-03     2.52037E-03     97.2791E-03     349.569E-03    -174.686E-03    -174.883E-03    -174.714E-03     349.559E-03    -174.844E-03     4.20968E-03     356.839E-03     149.269E+06    -110.429E+06    -136.677E+06    -270.915E+06    -136.685E+06    -270.907E+06    -110.429E+06     607.276E+03
            1416     97.3381E-03     3.35917E-03     97.2801E-03     349.429E-03    -174.441E-03    -174.989E-03    -174.434E-03     349.384E-03    -174.951E-03     9.21487E-03     362.062E-03     131.306E+06    -87.8318E+06    -127.361E+06    -234.027E+06    -127.390E+06    -233.999E+06    -87.8318E+06     1.03271E+06
            1417     97.3807E-03     4.19939E-03     97.2902E-03     349.005E-03    -174.004E-03    -175.001E-03    -173.871E-03     348.872E-03    -175.001E-03     16.2297E-03     368.360E-03     112.951E+06    -62.8023E+06    -116.717E+06    -192.018E+06    -116.763E+06    -191.973E+06    -62.8023E+06     1.59641E+06
            1418     97.4354E-03     5.03967E-03     97.3050E-03     348.809E-03    -173.795E-03    -175.013E-03    -173.481E-03     348.494E-03    -175.013E-03     25.1377E-03     375.984E-03     98.3512E+06    -38.0076E+06    -105.406E+06    -150.005E+06    -105.475E+06    -149.936E+06    -38.0076E+06     1.56492E+06
            1419     97.5136E-03     5.87924E-03     97.3362E-03     348.346E-03    -173.362E-03    -174.984E-03    -172.733E-03     347.716E-03    -174.984E-03     35.7812E-03     384.029E-03     86.1199E+06    -14.3687E+06    -87.3602E+06    -109.048E+06    -94.1852E+06    -102.223E+06    -14.3687E+06     1.77797E+06
            1420     97.6118E-03     6.72084E-03     97.3801E-03     348.021E-03    -173.123E-03    -174.898E-03    -172.000E-03     346.897E-03    -174.898E-03     47.8893E-03     392.328E-03     82.4166E+06     8.83362E+06    -47.1447E+06    -82.8225E+06    -82.6498E+06    -47.3174E+06     8.83362E+06     1.98011E+06
            1421     97.7353E-03     7.56059E-03     97.4424E-03     348.079E-03    -173.300E-03    -174.779E-03    -171.487E-03     346.266E-03    -174.779E-03     61.0012E-03     400.694E-03     90.4678E+06     28.4578E+06     1.82170E+06    -71.3317E+06    -71.2526E+06     1.74262E+06     28.4578E+06     2.39373E+06
            1422     97.8841E-03     8.40506E-03     97.5225E-03     348.771E-03    -173.997E-03    -174.773E-03    -171.492E-03     346.162E-03    -174.670E-03     73.4387E-03     408.503E-03     95.1731E+06     40.6901E+06     25.8338E+06    -61.0287E+06    -60.9668E+06     25.7719E+06     40.6901E+06     1.97008E+06
            1423     98.0564E-03     9.24538E-03     97.6196E-03     350.441E-03    -174.617E-03    -175.824E-03    -172.346E-03     346.967E-03    -174.622E-03     85.0330E-03     415.943E-03     92.4085E+06     47.8295E+06     30.1009E+06    -52.1387E+06    -52.1181E+06     30.0802E+06     47.8295E+06     557.210E+03
            1424     98.2503E-03     10.0832E-03     97.7316E-03     352.246E-03    -174.647E-03    -177.599E-03    -173.143E-03     347.790E-03    -174.647E-03     96.5979E-03     422.916E-03     89.7847E+06     55.4904E+06     31.3546E+06    -43.7852E+06    -43.7839E+06     31.3533E+06     55.4904E+06    -91.2078E+03
            1425     98.4707E-03     10.9260E-03     97.8627E-03     353.716E-03    -174.702E-03    -179.014E-03    -173.653E-03     348.355E-03    -174.702E-03     106.271E-03     428.316E-03     88.1427E+06     63.3804E+06     32.5701E+06    -36.0037E+06    -36.0012E+06     32.5677E+06     63.3804E+06    -325.043E+03
            1426     98.7131E-03     11.7651E-03     98.0095E-03     356.252E-03    -174.736E-03    -181.516E-03    -174.325E-03     349.060E-03    -174.736E-03     122.933E-03     438.946E-03     86.8811E+06     69.1260E+06     38.5030E+06    -28.8979E+06    -28.8946E+06     38.4997E+06     69.1260E+06    -97.1619E+03
            1427     98.9916E-03     12.6069E-03     98.1855E-03     357.116E-03    -174.753E-03    -182.364E-03    -174.583E-03     349.335E-03    -174.753E-03     128.450E-03     443.266E-03     88.3180E+06     76.6649E+06     49.5535E+06    -22.0099E+06    -22.0068E+06     49.5503E+06     76.6649E+06     447.405E+03
            1428     99.2647E-03     13.4481E-03     98.3495E-03     365.415E-03    -174.797E-03    -190.618E-03    -177.355E-03     352.152E-03    -174.797E-03     164.904E-03     469.650E-03     100.248E+06     95.7567E+06     68.0896E+06    -15.4124E+06    -15.4074E+06     68.0846E+06     95.7567E+06     585.846E+03
            1429     99.6657E-03     14.2888E-03     98.6361E-03     365.365E-03    -174.860E-03    -190.505E-03    -177.745E-03     352.605E-03    -174.860E-03     160.365E-03     460.699E-03     119.460E+06     123.943E+06     91.8904E+06    -8.27212E+06    -8.26872E+06     91.8869E+06     123.943E+06     168.997E+03
            1430     98.7049E-03     840.601E-06     98.7013E-03     349.205E-03    -174.207E-03    -174.998E-03    -174.998E-03     349.205E-03    -174.207E-03    -76.6773E-06     350.337E-03     176.961E+06    -144.505E+06    -150.906E+06    -324.565E+06    -149.903E+06    -324.527E+06    -145.545E+06     35.4062E+03
            1431     98.7120E-03     1.68041E-03     98.6977E-03     349.601E-03    -174.687E-03    -174.914E-03    -174.858E-03     349.599E-03    -174.741E-03     1.29112E-03     353.025E-03     165.480E+06    -130.136E+06    -143.111E+06    -301.611E+06    -143.122E+06    -301.601E+06    -130.136E+06     794.833E+03
            1432     98.7289E-03     2.51942E-03     98.6967E-03     349.536E-03    -174.560E-03    -174.976E-03    -174.639E-03     349.526E-03    -174.887E-03     4.28713E-03     356.841E-03     150.542E+06    -109.984E+06    -136.304E+06    -271.733E+06    -136.321E+06    -271.716E+06    -109.984E+06     1.46643E+06
            1433     98.7567E-03     3.35931E-03     98.6996E-03     349.055E-03    -174.083E-03    -174.972E-03    -174.078E-03     349.012E-03    -174.934E-03     9.03582E-03     361.774E-03     132.394E+06    -87.3338E+06    -127.583E+06    -234.891E+06    -127.593E+06    -234.881E+06    -87.3338E+06     986.640E+03
            1434     98.7941E-03     4.19995E-03     98.7048E-03     348.571E-03    -173.659E-03    -174.912E-03    -173.525E-03     348.436E-03    -174.912E-03     16.1991E-03     367.923E-03     113.656E+06    -63.0792E+06    -116.555E+06    -193.078E+06    -116.581E+06    -193.052E+06    -63.0792E+06     1.08122E+06
            1435     98.8539E-03     5.04005E-03     98.7253E-03     348.426E-03    -173.539E-03    -174.887E-03    -173.221E-03     348.108E-03    -174.887E-03     25.3052E-03     375.580E-03     98.8962E+06    -38.1196E+06    -105.270E+06    -150.778E+06    -105.335E+06    -150.712E+06    -38.1196E+06     1.54323E+06
            1436     98.9271E-03     5.88049E-03     98.7521E-03     348.326E-03    -173.461E-03    -174.865E-03    -172.830E-03     347.695E-03    -174.865E-03     35.8057E-03     384.099E-03     86.9110E+06    -13.9071E+06    -87.8198E+06    -109.280E+06    -94.0581E+06    -103.042E+06    -13.9071E+06     1.76964E+06
            1437     99.0256E-03     6.72105E-03     98.7972E-03     348.123E-03    -173.309E-03    -174.814E-03    -172.201E-03     347.015E-03    -174.814E-03     47.6206E-03     392.551E-03     83.1509E+06     9.08039E+06    -48.2736E+06    -83.2535E+06    -83.0280E+06    -48.4991E+06     9.08039E+06     2.19645E+06
            1438     99.1477E-03     7.56339E-03     98.8588E-03     348.277E-03    -173.544E-03    -174.733E-03    -171.785E-03     346.518E-03    -174.733E-03     60.1379E-03     400.955E-03     91.0582E+06     28.4247E+06     1.28901E+06    -71.9996E+06    -71.9259E+06     1.21521E+06     28.4247E+06     2.20856E+06
            1439     99.2940E-03     8.40200E-03     98.9379E-03     348.991E-03    -174.240E-03    -174.751E-03    -171.791E-03     346.450E-03    -174.659E-03     72.5077E-03     408.675E-03     95.3649E+06     40.9054E+06     26.5900E+06    -60.8000E+06    -60.7463E+06     26.5363E+06     40.9054E+06     2.07507E+06
            1440     99.4672E-03     9.24407E-03     99.0367E-03     350.328E-03    -174.624E-03    -175.704E-03    -172.272E-03     346.901E-03    -174.629E-03     84.4341E-03     415.639E-03     92.7709E+06     49.3721E+06     31.5965E+06    -50.9672E+06    -50.9022E+06     31.5315E+06     49.3721E+06     1.96931E+06
            1441     99.6624E-03     10.0871E-03     99.1506E-03     352.518E-03    -174.659E-03    -177.858E-03    -173.365E-03     348.024E-03    -174.659E-03     97.0230E-03     423.068E-03     90.4912E+06     56.6735E+06     32.3511E+06    -43.4085E+06    -43.3667E+06     32.3094E+06     56.6735E+06     1.11635E+06
            1442     99.8821E-03     10.9233E-03     99.2830E-03     353.984E-03    -174.725E-03    -179.259E-03    -173.826E-03     348.551E-03    -174.725E-03     107.046E-03     428.654E-03     88.6955E+06     63.8842E+06     33.1011E+06    -36.0665E+06    -36.0563E+06     33.0910E+06     63.8842E+06     349.518E+03
            1443     100.117E-03     11.7662E-03     99.4235E-03     356.217E-03    -174.757E-03    -181.461E-03    -174.220E-03     348.977E-03    -174.757E-03     123.340E-03     438.866E-03     87.1259E+06     69.2185E+06     38.4108E+06    -29.1025E+06    -29.0741E+06     38.3824E+06     69.2185E+06    -281.364E+03
            1444     100.401E-03     12.6064E-03     99.6063E-03     357.059E-03    -174.764E-03    -182.295E-03    -174.504E-03     349.268E-03    -174.764E-03     128.496E-03     443.185E-03     87.8727E+06     76.2331E+06     48.3810E+06    -22.1832E+06    -22.1579E+06     48.3557E+06     76.2331E+06    -116.877E+03
            1445     100.667E-03     13.4465E-03     99.7648E-03     364.987E-03    -174.790E-03    -190.197E-03    -176.876E-03     351.666E-03    -174.790E-03     164.996E-03     469.231E-03     99.6814E+06     95.8359E+06     67.6029E+06    -14.8992E+06    -14.8919E+06     67.5956E+06     95.8359E+06     672.422E+03
            1446     101.067E-03     14.2906E-03     100.052E-03     365.366E-03    -174.835E-03    -190.531E-03    -177.670E-03     352.505E-03    -174.835E-03     160.937E-03     460.599E-03     119.429E+06     124.414E+06     92.5320E+06    -7.71949E+06    -7.71419E+06     92.5268E+06     124.414E+06     422.196E+03
            1447     100.121E-03     839.730E-06     100.118E-03     349.689E-03    -174.542E-03    -175.146E-03    -175.105E-03     349.688E-03    -174.583E-03    -40.2915E-06     350.822E-03     179.761E+06    -141.766E+06    -148.628E+06    -324.848E+06    -147.130E+06    -324.822E+06    -143.290E+06     154.542E+03
            1448     100.130E-03     1.67931E-03     100.116E-03     349.678E-03    -174.651E-03    -175.028E-03    -174.765E-03     349.676E-03    -174.911E-03     1.36596E-03     353.130E-03     168.888E+06    -129.291E+06    -141.542E+06    -303.890E+06    -141.547E+06    -303.885E+06    -129.291E+06     368.139E+03
            1449     100.147E-03     2.51923E-03     100.115E-03     349.165E-03    -174.204E-03    -174.962E-03    -174.243E-03     349.154E-03    -174.911E-03     4.41645E-03     356.488E-03     152.827E+06    -110.216E+06    -134.204E+06    -273.443E+06    -134.217E+06    -273.430E+06    -110.216E+06     1.27753E+06
            1450     100.171E-03     3.36012E-03     100.115E-03     348.787E-03    -173.919E-03    -174.868E-03    -173.875E-03     348.743E-03    -174.868E-03     9.13817E-03     361.511E-03     133.237E+06    -86.8716E+06    -125.743E+06    -234.836E+06    -125.778E+06    -234.802E+06    -86.8716E+06     1.66918E+06
            1451     100.212E-03     4.19980E-03     100.124E-03     348.464E-03    -173.626E-03    -174.838E-03    -173.496E-03     348.334E-03    -174.838E-03     15.9288E-03     367.904E-03     114.985E+06    -62.4278E+06    -116.452E+06    -193.935E+06    -116.497E+06    -193.890E+06    -62.4278E+06     1.48945E+06
            1452     100.267E-03     5.04088E-03     100.140E-03     348.078E-03    -173.274E-03    -174.804E-03    -172.967E-03     347.771E-03    -174.804E-03     24.8345E-03     375.240E-03     100.292E+06    -37.7962E+06    -105.256E+06    -152.266E+06    -105.410E+06    -152.112E+06    -37.7962E+06     1.82096E+06
            1453     100.343E-03     5.88184E-03     100.171E-03     348.224E-03    -173.451E-03    -174.773E-03    -172.841E-03     347.614E-03    -174.773E-03     35.2223E-03     383.991E-03     87.8951E+06    -14.3789E+06    -88.2728E+06    -111.164E+06    -94.7237E+06    -104.713E+06    -14.3789E+06     2.59811E+06
            1454     100.439E-03     6.72150E-03     100.214E-03     348.407E-03    -173.652E-03    -174.756E-03    -172.577E-03     347.333E-03    -174.756E-03     46.9070E-03     392.885E-03     83.4592E+06     8.65988E+06    -48.4977E+06    -84.0796E+06    -83.7341E+06    -48.8432E+06     8.65988E+06     2.50444E+06
            1455     100.560E-03     7.56119E-03     100.275E-03     348.694E-03    -173.963E-03    -174.731E-03    -172.210E-03     346.941E-03    -174.731E-03     60.0342E-03     401.334E-03     91.7731E+06     29.1042E+06     1.75177E+06    -72.1931E+06    -72.1329E+06     1.69150E+06     29.1042E+06     1.95920E+06
            1456     100.708E-03     8.40385E-03     100.357E-03     349.461E-03    -174.495E-03    -174.967E-03    -172.213E-03     346.913E-03    -174.700E-03     72.7016E-03     409.054E-03     96.1599E+06     40.9237E+06     26.2692E+06    -61.7187E+06    -61.6854E+06     26.2359E+06     40.9237E+06     1.69312E+06
            1457     100.876E-03     9.24385E-03     100.452E-03     350.606E-03    -174.689E-03    -175.918E-03    -172.469E-03     347.157E-03    -174.689E-03     84.7085E-03     415.826E-03     92.7962E+06     48.0852E+06     30.9463E+06    -52.0604E+06    -52.0014E+06     30.8873E+06     48.0852E+06     1.94736E+06
            1458     101.073E-03     10.0828E-03     100.569E-03     352.054E-03    -174.704E-03    -177.351E-03    -172.871E-03     347.575E-03    -174.704E-03     96.8144E-03     422.540E-03     90.1877E+06     56.4757E+06     32.8498E+06    -43.0679E+06    -42.9850E+06     32.7669E+06     56.4757E+06     2.12484E+06
            1459     101.292E-03     10.9272E-03     100.701E-03     353.309E-03    -174.728E-03    -178.581E-03    -173.236E-03     347.964E-03    -174.728E-03     106.045E-03     427.898E-03     88.8908E+06     64.2104E+06     33.5974E+06    -35.9082E+06    -35.8537E+06     33.5429E+06     64.2104E+06     1.69535E+06
            1460     101.527E-03     11.7651E-03     100.843E-03     356.059E-03    -174.733E-03    -181.326E-03    -173.991E-03     348.724E-03    -174.733E-03     123.935E-03     438.537E-03     88.1490E+06     70.4688E+06     39.3214E+06    -29.0090E+06    -28.9622E+06     39.2747E+06     70.4688E+06     559.008E+03
            1461     101.807E-03     12.6060E-03     101.023E-03     356.898E-03    -174.722E-03    -182.177E-03    -174.232E-03     348.953E-03    -174.722E-03     129.648E-03     443.014E-03     89.0334E+06     77.1097E+06     48.3252E+06    -22.7512E+06    -22.7020E+06     48.2761E+06     77.1097E+06    -249.605E+03
            1462     102.071E-03     13.4496E-03     101.181E-03     365.402E-03    -174.747E-03    -190.656E-03    -177.341E-03     352.087E-03    -174.747E-03     165.197E-03     469.709E-03     100.197E+06     94.9755E+06     67.0517E+06    -16.1778E+06    -16.1628E+06     67.0367E+06     94.9755E+06    -49.0606E+03
            1463     102.470E-03     14.2895E-03     101.469E-03     365.972E-03    -174.826E-03    -191.146E-03    -178.322E-03     353.148E-03    -174.826E-03     160.902E-03     461.150E-03     119.641E+06     124.051E+06     93.3895E+06    -7.93236E+06    -7.92939E+06     93.3865E+06     124.051E+06     205.506E+03
            1464     101.539E-03     839.508E-06     101.535E-03     350.050E-03    -174.716E-03    -175.334E-03    -175.133E-03     350.049E-03    -174.916E-03     426.806E-06     351.187E-03     182.127E+06    -141.249E+06    -146.607E+06    -325.994E+06    -145.093E+06    -325.984E+06    -142.773E+06    -172.200E+03
            1465     101.548E-03     1.67939E-03     101.534E-03     349.437E-03    -174.452E-03    -174.985E-03    -174.450E-03     349.435E-03    -174.985E-03     1.63163E-03     352.914E-03     169.869E+06    -130.202E+06    -141.505E+06    -305.324E+06    -141.514E+06    -305.315E+06    -130.202E+06     1.07625E+06
            1466     101.562E-03     2.52014E-03     101.530E-03     349.029E-03    -174.149E-03    -174.880E-03    -174.139E-03     349.019E-03    -174.880E-03     4.06160E-03     356.360E-03     153.897E+06    -110.170E+06    -134.590E+06    -274.661E+06    -134.601E+06    -274.650E+06    -110.170E+06     1.14439E+06
            1467     101.589E-03     3.35987E-03     101.533E-03     348.751E-03    -173.922E-03    -174.829E-03    -173.880E-03     348.709E-03    -174.829E-03     8.88629E-03     361.437E-03     135.405E+06    -87.0032E+06    -125.396E+06    -237.122E+06    -125.428E+06    -237.090E+06    -87.0032E+06     1.52798E+06
            1468     101.627E-03     4.20054E-03     101.540E-03     348.518E-03    -173.701E-03    -174.817E-03    -173.581E-03     348.398E-03    -174.817E-03     15.4239E-03     368.014E-03     116.840E+06    -61.4541E+06    -115.053E+06    -194.874E+06    -115.229E+06    -194.699E+06    -61.4541E+06     2.59584E+06
            1469     101.682E-03     5.04054E-03     101.557E-03     348.250E-03    -173.443E-03    -174.808E-03    -173.147E-03     347.955E-03    -174.808E-03     24.2427E-03     375.400E-03     101.756E+06    -37.4313E+06    -105.110E+06    -153.693E+06    -105.400E+06    -153.403E+06    -37.4313E+06     2.92112E+06
            1470     101.757E-03     5.88061E-03     101.587E-03     348.065E-03    -173.287E-03    -174.778E-03    -172.684E-03     347.463E-03    -174.778E-03     34.9813E-03     383.668E-03     88.6587E+06    -13.8886E+06    -88.6973E+06    -111.165E+06    -93.9348E+06    -105.928E+06    -13.8886E+06     2.68536E+06
            1471     101.854E-03     6.72197E-03     101.632E-03     348.333E-03    -173.586E-03    -174.747E-03    -172.515E-03     347.263E-03    -174.747E-03     46.7937E-03     392.824E-03     83.5534E+06     9.90083E+06    -48.8131E+06    -82.5306E+06    -82.0709E+06    -49.2728E+06     9.90083E+06     3.00980E+06
            1472     101.974E-03     7.56285E-03     101.693E-03     348.929E-03    -174.168E-03    -174.761E-03    -172.439E-03     347.169E-03    -174.730E-03     60.1645E-03     401.535E-03     91.9555E+06     29.8836E+06     1.84952E+06    -71.6588E+06    -71.4925E+06     1.68319E+06     29.8836E+06     3.10967E+06
            1473     102.119E-03     8.40188E-03     101.773E-03     349.738E-03    -174.588E-03    -175.150E-03    -172.452E-03     347.174E-03    -174.721E-03     72.9610E-03     409.264E-03     96.5996E+06     41.6117E+06     27.0322E+06    -61.4449E+06    -61.3725E+06     26.9598E+06     41.6117E+06     2.38607E+06
            1474     102.289E-03     9.24280E-03     101.871E-03     350.888E-03    -174.729E-03    -176.159E-03    -172.660E-03     347.389E-03    -174.729E-03     85.3348E-03     416.182E-03     93.4200E+06     48.4282E+06     30.3003E+06    -52.6585E+06    -52.6085E+06     30.2503E+06     48.4282E+06     1.87707E+06
            1475     102.483E-03     10.0849E-03     101.986E-03     352.064E-03    -174.741E-03    -177.322E-03    -172.761E-03     347.502E-03    -174.741E-03     97.6914E-03     422.649E-03     90.5599E+06     56.3035E+06     31.7275E+06    -43.9248E+06    -43.8565E+06     31.6591E+06     56.3035E+06     1.79317E+06
            1476     102.700E-03     10.9226E-03     102.118E-03     352.760E-03    -174.734E-03    -178.026E-03    -172.637E-03     347.371E-03    -174.734E-03     106.369E-03     427.445E-03     88.8122E+06     64.9358E+06     34.2201E+06    -35.1155E+06    -35.0359E+06     34.1406E+06     64.9358E+06     1.93902E+06
            1477     102.934E-03     11.7674E-03     102.259E-03     355.251E-03    -174.692E-03    -180.559E-03    -173.239E-03     347.931E-03    -174.692E-03     123.638E-03     437.707E-03     88.4435E+06     71.7550E+06     40.3601E+06    -28.0809E+06    -27.9970E+06     40.2761E+06     71.7550E+06     2.28391E+06
            1478     103.214E-03     12.6098E-03     102.441E-03     356.911E-03    -174.664E-03    -182.247E-03    -174.383E-03     349.047E-03    -174.664E-03     128.956E-03     442.911E-03     90.0456E+06     78.4161E+06     49.6875E+06    -22.4810E+06    -22.4109E+06     49.6174E+06     78.4161E+06     1.31979E+06
            1479     103.476E-03     13.4486E-03     102.598E-03     366.115E-03    -174.729E-03    -191.386E-03    -178.200E-03     352.929E-03    -174.729E-03     164.516E-03     470.459E-03     101.455E+06     96.4571E+06     68.2716E+06    -16.0755E+06    -16.0390E+06     68.2351E+06     96.4571E+06    -357.480E+03
            1480     103.876E-03     14.2893E-03     102.889E-03     366.240E-03    -174.847E-03    -191.393E-03    -178.660E-03     353.507E-03    -174.847E-03     160.425E-03     461.504E-03     120.228E+06     124.402E+06     92.9090E+06    -8.42614E+06    -8.41414E+06     92.8970E+06     124.402E+06    -719.289E+03
            1481     102.957E-03     839.451E-06     102.954E-03     349.768E-03    -174.528E-03    -175.240E-03    -175.046E-03     349.768E-03    -174.722E-03     42.5200E-06     350.901E-03     184.166E+06    -140.554E+06    -147.158E+06    -327.926E+06    -145.850E+06    -327.896E+06    -141.891E+06     1.75324E+06
            1482     102.964E-03     1.67993E-03     102.950E-03     349.369E-03    -174.488E-03    -174.881E-03    -174.486E-03     349.367E-03    -174.881E-03     1.48720E-03     352.844E-03     171.009E+06    -130.116E+06    -142.334E+06    -306.837E+06    -142.345E+06    -306.825E+06    -130.116E+06     1.24639E+06
            1483     102.980E-03     2.51927E-03     102.949E-03     349.214E-03    -174.361E-03    -174.853E-03    -174.351E-03     349.204E-03    -174.853E-03     4.14168E-03     356.558E-03     155.345E+06    -109.820E+06    -134.728E+06    -275.904E+06    -134.749E+06    -275.883E+06    -109.820E+06     1.37729E+06
            1484     103.004E-03     3.35987E-03     102.949E-03     348.888E-03    -174.030E-03    -174.858E-03    -173.990E-03     348.848E-03    -174.858E-03     8.68306E-03     361.520E-03     137.639E+06    -86.2012E+06    -125.903E+06    -239.030E+06    -125.948E+06    -238.986E+06    -86.2012E+06     1.91523E+06
            1485     103.044E-03     4.20000E-03     102.958E-03     348.637E-03    -173.783E-03    -174.854E-03    -173.663E-03     348.516E-03    -174.854E-03     15.4211E-03     368.046E-03     118.737E+06    -62.1545E+06    -115.656E+06    -197.702E+06    -115.835E+06    -197.523E+06    -62.1545E+06     2.66186E+06
            1486     103.097E-03     5.04016E-03     102.974E-03     348.348E-03    -173.498E-03    -174.850E-03    -173.210E-03     348.060E-03    -174.850E-03     24.0185E-03     375.553E-03     102.662E+06    -37.2600E+06    -104.155E+06    -154.632E+06    -104.557E+06    -154.230E+06    -37.2600E+06     3.32775E+06
            1487     103.172E-03     5.88129E-03     103.004E-03     347.989E-03    -173.176E-03    -174.813E-03    -172.568E-03     347.381E-03    -174.813E-03     35.0210E-03     383.531E-03     89.3445E+06    -13.5752E+06    -88.7934E+06    -111.613E+06    -93.8781E+06    -106.528E+06    -13.5752E+06     3.37891E+06
            1488     103.268E-03     6.72147E-03     103.049E-03     348.286E-03    -173.523E-03    -174.763E-03    -172.443E-03     347.206E-03    -174.763E-03     47.0539E-03     392.607E-03     84.2519E+06     9.06624E+06    -50.7425E+06    -84.0738E+06    -83.3635E+06    -51.4528E+06     9.06624E+06     3.67324E+06
            1489     103.387E-03     7.56176E-03     103.110E-03     348.905E-03    -174.136E-03    -174.769E-03    -172.429E-03     347.167E-03    -174.738E-03     59.7981E-03     401.445E-03     92.1685E+06     29.6066E+06     1.39712E+06    -72.1241E+06    -71.8823E+06     1.15527E+06     29.6066E+06     4.05209E+06
            1490     103.533E-03     8.40335E-03     103.191E-03     349.667E-03    -174.543E-03    -175.124E-03    -172.356E-03     347.082E-03    -174.726E-03     73.1928E-03     409.229E-03     97.3024E+06     42.3410E+06     27.8741E+06    -61.3805E+06    -61.2368E+06     27.7305E+06     42.3410E+06     3.45928E+06
            1491     103.701E-03     9.24358E-03     103.288E-03     350.660E-03    -174.723E-03    -175.937E-03    -172.411E-03     347.134E-03    -174.723E-03     85.6883E-03     416.043E-03     94.4806E+06     50.5626E+06     31.5058E+06    -51.9131E+06    -51.8252E+06     31.4179E+06     50.5626E+06     2.51300E+06
            1492     103.894E-03     10.0832E-03     103.403E-03     351.825E-03    -174.715E-03    -177.110E-03    -172.506E-03     347.221E-03    -174.715E-03     98.0642E-03     422.391E-03     91.7560E+06     58.3618E+06     32.1864E+06    -43.5752E+06    -43.5117E+06     32.1229E+06     58.3618E+06     1.83843E+06
            1493     104.110E-03     10.9273E-03     103.535E-03     353.019E-03    -174.703E-03    -178.315E-03    -172.915E-03     347.618E-03    -174.703E-03     106.561E-03     427.818E-03     89.6615E+06     64.8240E+06     33.2006E+06    -36.3317E+06    -36.2578E+06     33.1267E+06     64.8240E+06     1.91508E+06
            1494     104.339E-03     11.7662E-03     103.674E-03     355.783E-03    -174.699E-03    -181.084E-03    -173.943E-03     348.642E-03    -174.699E-03     122.320E-03     438.473E-03     88.5153E+06     70.9628E+06     39.5103E+06    -28.9567E+06    -28.8709E+06     39.4244E+06     70.9628E+06     2.33637E+06
            1495     104.620E-03     12.6072E-03     103.857E-03     357.025E-03    -174.711E-03    -182.313E-03    -174.621E-03     349.333E-03    -174.711E-03     127.642E-03     443.030E-03     89.8064E+06     79.4632E+06     51.8550E+06    -20.8864E+06    -20.8277E+06     51.7963E+06     79.4632E+06     1.74954E+06
            1496     104.885E-03     13.4487E-03     104.019E-03     365.627E-03    -174.776E-03    -190.851E-03    -177.727E-03     352.503E-03    -174.776E-03     163.904E-03     469.945E-03     101.369E+06     98.5975E+06     70.3389E+06    -13.8972E+06    -13.8550E+06     70.2967E+06     98.5975E+06     652.550E+03
            1497     105.280E-03     14.2891E-03     104.305E-03     365.921E-03    -174.872E-03    -191.048E-03    -178.315E-03     353.187E-03    -174.872E-03     160.412E-03     461.213E-03     120.409E+06     126.203E+06     92.7253E+06    -7.39959E+06    -7.37140E+06     92.6971E+06     126.203E+06     128.197E+03
            1498     104.374E-03     840.322E-06     104.371E-03     349.399E-03    -174.379E-03    -175.019E-03    -174.985E-03     349.398E-03    -174.414E-03    -157.558E-06     350.532E-03     186.760E+06    -141.717E+06    -146.721E+06    -330.906E+06    -145.449E+06    -330.840E+06    -143.055E+06     767.745E+03
            1499     104.381E-03     1.67968E-03     104.367E-03     349.387E-03    -174.587E-03    -174.800E-03    -174.621E-03     349.385E-03    -174.764E-03     1.44672E-03     352.835E-03     173.493E+06    -128.387E+06    -140.974E+06    -307.739E+06    -140.988E+06    -307.725E+06    -128.387E+06     1.38455E+06
            1500     104.396E-03     2.52039E-03     104.366E-03     349.298E-03    -174.475E-03    -174.823E-03    -174.465E-03     349.287E-03    -174.823E-03     4.32703E-03     356.589E-03     158.785E+06    -109.033E+06    -134.138E+06    -278.707E+06    -134.183E+06    -278.662E+06    -109.033E+06     2.09893E+06
            1501     104.421E-03     3.35961E-03     104.367E-03     349.042E-03    -174.175E-03    -174.867E-03    -174.135E-03     349.002E-03    -174.867E-03     8.72746E-03     361.716E-03     140.215E+06    -85.5523E+06    -125.273E+06    -240.980E+06    -125.370E+06    -240.882E+06    -85.5523E+06     3.29367E+06
            1502     104.459E-03     4.19989E-03     104.374E-03     348.568E-03    -173.700E-03    -174.868E-03    -173.569E-03     348.437E-03    -174.868E-03     15.8780E-03     367.886E-03     120.430E+06    -61.8705E+06    -115.778E+06    -199.400E+06    -115.957E+06    -199.221E+06    -61.8705E+06     3.15959E+06
            1503     104.514E-03     5.04023E-03     104.393E-03     348.373E-03    -173.522E-03    -174.851E-03    -173.228E-03     348.079E-03    -174.851E-03     24.4291E-03     375.551E-03     104.123E+06    -37.9844E+06    -104.827E+06    -157.086E+06    -105.207E+06    -156.707E+06    -37.9844E+06     3.29776E+06
            1504     104.585E-03     5.88030E-03     104.419E-03     348.224E-03    -173.394E-03    -174.830E-03    -172.791E-03     347.621E-03    -174.830E-03     34.8642E-03     383.884E-03     90.1616E+06    -14.1208E+06    -89.2109E+06    -113.510E+06    -94.3450E+06    -108.376E+06    -14.1208E+06     4.45334E+06
            1505     104.683E-03     6.72180E-03     104.467E-03     348.269E-03    -173.477E-03    -174.792E-03    -172.373E-03     347.165E-03    -174.792E-03     47.5336E-03     392.483E-03     85.3619E+06     9.64030E+06    -50.4381E+06    -85.1389E+06    -83.3330E+06    -52.2440E+06     9.64030E+06     4.89585E+06
            1506     104.802E-03     7.56196E-03     104.529E-03     348.874E-03    -174.046E-03    -174.829E-03    -172.365E-03     347.120E-03    -174.756E-03     60.1477E-03     401.437E-03     93.1638E+06     30.1654E+06     1.33523E+06    -72.7639E+06    -72.4826E+06     1.05397E+06     30.1654E+06     4.33386E+06
            1507     104.944E-03     8.40221E-03     104.607E-03     349.540E-03    -174.552E-03    -174.988E-03    -172.249E-03     346.983E-03    -174.734E-03     72.7773E-03     409.159E-03     98.2774E+06     42.9047E+06     27.7888E+06    -62.0506E+06    -61.8823E+06     27.6204E+06     42.9047E+06     3.86040E+06
            1508     105.114E-03     9.24344E-03     104.707E-03     350.375E-03    -174.715E-03    -175.660E-03    -172.195E-03     346.909E-03    -174.715E-03     84.9123E-03     415.811E-03     95.2570E+06     50.8388E+06     32.6192E+06    -52.1790E+06    -52.0401E+06     32.4803E+06     50.8388E+06     3.21806E+06
            1509     105.303E-03     10.0860E-03     104.819E-03     351.775E-03    -174.704E-03    -177.071E-03    -172.593E-03     347.297E-03    -174.704E-03     96.7306E-03     422.405E-03     92.3101E+06     58.2350E+06     33.1710E+06    -43.9134E+06    -43.7947E+06     33.0523E+06     58.2350E+06     2.82146E+06
            1510     105.520E-03     10.9248E-03     104.952E-03     353.404E-03    -174.723E-03    -178.680E-03    -173.402E-03     348.126E-03    -174.723E-03     105.426E-03     428.114E-03     89.8097E+06     65.0640E+06     32.5760E+06    -36.4015E+06    -36.3146E+06     32.4891E+06     65.0640E+06     2.39088E+06
            1511     105.750E-03     11.7659E-03     105.094E-03     356.368E-03    -174.757E-03    -181.611E-03    -174.494E-03     349.251E-03    -174.757E-03     122.192E-03     439.093E-03     88.7501E+06     71.2888E+06     39.5508E+06    -28.8858E+06    -28.8337E+06     39.4988E+06     71.2888E+06     1.77817E+06
            1512     106.027E-03     12.6054E-03     105.275E-03     357.143E-03    -174.778E-03    -182.365E-03    -174.530E-03     349.308E-03    -174.778E-03     128.894E-03     443.244E-03     90.6129E+06     79.2191E+06     52.7118E+06    -21.6710E+06    -21.6361E+06     52.6769E+06     79.2191E+06     1.34803E+06
            1513     106.289E-03     13.4469E-03     105.435E-03     365.273E-03    -174.812E-03    -190.460E-03    -177.180E-03     351.992E-03    -174.812E-03     165.049E-03     469.519E-03     102.212E+06     97.8290E+06     71.1618E+06    -15.0550E+06    -15.0206E+06     71.1274E+06     97.8290E+06     1.05480E+06
            1514     106.685E-03     14.2894E-03     105.724E-03     365.411E-03    -174.872E-03    -190.539E-03    -177.751E-03     352.623E-03    -174.872E-03     160.668E-03     460.615E-03     120.895E+06     126.073E+06     93.5890E+06    -7.71971E+06    -7.69990E+06     93.5692E+06     126.073E+06     835.934E+03
            1515     105.790E-03     839.924E-06     105.787E-03     349.560E-03    -174.430E-03    -175.130E-03    -175.040E-03     349.560E-03    -174.519E-03    -633.571E-06     350.703E-03     190.461E+06    -141.421E+06    -145.981E+06    -334.090E+06    -146.074E+06    -333.997E+06    -141.421E+06     989.515E+03
            1516     105.798E-03     1.68025E-03     105.785E-03     349.420E-03    -174.560E-03    -174.860E-03    -174.594E-03     349.419E-03    -174.824E-03     915.300E-06     352.851E-03     176.781E+06    -127.797E+06    -141.035E+06    -310.730E+06    -141.082E+06    -310.683E+06    -127.797E+06     2.18376E+06
            1517     105.812E-03     2.51945E-03     105.782E-03     349.117E-03    -174.288E-03    -174.828E-03    -174.278E-03     349.106E-03    -174.828E-03     4.14335E-03     356.391E-03     161.693E+06    -108.658E+06    -134.227E+06    -281.466E+06    -134.299E+06    -281.394E+06    -108.658E+06     2.95501E+06
            1518     105.838E-03     3.36002E-03     105.785E-03     348.822E-03    -174.001E-03    -174.821E-03    -173.959E-03     348.781E-03    -174.821E-03     8.94581E-03     361.543E-03     143.534E+06    -85.8715E+06    -124.869E+06    -244.585E+06    -124.984E+06    -244.470E+06    -85.8715E+06     3.40887E+06
            1519     105.874E-03     4.20012E-03     105.790E-03     348.463E-03    -173.654E-03    -174.809E-03    -173.523E-03     348.332E-03    -174.809E-03     15.9131E-03     367.805E-03     122.655E+06    -60.5692E+06    -114.011E+06    -200.354E+06    -114.249E+06    -200.115E+06    -60.5692E+06     4.24801E+06
            1520     105.929E-03     5.04102E-03     105.809E-03     348.393E-03    -173.587E-03    -174.806E-03    -173.277E-03     348.082E-03    -174.806E-03     24.9863E-03     375.433E-03     107.122E+06    -36.3955E+06    -103.868E+06    -159.208E+06    -104.387E+06    -158.689E+06    -36.3955E+06     4.50816E+06
            1521     106.002E-03     5.88096E-03     105.838E-03     348.661E-03    -173.837E-03    -174.824E-03    -173.229E-03     348.052E-03    -174.824E-03     35.2040E-03     384.338E-03     92.8155E+06    -12.7693E+06    -89.3063E+06    -115.024E+06    -93.1740E+06    -111.156E+06    -12.7693E+06     5.01741E+06
            1522     106.095E-03     6.72066E-03     105.882E-03     348.355E-03    -173.537E-03    -174.818E-03    -172.446E-03     347.264E-03    -174.818E-03     47.2155E-03     392.740E-03     86.0364E+06     10.9004E+06    -51.1136E+06    -84.2528E+06    -81.7978E+06    -53.5686E+06     10.9004E+06     5.72299E+06
            1523     106.216E-03     7.56257E-03     105.946E-03     348.578E-03    -173.742E-03    -174.837E-03    -172.030E-03     346.793E-03    -174.764E-03     60.5908E-03     401.205E-03     93.5822E+06     31.4750E+06     1.94227E+06    -71.9196E+06    -71.4174E+06     1.44008E+06     31.4750E+06     5.69934E+06
            1524     106.359E-03     8.40248E-03     106.026E-03     349.790E-03    -174.523E-03    -175.267E-03    -172.484E-03     347.217E-03    -174.733E-03     73.1075E-03     409.568E-03     98.9411E+06     43.7345E+06     28.5078E+06    -61.9310E+06    -61.6623E+06     28.2391E+06     43.7345E+06     4.77112E+06
            1525     106.523E-03     9.24347E-03     106.121E-03     350.891E-03    -174.746E-03    -176.145E-03    -172.720E-03     347.467E-03    -174.746E-03     84.5002E-03     416.386E-03     95.6031E+06     50.9308E+06     32.9073E+06    -52.3788E+06    -52.1767E+06     32.7052E+06     50.9308E+06     4.05961E+06
            1526     106.715E-03     10.0827E-03     106.238E-03     352.126E-03    -174.770E-03    -177.356E-03    -172.928E-03     347.698E-03    -174.770E-03     96.2444E-03     422.666E-03     92.2440E+06     58.0519E+06     33.3809E+06    -43.9021E+06    -43.7069E+06     33.1857E+06     58.0519E+06     3.77540E+06
            1527     106.929E-03     10.9246E-03     106.369E-03     353.232E-03    -174.788E-03    -178.444E-03    -173.088E-03     347.876E-03    -174.788E-03     106.119E-03     427.822E-03     89.7949E+06     65.7519E+06     33.2866E+06    -35.6930E+06    -35.5494E+06     33.1431E+06     65.7519E+06     3.01256E+06
            1528     107.160E-03     11.7647E-03     106.513E-03     355.851E-03    -174.779E-03    -181.071E-03    -173.808E-03     348.588E-03    -174.779E-03     123.388E-03     438.535E-03     89.3477E+06     72.4506E+06     40.6805E+06    -28.3545E+06    -28.2671E+06     40.5932E+06     72.4506E+06     2.31432E+06
            1529     107.433E-03     12.6072E-03     106.691E-03     357.140E-03    -174.768E-03    -182.372E-03    -174.484E-03     349.252E-03    -174.768E-03     129.303E-03     443.181E-03     91.5091E+06     79.5977E+06     53.3811E+06    -22.1345E+06    -22.0700E+06     53.3166E+06     79.5977E+06     2.01258E+06
            1530     107.696E-03     13.4484E-03     106.853E-03     365.463E-03    -174.803E-03    -190.659E-03    -177.326E-03     352.129E-03    -174.803E-03     165.397E-03     469.616E-03     102.813E+06     98.0268E+06     71.9571E+06    -15.3003E+06    -15.2563E+06     71.9131E+06     98.0268E+06     1.45952E+06
            1531     108.088E-03     14.2888E-03     107.140E-03     365.134E-03    -174.858E-03    -190.276E-03    -177.463E-03     352.320E-03    -174.858E-03     160.668E-03     460.421E-03     121.179E+06     125.876E+06     94.0739E+06    -8.01185E+06    -7.98826E+06     94.0503E+06     125.876E+06     611.128E+03
            1532     107.209E-03     839.421E-06     107.205E-03     349.830E-03    -174.589E-03    -175.241E-03    -175.151E-03     349.830E-03    -174.679E-03     22.0767E-06     350.986E-03     193.821E+06    -142.012E+06    -147.377E+06    -338.434E+06    -145.980E+06    -338.345E+06    -143.498E+06     1.83007E+06
            1533     107.214E-03     1.67906E-03     107.201E-03     349.503E-03    -174.548E-03    -174.955E-03    -174.574E-03     349.501E-03    -174.928E-03     1.08771E-03     352.973E-03     179.854E+06    -128.650E+06    -141.321E+06    -314.394E+06    -141.381E+06    -314.334E+06    -128.650E+06     2.53238E+06
            1534     107.230E-03     2.52000E-03     107.200E-03     348.897E-03    -174.038E-03    -174.859E-03    -174.029E-03     348.888E-03    -174.859E-03     3.94191E-03     356.193E-03     164.595E+06    -107.778E+06    -133.604E+06    -283.597E+06    -133.684E+06    -283.516E+06    -107.778E+06     3.02549E+06
            1535     107.253E-03     3.36044E-03     107.200E-03     348.596E-03    -173.812E-03    -174.785E-03    -173.769E-03     348.554E-03    -174.785E-03     8.86320E-03     361.233E-03     146.267E+06    -85.4825E+06    -124.673E+06    -247.112E+06    -124.774E+06    -247.011E+06    -85.4825E+06     3.11060E+06
            1536     107.292E-03     4.20077E-03     107.209E-03     348.629E-03    -173.854E-03    -174.775E-03    -173.735E-03     348.510E-03    -174.775E-03     15.4394E-03     367.991E-03     125.863E+06    -61.2553E+06    -114.202E+06    -204.447E+06    -114.476E+06    -204.173E+06    -61.2553E+06     4.17617E+06
            1537     107.343E-03     5.04069E-03     107.224E-03     348.366E-03    -173.566E-03    -174.800E-03    -173.266E-03     348.067E-03    -174.800E-03     24.3560E-03     375.439E-03     109.899E+06    -35.2875E+06    -102.774E+06    -161.401E+06    -103.469E+06    -160.707E+06    -35.2875E+06     5.70770E+06
            1538     107.419E-03     5.88139E-03     107.258E-03     348.259E-03    -173.467E-03    -174.793E-03    -172.846E-03     347.638E-03    -174.793E-03     35.5226E-03     383.922E-03     95.0254E+06    -11.8854E+06    -89.1244E+06    -116.922E+06    -92.8933E+06    -113.153E+06    -11.8854E+06     6.10417E+06
            1539     107.510E-03     6.72102E-03     107.300E-03     348.699E-03    -173.778E-03    -174.921E-03    -172.803E-03     347.583E-03    -174.780E-03     47.7928E-03     393.085E-03     86.3830E+06     10.3838E+06    -52.8575E+06    -85.3143E+06    -82.0783E+06    -56.0935E+06     10.3838E+06     6.46011E+06
            1540     107.627E-03     7.56140E-03     107.361E-03     348.989E-03    -174.078E-03    -174.912E-03    -172.440E-03     347.211E-03    -174.771E-03     60.5734E-03     401.529E-03     93.4883E+06     31.3314E+06     1.36397E+06    -71.7976E+06    -71.0531E+06     619.481E+03     31.3314E+06     7.06372E+06
            1541     107.773E-03     8.40385E-03     107.445E-03     349.755E-03    -174.501E-03    -175.254E-03    -172.453E-03     347.215E-03    -174.762E-03     72.6101E-03     409.440E-03     99.5168E+06     44.8302E+06     30.1427E+06    -61.2048E+06    -60.7003E+06     29.6382E+06     44.8302E+06     6.71233E+06
            1542     107.938E-03     9.24219E-03     107.541E-03     351.036E-03    -174.780E-03    -176.256E-03    -172.814E-03     347.595E-03    -174.780E-03     84.6945E-03     416.498E-03     96.5551E+06     52.4870E+06     33.4197E+06    -52.1256E+06    -51.7721E+06     33.0662E+06     52.4870E+06     5.36100E+06
            1543     108.126E-03     10.0836E-03     107.655E-03     352.106E-03    -174.799E-03    -177.308E-03    -172.750E-03     347.549E-03    -174.799E-03     97.5912E-03     422.676E-03     93.4600E+06     60.0227E+06     33.6376E+06    -43.6936E+06    -43.4201E+06     33.3642E+06     60.0227E+06     4.52175E+06
            1544     108.339E-03     10.9237E-03     107.787E-03     352.987E-03    -174.788E-03    -178.198E-03    -172.745E-03     347.533E-03    -174.788E-03     107.054E-03     427.647E-03     91.7333E+06     67.4697E+06     34.9446E+06    -36.0754E+06    -35.7965E+06     34.6657E+06     67.4697E+06     4.27853E+06
            1545     108.567E-03     11.7669E-03     107.928E-03     355.802E-03    -174.759E-03    -181.043E-03    -173.740E-03     348.499E-03    -174.759E-03     123.686E-03     438.426E-03     90.7398E+06     73.0373E+06     41.6925E+06    -29.1807E+06    -28.9988E+06     41.5107E+06     73.0373E+06     3.20747E+06
            1546     108.843E-03     12.6067E-03     108.111E-03     357.041E-03    -174.745E-03    -182.297E-03    -174.442E-03     349.187E-03    -174.745E-03     128.957E-03     443.012E-03     91.8203E+06     80.1122E+06     53.7242E+06    -21.9868E+06    -21.9248E+06     53.6622E+06     80.1122E+06     2.00181E+06
            1547     109.101E-03     13.4472E-03     108.269E-03     365.251E-03    -174.775E-03    -190.476E-03    -177.126E-03     351.901E-03    -174.775E-03     165.162E-03     469.453E-03     103.313E+06     98.8640E+06     72.8347E+06    -14.9605E+06    -14.9226E+06     72.7968E+06     98.8640E+06     1.65158E+06
            1548     109.494E-03     14.2902E-03     108.557E-03     365.315E-03    -174.828E-03    -190.487E-03    -177.603E-03     352.430E-03    -174.828E-03     160.970E-03     460.641E-03     121.775E+06     126.759E+06     95.1895E+06    -7.67104E+06    -7.64700E+06     95.1655E+06     126.759E+06     934.524E+03
            1549     108.626E-03     840.338E-06     108.622E-03     349.525E-03    -174.210E-03    -175.315E-03    -175.310E-03     349.524E-03    -174.214E-03     441.669E-06     350.667E-03     196.809E+06    -142.532E+06    -146.926E+06    -341.496E+06    -145.480E+06    -341.456E+06    -144.018E+06    -395.866E+03
            1550     108.632E-03     1.68002E-03     108.619E-03     349.523E-03    -174.642E-03    -174.881E-03    -174.704E-03     349.522E-03    -174.818E-03     1.33212E-03     353.006E-03     182.620E+06    -130.613E+06    -140.316E+06    -317.765E+06    -140.360E+06    -317.721E+06    -130.613E+06     1.59293E+06
            1551     108.645E-03     2.51951E-03     108.616E-03     349.186E-03    -174.295E-03    -174.891E-03    -174.323E-03     349.179E-03    -174.856E-03     3.59669E-03     356.546E-03     166.752E+06    -109.036E+06    -133.090E+06    -286.333E+06    -133.149E+06    -286.273E+06    -109.036E+06     2.65213E+06
            1552     108.669E-03     3.36005E-03     108.617E-03     348.789E-03    -173.944E-03    -174.844E-03    -173.905E-03     348.749E-03    -174.844E-03     8.50925E-03     361.410E-03     148.816E+06    -85.9400E+06    -125.108E+06    -250.107E+06    -125.304E+06    -249.911E+06    -85.9400E+06     3.96145E+06
            1553     108.707E-03     4.20024E-03     108.626E-03     348.581E-03    -173.750E-03    -174.831E-03    -173.629E-03     348.460E-03    -174.831E-03     15.4068E-03     367.920E-03     128.838E+06    -61.8360E+06    -115.581E+06    -208.424E+06    -115.951E+06    -208.054E+06    -61.8360E+06     5.04641E+06
            1554     108.760E-03     5.04001E-03     108.643E-03     348.252E-03    -173.431E-03    -174.821E-03    -173.134E-03     347.955E-03    -174.821E-03     24.3065E-03     375.402E-03     111.786E+06    -37.2384E+06    -104.325E+06    -165.584E+06    -105.137E+06    -164.772E+06    -37.2384E+06     6.14562E+06
            1555     108.830E-03     5.88098E-03     108.671E-03     348.057E-03    -173.268E-03    -174.789E-03    -172.655E-03     347.444E-03    -174.789E-03     35.2581E-03     383.653E-03     96.1399E+06    -12.9845E+06    -89.8739E+06    -119.780E+06    -94.3757E+06    -115.278E+06    -12.9845E+06     7.08292E+06
            1556     108.926E-03     6.72354E-03     108.718E-03     348.710E-03    -173.797E-03    -174.913E-03    -172.853E-03     347.624E-03    -174.772E-03     47.1608E-03     392.959E-03     87.7014E+06     10.0389E+06    -54.5314E+06    -87.5668E+06    -83.6604E+06    -58.4378E+06     10.0389E+06     7.34834E+06
            1557     109.044E-03     7.56190E-03     108.782E-03     349.471E-03    -174.468E-03    -175.004E-03    -172.922E-03     347.715E-03    -174.793E-03     60.1753E-03     402.001E-03     94.5936E+06     31.1088E+06    -202.531E+03    -73.2805E+06    -72.3960E+06    -1.08701E+06     31.1088E+06     7.66302E+06
            1558     109.183E-03     8.40017E-03     108.860E-03     349.732E-03    -174.750E-03    -174.981E-03    -172.341E-03     347.143E-03    -174.802E-03     73.2448E-03     409.340E-03     100.626E+06     45.2015E+06     30.4892E+06    -61.9638E+06    -61.3370E+06     29.8624E+06     45.2015E+06     7.58493E+06
            1559     109.352E-03     9.24365E-03     108.960E-03     350.302E-03    -174.777E-03    -175.525E-03    -172.058E-03     346.835E-03    -174.777E-03     84.9421E-03     415.744E-03     97.5101E+06     53.5338E+06     34.5770E+06    -52.0064E+06    -51.4695E+06     34.0401E+06     53.5338E+06     6.77719E+06
            1560     109.536E-03     10.0839E-03     109.071E-03     351.600E-03    -174.747E-03    -176.853E-03    -172.311E-03     347.057E-03    -174.747E-03     97.3297E-03     422.182E-03     94.5611E+06     61.2200E+06     34.2367E+06    -43.7728E+06    -43.2871E+06     33.7510E+06     61.2200E+06     6.02340E+06
            1561     109.750E-03     10.9263E-03     109.205E-03     353.221E-03    -174.733E-03    -178.487E-03    -173.006E-03     347.739E-03    -174.733E-03     107.369E-03     427.812E-03     93.0726E+06     68.8169E+06     35.8682E+06    -36.2390E+06    -35.8213E+06     35.4505E+06     68.8169E+06      5.3088E+06
            1562     109.976E-03     11.7651E-03     109.344E-03     356.075E-03    -174.726E-03    -181.349E-03    -174.004E-03     348.729E-03    -174.726E-03     124.108E-03     438.772E-03     91.9187E+06     74.7782E+06     43.6232E+06    -28.6365E+06    -28.3853E+06     43.3720E+06     74.7782E+06     3.94365E+06
            1563     110.252E-03     12.6070E-03     109.529E-03     356.774E-03    -174.712E-03    -182.063E-03    -174.131E-03     348.843E-03    -174.712E-03     129.546E-03     442.876E-03     93.1942E+06     81.4595E+06     54.9816E+06    -22.0821E+06    -21.9630E+06     54.8625E+06     81.4595E+06     2.74572E+06
            1564     110.506E-03     13.4497E-03     109.685E-03     365.231E-03    -174.732E-03    -190.498E-03    -177.150E-03     351.883E-03    -174.732E-03     165.382E-03     469.536E-03     104.669E+06     99.3793E+06     73.4722E+06    -15.7996E+06    -15.7498E+06     73.4223E+06     99.3793E+06     1.88949E+06
            1565     110.899E-03     14.2906E-03     109.975E-03     365.387E-03    -174.794E-03    -190.592E-03    -177.779E-03     352.573E-03    -174.794E-03     160.612E-03     460.773E-03     123.192E+06     127.172E+06     96.4791E+06    -8.44647E+06    -8.43171E+06     96.4643E+06     127.172E+06     913.157E+03
            1566     110.041E-03     839.780E-06     110.038E-03     349.292E-03    -174.029E-03    -175.263E-03    -175.119E-03     349.291E-03    -174.172E-03    -405.382E-06     350.427E-03     199.249E+06    -138.930E+06    -146.347E+06     -341.76E+06    -144.453E+06    -341.744E+06    -140.839E+06     420.577E+03
            1567     110.050E-03     1.68009E-03     110.037E-03     349.201E-03    -174.478E-03    -174.723E-03    -174.512E-03     349.199E-03    -174.688E-03     1.43786E-03     352.631E-03     186.509E+06    -130.290E+06    -141.014E+06    -321.884E+06    -141.040E+06    -321.858E+06    -130.290E+06     1.01388E+06
            1568     110.062E-03     2.51992E-03     110.034E-03     349.465E-03    -174.575E-03    -174.889E-03    -174.685E-03     349.454E-03    -174.769E-03     4.22351E-03     356.799E-03     168.951E+06    -111.925E+06    -134.375E+06    -290.753E+06    -134.456E+06    -290.672E+06    -111.925E+06     3.04387E+06
            1569     110.085E-03     3.35930E-03     110.034E-03     349.248E-03    -174.275E-03    -174.972E-03    -174.318E-03     349.205E-03    -174.887E-03     8.95316E-03     361.946E-03     152.000E+06    -86.6361E+06    -125.441E+06    -253.997E+06    -125.663E+06    -253.775E+06    -86.6361E+06     4.45610E+06
            1570     110.123E-03     4.19976E-03     110.043E-03     348.493E-03    -173.592E-03    -174.900E-03    -173.473E-03     348.373E-03    -174.900E-03     15.3814E-03     367.894E-03     132.887E+06    -61.9631E+06    -115.172E+06    -212.768E+06    -115.644E+06    -212.295E+06    -61.9631E+06     5.80286E+06
            1571     110.175E-03     5.04130E-03     110.059E-03     348.318E-03    -173.451E-03    -174.867E-03    -173.166E-03     348.032E-03    -174.867E-03     23.8972E-03     375.439E-03     114.846E+06    -37.1771E+06    -104.127E+06    -169.104E+06    -105.076E+06    -168.154E+06    -37.1771E+06     6.97038E+06
            1572     110.246E-03     5.88134E-03     110.089E-03     348.713E-03    -173.844E-03    -174.870E-03    -173.241E-03     348.111E-03    -174.870E-03     34.9199E-03     384.205E-03     98.4371E+06    -12.7062E+06    -89.7344E+06    -122.602E+06    -94.1151E+06    -118.222E+06    -12.7062E+06     7.85141E+06
            1573     110.341E-03     6.71901E-03     110.136E-03     348.602E-03    -173.730E-03    -174.872E-03    -172.653E-03     347.525E-03    -174.872E-03     46.9804E-03     392.828E-03     89.1493E+06     10.7831E+06    -55.7500E+06    -88.7875E+06    -83.1193E+06    -61.4182E+06     10.7831E+06     8.67850E+06
            1574     110.458E-03     7.56163E-03     110.199E-03     348.565E-03    -173.674E-03    -174.891E-03    -171.971E-03     346.792E-03    -174.821E-03     60.2986E-03     401.204E-03     96.1124E+06     32.3194E+06    -1.17713E+06    -73.7877E+06    -72.4671E+06    -2.49769E+06     32.3194E+06     8.90568E+06
            1575     110.600E-03     8.40366E-03     110.280E-03     349.303E-03    -174.314E-03    -174.990E-03    -171.915E-03     346.667E-03    -174.752E-03     73.8872E-03     408.899E-03     102.008E+06     46.0672E+06     30.7154E+06    -62.7389E+06    -62.0194E+06     29.9959E+06     46.0672E+06     8.14302E+06
            1576     110.760E-03     9.24245E-03     110.374E-03     350.420E-03    -174.710E-03    -175.710E-03    -172.172E-03     346.883E-03    -174.710E-03     85.8042E-03     415.804E-03     98.5859E+06     53.1245E+06     34.1969E+06    -53.5215E+06    -52.8040E+06     33.4794E+06     53.1245E+06     7.84475E+06
            1577     110.949E-03     10.0851E-03     110.490E-03     351.792E-03    -174.702E-03    -177.090E-03    -172.605E-03     347.307E-03    -174.702E-03     96.8546E-03     422.362E-03     95.6726E+06     60.9867E+06     34.7072E+06    -44.9519E+06    -44.2364E+06     33.9917E+06     60.9867E+06     7.46529E+06
            1578     111.157E-03     10.9254E-03     110.619E-03     353.065E-03    -174.706E-03    -178.360E-03    -172.940E-03     347.645E-03    -174.706E-03     106.697E-03     427.587E-03     94.6858E+06     69.5861E+06     37.9051E+06    -36.8628E+06    -36.3731E+06     37.4154E+06     69.5861E+06     5.90408E+06
            1579     111.390E-03     11.7675E-03     110.766E-03     355.591E-03    -174.689E-03    -180.902E-03    -173.615E-03     348.303E-03    -174.689E-03     123.631E-03     438.172E-03     93.8527E+06     75.7082E+06     45.3513E+06    -29.5483E+06    -29.2446E+06     45.0476E+06     75.7082E+06     4.71341E+06
            1580     111.655E-03     12.6086E-03     110.941E-03     356.677E-03    -174.668E-03    -182.008E-03    -174.167E-03     348.836E-03    -174.668E-03     128.835E-03     442.664E-03     94.8748E+06     82.2627E+06     56.1182E+06    -22.9026E+06    -22.7019E+06     55.9176E+06     82.2627E+06     3.88176E+06
            1581     111.917E-03     13.4493E-03     111.106E-03     365.169E-03    -174.697E-03    -190.471E-03    -177.167E-03     351.864E-03    -174.697E-03     165.162E-03     469.441E-03     106.268E+06     100.497E+06     74.9809E+06    -16.1973E+06    -16.1206E+06     74.9042E+06     100.497E+06     2.26322E+06
            1582     112.303E-03     14.2900E-03     111.390E-03     365.205E-03    -174.762E-03    -190.443E-03    -177.624E-03     352.386E-03    -174.762E-03     160.828E-03     460.524E-03     124.681E+06     129.072E+06     98.1663E+06    -8.13668E+06    -8.12107E+06     98.1507E+06     129.072E+06     930.882E+03
            1583     111.459E-03     839.901E-06     111.456E-03     349.344E-03    -174.378E-03    -174.966E-03    -174.760E-03     349.343E-03    -174.582E-03    -259.454E-06     350.514E-03     201.043E+06    -140.359E+06    -148.733E+06    -345.445E+06    -146.852E+06    -345.416E+06    -142.269E+06     1.78500E+06
            1584     111.464E-03     1.68033E-03     111.452E-03     349.187E-03    -174.398E-03    -174.789E-03    -174.465E-03     349.185E-03    -174.721E-03     1.03936E-03     352.630E-03     190.446E+06    -127.805E+06    -142.156E+06    -324.921E+06    -142.190E+06    -324.887E+06    -127.805E+06     2.31402E+06
            1585     111.480E-03     2.52082E-03     111.451E-03     349.202E-03    -174.369E-03    -174.834E-03    -174.444E-03     349.192E-03    -174.749E-03     4.12605E-03     356.473E-03     173.640E+06    -110.631E+06    -135.161E+06    -295.095E+06    -135.239E+06    -295.017E+06    -110.631E+06     3.00642E+06
            1586     111.504E-03     3.36011E-03     111.453E-03     349.108E-03    -174.205E-03    -174.902E-03    -174.248E-03     349.065E-03    -174.817E-03     8.98002E-03     361.798E-03     155.615E+06    -87.6330E+06    -125.378E+06    -258.363E+06    -125.600E+06    -258.141E+06    -87.6330E+06     4.59931E+06
            1587     111.538E-03     4.19970E-03     111.459E-03     348.824E-03    -173.954E-03    -174.870E-03    -173.823E-03     348.693E-03    -174.870E-03     15.9670E-03     368.182E-03     136.347E+06    -62.5415E+06    -115.658E+06    -217.013E+06    -116.140E+06    -216.532E+06    -62.5415E+06     6.02689E+06
            1588     111.590E-03     5.03942E-03     111.476E-03     348.922E-03    -174.006E-03    -174.915E-03    -173.698E-03     348.614E-03    -174.915E-03     24.8662E-03     375.976E-03     117.952E+06    -37.3098E+06    -104.098E+06    -172.904E+06    -105.013E+06    -171.989E+06    -37.3098E+06     7.21857E+06
            1589     111.663E-03     5.87928E-03     111.508E-03     348.690E-03    -173.746E-03    -174.944E-03    -173.122E-03     348.066E-03    -174.944E-03     35.5589E-03     384.269E-03     100.795E+06    -12.5317E+06    -89.2498E+06    -125.683E+06    -93.0245E+06    -121.909E+06    -12.5317E+06     8.46829E+06
            1590     111.756E-03     6.72165E-03     111.554E-03     348.199E-03    -173.297E-03    -174.902E-03    -172.178E-03     347.079E-03    -174.902E-03     47.8492E-03     392.534E-03     90.5117E+06     11.2687E+06    -57.5658E+06    -90.1552E+06    -81.8799E+06    -65.8411E+06     11.2687E+06     10.2659E+06
            1591     111.870E-03     7.56132E-03     111.614E-03     348.184E-03    -173.387E-03    -174.797E-03    -171.591E-03     346.388E-03    -174.797E-03     60.7507E-03     400.836E-03     97.2558E+06     33.5515E+06    -2.06490E+06    -73.6140E+06    -71.4658E+06    -4.21309E+06     33.5515E+06     11.0722E+06
            1592     112.011E-03     8.40294E-03     111.695E-03     348.817E-03    -174.001E-03    -174.816E-03    -171.543E-03     346.233E-03    -174.691E-03     73.1004E-03     408.390E-03     103.361E+06     47.1632E+06     31.3950E+06    -63.1586E+06    -61.9879E+06     30.2242E+06     47.1632E+06     10.3182E+06
            1593     112.175E-03     9.24604E-03     111.793E-03     350.364E-03    -174.543E-03    -175.821E-03    -172.211E-03     346.850E-03    -174.640E-03     85.4636E-03     415.620E-03     99.8032E+06     53.7331E+06     33.8833E+06    -54.4756E+06    -53.3780E+06     32.7857E+06     53.7331E+06     9.68155E+06
            1594     112.360E-03     10.0844E-03     111.907E-03     352.246E-03    -174.653E-03    -177.593E-03    -173.041E-03     347.695E-03    -174.653E-03     97.6384E-03     422.828E-03     97.2899E+06     61.4522E+06     35.7102E+06    -46.0564E+06    -45.1331E+06     34.7869E+06     61.4522E+06     8.58443E+06
            1595     112.569E-03     10.9250E-03     112.038E-03     353.199E-03    -174.684E-03    -178.515E-03    -173.085E-03     347.769E-03    -174.684E-03     106.849E-03     427.989E-03     96.6765E+06     70.4726E+06     40.2070E+06    -37.7115E+06    -37.0705E+06     39.5660E+06     70.4726E+06     6.97606E+06
            1596     112.794E-03     11.7667E-03     112.179E-03     355.487E-03    -174.674E-03    -180.812E-03    -173.551E-03     348.225E-03    -174.674E-03     123.351E-03     437.924E-03     95.5284E+06     76.5340E+06     46.8580E+06    -30.3049E+06    -29.8818E+06     46.4350E+06     76.5340E+06     5.63290E+06
            1597     113.067E-03     12.6080E-03     112.362E-03     356.558E-03    -174.652E-03    -181.906E-03    -174.086E-03     348.738E-03    -174.652E-03     128.614E-03     442.369E-03     95.9178E+06     83.2432E+06     57.2427E+06    -22.9623E+06    -22.7432E+06     57.0236E+06     83.2432E+06     4.02625E+06
            1598     113.321E-03     13.4492E-03     112.520E-03     364.812E-03    -174.669E-03    -190.142E-03    -176.768E-03     351.438E-03    -174.669E-03     165.301E-03     469.235E-03     107.553E+06     102.701E+06      77.569E+06    -15.1879E+06    -15.0821E+06     77.4631E+06     102.701E+06     2.74695E+06
            1599     113.710E-03     14.2932E-03     112.808E-03     365.277E-03    -174.724E-03    -190.552E-03    -177.669E-03     352.393E-03    -174.724E-03     160.986E-03     460.549E-03     126.400E+06     131.279E+06     100.643E+06    -7.60326E+06    -7.55465E+06     100.594E+06     131.279E+06     1.47794E+06
            1600     112.876E-03     840.384E-06     112.873E-03     349.253E-03    -174.447E-03    -174.806E-03    -174.739E-03     349.252E-03    -174.513E-03     301.824E-06     350.410E-03     204.006E+06    -142.634E+06    -149.368E+06    -349.922E+06    -147.367E+06    -349.902E+06    -144.655E+06     392.963E+03
            1601     112.882E-03     1.67934E-03     112.869E-03     349.473E-03    -174.618E-03    -174.855E-03    -174.735E-03     349.471E-03    -174.736E-03     1.50455E-03     352.934E-03     194.208E+06    -128.987E+06    -141.681E+06    -329.097E+06    -141.737E+06    -329.041E+06    -128.987E+06     2.61742E+06
            1602     112.896E-03     2.51906E-03     112.868E-03     348.878E-03    -174.084E-03    -174.794E-03    -174.092E-03     348.867E-03    -174.775E-03     4.31093E-03     356.195E-03     177.859E+06    -109.669E+06    -135.324E+06    -298.790E+06    -135.420E+06    -298.694E+06    -109.669E+06     3.68675E+06
            1603     112.920E-03     3.36043E-03     112.870E-03     348.480E-03    -173.755E-03    -174.725E-03    -173.712E-03     348.437E-03    -174.725E-03     9.11418E-03     361.095E-03     159.682E+06    -87.9918E+06    -126.927E+06    -263.281E+06    -127.158E+06    -263.050E+06    -87.9918E+06     4.88643E+06
            1604     112.954E-03     4.20127E-03     112.876E-03     348.945E-03    -174.192E-03    -174.753E-03    -174.051E-03     348.804E-03    -174.753E-03     16.5717E-03     368.197E-03     139.631E+06    -62.8223E+06    -115.647E+06    -220.771E+06    -116.116E+06    -220.303E+06    -62.8223E+06     6.34901E+06
            1605     113.008E-03     5.04076E-03     112.896E-03     348.960E-03    -174.118E-03    -174.842E-03    -173.786E-03     348.628E-03    -174.842E-03     25.9027E-03     376.081E-03     120.616E+06    -38.7044E+06    -104.954E+06    -177.310E+06    -105.928E+06    -176.335E+06    -38.7044E+06     7.63812E+06
            1606     113.078E-03     5.88049E-03     112.925E-03     348.248E-03    -173.386E-03    -174.862E-03    -172.744E-03     347.605E-03    -174.862E-03     36.1532E-03     384.010E-03     103.201E+06    -14.7729E+06    -91.7085E+06    -131.089E+06    -95.6249E+06    -127.173E+06    -14.7729E+06     9.42441E+06
            1607     113.168E-03     6.72066E-03     112.969E-03     347.980E-03    -173.181E-03    -174.799E-03    -172.046E-03     346.846E-03    -174.799E-03     48.1493E-03     392.392E-03     92.4168E+06     9.52081E+06    -61.0896E+06    -94.3075E+06    -84.2909E+06    -71.1062E+06     9.52081E+06     11.1484E+06
            1608     113.285E-03     7.56306E-03     113.032E-03     348.565E-03    -173.843E-03    -174.722E-03    -172.039E-03     346.761E-03    -174.722E-03     60.9712E-03     401.074E-03     98.6358E+06     32.8412E+06    -4.19490E+06    -75.6851E+06    -73.0387E+06    -6.84130E+06     32.8412E+06     12.4214E+06
            1609     113.423E-03     8.40335E-03     113.111E-03     349.273E-03    -174.398E-03    -174.876E-03    -172.040E-03     346.710E-03    -174.670E-03     72.8910E-03     408.895E-03     104.436E+06     47.1038E+06     31.3389E+06    -64.2984E+06    -62.5767E+06     29.6172E+06     47.1038E+06     12.6919E+06
            1610     113.585E-03     9.24330E-03     113.209E-03     350.005E-03    -174.539E-03    -175.466E-03    -171.896E-03     346.531E-03    -174.635E-03     84.9159E-03     415.322E-03     100.636E+06     54.5570E+06     34.4446E+06    -54.5867E+06    -52.9563E+06     32.8142E+06     54.5570E+06     11.8903E+06
            1611     113.773E-03     10.0867E-03     113.325E-03     351.597E-03    -174.615E-03    -176.982E-03    -172.425E-03     347.039E-03    -174.615E-03     97.5604E-03     421.937E-03     99.3903E+06     63.5923E+06     38.2288E+06    -45.9865E+06    -44.7105E+06     36.9528E+06     63.5923E+06     10.2190E+06
            1612     113.981E-03     10.9271E-03     113.456E-03     353.332E-03    -174.631E-03    -178.701E-03    -173.294E-03     347.924E-03    -174.631E-03     106.691E-03     427.972E-03     98.5105E+06     72.1833E+06     42.1820E+06    -37.8171E+06    -37.0110E+06     41.3758E+06     72.1833E+06     7.91396E+06
            1613     114.204E-03     11.7670E-03     113.596E-03     355.801E-03    -174.643E-03    -181.158E-03    -173.831E-03     348.474E-03    -174.643E-03     123.834E-03     438.430E-03     96.2677E+06     78.7203E+06     48.5802E+06    -29.0033E+06    -28.5615E+06     48.1384E+06     78.7203E+06     5.75587E+06
            1614     114.475E-03     12.6085E-03     113.778E-03     356.312E-03    -174.622E-03    -181.690E-03    -173.771E-03     348.393E-03    -174.622E-03     129.310E-03     442.352E-03     96.6162E+06     85.8701E+06     59.2307E+06    -21.2485E+06    -20.9977E+06     58.9798E+06     85.8701E+06     4.34813E+06
            1615     114.727E-03     13.4513E-03     113.935E-03     364.971E-03    -174.634E-03    -190.337E-03    -177.009E-03     351.643E-03    -174.634E-03     165.112E-03     469.338E-03     108.742E+06     104.014E+06     79.2438E+06    -14.9416E+06    -14.7779E+06     79.0801E+06     104.014E+06     3.78440E+06
            1616     115.115E-03     14.2910E-03     114.225E-03     365.378E-03    -174.703E-03    -190.675E-03    -177.819E-03     352.522E-03    -174.703E-03     160.938E-03     460.682E-03     128.363E+06     132.601E+06     103.618E+06    -7.74808E+06    -7.66252E+06     103.532E+06     132.601E+06     2.56676E+06
            1617     114.290E-03     839.985E-06     114.287E-03     349.017E-03    -174.282E-03    -174.735E-03    -174.620E-03     349.016E-03    -174.396E-03     246.927E-06     350.172E-03     204.956E+06    -142.776E+06    -150.708E+06    -351.579E+06    -148.700E+06    -351.565E+06    -144.798E+06     669.182E+03
            1618     114.300E-03     1.68086E-03     114.288E-03     348.944E-03    -174.328E-03    -174.616E-03    -174.376E-03     348.941E-03    -174.565E-03     2.13032E-03     352.386E-03     196.675E+06    -132.348E+06    -144.377E+06    -334.695E+06    -144.412E+06    -334.660E+06    -132.348E+06     1.85006E+06
            1619     114.312E-03     2.52061E-03     114.284E-03     348.828E-03    -174.109E-03    -174.719E-03    -174.207E-03     348.817E-03    -174.610E-03     4.50087E-03     356.154E-03     181.994E+06    -110.939E+06    -135.886E+06    -303.921E+06    -136.011E+06    -303.795E+06    -110.939E+06     4.25171E+06
            1620     114.334E-03     3.36112E-03     114.284E-03     348.692E-03    -173.945E-03    -174.747E-03    -173.990E-03     348.647E-03    -174.657E-03     9.21096E-03     361.327E-03     164.105E+06    -87.2051E+06    -126.673E+06    -267.223E+06    -126.940E+06    -266.955E+06    -87.2051E+06     5.75203E+06
            1621     114.372E-03     4.20073E-03     114.295E-03     348.461E-03    -173.773E-03    -174.688E-03    -173.635E-03     348.323E-03    -174.688E-03     16.4222E-03     367.787E-03     143.280E+06    -64.2683E+06    -117.354E+06    -226.127E+06    -117.918E+06    -225.562E+06    -64.2683E+06     7.23278E+06
            1622     114.424E-03     5.04064E-03     114.313E-03     348.024E-03    -173.334E-03    -174.690E-03    -173.008E-03     347.698E-03    -174.690E-03     25.5684E-03     375.133E-03     123.640E+06    -39.7384E+06    -106.432E+06    -181.829E+06    -107.522E+06    -180.738E+06    -39.7384E+06     8.64394E+06
            1623     114.493E-03     5.88212E-03     114.342E-03     348.165E-03    -173.486E-03    -174.679E-03    -172.840E-03     347.519E-03    -174.679E-03     36.2346E-03     383.826E-03     106.448E+06    -15.6540E+06    -92.8171E+06    -136.291E+06    -96.4438E+06    -132.664E+06    -15.6540E+06     10.0416E+06
            1624     114.584E-03     6.72319E-03     114.386E-03     348.508E-03    -173.827E-03    -174.681E-03    -172.715E-03     347.396E-03    -174.681E-03     47.7754E-03     392.885E-03     94.1837E+06     7.76589E+06    -63.4909E+06    -98.5512E+06    -85.2949E+06    -76.7471E+06     7.76589E+06     12.1770E+06
            1625     114.698E-03     7.56276E-03     114.448E-03     348.482E-03    -173.827E-03    -174.656E-03    -172.034E-03     346.689E-03    -174.656E-03     60.6714E-03     400.959E-03     98.8518E+06     31.1998E+06    -7.33821E+06    -77.8267E+06    -74.3907E+06    -10.7742E+06     31.1998E+06     13.7435E+06
            1626     114.838E-03     8.40346E-03     114.530E-03     349.337E-03    -174.221E-03    -175.116E-03    -172.087E-03     346.699E-03    -174.612E-03     73.9272E-03     408.825E-03     105.545E+06     46.4380E+06     30.6474E+06    -66.1049E+06    -64.0244E+06     28.5668E+06     46.4380E+06     14.0150E+06
            1627     114.997E-03     9.24459E-03     114.625E-03     350.554E-03    -174.604E-03    -175.950E-03    -172.430E-03     347.034E-03    -174.604E-03     85.6287E-03     416.018E-03     102.107E+06     53.7741E+06     34.6015E+06    -56.5092E+06    -54.5979E+06     32.6901E+06     53.7741E+06     13.0554E+06
            1628     115.182E-03     10.0849E-03     114.740E-03     351.389E-03    -174.603E-03    -176.786E-03    -172.239E-03     346.841E-03    -174.603E-03     97.3884E-03     421.835E-03     101.061E+06     63.7687E+06     40.5623E+06    -46.8502E+06    -45.3423E+06     39.0544E+06     63.7687E+06     11.3278E+06
            1629     115.393E-03     10.9269E-03     114.874E-03     352.629E-03    -174.593E-03    -178.036E-03    -172.618E-03     347.211E-03    -174.593E-03     106.648E-03     427.035E-03     100.933E+06     74.2337E+06     46.3156E+06    -37.6266E+06    -36.7354E+06     45.4245E+06     74.2337E+06     8.46907E+06
            1630     115.615E-03     11.7679E-03     115.014E-03     355.402E-03    -174.579E-03    -180.823E-03    -173.558E-03     348.136E-03    -174.579E-03     123.293E-03     438.187E-03     98.4374E+06     80.2706E+06     49.5269E+06    -29.8660E+06    -29.3811E+06     49.0420E+06     80.2706E+06     6.10751E+06
            1631     115.881E-03     12.6101E-03     115.193E-03     356.618E-03    -174.566E-03    -182.051E-03    -174.158E-03     348.724E-03    -174.566E-03     129.236E-03     442.722E-03     99.5794E+06     86.7681E+06     60.4178E+06    -23.2496E+06    -22.8624E+06     60.0306E+06     86.7681E+06     5.59183E+06
            1632     116.135E-03     13.4504E-03     115.354E-03     365.229E-03    -174.602E-03    -190.627E-03    -177.280E-03     351.882E-03    -174.602E-03     165.395E-03     469.449E-03     111.657E+06     104.861E+06     81.5751E+06    -16.5728E+06    -16.3342E+06     81.3364E+06     104.861E+06     4.59550E+06
            1633     116.522E-03     14.2925E-03     115.642E-03     365.030E-03    -174.670E-03    -190.361E-03    -177.458E-03     352.128E-03    -174.670E-03     161.384E-03     460.389E-03     130.948E+06     133.514E+06     106.496E+06    -8.80948E+06    -8.73109E+06     106.417E+06     133.514E+06     2.65264E+06
            1634     115.708E-03     840.096E-06     115.705E-03     348.982E-03    -174.108E-03    -174.874E-03    -174.682E-03     348.982E-03    -174.300E-03    -15.7713E-06     350.178E-03     202.946E+06    -146.718E+06    -156.855E+06    -354.540E+06    -154.115E+06    -354.517E+06    -149.482E+06     1.91085E+06
            1635     115.714E-03     1.68019E-03     115.702E-03     348.420E-03    -173.938E-03    -174.483E-03    -173.937E-03     348.419E-03    -174.483E-03     1.26451E-03     351.881E-03     197.315E+06    -133.329E+06    -148.403E+06    -337.688E+06    -148.425E+06    -337.667E+06    -133.329E+06     1.96122E+06
            1636     115.728E-03     2.52146E-03     115.701E-03     348.498E-03    -173.968E-03    -174.530E-03    -174.045E-03     348.486E-03    -174.440E-03     4.44905E-03     355.769E-03     185.405E+06    -113.810E+06    -139.796E+06    -310.734E+06    -139.887E+06    -310.643E+06    -113.810E+06     3.44157E+06
            1637     115.751E-03     3.36006E-03     115.702E-03     348.709E-03    -174.098E-03    -174.610E-03    -174.134E-03     348.654E-03    -174.520E-03     10.0876E-03     361.346E-03     166.714E+06    -90.5984E+06    -129.982E+06    -273.216E+06    -130.277E+06    -272.921E+06    -90.5984E+06     6.15614E+06
            1638     115.787E-03     4.20060E-03     115.711E-03     348.130E-03    -173.551E-03    -174.579E-03    -173.406E-03     347.985E-03    -174.579E-03     16.9746E-03     367.522E-03     145.575E+06    -66.2236E+06    -119.743E+06    -230.651E+06    -120.279E+06    -230.115E+06    -66.2236E+06     7.49725E+06
            1639     115.837E-03     5.04298E-03     115.728E-03     347.801E-03    -173.228E-03    -174.572E-03    -172.916E-03     347.489E-03    -174.572E-03     25.0699E-03     374.845E-03     126.401E+06    -41.3078E+06    -107.588E+06    -186.535E+06    -108.700E+06    -185.424E+06    -41.3078E+06     8.80690E+06
            1640     115.908E-03     5.88328E-03     115.758E-03     348.019E-03    -173.448E-03    -174.571E-03    -172.822E-03     347.393E-03    -174.571E-03     35.5865E-03     383.508E-03     109.546E+06    -16.8189E+06    -93.6901E+06    -141.551E+06    -97.0474E+06    -138.194E+06    -16.8189E+06     10.8732E+06
            1641     116.000E-03     6.72197E-03     115.805E-03     348.324E-03    -173.747E-03    -174.577E-03    -172.620E-03     347.198E-03    -174.577E-03     47.9983E-03     392.576E-03     96.2325E+06     5.87905E+06    -66.7128E+06    -103.062E+06    -86.1763E+06    -83.5983E+06     5.87905E+06     13.1048E+06
            1642     116.111E-03     7.56268E-03     115.865E-03     348.461E-03    -173.860E-03    -174.601E-03    -172.095E-03     346.650E-03    -174.556E-03     61.0118E-03     400.962E-03     98.3565E+06     29.0277E+06    -11.8422E+06    -79.7441E+06    -75.3478E+06    -16.2385E+06     29.0277E+06     15.1322E+06
            1643     116.249E-03     8.40572E-03     115.944E-03     349.094E-03    -174.148E-03    -174.945E-03    -171.908E-03     346.426E-03    -174.518E-03     74.2751E-03     408.392E-03     106.305E+06     45.7914E+06     29.2553E+06    -67.8057E+06    -65.1142E+06     26.5638E+06     45.7914E+06     15.8729E+06
            1644     116.414E-03     9.24573E-03     116.046E-03     350.723E-03    -174.518E-03    -176.205E-03    -172.662E-03     347.180E-03    -174.518E-03     85.9882E-03     416.036E-03     104.588E+06     53.9510E+06     36.7272E+06    -58.1475E+06    -55.9039E+06     34.4835E+06     53.9510E+06     14.3403E+06
            1645     116.593E-03     10.0855E-03     116.156E-03     351.982E-03    -174.557E-03    -177.425E-03    -172.873E-03     347.430E-03    -174.557E-03     97.5398E-03     422.724E-03     103.430E+06     63.6469E+06     43.7452E+06    -48.2727E+06    -46.8020E+06     42.2745E+06     63.6469E+06     11.3873E+06
            1646     116.802E-03     10.9273E-03     116.289E-03     352.265E-03    -174.568E-03    -177.697E-03    -172.268E-03     346.836E-03    -174.568E-03     106.689E-03     426.980E-03     103.612E+06     74.5778E+06     49.2176E+06    -39.2633E+06    -38.2059E+06     48.1603E+06     74.5778E+06     9.44974E+06
            1647     117.024E-03     11.7697E-03     116.431E-03     354.937E-03    -174.535E-03    -180.402E-03    -173.182E-03     347.717E-03    -174.535E-03     122.862E-03     437.588E-03     101.567E+06     80.6722E+06     51.1628E+06    -32.3699E+06    -31.5841E+06     50.3771E+06     80.6722E+06     7.83120E+06
            1648     117.289E-03     12.6100E-03     116.610E-03     356.779E-03    -174.523E-03    -182.256E-03    -174.368E-03     348.891E-03    -174.523E-03     129.275E-03     442.660E-03     101.863E+06     87.5607E+06     61.5280E+06    -24.7241E+06    -24.2596E+06     61.0636E+06     87.5607E+06     6.27142E+06
            1649     117.545E-03     13.4513E-03     116.773E-03     364.892E-03    -174.562E-03    -190.330E-03    -176.998E-03     351.560E-03    -174.562E-03     165.325E-03     469.174E-03     113.060E+06     106.629E+06     83.6134E+06    -16.1296E+06    -15.8701E+06     83.3539E+06     106.629E+06     4.81341E+06
            1650     117.925E-03     14.2935E-03     117.055E-03     364.734E-03    -174.620E-03    -190.113E-03    -177.262E-03     351.882E-03    -174.620E-03     161.012E-03     460.155E-03     133.212E+06     135.695E+06     110.207E+06    -8.41058E+06    -8.32724E+06     110.124E+06     135.695E+06     2.78938E+06
            1651     117.124E-03     839.944E-06     117.121E-03     348.772E-03    -173.893E-03    -174.879E-03    -174.709E-03     348.771E-03    -174.063E-03    -75.7946E-06     349.954E-03     203.773E+06    -150.404E+06    -159.291E+06    -358.431E+06    -156.539E+06    -358.420E+06    -153.168E+06     582.429E+03
            1652     117.130E-03     1.68036E-03     117.118E-03     348.348E-03    -173.955E-03    -174.394E-03    -173.953E-03     348.346E-03    -174.394E-03     1.45717E-03     351.824E-03     197.879E+06    -137.250E+06    -150.322E+06    -341.209E+06    -150.375E+06    -341.156E+06    -137.250E+06     2.27415E+06
            1653     117.142E-03     2.52075E-03     117.115E-03     348.037E-03    -173.695E-03    -174.343E-03    -173.680E-03     348.022E-03    -174.343E-03     4.99733E-03     355.331E-03     187.182E+06    -116.439E+06    -143.303E+06     -315.48E+06    -143.392E+06    -315.391E+06    -116.439E+06     3.54519E+06
            1654     117.168E-03     3.36291E-03     117.120E-03     347.982E-03    -173.650E-03    -174.332E-03    -173.596E-03     347.929E-03    -174.332E-03     10.0802E-03     360.570E-03     169.215E+06    -93.9890E+06    -133.193E+06    -279.197E+06    -133.369E+06    -279.021E+06    -93.9890E+06     4.68566E+06
            1655     117.201E-03     4.20294E-03     117.126E-03     348.257E-03    -173.860E-03    -174.397E-03    -173.721E-03     348.116E-03    -174.394E-03     16.7126E-03     367.550E-03     147.815E+06    -69.2808E+06    -121.487E+06    -235.762E+06    -121.969E+06    -235.280E+06    -69.2808E+06     7.04199E+06
            1656     117.253E-03     5.04134E-03     117.145E-03     348.186E-03    -173.699E-03    -174.487E-03    -173.386E-03     347.870E-03    -174.484E-03     25.2261E-03     375.285E-03     128.381E+06    -44.4173E+06    -110.304E+06    -191.834E+06    -111.379E+06    -190.758E+06    -44.4173E+06     8.93086E+06
            1657     117.322E-03     5.88150E-03     117.175E-03     347.577E-03    -173.072E-03    -174.505E-03    -172.436E-03     346.941E-03    -174.505E-03     35.8399E-03     383.123E-03     111.477E+06    -20.8659E+06    -97.4682E+06    -148.178E+06    -100.589E+06    -145.057E+06    -20.8659E+06     10.9356E+06
            1658     117.413E-03     6.72500E-03     117.220E-03     347.624E-03    -173.163E-03    -174.461E-03    -172.018E-03     346.479E-03    -174.461E-03     48.3375E-03     391.761E-03     98.0667E+06     3.08616E+06    -71.1068E+06    -108.052E+06    -88.7714E+06    -90.3876E+06     3.08616E+06     13.2498E+06
            1659     117.526E-03     7.56607E-03     117.283E-03     348.672E-03    -174.016E-03    -174.657E-03    -172.445E-03     346.881E-03    -174.436E-03     60.8093E-03     401.143E-03     97.9485E+06     26.9666E+06    -17.3862E+06    -81.8506E+06    -77.0122E+06    -22.2246E+06     26.9666E+06     15.3314E+06
            1660     117.662E-03     8.40385E-03     117.361E-03     349.417E-03    -174.451E-03    -174.966E-03    -172.354E-03     346.805E-03    -174.451E-03     73.5180E-03     408.731E-03     106.092E+06     44.3856E+06     26.3079E+06    -69.5157E+06    -66.2554E+06     23.0476E+06     44.3856E+06     17.3639E+06
            1661     117.824E-03     9.24645E-03     117.461E-03     350.231E-03    -174.463E-03    -175.768E-03    -172.220E-03     346.683E-03    -174.463E-03     85.9324E-03     415.253E-03     107.590E+06     55.6102E+06     40.7994E+06    -58.6062E+06    -55.8945E+06     38.0878E+06     55.6102E+06     16.0223E+06
            1662     118.009E-03     10.0875E-03     117.577E-03     351.663E-03    -174.483E-03    -177.180E-03    -172.671E-03     347.153E-03    -174.483E-03     97.1021E-03     422.321E-03     106.400E+06     65.6953E+06     47.1631E+06    -48.6852E+06    -47.0228E+06     45.5008E+06     65.6953E+06     12.3496E+06
            1663     118.210E-03     10.9266E-03     117.704E-03     352.621E-03    -174.508E-03    -178.113E-03    -172.689E-03     347.197E-03    -174.508E-03     106.674E-03     427.367E-03     105.330E+06     75.3758E+06     50.0245E+06    -40.2699E+06    -38.9677E+06     48.7223E+06     75.3758E+06     10.6033E+06
            1664     118.432E-03     11.7687E-03     117.845E-03     355.305E-03    -174.502E-03    -180.803E-03    -173.452E-03     347.954E-03    -174.502E-03     124.047E-03     437.664E-03     103.347E+06     82.6965E+06     54.9170E+06    -31.6992E+06    -30.6654E+06     53.8832E+06     82.6965E+06     9.22448E+06
            1665     118.701E-03     12.6106E-03     118.029E-03     356.416E-03    -174.488E-03    -181.928E-03    -174.026E-03     348.514E-03    -174.488E-03     129.254E-03     442.273E-03     102.642E+06     89.0743E+06     63.3007E+06    -23.9845E+06    -23.3967E+06     62.7129E+06     89.0743E+06     6.86426E+06
            1666     118.950E-03     13.4524E-03     118.186E-03     364.653E-03    -174.513E-03    -190.140E-03    -176.833E-03     351.346E-03    -174.513E-03     164.994E-03     468.968E-03     114.766E+06     107.274E+06     84.8115E+06    -16.9966E+06    -16.7210E+06     84.5359E+06     107.274E+06     5.11221E+06
            1667     119.334E-03     14.2937E-03     118.474E-03     364.581E-03    -174.569E-03    -190.012E-03    -177.154E-03     351.724E-03    -174.569E-03     160.955E-03     459.937E-03     136.624E+06     137.907E+06     114.783E+06    -8.78523E+06    -8.66534E+06     114.663E+06     137.907E+06     3.21361E+06
            1668     118.540E-03     840.500E-06     118.537E-03     347.821E-03    -173.459E-03    -174.361E-03    -174.269E-03     347.820E-03    -173.552E-03     468.187E-06     349.007E-03     206.210E+06    -150.311E+06    -159.885E+06    -361.088E+06    -157.143E+06    -361.062E+06    -153.079E+06     1.36629E+06
            1669     118.544E-03     1.68133E-03     118.532E-03     348.214E-03    -173.915E-03    -174.300E-03    -174.166E-03     348.212E-03    -174.046E-03     1.98510E-03     351.665E-03     199.461E+06    -140.727E+06    -152.468E+06    -345.701E+06    -152.520E+06    -345.649E+06    -140.727E+06     1.40388E+06
            1670     118.559E-03     2.52157E-03     118.532E-03     348.240E-03    -173.905E-03    -174.335E-03    -174.024E-03     348.228E-03    -174.204E-03     4.82935E-03     355.543E-03     188.017E+06    -120.684E+06    -144.568E+06    -319.334E+06    -144.685E+06    -319.218E+06    -120.684E+06     3.09634E+06
            1671     118.580E-03     3.36131E-03     118.532E-03     347.857E-03    -173.557E-03    -174.300E-03    -173.531E-03     347.810E-03    -174.278E-03     9.37420E-03     360.458E-03     170.891E+06    -96.9241E+06    -135.649E+06    -283.644E+06    -135.824E+06    -283.470E+06    -96.9241E+06     4.74473E+06
            1672     118.619E-03     4.20226E-03     118.544E-03     347.647E-03    -173.349E-03    -174.298E-03    -173.209E-03     347.504E-03    -174.295E-03     16.7291E-03     366.858E-03     149.543E+06    -73.1389E+06    -125.225E+06    -241.447E+06    -125.608E+06    -241.064E+06    -73.1389E+06     6.27686E+06
            1673     118.669E-03     5.04323E-03     118.561E-03     347.629E-03    -173.309E-03    -174.320E-03    -172.975E-03     347.292E-03    -174.317E-03     25.9994E-03     374.657E-03     129.364E+06    -48.7529E+06    -113.490E+06    -197.211E+06    -114.402E+06    -196.299E+06    -48.7529E+06     8.26603E+06
            1674     118.736E-03     5.88456E-03     118.590E-03     347.815E-03    -173.373E-03    -174.442E-03    -172.811E-03     347.170E-03    -174.359E-03     36.2808E-03     383.330E-03     113.375E+06    -24.0089E+06    -100.120E+06    -153.722E+06    -102.493E+06    -151.349E+06    -24.0089E+06     10.1182E+06
            1675     118.825E-03     6.72370E-03     118.635E-03     347.989E-03    -173.518E-03    -174.470E-03    -172.485E-03     346.872E-03    -174.387E-03     47.8022E-03     392.078E-03     99.1845E+06      88.873E+03    -75.4622E+06    -112.204E+06    -90.4932E+06    -97.1735E+06      88.873E+03     12.5288E+06
            1676     118.941E-03     7.56422E-03     118.700E-03     348.494E-03    -173.929E-03    -174.565E-03    -172.310E-03     346.700E-03    -174.390E-03     60.7669E-03     400.872E-03     97.4266E+06     23.5192E+06    -24.6231E+06    -85.2587E+06    -79.5378E+06    -30.3440E+06     23.5192E+06     16.1282E+06
            1677     119.077E-03     8.40645E-03     118.780E-03     349.446E-03    -174.351E-03    -175.095E-03    -172.461E-03     346.867E-03    -174.406E-03     73.1540E-03     408.940E-03     106.266E+06     41.7525E+06     22.7228E+06    -72.4970E+06    -68.8358E+06     19.0616E+06     41.7525E+06     18.0387E+06
            1678     119.235E-03     9.24552E-03     118.876E-03     349.825E-03    -174.408E-03    -175.417E-03    -171.865E-03     346.273E-03    -174.408E-03     85.8033E-03     414.838E-03     110.575E+06     53.9628E+06     43.7181E+06    -61.3301E+06    -58.7056E+06     41.0935E+06     53.9628E+06     16.2290E+06
            1679     119.420E-03     10.0871E-03     118.993E-03     350.811E-03    -174.387E-03    -176.424E-03    -171.826E-03     346.213E-03    -174.387E-03     97.9155E-03     421.165E-03     109.800E+06     65.2101E+06     49.6872E+06    -51.3152E+06    -49.4667E+06     47.8387E+06     65.2101E+06     13.4996E+06
            1680     119.621E-03     10.9305E-03     119.121E-03     352.840E-03    -174.403E-03    -178.436E-03    -172.995E-03     347.398E-03    -174.403E-03     106.916E-03     427.381E-03     108.213E+06     76.4660E+06     51.5293E+06    -42.0022E+06    -40.6860E+06     50.2131E+06     76.4660E+06     10.9128E+06
            1681     119.843E-03     11.7702E-03     119.264E-03     355.653E-03    -174.431E-03    -181.222E-03    -173.826E-03     348.257E-03    -174.431E-03     124.446E-03     437.923E-03     107.136E+06     84.4301E+06     57.8092E+06    -33.4948E+06    -32.5196E+06     56.8340E+06     84.4301E+06     9.33330E+06
            1682     120.108E-03     12.6110E-03     119.444E-03     356.319E-03    -174.428E-03    -181.891E-03    -173.913E-03     348.341E-03    -174.428E-03     129.832E-03     442.162E-03     106.168E+06     89.9102E+06     65.5290E+06    -26.3127E+06    -25.5657E+06     64.7819E+06     89.9102E+06     8.04680E+06
            1683     120.358E-03     13.4528E-03     119.603E-03     364.578E-03    -174.445E-03    -190.132E-03    -176.708E-03     351.153E-03    -174.445E-03     165.641E-03     468.886E-03     117.878E+06     108.191E+06     87.8075E+06    -18.4669E+06    -18.1023E+06     87.4429E+06     108.191E+06     5.69145E+06
            1684     120.740E-03     14.2948E-03     119.891E-03     363.834E-03    -174.480E-03    -189.353E-03    -176.416E-03     350.896E-03    -174.480E-03     161.127E-03     459.222E-03     139.575E+06     139.530E+06     118.713E+06    -9.26717E+06    -9.17037E+06     118.616E+06     139.530E+06     2.71410E+06
            1685     119.953E-03     841.912E-06     119.950E-03     347.386E-03    -173.434E-03    -173.953E-03    -173.923E-03     347.386E-03    -173.462E-03    -83.4301E-06     348.556E-03     204.258E+06    -156.148E+06    -163.328E+06    -363.844E+06    -160.615E+06    -363.789E+06    -158.916E+06     273.627E+03
            1686     119.960E-03     1.68167E-03     119.948E-03     347.893E-03    -173.748E-03    -174.146E-03    -174.037E-03     347.891E-03    -173.855E-03     1.63211E-03     351.333E-03     198.705E+06    -142.831E+06    -155.518E+06    -347.457E+06    -155.550E+06    -347.425E+06    -142.831E+06     1.03623E+06
            1687     119.974E-03     2.52157E-03     119.947E-03     347.997E-03    -173.826E-03    -174.171E-03    -173.940E-03     347.980E-03    -174.040E-03     5.32274E-03     355.252E-03     189.097E+06    -124.196E+06    -148.101E+06    -323.979E+06    -148.192E+06    -323.888E+06    -124.196E+06     1.97326E+06
            1688     119.996E-03     3.36183E-03     119.949E-03     347.742E-03    -173.579E-03    -174.163E-03    -173.542E-03     347.683E-03    -174.141E-03     10.6496E-03     360.378E-03     171.503E+06    -101.085E+06    -138.531E+06    -287.983E+06    -138.663E+06    -287.852E+06    -101.085E+06     3.48999E+06
            1689     120.031E-03     4.20266E-03     119.957E-03     347.134E-03    -172.983E-03    -174.151E-03    -172.829E-03     346.980E-03    -174.151E-03     17.4653E-03     366.390E-03     150.018E+06    -76.9471E+06    -127.561E+06    -245.475E+06    -127.774E+06    -245.262E+06    -76.9471E+06     4.71561E+06
            1690     120.082E-03     5.04471E-03     119.976E-03     347.288E-03    -173.137E-03    -174.150E-03    -172.810E-03     346.961E-03    -174.150E-03     25.7236E-03     374.135E-03     130.991E+06    -52.2381E+06    -115.373E+06    -202.356E+06    -115.977E+06    -201.753E+06    -52.2381E+06     6.64250E+06
            1691     120.151E-03     5.88440E-03     120.007E-03     348.045E-03    -173.736E-03    -174.309E-03    -173.180E-03     347.406E-03    -174.226E-03     36.0297E-03     383.444E-03     114.505E+06    -27.2837E+06    -102.057E+06    -158.549E+06    -103.700E+06    -156.907E+06    -27.2837E+06     8.79105E+06
            1692     120.242E-03     6.72439E-03     120.054E-03     348.357E-03    -173.933E-03    -174.424E-03    -172.902E-03     347.221E-03    -174.319E-03     48.2540E-03     392.473E-03     100.272E+06    -4.30722E+06    -80.8685E+06    -117.762E+06    -92.7279E+06    -105.902E+06    -4.30722E+06     12.0175E+06
            1693     120.352E-03     7.56554E-03     120.114E-03     348.321E-03    -173.955E-03    -174.366E-03    -172.132E-03     346.476E-03    -174.344E-03     61.5639E-03     400.553E-03     96.2978E+06     18.9775E+06    -33.6907E+06    -89.1280E+06    -81.6974E+06    -41.1213E+06     18.9775E+06     16.6387E+06
            1694     120.492E-03     8.40525E-03     120.199E-03     348.683E-03    -174.071E-03    -174.613E-03    -171.706E-03     346.017E-03    -174.311E-03     74.2685E-03     408.088E-03     105.935E+06     39.2289E+06     20.0213E+06    -74.2022E+06    -70.1768E+06     15.9960E+06     39.2289E+06     18.7066E+06
            1695     120.647E-03     9.24676E-03     120.293E-03     349.596E-03    -174.229E-03    -175.367E-03    -171.737E-03     346.013E-03    -174.276E-03     86.1863E-03     414.597E-03     112.702E+06     52.8115E+06     46.4439E+06    -62.9172E+06    -60.0881E+06     43.6149E+06     52.8115E+06     17.2563E+06
            1696     120.828E-03     10.0902E-03     120.406E-03     351.041E-03    -174.274E-03    -176.767E-03    -172.124E-03     346.398E-03    -174.274E-03     98.3943E-03     421.040E-03     112.629E+06     64.3985E+06     52.3262E+06    -53.6467E+06    -51.5958E+06     50.2752E+06     64.3985E+06     14.5322E+06
            1697     121.035E-03     10.9294E-03     120.541E-03     352.675E-03    -174.312E-03    -178.363E-03    -172.922E-03     347.234E-03    -174.312E-03     106.926E-03     427.097E-03     111.667E+06     76.3435E+06     53.6778E+06    -44.8125E+06    -43.3085E+06     52.1738E+06     76.3435E+06     12.0071E+06
            1698     121.252E-03     11.7706E-03     120.679E-03     355.288E-03    -174.346E-03    -180.943E-03    -173.659E-03     348.004E-03    -174.346E-03     123.417E-03     437.727E-03     110.388E+06     84.7372E+06     58.8793E+06    -36.2757E+06    -35.1773E+06     57.7808E+06     84.7372E+06     10.0656E+06
            1699     121.517E-03     12.6133E-03     120.861E-03     356.012E-03    -174.340E-03    -181.672E-03    -173.695E-03     348.034E-03    -174.340E-03     129.811E-03     441.707E-03     109.859E+06     91.5159E+06     69.2412E+06    -27.7453E+06    -27.0796E+06     68.5756E+06     91.5159E+06     7.52084E+06
            1700     121.766E-03     13.4542E-03     121.020E-03     363.699E-03    -174.327E-03    -189.372E-03    -175.821E-03     350.148E-03    -174.327E-03     166.165E-03     467.924E-03     119.972E+06     109.888E+06     91.2528E+06    -18.2586E+06    -18.0057E+06     90.9999E+06     109.888E+06     4.43131E+06
            1701     122.144E-03     14.2973E-03     121.305E-03     363.337E-03    -174.329E-03    -189.008E-03    -175.939E-03     350.268E-03    -174.329E-03     161.824E-03     458.756E-03     141.837E+06     141.838E+06     122.100E+06    -8.81544E+06    -8.76892E+06     122.053E+06     141.838E+06     2.29768E+06
            1702     121.366E-03     839.656E-06     121.363E-03     347.518E-03    -173.538E-03    -173.980E-03    -173.661E-03     347.516E-03    -173.855E-03     361.199E-06     348.671E-03     198.982E+06    -163.348E+06    -168.839E+06    -364.974E+06    -168.908E+06    -364.904E+06    -163.348E+06    -43.6732E+03
            1703     121.375E-03     1.68096E-03     121.363E-03     347.068E-03    -173.269E-03    -173.799E-03    -173.302E-03     347.064E-03    -173.762E-03     2.39429E-03     350.521E-03     193.379E+06    -149.635E+06    -162.894E+06    -349.179E+06    -162.925E+06    -349.148E+06    -149.635E+06    -44.0774E+03
            1704     121.386E-03     2.52268E-03     121.360E-03     347.034E-03    -173.297E-03    -173.737E-03    -173.276E-03     347.013E-03    -173.737E-03     6.00354E-03     354.250E-03     184.700E+06    -129.046E+06    -153.869E+06    -324.804E+06    -153.901E+06    -324.772E+06    -129.046E+06    -149.219E+03
            1705     121.412E-03     3.36384E-03     121.365E-03     347.189E-03    -173.398E-03    -173.790E-03    -173.337E-03     347.128E-03    -173.790E-03     10.9682E-03     359.730E-03     168.388E+06    -106.985E+06    -142.948E+06    -290.302E+06    -142.977E+06    -290.272E+06    -106.985E+06     256.889E+03
            1706     121.444E-03     4.20434E-03     121.371E-03     347.513E-03    -173.522E-03    -173.991E-03    -173.447E-03     347.356E-03    -173.909E-03     17.6247E-03     366.720E-03     149.510E+06    -81.8313E+06    -131.137E+06    -249.442E+06    -131.219E+06    -249.360E+06    -81.8313E+06     2.27788E+06
            1707     121.497E-03     5.04387E-03     121.392E-03     347.603E-03    -173.482E-03    -174.121E-03    -173.218E-03     347.256E-03    -174.038E-03     26.4537E-03     374.390E-03     131.130E+06    -56.8530E+06    -119.120E+06    -207.146E+06    -119.384E+06    -206.882E+06    -56.8530E+06     4.04403E+06
            1708     121.566E-03     5.88465E-03     121.424E-03     347.552E-03    -173.426E-03    -174.127E-03    -172.765E-03     346.892E-03    -174.127E-03     36.6455E-03     382.892E-03     114.418E+06    -33.4605E+06    -106.572E+06    -164.715E+06    -107.506E+06    -163.781E+06    -33.4605E+06     6.26552E+06
            1709     121.655E-03     6.72590E-03     121.469E-03     347.845E-03    -173.638E-03    -174.207E-03    -172.496E-03     346.681E-03    -174.184E-03     48.7625E-03     391.861E-03     101.059E+06    -9.47589E+06    -87.9305E+06    -123.275E+06    -95.0378E+06    -116.168E+06    -9.47589E+06     10.3790E+06
            1710     121.768E-03     7.56498E-03     121.533E-03     348.011E-03    -173.800E-03    -174.211E-03    -171.949E-03     346.137E-03    -174.189E-03     62.0564E-03     400.261E-03     95.0042E+06     14.0163E+06    -43.2136E+06    -92.6741E+06    -82.8312E+06    -53.0565E+06     14.0163E+06     15.7500E+06
            1711     121.901E-03     8.40810E-03     121.611E-03     348.274E-03    -173.877E-03    -174.396E-03    -171.432E-03     345.574E-03    -174.142E-03     74.6694E-03     407.424E-03     105.694E+06     35.8313E+06     16.8683E+06    -76.6698E+06    -72.2965E+06     12.4949E+06     35.8313E+06     19.1904E+06
            1712     122.061E-03     9.25086E-03     121.710E-03     349.715E-03    -174.078E-03    -175.637E-03    -172.053E-03     346.179E-03    -174.125E-03     85.7635E-03     414.520E-03     115.742E+06     51.2412E+06     48.0008E+06    -66.0571E+06    -62.9037E+06     44.8475E+06     51.2412E+06     18.6451E+06
            1713     122.240E-03     10.0883E-03     121.823E-03     351.362E-03    -174.172E-03    -177.190E-03    -172.584E-03     346.756E-03    -174.172E-03     98.0015E-03     421.323E-03     115.910E+06     63.6896E+06     55.3827E+06    -56.0757E+06    -53.7121E+06     53.0191E+06     63.6896E+06     16.0024E+06
            1714     122.445E-03     10.9314E-03     121.956E-03     352.257E-03    -174.222E-03    -178.034E-03    -172.495E-03     346.717E-03    -174.222E-03     107.797E-03     426.391E-03     114.664E+06     76.4208E+06     57.0551E+06    -46.4606E+06    -44.8057E+06     55.4002E+06     76.4208E+06     12.9204E+06
            1715     122.663E-03     11.7726E-03     122.097E-03     354.844E-03    -174.234E-03    -180.610E-03    -173.227E-03     347.461E-03    -174.234E-03     124.198E-03     437.167E-03     111.671E+06     86.2865E+06     61.2071E+06    -35.7780E+06    -34.7791E+06     60.2083E+06     86.2865E+06     9.37900E+06
            1716     122.924E-03     12.6127E-03     122.275E-03     355.372E-03    -174.202E-03    -181.171E-03    -173.093E-03     347.295E-03    -174.202E-03     130.486E-03     441.098E-03     110.690E+06     94.9554E+06     73.5981E+06    -24.8378E+06    -24.3429E+06     73.1032E+06     94.9554E+06     6.40212E+06
            1717     123.172E-03     13.4568E-03     122.435E-03     363.038E-03    -174.163E-03    -188.875E-03    -175.312E-03     349.475E-03    -174.163E-03     166.297E-03     467.292E-03     121.324E+06     112.367E+06     93.7517E+06    -17.1621E+06    -16.9472E+06     93.5368E+06     112.367E+06     4.41617E+06
            1718     123.547E-03     14.3019E-03     122.716E-03     363.454E-03    -174.173E-03    -189.280E-03    -176.288E-03     350.461E-03    -174.173E-03     161.360E-03     458.953E-03     144.949E+06     144.159E+06     124.900E+06    -9.45467E+06    -9.39498E+06     124.840E+06     144.159E+06     2.49450E+06
            1719     122.782E-03     840.996E-06     122.779E-03     346.497E-03    -172.690E-03    -173.807E-03    -173.517E-03     346.496E-03    -172.979E-03     1.13861E-03     347.655E-03     193.071E+06    -167.452E+06    -176.176E+06    -364.712E+06    -173.421E+06    -364.630E+06    -170.289E+06     125.877E+03
            1720     122.785E-03     1.68290E-03     122.774E-03     346.332E-03    -172.913E-03    -173.419E-03    -173.027E-03     346.326E-03    -173.299E-03     3.12613E-03     349.764E-03     186.085E+06    -154.566E+06    -167.754E+06    -346.835E+06    -167.791E+06    -346.798E+06    -154.566E+06    -1.61113E+06
            1721     122.802E-03     2.52344E-03     122.776E-03     346.477E-03    -173.118E-03    -173.359E-03    -173.109E-03     346.457E-03    -173.348E-03     6.16580E-03     353.683E-03     177.117E+06    -135.525E+06    -158.582E+06    -322.940E+06    -158.666E+06    -322.856E+06    -135.525E+06    -3.26523E+06
            1722     122.822E-03     3.36446E-03     122.776E-03     346.848E-03    -173.342E-03    -173.506E-03    -173.302E-03     346.781E-03    -173.479E-03     11.1857E-03     359.258E-03     163.292E+06    -112.647E+06    -148.495E+06    -290.684E+06    -148.597E+06    -290.583E+06    -112.647E+06    -3.08226E+06
            1723     122.861E-03     4.20486E-03     122.789E-03     347.309E-03    -173.539E-03    -173.771E-03    -173.479E-03     347.142E-03    -173.662E-03     18.3240E-03     366.379E-03     147.520E+06    -87.9045E+06    -136.545E+06    -253.381E+06    -136.677E+06    -253.249E+06    -87.9045E+06    -2.17685E+06
            1724     122.910E-03     5.04504E-03     122.807E-03     347.205E-03    -173.306E-03    -173.899E-03    -173.012E-03     346.828E-03    -173.817E-03     27.4248E-03     373.966E-03     129.642E+06    -63.0292E+06    -123.352E+06    -211.400E+06    -123.446E+06    -211.306E+06    -63.0292E+06    -58.7672E+03
            1725     122.980E-03     5.88587E-03     122.839E-03     347.119E-03    -173.217E-03    -173.902E-03    -172.498E-03     346.400E-03    -173.902E-03     38.2601E-03     382.336E-03     113.837E+06    -39.5170E+06    -110.860E+06    -170.350E+06    -111.173E+06    -170.037E+06    -39.5170E+06     2.74346E+06
            1726     123.069E-03     6.72601E-03     122.885E-03     347.288E-03    -173.344E-03    -173.944E-03    -172.127E-03     346.072E-03    -173.944E-03     49.8665E-03     391.168E-03     101.079E+06    -16.2635E+06    -95.2960E+06    -129.528E+06    -98.3448E+06    -126.479E+06    -16.2635E+06     6.80347E+06
            1727     123.180E-03     7.56924E-03     122.947E-03     347.925E-03    -173.572E-03    -174.353E-03    -172.081E-03     346.040E-03    -173.958E-03     62.3167E-03     399.939E-03     92.1478E+06     7.08159E+06    -55.8474E+06    -96.0173E+06    -85.4850E+06    -66.3797E+06     7.08159E+06     12.9231E+06
            1728     123.314E-03     8.40885E-03     123.027E-03     348.831E-03    -173.895E-03    -174.936E-03    -172.207E-03     346.180E-03    -173.974E-03     74.1206E-03     407.789E-03     102.095E+06     30.8872E+06     8.24411E+06    -77.9970E+06    -73.4402E+06     4.22708E+06     30.3474E+06     18.7385E+06
            1729     123.473E-03     9.24790E-03     123.126E-03     349.590E-03    -174.009E-03    -175.581E-03    -171.997E-03     346.006E-03    -174.009E-03     86.2249E-03     414.279E-03     115.461E+06     50.0877E+06     48.3755E+06    -66.2165E+06    -62.5919E+06     45.2906E+06     49.5479E+06     19.9733E+06
            1730     123.653E-03     10.0920E-03     123.240E-03     350.873E-03    -174.048E-03    -176.825E-03    -172.162E-03     346.211E-03    -174.048E-03     98.5910E-03     420.819E-03     117.142E+06     63.9339E+06     58.5893E+06    -55.7586E+06    -53.0436E+06     55.8743E+06     63.9339E+06     17.2934E+06
            1731     123.854E-03     10.9317E-03     123.371E-03     351.785E-03    -174.079E-03    -177.706E-03    -172.135E-03     346.214E-03    -174.079E-03     107.985E-03     425.804E-03     117.125E+06     78.2740E+06     63.2716E+06    -45.4479E+06    -43.8270E+06     61.6508E+06     78.2740E+06     12.9710E+06
            1732     124.073E-03     11.7743E-03     123.513E-03     353.904E-03    -174.062E-03    -179.842E-03    -172.351E-03     346.414E-03    -174.062E-03     124.911E-03     435.982E-03     114.814E+06     88.7879E+06     65.8511E+06    -35.7161E+06    -35.0431E+06     65.1781E+06     88.7879E+06     7.89657E+06
            1733     124.334E-03     12.6180E-03     123.692E-03     354.920E-03    -174.005E-03    -180.914E-03    -172.850E-03     346.856E-03    -174.005E-03     130.225E-03     440.706E-03     114.091E+06     95.8873E+06     74.2407E+06    -27.4322E+06    -27.1206E+06     73.9292E+06     95.8873E+06     5.37543E+06
            1734     124.575E-03     13.4607E-03     123.846E-03     363.528E-03    -173.999E-03    -189.529E-03    -176.056E-03     350.055E-03    -173.999E-03     165.819E-03     467.764E-03     124.989E+06     114.710E+06     96.6629E+06    -18.2894E+06    -18.0556E+06     96.4291E+06     114.710E+06     4.78743E+06
            1735     124.957E-03     14.3000E-03     124.136E-03     363.032E-03    -174.037E-03    -188.996E-03    -176.019E-03     350.056E-03    -174.037E-03     161.323E-03     458.581E-03     147.764E+06     147.055E+06     128.701E+06    -9.02398E+06    -8.94560E+06     128.622E+06     147.055E+06     2.82592E+06
            1736     124.192E-03     842.474E-06     124.189E-03     345.202E-03    -172.073E-03    -173.129E-03    -173.128E-03     345.200E-03    -172.073E-03     606.892E-06     346.299E-03     185.446E+06    -171.010E+06    -178.953E+06    -360.245E+06    -176.247E+06    -360.115E+06    -173.846E+06    -3.28677E+06
            1737     124.199E-03     1.68274E-03     124.188E-03     345.987E-03    -172.794E-03    -173.193E-03    -173.189E-03     345.982E-03    -172.794E-03     2.78911E-03     349.386E-03     176.758E+06    -160.590E+06    -170.173E+06    -341.834E+06    -170.304E+06    -341.703E+06    -160.590E+06    -3.56691E+06
            1738     124.213E-03     2.52440E-03     124.187E-03     346.001E-03    -172.931E-03    -173.070E-03    -172.942E-03     345.979E-03    -173.037E-03     6.16530E-03     353.194E-03     167.516E+06    -140.603E+06    -163.783E+06    -318.342E+06    -163.962E+06    -318.163E+06    -140.603E+06    -4.92843E+06
            1739     124.237E-03     3.36522E-03     124.191E-03     346.062E-03    -172.864E-03    -173.198E-03    -172.810E-03     345.982E-03    -173.172E-03     12.3229E-03     358.448E-03     156.279E+06    -118.114E+06    -153.739E+06    -288.961E+06    -154.115E+06    -288.584E+06    -118.114E+06    -6.77458E+06
            1740     124.274E-03     4.20587E-03     124.203E-03     346.158E-03    -172.848E-03    -173.310E-03    -172.675E-03     345.959E-03    -173.283E-03     19.9457E-03     365.132E-03     141.911E+06    -94.5834E+06    -141.369E+06    -253.780E+06    -141.912E+06    -253.238E+06    -94.5834E+06    -7.32761E+06
            1741     124.324E-03     5.04726E-03     124.222E-03     346.417E-03    -172.995E-03    -173.421E-03    -172.612E-03     346.008E-03    -173.396E-03     28.6904E-03     373.068E-03     126.957E+06    -70.5921E+06    -128.607E+06    -215.820E+06    -129.118E+06    -215.309E+06    -70.5921E+06    -5.61804E+06
            1742     124.393E-03     5.88830E-03     124.253E-03     346.735E-03    -173.202E-03    -173.533E-03    -172.468E-03     345.976E-03    -173.508E-03     39.2874E-03     381.776E-03     112.447E+06    -46.7269E+06    -115.660E+06    -176.011E+06    -115.938E+06    -175.734E+06    -46.7269E+06    -2.33012E+06
            1743     124.482E-03     6.72992E-03     124.300E-03     347.307E-03    -173.339E-03    -173.968E-03    -172.459E-03     346.073E-03    -173.614E-03     50.3725E-03     390.970E-03     99.8359E+06    -23.7875E+06    -101.373E+06    -135.728E+06    -102.531E+06    -134.570E+06    -23.7875E+06     763.923E+03
            1744     124.591E-03     7.56909E-03     124.361E-03     348.260E-03    -173.574E-03    -174.686E-03    -172.616E-03     346.327E-03    -173.711E-03     63.0348E-03     399.931E-03     87.5262E+06    -820.135E+03    -69.3108E+06    -98.5140E+06    -87.7799E+06    -80.0448E+06    -820.135E+03     5.87392E+06
            1745     124.731E-03     8.40944E-03     124.447E-03     348.848E-03    -173.783E-03    -175.065E-03    -172.340E-03     346.123E-03    -173.783E-03     75.1945E-03     407.698E-03     92.0727E+06     24.2832E+06    -8.49965E+06    -75.6780E+06    -72.5585E+06    -11.0793E+06     23.7434E+06     13.8775E+06
            1746     124.882E-03     9.25227E-03     124.538E-03     349.423E-03    -173.829E-03    -175.594E-03    -171.940E-03     345.769E-03    -173.829E-03     87.0127E-03     413.970E-03     109.990E+06     50.0472E+06     41.2056E+06    -63.9295E+06    -59.9732E+06     41.1803E+06     46.1161E+06     20.3137E+06
            1747     125.065E-03     10.0921E-03     124.657E-03     350.451E-03    -173.864E-03    -176.587E-03    -171.888E-03     345.751E-03    -173.864E-03     98.9698E-03     420.197E-03     117.906E+06     66.6603E+06     59.8646E+06    -54.4358E+06     -51.056E+06     60.5313E+06     62.6138E+06     19.5071E+06
            1748     125.264E-03     10.9348E-03     124.786E-03     351.153E-03    -173.890E-03    -177.263E-03    -171.730E-03     345.620E-03    -173.890E-03     107.513E-03     425.382E-03     119.998E+06     79.4822E+06     69.5452E+06    -45.0838E+06    -43.2081E+06     68.3247E+06     78.8270E+06     14.3795E+06
            1749     125.480E-03     11.7769E-03     124.926E-03     353.473E-03    -173.884E-03    -179.590E-03    -172.172E-03     346.056E-03    -173.884E-03     124.250E-03     435.544E-03     119.877E+06     91.6391E+06     72.2404E+06    -36.6428E+06    -35.7078E+06     71.3054E+06     91.6391E+06     9.79631E+06
            1750     125.739E-03     12.6198E-03     125.104E-03     355.076E-03    -173.859E-03    -181.217E-03    -173.265E-03     347.123E-03    -173.859E-03     129.388E-03     440.675E-03     118.879E+06     99.4977E+06     78.4420E+06    -28.4556E+06    -28.0959E+06     78.0823E+06     99.4977E+06     5.77047E+06
            1751     125.987E-03     13.4597E-03     125.266E-03     362.815E-03    -173.860E-03    -188.955E-03    -175.556E-03     349.416E-03    -173.860E-03     164.960E-03     467.210E-03     127.887E+06     116.179E+06     98.4346E+06    -19.6473E+06    -19.5338E+06     98.3211E+06     116.179E+06     2.89219E+06
            1752     126.358E-03     14.3055E-03     125.546E-03     361.258E-03    -173.847E-03    -187.411E-03    -174.341E-03     348.188E-03    -173.847E-03     161.727E-03     456.980E-03     150.179E+06     148.513E+06     129.959E+06    -10.0769E+06    -10.0274E+06     129.909E+06     148.513E+06     1.76176E+06
            1753     125.602E-03     842.063E-06     125.599E-03     344.332E-03    -171.868E-03    -172.464E-03    -172.282E-03     344.328E-03    -172.046E-03     1.78445E-03     345.401E-03     175.529E+06    -172.247E+06    -182.490E+06    -352.612E+06    -179.272E+06    -352.517E+06    -175.560E+06    -1.50644E+06
            1754     125.612E-03     1.68359E-03     125.601E-03     344.761E-03    -172.122E-03    -172.639E-03    -172.450E-03     344.751E-03    -172.301E-03     4.13134E-03     348.116E-03     166.283E+06    -164.514E+06    -175.964E+06    -336.114E+06    -176.206E+06    -335.872E+06    -164.514E+06    -4.79090E+06
            1755     125.623E-03     2.52445E-03     125.598E-03     345.042E-03    -172.398E-03    -172.644E-03    -172.507E-03     345.006E-03    -172.499E-03     7.99497E-03     352.209E-03     156.600E+06    -144.639E+06    -167.508E+06    -311.264E+06    -167.920E+06    -310.851E+06    -144.639E+06    -7.15298E+06
            1756     125.649E-03     3.36649E-03     125.604E-03     345.033E-03    -172.316E-03    -172.717E-03    -172.288E-03     344.940E-03    -172.652E-03     13.6087E-03     357.385E-03     146.590E+06    -122.649E+06    -157.855E+06    -283.450E+06    -158.571E+06    -282.735E+06    -122.649E+06    -9.21241E+06
            1757     125.684E-03     4.20921E-03     125.614E-03     345.145E-03    -172.378E-03    -172.766E-03    -172.168E-03     344.934E-03    -172.766E-03     20.4775E-03     364.005E-03     134.048E+06    -99.9094E+06    -146.830E+06    -250.864E+06    -148.024E+06     -249.67E+06    -99.9094E+06    -10.7633E+06
            1758     125.738E-03     5.05040E-03     125.636E-03     345.694E-03    -172.749E-03    -172.945E-03    -172.373E-03     345.274E-03    -172.902E-03     29.1265E-03     372.196E-03     122.335E+06    -76.9908E+06    -134.404E+06    -217.260E+06    -136.150E+06    -215.513E+06    -76.9908E+06    -11.3200E+06
            1759     125.805E-03     5.89074E-03     125.667E-03     346.413E-03    -173.039E-03    -173.374E-03    -172.573E-03     345.644E-03    -173.070E-03     39.5367E-03     381.241E-03     110.695E+06    -54.1306E+06    -119.613E+06    -181.570E+06    -121.790E+06    -179.393E+06    -54.1306E+06    -10.2260E+06
            1760     125.895E-03     6.73100E-03     125.715E-03     347.322E-03    -173.222E-03    -174.100E-03    -172.778E-03     346.031E-03    -173.253E-03     51.4683E-03     390.649E-03     98.0769E+06    -31.0905E+06    -104.306E+06    -141.727E+06    -106.613E+06    -139.420E+06    -31.0905E+06    -7.71198E+06
            1761     126.007E-03     7.57149E-03     125.779E-03     347.974E-03    -173.407E-03    -174.567E-03    -172.566E-03     345.973E-03    -173.407E-03     64.1868E-03     399.514E-03     85.6164E+06    -8.54809E+06    -78.3536E+06    -103.981E+06    -92.1442E+06    -90.1899E+06    -8.54809E+06    -3.87198E+06
            1762     126.140E-03     8.41324E-03     125.859E-03     348.637E-03    -173.508E-03    -175.129E-03    -172.337E-03     345.845E-03    -173.508E-03     76.0917E-03     407.337E-03     83.7793E+06     13.9000E+06    -30.7741E+06    -79.7454E+06    -77.6982E+06    -32.8213E+06     13.9000E+06     5.03326E+06
            1763     126.297E-03     9.25240E-03     125.957E-03     349.543E-03    -173.573E-03    -175.970E-03    -172.335E-03     345.908E-03    -173.573E-03     86.9233E-03     414.104E-03     102.227E+06     43.1421E+06     20.9051E+06    -67.7265E+06    -64.7738E+06     26.6262E+06     34.4682E+06     16.5813E+06
            1764     126.473E-03     10.0947E-03     126.070E-03     350.137E-03    -173.625E-03    -176.512E-03    -171.832E-03     345.458E-03    -173.625E-03     98.6511E-03     419.952E-03     118.859E+06     68.4923E+06     54.0906E+06    -56.7259E+06    -53.4030E+06     65.1694E+06     54.0906E+06     19.9163E+06
            1765     126.675E-03     10.9363E-03     126.202E-03     350.888E-03    -173.693E-03    -177.195E-03    -171.728E-03     345.420E-03    -173.693E-03     106.892E-03     425.008E-03     122.572E+06     81.9591E+06     70.9228E+06    -45.6361E+06    -43.5198E+06     74.5342E+06     76.2314E+06     15.8124E+06
            1766     126.886E-03     11.7790E-03     126.338E-03     353.828E-03    -173.749E-03    -180.079E-03    -172.758E-03     346.507E-03    -173.749E-03     123.424E-03     435.876E-03     123.403E+06     94.6163E+06     79.2848E+06    -35.6505E+06    -34.4400E+06     78.0743E+06     94.6163E+06     11.6428E+06
            1767     127.150E-03     12.6197E-03     126.522E-03     354.352E-03    -173.744E-03    -180.608E-03    -172.572E-03     346.316E-03    -173.744E-03     129.949E-03     439.833E-03     122.690E+06     104.557E+06     84.7527E+06    -26.8162E+06    -26.2338E+06     84.1703E+06     104.557E+06     7.69115E+06
            1768     127.392E-03     13.4635E-03     126.678E-03     360.919E-03    -173.674E-03    -187.245E-03    -173.681E-03     347.355E-03    -173.674E-03     165.491E-03     465.431E-03     131.193E+06     120.236E+06     101.503E+06    -19.3030E+06    -19.1299E+06     101.330E+06     120.236E+06     3.61965E+06
            1769     127.759E-03     14.3077E-03     126.955E-03     359.601E-03    -173.571E-03    -186.030E-03    -172.807E-03     346.378E-03    -173.571E-03     162.244E-03     455.553E-03     153.539E+06     151.828E+06     131.941E+06    -10.6843E+06    -10.6320E+06     131.888E+06     151.828E+06     767.396E+03
            1770     127.012E-03     841.872E-06     127.009E-03     342.667E-03    -171.047E-03    -171.620E-03    -171.378E-03     342.663E-03    -171.285E-03     2.87580E-03     343.779E-03     163.420E+06    -179.021E+06    -186.693E+06    -346.090E+06    -183.494E+06    -345.976E+06    -182.334E+06    -2.01408E+06
            1771     127.019E-03     1.68577E-03     127.007E-03     342.593E-03    -171.142E-03    -171.450E-03    -171.184E-03     342.577E-03    -171.393E-03     5.40800E-03     345.945E-03     153.843E+06    -165.710E+06    -177.942E+06    -325.222E+06    -178.283E+06    -324.881E+06    -165.710E+06    -5.81701E+06
            1772     127.036E-03     2.52858E-03     127.011E-03     343.438E-03    -171.539E-03    -171.898E-03    -171.838E-03     343.390E-03    -171.552E-03     9.59009E-03     350.518E-03     147.576E+06    -146.403E+06    -169.146E+06    -303.894E+06    -169.858E+06    -303.183E+06    -146.403E+06    -9.52101E+06
            1773     127.058E-03     3.36962E-03     127.013E-03     344.352E-03    -171.835E-03    -172.517E-03    -172.370E-03     344.237E-03    -171.868E-03     15.0352E-03     356.587E-03     139.093E+06    -122.511E+06    -157.984E+06    -275.686E+06    -159.204E+06    -274.465E+06    -122.511E+06    -11.6142E+06
            1774     127.097E-03     4.21002E-03     127.027E-03     344.920E-03    -172.116E-03    -172.804E-03    -172.500E-03     344.688E-03    -172.188E-03     21.5988E-03     363.674E-03     129.237E+06    -99.1996E+06    -146.516E+06    -245.272E+06    -148.431E+06    -243.357E+06    -99.1996E+06    -13.3635E+06
            1775     127.147E-03     5.05160E-03     127.047E-03     345.279E-03    -172.409E-03    -172.870E-03    -172.394E-03     344.842E-03    -172.448E-03     29.6972E-03     371.610E-03     118.239E+06    -77.9569E+06    -133.940E+06    -213.596E+06    -137.198E+06    -210.338E+06    -77.9569E+06    -15.3111E+06
            1776     127.218E-03     5.89342E-03     127.082E-03     346.043E-03    -172.676E-03    -173.367E-03    -172.573E-03     345.248E-03    -172.676E-03     40.1803E-03     380.625E-03     107.821E+06    -57.7576E+06    -120.127E+06    -182.109E+06    -125.339E+06    -176.897E+06    -57.7576E+06    -16.7380E+06
            1777     127.308E-03     6.73388E-03     127.129E-03     346.842E-03    -172.894E-03    -173.948E-03    -172.637E-03     345.531E-03    -172.894E-03     51.8535E-03     389.992E-03     98.1517E+06    -37.6009E+06    -104.435E+06    -149.743E+06    -112.564E+06    -141.615E+06    -37.6009E+06    -16.4135E+06
            1778     127.419E-03     7.57485E-03     127.194E-03     347.586E-03    -173.078E-03    -174.508E-03    -172.528E-03     345.606E-03    -173.078E-03     63.8786E-03     398.991E-03     86.5560E+06    -16.2890E+06    -82.1929E+06    -113.969E+06    -98.5495E+06    -97.6121E+06    -16.2890E+06    -13.0123E+06
            1779     127.552E-03     8.41452E-03     127.274E-03     348.680E-03    -173.229E-03    -175.451E-03    -172.661E-03     345.890E-03    -173.229E-03     76.0371E-03     407.092E-03     80.0809E+06     3.40919E+06    -49.3593E+06    -87.7306E+06    -84.2473E+06    -52.8426E+06     3.40919E+06    -5.32296E+06
            1780     127.710E-03     9.25613E-03     127.374E-03     349.364E-03    -173.327E-03    -176.037E-03    -172.417E-03     345.745E-03    -173.327E-03     86.7778E-03     413.907E-03     89.6361E+06     28.1741E+06     1.35235E+06    -69.9010E+06    -68.0990E+06     4.83308E+06     22.8914E+06     5.47824E+06
            1781     127.883E-03     10.0961E-03     127.484E-03     350.077E-03    -173.397E-03    -176.680E-03    -172.068E-03     345.464E-03    -173.397E-03     97.9424E-03     419.937E-03     108.731E+06     61.5947E+06     45.1235E+06    -54.2408E+06    -52.1650E+06     59.1151E+06     45.5273E+06     14.6888E+06
            1782     128.084E-03     10.9387E-03     127.616E-03     351.148E-03    -173.503E-03    -177.645E-03    -172.181E-03     345.684E-03    -173.503E-03     106.914E-03     424.909E-03     119.739E+06     83.0794E+06     68.1484E+06    -43.2637E+06    -40.8970E+06     78.3051E+06     70.5561E+06     16.8453E+06
            1783     128.297E-03     11.7787E-03     127.755E-03     353.260E-03    -173.592E-03    -179.668E-03    -172.281E-03     345.872E-03    -173.592E-03     123.828E-03     435.296E-03     124.797E+06     94.7620E+06     83.3724E+06    -35.2979E+06    -33.7096E+06     83.5227E+06     93.0234E+06     13.4633E+06
            1784     128.555E-03     12.6222E-03     127.934E-03     352.442E-03    -173.553E-03    -178.888E-03    -170.820E-03     344.373E-03    -173.553E-03     129.737E-03     438.295E-03     127.678E+06     108.333E+06     90.7017E+06    -27.1999E+06    -26.4008E+06     89.9026E+06     108.333E+06     9.48606E+06
            1785     128.792E-03     13.4682E-03     128.086E-03     358.856E-03    -173.395E-03    -185.462E-03    -171.739E-03     345.133E-03    -173.395E-03     165.680E-03     463.435E-03     136.379E+06     127.191E+06     107.841E+06    -17.8095E+06    -17.5067E+06     107.538E+06     127.191E+06     5.32716E+06
            1786     129.164E-03     14.3148E-03     128.368E-03     357.485E-03    -173.192E-03    -184.293E-03    -170.859E-03     344.051E-03    -173.192E-03     162.903E-03     453.414E-03     156.862E+06     158.364E+06     135.962E+06    -8.45562E+06    -8.38322E+06     135.890E+06     158.364E+06     1.80241E+06
            1787     128.417E-03     844.307E-06     128.414E-03     340.490E-03    -169.847E-03    -170.643E-03    -170.581E-03     340.486E-03    -169.906E-03     2.55280E-03     341.610E-03     155.788E+06    -178.460E+06    -180.782E+06    -335.396E+06    -181.046E+06    -335.132E+06    -178.460E+06    -5.94816E+06
            1788     128.425E-03     1.68701E-03     128.414E-03     340.828E-03    -170.286E-03    -170.542E-03    -170.452E-03     340.810E-03    -170.358E-03     5.63701E-03     344.156E-03     144.852E+06    -165.793E+06    -174.746E+06    -314.783E+06    -175.260E+06    -314.269E+06    -165.793E+06    -8.33921E+06
            1789     128.442E-03     2.53025E-03     128.417E-03     341.728E-03    -170.608E-03    -171.120E-03    -171.056E-03     341.676E-03    -170.621E-03     10.0082E-03     348.715E-03     137.971E+06    -144.900E+06    -167.562E+06    -292.635E+06    -168.586E+06    -291.611E+06    -144.900E+06    -10.8504E+06
            1790     128.469E-03     3.37289E-03     128.425E-03     342.985E-03    -170.999E-03    -171.986E-03    -171.856E-03     342.855E-03    -170.999E-03     15.9433E-03     355.062E-03     130.564E+06    -122.602E+06    -157.019E+06    -266.819E+06    -159.078E+06    -264.760E+06    -122.602E+06    -14.4764E+06
            1791     128.507E-03     4.21437E-03     128.438E-03     344.245E-03    -171.437E-03    -172.808E-03    -172.530E-03     343.967E-03    -171.437E-03     23.5935E-03     362.742E-03     123.029E+06    -99.6088E+06    -144.170E+06    -238.548E+06    -147.348E+06    -235.371E+06    -99.6088E+06    -16.6506E+06
            1792     128.559E-03     5.05455E-03     128.460E-03     345.380E-03    -171.876E-03    -173.504E-03    -173.005E-03     344.881E-03    -171.876E-03     31.8757E-03     371.545E-03     113.707E+06    -77.1030E+06    -130.842E+06    -207.532E+06    -135.706E+06    -202.669E+06    -77.1030E+06    -18.1571E+06
            1793     128.629E-03     5.89478E-03     128.494E-03     345.990E-03    -172.258E-03    -173.732E-03    -172.888E-03     345.146E-03    -172.258E-03     41.4912E-03     380.441E-03     105.405E+06    -56.4563E+06    -117.097E+06    -178.031E+06    -124.778E+06    -170.350E+06    -56.4563E+06    -19.8284E+06
            1794     128.721E-03     6.73552E-03     128.545E-03     346.635E-03    -172.550E-03    -174.085E-03    -172.742E-03     345.292E-03    -172.550E-03     52.5083E-03     389.529E-03     97.5661E+06    -38.4723E+06    -100.665E+06    -150.890E+06    -113.950E+06    -137.604E+06    -38.4723E+06    -21.3129E+06
            1795     128.830E-03     7.57579E-03     128.607E-03     347.818E-03    -172.797E-03    -175.021E-03    -173.013E-03     345.810E-03    -172.797E-03     64.3841E-03     398.929E-03     89.1188E+06    -21.3239E+06    -80.5436E+06    -123.504E+06    -101.701E+06    -102.347E+06    -21.3239E+06    -20.5383E+06
            1796     128.967E-03     8.41677E-03     128.692E-03     348.600E-03    -173.008E-03    -175.591E-03    -172.830E-03     345.838E-03    -173.008E-03     75.7184E-03     406.750E-03     82.0914E+06    -3.45399E+06    -54.3239E+06    -97.6312E+06    -87.4734E+06    -64.4817E+06    -3.45399E+06    -16.6271E+06
            1797     129.119E-03     9.25650E-03     128.787E-03     349.067E-03    -173.139E-03    -175.928E-03    -172.363E-03     345.503E-03    -173.139E-03     86.0662E-03     413.340E-03     82.2254E+06     14.4731E+06    -13.0829E+06    -76.0600E+06    -72.9410E+06    -16.2020E+06     14.4731E+06    -8.83484E+06
            1798     129.296E-03     10.0989E-03     128.901E-03     349.919E-03    -173.200E-03    -176.719E-03    -172.157E-03     345.357E-03    -173.200E-03     97.4192E-03     419.471E-03     97.9586E+06     45.2894E+06     26.2691E+06    -60.4058E+06    -59.2504E+06     38.5826E+06     31.8205E+06     4.16784E+06
            1799     129.492E-03     10.9386E-03     129.030E-03     350.507E-03    -173.262E-03    -177.246E-03    -171.720E-03     344.982E-03    -173.262E-03     107.358E-03     424.115E-03     115.339E+06     75.6043E+06     53.4112E+06    -48.8875E+06    -47.3157E+06     74.0325E+06     53.4112E+06     13.0847E+06
            1800     129.706E-03     11.7824E-03     129.170E-03     351.625E-03    -173.317E-03    -178.308E-03    -170.908E-03     344.225E-03    -173.317E-03     123.741E-03     433.628E-03     123.993E+06     91.7724E+06     79.6134E+06    -37.5504E+06    -35.9854E+06     86.7726E+06     83.0482E+06     13.5722E+06
            1801     129.957E-03     12.6268E-03     129.342E-03     350.535E-03    -173.250E-03    -177.286E-03    -169.264E-03     342.514E-03    -173.250E-03     128.975E-03     436.519E-03     130.695E+06     109.822E+06     97.3721E+06    -26.5211E+06    -25.6353E+06     96.4863E+06     109.822E+06     9.89864E+06
            1802     130.195E-03     13.4717E-03     129.496E-03     356.214E-03    -173.012E-03    -183.202E-03    -169.288E-03     342.300E-03    -173.012E-03     165.923E-03     460.921E-03     141.930E+06     132.855E+06     114.085E+06    -17.5046E+06    -17.1339E+06     113.715E+06     132.855E+06     6.16693E+06
            1803     130.557E-03     14.3212E-03     129.769E-03     353.298E-03    -171.479E-03    -181.819E-03    -166.843E-03     339.489E-03    -172.646E-03     164.364E-03     449.098E-03     161.886E+06     163.614E+06     139.403E+06    -8.98302E+06    -8.80554E+06     139.225E+06     163.614E+06     4.18804E+06
            1804     129.820E-03     844.080E-06     129.817E-03     338.466E-03    -168.604E-03    -169.862E-03    -169.856E-03     338.460E-03    -168.604E-03     2.64799E-03     339.557E-03     147.369E+06    -170.684E+06    -175.139E+06    -320.187E+06    -174.589E+06    -319.980E+06    -171.440E+06    -4.67395E+06
            1805     129.829E-03     1.68885E-03     129.818E-03     339.320E-03    -169.434E-03    -169.886E-03    -169.861E-03     339.295E-03    -169.434E-03     6.69236E-03     342.576E-03     137.904E+06    -159.533E+06    -169.940E+06    -302.250E+06    -170.664E+06    -301.526E+06    -159.533E+06    -9.19163E+06
            1806     129.847E-03     2.53217E-03     129.822E-03     340.419E-03    -169.814E-03    -170.605E-03    -170.539E-03     340.352E-03    -169.814E-03     11.3486E-03     347.310E-03     131.140E+06    -140.933E+06    -160.878E+06    -280.794E+06    -162.347E+06    -279.325E+06    -140.933E+06    -12.9576E+06
            1807     129.876E-03     3.37494E-03     129.832E-03     341.349E-03    -170.217E-03    -171.132E-03    -170.990E-03     341.207E-03    -170.217E-03     16.7924E-03     353.318E-03     122.709E+06    -120.842E+06    -152.243E+06    -256.019E+06    -154.767E+06    -253.495E+06    -120.842E+06    -15.7007E+06
            1808     129.915E-03     4.21767E-03     129.847E-03     342.701E-03    -170.641E-03    -172.060E-03    -171.753E-03     342.394E-03    -170.641E-03     24.6456E-03     360.885E-03     115.672E+06    -98.8933E+06    -141.348E+06    -229.660E+06    -145.953E+06    -225.054E+06    -98.8933E+06    -19.1499E+06
            1809     129.972E-03     5.05900E-03     129.873E-03     344.603E-03    -171.133E-03    -173.470E-03    -172.899E-03     344.032E-03    -171.133E-03     34.0751E-03     370.296E-03     109.442E+06    -76.1365E+06    -126.849E+06    -201.591E+06    -134.170E+06    -194.270E+06    -76.1365E+06    -21.8382E+06
            1810     130.042E-03     5.89812E-03     129.908E-03     346.069E-03    -171.653E-03    -174.416E-03    -173.482E-03     345.134E-03    -171.653E-03     43.7505E-03     380.190E-03     103.659E+06    -54.6482E+06    -111.560E+06    -174.163E+06    -121.805E+06    -163.918E+06    -54.6482E+06    -22.8411E+06
            1811     130.131E-03     6.73883E-03     129.956E-03     347.135E-03    -172.107E-03    -175.028E-03    -173.572E-03     345.679E-03    -172.107E-03     54.7524E-03     389.639E-03     96.2412E+06    -35.7213E+06    -94.1644E+06    -146.750E+06    -110.286E+06    -130.628E+06    -35.7213E+06    -23.4473E+06
            1812     130.246E-03     7.57862E-03     130.025E-03     348.206E-03    -172.481E-03    -175.725E-03    -173.623E-03     346.104E-03    -172.481E-03     66.0221E-03     398.864E-03     90.9067E+06    -19.9199E+06    -75.4796E+06    -124.779E+06    -100.181E+06    -100.078E+06    -19.9199E+06    -24.3395E+06
            1813     130.377E-03     8.41728E-03     130.105E-03     348.596E-03    -172.758E-03    -175.838E-03    -173.021E-03     345.779E-03    -172.758E-03     76.4913E-03     406.507E-03     87.1953E+06    -6.02041E+06    -52.6915E+06    -106.387E+06    -90.4054E+06    -68.6732E+06    -6.02041E+06    -23.4729E+06
            1814     130.532E-03     9.25896E-03     130.203E-03     348.931E-03    -172.917E-03    -176.014E-03    -172.322E-03     345.239E-03    -172.917E-03     87.5263E-03     412.728E-03     83.5888E+06     8.47259E+06    -23.7127E+06    -86.0636E+06    -78.9435E+06    -30.8328E+06     8.47259E+06    -18.2637E+06
            1815     130.705E-03     10.0986E-03     130.314E-03     349.549E-03    -172.967E-03    -176.581E-03    -171.877E-03     344.844E-03    -172.967E-03     98.8927E-03     418.649E-03     89.3486E+06     28.7273E+06     8.51334E+06    -68.3943E+06    -66.1915E+06     14.0671E+06     20.9707E+06    -7.98614E+06
            1816     130.902E-03     10.9426E-03     130.443E-03     349.115E-03    -172.950E-03    -176.165E-03    -170.559E-03     343.509E-03    -172.950E-03     107.873E-03     422.534E-03     105.565E+06     61.9641E+06     39.8019E+06    -52.4565E+06    -51.7948E+06     61.2666E+06     39.8378E+06     3.10353E+06
            1817     131.111E-03     11.7852E-03     130.580E-03     349.424E-03    -172.884E-03    -176.540E-03    -168.977E-03     341.861E-03    -172.884E-03     124.521E-03     431.118E-03     118.127E+06     86.6748E+06     67.8772E+06    -39.2867E+06    -38.6355E+06     85.5186E+06     68.3823E+06     7.93320E+06
            1818     131.360E-03     12.6305E-03     130.751E-03     347.938E-03    -172.535E-03    -175.403E-03    -166.882E-03     339.596E-03    -172.714E-03     130.895E-03     433.545E-03     129.036E+06     104.381E+06     94.7296E+06    -29.1060E+06    -28.3968E+06     97.9432E+06     100.459E+06     8.34237E+06
            1819     131.591E-03     13.4799E-03     130.899E-03     352.475E-03    -172.174E-03    -180.301E-03    -165.530E-03     337.883E-03    -172.353E-03     168.655E-03     456.905E-03     146.121E+06     133.392E+06     118.051E+06    -19.7251E+06    -19.2050E+06     117.531E+06     133.392E+06     7.95121E+06
            1820     131.948E-03     14.3330E-03     131.167E-03     347.263E-03    -167.901E-03    -179.362E-03    -160.789E-03     332.537E-03    -171.748E-03     168.482E-03     442.946E-03     167.577E+06     169.003E+06     143.553E+06    -9.80224E+06    -9.53921E+06     143.290E+06     169.003E+06     5.81057E+06
            1821     131.219E-03     845.799E-06     131.216E-03     336.102E-03    -167.394E-03    -168.708E-03    -168.696E-03     336.091E-03    -167.394E-03     3.99487E-03     337.144E-03     140.099E+06    -162.187E+06    -167.228E+06    -304.705E+06    -165.976E+06    -304.437E+06    -163.707E+06    -5.05478E+06
            1822     131.231E-03     1.69049E-03     131.220E-03     337.440E-03    -168.323E-03    -169.117E-03    -169.077E-03     337.400E-03    -168.323E-03     8.63336E-03     340.629E-03     130.353E+06    -150.723E+06    -161.071E+06    -285.879E+06    -161.120E+06    -285.067E+06    -151.486E+06    -9.57172E+06
            1823     131.251E-03     2.53432E-03     131.227E-03     338.625E-03    -168.814E-03    -169.811E-03    -169.716E-03     338.530E-03    -168.814E-03     13.5479E-03     345.380E-03     126.339E+06    -134.201E+06    -153.702E+06    -269.033E+06    -155.406E+06    -267.330E+06    -134.201E+06    -13.6526E+06
            1824     131.280E-03     3.37769E-03     131.237E-03     339.867E-03    -169.286E-03    -170.581E-03    -170.384E-03     339.671E-03    -169.286E-03     19.6188E-03     351.605E-03     119.567E+06    -113.135E+06    -143.302E+06    -244.754E+06    -146.379E+06    -241.677E+06    -113.135E+06    -17.0093E+06
            1825     131.322E-03     4.22028E-03     131.254E-03     341.389E-03    -169.773E-03    -171.616E-03    -171.232E-03     341.005E-03    -169.773E-03     27.5891E-03     359.237E-03     111.679E+06    -92.1093E+06    -131.623E+06    -218.037E+06    -136.831E+06    -212.829E+06    -92.1093E+06    -20.1697E+06
            1826     131.380E-03     5.06257E-03     131.283E-03     343.145E-03    -170.292E-03    -172.853E-03    -172.199E-03     342.491E-03    -170.292E-03     36.4428E-03     368.187E-03     104.932E+06    -72.8074E+06    -120.045E+06    -192.925E+06    -128.368E+06    -184.601E+06    -72.8074E+06    -22.7892E+06
            1827     131.454E-03     5.90453E-03     131.322E-03     345.440E-03    -170.868E-03    -174.572E-03    -173.544E-03     344.413E-03    -170.868E-03     45.8954E-03     378.746E-03     100.221E+06    -53.7786E+06    -106.806E+06    -169.292E+06    -119.429E+06    -156.668E+06    -53.7786E+06    -24.7218E+06
            1828     131.545E-03     6.74221E-03     131.372E-03     347.421E-03    -171.471E-03    -175.951E-03    -174.373E-03     345.843E-03    -171.471E-03     57.0666E-03     389.234E-03     95.6406E+06    -34.4788E+06    -89.7888E+06    -144.888E+06    -109.481E+06    -125.196E+06    -34.4788E+06    -25.5957E+06
            1829     131.658E-03     7.58120E-03     131.440E-03     347.889E-03    -171.968E-03    -175.921E-03    -173.671E-03     345.639E-03    -171.968E-03     68.2778E-03     397.876E-03     92.2428E+06    -17.0426E+06    -71.0991E+06    -123.507E+06    -99.3334E+06    -95.2729E+06    -17.0426E+06    -25.8482E+06
            1830     131.791E-03     8.42185E-03     131.522E-03     347.978E-03    -172.276E-03    -175.702E-03    -172.654E-03     344.930E-03    -172.276E-03     79.4141E-03     405.178E-03     89.6804E+06    -3.23389E+06    -49.8150E+06    -106.408E+06    -89.3101E+06    -66.9125E+06    -3.23389E+06    -25.4014E+06
            1831     131.941E-03     9.26169E-03     131.615E-03     348.420E-03    -172.432E-03    -175.988E-03    -171.963E-03     344.395E-03    -172.432E-03     91.2981E-03     411.364E-03     86.6857E+06     8.24668E+06    -26.3842E+06    -90.2281E+06    -79.4255E+06    -37.1868E+06     8.24668E+06    -23.4548E+06
            1832     132.117E-03     10.1049E-03     131.730E-03     348.411E-03    -172.458E-03    -175.954E-03    -170.798E-03     343.255E-03    -172.458E-03     103.235E-03     416.660E-03     86.2153E+06     19.2089E+06     1.98675E+06    -73.6090E+06    -68.1527E+06    -3.46950E+06     19.2089E+06    -17.7677E+06
            1833     132.308E-03     10.9452E-03     131.854E-03     347.059E-03    -172.307E-03    -174.752E-03    -168.572E-03     340.879E-03    -172.307E-03     112.704E-03     419.579E-03     97.8216E+06     48.0194E+06     27.9066E+06    -57.5544E+06    -56.0365E+06     43.8173E+06     30.5907E+06    -8.38343E+06
            1834     132.513E-03     11.7927E-03     131.987E-03     346.629E-03    -172.034E-03    -174.595E-03    -166.125E-03     338.159E-03    -172.034E-03     130.855E-03     427.092E-03     112.750E+06     78.9478E+06     51.5007E+06    -44.6526E+06    -44.3077E+06     78.6029E+06     51.5007E+06    -672.868E+03
            1835     132.759E-03     12.6426E-03     132.155E-03     344.431E-03    -170.966E-03    -173.465E-03    -163.374E-03     335.046E-03    -171.672E-03     137.812E-03     428.647E-03     122.857E+06     95.1993E+06     82.9799E+06    -33.0484E+06    -32.7580E+06     93.4613E+06     84.4275E+06     4.18438E+06
            1836     132.983E-03     13.4937E-03     132.297E-03     347.319E-03    -170.401E-03    -176.918E-03    -160.299E-03     331.406E-03    -171.107E-03     174.474E-03     450.778E-03     143.495E+06     126.752E+06     116.001E+06    -21.7303E+06    -21.2287E+06     116.253E+06     125.998E+06     7.14406E+06
            1837     133.330E-03     14.3539E-03     132.555E-03     340.152E-03    -164.101E-03    -176.051E-03    -153.839E-03     324.079E-03    -170.240E-03     173.893E-03     435.814E-03     172.481E+06     172.697E+06     148.272E+06    -10.6085E+06    -10.3050E+06     147.969E+06     172.697E+06     6.35840E+06
            1838     132.616E-03     847.345E-06     132.614E-03     333.149E-03    -166.215E-03    -166.934E-03    -166.905E-03     333.130E-03    -166.224E-03     5.52032E-03     334.132E-03     135.813E+06    -150.516E+06    -154.500E+06    -288.273E+06    -153.054E+06    -287.935E+06    -152.300E+06    -5.98837E+06
            1839     132.630E-03     1.69266E-03     132.619E-03     334.294E-03    -166.784E-03    -167.510E-03    -167.435E-03     334.229E-03    -166.794E-03     11.0158E-03     337.363E-03     124.633E+06    -142.566E+06    -151.295E+06    -271.265E+06    -151.381E+06    -270.416E+06    -143.329E+06    -9.87221E+06
            1840     132.651E-03     2.53824E-03     132.627E-03     335.701E-03    -167.268E-03    -168.433E-03    -168.283E-03     335.551E-03    -167.268E-03     16.9730E-03     342.240E-03     120.481E+06    -126.086E+06    -144.551E+06    -254.616E+06    -146.430E+06    -252.737E+06    -126.086E+06    -13.8391E+06
            1841     132.683E-03     3.38307E-03     132.640E-03     337.874E-03    -167.847E-03    -170.027E-03    -169.740E-03     337.586E-03    -167.847E-03     23.7982E-03     349.185E-03     114.390E+06    -106.651E+06    -134.932E+06    -232.415E+06    -138.488E+06    -228.858E+06    -106.651E+06    -17.9901E+06
            1842     132.728E-03     4.22615E-03     132.660E-03     340.146E-03    -168.533E-03    -171.613E-03    -171.122E-03     339.654E-03    -168.533E-03     31.4335E-03     357.479E-03     107.309E+06    -86.7946E+06    -124.227E+06    -207.656E+06    -129.746E+06    -202.136E+06    -86.7946E+06    -20.4569E+06
            1843     132.787E-03     5.06772E-03     132.691E-03     341.928E-03    -169.223E-03    -172.705E-03    -171.906E-03     341.129E-03    -169.223E-03     40.1577E-03     366.261E-03     101.694E+06    -66.3220E+06    -112.293E+06    -182.756E+06    -120.621E+06    -174.427E+06    -66.3220E+06    -22.3857E+06
            1844     132.864E-03     5.90787E-03     132.733E-03     344.056E-03    -169.878E-03    -174.178E-03    -172.917E-03     342.795E-03    -169.878E-03     50.6148E-03     376.276E-03     98.3864E+06    -46.6804E+06    -98.5091E+06    -160.086E+06    -111.289E+06    -147.307E+06    -46.6804E+06    -24.5982E+06
            1845     132.960E-03     6.74885E-03     132.788E-03     345.861E-03    -170.496E-03    -175.365E-03    -173.508E-03     344.004E-03    -170.496E-03     61.7653E-03     386.499E-03     95.5831E+06    -28.2484E+06    -82.6286E+06    -138.592E+06    -101.731E+06    -119.490E+06    -28.2484E+06    -25.8997E+06
            1846     133.071E-03     7.58769E-03     132.855E-03     346.210E-03    -170.978E-03    -175.232E-03    -172.627E-03     343.605E-03    -170.978E-03     73.1824E-03     394.952E-03     92.7188E+06    -11.0473E+06    -63.9690E+06    -118.082E+06    -92.0247E+06    -90.0262E+06    -11.0473E+06    -26.3240E+06
            1847     133.200E-03     8.42904E-03     132.933E-03     346.477E-03    -171.265E-03    -175.213E-03    -171.626E-03     342.891E-03    -171.265E-03     85.8370E-03     402.016E-03     90.7080E+06     3.03162E+06    -45.1616E+06    -101.552E+06    -82.8599E+06    -63.8537E+06     3.03162E+06    -26.2306E+06
            1848     133.354E-03     9.27150E-03     133.031E-03     346.451E-03    -171.370E-03    -175.081E-03    -170.401E-03     341.770E-03    -171.370E-03     98.0711E-03     407.646E-03     88.3425E+06     13.0611E+06    -24.7312E+06    -87.6159E+06    -74.6903E+06    -37.6567E+06     13.0611E+06    -24.6734E+06
            1849     133.521E-03     10.1129E-03     133.138E-03     345.013E-03    -171.259E-03    -173.753E-03    -167.692E-03     338.951E-03    -171.259E-03     111.047E-03     411.312E-03     86.7869E+06     20.8530E+06    -2.15183E+06    -74.7965E+06    -66.5987E+06    -10.3497E+06     20.8530E+06    -22.2399E+06
            1850     133.713E-03     10.9627E-03     133.263E-03     343.095E-03    -170.885E-03    -172.210E-03    -164.773E-03     335.658E-03    -170.885E-03     122.653E-03     413.275E-03     92.8525E+06     40.0690E+06     18.3970E+06    -61.3426E+06    -57.2944E+06     28.0315E+06     26.3862E+06    -16.2046E+06
            1851     133.909E-03     11.8107E-03     133.387E-03     342.699E-03    -170.358E-03    -172.341E-03    -162.207E-03     332.566E-03    -170.358E-03     142.017E-03     420.431E-03     105.845E+06     68.1092E+06     42.0720E+06    -48.0775E+06    -47.3670E+06     67.3986E+06     42.0720E+06    -7.16079E+06
            1852     134.152E-03     12.6637E-03     133.553E-03     339.920E-03    -168.651E-03    -171.269E-03    -158.808E-03     328.551E-03    -169.742E-03     150.195E-03     421.427E-03     118.155E+06     87.9920E+06     70.0072E+06    -37.8324E+06    -37.7158E+06     87.8754E+06     70.0072E+06    -1.63437E+06
            1853     134.369E-03     13.5207E-03     133.687E-03     342.512E-03    -167.874E-03    -174.639E-03    -155.682E-03     324.647E-03    -168.965E-03     184.347E-03     444.295E-03     138.568E+06     117.085E+06     105.719E+06    -26.6961E+06    -26.4577E+06     111.111E+06     111.455E+06     914.521E+03
            1854     134.701E-03     14.3879E-03     133.931E-03     336.481E-03    -162.772E-03    -173.709E-03    -151.259E-03     319.294E-03    -168.035E-03     178.280E-03     432.671E-03     172.602E+06     169.645E+06     147.987E+06    -12.6059E+06    -12.2913E+06     147.672E+06     169.645E+06     3.53954E+06
            1855     134.007E-03     847.465E-06     134.005E-03     329.051E-03    -164.342E-03    -164.709E-03    -164.648E-03     329.019E-03    -164.371E-03     7.31096E-03     330.008E-03     128.589E+06    -140.669E+06    -144.432E+06    -271.086E+06    -143.692E+06    -270.806E+06    -141.690E+06    -5.37620E+06
            1856     134.023E-03     1.69696E-03     134.012E-03     329.769E-03    -164.645E-03    -165.124E-03    -164.997E-03     329.670E-03    -164.674E-03     13.5282E-03     332.693E-03     121.402E+06    -130.670E+06    -139.426E+06    -256.173E+06    -140.390E+06    -255.209E+06    -130.670E+06    -10.0509E+06
            1857     134.046E-03     2.54442E-03     134.022E-03     331.921E-03    -165.123E-03    -166.798E-03    -166.580E-03     331.703E-03    -165.123E-03     20.4766E-03     338.085E-03     117.639E+06    -115.072E+06    -131.091E+06    -239.840E+06    -133.325E+06    -237.606E+06    -115.072E+06    -15.1108E+06
            1858     134.082E-03     3.38968E-03     134.039E-03     334.793E-03    -165.856E-03    -168.937E-03    -168.519E-03     334.375E-03    -165.856E-03     28.5415E-03     345.489E-03     113.150E+06    -95.9438E+06    -121.678E+06    -219.594E+06    -125.403E+06    -215.869E+06    -95.9438E+06    -18.5585E+06
            1859     134.132E-03     4.23258E-03     134.065E-03     337.403E-03    -166.699E-03    -170.704E-03    -170.005E-03     336.704E-03    -166.699E-03     37.1746E-03     353.938E-03     108.496E+06    -75.4194E+06    -111.068E+06    -197.098E+06    -116.971E+06    -191.195E+06    -75.4194E+06    -21.4145E+06
            1860     134.192E-03     5.07504E-03     134.096E-03     339.501E-03    -167.500E-03    -172.002E-03    -170.884E-03     338.384E-03    -167.500E-03     47.1891E-03     362.771E-03     103.725E+06    -55.3534E+06    -98.9718E+06    -173.621E+06    -107.444E+06    -165.149E+06    -55.3534E+06    -23.4948E+06
            1861     134.272E-03     5.91805E-03     134.141E-03     341.003E-03    -168.178E-03    -172.825E-03    -171.087E-03     339.264E-03    -168.178E-03     59.1267E-03     371.753E-03     99.5641E+06    -36.0986E+06    -86.1866E+06    -150.667E+06    -97.6664E+06    -139.188E+06    -36.0986E+06    -24.3631E+06
            1862     134.369E-03     6.75850E-03     134.199E-03     341.789E-03    -168.684E-03    -173.105E-03    -170.618E-03     339.302E-03    -168.684E-03     70.8838E-03     380.502E-03     95.1423E+06    -18.5914E+06    -72.1719E+06    -128.393E+06    -88.3550E+06    -112.210E+06    -18.5914E+06    -25.0928E+06
            1863     134.479E-03     7.60228E-03     134.264E-03     342.801E-03    -169.039E-03    -173.761E-03    -170.324E-03     339.364E-03    -169.039E-03     83.3833E-03     389.234E-03     91.3951E+06    -2.67503E+06    -55.9378E+06    -108.199E+06    -79.7165E+06    -84.4205E+06    -2.67503E+06    -25.3687E+06
            1864     134.609E-03     8.44466E-03     134.344E-03     343.129E-03    -169.251E-03    -173.878E-03    -169.236E-03     338.487E-03    -169.251E-03     96.9903E-03     396.067E-03     89.5119E+06     11.0710E+06    -40.0345E+06    -92.2294E+06    -71.8815E+06    -60.3824E+06     11.0710E+06    -25.1752E+06
            1865     134.759E-03     9.28811E-03     134.439E-03     341.684E-03    -169.216E-03    -172.468E-03    -166.406E-03     335.621E-03    -169.216E-03     110.378E-03     399.941E-03     86.7731E+06     21.5328E+06    -22.4098E+06    -78.1304E+06    -63.4557E+06    -37.0846E+06     21.5328E+06    -23.7355E+06
            1866     134.924E-03     10.1379E-03     134.542E-03     339.787E-03    -168.888E-03    -170.899E-03    -163.165E-03     332.053E-03    -168.888E-03     124.143E-03     402.786E-03     84.2778E+06     29.8559E+06    -1.00017E+06    -65.1341E+06    -55.7135E+06    -10.4208E+06     29.8559E+06    -21.7491E+06
            1867     135.105E-03     10.9880E-03     134.658E-03     337.752E-03    -168.313E-03    -169.438E-03    -160.028E-03     328.342E-03    -168.313E-03     136.393E-03     404.261E-03     85.9095E+06     39.6408E+06     19.5849E+06    -54.4023E+06    -49.6087E+06     18.4295E+06     36.0026E+06    -17.0537E+06
            1868     135.304E-03     11.8442E-03     134.785E-03     337.124E-03    -167.531E-03    -169.593E-03    -157.157E-03     324.687E-03    -167.531E-03     155.843E-03     410.902E-03     96.7053E+06     61.3663E+06     38.2442E+06    -44.6045E+06    -43.3836E+06     55.7863E+06     42.6034E+06    -8.98362E+06
            1869     135.534E-03     12.7038E-03     134.938E-03     335.263E-03    -166.140E-03    -169.123E-03    -154.893E-03     321.598E-03    -166.705E-03     163.462E-03     413.457E-03     112.807E+06     84.8752E+06     63.4865E+06    -36.5716E+06    -36.3309E+06     84.6345E+06     63.4865E+06    -4.63608E+06
            1870     135.751E-03     13.5660E-03     135.072E-03     341.407E-03    -165.386E-03    -176.021E-03    -156.093E-03     322.043E-03    -165.950E-03     193.552E-03     441.267E-03     132.710E+06     109.853E+06     99.3440E+06    -27.6995E+06    -27.5179E+06     107.497E+06     101.518E+06    -4.04992E+06
            1871     136.073E-03     14.4288E-03     135.306E-03     341.576E-03    -163.628E-03    -177.948E-03    -158.976E-03     324.408E-03    -165.433E-03     178.802E-03     439.027E-03     170.037E+06     163.221E+06     141.902E+06    -16.2467E+06    -16.0393E+06     143.766E+06     161.150E+06    -2.17898E+06
            1872     135.393E-03     851.564E-06     135.390E-03     322.821E-03    -161.125E-03    -161.696E-03    -161.625E-03     322.769E-03    -161.144E-03     9.26682E-03     323.699E-03     127.376E+06    -125.300E+06    -127.956E+06    -253.970E+06    -128.347E+06    -253.579E+06    -125.300E+06    -6.42529E+06
            1873     135.408E-03     1.70128E-03     135.397E-03     324.347E-03    -161.652E-03    -162.695E-03    -162.516E-03     324.187E-03    -161.671E-03     16.9935E-03     327.035E-03     121.561E+06    -114.165E+06    -121.974E+06    -239.399E+06    -123.117E+06    -238.257E+06    -114.165E+06    -11.0729E+06
            1874     135.436E-03     2.55068E-03     135.412E-03     326.514E-03    -162.262E-03    -164.252E-03    -163.894E-03     326.156E-03    -162.262E-03     25.7680E-03     332.194E-03     118.173E+06    -99.5675E+06    -114.838E+06    -224.568E+06    -117.340E+06    -222.066E+06    -99.5675E+06    -16.0779E+06
            1875     135.476E-03     3.39805E-03     135.434E-03     328.880E-03    -162.950E-03    -165.929E-03    -165.246E-03     328.196E-03    -162.950E-03     35.9893E-03     338.741E-03     114.831E+06    -82.5640E+06    -105.592E+06    -207.092E+06    -109.763E+06    -202.920E+06    -82.5640E+06    -19.9733E+06
            1876     135.529E-03     4.24520E-03     135.462E-03     331.534E-03    -163.680E-03    -167.854E-03    -166.711E-03     330.391E-03    -163.680E-03     47.0218E-03     346.758E-03     108.945E+06    -64.5830E+06    -95.6002E+06    -185.550E+06    -101.629E+06    -179.521E+06    -64.5830E+06    -22.2998E+06
            1877     135.593E-03     5.09045E-03     135.498E-03     334.114E-03    -164.427E-03    -169.686E-03    -167.934E-03     332.362E-03    -164.427E-03     58.5540E-03     355.760E-03     104.427E+06    -46.2804E+06    -85.9448E+06    -164.611E+06    -93.9330E+06    -156.622E+06    -46.2804E+06    -23.6395E+06
            1878     135.674E-03     5.93356E-03     135.544E-03     335.050E-03    -165.044E-03    -170.006E-03    -167.470E-03     332.515E-03    -165.044E-03     70.7007E-03     363.720E-03     99.8220E+06    -28.7295E+06    -75.7185E+06    -143.245E+06    -86.2108E+06    -132.753E+06    -28.7295E+06    -24.1973E+06
            1879     135.769E-03     6.78159E-03     135.600E-03     335.329E-03    -165.416E-03    -169.913E-03    -166.359E-03     331.775E-03    -165.416E-03     83.7790E-03     371.182E-03       93.95E+06    -11.4793E+06    -63.4410E+06    -119.863E+06    -78.2041E+06    -105.100E+06    -11.4793E+06    -24.3354E+06
            1880     135.881E-03     7.62723E-03     135.667E-03     336.251E-03    -165.604E-03    -170.646E-03    -165.727E-03     331.331E-03    -165.604E-03     98.5800E-03     379.182E-03     90.6944E+06     4.75481E+06    -50.1280E+06    -99.8685E+06    -70.4637E+06    -79.5329E+06     4.75481E+06    -24.1263E+06
            1881     136.013E-03     8.47322E-03     135.749E-03     335.817E-03    -165.615E-03    -170.202E-03    -163.729E-03     329.345E-03    -165.615E-03     112.963E-03     385.046E-03     88.9850E+06     19.1237E+06    -36.0445E+06    -83.4871E+06    -62.9486E+06    -56.5830E+06     19.1237E+06    -23.1659E+06
            1882     136.153E-03     9.32471E-03     135.834E-03     334.280E-03    -165.361E-03    -168.919E-03    -160.568E-03     325.929E-03    -165.361E-03     127.748E-03     388.320E-03     87.6843E+06     30.5603E+06    -20.6830E+06    -70.5953E+06    -55.8726E+06    -35.4057E+06     30.5603E+06    -22.5307E+06
            1883     136.316E-03     10.1776E-03     135.936E-03     333.490E-03    -164.862E-03    -168.629E-03    -158.195E-03     323.057E-03    -164.862E-03     142.574E-03     391.841E-03     84.7810E+06     38.8052E+06    -3.45513E+06    -58.3620E+06    -49.5165E+06    -12.3007E+06     38.8052E+06    -19.0941E+06
            1884     136.493E-03     11.0344E-03     136.047E-03     332.570E-03    -164.224E-03    -168.346E-03    -156.218E-03     320.442E-03    -164.224E-03     153.568E-03     394.586E-03     83.7614E+06     46.5134E+06     16.8295E+06    -47.4040E+06    -43.9176E+06     13.3431E+06     46.5134E+06    -14.0326E+06
            1885     136.684E-03     11.8939E-03     136.165E-03     333.248E-03    -163.467E-03    -169.781E-03    -154.938E-03     318.405E-03    -163.467E-03     169.749E-03     403.028E-03     92.5975E+06     62.2480E+06     40.0543E+06    -38.9365E+06    -37.3594E+06     49.1881E+06     51.5372E+06    -10.1157E+06
            1886     136.914E-03     12.7571E-03     136.318E-03     334.768E-03    -162.842E-03    -171.927E-03    -156.723E-03     319.565E-03    -162.842E-03     172.580E-03     410.128E-03     107.210E+06     83.2430E+06     70.2458E+06    -29.1707E+06    -28.6311E+06     81.8039E+06     71.1454E+06    -6.20408E+06
            1887     137.129E-03     13.6152E-03     136.452E-03     347.385E-03    -162.612E-03    -184.773E-03    -165.252E-03     327.864E-03    -162.612E-03     198.168E-03     445.197E-03     127.631E+06     109.927E+06     105.346E+06    -19.9131E+06    -19.7078E+06     108.822E+06     106.245E+06    -4.41706E+06
            1888     137.465E-03     14.4684E-03     136.701E-03     356.502E-03    -163.074E-03    -193.428E-03    -177.217E-03     340.291E-03    -163.074E-03     177.203E-03     454.345E-03     166.345E+06     166.982E+06     138.561E+06    -10.3534E+06    -10.1712E+06     140.673E+06     164.688E+06    -3.11362E+06
            1889     136.767E-03     854.938E-06     136.765E-03     313.983E-03    -156.258E-03    -157.725E-03    -157.631E-03     313.896E-03    -156.265E-03     11.6921E-03     314.749E-03     123.668E+06    -111.845E+06    -113.607E+06    -236.379E+06    -113.547E+06    -235.958E+06    -112.326E+06    -6.47681E+06
            1890     136.786E-03     1.70880E-03     136.775E-03     315.428E-03    -157.172E-03    -158.255E-03    -157.949E-03     315.129E-03    -157.180E-03     22.6591E-03     317.784E-03     115.933E+06    -103.356E+06    -108.437E+06    -221.711E+06    -109.683E+06    -220.379E+06    -103.443E+06    -11.7677E+06
            1891     136.817E-03     2.56088E-03     136.793E-03     317.309E-03    -157.666E-03    -159.644E-03    -158.977E-03     316.643E-03    -157.666E-03     34.6643E-03     322.346E-03     112.392E+06    -90.7839E+06    -102.808E+06    -208.633E+06    -105.404E+06    -206.038E+06    -90.7839E+06    -16.1544E+06
            1892     136.859E-03     3.41391E-03     136.816E-03     319.374E-03    -158.202E-03    -161.172E-03    -159.997E-03     318.199E-03    -158.202E-03     46.6138E-03     328.147E-03     108.715E+06    -76.3705E+06    -96.3019E+06    -193.592E+06    -100.666E+06    -189.228E+06    -76.3705E+06    -19.8572E+06
            1893     136.914E-03     4.26542E-03     136.848E-03     321.845E-03    -158.772E-03    -163.073E-03    -161.180E-03     319.952E-03    -158.772E-03     59.5639E-03     335.320E-03     104.639E+06    -59.4298E+06    -87.6035E+06    -175.168E+06    -93.9078E+06    -168.863E+06    -59.4298E+06    -22.5070E+06
            1894     136.985E-03     5.11500E-03     136.889E-03     324.049E-03    -159.342E-03    -164.707E-03    -161.901E-03     321.243E-03    -159.342E-03     72.9931E-03     343.301E-03     102.266E+06    -41.0081E+06    -77.8312E+06    -156.487E+06    -85.8884E+06    -148.429E+06    -41.0081E+06    -23.7404E+06
            1895     137.065E-03     5.96561E-03     136.935E-03     325.347E-03    -159.807E-03    -165.540E-03    -161.619E-03     321.427E-03    -159.807E-03     86.4553E-03     350.995E-03     99.1402E+06    -22.2838E+06    -67.5954E+06    -135.842E+06    -77.8383E+06    -125.599E+06    -22.2838E+06    -24.1770E+06
            1896     137.158E-03     6.81451E-03     136.988E-03     326.023E-03    -160.075E-03    -165.949E-03    -160.500E-03     320.575E-03    -160.075E-03     101.797E-03     358.173E-03     94.6579E+06    -3.91813E+06    -56.3250E+06    -113.078E+06    -69.5731E+06    -99.8298E+06    -3.91813E+06    -23.7435E+06
            1897     137.273E-03     7.66713E-03     137.058E-03     325.713E-03    -160.093E-03    -165.620E-03    -158.335E-03     318.429E-03    -160.093E-03     117.734E-03     364.183E-03     91.9262E+06     13.2437E+06    -44.7363E+06    -92.6697E+06    -61.6443E+06    -75.7617E+06     13.2437E+06    -22.5914E+06
            1898     137.398E-03     8.52352E-03     137.133E-03     325.395E-03    -159.880E-03    -165.515E-03    -156.309E-03     316.189E-03    -159.880E-03     132.371E-03     369.527E-03     90.6856E+06     28.7628E+06    -32.4274E+06    -75.3067E+06    -54.0777E+06    -53.6564E+06     28.7628E+06    -20.9806E+06
            1899     137.538E-03     9.37979E-03     137.218E-03     325.905E-03    -159.526E-03    -166.379E-03    -155.171E-03     314.697E-03    -159.526E-03     146.280E-03     374.650E-03     89.3325E+06     40.5960E+06    -20.7527E+06    -61.4238E+06    -48.0709E+06    -34.1056E+06     40.5960E+06    -18.6138E+06
            1900     137.696E-03     10.2397E-03     137.315E-03     326.880E-03    -159.098E-03    -167.782E-03    -154.469E-03     313.567E-03    -159.098E-03     159.754E-03     379.935E-03     86.4969E+06     49.0128E+06    -7.84196E+06    -50.0237E+06    -42.7607E+06    -15.1050E+06     49.0128E+06    -15.3459E+06
            1901     137.873E-03     11.0996E-03     137.426E-03     328.989E-03    -158.701E-03    -170.288E-03    -155.651E-03     314.352E-03    -158.701E-03     168.325E-03     386.248E-03      86.196E+06     59.0155E+06     14.6584E+06    -39.6076E+06    -36.4324E+06     11.4832E+06     59.0155E+06    -11.9107E+06
            1902     138.061E-03     11.9580E-03     137.542E-03     335.197E-03    -158.483E-03    -176.714E-03    -160.200E-03     318.683E-03    -158.483E-03     180.716E-03     401.372E-03     93.5910E+06     70.4701E+06     47.1717E+06    -31.5813E+06    -30.3421E+06     47.7774E+06     68.6252E+06    -8.39364E+06
            1903     138.294E-03     12.8138E-03     137.699E-03     343.257E-03    -158.716E-03    -184.541E-03    -168.831E-03     327.547E-03    -158.716E-03     178.657E-03     416.452E-03     109.019E+06     88.3999E+06     79.3021E+06    -24.8238E+06    -24.2719E+06     80.5950E+06     86.5551E+06    -5.85023E+06
            1904     138.521E-03     13.6607E-03     137.846E-03     361.834E-03    -159.623E-03    -202.211E-03    -183.841E-03     343.464E-03    -159.623E-03     198.653E-03     458.119E-03     130.233E+06     114.500E+06     109.254E+06    -18.2268E+06    -17.9939E+06     109.245E+06     114.277E+06    -3.80242E+06
            1905     138.878E-03     14.4932E-03     138.120E-03     375.805E-03    -161.435E-03    -214.370E-03    -199.483E-03     360.918E-03    -161.435E-03     176.019E-03     473.076E-03     170.652E+06     173.087E+06     136.342E+06    -11.0842E+06    -10.9279E+06     136.409E+06     172.863E+06    -1.90410E+06
            1906     138.127E-03     859.169E-06     138.125E-03     300.726E-03    -149.665E-03    -151.061E-03    -150.772E-03     300.570E-03    -149.798E-03     14.9548E-03     301.386E-03     114.419E+06    -102.349E+06    -104.588E+06    -217.863E+06    -102.887E+06    -217.325E+06    -104.588E+06    -6.75529E+06
            1907     138.148E-03     1.71999E-03     138.137E-03     301.406E-03    -150.335E-03    -151.071E-03    -150.560E-03     300.902E-03    -150.342E-03     29.1157E-03     303.407E-03     104.304E+06    -97.5090E+06    -100.872E+06    -203.435E+06    -101.780E+06    -201.818E+06    -98.2184E+06    -12.3723E+06
            1908     138.180E-03     2.58079E-03     138.156E-03     303.113E-03    -150.588E-03    -152.525E-03    -151.440E-03     302.028E-03    -150.588E-03     43.5456E-03     307.339E-03     103.634E+06    -85.7933E+06    -94.9171E+06    -193.628E+06    -98.0162E+06    -190.529E+06    -85.7933E+06    -16.9070E+06
            1909     138.226E-03     3.43841E-03     138.183E-03     305.552E-03    -151.002E-03    -154.549E-03    -152.629E-03     303.631E-03    -151.002E-03     58.3957E-03     312.919E-03     102.686E+06    -70.1029E+06    -88.2606E+06    -180.552E+06    -92.9865E+06    -175.826E+06    -70.1029E+06    -20.1256E+06
            1910     138.284E-03     4.29543E-03     138.217E-03     307.388E-03    -151.436E-03    -155.952E-03    -152.919E-03     304.354E-03    -151.436E-03     73.7140E-03     318.775E-03     101.863E+06    -52.1891E+06    -79.8290E+06    -164.923E+06    -86.3588E+06    -158.393E+06    -52.1891E+06    -22.5013E+06
            1911     138.356E-03     5.15393E-03     138.260E-03     308.622E-03    -151.731E-03    -156.892E-03    -152.437E-03     304.167E-03    -151.731E-03     89.5323E-03     324.753E-03     100.959E+06    -34.3112E+06    -71.1721E+06    -148.407E+06    -79.3280E+06    -140.252E+06    -34.3112E+06    -23.6635E+06
            1912     138.437E-03     6.01162E-03     138.307E-03     310.611E-03    -151.918E-03    -158.692E-03    -152.445E-03     304.364E-03    -151.918E-03     106.290E-03     332.191E-03     98.4667E+06    -15.7982E+06    -62.0919E+06    -128.696E+06    -71.9458E+06    -118.842E+06    -15.7982E+06    -23.4564E+06
            1913     138.534E-03     6.87038E-03     138.363E-03     312.467E-03    -152.042E-03    -160.425E-03    -152.041E-03     304.083E-03    -152.042E-03     123.682E-03     339.838E-03     95.3875E+06     2.31644E+06    -53.5850E+06    -107.610E+06    -65.1913E+06    -96.0040E+06     2.31644E+06    -22.0391E+06
            1914     138.642E-03     7.73004E-03     138.426E-03     313.387E-03    -152.042E-03    -161.346E-03    -150.806E-03     302.847E-03    -152.042E-03     139.083E-03     346.415E-03     93.7488E+06     19.3151E+06    -44.7152E+06    -88.0396E+06    -59.0055E+06    -73.7493E+06     19.3151E+06    -19.8730E+06
            1915     138.766E-03     8.59224E-03     138.500E-03     315.315E-03    -151.945E-03    -163.369E-03    -150.761E-03     302.706E-03    -151.945E-03     152.710E-03     353.469E-03     92.7431E+06     34.0749E+06    -35.7963E+06    -70.8989E+06    -53.9971E+06    -52.6981E+06     34.0749E+06    -16.8157E+06
            1916     138.910E-03     9.45451E-03     138.588E-03     318.811E-03    -151.907E-03    -166.904E-03    -152.632E-03     304.538E-03    -151.907E-03     163.738E-03     361.830E-03     92.9476E+06     46.2013E+06    -26.6061E+06    -58.4304E+06    -49.8583E+06    -35.1783E+06     46.2013E+06    -12.5889E+06
            1917     139.064E-03     10.3139E-03     138.681E-03     323.551E-03    -152.028E-03    -171.523E-03    -155.942E-03     307.970E-03    -152.028E-03     172.742E-03     371.629E-03     93.3409E+06     56.2232E+06    -9.79621E+06    -50.0763E+06    -45.9975E+06    -13.8750E+06     56.2232E+06    -10.3054E+06
            1918     139.247E-03     11.1740E-03     138.798E-03     330.477E-03    -152.420E-03    -178.057E-03    -162.170E-03     314.590E-03    -152.420E-03     176.876E-03     383.515E-03     94.2584E+06     64.0342E+06     13.3887E+06    -44.1920E+06    -42.1678E+06     11.3644E+06     64.0342E+06    -9.39288E+06
            1919     139.444E-03     12.0268E-03     138.924E-03     343.723E-03    -153.300E-03    -190.423E-03    -173.858E-03     327.158E-03    -153.300E-03     185.064E-03     406.553E-03     101.503E+06     73.6223E+06     47.3866E+06    -37.1016E+06    -36.2266E+06     46.5116E+06     73.6223E+06    -7.09806E+06
            1920     139.693E-03     12.8674E-03     139.099E-03     358.927E-03    -154.921E-03    -204.007E-03    -189.049E-03     343.970E-03    -154.921E-03     179.966E-03     429.977E-03     116.326E+06     90.7012E+06     81.4928E+06    -29.8935E+06    -29.4824E+06     81.0817E+06     90.7012E+06    -4.90155E+06
            1921     139.939E-03     13.6900E-03     139.268E-03     381.176E-03    -157.315E-03    -223.862E-03    -206.626E-03     363.940E-03    -157.315E-03     199.696E-03     475.698E-03     133.621E+06     114.994E+06     107.452E+06    -22.2104E+06    -21.9711E+06     107.213E+06     114.994E+06    -3.42423E+06
            1922     140.318E-03     14.5021E-03     139.567E-03     393.675E-03    -160.434E-03    -233.241E-03    -218.869E-03     379.303E-03    -160.434E-03     179.994E-03     489.150E-03     171.404E+06     175.110E+06     132.912E+06    -11.3346E+06    -11.1353E+06     132.712E+06     175.110E+06    -1.67223E+06
            1923     139.467E-03     869.462E-06     139.464E-03     281.939E-03    -140.707E-03    -141.231E-03    -140.863E-03     281.695E-03    -140.833E-03     18.5281E-03     282.464E-03     102.752E+06    -93.3110E+06    -96.8976E+06    -197.807E+06    -95.8393E+06    -197.107E+06    -95.0695E+06    -7.55082E+06
            1924     139.487E-03     1.73654E-03     139.476E-03     282.841E-03    -140.912E-03    -141.929E-03    -141.180E-03     282.092E-03    -140.912E-03     34.4927E-03     284.419E-03     94.1299E+06    -89.5719E+06    -93.5638E+06    -185.620E+06    -94.8850E+06    -183.676E+06    -90.1944E+06    -12.8564E+06
            1925     139.521E-03     2.60377E-03     139.497E-03     283.970E-03    -141.046E-03    -142.925E-03    -141.268E-03     282.314E-03    -141.046E-03     51.8462E-03     287.259E-03     95.2644E+06    -79.6709E+06    -88.6065E+06    -179.033E+06    -92.2164E+06    -175.423E+06    -79.6709E+06    -17.4871E+06
            1926     139.570E-03     3.47219E-03     139.527E-03     285.468E-03    -141.148E-03    -144.320E-03    -141.328E-03     282.476E-03    -141.148E-03     70.2915E-03     291.168E-03     96.2791E+06    -65.5911E+06    -83.0357E+06    -169.295E+06    -87.9755E+06    -164.356E+06    -65.5911E+06    -19.9709E+06
            1927     139.631E-03     4.33952E-03     139.563E-03     286.875E-03    -141.204E-03    -145.671E-03    -140.961E-03     282.165E-03    -141.204E-03     88.5761E-03     295.705E-03     94.8397E+06    -49.4193E+06    -77.5548E+06    -154.956E+06    -83.6104E+06    -148.901E+06    -49.4193E+06    -20.6623E+06
            1928     139.699E-03     5.20775E-03     139.602E-03     288.634E-03    -141.203E-03    -147.431E-03    -140.562E-03     281.765E-03    -141.203E-03     107.355E-03     301.162E-03     95.2518E+06    -31.9186E+06    -72.5234E+06    -140.401E+06    -79.3218E+06    -133.602E+06    -31.9186E+06    -20.3476E+06
            1929     139.785E-03     6.07801E-03     139.653E-03     291.581E-03    -141.203E-03    -150.378E-03    -141.007E-03     282.210E-03    -141.203E-03     126.298E-03     308.473E-03     93.7742E+06    -15.3745E+06    -69.1608E+06    -122.667E+06    -76.3640E+06    -115.464E+06    -15.3745E+06    -18.0772E+06
            1930     139.882E-03     6.94647E-03     139.710E-03     295.740E-03    -141.321E-03    -154.420E-03    -142.558E-03     283.879E-03    -141.321E-03     143.442E-03     317.511E-03     92.0972E+06     894.739E+03    -65.3073E+06    -103.186E+06    -74.9633E+06    -93.5304E+06     894.739E+03    -15.1891E+06
            1931     139.993E-03     7.81433E-03     139.775E-03     301.401E-03    -141.654E-03    -159.747E-03    -145.610E-03     287.264E-03    -141.654E-03     158.477E-03     328.423E-03     94.5691E+06     17.0726E+06    -58.5367E+06    -88.2661E+06    -73.7124E+06    -73.0904E+06     17.0726E+06    -11.9009E+06
            1932     140.120E-03     8.67863E-03     139.851E-03     307.921E-03    -142.237E-03    -165.684E-03    -149.853E-03     292.090E-03    -142.237E-03     170.037E-03     340.304E-03     97.1878E+06     31.1142E+06    -46.8511E+06    -77.5244E+06    -71.6726E+06    -52.7029E+06     31.1142E+06    -8.89706E+06
            1933     140.267E-03     9.54124E-03     139.942E-03     315.695E-03    -143.113E-03    -172.581E-03    -155.884E-03     298.997E-03    -143.113E-03     177.424E-03     353.448E-03     99.4969E+06     42.9459E+06    -32.3481E+06    -69.6869E+06    -67.1848E+06    -34.8502E+06     42.9459E+06    -7.68180E+06
            1934     140.434E-03     10.3987E-03     140.048E-03     326.513E-03    -144.390E-03    -182.123E-03    -165.289E-03     309.680E-03    -144.390E-03     181.929E-03     370.125E-03     99.7596E+06     52.9639E+06    -10.0519E+06    -61.1686E+06    -60.0989E+06    -11.1216E+06     52.9639E+06    -6.89424E+06
            1935     140.623E-03     11.2454E-03     140.173E-03     340.423E-03    -146.232E-03    -194.192E-03    -178.263E-03     324.494E-03    -146.232E-03     181.607E-03     389.958E-03     99.5808E+06     61.2250E+06     15.4414E+06    -52.6917E+06    -51.7978E+06     14.5476E+06     61.2250E+06    -7.53215E+06
            1936     140.841E-03     12.0817E-03     140.322E-03     358.695E-03    -148.727E-03    -209.969E-03    -194.180E-03     342.907E-03    -148.727E-03     186.792E-03     418.536E-03     107.173E+06     71.2969E+06     49.2721E+06    -43.8449E+06    -42.8968E+06     48.9932E+06     70.6277E+06    -9.12869E+06
            1937     141.117E-03     12.9029E-03     140.526E-03     376.413E-03    -151.912E-03    -224.501E-03    -210.328E-03     362.241E-03    -151.912E-03     181.556E-03     444.880E-03     116.638E+06     87.2950E+06     79.0375E+06    -33.1159E+06    -31.9189E+06     78.5098E+06     86.6258E+06    -9.24071E+06
            1938     141.385E-03     13.7122E-03     140.718E-03     398.450E-03    -155.657E-03    -242.793E-03    -226.093E-03     381.750E-03    -155.657E-03     202.560E-03     489.767E-03     128.051E+06     111.747E+06     102.287E+06    -20.6473E+06    -19.7620E+06     101.402E+06     111.747E+06    -5.41449E+06
            1939     141.784E-03     14.5121E-03     141.039E-03     406.872E-03    -159.773E-03    -247.099E-03    -233.008E-03     392.781E-03    -159.773E-03     182.950E-03     499.544E-03     168.235E+06     172.073E+06     130.200E+06    -11.1223E+06    -10.8787E+06     129.957E+06     172.073E+06    -1.68491E+06
            1940     140.777E-03     877.757E-06     140.774E-03     258.227E-03    -128.638E-03    -129.589E-03    -129.231E-03     257.869E-03    -128.638E-03     21.5533E-03     258.593E-03     86.1597E+06    -90.3513E+06    -93.5073E+06    -178.029E+06    -92.9837E+06    -177.247E+06    -91.6571E+06    -7.86350E+06
            1941     140.800E-03     1.75697E-03     140.789E-03     258.677E-03    -128.878E-03    -129.799E-03    -128.663E-03     257.542E-03    -128.878E-03     40.3427E-03     259.753E-03     81.0412E+06    -87.9194E+06    -91.3238E+06    -170.584E+06    -93.0038E+06    -168.904E+06    -87.9194E+06    -11.0514E+06
            1942     140.833E-03     2.63595E-03     140.808E-03     259.156E-03    -128.714E-03    -130.442E-03    -127.938E-03     256.652E-03    -128.714E-03     60.8431E-03     261.413E-03     80.0563E+06    -80.2590E+06    -90.2290E+06    -164.690E+06    -92.8474E+06    -162.071E+06    -80.2590E+06    -13.5367E+06
            1943     140.882E-03     3.51558E-03     140.838E-03     259.463E-03    -128.397E-03    -131.066E-03    -126.605E-03     255.001E-03    -128.397E-03     81.7227E-03     263.338E-03     81.8050E+06    -70.5001E+06    -90.6514E+06    -160.207E+06    -93.7521E+06    -157.106E+06    -70.5001E+06    -13.8833E+06
            1944     140.942E-03     4.39817E-03     140.873E-03     261.241E-03    -128.040E-03    -133.201E-03    -126.258E-03     254.298E-03    -128.040E-03     102.549E-03     267.232E-03     79.2862E+06    -58.6417E+06    -93.3493E+06    -147.630E+06    -96.3904E+06    -144.589E+06    -58.6417E+06    -11.5795E+06
            1945     141.014E-03     5.27976E-03     140.915E-03     265.488E-03    -127.911E-03    -137.577E-03    -127.727E-03     255.638E-03    -127.911E-03     123.458E-03     274.243E-03     81.1617E+06    -43.0875E+06    -96.9240E+06    -133.560E+06    -99.7054E+06    -130.779E+06    -43.0875E+06    -8.85351E+06
            1946     141.100E-03     6.15893E-03     140.966E-03     271.618E-03    -128.128E-03    -143.490E-03    -130.658E-03     258.786E-03    -128.128E-03     142.959E-03     283.852E-03     87.0393E+06    -25.0469E+06    -94.1066E+06    -121.094E+06    -100.902E+06    -114.299E+06    -25.0469E+06    -6.77202E+06
            1947     141.204E-03     7.03764E-03     141.029E-03     280.100E-03    -128.759E-03    -151.341E-03    -135.996E-03     264.756E-03    -128.759E-03     159.403E-03     296.662E-03     90.8016E+06    -6.98502E+06    -84.0760E+06    -106.880E+06    -99.1255E+06    -91.8301E+06    -6.98502E+06    -4.70216E+06
            1948     141.324E-03     7.90993E-03     141.102E-03     291.344E-03    -129.939E-03    -161.405E-03    -144.196E-03     274.135E-03    -129.939E-03     172.983E-03     313.139E-03     95.9333E+06     10.3446E+06    -70.3795E+06    -95.5232E+06    -93.8760E+06    -72.0267E+06     10.3446E+06    -3.61679E+06
            1949     141.465E-03     8.77502E-03     141.193E-03     304.286E-03    -131.722E-03    -172.564E-03    -154.536E-03     286.257E-03    -131.722E-03     181.843E-03     331.871E-03     99.5930E+06     26.6374E+06    -49.6109E+06    -85.5836E+06    -85.1427E+06    -50.0518E+06     26.6374E+06    -3.83138E+06
            1950     141.621E-03     9.63045E-03     141.293E-03     318.845E-03    -134.102E-03    -184.743E-03    -166.919E-03     301.021E-03    -134.102E-03     186.047E-03     352.417E-03     99.9581E+06     38.7554E+06    -28.6790E+06    -75.8495E+06    -74.8924E+06    -29.6361E+06     38.7554E+06    -6.38264E+06
            1951     141.808E-03     10.4764E-03     141.420E-03     336.091E-03    -137.105E-03    -198.986E-03    -182.021E-03     319.126E-03    -137.105E-03     187.352E-03     375.877E-03     99.3441E+06     48.8240E+06    -5.32489E+06    -65.2032E+06    -63.5610E+06    -6.96708E+06     48.8240E+06    -9.26262E+06
            1952     142.021E-03     11.3091E-03     141.570E-03     355.839E-03    -140.781E-03    -215.058E-03    -199.453E-03     340.233E-03    -140.781E-03     185.982E-03     401.890E-03     99.6793E+06     59.7672E+06     21.8825E+06    -53.0020E+06    -51.1860E+06     20.0666E+06     59.7672E+06    -10.9908E+06
            1953     142.265E-03     12.1238E-03     141.748E-03     376.713E-03    -145.035E-03    -231.678E-03    -216.336E-03     361.372E-03    -145.035E-03     190.717E-03     433.279E-03     106.865E+06     71.7223E+06     54.8087E+06    -41.6468E+06    -39.8586E+06     54.3239E+06     70.4189E+06    -12.5946E+06
            1954     142.558E-03     12.9314E-03     141.970E-03     393.505E-03    -149.704E-03    -243.800E-03    -229.945E-03     379.649E-03    -149.704E-03     185.239E-03     458.996E-03     114.858E+06      85.314E+06     78.3479E+06    -32.7083E+06    -30.8740E+06     77.8170E+06     84.0106E+06    -13.3977E+06
            1955     142.855E-03     13.7255E-03     142.194E-03     411.460E-03    -154.558E-03    -256.903E-03    -240.881E-03     395.438E-03    -154.558E-03     203.033E-03     499.822E-03     125.161E+06     105.638E+06     92.9982E+06    -25.1610E+06    -23.2065E+06     91.0436E+06     105.638E+06    -11.4256E+06
            1956     143.256E-03     14.5152E-03     142.519E-03     414.662E-03    -159.385E-03    -255.276E-03    -241.858E-03     401.243E-03    -159.385E-03     181.742E-03     505.439E-03     164.426E+06     167.595E+06     121.189E+06    -13.0825E+06    -11.8541E+06     119.961E+06     167.595E+06    -4.27409E+06
            1957     142.055E-03     891.545E-06     142.052E-03     228.887E-03    -113.812E-03    -115.075E-03    -114.088E-03     228.385E-03    -114.298E-03     23.7803E-03     229.106E-03     64.4560E+06    -97.5061E+06    -100.360E+06    -163.310E+06    -99.2525E+06    -162.821E+06    -99.1019E+06    -4.91069E+06
            1958     142.075E-03     1.78352E-03     142.064E-03     228.430E-03    -113.918E-03    -114.513E-03    -112.863E-03     226.781E-03    -113.918E-03     45.7222E-03     229.029E-03     59.4750E+06    -101.873E+06    -104.191E+06    -162.446E+06    -104.618E+06    -161.729E+06    -102.163E+06    -5.25745E+06
            1959     142.110E-03     2.67670E-03     142.085E-03     228.531E-03    -113.377E-03    -115.154E-03    -111.599E-03     224.976E-03    -113.377E-03     68.1529E-03     229.767E-03     56.9517E+06    -100.363E+06    -110.379E+06    -161.407E+06    -112.472E+06    -159.314E+06    -100.363E+06    -1.46739E+06
            1960     142.154E-03     3.57202E-03     142.110E-03     229.956E-03    -112.897E-03    -117.059E-03    -110.873E-03     223.770E-03    -112.897E-03     90.6487E-03     232.112E-03     62.8888E+06    -91.2288E+06    -116.543E+06    -162.096E+06    -121.731E+06    -156.908E+06    -91.2288E+06     2.54364E+06
            1961     142.215E-03     4.46767E-03     142.144E-03     234.172E-03    -112.658E-03    -121.514E-03    -112.116E-03     224.773E-03    -112.658E-03     113.178E-03     237.689E-03     68.1115E+06    -76.7461E+06    -120.287E+06    -154.146E+06    -128.802E+06    -145.631E+06    -76.7461E+06     5.41735E+06
            1962     142.293E-03     5.36195E-03     142.191E-03     242.041E-03    -112.925E-03    -129.116E-03    -116.336E-03     229.261E-03    -112.925E-03     134.755E-03     247.630E-03     75.3896E+06    -56.6268E+06    -118.624E+06    -139.926E+06    -129.644E+06    -128.906E+06    -56.6268E+06     5.74365E+06
            1963     142.388E-03     6.25208E-03     142.250E-03     253.497E-03    -113.883E-03    -139.614E-03    -123.729E-03     237.612E-03    -113.883E-03     154.509E-03     262.124E-03     85.9407E+06    -33.6271E+06    -107.176E+06    -127.623E+06    -124.684E+06    -110.116E+06    -33.6271E+06     3.32270E+06
            1964     142.503E-03     7.13357E-03     142.324E-03     268.204E-03    -115.608E-03    -152.596E-03    -134.337E-03     249.945E-03    -115.608E-03     171.326E-03     281.044E-03     92.1012E+06    -12.4843E+06    -88.0023E+06    -114.834E+06    -114.567E+06    -88.2693E+06    -12.4843E+06     221.082E+03
            1965     142.642E-03     8.00601E-03     142.417E-03     285.625E-03    -118.155E-03    -167.471E-03    -147.987E-03     266.142E-03    -118.155E-03     183.753E-03     303.766E-03     95.4342E+06     6.54311E+06    -65.3567E+06    -101.307E+06    -100.709E+06    -65.9554E+06     6.54311E+06    -3.69968E+06
            1966     142.801E-03     8.86706E-03     142.526E-03     305.517E-03    -121.553E-03    -183.964E-03    -164.574E-03     286.127E-03    -121.553E-03     190.848E-03     329.657E-03     96.1546E+06     22.8192E+06    -42.5231E+06    -87.3376E+06    -85.5832E+06    -44.2775E+06     22.8192E+06    -7.69244E+06
            1967     142.986E-03     9.71321E-03     142.656E-03     327.680E-03    -125.803E-03    -201.877E-03    -183.549E-03     309.352E-03    -125.803E-03     193.433E-03     358.019E-03     96.0189E+06     37.2678E+06    -19.4416E+06    -73.3086E+06    -70.7769E+06    -21.9733E+06     37.2678E+06    -10.6505E+06
            1968     143.195E-03     10.5424E-03     142.806E-03     350.625E-03    -130.798E-03    -219.827E-03    -202.887E-03     333.685E-03    -130.798E-03     193.491E-03     387.281E-03     96.8961E+06     49.6188E+06     4.68889E+06    -61.2850E+06    -58.0369E+06     1.44074E+06     49.6188E+06    -14.1491E+06
            1969     143.440E-03     11.3567E-03     142.990E-03     372.710E-03    -136.339E-03    -236.371E-03    -220.983E-03     357.322E-03    -136.339E-03     190.939E-03     415.534E-03     97.4297E+06     58.0829E+06     26.5103E+06    -50.9603E+06    -47.4211E+06     22.9711E+06     58.0829E+06    -15.9499E+06
            1970     143.710E-03     12.1605E-03     143.195E-03     393.762E-03    -142.206E-03    -251.556E-03    -236.811E-03     379.017E-03    -142.206E-03     192.772E-03     446.970E-03     106.495E+06     71.8225E+06     56.1594E+06    -41.2355E+06    -38.5257E+06     56.9324E+06     68.3397E+06    -15.9524E+06
            1971     144.026E-03     12.9486E-03     143.443E-03     408.230E-03    -148.159E-03    -260.071E-03    -246.769E-03     394.928E-03    -148.159E-03     186.206E-03     470.848E-03     113.962E+06     84.4905E+06     76.9767E+06    -32.9701E+06    -30.7806E+06     78.2700E+06     81.0077E+06    -15.0776E+06
            1972     144.336E-03     13.7321E-03     143.682E-03     420.468E-03    -153.865E-03    -266.603E-03    -251.046E-03     404.910E-03    -153.865E-03     202.951E-03     506.297E-03     119.347E+06     100.659E+06     87.0981E+06    -24.7741E+06    -22.7999E+06     85.1240E+06     100.659E+06    -12.1635E+06
            1973     144.741E-03     14.5163E-03     144.011E-03     419.329E-03    -159.159E-03    -260.169E-03    -247.000E-03     406.160E-03    -159.159E-03     182.069E-03     508.151E-03     161.077E+06     163.164E+06     109.403E+06    -16.3126E+06    -14.4432E+06     107.534E+06     163.164E+06    -8.49360E+06
            1974     143.291E-03     906.674E-06     143.288E-03     193.683E-03    -96.3430E-03    -97.3397E-03    -96.1436E-03     192.972E-03    -96.8282E-03     26.2751E-03     193.767E-03     46.8737E+06    -122.280E+06    -128.258E+06    -171.738E+06    -129.479E+06    -165.775E+06    -127.022E+06     7.70779E+06
            1975     143.310E-03     1.81495E-03     143.298E-03     193.758E-03    -96.2724E-03    -97.4859E-03    -95.2663E-03     191.539E-03    -96.2724E-03     48.8738E-03     193.983E-03     47.1939E+06    -130.711E+06    -135.374E+06    -180.000E+06    -144.429E+06    -167.296E+06    -134.361E+06     12.1578E+06
            1976     143.341E-03     2.72544E-03     143.315E-03     195.327E-03    -95.9066E-03    -99.4203E-03    -94.7872E-03     190.694E-03    -95.9066E-03     72.1371E-03     195.819E-03     50.5895E+06    -131.857E+06    -140.929E+06    -186.211E+06    -156.528E+06    -169.300E+06    -133.169E+06     17.2226E+06
            1977     143.387E-03     3.63562E-03     143.341E-03     200.304E-03    -95.9074E-03    -104.396E-03    -96.5764E-03     192.484E-03    -95.9074E-03     95.4873E-03     201.318E-03     60.0132E+06    -116.115E+06    -139.374E+06    -183.445E+06    -160.377E+06    -162.443E+06    -116.115E+06     20.2908E+06
            1978     143.452E-03     4.54309E-03     143.380E-03     209.156E-03    -96.5134E-03    -112.643E-03    -101.141E-03     197.655E-03    -96.5134E-03     118.939E-03     211.189E-03     70.3225E+06    -89.0696E+06    -130.815E+06    -169.524E+06    -155.668E+06    -144.672E+06    -89.0696E+06     17.7507E+06
            1979     143.538E-03     5.44618E-03     143.435E-03     221.993E-03    -97.8467E-03    -124.146E-03    -109.054E-03     206.901E-03    -97.8467E-03     141.101E-03     225.849E-03     78.5074E+06    -61.1339E+06    -117.649E+06    -150.569E+06    -144.753E+06    -123.465E+06    -61.1339E+06     11.7901E+06
            1980     143.649E-03     6.34125E-03     143.509E-03     239.171E-03    -100.049E-03    -139.123E-03    -121.060E-03     221.108E-03    -100.049E-03     161.223E-03     245.920E-03     84.8317E+06    -36.1875E+06    -98.9884E+06    -132.432E+06    -130.808E+06    -100.612E+06    -36.1875E+06     4.53246E+06
            1981     143.786E-03     7.22558E-03     143.605E-03     260.057E-03    -103.227E-03    -156.830E-03    -136.737E-03     239.964E-03    -103.227E-03     178.546E-03     270.875E-03     88.8452E+06    -14.4157E+06    -76.9028E+06    -115.740E+06    -114.545E+06    -78.0978E+06    -14.4157E+06    -3.93681E+06
            1982     143.949E-03     8.09571E-03     143.722E-03     284.181E-03    -107.409E-03    -176.771E-03    -155.811E-03     263.220E-03    -107.409E-03     192.007E-03     300.126E-03     91.1180E+06     4.55129E+06    -52.7188E+06    -100.035E+06    -96.9498E+06    -55.8042E+06     4.55129E+06    -10.9140E+06
            1983     144.141E-03     8.94800E-03     143.863E-03     311.233E-03    -112.608E-03    -198.626E-03    -178.112E-03     290.720E-03    -112.608E-03     200.216E-03     333.156E-03     92.8587E+06     21.1288E+06    -30.0084E+06    -85.7083E+06    -80.1901E+06    -35.5267E+06     21.1288E+06    -16.1379E+06
            1984     144.359E-03     9.78197E-03     144.027E-03     339.426E-03    -118.753E-03    -220.673E-03    -201.622E-03     320.376E-03    -118.753E-03     202.820E-03     367.522E-03     93.4225E+06     35.5306E+06    -10.6682E+06    -71.7182E+06    -65.0139E+06    -17.3725E+06     35.5306E+06    -18.6138E+06
            1985     144.606E-03     10.5970E-03     144.218E-03     366.743E-03    -125.626E-03    -241.117E-03    -223.841E-03     349.467E-03    -125.626E-03     201.799E-03     401.060E-03     94.7025E+06     48.9176E+06     12.7527E+06    -58.2261E+06    -52.6657E+06     7.19232E+06     48.9176E+06    -18.4098E+06
            1986     144.878E-03     11.3965E-03     144.429E-03     390.113E-03    -132.891E-03    -257.222E-03    -241.874E-03     374.765E-03    -132.891E-03     196.725E-03     430.512E-03     95.7158E+06     57.7401E+06     32.3246E+06    -47.9833E+06    -42.9553E+06     27.2966E+06     57.7401E+06    -19.3140E+06
            1987     145.178E-03     12.1800E-03     144.666E-03     408.929E-03    -140.147E-03    -268.782E-03    -254.156E-03     394.303E-03    -140.147E-03     196.951E-03     459.169E-03     100.991E+06     69.9381E+06     55.0845E+06    -37.4301E+06    -33.5548E+06     55.4483E+06     65.6989E+06    -17.9413E+06
            1988     145.511E-03     12.9595E-03     144.933E-03     419.130E-03    -147.069E-03    -272.061E-03    -258.781E-03     405.851E-03    -147.069E-03     189.362E-03     478.713E-03     105.949E+06     82.5331E+06     72.9497E+06    -27.8640E+06    -25.6347E+06     74.9596E+06     78.2939E+06    -14.8387E+06
            1989     145.828E-03     13.7371E-03     145.179E-03     426.341E-03    -153.356E-03    -272.986E-03    -257.831E-03     411.187E-03    -153.356E-03     202.283E-03     509.142E-03     111.832E+06     98.5040E+06     83.7407E+06    -19.9225E+06    -17.3096E+06     81.1279E+06     98.5040E+06    -13.2430E+06
            1990     146.226E-03     14.5218E-03     145.503E-03     422.540E-03    -158.960E-03    -263.580E-03    -250.840E-03     409.800E-03    -158.960E-03     180.247E-03     509.404E-03     151.548E+06     159.324E+06     99.8726E+06    -9.14938E+06    -6.03320E+06     96.7564E+06     159.324E+06    -8.03336E+06
            1991     144.482E-03     926.313E-06     144.479E-03     154.888E-03    -76.7490E-03    -78.1392E-03    -77.1943E-03     153.943E-03    -76.7490E-03     27.4012E-03     154.925E-03     47.7851E+06    -172.112E+06    -196.319E+06    -225.384E+06    -201.611E+06    -195.886E+06    -196.319E+06     20.9642E+06
            1992     144.499E-03     1.85168E-03     144.487E-03     158.163E-03    -77.2970E-03    -80.8665E-03    -78.0688E-03     155.366E-03    -77.2970E-03     49.9484E-03     158.281E-03     57.6210E+06    -162.551E+06    -182.370E+06    -226.000E+06    -201.722E+06    -186.830E+06    -182.370E+06     30.0795E+06
            1993     144.531E-03     2.77613E-03     144.504E-03     164.384E-03    -78.0704E-03    -86.3137E-03    -80.6636E-03     158.734E-03    -78.0704E-03     73.4651E-03     164.702E-03     64.1019E+06    -152.525E+06    -163.758E+06    -221.311E+06    -197.108E+06    -181.300E+06    -159.186E+06     30.9215E+06
            1994     144.583E-03     3.69796E-03     144.536E-03     174.441E-03    -79.3816E-03    -95.0591E-03    -85.9074E-03     165.289E-03    -79.3816E-03     97.0792E-03     175.229E-03     66.9210E+06    -130.332E+06    -146.201E+06    -203.458E+06    -185.760E+06    -163.899E+06    -130.332E+06     24.9359E+06
            1995     144.658E-03     4.61467E-03     144.584E-03     188.593E-03    -81.4098E-03    -107.183E-03    -94.3065E-03     175.716E-03    -81.4098E-03     120.463E-03     190.360E-03     69.0507E+06    -96.9440E+06    -128.969E+06    -175.561E+06    -167.348E+06    -137.181E+06    -96.9440E+06     15.4955E+06
            1996     144.760E-03     5.52292E-03     144.654E-03     207.017E-03    -84.2664E-03    -122.751E-03    -106.339E-03     190.606E-03    -84.2664E-03     143.349E-03     210.554E-03     72.4471E+06    -66.2539E+06    -111.321E+06    -149.597E+06    -146.899E+06    -114.019E+06    -66.2539E+06     5.95262E+06
            1997     144.892E-03     6.42005E-03     144.750E-03     229.496E-03    -88.0375E-03    -141.459E-03    -122.190E-03     210.228E-03    -88.0375E-03     164.628E-03     235.806E-03     77.0032E+06    -38.9696E+06    -86.3202E+06    -127.510E+06    -126.009E+06    -87.8210E+06    -38.9696E+06    -2.99073E+06
            1998     145.056E-03     7.30245E-03     144.872E-03     255.896E-03    -92.8120E-03    -163.084E-03    -142.058E-03     234.870E-03    -92.8120E-03     182.912E-03     266.031E-03     82.2795E+06    -15.8419E+06    -60.4400E+06    -110.367E+06    -107.140E+06    -63.6673E+06    -15.8419E+06    -11.4409E+06
            1999     145.252E-03     8.16781E-03     145.023E-03     285.917E-03    -98.6492E-03    -187.268E-03    -165.663E-03     264.312E-03    -98.6492E-03     197.447E-03     300.876E-03     89.4791E+06     3.05013E+06    -36.5366E+06    -98.7246E+06    -92.0805E+06    -43.1808E+06     3.05013E+06    -19.1147E+06
            2000     145.484E-03     9.01413E-03     145.204E-03     318.136E-03    -105.520E-03    -212.615E-03    -191.498E-03     297.019E-03    -105.520E-03     207.298E-03     338.647E-03     95.2856E+06     19.4322E+06    -15.9553E+06    -88.0716E+06    -78.1394E+06    -25.8874E+06     19.4322E+06    -24.7566E+06
            2001     145.746E-03     9.83671E-03     145.414E-03     350.793E-03    -113.281E-03    -237.512E-03    -217.786E-03     331.066E-03    -113.281E-03     211.561E-03     377.288E-03     97.5177E+06     31.9416E+06    -944.243E+03    -77.3616E+06    -65.1506E+06    -13.1552E+06     31.9416E+06    -27.9522E+06
            2002     146.030E-03     10.6401E-03     145.642E-03     380.935E-03    -121.668E-03    -259.268E-03    -241.370E-03     363.038E-03    -121.668E-03     210.846E-03     413.526E-03     97.0153E+06     44.5319E+06     16.5971E+06    -63.1075E+06    -51.5916E+06     5.08116E+06     44.5319E+06    -27.0677E+06
            2003     146.344E-03     11.4228E-03     145.898E-03     404.472E-03    -130.256E-03    -274.216E-03    -258.262E-03     388.518E-03    -130.256E-03     205.446E-03     442.940E-03     94.7693E+06     56.1481E+06     35.6461E+06    -47.1140E+06    -39.1022E+06     27.6343E+06     56.1481E+06    -23.2745E+06
            2004     146.658E-03     12.1992E-03     146.150E-03     421.088E-03    -138.547E-03    -282.541E-03    -267.418E-03     405.966E-03    -138.547E-03     204.061E-03     468.240E-03     96.7676E+06     65.3869E+06     55.4412E+06    -35.7877E+06    -30.8403E+06     51.8844E+06     63.9963E+06    -20.3679E+06
            2005     147.011E-03     12.9715E-03     146.437E-03     427.437E-03    -146.190E-03    -281.247E-03    -267.956E-03     414.146E-03    -146.190E-03     191.723E-03     483.742E-03     101.684E+06     78.2767E+06     71.9718E+06    -26.3844E+06    -22.8630E+06     69.8410E+06     76.8862E+06    -17.7055E+06
            2006     147.324E-03     13.7446E-03     146.682E-03     431.009E-03    -152.952E-03    -278.057E-03    -263.706E-03     416.658E-03    -152.952E-03     198.535E-03     510.868E-03     109.290E+06     97.9357E+06      79.318E+06    -19.0894E+06    -16.0193E+06     76.2479E+06     97.9357E+06    -14.3010E+06
            2007     147.720E-03     14.5190E-03     147.005E-03     424.546E-03    -158.837E-03    -265.709E-03    -253.684E-03     412.521E-03    -158.837E-03     176.289E-03     509.665E-03     150.824E+06     155.219E+06     86.0543E+06    -14.8291E+06    -11.6030E+06     82.8282E+06     155.219E+06    -8.20437E+06
            2008     145.624E-03     944.378E-06     145.621E-03     119.114E-03    -58.4764E-03    -60.6376E-03    -59.5850E-03     118.061E-03    -58.4764E-03     25.6368E-03     119.202E-03     112.633E+06    -220.757E+06    -323.041E+06    -340.070E+06    -329.234E+06    -227.569E+06    -327.065E+06     9.74847E+06
            2009     145.646E-03     1.88644E-03     145.634E-03     126.524E-03    -60.0308E-03    -66.4932E-03    -63.3888E-03     123.420E-03    -60.0308E-03     47.4679E-03     126.797E-03     103.484E+06    -191.949E+06    -274.318E+06    -302.987E+06    -291.048E+06    -203.888E+06    -274.318E+06     12.0196E+06
            2010     145.686E-03     2.82315E-03     145.659E-03     138.468E-03    -62.2941E-03    -76.1737E-03    -69.9656E-03     132.260E-03    -62.2941E-03     71.3817E-03     139.093E-03     78.0304E+06    -172.885E+06    -214.289E+06    -257.982E+06    -244.888E+06    -187.522E+06    -212.746E+06     10.9527E+06
            2011     145.749E-03     3.75278E-03     145.701E-03     154.272E-03    -65.2801E-03    -88.9916E-03    -79.1329E-03     144.413E-03    -65.2801E-03     95.6837E-03     155.517E-03     61.2778E+06    -142.649E+06    -161.826E+06    -210.230E+06    -202.015E+06    -157.265E+06    -155.426E+06      5.1084E+06
            2012     145.840E-03     4.67357E-03     145.765E-03     173.954E-03    -68.9906E-03    -104.964E-03    -91.4148E-03     160.405E-03    -68.9906E-03     119.839E-03     176.293E-03     57.4913E+06    -107.269E+06    -127.321E+06    -171.740E+06    -167.299E+06    -128.056E+06    -110.974E+06    -2.51174E+06
            2013     145.963E-03     5.58340E-03     145.856E-03     197.483E-03    -73.5132E-03    -123.969E-03    -107.110E-03     180.623E-03    -73.5132E-03     143.309E-03     201.583E-03     59.8933E+06    -76.6006E+06    -102.101E+06    -144.433E+06    -140.894E+06    -105.640E+06    -76.6006E+06    -7.24360E+06
            2014     146.122E-03     6.47944E-03     145.978E-03     224.536E-03    -78.9113E-03    -145.625E-03    -126.217E-03     205.128E-03    -78.9113E-03     165.001E-03     231.189E-03     71.0380E+06    -45.8765E+06    -72.0107E+06    -125.260E+06    -122.183E+06    -75.0876E+06    -45.8765E+06    -12.1391E+06
            2015     146.318E-03     7.35979E-03     146.133E-03     255.646E-03    -85.2619E-03    -170.384E-03    -149.379E-03     234.641E-03    -85.2619E-03     184.404E-03     265.770E-03     85.5501E+06    -19.8933E+06    -42.6923E+06    -113.487E+06    -107.263E+06    -48.9158E+06    -19.8933E+06    -19.8971E+06
            2016     146.555E-03     8.21906E-03     146.324E-03     289.788E-03    -92.6096E-03    -197.178E-03    -175.672E-03     268.282E-03    -92.6096E-03     199.961E-03     304.236E-03     96.7002E+06     2.70498E+06    -18.3306E+06    -102.255E+06    -91.5971E+06    -28.9890E+06     2.70498E+06    -27.7515E+06
            2017     146.828E-03     9.05486E-03     146.549E-03     324.912E-03    -100.859E-03    -224.053E-03    -203.033E-03     303.893E-03    -100.859E-03     210.501E-03     344.271E-03     101.757E+06     19.9692E+06    -2.18748E+06    -90.8907E+06    -75.7468E+06    -17.3314E+06     19.9692E+06    -33.1455E+06
            2018     147.135E-03     9.87295E-03     146.803E-03     359.296E-03    -109.812E-03    -249.484E-03    -229.609E-03     339.421E-03    -109.812E-03     216.163E-03     384.062E-03     102.048E+06     33.0294E+06     8.92225E+06    -78.8529E+06    -61.4230E+06     -8.5077E+06     33.0294E+06    -34.8849E+06
            2019     147.472E-03     10.6655E-03     147.086E-03     388.884E-03    -119.143E-03    -269.741E-03    -251.415E-03     370.557E-03    -119.143E-03     216.478E-03     419.332E-03     101.705E+06     43.5321E+06     20.7862E+06    -67.5355E+06    -50.4774E+06     3.72817E+06     43.5321E+06    -34.7511E+06
            2020     147.812E-03     11.4476E-03     147.368E-03     412.305E-03    -128.448E-03    -283.858E-03    -267.259E-03     395.707E-03    -128.448E-03     212.245E-03     448.368E-03     98.2162E+06     51.8153E+06     31.2158E+06    -54.9362E+06    -41.5009E+06     17.7804E+06     51.8153E+06    -30.2882E+06
            2021     148.161E-03     12.2155E-03     147.657E-03     428.258E-03    -137.345E-03    -290.913E-03    -275.692E-03     413.037E-03    -137.345E-03     206.971E-03     472.428E-03     99.5686E+06     63.7033E+06     52.6580E+06    -40.4832E+06    -33.2686E+06     45.8336E+06     63.3131E+06    -22.8672E+06
            2022     148.512E-03     12.9793E-03     147.944E-03     433.443E-03    -145.493E-03    -287.950E-03    -274.851E-03     420.344E-03    -145.493E-03     192.262E-03     485.931E-03     108.990E+06     79.1316E+06     73.5838E+06    -32.4823E+06    -28.1429E+06     69.6345E+06     78.7414E+06    -20.8417E+06
            2023     148.835E-03     13.7453E-03     148.199E-03     435.168E-03    -152.633E-03    -282.536E-03    -268.948E-03     421.580E-03    -152.633E-03     194.920E-03     511.112E-03     112.723E+06     95.6894E+06     70.4773E+06    -26.5295E+06    -21.6865E+06     65.6342E+06     95.6894E+06    -17.6952E+06
            2024     149.213E-03     14.5234E-03     148.505E-03     425.105E-03    -158.752E-03    -266.352E-03    -255.355E-03     414.107E-03    -158.752E-03     169.281E-03     508.066E-03     151.083E+06     154.580E+06     71.4936E+06    -15.3458E+06    -9.27381E+06     65.4216E+06     154.580E+06    -8.67186E+06
            2025     146.730E-03     956.230E-06     146.727E-03     96.1306E-03    -46.8745E-03    -49.2562E-03    -48.3529E-03     95.2274E-03    -46.8745E-03     21.3783E-03     96.2631E-03     171.356E+06    -217.742E+06    -382.469E+06    -395.015E+06    -388.308E+06    -220.424E+06    -386.493E+06    -17.1891E+06
            2026     146.760E-03     1.90876E-03     146.748E-03     105.270E-03    -48.8576E-03    -56.4122E-03    -53.6694E-03     102.527E-03    -48.8576E-03     40.8749E-03     105.670E-03     167.166E+06    -187.982E+06    -343.532E+06    -364.248E+06    -358.312E+06    -193.918E+06    -343.532E+06    -28.2534E+06
            2027     146.814E-03     2.85437E-03     146.786E-03     119.960E-03    -51.8499E-03    -68.1101E-03    -62.4549E-03     114.305E-03    -51.8499E-03     63.7968E-03     120.843E-03     144.943E+06    -165.785E+06    -286.847E+06    -325.436E+06    -314.054E+06    -177.166E+06    -286.847E+06    -38.5861E+06
            2028     146.894E-03     3.79028E-03     146.845E-03     139.676E-03    -55.8235E-03    -83.8526E-03    -74.5886E-03     130.412E-03    -55.8235E-03     88.9116E-03     141.323E-03     130.160E+06    -130.962E+06    -224.916E+06    -277.477E+06    -262.103E+06    -146.336E+06    -224.916E+06    -44.0377E+06
            2029     147.006E-03     4.71436E-03     146.931E-03     164.102E-03    -60.7786E-03    -103.324E-03    -90.3398E-03     151.118E-03    -60.7786E-03     114.894E-03     166.980E-03     115.470E+06    -100.037E+06    -167.415E+06    -230.844E+06    -211.767E+06    -122.057E+06    -164.472E+06    -44.5985E+06
            2030     147.155E-03     5.62346E-03     147.048E-03     192.377E-03    -66.6883E-03    -125.689E-03    -109.520E-03     176.208E-03    -66.6883E-03     139.695E-03     197.074E-03     97.6601E+06    -77.5069E+06    -119.146E+06    -188.500E+06    -167.124E+06    -105.971E+06    -112.059E+06    -41.1610E+06
            2031     147.344E-03     6.51621E-03     147.200E-03     224.218E-03    -73.5327E-03    -150.685E-03    -132.236E-03     205.769E-03    -73.5327E-03     162.102E-03     231.364E-03     90.9419E+06    -47.4536E+06    -71.0634E+06    -147.256E+06    -128.475E+06    -73.1503E+06    -64.1479E+06    -35.2862E+06
            2032     147.576E-03     7.38908E-03     147.391E-03     258.768E-03    -81.3188E-03    -177.449E-03    -157.698E-03     239.016E-03    -81.3188E-03     181.244E-03     268.966E-03     92.0692E+06    -17.9018E+06    -27.5471E+06    -114.377E+06    -98.5353E+06    -40.1929E+06    -21.0979E+06    -32.6596E+06
            2033     147.855E-03     8.24137E-03     147.625E-03     294.602E-03    -89.9271E-03    -204.675E-03    -184.567E-03     274.494E-03    -89.9271E-03     196.074E-03     308.369E-03     97.9242E+06     9.23620E+06    -3.38771E+06    -94.2457E+06    -79.0678E+06    -18.5655E+06     9.23620E+06    -33.4752E+06
            2034     148.172E-03     9.07453E-03     147.894E-03     330.450E-03    -99.2020E-03    -231.247E-03    -211.564E-03     310.766E-03    -99.2020E-03     206.307E-03     348.290E-03     103.784E+06     27.4381E+06     6.87245E+06    -85.0170E+06    -69.2762E+06    -8.86835E+06     27.4381E+06    -34.3968E+06
            2035     148.529E-03     9.88059E-03     148.200E-03     362.731E-03    -108.860E-03    -253.871E-03    -234.985E-03     343.845E-03    -108.860E-03     212.312E-03     384.989E-03     110.234E+06     38.2754E+06     14.9085E+06    -81.6812E+06    -64.8622E+06    -1.91054E+06     38.2754E+06    -36.1345E+06
            2036     148.902E-03     10.6761E-03     148.519E-03     390.233E-03    -118.568E-03    -271.665E-03    -254.097E-03     372.665E-03    -118.568E-03     212.540E-03     417.400E-03     116.109E+06     47.9175E+06     27.1816E+06    -77.0585E+06    -58.7097E+06     8.83275E+06     47.9175E+06    -39.4277E+06
            2037     149.282E-03     11.4544E-03     148.842E-03     412.350E-03    -128.061E-03    -284.288E-03    -268.444E-03     396.506E-03    -128.061E-03     207.516E-03     444.975E-03     114.872E+06     54.6173E+06     33.9777E+06    -69.0624E+06    -47.6101E+06     12.5254E+06     54.6173E+06    -41.4781E+06
            2038     149.664E-03     12.2217E-03     149.164E-03     427.259E-03    -137.048E-03    -290.211E-03    -275.797E-03     412.844E-03    -137.048E-03     201.230E-03     467.662E-03     107.128E+06     63.1189E+06     43.2780E+06    -51.9999E+06    -32.4495E+06     24.1177E+06     62.7288E+06    -34.6601E+06
            2039     150.021E-03     12.9875E-03     149.458E-03     433.852E-03    -145.314E-03    -288.537E-03    -276.292E-03     421.606E-03    -145.314E-03     185.942E-03     481.517E-03     107.721E+06     88.6784E+06     66.9153E+06    -26.9922E+06    -18.2562E+06     58.5695E+06     88.2882E+06    -19.4827E+06
            2040     150.357E-03     13.7532E-03     149.726E-03     434.427E-03    -152.578E-03    -281.849E-03    -269.716E-03     422.294E-03    -152.578E-03     184.259E-03     502.853E-03     111.778E+06     108.467E+06     64.0689E+06    -16.1052E+06    -12.4742E+06     60.4379E+06     108.467E+06    -11.4991E+06
            2041     150.711E-03     14.5191E-03     150.010E-03     422.912E-03    -158.720E-03    -264.192E-03    -254.528E-03     413.248E-03    -158.720E-03     158.726E-03     500.192E-03     153.466E+06     155.849E+06     56.6566E+06    -17.7795E+06    -11.2075E+06     50.0847E+06     155.849E+06    -8.84736E+06
            2042     147.821E-03     958.269E-06     147.818E-03     92.5632E-03    -45.3690E-03    -47.1942E-03    -46.7064E-03     92.0754E-03    -45.3690E-03     14.7989E-03     92.7519E-03     149.131E+06    -170.848E+06    -312.584E+06    -326.087E+06    -320.501E+06    -176.434E+06    -312.584E+06    -27.5122E+06
            2043     147.860E-03     1.91271E-03     147.847E-03     100.618E-03    -47.2277E-03    -53.3899E-03    -51.7881E-03     99.0158E-03    -47.2277E-03     29.4295E-03     101.171E-03     169.326E+06    -141.810E+06    -293.453E+06    -323.913E+06    -310.566E+06    -155.157E+06    -293.453E+06    -46.2370E+06
            2044     147.926E-03     2.86109E-03     147.898E-03     114.132E-03    -50.1243E-03    -64.0073E-03    -60.4148E-03     110.539E-03    -50.1243E-03     48.4919E-03     115.311E-03     185.375E+06    -114.064E+06    -264.062E+06    -320.483E+06    -294.567E+06     -139.98E+06    -264.062E+06    -66.7569E+06
            2045     148.025E-03     3.80009E-03     147.976E-03     133.659E-03    -54.1580E-03    -79.5005E-03    -73.1558E-03     127.314E-03    -54.1580E-03     71.0535E-03     135.728E-03     195.179E+06    -86.0633E+06    -229.030E+06    -307.710E+06    -270.931E+06    -122.842E+06    -229.030E+06    -81.2492E+06
            2046     148.161E-03     4.72525E-03     148.086E-03     158.926E-03    -59.3966E-03    -99.5294E-03    -90.0396E-03     149.436E-03    -59.3966E-03     96.0991E-03     162.230E-03     189.496E+06    -66.5426E+06    -187.584E+06    -283.973E+06    -239.796E+06    -110.719E+06    -187.584E+06    -86.2327E+06
            2047     148.340E-03     5.63370E-03     148.233E-03     189.535E-03    -65.8211E-03    -123.714E-03    -111.273E-03     177.094E-03    -65.8211E-03     121.473E-03     194.547E-03     175.719E+06    -51.7756E+06    -145.520E+06    -254.197E+06    -203.022E+06    -102.951E+06    -145.520E+06    -87.6368E+06
            2048     148.563E-03     6.52222E-03     148.420E-03     224.482E-03    -73.3942E-03    -151.087E-03    -136.253E-03     209.648E-03    -73.3942E-03     145.622E-03     231.560E-03     163.183E+06    -30.7433E+06    -101.682E+06    -216.104E+06    -163.870E+06    -82.9774E+06    -101.682E+06    -83.3440E+06
            2049     148.837E-03     7.38769E-03     148.654E-03     261.603E-03    -82.0288E-03    -179.574E-03    -163.309E-03     245.337E-03    -82.0288E-03     165.653E-03     271.107E-03     148.575E+06    -6.34988E+06    -51.7985E+06    -170.963E+06    -126.857E+06    -51.7018E+06    -50.5534E+06    -72.3628E+06
            2050     149.152E-03     8.23299E-03     148.924E-03     298.598E-03    -91.4768E-03    -207.122E-03    -190.484E-03     281.961E-03    -91.4768E-03     179.824E-03     311.005E-03     134.049E+06     12.2946E+06    -11.2466E+06    -130.907E+06    -95.5772E+06    -30.0623E+06    -4.21947E+06    -59.0788E+06
            2051     149.517E-03     9.05340E-03     149.243E-03     332.223E-03    -101.356E-03    -230.867E-03    -214.458E-03     315.814E-03    -101.356E-03     188.952E-03     347.829E-03     118.797E+06     31.0551E+06     7.97646E+06    -96.7070E+06    -69.1789E+06    -19.5516E+06     31.0551E+06    -44.4551E+06
            2052     149.908E-03     9.86280E-03     149.584E-03     361.254E-03    -111.257E-03    -249.997E-03    -234.314E-03     345.571E-03    -111.257E-03     192.688E-03     380.401E-03     111.047E+06     56.8561E+06     19.2901E+06    -66.3767E+06    -46.8731E+06    -213.418E+03     56.8561E+06    -33.8027E+06
            2053     150.321E-03     10.6548E-03     149.943E-03     385.636E-03    -120.915E-03    -264.721E-03    -250.124E-03     371.039E-03    -120.915E-03     192.103E-03     408.805E-03     108.710E+06     74.2414E+06     36.8852E+06    -45.5574E+06    -29.4780E+06     20.8059E+06     74.2414E+06    -31.5720E+06
            2054     150.744E-03     11.4328E-03     150.310E-03     403.583E-03    -130.094E-03    -273.490E-03    -260.188E-03     390.282E-03    -130.094E-03     187.527E-03     431.725E-03     108.691E+06     79.9761E+06     36.8036E+06    -38.2790E+06    -20.9635E+06     19.4881E+06     79.9761E+06    -31.1035E+06
            2055     151.138E-03     12.2092E-03     150.644E-03     416.634E-03    -138.575E-03    -278.059E-03    -265.781E-03     404.356E-03    -138.575E-03     182.823E-03     451.407E-03     108.769E+06     79.2590E+06     33.2182E+06    -40.7010E+06    -23.2529E+06     15.7701E+06     79.2590E+06    -28.3158E+06
            2056     151.533E-03     12.9761E-03     150.977E-03     424.946E-03    -146.322E-03    -278.624E-03    -267.846E-03     414.168E-03    -146.322E-03     172.443E-03     467.280E-03     113.655E+06     93.0221E+06     46.6784E+06    -36.3424E+06    -24.6462E+06     34.9822E+06     93.0221E+06    -22.5180E+06
            2057     151.861E-03     13.7403E-03     151.238E-03     425.516E-03    -153.176E-03    -272.340E-03    -262.229E-03     415.406E-03    -153.176E-03     166.394E-03     484.439E-03     121.323E+06     115.787E+06     52.2419E+06    -23.4398E+06    -19.0029E+06     47.8050E+06     115.787E+06    -11.0579E+06
            2058     152.208E-03     14.5257E-03     151.513E-03     414.387E-03    -158.986E-03    -255.401E-03    -247.508E-03     406.494E-03    -158.986E-03     142.328E-03     481.340E-03     168.696E+06     170.753E+06     59.2765E+06    -21.3252E+06    -7.77224E+06     45.7235E+06     170.753E+06    -4.73320E+06
            2059     148.921E-03     949.108E-06     148.918E-03     111.504E-03    -55.0970E-03    -56.4070E-03    -56.0480E-03     111.387E-03    -55.3386E-03     5.83939E-03     111.800E-03     101.784E+06    -114.360E+06    -208.443E+06    -221.841E+06    -214.251E+06    -121.950E+06    -208.443E+06    -24.8538E+06
            2060     148.964E-03     1.89568E-03     148.952E-03     117.857E-03    -56.9379E-03    -60.9187E-03    -60.4880E-03     117.426E-03    -56.9379E-03     11.6238E-03     118.710E-03     124.707E+06    -84.7915E+06    -187.387E+06    -222.963E+06    -203.170E+06    -104.584E+06    -187.387E+06    -47.0226E+06
            2061     149.042E-03     2.83699E-03     149.015E-03     128.645E-03    -59.6902E-03    -68.9550E-03    -67.8667E-03     127.557E-03    -59.6902E-03     21.5805E-03     130.443E-03     145.038E+06    -59.6806E+06    -161.710E+06    -224.617E+06    -192.191E+06    -92.1066E+06    -161.710E+06    -64.7381E+06
            2062     149.156E-03     3.76861E-03     149.108E-03     144.375E-03    -63.5406E-03    -80.8339E-03    -78.6746E-03     142.215E-03    -63.5406E-03     35.3496E-03     147.450E-03     162.789E+06    -40.9426E+06    -138.892E+06    -228.209E+06    -183.836E+06    -85.3160E+06    -138.892E+06    -79.3350E+06
            2063     149.314E-03     4.68804E-03     149.241E-03     165.343E-03    -68.5058E-03    -96.8371E-03    -93.1861E-03     161.692E-03    -68.5058E-03     52.8596E-03     169.760E-03     177.786E+06    -26.7832E+06    -123.934E+06    -231.456E+06    -175.947E+06    -82.2924E+06    -123.934E+06    -90.6684E+06
            2064     149.520E-03     5.59207E-03     149.415E-03     192.163E-03    -74.6699E-03    -117.493E-03    -112.074E-03     186.744E-03    -74.6699E-03     73.4890E-03     197.985E-03     188.024E+06    -15.4438E+06    -109.374E+06    -231.343E+06    -166.565E+06    -80.2212E+06    -109.374E+06    -98.6206E+06
            2065     149.780E-03     6.47460E-03     149.640E-03     223.800E-03    -82.0515E-03    -141.749E-03    -134.603E-03     216.655E-03    -82.0515E-03     94.2416E-03     231.104E-03     194.837E+06    -3.71134E+06    -90.1877E+06    -226.262E+06    -155.426E+06    -74.5475E+06    -90.1877E+06    -103.336E+06
            2066     150.087E-03     7.33837E-03     149.908E-03     258.533E-03    -90.5360E-03    -167.997E-03    -159.530E-03     250.066E-03    -90.5360E-03     112.829E-03     267.353E-03     194.836E+06     10.6630E+06    -60.7818E+06    -209.513E+06    -138.395E+06    -60.4546E+06    -60.7818E+06    -102.153E+06
            2067     150.452E-03     8.17443E-03     150.230E-03     292.552E-03    -99.7936E-03    -192.759E-03    -183.525E-03     283.319E-03    -99.7936E-03     127.656E-03     303.224E-03     181.834E+06     16.0172E+06    -26.9471E+06    -182.396E+06    -115.432E+06    -51.3244E+06    -26.5697E+06    -92.8829E+06
            2068     150.847E-03     8.99501E-03     150.579E-03     322.965E-03    -109.316E-03    -213.649E-03    -204.071E-03     313.387E-03    -109.316E-03     137.974E-03     335.917E-03     164.507E+06     24.6329E+06    -7.60965E+06    -152.707E+06    -90.4957E+06    -48.5778E+06     3.38982E+06    -80.3661E+06
            2069     151.276E-03     9.79760E-03     150.958E-03     349.147E-03    -118.675E-03    -230.472E-03    -220.879E-03     339.554E-03    -118.675E-03     145.207E-03     364.675E-03     151.173E+06     46.8478E+06     5.58016E+06    -118.339E+06    -67.0126E+06    -30.2214E+06     31.3234E+06    -67.0144E+06
            2070     151.724E-03     10.5858E-03     151.354E-03     368.986E-03    -127.544E-03    -241.443E-03    -231.867E-03     359.410E-03    -127.544E-03     150.408E-03     387.512E-03     141.583E+06     70.1675E+06     29.4476E+06    -84.0725E+06    -51.0533E+06     2.49503E+06     64.1009E+06    -52.5689E+06
            2071     152.163E-03     11.3765E-03     151.737E-03     384.010E-03    -135.659E-03    -248.351E-03    -238.798E-03     374.457E-03    -135.659E-03     153.641E-03     406.833E-03     138.405E+06     91.0664E+06     25.6760E+06    -62.7913E+06    -41.3889E+06     4.27368E+06     91.0664E+06    -37.4591E+06
            2072     152.598E-03     12.1567E-03     152.113E-03     395.956E-03    -142.882E-03    -253.074E-03    -243.587E-03     386.469E-03    -142.882E-03     155.594E-03     424.816E-03     133.298E+06     107.277E+06     20.3714E+06    -43.0941E+06    -28.9077E+06     6.18495E+06     107.277E+06    -23.5062E+06
            2073     152.996E-03     12.9429E-03     152.447E-03     404.212E-03    -149.259E-03    -254.952E-03    -245.786E-03     395.046E-03    -149.259E-03     154.225E-03     441.971E-03     130.986E+06     116.481E+06     35.2565E+06    -31.7676E+06    -19.2173E+06     22.7062E+06     116.481E+06    -12.3807E+06
            2074     153.370E-03     13.7281E-03     152.754E-03     406.855E-03    -154.857E-03    -251.998E-03    -243.439E-03     398.296E-03    -154.857E-03     149.149E-03     461.612E-03     130.129E+06     126.769E+06     45.2606E+06    -21.2790E+06    -12.5432E+06     36.5248E+06     126.769E+06    -7.49788E+06
            2075     153.671E-03     14.5047E-03     152.984E-03     397.634E-03    -159.678E-03    -237.956E-03    -231.526E-03     391.204E-03    -159.678E-03     126.072E-03     460.147E-03     171.253E+06     174.386E+06     54.3211E+06    -19.8047E+06    -6.86838E+06     41.3848E+06     174.386E+06    -4.39955E+06
            2076     150.054E-03     929.176E-06     150.051E-03     156.920E-03    -77.8235E-03    -79.0963E-03    -78.5698E-03     156.807E-03    -78.2368E-03    -7.19011E-03     157.282E-03     56.6584E+06    -56.6548E+06    -104.072E+06    -118.398E+06    -107.035E+06    -68.0182E+06    -104.072E+06    -21.7280E+06
            2077     150.104E-03     1.85460E-03     150.092E-03     163.601E-03    -80.1280E-03    -83.4731E-03    -83.0808E-03     163.209E-03    -80.1280E-03    -14.1224E-03     164.551E-03     83.8723E+06     -33.135E+06    -87.8724E+06    -127.805E+06    -105.723E+06    -55.2170E+06    -87.8724E+06    -39.5775E+06
            2078     150.188E-03     2.77361E-03     150.163E-03     173.031E-03    -83.2882E-03    -89.7430E-03    -88.8735E-03     172.162E-03    -83.2882E-03    -20.3010E-03     175.117E-03     103.100E+06    -18.5732E+06    -68.5460E+06    -135.408E+06    -101.912E+06    -52.0687E+06    -68.5460E+06    -52.1369E+06
            2079     150.315E-03     3.68459E-03     150.270E-03     184.273E-03    -87.2683E-03    -97.0044E-03    -95.5777E-03     182.846E-03    -87.2683E-03    -22.9876E-03     187.964E-03     118.768E+06    -4.91444E+06    -51.6348E+06    -138.749E+06    -96.0351E+06    -47.6284E+06    -51.6348E+06    -61.6434E+06
            2080     150.486E-03     4.58494E-03     150.416E-03     198.521E-03    -92.0922E-03    -106.429E-03    -104.555E-03     196.648E-03    -92.0922E-03    -20.6894E-03     204.005E-03     133.394E+06     5.88674E+06    -38.0674E+06    -142.242E+06    -90.2872E+06    -46.0679E+06    -38.0674E+06    -69.9965E+06
            2081     150.711E-03     5.47009E-03     150.612E-03     216.547E-03    -97.9281E-03    -118.619E-03    -116.277E-03     214.205E-03    -97.9281E-03    -14.4211E-03     223.769E-03     143.560E+06     10.6867E+06    -26.5065E+06    -145.739E+06    -85.9144E+06    -49.1382E+06    -26.5065E+06    -75.4049E+06
            2082     150.991E-03     6.34114E-03     150.858E-03     237.758E-03    -104.803E-03    -132.955E-03    -130.158E-03     234.960E-03    -104.803E-03    -7.11972E-03     246.714E-03     152.601E+06     18.6932E+06    -14.5570E+06    -145.943E+06    -81.8567E+06    -45.6893E+06    -14.2603E+06    -79.8422E+06
            2083     151.331E-03     7.18869E-03     151.160E-03     259.638E-03    -112.474E-03    -147.164E-03    -144.027E-03     256.500E-03    -112.474E-03     1.85363E-03     270.252E-03     159.858E+06     27.2272E+06    -5.45125E+06    -145.040E+06    -79.7147E+06    -40.3394E+06    -3.21019E+06    -82.5652E+06
            2084     151.720E-03     8.02340E-03     151.508E-03     280.097E-03    -120.483E-03    -159.614E-03    -156.252E-03     276.734E-03    -120.483E-03     11.4234E-03     292.338E-03     161.881E+06     29.5146E+06    -5.44579E+06    -146.493E+06    -81.8147E+06    -44.0507E+06     3.44164E+06    -81.3218E+06
            2085     152.148E-03     8.84286E-03     151.890E-03     299.117E-03    -127.889E-03    -171.228E-03    -167.394E-03     295.797E-03    -128.402E-03     22.1491E-03     313.117E-03     165.121E+06     31.6222E+06    -4.44194E+06    -148.513E+06    -85.2363E+06    -46.4753E+06     10.3791E+06    -80.1135E+06
            2086     152.607E-03     9.64860E-03     152.302E-03     313.986E-03    -132.852E-03    -181.134E-03    -174.865E-03     310.644E-03    -135.779E-03     36.6147E-03     329.922E-03     169.922E+06     38.0165E+06     1.73889E+06    -146.633E+06    -87.3647E+06    -42.0045E+06     22.4920E+06    -78.4234E+06
            2087     153.074E-03     10.4585E-03     152.716E-03     324.789E-03    -136.498E-03    -188.291E-03    -179.135E-03     321.302E-03    -142.167E-03     55.4816E-03     343.154E-03     168.862E+06     51.9207E+06     14.6276E+06    -131.786E+06    -84.9501E+06    -26.1420E+06     45.8540E+06    -69.4544E+06
            2088     153.545E-03     11.2598E-03     153.131E-03     335.303E-03    -141.790E-03    -193.513E-03    -183.831E-03     331.240E-03    -147.409E-03     79.3730E-03     357.237E-03     165.851E+06     75.8291E+06     17.8012E+06    -109.588E+06    -71.4659E+06    -20.3210E+06     75.8291E+06    -57.3893E+06
            2089     153.996E-03     12.0701E-03     153.522E-03     347.444E-03    -149.182E-03    -198.262E-03    -190.284E-03     341.829E-03    -151.546E-03     106.513E-03     375.393E-03     157.646E+06     91.2456E+06     8.89281E+06    -87.6432E+06    -55.8910E+06    -22.8594E+06     91.2456E+06    -44.9996E+06
            2090     154.427E-03     12.8742E-03     153.889E-03     360.185E-03    -154.883E-03    -205.302E-03    -197.425E-03     352.308E-03    -154.883E-03     131.568E-03     397.353E-03     155.836E+06     109.284E+06     23.6662E+06    -66.2068E+06    -34.8988E+06    -7.64177E+06     109.284E+06    -31.7016E+06
            2091     154.807E-03     13.6803E-03     154.201E-03     373.810E-03    -157.861E-03    -215.949E-03    -206.330E-03     364.190E-03    -157.861E-03     148.098E-03     429.861E-03     153.089E+06     139.700E+06     38.3578E+06    -32.5298E+06    -13.5004E+06     19.3284E+06     139.700E+06    -13.0230E+06
            2092     155.141E-03     14.4989E-03     154.462E-03     375.047E-03    -160.738E-03    -214.309E-03    -207.388E-03     368.125E-03    -160.738E-03     122.726E-03     445.747E-03     179.988E+06     183.376E+06     54.7277E+06    -21.4547E+06     848.958E+03     32.4241E+06     183.376E+06     1.60077E+06
            2093     151.255E-03     894.751E-06     151.253E-03     238.879E-03    -118.908E-03    -119.971E-03    -119.045E-03     238.125E-03    -119.080E-03    -29.7759E-03     240.558E-03     54.6133E+06     17.8362E+06     1.42149E+06    -41.0347E+06    -885.313E+03    -25.8548E+06     4.96310E+06    -14.5343E+06
            2094     151.316E-03     1.78433E-03     151.305E-03     245.544E-03    -121.452E-03    -124.092E-03    -121.927E-03     243.378E-03    -121.452E-03    -53.3713E-03     247.522E-03     68.2638E+06     31.0036E+06     8.87726E+06    -44.7432E+06    -3.25823E+06    -18.4616E+06     16.8575E+06    -21.7546E+06
            2095     151.408E-03     2.66432E-03     151.384E-03     255.132E-03    -124.938E-03    -130.194E-03    -125.818E-03     250.756E-03    -124.938E-03    -78.7185E-03     257.865E-03     82.4312E+06     41.3896E+06     14.5396E+06    -50.8615E+06    -4.74285E+06    -20.1883E+06     29.9989E+06    -28.5276E+06
            2096     151.539E-03     3.53612E-03     151.498E-03     266.122E-03    -129.427E-03    -136.695E-03    -129.374E-03     258.801E-03    -129.427E-03    -103.739E-03     270.033E-03     94.0915E+06     52.2480E+06     17.6208E+06    -53.0956E+06    -6.04439E+06    -18.8709E+06     41.6884E+06    -33.6552E+06
            2097     151.715E-03     4.39887E-03     151.651E-03     277.754E-03    -134.832E-03    -142.921E-03    -131.810E-03     266.642E-03    -134.832E-03    -127.996E-03     283.429E-03     104.406E+06     60.4929E+06     20.6532E+06    -54.3494E+06    -8.82188E+06    -17.7600E+06     53.3786E+06    -36.7869E+06
            2098     151.946E-03     5.24992E-03     151.855E-03     288.399E-03    -140.688E-03    -147.711E-03    -132.115E-03     273.124E-03    -141.010E-03    -148.929E-03     296.362E-03     115.322E+06     64.7094E+06     21.3512E+06    -59.2894E+06    -13.0190E+06    -22.4635E+06     62.2536E+06    -38.3993E+06
            2099     152.233E-03     6.08261E-03     152.112E-03     296.085E-03    -142.995E-03    -153.090E-03    -129.692E-03     277.310E-03    -147.618E-03    -162.387E-03     306.964E-03     122.980E+06     70.8174E+06     24.1635E+06    -59.8072E+06    -17.1255E+06    -17.7967E+06     70.0959E+06    -40.5305E+06
            2100     152.576E-03     6.90523E-03     152.420E-03     299.697E-03    -140.994E-03    -158.703E-03    -124.364E-03     278.556E-03    -154.192E-03    -167.490E-03     314.342E-03     128.058E+06     75.5524E+06     22.0163E+06    -59.5747E+06    -22.8073E+06    -14.7511E+06     75.5524E+06    -38.8018E+06
            2101     152.962E-03     7.71881E-03     152.767E-03     299.342E-03    -136.371E-03    -162.971E-03    -117.394E-03     277.665E-03    -160.271E-03    -163.394E-03     318.540E-03     130.868E+06     80.7608E+06     15.8711E+06    -59.3384E+06    -26.5660E+06    -16.9013E+06     80.7608E+06    -35.6035E+06
            2102     153.396E-03     8.52570E-03     153.159E-03     294.588E-03    -128.205E-03    -166.383E-03    -109.191E-03     274.574E-03    -165.383E-03    -148.322E-03     319.152E-03     135.270E+06     87.4439E+06     12.9285E+06    -59.4938E+06    -28.3918E+06    -18.1734E+06     87.4439E+06    -32.3433E+06
            2103     153.853E-03     9.34178E-03     153.569E-03     286.067E-03    -117.023E-03    -169.044E-03    -100.386E-03     269.430E-03    -169.044E-03    -124.698E-03     316.724E-03     138.894E+06     96.3276E+06     15.0539E+06    -56.2591E+06    -27.4098E+06    -13.7955E+06     96.3276E+06    -31.3335E+06
            2104     154.326E-03     10.1638E-03     153.991E-03     276.243E-03    -105.276E-03    -170.968E-03    -92.6546E-03     263.622E-03    -170.968E-03    -93.6600E-03     313.616E-03     141.054E+06     100.201E+06     14.7969E+06    -55.7885E+06    -26.3018E+06    -14.6898E+06     100.201E+06    -29.2999E+06
            2105     154.804E-03     11.0129E-03     154.412E-03     267.948E-03    -96.7340E-03    -171.214E-03    -87.6559E-03     258.870E-03    -171.214E-03    -55.9831E-03     312.414E-03     141.444E+06     102.949E+06     18.1832E+06    -54.6568E+06    -26.3568E+06    -10.1169E+06     102.949E+06    -28.3621E+06
            2106     155.282E-03     11.8746E-03     154.828E-03     265.060E-03    -93.7929E-03    -171.267E-03    -87.9558E-03     258.100E-03    -170.144E-03    -15.0028E-03     318.316E-03     148.959E+06     100.091E+06     15.8509E+06    -68.3368E+06    -32.2129E+06    -20.2730E+06     100.091E+06    -27.1488E+06
            2107     155.747E-03     12.7549E-03     155.224E-03     270.453E-03    -95.6213E-03    -174.832E-03    -94.8665E-03     263.223E-03    -168.357E-03     20.8721E-03     334.185E-03     162.748E+06     109.645E+06     27.1161E+06    -75.3957E+06    -36.0487E+06    -12.2309E+06     109.645E+06    -32.4873E+06
            2108     156.174E-03     13.6402E-03     155.577E-03     284.944E-03    -101.415E-03    -183.530E-03    -111.247E-03     277.771E-03    -166.525E-03     55.5501E-03     364.962E-03     176.097E+06     130.640E+06     25.9358E+06    -69.9096E+06    -27.7266E+06    -16.2472E+06     130.640E+06    -21.6917E+06
            2109     156.567E-03     14.4810E-03     155.896E-03     293.514E-03    -108.681E-03    -184.833E-03    -124.812E-03     289.575E-03    -164.763E-03     57.8441E-03     385.699E-03     185.185E+06     154.312E+06     51.5254E+06    -52.9406E+06    -2.76535E+06     1.35012E+06     154.312E+06    -2.29927E+06


